<?xml version="1.0"?>
<VTKFile type="UnstructuredGrid">
  <UnstructuredGrid>
  <Piece NumberOfPoints="12411"  NumberOfCells="1379">
    <Points>
      <DataArray type="Float64" NumberOfComponents="3" format="ascii">
0 0 0
2.52499 -0.00650149 0
2.53027 4.28353 0
0 4.28571 0
1.26191 -0.00405804 0
2.52822 2.13893 0
1.26525 4.28493 0
0 2.14286 0
1.26434 2.14113 0
2.52499 -0.00650149 0
5.05174 -0.0112769 0
5.05989 4.27939 0
2.53027 4.28353 0
3.78835 -0.00879893 0
5.05602 2.13431 0
3.79512 4.28166 0
2.52822 2.13893 0
3.79209 2.13669 0
5.05174 -0.0112769 0
7.57839 -0.0170396 0
7.58943 4.2737 0
5.05989 4.27939 0
6.31509 -0.0139889 0
7.58397 2.12852 0
6.32465 4.27674 0
5.05602 2.13431 0
6.31998 2.1316 0
7.57839 -0.0170396 0
10.1049 -0.0244609 0
10.119 4.26629 0
7.58943 4.2737 0
8.84168 -0.0205255 0
10.112 2.12111 0
8.85421 4.27022 0
7.58397 2.12852 0
8.84798 2.12503 0
10.1049 -0.0244609 0
12.6314 -0.0336933 0
12.6487 4.25703 0
10.119 4.26629 0
11.3682 -0.0288444 0
12.6401 2.11187 0
11.3838 4.26189 0
10.112 2.12111 0
11.376 2.11673 0
12.6314 -0.0336933 0
15.1579 -0.0448405 0
15.1784 4.24585 0
12.6487 4.25703 0
13.8947 -0.0390252 0
15.1682 2.10071 0
13.9135 4.25168 0
12.6401 2.11187 0
13.9041 2.10653 0
15.1579 -0.0448405 0
17.6844 -0.0579162 0
17.7081 4.23273 0
15.1784 4.24585 0
16.4211 -0.0511367 0
17.6963 2.08761 0
16.4432 4.23953 0
15.1682 2.10071 0
16.4322 2.0944 0
17.6844 -0.0579162 0
20.2109 -0.0729325 0
20.2379 4.21767 0
17.7081 4.23273 0
18.9476 -0.0651819 0
20.2244 2.07258 0
18.973 4.22544 0
17.6963 2.08761 0
18.9603 2.08034 0
20.2109 -0.0729325 0
22.7374 -0.0898817 0
22.7677 4.20067 0
20.2379 4.21767 0
21.4742 -0.081166 0
22.7526 2.0556 0
21.5028 4.20941 0
20.2244 2.07258 0
21.4885 2.06433 0
22.7374 -0.0898817 0
25.264 -0.108757 0
25.2975 4.18175 0
22.7677 4.20067 0
24.0007 -0.0990792 0
25.2808 2.0367 0
24.0326 4.19145 0
22.7526 2.0556 0
24.0167 2.04639 0
25.264 -0.108757 0
27.7907 -0.129547 0
27.8274 4.1609 0
25.2975 4.18175 0
26.5273 -0.118913 0
27.8091 2.01588 0
26.5625 4.17157 0
25.2808 2.0367 0
26.545 2.02653 0
27.7907 -0.129547 0
30.3173 -0.152242 0
30.3573 4.13815 0
27.8274 4.1609 0
29.054 -0.140657 0
30.3374 1.99316 0
29.0924 4.14977 0
27.8091 2.01588 0
29.0732 2.00476 0
30.3173 -0.152242 0
32.8441 -0.176831 0
32.8872 4.11351 0
30.3573 4.13815 0
31.5807 -0.1643 0
32.8657 1.96854 0
31.6223 4.12607 0
30.3374 1.99316 0
31.6015 1.98109 0
32.8441 -0.176831 0
35.3708 -0.203303 0
35.4172 4.08698 0
32.8872 4.11351 0
34.1074 -0.189832 0
35.3941 1.94204 0
34.1522 4.10048 0
32.8657 1.96854 0
34.1299 1.95553 0
35.3708 -0.203303 0
37.8976 -0.231648 0
37.9472 4.05857 0
35.4172 4.08698 0
36.6342 -0.217242 0
37.9225 1.91366 0
36.6822 4.07301 0
35.3941 1.94204 0
36.6583 1.92808 0
37.8976 -0.231648 0
40.4245 -0.261857 0
40.4772 4.0283 0
37.9472 4.05857 0
39.1611 -0.24652 0
40.4509 1.88342 0
39.2122 4.04367 0
37.9225 1.91366 0
39.1867 1.89877 0
40.4245 -0.261857 0
42.9514 -0.293917 0
43.0072 3.99617 0
40.4772 4.0283 0
41.6879 -0.277656 0
42.9793 1.85132 0
41.7422 4.01246 0
40.4509 1.88342 0
41.7151 1.8676 0
42.9514 -0.293917 0
45.4783 -0.32782 0
45.5372 3.9622 0
43.0072 3.99617 0
44.2148 -0.310639 0
45.5078 1.81739 0
44.2722 3.97941 0
42.9793 1.85132 0
44.2436 1.83459 0
45.4783 -0.32782 0
48.0052 -0.363556 0
48.0673 3.92639 0
45.5372 3.9622 0
46.7418 -0.34546 0
48.0363 1.78162 0
46.8023 3.94452 0
45.5078 1.81739 0
46.7721 1.79973 0
48.0052 -0.363556 0
50.5322 -0.401113 0
50.5974 3.88876 0
48.0673 3.92639 0
49.2687 -0.382107 0
50.5648 1.74402 0
49.3323 3.90781 0
48.0363 1.78162 0
49.3006 1.76305 0
50.5322 -0.401113 0
53.0593 -0.440482 0
53.1274 3.84932 0
50.5974 3.88876 0
51.7957 -0.420572 0
53.0934 1.70461 0
51.8624 3.86927 0
50.5648 1.74402 0
51.8291 1.72454 0
53.0593 -0.440482 0
55.5863 -0.481652 0
55.6576 3.80807 0
53.1274 3.84932 0
54.3228 -0.460843 0
55.622 1.6634 0
54.3925 3.82892 0
53.0934 1.70461 0
54.3577 1.68423 0
55.5863 -0.481652 0
58.1134 -0.524615 0
58.1877 3.76503 0
55.6576 3.80807 0
56.8499 -0.50291 0
58.1506 1.6204 0
56.9226 3.78678 0
55.622 1.6634 0
56.8863 1.64213 0
58.1134 -0.524615 0
60.6405 -0.569358 0
60.7178 3.72021 0
58.1877 3.76503 0
59.377 -0.546764 0
60.6792 1.57562 0
59.4527 3.74285 0
58.1506 1.6204 0
59.4149 1.59823 0
60.6405 -0.569358 0
63.1677 -0.615872 0
63.2479 3.67362 0
60.7178 3.72021 0
61.9041 -0.592394 0
63.2079 1.52906 0
61.9829 3.69714 0
60.6792 1.57562 0
61.9435 1.55256 0
63.1677 -0.615872 0
65.6949 -0.664147 0
65.7781 3.62526 0
63.2479 3.67362 0
64.4313 -0.63979 0
65.7365 1.48074 0
64.513 3.64966 0
63.2079 1.52906 0
64.4722 1.50512 0
65.6949 -0.664147 0
68.2221 -0.714173 0
68.3083 3.57515 0
65.7781 3.62526 0
66.9585 -0.688942 0
68.2652 1.43067 0
67.0432 3.60042 0
65.7365 1.48074 0
67.0009 1.45593 0
68.2221 -0.714173 0
70.7493 -0.765939 0
70.8384 3.52329 0
68.3083 3.57515 0
69.4857 -0.739839 0
70.7939 1.37886 0
69.5733 3.54944 0
68.2652 1.43067 0
69.5296 1.40499 0
70.7493 -0.765939 0
73.2765 -0.819436 0
73.3686 3.46971 0
70.8384 3.52329 0
72.0129 -0.792472 0
73.3226 1.32532 0
72.1035 3.49672 0
70.7939 1.37886 0
72.0583 1.35231 0
73.2765 -0.819436 0
75.8038 -0.874653 0
75.8988 3.4144 0
73.3686 3.46971 0
74.5402 -0.84683 0
75.8514 1.27006 0
74.6337 3.44227 0
73.3226 1.32532 0
74.587 1.2979 0
75.8038 -0.874653 0
78.3311 -0.931579 0
78.429 3.35739 0
75.8988 3.4144 0
77.0675 -0.902903 0
78.3801 1.21309 0
77.1639 3.38611 0
75.8514 1.27006 0
77.1157 1.24179 0
78.3311 -0.931579 0
80.8584 -0.990206 0
80.9592 3.29867 0
78.429 3.35739 0
79.5948 -0.960681 0
80.9089 1.15441 0
79.6941 3.32824 0
78.3801 1.21309 0
79.6445 1.18396 0
80.8584 -0.990206 0
83.3858 -1.05052 0
83.4894 3.23826 0
80.9592 3.29867 0
82.1221 -1.02015 0
83.4376 1.09405 0
82.2243 3.26867 0
80.9089 1.15441 0
82.1733 1.12444 0
83.3858 -1.05052 0
85.9132 -1.11252 0
86.0196 3.17616 0
83.4894 3.23826 0
84.6495 -1.08131 0
85.9664 1.032 0
84.7545 3.20742 0
83.4376 1.09405 0
84.702 1.06323 0
85.9132 -1.11252 0
88.4405 -1.17618 0
88.5498 3.1124 0
86.0196 3.17616 0
87.1769 -1.14414 0
88.4952 0.968289 0
87.2847 3.14449 0
85.9664 1.032 0
87.2308 1.00035 0
88.4405 -1.17618 0
90.968 -1.2415 0
91.08 3.04698 0
88.5498 3.1124 0
89.7042 -1.20864 0
91.024 0.902915 0
89.8149 3.0799 0
88.4952 0.968289 0
89.7596 0.935809 0
90.968 -1.2415 0
93.4954 -1.30848 0
93.6102 2.97991 0
91.08 3.04698 0
92.2317 -1.27479 0
93.5528 0.835892 0
92.3451 3.01365 0
91.024 0.902915 0
92.2884 0.869609 0
93.4954 -1.30848 0
96.0228 -1.37709 0
96.1404 2.9112 0
93.6102 2.97991 0
94.7591 -1.34258 0
96.0817 0.767229 0
94.8753 2.94576 0
93.5528 0.835892 0
94.8173 0.801765 0
96.0228 -1.37709 0
98.5503 -1.44733 0
98.6706 2.84086 0
96.1404 2.9112 0
97.2865 -1.412 0
98.6105 0.696938 0
97.4055 2.87623 0
96.0817 0.767229 0
97.3461 0.732287 0
98.5503 -1.44733 0
101.078 -1.51918 0
101.201 2.76889 0
98.6706 2.84086 0
99.814 -1.48305 0
101.139 0.625028 0
99.9357 2.80508 0
98.6105 0.696938 0
99.8749 0.661184 0
101.078 -1.51918 0
103.605 -1.59265 0
103.731 2.69532 0
101.201 2.76889 0
102.341 -1.55572 0
103.668 0.551509 0
102.466 2.73231 0
101.139 0.625028 0
102.404 0.588469 0
103.605 -1.59265 0
106.133 -1.66771 0
106.261 2.62015 0
103.731 2.69532 0
104.869 -1.62998 0
106.197 0.476391 0
104.996 2.65794 0
103.668 0.551509 0
104.933 0.514149 0
106.133 -1.66771 0
108.66 -1.74436 0
108.791 2.5434 0
106.261 2.62015 0
107.396 -1.70584 0
108.726 0.399686 0
107.526 2.58197 0
106.197 0.476391 0
107.461 0.438237 0
108.66 -1.74436 0
111.188 -1.82259 0
111.322 2.46506 0
108.791 2.5434 0
109.924 -1.78328 0
111.255 0.321403 0
110.057 2.50442 0
108.726 0.399686 0
109.99 0.360741 0
111.188 -1.82259 0
113.715 -1.90238 0
113.852 2.38516 0
111.322 2.46506 0
112.452 -1.86229 0
113.784 0.241552 0
112.587 2.4253 0
111.255 0.321403 0
112.519 0.281673 0
113.715 -1.90238 0
116.243 -1.98374 0
116.382 2.30369 0
113.852 2.38516 0
114.979 -1.94287 0
116.312 0.160143 0
115.117 2.34462 0
113.784 0.241552 0
115.048 0.201042 0
116.243 -1.98374 0
118.77 -2.06664 0
118.912 2.22068 0
116.382 2.30369 0
117.507 -2.02499 0
118.841 0.0771877 0
117.647 2.26238 0
116.312 0.160143 0
117.577 0.118858 0
118.77 -2.06664 0
121.298 -2.15107 0
121.442 2.13613 0
118.912 2.22068 0
120.034 -2.10866 0
121.37 -0.00730511 0
120.177 2.1786 0
118.841 0.0771877 0
120.106 0.0351328 0
121.298 -2.15107 0
123.826 -2.23703 0
123.972 2.05006 0
121.442 2.13613 0
122.562 -2.19386 0
123.899 -0.0933247 0
122.707 2.09329 0
121.37 -0.00730511 0
122.635 -0.0501247 0
123.826 -2.23703 0
126.353 -2.32451 0
126.503 1.96247 0
123.972 2.05006 0
125.089 -2.28058 0
126.428 -0.180861 0
125.238 2.00645 0
123.899 -0.0933247 0
125.164 -0.136904 0
126.353 -2.32451 0
128.881 -2.41349 0
129.033 1.87337 0
126.503 1.96247 0
127.617 -2.36881 0
128.957 -0.269904 0
127.768 1.9181 0
126.428 -0.180861 0
127.692 -0.225195 0
128.881 -2.41349 0
131.408 -2.50397 0
131.563 1.78277 0
129.033 1.87337 0
130.145 -2.45855 0
131.486 -0.360442 0
130.298 1.82826 0
128.957 -0.269904 0
130.221 -0.314987 0
131.408 -2.50397 0
133.936 -2.59594 0
134.093 1.69069 0
131.563 1.78277 0
132.672 -2.54977 0
134.015 -0.452467 0
132.828 1.73691 0
131.486 -0.360442 0
132.75 -0.40627 0
133.936 -2.59594 0
136.464 -2.68938 0
136.623 1.59713 0
134.093 1.69069 0
135.2 -2.64247 0
136.543 -0.545967 0
135.358 1.64409 0
134.015 -0.452467 0
135.279 -0.499033 0
136.464 -2.68938 0
138.991 -2.78428 0
139.153 1.50211 0
136.623 1.59713 0
137.727 -2.73665 0
139.072 -0.640933 0
137.888 1.5498 0
136.543 -0.545967 0
137.808 -0.593268 0
138.991 -2.78428 0
141.519 -2.88064 0
141.683 1.40563 0
139.153 1.50211 0
140.255 -2.83228 0
141.601 -0.737355 0
140.418 1.45405 0
139.072 -0.640933 0
140.337 -0.688963 0
141.519 -2.88064 0
144.047 -2.97845 0
144.213 1.3077 0
141.683 1.40563 0
142.783 -2.92937 0
144.13 -0.835221 0
142.948 1.35684 0
141.601 -0.737355 0
142.866 -0.786108 0
144.047 -2.97845 0
146.574 -3.07769 0
146.743 1.20834 0
144.213 1.3077 0
145.31 -3.02789 0
146.659 -0.934522 0
145.478 1.2582 0
144.13 -0.835221 0
145.394 -0.884693 0
146.574 -3.07769 0
149.102 -3.17835 0
149.274 1.10755 0
146.743 1.20834 0
147.838 -3.12784 0
149.188 -1.03525 0
148.009 1.15812 0
146.659 -0.934522 0
147.923 -0.984707 0
149.102 -3.17835 0
151.629 -3.28043 0
151.804 1.00535 0
149.274 1.10755 0
150.366 -3.22921 0
151.717 -1.13739 0
150.539 1.05663 0
149.188 -1.03525 0
150.452 -1.08614 0
151.629 -3.28043 0
154.157 -3.38391 0
154.334 0.901749 0
151.804 1.00535 0
152.893 -3.33199 0
154.245 -1.24093 0
153.069 0.953727 0
151.717 -1.13739 0
152.981 -1.18899 0
154.157 -3.38391 0
156.685 -3.48879 0
156.864 0.79675 0
154.334 0.901749 0
155.421 -3.43617 0
156.774 -1.34587 0
155.599 0.849424 0
154.245 -1.24093 0
155.51 -1.29323 0
156.685 -3.48879 0
159.212 -3.59504 0
159.394 0.690368 0
156.864 0.79675 0
157.949 -3.54174 0
159.303 -1.45219 0
158.129 0.743731 0
156.774 -1.34587 0
158.039 -1.39886 0
159.212 -3.59504 0
161.74 -3.70268 0
161.924 0.582611 0
159.394 0.690368 0
160.476 -3.64869 0
161.832 -1.55989 0
160.659 0.63666 0
159.303 -1.45219 0
160.567 -1.50587 0
161.74 -3.70268 0
164.268 -3.81167 0
164.454 0.473491 0
161.924 0.582611 0
163.004 -3.757 0
164.361 -1.66895 0
163.189 0.52822 0
161.832 -1.55989 0
163.096 -1.61425 0
164.268 -3.81167 0
166.795 -3.92202 0
166.984 0.363017 0
164.454 0.473491 0
165.532 -3.86668 0
166.89 -1.77936 0
165.719 0.418422 0
164.361 -1.66895 0
165.625 -1.72398 0
166.795 -3.92202 0
169.323 -4.03371 0
169.513 0.2512 0
166.984 0.363017 0
168.059 -3.9777 0
169.418 -1.89111 0
168.248 0.307276 0
166.89 -1.77936 0
168.154 -1.83507 0
169.323 -4.03371 0
171.851 -4.14673 0
172.043 0.138051 0
169.513 0.2512 0
170.587 -4.09005 0
171.947 -2.0042 0
170.778 0.194792 0
169.418 -1.89111 0
170.683 -1.94749 0
171.851 -4.14673 0
174.379 -4.26108 0
174.573 0.023579 0
172.043 0.138051 0
173.115 -4.20374 0
174.476 -2.11861 0
173.308 0.0809797 0
171.947 -2.0042 0
173.212 -2.06124 0
174.379 -4.26108 0
176.906 -4.37673 0
177.103 -0.0922053 0
174.573 0.023579 0
175.642 -4.31874 0
177.005 -2.23433 0
175.838 -0.0341497 0
174.476 -2.11861 0
175.74 -2.17631 0
176.906 -4.37673 0
179.434 -4.49369 0
179.633 -0.209292 0
177.103 -0.0922053 0
178.17 -4.43505 0
179.534 -2.35136 0
178.368 -0.150586 0
177.005 -2.23433 0
178.269 -2.29268 0
179.434 -4.49369 0
181.962 -4.61194 0
182.163 -0.32767 0
179.633 -0.209292 0
180.698 -4.55266 0
182.062 -2.46967 0
180.898 -0.26832 0
179.534 -2.35136 0
180.798 -2.41035 0
181.962 -4.61194 0
184.489 -4.73147 0
184.693 -0.44733 0
182.163 -0.32767 0
183.225 -4.67155 0
184.591 -2.58927 0
183.428 -0.38734 0
182.062 -2.46967 0
183.327 -2.52931 0
184.489 -4.73147 0
187.017 -4.85228 0
187.223 -0.568261 0
184.693 -0.44733 0
185.753 -4.79172 0
187.12 -2.71014 0
185.958 -0.507637 0
184.591 -2.58927 0
185.855 -2.64954 0
187.017 -4.85228 0
189.545 -4.97434 0
189.752 -0.690454 0
187.223 -0.568261 0
188.281 -4.91315 0
189.649 -2.83227 0
188.487 -0.629201 0
187.12 -2.71014 0
188.384 -2.77104 0
189.545 -4.97434 0
192.072 -5.09766 0
192.282 -0.813897 0
189.752 -0.690454 0
190.808 -5.03584 0
192.177 -2.95565 0
191.017 -0.75202 0
189.649 -2.83227 0
190.913 -2.8938 0
192.072 -5.09766 0
194.6 -5.22221 0
194.812 -0.938581 0
192.282 -0.813897 0
193.336 -5.15978 0
194.706 -3.08027 0
193.547 -0.876085 0
192.177 -2.95565 0
193.442 -3.0178 0
194.6 -5.22221 0
197.128 -5.348 0
197.342 -1.0645 0
194.812 -0.938581 0
195.864 -5.28495 0
197.235 -3.20612 0
196.077 -1.00139 0
194.706 -3.08027 0
195.97 -3.14304 0
197.128 -5.348 0
199.655 -5.475 0
199.871 -1.19163 0
197.342 -1.0645 0
198.392 -5.41135 0
199.763 -3.33319 0
198.607 -1.12791 0
197.235 -3.20612 0
198.499 -3.2695 0
199.655 -5.475 0
202.183 -5.60322 0
202.401 -1.31998 0
199.871 -1.19163 0
200.919 -5.53896 0
202.292 -3.46147 0
201.136 -1.25565 0
199.763 -3.33319 0
201.028 -3.39718 0
202.183 -5.60322 0
204.711 -5.73263 0
204.931 -1.44952 0
202.401 -1.31998 0
203.447 -5.66777 0
204.821 -3.59095 0
203.666 -1.3846 0
202.292 -3.46147 0
203.556 -3.52606 0
204.711 -5.73263 0
207.238 -5.86324 0
207.461 -1.58025 0
204.931 -1.44952 0
205.975 -5.79779 0
207.35 -3.72162 0
206.196 -1.51474 0
204.821 -3.59095 0
206.085 -3.65614 0
207.238 -5.86324 0
209.766 -5.99502 0
209.99 -1.71217 0
207.461 -1.58025 0
208.502 -5.92898 0
209.878 -3.85347 0
208.725 -1.64606 0
207.35 -3.72162 0
208.614 -3.7874 0
209.766 -5.99502 0
212.294 -6.12797 0
212.52 -1.84525 0
209.99 -1.71217 0
211.03 -6.06135 0
212.407 -3.98649 0
211.255 -1.77856 0
209.878 -3.85347 0
211.143 -3.91983 0
212.294 -6.12797 0
214.821 -6.26208 0
215.049 -1.97949 0
212.52 -1.84525 0
213.558 -6.19488 0
214.936 -4.12067 0
213.785 -1.91223 0
212.407 -3.98649 0
213.671 -4.05343 0
214.821 -6.26208 0
217.349 -6.39734 0
217.579 -2.11488 0
215.049 -1.97949 0
216.085 -6.32957 0
217.464 -4.25599 0
216.314 -2.04704 0
214.936 -4.12067 0
216.2 -4.18819 0
217.349 -6.39734 0
219.877 -6.53374 0
220.109 -2.25141 0
217.579 -2.11488 0
218.613 -6.4654 0
219.993 -4.39246 0
218.844 -2.183 0
217.464 -4.25599 0
218.729 -4.32408 0
219.877 -6.53374 0
222.405 -6.67127 0
222.638 -2.38906 0
220.109 -2.25141 0
221.141 -6.60236 0
222.521 -4.53005 0
221.373 -2.3201 0
219.993 -4.39246 0
221.257 -4.46111 0
222.405 -6.67127 0
224.932 -6.80991 0
225.168 -2.52784 0
222.638 -2.38906 0
223.668 -6.74045 0
225.05 -4.66876 0
223.903 -2.45831 0
222.521 -4.53005 0
223.786 -4.59926 0
224.932 -6.80991 0
227.46 -6.94967 0
227.697 -2.66772 0
225.168 -2.52784 0
226.196 -6.87965 0
227.579 -4.80858 0
226.433 -2.59764 0
225.05 -4.66876 0
226.314 -4.73853 0
227.46 -6.94967 0
229.988 -7.09052 0
230.227 -2.8087 0
227.697 -2.66772 0
228.724 -7.01995 0
230.107 -4.94949 0
228.962 -2.73807 0
227.579 -4.80858 0
228.843 -4.8789 0
229.988 -7.09052 0
232.515 -7.23245 0
232.756 -2.95076 0
230.227 -2.8087 0
231.251 -7.16135 0
232.636 -5.0915 0
231.492 -2.8796 0
230.107 -4.94949 0
231.372 -5.02036 0
232.515 -7.23245 0
235.043 -7.37547 0
235.286 -3.09391 0
232.756 -2.95076 0
233.779 -7.30383 0
235.164 -5.23458 0
234.021 -3.0222 0
232.636 -5.0915 0
233.9 -5.1629 0
235.043 -7.37547 0
237.571 -7.51955 0
237.815 -3.23812 0
235.286 -3.09391 0
236.307 -7.44738 0
237.693 -5.37872 0
236.551 -3.16588 0
235.164 -5.23458 0
236.429 -5.30652 0
237.571 -7.51955 0
240.098 -7.66469 0
240.345 -3.38338 0
237.815 -3.23812 0
238.834 -7.59199 0
240.222 -5.52393 0
239.08 -3.31062 0
237.693 -5.37872 0
238.957 -5.45119 0
240.098 -7.66469 0
242.626 -7.81087 0
242.874 -3.5297 0
240.345 -3.38338 0
241.362 -7.73765 0
242.75 -5.67018 0
241.61 -3.45641 0
240.222 -5.52393 0
241.486 -5.59692 0
242.626 -7.81087 0
245.154 -7.95809 0
245.404 -3.67705 0
242.874 -3.5297 0
243.89 -7.88435 0
245.279 -5.81746 0
244.139 -3.60324 0
242.75 -5.67018 0
244.014 -5.74369 0
245.154 -7.95809 0
247.681 -8.10634 0
247.933 -3.82542 0
245.404 -3.67705 0
246.418 -8.03209 0
247.807 -5.96577 0
246.668 -3.7511 0
245.279 -5.81746 0
246.543 -5.89149 0
247.681 -8.10634 0
250.209 -8.2556 0
250.463 -3.97481 0
247.933 -3.82542 0
248.945 -8.18084 0
250.336 -6.1151 0
249.198 -3.89999 0
247.807 -5.96577 0
249.072 -6.04031 0
250.209 -8.2556 0
252.737 -8.40587 0
252.992 -4.1252 0
250.463 -3.97481 0
251.473 -8.33061 0
252.864 -6.26543 0
251.727 -4.04988 0
250.336 -6.1151 0
251.6 -6.19014 0
252.737 -8.40587 0
255.264 -8.55713 0
255.521 -4.27659 0
252.992 -4.1252 0
254.001 -8.48138 0
255.393 -6.41676 0
254.257 -4.20078 0
252.864 -6.26543 0
254.129 -6.34097 0
255.264 -8.55713 0
257.792 -8.70938 0
258.051 -4.42897 0
255.521 -4.27659 0
256.528 -8.63314 0
257.921 -6.56908 0
256.786 -4.35266 0
255.393 -6.41676 0
256.657 -6.4928 0
257.792 -8.70938 0
260.32 -8.86261 0
260.58 -4.58232 0
258.051 -4.42897 0
259.056 -8.78588 0
260.45 -6.72236 0
259.315 -4.50552 0
257.921 -6.56908 0
259.186 -6.6456 0
260.32 -8.86261 0
262.848 -9.0168 0
263.109 -4.73663 0
260.58 -4.58232 0
261.584 -8.93958 0
262.978 -6.87662 0
261.845 -4.65936 0
260.45 -6.72236 0
261.714 -6.79937 0
262.848 -9.0168 0
265.375 -9.17194 0
265.639 -4.8919 0
263.109 -4.73663 0
264.111 -9.09425 0
265.507 -7.03182 0
264.374 -4.81415 0
262.978 -6.87662 0
264.243 -6.9541 0
265.375 -9.17194 0
267.903 -9.32803 0
268.168 -5.04811 0
265.639 -4.8919 0
266.639 -9.24987 0
268.035 -7.18797 0
266.903 -4.96989 0
265.507 -7.03182 0
266.771 -7.10978 0
267.903 -9.32803 0
270.431 -9.48505 0
270.697 -5.20526 0
268.168 -5.04811 0
269.167 -9.40642 0
270.564 -7.34506 0
269.433 -5.12657 0
268.035 -7.18797 0
269.3 -7.2664 0
270.431 -9.48505 0
272.958 -9.643 0
273.226 -5.36333 0
270.697 -5.20526 0
271.695 -9.56391 0
273.092 -7.50307 0
271.962 -5.28418 0
270.564 -7.34506 0
271.828 -7.42395 0
272.958 -9.643 0
275.486 -9.80186 0
275.756 -5.52231 0
273.226 -5.36333 0
274.222 -9.72232 0
275.621 -7.66199 0
274.491 -5.44271 0
273.092 -7.50307 0
274.357 -7.58242 0
275.486 -9.80186 0
278.014 -9.96162 0
278.285 -5.6822 0
275.756 -5.52231 0
276.75 -9.88163 0
278.149 -7.82182 0
277.02 -5.60214 0
275.621 -7.66199 0
276.885 -7.74179 0
278.014 -9.96162 0
280.542 -10.1223 0
280.814 -5.84298 0
278.285 -5.6822 0
279.278 -10.0418 0
280.678 -7.98254 0
279.55 -5.76248 0
278.149 -7.82182 0
279.414 -7.90207 0
280.542 -10.1223 0
283.069 -10.2838 0
283.343 -6.00464 0
280.814 -5.84298 0
281.805 -10.2029 0
283.206 -8.14414 0
282.079 -5.9237 0
280.678 -7.98254 0
281.942 -8.06323 0
283.069 -10.2838 0
285.597 -10.4462 0
285.873 -6.16717 0
283.343 -6.00464 0
284.333 -10.3649 0
285.735 -8.30661 0
284.608 -6.0858 0
283.206 -8.14414 0
284.471 -8.22527 0
285.597 -10.4462 0
288.125 -10.6095 0
288.402 -6.33057 0
285.873 -6.16717 0
286.861 -10.5278 0
288.263 -8.46995 0
287.137 -6.24876 0
285.735 -8.30661 0
286.999 -8.38817 0
288.125 -10.6095 0
290.653 -10.7736 0
290.931 -6.49481 0
288.402 -6.33057 0
289.389 -10.6915 0
290.792 -8.63414 0
289.666 -6.41258 0
288.263 -8.46995 0
289.528 -8.55194 0
290.653 -10.7736 0
293.18 -10.9386 0
293.46 -6.6599 0
290.931 -6.49481 0
291.916 -10.856 0
293.32 -8.79917 0
292.195 -6.57725 0
290.792 -8.63414 0
292.056 -8.71655 0
293.18 -10.9386 0
295.708 -11.1044 0
295.989 -6.82582 0
293.46 -6.6599 0
294.444 -11.0214 0
295.849 -8.96503 0
294.725 -6.74276 0
293.32 -8.79917 0
294.584 -8.882 0
295.708 -11.1044 0
298.236 -11.271 0
298.518 -6.99257 0
295.989 -6.82582 0
296.972 -11.1876 0
298.377 -9.13172 0
297.254 -6.90909 0
295.849 -8.96503 0
297.113 -9.04827 0
298.236 -11.271 0
300.764 -11.4385 0
301.047 -7.16012 0
298.518 -6.99257 0
299.5 -11.3547 0
300.906 -9.29921 0
299.783 -7.07624 0
298.377 -9.13172 0
299.641 -9.21536 0
300.764 -11.4385 0
303.291 -11.6067 0
303.577 -7.32847 0
301.047 -7.16012 0
302.027 -11.5225 0
303.434 -9.46751 0
302.312 -7.2442 0
300.906 -9.29921 0
302.17 -9.38326 0
303.291 -11.6067 0
305.819 -11.7757 0
306.106 -7.49762 0
303.577 -7.32847 0
304.555 -11.6911 0
305.962 -9.6366 0
304.841 -7.41295 0
303.434 -9.46751 0
304.698 -9.55195 0
305.819 -11.7757 0
308.347 -11.9456 0
308.635 -7.66754 0
306.106 -7.49762 0
307.083 -11.8605 0
308.491 -9.80647 0
307.37 -7.58248 0
305.962 -9.6366 0
307.227 -9.72143 0
308.347 -11.9456 0
310.875 -12.1161 0
311.164 -7.83823 0
308.635 -7.66754 0
309.611 -12.0307 0
311.019 -9.9771 0
309.899 -7.75279 0
308.491 -9.80647 0
309.755 -9.89169 0
310.875 -12.1161 0
313.403 -12.2875 0
313.693 -8.00969 0
311.164 -7.83823 0
312.139 -12.2017 0
313.548 -10.1485 0
312.428 -7.92387 0
311.019 -9.9771 0
312.284 -10.0627 0
313.403 -12.2875 0
315.93 -12.4596 0
316.222 -8.18189 0
313.693 -8.00969 0
314.666 -12.3734 0
316.076 -10.3207 0
314.957 -8.0957 0
313.548 -10.1485 0
314.812 -10.2345 0
315.93 -12.4596 0
318.458 -12.6324 0
318.751 -8.35484 0
316.222 -8.18189 0
317.194 -12.5459 0
318.605 -10.4935 0
317.487 -8.26827 0
316.076 -10.3207 0
317.34 -10.407 0
318.458 -12.6324 0
320.986 -12.806 0
321.28 -8.52851 0
318.751 -8.35484 0
319.722 -12.7191 0
321.133 -10.6672 0
320.016 -8.44158 0
318.605 -10.4935 0
319.869 -10.5803 0
320.986 -12.806 0
323.514 -12.9802 0
323.809 -8.7029 0
321.28 -8.52851 0
322.25 -12.893 0
323.662 -10.8415 0
322.545 -8.61561 0
321.133 -10.6672 0
322.397 -10.7542 0
323.514 -12.9802 0
326.042 -13.1552 0
326.338 -8.878 0
323.809 -8.7029 0
324.778 -13.0677 0
326.19 -11.0165 0
325.074 -8.79036 0
323.662 -10.8415 0
324.926 -10.9289 0
326.042 -13.1552 0
328.57 -13.3309 0
328.867 -9.0538 0
326.338 -8.878 0
327.306 -13.243 0
328.719 -11.1923 0
327.603 -8.96581 0
326.19 -11.0165 0
327.454 -11.1043 0
328.57 -13.3309 0
331.098 -13.5073 0
331.396 -9.23029 0
328.867 -9.0538 0
329.834 -13.419 0
331.247 -11.3687 0
330.132 -9.14196 0
328.719 -11.1923 0
329.983 -11.2804 0
331.098 -13.5073 0
333.625 -13.6844 0
333.925 -9.40745 0
331.396 -9.23029 0
332.362 -13.5958 0
333.775 -11.5458 0
332.661 -9.31878 0
331.247 -11.3687 0
332.511 -11.4572 0
333.625 -13.6844 0
336.153 -13.8621 0
336.454 -9.58528 0
333.925 -9.40745 0
334.889 -13.7731 0
336.304 -11.7236 0
335.19 -9.49628 0
333.775 -11.5458 0
335.04 -11.6346 0
336.153 -13.8621 0
338.681 -14.0405 0
338.983 -9.76377 0
336.454 -9.58528 0
337.417 -13.9512 0
338.832 -11.9021 0
337.719 -9.67445 0
336.304 -11.7236 0
337.568 -11.8128 0
338.681 -14.0405 0
341.209 -14.2195 0
341.513 -9.94291 0
338.983 -9.76377 0
339.945 -14.1299 0
341.361 -12.0811 0
340.248 -9.85326 0
338.832 -11.9021 0
340.097 -11.9915 0
341.209 -14.2195 0
343.737 -14.3992 0
344.042 -10.1227 0
341.513 -9.94291 0
342.473 -14.3093 0
343.889 -12.2609 0
342.777 -10.0327 0
341.361 -12.0811 0
342.625 -12.1709 0
343.737 -14.3992 0
346.265 -14.5795 0
346.571 -10.3031 0
344.042 -10.1227 0
345.001 -14.4893 0
346.418 -12.4412 0
345.306 -10.2128 0
343.889 -12.2609 0
345.154 -12.351 0
346.265 -14.5795 0
348.793 -14.7604 0
349.1 -10.4841 0
346.571 -10.3031 0
347.529 -14.6699 0
348.946 -12.6222 0
347.835 -10.3935 0
346.418 -12.4412 0
347.682 -12.5316 0
348.793 -14.7604 0
351.321 -14.9419 0
351.629 -10.6657 0
349.1 -10.4841 0
350.057 -14.8511 0
351.475 -12.8038 0
350.364 -10.5748 0
348.946 -12.6222 0
350.211 -12.7129 0
351.321 -14.9419 0
353.849 -15.1241 0
354.158 -10.848 0
351.629 -10.6657 0
352.585 -15.0329 0
354.004 -12.9859 0
352.893 -10.7568 0
351.475 -12.8038 0
352.739 -12.8948 0
353.849 -15.1241 0
356.377 -15.3068 0
356.687 -11.0308 0
354.158 -10.848 0
355.113 -15.2153 0
356.532 -13.1687 0
355.422 -10.9393 0
354.004 -12.9859 0
355.268 -13.0773 0
356.377 -15.3068 0
358.905 -15.4901 0
359.216 -11.2141 0
356.687 -11.0308 0
357.641 -15.3983 0
359.061 -13.352 0
357.951 -11.1224 0
356.532 -13.1687 0
357.796 -13.2603 0
358.905 -15.4901 0
361.434 -15.6739 0
361.745 -11.3981 0
359.216 -11.2141 0
360.169 -15.5819 0
361.589 -13.5359 0
360.48 -11.3061 0
359.061 -13.352 0
360.325 -13.4439 0
361.434 -15.6739 0
363.962 -15.8583 0
364.274 -11.5826 0
361.745 -11.3981 0
362.698 -15.7661 0
364.118 -13.7204 0
363.009 -11.4903 0
361.589 -13.5359 0
362.853 -13.6281 0
363.962 -15.8583 0
366.49 -16.0433 0
366.803 -11.7677 0
364.274 -11.5826 0
365.226 -15.9507 0
366.646 -13.9054 0
365.538 -11.6751 0
364.118 -13.7204 0
365.382 -13.8128 0
366.49 -16.0433 0
369.018 -16.2288 0
369.332 -11.9532 0
366.803 -11.7677 0
367.754 -16.136 0
369.175 -14.091 0
368.067 -11.8604 0
366.646 -13.9054 0
367.911 -13.9981 0
369.018 -16.2288 0
371.546 -16.4148 0
371.861 -12.1393 0
369.332 -11.9532 0
370.282 -16.3217 0
371.704 -14.277 0
370.596 -12.0462 0
369.175 -14.091 0
370.439 -14.1839 0
371.546 -16.4148 0
374.074 -16.6013 0
374.39 -12.326 0
371.861 -12.1393 0
372.81 -16.508 0
374.232 -14.4636 0
373.125 -12.2326 0
371.704 -14.277 0
372.968 -14.3702 0
374.074 -16.6013 0
376.603 -16.7884 0
376.919 -12.5131 0
374.39 -12.326 0
375.338 -16.6948 0
376.761 -14.6507 0
375.655 -12.4195 0
374.232 -14.4636 0
375.497 -14.5571 0
376.603 -16.7884 0
379.131 -16.9759 0
379.448 -12.7007 0
376.919 -12.5131 0
377.867 -16.8821 0
379.29 -14.8383 0
378.184 -12.6068 0
376.761 -14.6507 0
378.025 -14.7444 0
379.131 -16.9759 0
381.659 -17.1639 0
381.977 -12.8888 0
379.448 -12.7007 0
380.395 -17.0699 0
381.818 -15.0263 0
380.713 -12.7947 0
379.29 -14.8383 0
380.554 -14.9322 0
381.659 -17.1639 0
384.187 -17.3524 0
384.506 -13.0774 0
381.977 -12.8888 0
382.923 -17.2581 0
384.347 -15.2149 0
383.242 -12.9831 0
381.818 -15.0263 0
383.083 -15.1205 0
384.187 -17.3524 0
386.716 -17.5414 0
387.035 -13.2665 0
384.506 -13.0774 0
385.452 -17.4468 0
386.876 -15.4039 0
385.771 -13.1719 0
384.347 -15.2149 0
385.611 -15.3093 0
386.716 -17.5414 0
389.244 -17.7308 0
389.565 -13.4559 0
387.035 -13.2665 0
387.98 -17.636 0
389.404 -15.5933 0
388.3 -13.3611 0
386.876 -15.4039 0
388.14 -15.4985 0
389.244 -17.7308 0
391.772 -17.9207 0
392.094 -13.6459 0
389.565 -13.4559 0
390.508 -17.8257 0
391.933 -15.7832 0
390.829 -13.5509 0
389.404 -15.5933 0
390.669 -15.6882 0
391.772 -17.9207 0
394.301 -18.1109 0
394.623 -13.8363 0
392.094 -13.6459 0
393.037 -18.0157 0
394.462 -15.9736 0
393.358 -13.741 0
391.933 -15.7832 0
393.197 -15.8783 0
394.301 -18.1109 0
396.829 -18.3017 0
397.152 -14.0271 0
394.623 -13.8363 0
395.565 -18.2063 0
396.991 -16.1643 0
395.887 -13.9316 0
394.462 -15.9736 0
395.726 -16.0689 0
396.829 -18.3017 0
399.358 -18.4928 0
399.681 -14.2183 0
397.152 -14.0271 0
398.094 -18.3972 0
399.519 -16.3555 0
398.416 -14.1226 0
396.991 -16.1643 0
398.255 -16.2599 0
399.358 -18.4928 0
401.886 -18.6843 0
402.21 -14.4099 0
399.681 -14.2183 0
400.622 -18.5885 0
402.048 -16.5471 0
400.946 -14.314 0
399.519 -16.3555 0
400.784 -16.4512 0
401.886 -18.6843 0
404.415 -18.8763 0
404.739 -14.6019 0
402.21 -14.4099 0
403.151 -18.7802 0
404.577 -16.739 0
403.475 -14.5058 0
402.048 -16.5471 0
403.313 -16.643 0
404.415 -18.8763 0
406.943 -19.0686 0
407.269 -14.7943 0
404.739 -14.6019 0
405.679 -18.9724 0
407.106 -16.9314 0
406.004 -14.698 0
404.577 -16.739 0
405.842 -16.8352 0
406.943 -19.0686 0
409.472 -19.2612 0
409.798 -14.987 0
407.269 -14.7943 0
408.208 -19.1649 0
409.635 -17.1241 0
408.533 -14.8906 0
407.106 -16.9314 0
408.37 -17.0277 0
409.472 -19.2612 0
412.001 -19.4543 0
412.327 -15.1801 0
409.798 -14.987 0
410.736 -19.3577 0
412.164 -17.3172 0
411.062 -15.0835 0
409.635 -17.1241 0
410.899 -17.2206 0
412.001 -19.4543 0
414.529 -19.6477 0
414.856 -15.3736 0
412.327 -15.1801 0
413.265 -19.5509 0
414.693 -17.5106 0
413.592 -15.2768 0
412.164 -17.3172 0
413.428 -17.4138 0
414.529 -19.6477 0
417.058 -19.8414 0
417.385 -15.5674 0
414.856 -15.3736 0
415.794 -19.7445 0
417.222 -17.7044 0
416.121 -15.4705 0
414.693 -17.5106 0
415.957 -17.6075 0
417.058 -19.8414 0
419.587 -20.0355 0
419.915 -15.7615 0
417.385 -15.5674 0
418.322 -19.9384 0
419.751 -17.8985 0
418.65 -15.6644 0
417.222 -17.7044 0
418.486 -17.8014 0
419.587 -20.0355 0
422.115 -20.2299 0
422.444 -15.956 0
419.915 -15.7615 0
420.851 -20.1326 0
422.28 -18.0929 0
421.179 -15.8587 0
419.751 -17.8985 0
421.015 -17.9957 0
422.115 -20.2299 0
424.644 -20.4246 0
424.973 -16.1508 0
422.444 -15.956 0
423.38 -20.3272 0
424.809 -18.2877 0
423.709 -16.0533 0
422.28 -18.0929 0
423.544 -18.1902 0
424.644 -20.4246 0
427.173 -20.6196 0
427.503 -16.3458 0
424.973 -16.1508 0
425.909 -20.5221 0
427.338 -18.4827 0
426.238 -16.2483 0
424.809 -18.2877 0
426.073 -18.3851 0
427.173 -20.6196 0
429.702 -20.8149 0
430.032 -16.5412 0
427.503 -16.3458 0
428.438 -20.7172 0
429.867 -18.678 0
428.767 -16.4435 0
427.338 -18.4827 0
428.603 -18.5803 0
429.702 -20.8149 0
432.231 -21.0105 0
432.561 -16.7368 0
430.032 -16.5412 0
430.966 -20.9126 0
432.396 -18.8736 0
431.297 -16.639 0
429.867 -18.678 0
431.132 -18.7758 0
432.231 -21.0105 0
434.76 -21.2063 0
435.091 -16.9327 0
432.561 -16.7368 0
433.495 -21.1084 0
434.925 -19.0695 0
433.826 -16.8348 0
432.396 -18.8736 0
433.661 -18.9715 0
434.76 -21.2063 0
437.289 -21.4024 0
437.62 -17.1289 0
435.091 -16.9327 0
436.024 -21.3043 0
437.455 -19.2656 0
436.356 -17.0308 0
434.925 -19.0695 0
436.19 -19.1675 0
437.289 -21.4024 0
439.818 -21.5988 0
440.15 -17.3253 0
437.62 -17.1289 0
438.553 -21.5006 0
439.984 -19.462 0
438.885 -17.2271 0
437.455 -19.2656 0
438.719 -19.3638 0
439.818 -21.5988 0
442.347 -21.7954 0
442.679 -17.522 0
440.15 -17.3253 0
441.082 -21.697 0
442.513 -19.6587 0
441.414 -17.4236 0
439.984 -19.462 0
441.248 -19.5603 0
442.347 -21.7954 0
444.876 -21.9922 0
445.209 -17.7189 0
442.679 -17.522 0
443.612 -21.8938 0
445.042 -19.8555 0
443.944 -17.6204 0
442.513 -19.6587 0
443.778 -19.7571 0
444.876 -21.9922 0
447.405 -22.1892 0
447.738 -17.916 0
445.209 -17.7189 0
446.141 -22.0907 0
447.572 -20.0526 0
446.473 -17.8174 0
445.042 -19.8555 0
446.307 -19.954 0
447.405 -22.1892 0
449.935 -22.3865 0
450.268 -18.1133 0
447.738 -17.916 0
448.67 -22.2878 0
450.101 -20.2499 0
449.003 -18.0146 0
447.572 -20.0526 0
448.836 -20.1512 0
449.935 -22.3865 0
452.464 -22.584 0
452.797 -18.3108 0
450.268 -18.1133 0
451.199 -22.4852 0
452.631 -20.4473 0
451.533 -18.212 0
450.101 -20.2499 0
451.366 -20.3486 0
452.464 -22.584 0
454.993 -22.7816 0
455.327 -18.5085 0
452.797 -18.3108 0
453.728 -22.6828 0
455.16 -20.645 0
454.062 -18.4096 0
452.631 -20.4473 0
453.895 -20.5462 0
454.993 -22.7816 0
457.522 -22.9794 0
457.857 -18.7063 0
455.327 -18.5085 0
456.258 -22.8805 0
457.69 -20.8429 0
456.592 -18.6074 0
455.16 -20.645 0
456.425 -20.7439 0
457.522 -22.9794 0
460.052 -23.1774 0
460.386 -18.9044 0
457.857 -18.7063 0
458.787 -23.0784 0
460.219 -21.0409 0
459.121 -18.8053 0
457.69 -20.8429 0
458.954 -20.9419 0
460.052 -23.1774 0
462.581 -23.3756 0
462.916 -19.1026 0
460.386 -18.9044 0
461.317 -23.2765 0
462.749 -21.2391 0
461.651 -19.0035 0
460.219 -21.0409 0
461.484 -21.1399 0
462.581 -23.3756 0
465.111 -23.5739 0
465.446 -19.3009 0
462.916 -19.1026 0
463.846 -23.4747 0
465.278 -21.4374 0
464.181 -19.2017 0
462.749 -21.2391 0
464.013 -21.3382 0
465.111 -23.5739 0
467.64 -23.7723 0
467.975 -19.4994 0
465.446 -19.3009 0
466.376 -23.6731 0
467.808 -21.6358 0
466.711 -19.4001 0
465.278 -21.4374 0
466.543 -21.5366 0
467.64 -23.7723 0
470.17 -23.9709 0
470.505 -19.698 0
467.975 -19.4994 0
468.905 -23.8716 0
470.338 -21.8344 0
469.24 -19.5987 0
467.808 -21.6358 0
469.073 -21.7351 0
470.17 -23.9709 0
472.7 -24.1695 0
473.035 -19.8967 0
470.505 -19.698 0
471.435 -24.0702 0
472.867 -22.0331 0
471.77 -19.7973 0
470.338 -21.8344 0
471.603 -21.9337 0
472.7 -24.1695 0
475.229 -24.3683 0
475.565 -20.0955 0
473.035 -19.8967 0
473.964 -24.2689 0
475.397 -22.2319 0
474.3 -19.9961 0
472.867 -22.0331 0
474.132 -22.1325 0
475.229 -24.3683 0
477.759 -24.5672 0
478.095 -20.2945 0
475.565 -20.0955 0
476.494 -24.4677 0
477.927 -22.4308 0
476.83 -20.195 0
475.397 -22.2319 0
476.662 -22.3314 0
477.759 -24.5672 0
480.289 -24.7662 0
480.625 -20.4935 0
478.095 -20.2945 0
479.024 -24.6667 0
480.457 -22.6298 0
479.36 -20.3939 0
477.927 -22.4308 0
479.192 -22.5303 0
480.289 -24.7662 0
482.819 -24.9652 0
483.155 -20.6925 0
480.625 -20.4935 0
481.554 -24.8657 0
482.987 -22.8289 0
481.89 -20.593 0
480.457 -22.6298 0
481.722 -22.7293 0
482.819 -24.9652 0
485.349 -25.1643 0
485.685 -20.8917 0
483.155 -20.6925 0
484.084 -25.0648 0
485.517 -23.028 0
484.42 -20.7921 0
482.987 -22.8289 0
484.252 -22.9284 0
485.349 -25.1643 0
487.879 -25.3635 0
488.215 -21.0909 0
485.685 -20.8917 0
486.614 -25.2639 0
488.047 -23.2272 0
486.95 -20.9913 0
485.517 -23.028 0
486.782 -23.1276 0
487.879 -25.3635 0
490.409 -25.5627 0
490.745 -21.2902 0
488.215 -21.0909 0
489.144 -25.4631 0
490.577 -23.4264 0
489.48 -21.1905 0
488.047 -23.2272 0
489.312 -23.3268 0
490.409 -25.5627 0
492.939 -25.762 0
493.275 -21.4895 0
490.745 -21.2902 0
491.674 -25.6624 0
493.107 -23.6258 0
492.01 -21.3898 0
490.577 -23.4264 0
491.842 -23.5261 0
492.939 -25.762 0
495.468 -25.9615 0
495.805 -21.689 0
493.275 -21.4895 0
494.204 -25.8618 0
495.637 -23.8253 0
494.54 -21.5892 0
493.107 -23.6258 0
494.372 -23.7255 0
495.468 -25.9615 0
497.998 -26.1618 0
498.336 -21.8885 0
495.805 -21.689 0
496.733 -26.0614 0
498.167 -24.0251 0
497.07 -21.7887 0
495.637 -23.8253 0
496.902 -23.9252 0
0 4.28571 0
2.53027 4.28353 0
2.53352 8.57098 0
0 8.57143 0
1.26525 4.28493 0
2.53196 6.42746 0
1.26683 8.57157 0
0 6.42857 0
1.26602 6.42834 0
2.53027 4.28353 0
5.05989 4.27939 0
5.0667 8.56794 0
2.53352 8.57098 0
3.79512 4.28166 0
5.06341 6.42391 0
3.80014 8.56975 0
2.53196 6.42746 0
3.79774 6.42596 0
5.05989 4.27939 0
7.58943 4.2737 0
7.59967 8.56267 0
5.0667 8.56794 0
6.32465 4.27674 0
7.59465 6.41842 0
6.3332 8.56557 0
5.06341 6.42391 0
6.32904 6.42139 0
7.58943 4.2737 0
10.119 4.26629 0
10.1326 8.55538 0
7.59967 8.56267 0
8.85421 4.27022 0
10.1259 6.41105 0
8.86614 8.55928 0
7.59465 6.41842 0
8.86026 6.41497 0
10.119 4.26629 0
12.6487 4.25703 0
12.6655 8.54612 0
10.1326 8.55538 0
11.3838 4.26189 0
12.6572 6.40178 0
11.3991 8.551 0
10.1259 6.41105 0
11.3915 6.40666 0
12.6487 4.25703 0
15.1784 4.24585 0
15.1985 8.5349 0
12.6655 8.54612 0
13.9135 4.25168 0
15.1885 6.39058 0
13.932 8.54075 0
12.6572 6.40178 0
13.9228 6.39642 0
15.1784 4.24585 0
17.7081 4.23273 0
17.7315 8.52174 0
15.1985 8.5349 0
16.4432 4.23953 0
17.7199 6.37744 0
16.465 8.52856 0
15.1885 6.39058 0
16.4542 6.38425 0
17.7081 4.23273 0
20.2379 4.21767 0
20.2646 8.50662 0
17.7315 8.52174 0
18.973 4.22544 0
20.2513 6.36235 0
18.9981 8.51442 0
17.7199 6.37744 0
18.9856 6.37014 0
20.2379 4.21767 0
22.7677 4.20067 0
22.7977 8.48958 0
20.2646 8.50662 0
21.5028 4.20941 0
22.7827 6.34533 0
21.5311 8.49834 0
20.2513 6.36235 0
21.517 6.35408 0
22.7677 4.20067 0
25.2975 4.18175 0
25.3308 8.47061 0
22.7977 8.48958 0
24.0326 4.19145 0
25.3142 6.32638 0
24.0642 8.48033 0
22.7827 6.34533 0
24.0484 6.3361 0
25.2975 4.18175 0
27.8274 4.1609 0
27.8639 8.44972 0
25.3308 8.47061 0
26.5625 4.17157 0
27.8457 6.30552 0
26.5973 8.4604 0
25.3142 6.32638 0
26.5799 6.31619 0
27.8274 4.1609 0
30.3573 4.13815 0
30.397 8.42692 0
27.8639 8.44972 0
29.0924 4.14977 0
30.3772 6.28274 0
29.1304 8.43855 0
27.8457 6.30552 0
29.1114 6.29437 0
30.3573 4.13815 0
32.8872 4.11351 0
32.9301 8.40222 0
30.397 8.42692 0
31.6223 4.12607 0
32.9087 6.25807 0
31.6635 8.41481 0
30.3772 6.28274 0
31.6429 6.27064 0
32.8872 4.11351 0
35.4172 4.08698 0
35.4633 8.37564 0
32.9301 8.40222 0
34.1522 4.10048 0
35.4403 6.23151 0
34.1967 8.38917 0
32.9087 6.25807 0
34.1745 6.24502 0
35.4172 4.08698 0
37.9472 4.05857 0
37.9964 8.34718 0
35.4633 8.37564 0
36.6822 4.07301 0
37.9718 6.20307 0
36.7298 8.36164 0
35.4403 6.23151 0
36.706 6.21753 0
37.9472 4.05857 0
40.4772 4.0283 0
40.5295 8.31685 0
37.9964 8.34718 0
39.2122 4.04367 0
40.5034 6.17277 0
39.263 8.33225 0
37.9718 6.20307 0
39.2376 6.18816 0
40.4772 4.0283 0
43.0072 3.99617 0
43.0627 8.28467 0
40.5295 8.31685 0
41.7422 4.01246 0
43.035 6.14062 0
41.7961 8.30099 0
40.5034 6.17277 0
41.7692 6.15693 0
43.0072 3.99617 0
45.5372 3.9622 0
45.5959 8.25064 0
43.0627 8.28467 0
44.2722 3.97941 0
45.5666 6.10662 0
44.3293 8.26788 0
43.035 6.14062 0
44.3008 6.12385 0
45.5372 3.9622 0
48.0673 3.92639 0
48.129 8.21477 0
45.5959 8.25064 0
46.8023 3.94452 0
48.0982 6.07078 0
46.8624 8.23293 0
45.5666 6.10662 0
46.8324 6.08893 0
48.0673 3.92639 0
50.5974 3.88876 0
50.6622 8.17708 0
48.129 8.21477 0
49.3323 3.90781 0
50.6298 6.03312 0
49.3956 8.19615 0
48.0982 6.07078 0
49.364 6.05218 0
50.5974 3.88876 0
53.1274 3.84932 0
53.1953 8.13757 0
50.6622 8.17708 0
51.8624 3.86927 0
53.1614 5.99364 0
51.9287 8.15755 0
50.6298 6.03312 0
51.8956 6.01361 0
53.1274 3.84932 0
55.6576 3.80807 0
55.7285 8.09626 0
53.1953 8.13757 0
54.3925 3.82892 0
55.693 5.95236 0
54.4619 8.11714 0
53.1614 5.99364 0
54.4272 5.97323 0
55.6576 3.80807 0
58.1877 3.76503 0
58.2616 8.05315 0
55.7285 8.09626 0
56.9226 3.78678 0
58.2247 5.90928 0
56.995 8.07493 0
55.693 5.95236 0
56.9589 5.93105 0
58.1877 3.76503 0
60.7178 3.72021 0
60.7948 8.00826 0
58.2616 8.05315 0
59.4527 3.74285 0
60.7563 5.86443 0
59.5282 8.03093 0
58.2247 5.90928 0
59.4905 5.88708 0
60.7178 3.72021 0
63.2479 3.67362 0
63.3279 7.96159 0
60.7948 8.00826 0
61.9829 3.69714 0
63.288 5.81779 0
62.0613 7.98515 0
60.7563 5.86443 0
62.0221 5.84133 0
63.2479 3.67362 0
65.7781 3.62526 0
65.861 7.91316 0
63.3279 7.96159 0
64.513 3.64966 0
65.8196 5.7694 0
64.5945 7.93759 0
63.288 5.81779 0
64.5538 5.79381 0
65.7781 3.62526 0
68.3083 3.57515 0
68.3942 7.86297 0
65.861 7.91316 0
67.0432 3.60042 0
68.3512 5.71925 0
67.1276 7.88828 0
65.8196 5.7694 0
67.0854 5.74454 0
68.3083 3.57515 0
70.8384 3.52329 0
70.9273 7.81104 0
68.3942 7.86297 0
69.5733 3.54944 0
70.8829 5.66735 0
69.6607 7.83722 0
68.3512 5.71925 0
69.6171 5.69352 0
70.8384 3.52329 0
73.3686 3.46971 0
73.4604 7.75738 0
70.9273 7.81104 0
72.1035 3.49672 0
73.4145 5.61373 0
72.1938 7.78443 0
70.8829 5.66735 0
72.1487 5.64076 0
73.3686 3.46971 0
75.8988 3.4144 0
75.9935 7.70199 0
73.4604 7.75738 0
74.6337 3.44227 0
75.9462 5.55838 0
74.7269 7.7299 0
73.4145 5.61373 0
74.6803 5.58627 0
75.8988 3.4144 0
78.429 3.35739 0
78.5265 7.64489 0
75.9935 7.70199 0
77.1639 3.38611 0
78.4778 5.50132 0
77.26 7.67365 0
75.9462 5.55838 0
77.212 5.53006 0
78.429 3.35739 0
80.9592 3.29867 0
81.0596 7.58609 0
78.5265 7.64489 0
79.6941 3.32824 0
81.0094 5.44256 0
79.7931 7.6157 0
78.4778 5.50132 0
79.7436 5.47215 0
80.9592 3.29867 0
83.4894 3.23826 0
83.5927 7.52559 0
81.0596 7.58609 0
82.2243 3.26867 0
83.5411 5.3821 0
82.3261 7.55605 0
81.0094 5.44256 0
82.2753 5.41254 0
83.4894 3.23826 0
86.0196 3.17616 0
86.1257 7.46341 0
83.5927 7.52559 0
84.7545 3.20742 0
86.0727 5.31997 0
84.8592 7.49471 0
83.5411 5.3821 0
84.8069 5.35125 0
86.0196 3.17616 0
88.5498 3.1124 0
88.6587 7.39956 0
86.1257 7.46341 0
87.2847 3.14449 0
88.6043 5.25616 0
87.3922 7.4317 0
86.0727 5.31997 0
87.3385 5.28827 0
88.5498 3.1124 0
91.08 3.04698 0
91.1917 7.33405 0
88.6587 7.39956 0
89.8149 3.0799 0
91.1359 5.19069 0
89.9252 7.36701 0
88.6043 5.25616 0
89.8701 5.22363 0
91.08 3.04698 0
93.6102 2.97991 0
93.7247 7.26689 0
91.1917 7.33405 0
92.3451 3.01365 0
93.6675 5.12357 0
92.4582 7.30068 0
91.1359 5.19069 0
92.4017 5.15734 0
93.6102 2.97991 0
96.1404 2.9112 0
96.2577 7.19808 0
93.7247 7.26689 0
94.8753 2.94576 0
96.1991 5.05482 0
94.9912 7.23269 0
93.6675 5.12357 0
94.9333 5.0894 0
96.1404 2.9112 0
98.6706 2.84086 0
98.7907 7.12765 0
96.2577 7.19808 0
97.4055 2.87623 0
98.7307 4.98443 0
97.5242 7.16307 0
96.1991 5.05482 0
97.4649 5.01982 0
98.6706 2.84086 0
101.201 2.76889 0
101.324 7.05559 0
98.7907 7.12765 0
99.9357 2.80508 0
101.262 4.91242 0
100.057 7.09182 0
98.7307 4.98443 0
99.9965 4.94862 0
101.201 2.76889 0
103.731 2.69532 0
103.857 6.98193 0
101.324 7.05559 0
102.466 2.73231 0
103.794 4.8388 0
102.59 7.01896 0
101.262 4.91242 0
102.528 4.87581 0
103.731 2.69532 0
106.261 2.62015 0
106.389 6.90666 0
103.857 6.98193 0
104.996 2.65794 0
106.325 4.76358 0
105.123 6.94449 0
103.794 4.8388 0
105.06 4.80139 0
106.261 2.62015 0
108.791 2.5434 0
108.922 6.8298 0
106.389 6.90666 0
107.526 2.58197 0
108.857 4.68677 0
107.656 6.86843 0
106.325 4.76358 0
107.591 4.72537 0
108.791 2.5434 0
111.322 2.46506 0
111.455 6.75137 0
108.922 6.8298 0
110.057 2.50442 0
111.388 4.60838 0
110.189 6.79078 0
108.857 4.68677 0
110.123 4.64777 0
111.322 2.46506 0
113.852 2.38516 0
113.988 6.67136 0
111.455 6.75137 0
112.587 2.4253 0
113.92 4.52843 0
112.722 6.71156 0
111.388 4.60838 0
112.654 4.5686 0
113.852 2.38516 0
116.382 2.30369 0
116.521 6.5898 0
113.988 6.67136 0
115.117 2.34462 0
116.451 4.44691 0
115.254 6.63077 0
113.92 4.52843 0
115.186 4.48786 0
116.382 2.30369 0
118.912 2.22068 0
119.054 6.50668 0
116.521 6.5898 0
117.647 2.26238 0
118.983 4.36385 0
117.787 6.54843 0
116.451 4.44691 0
117.717 4.40557 0
118.912 2.22068 0
121.442 2.13613 0
121.586 6.42203 0
119.054 6.50668 0
120.177 2.1786 0
121.514 4.27925 0
120.32 6.46455 0
118.983 4.36385 0
120.249 4.32174 0
121.442 2.13613 0
123.972 2.05006 0
124.119 6.33585 0
121.586 6.42203 0
122.707 2.09329 0
124.046 4.19312 0
122.853 6.37913 0
121.514 4.27925 0
122.78 4.23637 0
123.972 2.05006 0
126.503 1.96247 0
126.652 6.24815 0
124.119 6.33585 0
125.238 2.00645 0
126.577 4.10547 0
125.385 6.29219 0
124.046 4.19312 0
125.312 4.14948 0
126.503 1.96247 0
129.033 1.87337 0
129.184 6.15895 0
126.652 6.24815 0
127.768 1.9181 0
129.109 4.01632 0
127.918 6.20374 0
126.577 4.10547 0
127.843 4.06108 0
129.033 1.87337 0
131.563 1.78277 0
131.717 6.06825 0
129.184 6.15895 0
130.298 1.82826 0
131.64 3.92567 0
130.451 6.11378 0
129.109 4.01632 0
130.374 3.97118 0
131.563 1.78277 0
134.093 1.69069 0
134.25 5.97605 0
131.717 6.06825 0
132.828 1.73691 0
134.171 3.83353 0
132.983 6.02234 0
131.64 3.92567 0
132.906 3.87978 0
134.093 1.69069 0
136.623 1.59713 0
136.782 5.88239 0
134.25 5.97605 0
135.358 1.64409 0
136.703 3.73992 0
135.516 5.9294 0
134.171 3.83353 0
135.437 3.78691 0
136.623 1.59713 0
139.153 1.50211 0
139.315 5.78725 0
136.782 5.88239 0
137.888 1.5498 0
139.234 3.64483 0
138.049 5.835 0
136.703 3.73992 0
137.968 3.69256 0
139.153 1.50211 0
141.683 1.40563 0
141.847 5.69066 0
139.315 5.78725 0
140.418 1.45405 0
141.765 3.5483 0
140.581 5.73914 0
139.234 3.64483 0
140.5 3.59675 0
141.683 1.40563 0
144.213 1.3077 0
144.38 5.59263 0
141.847 5.69066 0
142.948 1.35684 0
144.297 3.45032 0
143.114 5.64182 0
141.765 3.5483 0
143.031 3.49949 0
144.213 1.3077 0
146.743 1.20834 0
146.912 5.49315 0
144.38 5.59263 0
145.478 1.2582 0
146.828 3.3509 0
145.646 5.54307 0
144.297 3.45032 0
145.562 3.40079 0
146.743 1.20834 0
149.274 1.10755 0
149.445 5.39225 0
146.912 5.49315 0
148.009 1.15812 0
149.359 3.25006 0
148.179 5.44288 0
146.828 3.3509 0
148.094 3.30065 0
149.274 1.10755 0
151.804 1.00535 0
151.977 5.28994 0
149.445 5.39225 0
150.539 1.05663 0
151.89 3.1478 0
150.711 5.34127 0
149.359 3.25006 0
150.625 3.1991 0
151.804 1.00535 0
154.334 0.901749 0
154.51 5.18622 0
151.977 5.28994 0
153.069 0.953727 0
154.422 3.04413 0
153.244 5.23826 0
151.89 3.1478 0
153.156 3.09614 0
154.334 0.901749 0
156.864 0.79675 0
157.042 5.08111 0
154.51 5.18622 0
155.599 0.849424 0
156.953 2.93908 0
155.776 5.13384 0
154.422 3.04413 0
155.687 2.99178 0
156.864 0.79675 0
159.394 0.690368 0
159.574 4.97461 0
157.042 5.08111 0
158.129 0.743731 0
159.484 2.83263 0
158.308 5.02803 0
156.953 2.93908 0
158.218 2.88603 0
159.394 0.690368 0
161.924 0.582611 0
162.107 4.86674 0
159.574 4.97461 0
160.659 0.63666 0
162.015 2.72482 0
160.841 4.92084 0
159.484 2.83263 0
160.75 2.7789 0
161.924 0.582611 0
164.454 0.473491 0
164.639 4.7575 0
162.107 4.86674 0
163.189 0.52822 0
164.546 2.61564 0
163.373 4.81229 0
162.015 2.72482 0
163.281 2.6704 0
164.454 0.473491 0
166.984 0.363017 0
167.171 4.64691 0
164.639 4.7575 0
165.719 0.418422 0
167.077 2.50511 0
165.905 4.70237 0
164.546 2.61564 0
165.812 2.56054 0
166.984 0.363017 0
169.513 0.2512 0
169.703 4.53498 0
167.171 4.64691 0
168.248 0.307276 0
169.608 2.39323 0
168.437 4.59111 0
167.077 2.50511 0
168.343 2.44934 0
169.513 0.2512 0
172.043 0.138051 0
172.236 4.42171 0
169.703 4.53498 0
170.778 0.194792 0
172.139 2.28002 0
170.969 4.47851 0
169.608 2.39323 0
170.874 2.33679 0
172.043 0.138051 0
174.573 0.023579 0
174.768 4.30712 0
172.236 4.42171 0
173.308 0.0809797 0
174.671 2.16549 0
173.502 4.36458 0
172.139 2.28002 0
173.405 2.22292 0
174.573 0.023579 0
177.103 -0.0922053 0
177.3 4.19122 0
174.768 4.30712 0
175.838 -0.0341497 0
177.202 2.04964 0
176.034 4.24933 0
174.671 2.16549 0
175.936 2.10773 0
177.103 -0.0922053 0
179.633 -0.209292 0
179.832 4.07401 0
177.3 4.19122 0
178.368 -0.150586 0
179.732 1.9325 0
178.566 4.13278 0
177.202 2.04964 0
178.467 1.99123 0
179.633 -0.209292 0
182.163 -0.32767 0
182.364 3.95551 0
179.832 4.07401 0
180.898 -0.26832 0
182.263 1.81406 0
181.098 4.01492 0
179.732 1.9325 0
180.998 1.87344 0
182.163 -0.32767 0
184.693 -0.44733 0
184.896 3.83574 0
182.364 3.95551 0
183.428 -0.38734 0
184.794 1.69434 0
183.63 3.89578 0
182.263 1.81406 0
183.529 1.75436 0
184.693 -0.44733 0
187.223 -0.568261 0
187.428 3.71468 0
184.896 3.83574 0
185.958 -0.507637 0
187.325 1.57335 0
186.162 3.77537 0
184.794 1.69434 0
186.06 1.634 0
187.223 -0.568261 0
189.752 -0.690454 0
189.96 3.59237 0
187.428 3.71468 0
188.487 -0.629201 0
189.856 1.45109 0
188.694 3.65369 0
187.325 1.57335 0
188.591 1.51238 0
189.752 -0.690454 0
192.282 -0.813897 0
192.492 3.46881 0
189.96 3.59237 0
191.017 -0.75202 0
192.387 1.32759 0
191.226 3.53075 0
189.856 1.45109 0
191.122 1.3895 0
192.282 -0.813897 0
194.812 -0.938581 0
195.024 3.344 0
192.492 3.46881 0
193.547 -0.876085 0
194.918 1.20284 0
193.758 3.40656 0
192.387 1.32759 0
193.652 1.26537 0
194.812 -0.938581 0
197.342 -1.0645 0
197.555 3.21797 0
195.024 3.344 0
196.077 -1.00139 0
197.449 1.07687 0
196.289 3.28114 0
194.918 1.20284 0
196.183 1.14001 0
197.342 -1.0645 0
199.871 -1.19163 0
200.087 3.09071 0
197.555 3.21797 0
198.607 -1.12791 0
199.979 0.949671 0
198.821 3.15449 0
197.449 1.07687 0
198.714 1.01342 0
199.871 -1.19163 0
202.401 -1.31998 0
202.619 2.96225 0
200.087 3.09071 0
201.136 -1.25565 0
202.51 0.821264 0
201.353 3.02663 0
199.979 0.949671 0
201.245 0.885618 0
202.401 -1.31998 0
204.931 -1.44952 0
205.151 2.83258 0
202.619 2.96225 0
203.666 -1.3846 0
205.041 0.691659 0
203.885 2.89757 0
202.51 0.821264 0
203.775 0.756611 0
204.931 -1.44952 0
207.461 -1.58025 0
207.682 2.70173 0
205.151 2.83258 0
206.196 -1.51474 0
207.571 0.560863 0
206.416 2.76731 0
205.041 0.691659 0
206.306 0.626409 0
207.461 -1.58025 0
209.99 -1.71217 0
210.214 2.5697 0
207.682 2.70173 0
208.725 -1.64606 0
210.102 0.428888 0
208.948 2.63586 0
207.571 0.560863 0
208.837 0.495023 0
209.99 -1.71217 0
212.52 -1.84525 0
212.746 2.43649 0
210.214 2.5697 0
211.255 -1.77856 0
212.633 0.295745 0
211.48 2.50324 0
210.102 0.428888 0
211.367 0.362462 0
212.52 -1.84525 0
215.049 -1.97949 0
215.277 2.30213 0
212.746 2.43649 0
213.785 -1.91223 0
215.163 0.161442 0
214.011 2.36946 0
212.633 0.295745 0
213.898 0.228738 0
215.049 -1.97949 0
217.579 -2.11488 0
217.809 2.16662 0
215.277 2.30213 0
216.314 -2.04704 0
217.694 0.0259911 0
216.543 2.23452 0
215.163 0.161442 0
216.429 0.0938596 0
217.579 -2.11488 0
220.109 -2.25141 0
220.34 2.02997 0
217.809 2.16662 0
218.844 -2.183 0
220.225 -0.110598 0
219.074 2.09844 0
217.694 0.0259911 0
218.959 -0.0421619 0
220.109 -2.25141 0
222.638 -2.38906 0
222.872 1.8922 0
220.34 2.02997 0
221.373 -2.3201 0
222.755 -0.248316 0
221.606 1.96122 0
220.225 -0.110598 0
221.49 -0.179317 0
222.638 -2.38906 0
225.168 -2.52784 0
225.403 1.7533 0
222.872 1.8922 0
223.903 -2.45831 0
225.286 -0.387151 0
224.137 1.82289 0
222.755 -0.248316 0
224.02 -0.317594 0
225.168 -2.52784 0
227.697 -2.66772 0
227.935 1.6133 0
225.403 1.7533 0
226.433 -2.59764 0
227.816 -0.527094 0
226.669 1.68344 0
225.286 -0.387151 0
226.551 -0.456985 0
227.697 -2.66772 0
230.227 -2.8087 0
230.466 1.4722 0
227.935 1.6133 0
228.962 -2.73807 0
230.346 -0.668134 0
229.2 1.54289 0
227.816 -0.527094 0
229.081 -0.597477 0
230.227 -2.8087 0
232.756 -2.95076 0
232.997 1.33001 0
230.466 1.4722 0
231.492 -2.8796 0
232.877 -0.810261 0
231.732 1.40124 0
230.346 -0.668134 0
231.612 -0.739062 0
232.756 -2.95076 0
235.286 -3.09391 0
235.529 1.18675 0
232.997 1.33001 0
234.021 -3.0222 0
235.407 -0.953465 0
234.263 1.25852 0
232.877 -0.810261 0
234.142 -0.881729 0
235.286 -3.09391 0
237.815 -3.23812 0
238.06 1.04242 0
235.529 1.18675 0
236.551 -3.16588 0
237.938 -1.09774 0
236.794 1.11472 0
235.407 -0.953465 0
236.672 -1.02547 0
237.815 -3.23812 0
240.345 -3.38338 0
240.591 0.897037 0
238.06 1.04242 0
239.08 -3.31062 0
240.468 -1.24306 0
239.325 0.969862 0
237.938 -1.09774 0
239.203 -1.17027 0
240.345 -3.38338 0
242.874 -3.5297 0
243.122 0.750606 0
240.591 0.897037 0
241.61 -3.45641 0
242.998 -1.38944 0
241.857 0.823952 0
240.468 -1.24306 0
241.733 -1.31612 0
242.874 -3.5297 0
245.404 -3.67705 0
245.653 0.603139 0
243.122 0.750606 0
244.139 -3.60324 0
245.529 -1.53684 0
244.388 0.677001 0
242.998 -1.38944 0
244.263 -1.46301 0
245.404 -3.67705 0
247.933 -3.82542 0
248.185 0.454646 0
245.653 0.603139 0
246.668 -3.7511 0
248.059 -1.68528 0
246.919 0.52902 0
245.529 -1.53684 0
246.794 -1.61093 0
247.933 -3.82542 0
250.463 -3.97481 0
250.716 0.305138 0
248.185 0.454646 0
249.198 -3.89999 0
250.589 -1.83473 0
249.45 0.380019 0
248.059 -1.68528 0
249.324 -1.75988 0
250.463 -3.97481 0
252.992 -4.1252 0
253.247 0.154626 0
250.716 0.305138 0
251.727 -4.04988 0
253.119 -1.98518 0
251.981 0.230007 0
250.589 -1.83473 0
251.854 -1.90983 0
252.992 -4.1252 0
255.521 -4.27659 0
255.778 0.00311814 0
253.247 0.154626 0
254.257 -4.20078 0
255.65 -2.13663 0
254.512 0.0789956 0
253.119 -1.98518 0
254.384 -2.06079 0
255.521 -4.27659 0
258.051 -4.42897 0
258.309 -0.149374 0
255.778 0.00311814 0
256.786 -4.35266 0
258.18 -2.28907 0
257.043 -0.0730054 0
255.65 -2.13663 0
256.915 -2.21273 0
258.051 -4.42897 0
260.58 -4.58232 0
260.84 -0.30284 0
258.309 -0.149374 0
259.315 -4.50552 0
260.71 -2.44248 0
259.574 -0.225986 0
258.18 -2.28907 0
259.445 -2.36565 0
260.58 -4.58232 0
263.109 -4.73663 0
263.371 -0.45727 0
260.84 -0.30284 0
261.845 -4.65936 0
263.24 -2.59685 0
262.105 -0.379935 0
260.71 -2.44248 0
261.975 -2.51954 0
263.109 -4.73663 0
265.639 -4.8919 0
265.902 -0.612654 0
263.371 -0.45727 0
264.374 -4.81415 0
265.77 -2.75218 0
264.636 -0.534843 0
263.24 -2.59685 0
264.505 -2.6744 0
265.639 -4.8919 0
268.168 -5.04811 0
268.432 -0.768981 0
265.902 -0.612654 0
266.903 -4.96989 0
268.3 -2.90845 0
267.167 -0.6907 0
265.77 -2.75218 0
267.035 -2.8302 0
268.168 -5.04811 0
270.697 -5.20526 0
270.963 -0.926242 0
268.432 -0.768981 0
269.433 -5.12657 0
270.83 -3.06565 0
269.698 -0.847496 0
268.3 -2.90845 0
269.565 -2.98694 0
270.697 -5.20526 0
273.226 -5.36333 0
273.494 -1.08443 0
270.963 -0.926242 0
271.962 -5.28418 0
273.36 -3.22378 0
272.229 -1.00522 0
270.83 -3.06565 0
272.095 -3.1446 0
273.226 -5.36333 0
275.756 -5.52231 0
276.025 -1.24352 0
273.494 -1.08443 0
274.491 -5.44271 0
275.89 -3.38282 0
274.759 -1.16386 0
273.36 -3.22378 0
274.625 -3.30319 0
275.756 -5.52231 0
278.285 -5.6822 0
278.556 -1.40352 0
276.025 -1.24352 0
277.02 -5.60214 0
278.42 -3.54277 0
277.29 -1.32341 0
275.89 -3.38282 0
277.155 -3.46268 0
278.285 -5.6822 0
280.814 -5.84298 0
281.086 -1.56441 0
278.556 -1.40352 0
279.55 -5.76248 0
280.95 -3.7036 0
279.821 -1.48385 0
278.42 -3.54277 0
279.685 -3.62307 0
280.814 -5.84298 0
283.343 -6.00464 0
283.617 -1.72618 0
281.086 -1.56441 0
282.079 -5.9237 0
283.48 -3.86532 0
282.352 -1.64519 0
280.95 -3.7036 0
282.215 -3.78435 0
283.343 -6.00464 0
285.873 -6.16717 0
286.148 -1.88883 0
283.617 -1.72618 0
284.608 -6.0858 0
286.01 -4.02791 0
284.882 -1.8074 0
283.48 -3.86532 0
284.745 -3.94651 0
285.873 -6.16717 0
288.402 -6.33057 0
288.678 -2.05233 0
286.148 -1.88883 0
287.137 -6.24876 0
288.54 -4.19136 0
287.413 -1.97047 0
286.01 -4.02791 0
287.275 -4.10953 0
288.402 -6.33057 0
290.931 -6.49481 0
291.209 -2.21669 0
288.678 -2.05233 0
289.666 -6.41258 0
291.07 -4.35566 0
289.944 -2.13441 0
288.54 -4.19136 0
289.805 -4.27341 0
290.931 -6.49481 0
293.46 -6.6599 0
293.739 -2.38189 0
291.209 -2.21669 0
292.195 -6.57725 0
293.6 -4.52081 0
292.474 -2.29919 0
291.07 -4.35566 0
292.335 -4.43813 0
293.46 -6.6599 0
295.989 -6.82582 0
296.27 -2.54792 0
293.739 -2.38189 0
294.725 -6.74276 0
296.13 -4.68679 0
295.005 -2.4648 0
293.6 -4.52081 0
294.865 -4.60369 0
295.989 -6.82582 0
298.518 -6.99257 0
298.801 -2.71477 0
296.27 -2.54792 0
297.254 -6.90909 0
298.659 -4.85358 0
297.535 -2.63124 0
296.13 -4.68679 0
297.395 -4.77008 0
298.518 -6.99257 0
301.047 -7.16012 0
301.331 -2.88243 0
298.801 -2.71477 0
299.783 -7.07624 0
301.189 -5.02119 0
300.066 -2.7985 0
298.659 -4.85358 0
299.924 -4.93729 0
301.047 -7.16012 0
303.577 -7.32847 0
303.861 -3.05089 0
301.331 -2.88243 0
302.312 -7.2442 0
303.719 -5.1896 0
302.596 -2.96656 0
301.189 -5.02119 0
302.454 -5.10529 0
303.577 -7.32847 0
306.106 -7.49762 0
306.392 -3.22014 0
303.861 -3.05089 0
304.841 -7.41295 0
306.249 -5.3588 0
305.127 -3.13542 0
303.719 -5.1896 0
304.984 -5.2741 0
306.106 -7.49762 0
308.635 -7.66754 0
308.922 -3.39017 0
306.392 -3.22014 0
307.37 -7.58248 0
308.779 -5.52877 0
307.657 -3.30506 0
306.249 -5.3588 0
307.514 -5.44369 0
308.635 -7.66754 0
311.164 -7.83823 0
311.453 -3.56097 0
308.922 -3.39017 0
309.899 -7.75279 0
311.308 -5.69952 0
310.188 -3.47547 0
308.779 -5.52877 0
310.043 -5.61405 0
311.164 -7.83823 0
313.693 -8.00969 0
313.983 -3.73253 0
311.453 -3.56097 0
312.428 -7.92387 0
313.838 -5.87103 0
312.718 -3.64665 0
311.308 -5.69952 0
312.573 -5.78518 0
313.693 -8.00969 0
316.222 -8.18189 0
316.513 -3.90483 0
313.983 -3.73253 0
314.957 -8.0957 0
316.368 -6.04328 0
315.248 -3.81859 0
313.838 -5.87103 0
315.103 -5.95706 0
316.222 -8.18189 0
318.751 -8.35484 0
319.044 -4.07788 0
316.513 -3.90483 0
317.487 -8.26827 0
318.897 -6.21628 0
317.779 -3.99126 0
316.368 -6.04328 0
317.633 -6.12969 0
318.751 -8.35484 0
321.28 -8.52851 0
321.574 -4.25165 0
319.044 -4.07788 0
320.016 -8.44158 0
321.427 -6.39 0
320.309 -4.16467 0
318.897 -6.21628 0
320.162 -6.30305 0
321.28 -8.52851 0
323.809 -8.7029 0
324.104 -4.42614 0
321.574 -4.25165 0
322.545 -8.61561 0
323.957 -6.56445 0
322.839 -4.33881 0
321.427 -6.39 0
322.692 -6.47714 0
323.809 -8.7029 0
326.338 -8.878 0
326.634 -4.60134 0
324.104 -4.42614 0
325.074 -8.79036 0
326.486 -6.7396 0
325.369 -4.51365 0
323.957 -6.56445 0
325.222 -6.65193 0
326.338 -8.878 0
328.867 -9.0538 0
329.165 -4.77724 0
326.634 -4.60134 0
327.603 -8.96581 0
329.016 -6.91545 0
327.9 -4.6892 0
326.486 -6.7396 0
327.751 -6.82744 0
328.867 -9.0538 0
331.396 -9.23029 0
331.695 -4.95382 0
329.165 -4.77724 0
330.132 -9.14196 0
331.546 -7.09198 0
330.43 -4.86545 0
329.016 -6.91545 0
330.281 -7.00363 0
331.396 -9.23029 0
333.925 -9.40745 0
334.225 -5.13109 0
331.695 -4.95382 0
332.661 -9.31878 0
334.075 -7.2692 0
332.96 -5.04237 0
331.546 -7.09198 0
332.81 -7.18051 0
333.925 -9.40745 0
336.454 -9.58528 0
336.755 -5.30901 0
334.225 -5.13109 0
335.19 -9.49628 0
336.605 -7.44708 0
335.49 -5.21997 0
334.075 -7.2692 0
335.34 -7.35806 0
336.454 -9.58528 0
338.983 -9.76377 0
339.285 -5.4876 0
336.755 -5.30901 0
337.719 -9.67445 0
339.134 -7.62562 0
338.02 -5.39823 0
336.605 -7.44708 0
337.87 -7.53627 0
338.983 -9.76377 0
341.513 -9.94291 0
341.815 -5.66683 0
339.285 -5.4876 0
340.248 -9.85326 0
341.664 -7.80481 0
340.55 -5.57714 0
339.134 -7.62562 0
340.399 -7.71513 0
341.513 -9.94291 0
344.042 -10.1227 0
344.346 -5.8467 0
341.815 -5.66683 0
342.777 -10.0327 0
344.194 -7.98463 0
343.08 -5.75669 0
341.664 -7.80481 0
342.929 -7.89464 0
344.042 -10.1227 0
346.571 -10.3031 0
346.876 -6.02719 0
344.346 -5.8467 0
345.306 -10.2128 0
346.723 -8.16508 0
345.611 -5.93687 0
344.194 -7.98463 0
345.458 -8.07478 0
346.571 -10.3031 0
349.1 -10.4841 0
349.406 -6.2083 0
346.876 -6.02719 0
347.835 -10.3935 0
349.253 -8.34614 0
348.141 -6.11767 0
346.723 -8.16508 0
347.988 -8.25553 0
349.1 -10.4841 0
351.629 -10.6657 0
351.936 -6.39002 0
349.406 -6.2083 0
350.364 -10.5748 0
351.782 -8.52782 0
350.671 -6.29909 0
349.253 -8.34614 0
350.517 -8.4369 0
351.629 -10.6657 0
354.158 -10.848 0
354.466 -6.57233 0
351.936 -6.39002 0
352.893 -10.7568 0
354.312 -8.71008 0
353.201 -6.4811 0
351.782 -8.52782 0
353.047 -8.61887 0
354.158 -10.848 0
356.687 -11.0308 0
356.996 -6.75523 0
354.466 -6.57233 0
355.422 -10.9393 0
356.841 -8.89294 0
355.731 -6.66371 0
354.312 -8.71008 0
355.576 -8.80144 0
356.687 -11.0308 0
359.216 -11.2141 0
359.526 -6.9387 0
356.996 -6.75523 0
357.951 -11.1224 0
359.371 -9.07636 0
358.261 -6.84689 0
356.841 -8.89294 0
358.106 -8.98458 0
359.216 -11.2141 0
361.745 -11.3981 0
362.056 -7.12273 0
359.526 -6.9387 0
360.48 -11.3061 0
361.9 -9.26036 0
360.791 -7.03064 0
359.371 -9.07636 0
360.636 -9.16829 0
361.745 -11.3981 0
364.274 -11.5826 0
364.586 -7.30732 0
362.056 -7.12273 0
363.009 -11.4903 0
364.43 -9.44491 0
363.321 -7.21496 0
361.9 -9.26036 0
363.165 -9.35256 0
364.274 -11.5826 0
366.803 -11.7677 0
367.116 -7.49246 0
364.586 -7.30732 0
365.538 -11.6751 0
366.959 -9.63 0
365.851 -7.39982 0
364.43 -9.44491 0
365.695 -9.53738 0
366.803 -11.7677 0
369.332 -11.9532 0
369.646 -7.67812 0
367.116 -7.49246 0
368.067 -11.8604 0
369.489 -9.81563 0
368.381 -7.58522 0
366.959 -9.63 0
368.224 -9.72275 0
369.332 -11.9532 0
371.861 -12.1393 0
372.175 -7.86431 0
369.646 -7.67812 0
370.596 -12.0462 0
372.018 -10.0018 0
370.911 -7.77115 0
369.489 -9.81563 0
370.754 -9.90864 0
371.861 -12.1393 0
374.39 -12.326 0
374.705 -8.05102 0
372.175 -7.86431 0
373.125 -12.2326 0
374.548 -10.1884 0
373.44 -7.9576 0
372.018 -10.0018 0
373.283 -10.095 0
374.39 -12.326 0
376.919 -12.5131 0
377.235 -8.23823 0
374.705 -8.05102 0
375.655 -12.4195 0
377.077 -10.3756 0
375.97 -8.14456 0
374.548 -10.1884 0
375.812 -10.282 0
376.919 -12.5131 0
379.448 -12.7007 0
379.765 -8.42593 0
377.235 -8.23823 0
378.184 -12.6068 0
379.607 -10.5633 0
378.5 -8.33202 0
377.077 -10.3756 0
378.342 -10.4694 0
379.448 -12.7007 0
381.977 -12.8888 0
382.295 -8.61411 0
379.765 -8.42593 0
380.713 -12.7947 0
382.136 -10.7514 0
381.03 -8.51996 0
379.607 -10.5633 0
380.871 -10.6573 0
381.977 -12.8888 0
384.506 -13.0774 0
384.825 -8.80277 0
382.295 -8.61411 0
383.242 -12.9831 0
384.666 -10.94 0
383.56 -8.70838 0
382.136 -10.7514 0
383.401 -10.8457 0
384.506 -13.0774 0
387.035 -13.2665 0
387.355 -8.99189 0
384.825 -8.80277 0
385.771 -13.1719 0
387.195 -11.1291 0
386.09 -8.89727 0
384.666 -10.94 0
385.93 -11.0345 0
387.035 -13.2665 0
389.565 -13.4559 0
389.885 -9.18146 0
387.355 -8.99189 0
388.3 -13.3611 0
389.725 -11.3187 0
388.62 -9.08662 0
387.195 -11.1291 0
388.46 -11.2238 0
389.565 -13.4559 0
392.094 -13.6459 0
392.414 -9.37147 0
389.885 -9.18146 0
390.829 -13.5509 0
392.254 -11.5086 0
391.15 -9.27641 0
389.725 -11.3187 0
390.989 -11.4136 0
392.094 -13.6459 0
394.623 -13.8363 0
394.944 -9.56191 0
392.414 -9.37147 0
393.358 -13.741 0
394.784 -11.699 0
393.679 -9.46664 0
392.254 -11.5086 0
393.519 -11.6038 0
394.623 -13.8363 0
397.152 -14.0271 0
397.474 -9.75278 0
394.944 -9.56191 0
395.887 -13.9316 0
397.313 -11.8899 0
396.209 -9.65729 0
394.784 -11.699 0
396.048 -11.7944 0
397.152 -14.0271 0
399.681 -14.2183 0
400.004 -9.94406 0
397.474 -9.75278 0
398.416 -14.1226 0
399.843 -12.0811 0
398.739 -9.84837 0
397.313 -11.8899 0
398.578 -11.9854 0
399.681 -14.2183 0
402.21 -14.4099 0
402.534 -10.1357 0
400.004 -9.94406 0
400.946 -14.314 0
402.372 -12.2728 0
401.269 -10.0398 0
399.843 -12.0811 0
401.107 -12.1769 0
402.21 -14.4099 0
404.739 -14.6019 0
405.064 -10.3278 0
402.534 -10.1357 0
403.475 -14.5058 0
404.902 -12.4648 0
403.799 -10.2317 0
402.372 -12.2728 0
403.637 -12.3687 0
404.739 -14.6019 0
407.269 -14.7943 0
407.593 -10.5202 0
405.064 -10.3278 0
406.004 -14.698 0
407.431 -12.6572 0
406.329 -10.424 0
404.902 -12.4648 0
406.166 -12.561 0
407.269 -14.7943 0
409.798 -14.987 0
410.123 -10.7131 0
407.593 -10.5202 0
408.533 -14.8906 0
409.961 -12.85 0
408.858 -10.6166 0
407.431 -12.6572 0
408.696 -12.7536 0
409.798 -14.987 0
412.327 -15.1801 0
412.653 -10.9062 0
410.123 -10.7131 0
411.062 -15.0835 0
412.49 -13.0432 0
411.388 -10.8096 0
409.961 -12.85 0
411.225 -12.9465 0
412.327 -15.1801 0
414.856 -15.3736 0
415.183 -11.0998 0
412.653 -10.9062 0
413.592 -15.2768 0
415.02 -13.2367 0
413.918 -11.003 0
412.49 -13.0432 0
413.755 -13.1399 0
414.856 -15.3736 0
417.385 -15.5674 0
417.713 -11.2936 0
415.183 -11.0998 0
416.121 -15.4705 0
417.549 -13.4305 0
416.448 -11.1967 0
415.02 -13.2367 0
416.284 -13.3335 0
417.385 -15.5674 0
419.915 -15.7615 0
420.243 -11.4878 0
417.713 -11.2936 0
418.65 -15.6644 0
420.079 -13.6247 0
418.978 -11.3907 0
417.549 -13.4305 0
418.814 -13.5275 0
419.915 -15.7615 0
422.444 -15.956 0
422.772 -11.6824 0
420.243 -11.4878 0
421.179 -15.8587 0
422.608 -13.8191 0
421.507 -11.5851 0
420.079 -13.6247 0
421.343 -13.7219 0
422.444 -15.956 0
424.973 -16.1508 0
425.302 -11.8772 0
422.772 -11.6824 0
423.709 -16.0533 0
425.138 -14.0139 0
424.037 -11.7797 0
422.608 -13.8191 0
423.873 -13.9165 0
424.973 -16.1508 0
427.503 -16.3458 0
427.832 -12.0723 0
425.302 -11.8772 0
426.238 -16.2483 0
427.667 -14.209 0
426.567 -11.9747 0
425.138 -14.0139 0
426.403 -14.1115 0
427.503 -16.3458 0
430.032 -16.5412 0
430.362 -12.2677 0
427.832 -12.0723 0
428.767 -16.4435 0
430.197 -14.4044 0
429.097 -12.17 0
427.667 -14.209 0
428.932 -14.3067 0
430.032 -16.5412 0
432.561 -16.7368 0
432.892 -12.4634 0
430.362 -12.2677 0
431.297 -16.639 0
432.727 -14.6001 0
431.627 -12.3655 0
430.197 -14.4044 0
431.462 -14.5022 0
432.561 -16.7368 0
435.091 -16.9327 0
435.422 -12.6594 0
432.892 -12.4634 0
433.826 -16.8348 0
435.256 -14.796 0
434.157 -12.5614 0
432.727 -14.6001 0
433.991 -14.698 0
435.091 -16.9327 0
437.62 -17.1289 0
437.951 -12.8556 0
435.422 -12.6594 0
436.356 -17.0308 0
437.786 -14.9922 0
436.686 -12.7574 0
435.256 -14.796 0
436.521 -14.8941 0
437.62 -17.1289 0
440.15 -17.3253 0
440.481 -13.0521 0
437.951 -12.8556 0
438.885 -17.2271 0
440.316 -15.1887 0
439.216 -12.9538 0
437.786 -14.9922 0
439.051 -15.0904 0
440.15 -17.3253 0
442.679 -17.522 0
443.011 -13.2488 0
440.481 -13.0521 0
441.414 -17.4236 0
442.845 -15.3853 0
441.746 -13.1504 0
440.316 -15.1887 0
441.58 -15.287 0
442.679 -17.522 0
445.209 -17.7189 0
445.541 -13.4457 0
443.011 -13.2488 0
443.944 -17.6204 0
445.375 -15.5822 0
444.276 -13.3472 0
442.845 -15.3853 0
444.11 -15.4838 0
445.209 -17.7189 0
447.738 -17.916 0
448.071 -13.6428 0
445.541 -13.4457 0
446.473 -17.8174 0
447.905 -15.7794 0
446.806 -13.5442 0
445.375 -15.5822 0
446.64 -15.6808 0
447.738 -17.916 0
450.268 -18.1133 0
450.601 -13.8402 0
448.071 -13.6428 0
449.003 -18.0146 0
450.434 -15.9767 0
449.336 -13.7415 0
447.905 -15.7794 0
449.169 -15.878 0
450.268 -18.1133 0
452.797 -18.3108 0
453.131 -14.0377 0
450.601 -13.8402 0
451.533 -18.212 0
452.964 -16.1742 0
451.866 -13.9389 0
450.434 -15.9767 0
451.699 -16.0754 0
452.797 -18.3108 0
455.327 -18.5085 0
455.661 -14.2355 0
453.131 -14.0377 0
454.062 -18.4096 0
455.494 -16.3719 0
454.396 -14.1366 0
452.964 -16.1742 0
454.229 -16.2731 0
455.327 -18.5085 0
457.857 -18.7063 0
458.19 -14.4334 0
455.661 -14.2355 0
456.592 -18.6074 0
458.024 -16.5698 0
456.925 -14.3344 0
455.494 -16.3719 0
456.759 -16.4709 0
457.857 -18.7063 0
460.386 -18.9044 0
460.72 -14.6314 0
458.19 -14.4334 0
459.121 -18.8053 0
460.553 -16.7679 0
459.455 -14.5324 0
458.024 -16.5698 0
459.288 -16.6688 0
460.386 -18.9044 0
462.916 -19.1026 0
463.25 -14.8297 0
460.72 -14.6314 0
461.651 -19.0035 0
463.083 -16.9661 0
461.985 -14.7305 0
460.553 -16.7679 0
461.818 -16.867 0
462.916 -19.1026 0
465.446 -19.3009 0
465.78 -15.0281 0
463.25 -14.8297 0
464.181 -19.2017 0
465.613 -17.1645 0
464.515 -14.9288 0
463.083 -16.9661 0
464.348 -17.0653 0
465.446 -19.3009 0
467.975 -19.4994 0
468.31 -15.2266 0
465.78 -15.0281 0
466.711 -19.4001 0
468.143 -17.363 0
467.045 -15.1273 0
465.613 -17.1645 0
466.878 -17.2637 0
467.975 -19.4994 0
470.505 -19.698 0
470.84 -15.4252 0
468.31 -15.2266 0
469.24 -19.5987 0
470.673 -17.5616 0
469.575 -15.3259 0
468.143 -17.363 0
469.408 -17.4623 0
470.505 -19.698 0
473.035 -19.8967 0
473.37 -15.624 0
470.84 -15.4252 0
471.77 -19.7973 0
473.203 -17.7603 0
472.105 -15.5246 0
470.673 -17.5616 0
471.938 -17.6609 0
473.035 -19.8967 0
475.565 -20.0955 0
475.9 -15.8228 0
473.37 -15.624 0
474.3 -19.9961 0
475.733 -17.9592 0
474.635 -15.7234 0
473.203 -17.7603 0
474.468 -17.8597 0
475.565 -20.0955 0
478.095 -20.2945 0
478.43 -16.0218 0
475.9 -15.8228 0
476.83 -20.195 0
478.263 -18.1581 0
477.165 -15.9223 0
475.733 -17.9592 0
476.998 -18.0586 0
478.095 -20.2945 0
480.625 -20.4935 0
480.96 -16.2208 0
478.43 -16.0218 0
479.36 -20.3939 0
480.793 -18.3571 0
479.695 -16.1213 0
478.263 -18.1581 0
479.528 -18.2576 0
480.625 -20.4935 0
483.155 -20.6925 0
483.491 -16.4199 0
480.96 -16.2208 0
481.89 -20.593 0
483.323 -18.5562 0
482.225 -16.3203 0
480.793 -18.3571 0
482.058 -18.4567 0
483.155 -20.6925 0
485.685 -20.8917 0
486.021 -16.6191 0
483.491 -16.4199 0
484.42 -20.7921 0
485.853 -18.7554 0
484.756 -16.5195 0
483.323 -18.5562 0
484.588 -18.6558 0
485.685 -20.8917 0
488.215 -21.0909 0
488.551 -16.8183 0
486.021 -16.6191 0
486.95 -20.9913 0
488.383 -18.9546 0
487.286 -16.7187 0
485.853 -18.7554 0
487.118 -18.855 0
488.215 -21.0909 0
490.745 -21.2902 0
491.081 -17.0176 0
488.551 -16.8183 0
489.48 -21.1905 0
490.913 -19.1539 0
489.816 -16.918 0
488.383 -18.9546 0
489.648 -19.0542 0
490.745 -21.2902 0
493.275 -21.4895 0
493.611 -17.2169 0
491.081 -17.0176 0
492.01 -21.3898 0
493.443 -19.3532 0
492.346 -17.1173 0
490.913 -19.1539 0
492.178 -19.2535 0
493.275 -21.4895 0
495.805 -21.689 0
496.141 -17.4162 0
493.611 -17.2169 0
494.54 -21.5892 0
495.973 -19.5526 0
494.876 -17.3166 0
493.443 -19.3532 0
494.708 -19.4529 0
495.805 -21.689 0
498.336 -21.8885 0
498.672 -17.6155 0
496.141 -17.4162 0
497.07 -21.7887 0
498.504 -19.7519 0
497.407 -17.5159 0
495.973 -19.5526 0
497.239 -19.6523 0
0 8.57143 0
2.53352 8.57098 0
2.53656 12.8574 0
0 12.8571 0
1.26683 8.57157 0
2.53505 10.7143 0
1.26828 12.8576 0
0 10.7143 0
1.26757 10.7147 0
2.53352 8.57098 0
5.0667 8.56794 0
5.07299 12.8549 0
2.53656 12.8574 0
3.80014 8.56975 0
5.06987 10.7116 0
3.80479 12.8565 0
2.53505 10.7143 0
3.80248 10.7132 0
5.0667 8.56794 0
7.59967 8.56267 0
7.60937 12.8499 0
5.07299 12.8549 0
6.3332 8.56557 0
7.60456 10.7065 0
6.34118 12.8527 0
5.06987 10.7116 0
6.33723 10.7093 0
7.59967 8.56267 0
10.1326 8.55538 0
10.1457 12.8427 0
7.60937 12.8499 0
8.86614 8.55928 0
10.1392 10.6993 0
8.87754 12.8466 0
7.60456 10.7065 0
8.87188 10.7031 0
10.1326 8.55538 0
12.6655 8.54612 0
12.682 12.8335 0
10.1457 12.8427 0
11.3991 8.551 0
12.6738 10.69 0
11.4139 12.8384 0
10.1392 10.6993 0
11.4065 10.6949 0
12.6655 8.54612 0
15.1985 8.5349 0
15.2184 12.8223 0
12.682 12.8335 0
13.932 8.54075 0
15.2085 10.6788 0
13.9502 12.8281 0
12.6738 10.69 0
13.9411 10.6847 0
15.1985 8.5349 0
17.7315 8.52174 0
17.7547 12.8091 0
15.2184 12.8223 0
16.465 8.52856 0
17.7432 10.6656 0
16.4865 12.8159 0
15.2085 10.6788 0
16.4758 10.6724 0
17.7315 8.52174 0
20.2646 8.50662 0
20.2911 12.7939 0
17.7547 12.8091 0
18.9981 8.51442 0
20.2778 10.6505 0
19.0229 12.8017 0
17.7432 10.6656 0
19.0105 10.6583 0
20.2646 8.50662 0
22.7977 8.48958 0
22.8274 12.7768 0
20.2911 12.7939 0
21.5311 8.49834 0
22.8126 10.6334 0
21.5592 12.7856 0
20.2778 10.6505 0
21.5452 10.6422 0
22.7977 8.48958 0
25.3308 8.47061 0
25.3638 12.7578 0
22.8274 12.7768 0
24.0642 8.48033 0
25.3473 10.6144 0
24.0956 12.7676 0
22.8126 10.6334 0
24.0799 10.6242 0
25.3308 8.47061 0
27.8639 8.44972 0
27.9001 12.7369 0
25.3638 12.7578 0
26.5973 8.4604 0
27.882 10.5935 0
26.6319 12.7476 0
25.3473 10.6144 0
26.6146 10.6042 0
27.8639 8.44972 0
30.397 8.42692 0
30.4365 12.7141 0
27.9001 12.7369 0
29.1304 8.43855 0
30.4167 10.5707 0
29.1683 12.7257 0
27.882 10.5935 0
29.1494 10.5823 0
30.397 8.42692 0
32.9301 8.40222 0
32.9728 12.6893 0
30.4365 12.7141 0
31.6635 8.41481 0
32.9515 10.546 0
31.7046 12.7019 0
30.4167 10.5707 0
31.6841 10.5586 0
32.9301 8.40222 0
35.4633 8.37564 0
35.5091 12.6627 0
32.9728 12.6893 0
34.1967 8.38917 0
35.4862 10.5194 0
34.241 12.6762 0
32.9515 10.546 0
34.2188 10.5329 0
35.4633 8.37564 0
37.9964 8.34718 0
38.0454 12.6342 0
35.5091 12.6627 0
36.7298 8.36164 0
38.0209 10.4909 0
36.7773 12.6487 0
35.4862 10.5194 0
36.7536 10.5054 0
37.9964 8.34718 0
40.5295 8.31685 0
40.5817 12.6038 0
38.0454 12.6342 0
39.263 8.33225 0
40.5557 10.4605 0
39.3136 12.6192 0
38.0209 10.4909 0
39.2883 10.4759 0
40.5295 8.31685 0
43.0627 8.28467 0
43.118 12.5716 0
40.5817 12.6038 0
41.7961 8.30099 0
43.0904 10.4283 0
41.8499 12.5879 0
40.5557 10.4605 0
41.823 10.4447 0
43.0627 8.28467 0
45.5959 8.25064 0
45.6543 12.5375 0
43.118 12.5716 0
44.3293 8.26788 0
45.6251 10.3943 0
44.3862 12.5548 0
43.0904 10.4283 0
44.3577 10.4115 0
45.5959 8.25064 0
48.129 8.21477 0
48.1905 12.5016 0
45.6543 12.5375 0
46.8624 8.23293 0
48.1598 10.3584 0
46.9224 12.5198 0
45.6251 10.3943 0
46.8924 10.3765 0
48.129 8.21477 0
50.6622 8.17708 0
50.7268 12.4638 0
48.1905 12.5016 0
49.3956 8.19615 0
50.6945 10.3207 0
49.4587 12.4829 0
48.1598 10.3584 0
49.4271 10.3397 0
50.6622 8.17708 0
53.1953 8.13757 0
53.263 12.4243 0
50.7268 12.4638 0
51.9287 8.15755 0
53.2292 10.2811 0
51.9949 12.4443 0
50.6945 10.3207 0
51.9618 10.3011 0
53.1953 8.13757 0
55.7285 8.09626 0
55.7992 12.3829 0
53.263 12.4243 0
54.4619 8.11714 0
55.7638 10.2398 0
54.5311 12.4038 0
53.2292 10.2811 0
54.4965 10.2607 0
55.7285 8.09626 0
58.2616 8.05315 0
58.3354 12.3397 0
55.7992 12.3829 0
56.995 8.07493 0
58.2985 10.1966 0
57.0673 12.3615 0
55.7638 10.2398 0
57.0312 10.2184 0
58.2616 8.05315 0
60.7948 8.00826 0
60.8715 12.2948 0
58.3354 12.3397 0
59.5282 8.03093 0
60.8332 10.1517 0
59.6034 12.3175 0
58.2985 10.1966 0
59.5658 10.1744 0
60.7948 8.00826 0
63.3279 7.96159 0
63.4077 12.248 0
60.8715 12.2948 0
62.0613 7.98515 0
63.3678 10.105 0
62.1396 12.2716 0
60.8332 10.1517 0
62.1005 10.1286 0
63.3279 7.96159 0
65.861 7.91316 0
65.9438 12.1996 0
63.4077 12.248 0
64.5945 7.93759 0
65.9024 10.0565 0
64.6757 12.224 0
63.3678 10.105 0
64.6351 10.081 0
65.861 7.91316 0
68.3942 7.86297 0
68.4798 12.1493 0
65.9438 12.1996 0
67.1276 7.88828 0
68.437 10.0063 0
67.2118 12.1746 0
65.9024 10.0565 0
67.1697 10.0317 0
68.3942 7.86297 0
70.9273 7.81104 0
71.0159 12.0973 0
68.4798 12.1493 0
69.6607 7.83722 0
70.9716 9.95436 0
69.7479 12.1235 0
68.437 10.0063 0
69.7043 9.98056 0
70.9273 7.81104 0
73.4604 7.75738 0
73.5519 12.0436 0
71.0159 12.0973 0
72.1938 7.78443 0
73.5062 9.90066 0
72.2839 12.0707 0
70.9716 9.95436 0
72.2389 9.92772 0
73.4604 7.75738 0
75.9935 7.70199 0
76.0879 11.9881 0
73.5519 12.0436 0
74.7269 7.7299 0
76.0407 9.84523 0
74.8199 12.0161 0
73.5062 9.90066 0
74.7734 9.87316 0
75.9935 7.70199 0
78.5265 7.64489 0
78.6239 11.9309 0
76.0879 11.9881 0
77.26 7.67365 0
78.5752 9.78809 0
77.3559 11.9597 0
76.0407 9.84523 0
77.308 9.81688 0
78.5265 7.64489 0
81.0596 7.58609 0
81.1598 11.8721 0
78.6239 11.9309 0
79.7931 7.6157 0
81.1097 9.72925 0
79.8919 11.9017 0
78.5752 9.78809 0
79.8425 9.75889 0
81.0596 7.58609 0
83.5927 7.52559 0
83.6957 11.8115 0
81.1598 11.8721 0
82.3261 7.55605 0
83.6442 9.66872 0
82.4278 11.842 0
81.1097 9.72925 0
82.377 9.6992 0
83.5927 7.52559 0
86.1257 7.46341 0
86.2316 11.7492 0
83.6957 11.8115 0
84.8592 7.49471 0
86.1787 9.6065 0
84.9637 11.7806 0
83.6442 9.66872 0
84.9115 9.63782 0
86.1257 7.46341 0
88.6587 7.39956 0
88.7675 11.6853 0
86.2316 11.7492 0
87.3922 7.4317 0
88.7131 9.54261 0
87.4995 11.7175 0
86.1787 9.6065 0
87.4459 9.57476 0
88.6587 7.39956 0
91.1917 7.33405 0
91.3033 11.6197 0
88.7675 11.6853 0
89.9252 7.36701 0
91.2475 9.47706 0
90.0354 11.6527 0
88.7131 9.54261 0
89.9803 9.51004 0
91.1917 7.33405 0
93.7247 7.26689 0
93.8391 11.5525 0
91.3033 11.6197 0
92.4582 7.30068 0
93.7819 9.40985 0
92.5712 11.5863 0
91.2475 9.47706 0
92.5147 9.44366 0
93.7247 7.26689 0
96.2577 7.19808 0
96.3748 11.4836 0
93.8391 11.5525 0
94.9912 7.23269 0
96.3163 9.341 0
95.1069 11.5182 0
93.7819 9.40985 0
95.0491 9.37563 0
96.2577 7.19808 0
98.7907 7.12765 0
98.9105 11.4131 0
96.3748 11.4836 0
97.5242 7.16307 0
98.8506 9.27053 0
97.6427 11.4485 0
96.3163 9.341 0
97.5834 9.30597 0
98.7907 7.12765 0
101.324 7.05559 0
101.446 11.3409 0
98.9105 11.4131 0
100.057 7.09182 0
101.385 9.19843 0
100.178 11.3772 0
98.8506 9.27053 0
100.118 9.23468 0
101.324 7.05559 0
103.857 6.98193 0
103.982 11.2672 0
101.446 11.3409 0
102.59 7.01896 0
103.919 9.12471 0
102.714 11.3042 0
101.385 9.19843 0
102.652 9.16177 0
103.857 6.98193 0
106.389 6.90666 0
106.517 11.1918 0
103.982 11.2672 0
105.123 6.94449 0
106.453 9.0494 0
105.25 11.2297 0
103.919 9.12471 0
105.186 9.08726 0
106.389 6.90666 0
108.922 6.8298 0
109.053 11.1149 0
106.517 11.1918 0
107.656 6.86843 0
108.988 8.9725 0
107.785 11.1535 0
106.453 9.0494 0
107.721 9.01115 0
108.922 6.8298 0
111.455 6.75137 0
111.588 11.0363 0
109.053 11.1149 0
110.189 6.79078 0
111.522 8.89402 0
110.321 11.0758 0
108.988 8.9725 0
110.255 8.93346 0
111.455 6.75137 0
113.988 6.67136 0
114.124 10.9562 0
111.588 11.0363 0
112.722 6.71156 0
114.056 8.81397 0
112.856 10.9965 0
111.522 8.89402 0
112.789 8.85419 0
113.988 6.67136 0
116.521 6.5898 0
116.659 10.8746 0
114.124 10.9562 0
115.254 6.63077 0
116.59 8.73235 0
115.392 10.9156 0
114.056 8.81397 0
115.323 8.77335 0
116.521 6.5898 0
119.054 6.50668 0
119.195 10.7914 0
116.659 10.8746 0
117.787 6.54843 0
119.124 8.64919 0
117.927 10.8332 0
116.59 8.73235 0
117.857 8.69097 0
119.054 6.50668 0
121.586 6.42203 0
121.73 10.7066 0
119.195 10.7914 0
120.32 6.46455 0
121.658 8.56449 0
120.462 10.7492 0
119.124 8.64919 0
120.391 8.60703 0
121.586 6.42203 0
124.119 6.33585 0
124.265 10.6203 0
121.73 10.7066 0
122.853 6.37913 0
124.192 8.47826 0
122.998 10.6637 0
121.658 8.56449 0
122.925 8.52157 0
124.119 6.33585 0
126.652 6.24815 0
126.801 10.5326 0
124.265 10.6203 0
125.385 6.29219 0
126.726 8.39052 0
125.533 10.5766 0
124.192 8.47826 0
125.459 8.43458 0
126.652 6.24815 0
129.184 6.15895 0
129.336 10.4433 0
126.801 10.5326 0
127.918 6.20374 0
129.26 8.30126 0
128.068 10.4881 0
126.726 8.39052 0
127.993 8.34608 0
129.184 6.15895 0
131.717 6.06825 0
131.871 10.3524 0
129.336 10.4433 0
130.451 6.11378 0
131.794 8.21051 0
130.604 10.398 0
129.26 8.30126 0
130.527 8.25607 0
131.717 6.06825 0
134.25 5.97605 0
134.406 10.2602 0
131.871 10.3524 0
132.983 6.02234 0
134.328 8.11826 0
133.139 10.3065 0
131.794 8.21051 0
133.061 8.16457 0
134.25 5.97605 0
136.782 5.88239 0
136.941 10.1664 0
134.406 10.2602 0
135.516 5.9294 0
136.862 8.02455 0
135.674 10.2135 0
134.328 8.11826 0
135.595 8.07159 0
136.782 5.88239 0
139.315 5.78725 0
139.476 10.0712 0
136.941 10.1664 0
138.049 5.835 0
139.396 7.92936 0
138.209 10.119 0
136.862 8.02455 0
138.129 7.97714 0
139.315 5.78725 0
141.847 5.69066 0
142.011 9.97446 0
139.476 10.0712 0
140.581 5.73914 0
141.929 7.83272 0
140.744 10.023 0
139.396 7.92936 0
140.663 7.88122 0
141.847 5.69066 0
144.38 5.59263 0
144.546 9.87632 0
142.011 9.97446 0
143.114 5.64182 0
144.463 7.73463 0
143.279 9.92557 0
141.929 7.83272 0
143.196 7.78385 0
144.38 5.59263 0
146.912 5.49315 0
147.081 9.77675 0
144.546 9.87632 0
145.646 5.54307 0
146.997 7.6351 0
145.814 9.82671 0
144.463 7.73463 0
145.73 7.68504 0
146.912 5.49315 0
149.445 5.39225 0
149.616 9.67575 0
147.081 9.77675 0
148.179 5.44288 0
149.53 7.53415 0
148.349 9.72642 0
146.997 7.6351 0
148.264 7.5848 0
149.445 5.39225 0
151.977 5.28994 0
152.151 9.57333 0
149.616 9.67575 0
150.711 5.34127 0
152.064 7.43178 0
150.883 9.62471 0
149.53 7.53415 0
150.797 7.48314 0
151.977 5.28994 0
154.51 5.18622 0
154.686 9.4695 0
152.151 9.57333 0
153.244 5.23826 0
154.598 7.32801 0
153.418 9.52159 0
152.064 7.43178 0
153.331 7.38007 0
154.51 5.18622 0
157.042 5.08111 0
157.22 9.36428 0
154.686 9.4695 0
155.776 5.13384 0
157.131 7.22284 0
155.953 9.41707 0
154.598 7.32801 0
155.864 7.2756 0
157.042 5.08111 0
159.574 4.97461 0
159.755 9.25768 0
157.22 9.36428 0
158.308 5.02803 0
159.665 7.11629 0
158.488 9.31115 0
157.131 7.22284 0
158.398 7.16974 0
159.574 4.97461 0
162.107 4.86674 0
162.29 9.1497 0
159.755 9.25768 0
160.841 4.92084 0
162.198 7.00836 0
161.022 9.20386 0
159.665 7.11629 0
160.931 7.0625 0
162.107 4.86674 0
164.639 4.7575 0
164.824 9.04036 0
162.29 9.1497 0
163.373 4.81229 0
164.732 6.89907 0
163.557 9.0952 0
162.198 7.00836 0
163.465 6.95389 0
164.639 4.7575 0
167.171 4.64691 0
167.359 8.92966 0
164.824 9.04036 0
165.905 4.70237 0
167.265 6.78843 0
166.091 8.98518 0
164.732 6.89907 0
165.998 6.84392 0
167.171 4.64691 0
169.703 4.53498 0
169.893 8.81762 0
167.359 8.92966 0
168.437 4.59111 0
169.798 6.67644 0
168.626 8.8738 0
167.265 6.78843 0
168.532 6.7326 0
169.703 4.53498 0
172.236 4.42171 0
172.428 8.70424 0
169.893 8.81762 0
170.969 4.47851 0
172.332 6.56312 0
171.16 8.76109 0
169.798 6.67644 0
171.065 6.61994 0
172.236 4.42171 0
174.768 4.30712 0
174.962 8.58954 0
172.428 8.70424 0
173.502 4.36458 0
174.865 6.44847 0
173.695 8.64706 0
172.332 6.56312 0
173.598 6.50596 0
174.768 4.30712 0
177.3 4.19122 0
177.496 8.47353 0
174.962 8.58954 0
176.034 4.24933 0
177.398 6.33251 0
176.229 8.5317 0
174.865 6.44847 0
176.131 6.39065 0
177.3 4.19122 0
179.832 4.07401 0
180.03 8.35621 0
177.496 8.47353 0
178.566 4.13278 0
179.931 6.21525 0
178.763 8.41503 0
177.398 6.33251 0
178.665 6.27404 0
179.832 4.07401 0
182.364 3.95551 0
182.565 8.23761 0
180.03 8.35621 0
181.098 4.01492 0
182.464 6.0967 0
181.298 8.29707 0
179.931 6.21525 0
181.198 6.15614 0
182.364 3.95551 0
184.896 3.83574 0
185.099 8.11772 0
182.565 8.23761 0
183.63 3.89578 0
184.997 5.97686 0
183.832 8.17782 0
182.464 6.0967 0
183.731 6.03694 0
184.896 3.83574 0
187.428 3.71468 0
187.633 7.99656 0
185.099 8.11772 0
186.162 3.77537 0
187.53 5.85576 0
186.366 8.0573 0
184.997 5.97686 0
186.264 5.91647 0
187.428 3.71468 0
189.96 3.59237 0
190.167 7.87413 0
187.633 7.99656 0
188.694 3.65369 0
190.063 5.73339 0
188.9 7.9355 0
187.53 5.85576 0
188.797 5.79473 0
189.96 3.59237 0
192.492 3.46881 0
192.701 7.75046 0
190.167 7.87413 0
191.226 3.53075 0
192.596 5.60977 0
191.434 7.81245 0
190.063 5.73339 0
191.33 5.67173 0
192.492 3.46881 0
195.024 3.344 0
195.235 7.62554 0
192.701 7.75046 0
193.758 3.40656 0
195.129 5.48491 0
193.968 7.68816 0
192.596 5.60977 0
193.863 5.54749 0
195.024 3.344 0
197.555 3.21797 0
197.769 7.4994 0
195.235 7.62554 0
196.289 3.28114 0
197.662 5.35881 0
196.502 7.56262 0
195.129 5.48491 0
196.396 5.42201 0
197.555 3.21797 0
200.087 3.09071 0
200.303 7.37203 0
197.769 7.4994 0
198.821 3.15449 0
200.195 5.2315 0
199.036 7.43587 0
197.662 5.35881 0
198.929 5.29531 0
200.087 3.09071 0
202.619 2.96225 0
202.836 7.24345 0
200.303 7.37203 0
201.353 3.02663 0
202.728 5.10298 0
201.57 7.30789 0
200.195 5.2315 0
201.461 5.16739 0
202.619 2.96225 0
205.151 2.83258 0
205.37 7.11368 0
202.836 7.24345 0
203.885 2.89757 0
205.26 4.97326 0
204.103 7.17872 0
202.728 5.10298 0
203.994 5.03827 0
205.151 2.83258 0
207.682 2.70173 0
207.904 6.98271 0
205.37 7.11368 0
206.416 2.76731 0
207.793 4.84235 0
206.637 7.04834 0
205.26 4.97326 0
206.527 4.90795 0
207.682 2.70173 0
210.214 2.5697 0
210.438 6.85057 0
207.904 6.98271 0
208.948 2.63586 0
210.326 4.71026 0
209.171 6.91679 0
207.793 4.84235 0
209.059 4.77645 0
210.214 2.5697 0
212.746 2.43649 0
212.971 6.71725 0
210.438 6.85057 0
211.48 2.50324 0
212.858 4.577 0
211.704 6.78405 0
210.326 4.71026 0
211.592 4.64377 0
212.746 2.43649 0
215.277 2.30213 0
215.505 6.58278 0
212.971 6.71725 0
214.011 2.36946 0
215.391 4.44258 0
214.238 6.65016 0
212.858 4.577 0
214.125 4.50993 0
215.277 2.30213 0
217.809 2.16662 0
218.038 6.44716 0
215.505 6.58278 0
216.543 2.23452 0
217.923 4.30701 0
216.771 6.51511 0
215.391 4.44258 0
216.657 4.37494 0
217.809 2.16662 0
220.34 2.02997 0
220.572 6.3104 0
218.038 6.44716 0
219.074 2.09844 0
220.456 4.1703 0
219.305 6.37892 0
217.923 4.30701 0
219.19 4.2388 0
220.34 2.02997 0
222.872 1.8922 0
223.105 6.17251 0
220.572 6.3104 0
221.606 1.96122 0
222.988 4.03247 0
221.838 6.24159 0
220.456 4.1703 0
221.722 4.10153 0
222.872 1.8922 0
225.403 1.7533 0
225.638 6.0335 0
223.105 6.17251 0
224.137 1.82289 0
225.521 3.89352 0
224.372 6.10314 0
222.988 4.03247 0
224.255 3.96313 0
225.403 1.7533 0
227.935 1.6133 0
228.171 5.89339 0
225.638 6.0335 0
226.669 1.68344 0
228.053 3.75346 0
226.905 5.96358 0
225.521 3.89352 0
226.787 3.82363 0
227.935 1.6133 0
230.466 1.4722 0
230.705 5.75218 0
228.171 5.89339 0
229.2 1.54289 0
230.585 3.61231 0
229.438 5.82292 0
228.053 3.75346 0
229.319 3.68302 0
230.466 1.4722 0
232.997 1.33001 0
233.238 5.60988 0
230.705 5.75218 0
231.732 1.40124 0
233.118 3.47006 0
231.971 5.68117 0
230.585 3.61231 0
231.851 3.54132 0
232.997 1.33001 0
235.529 1.18675 0
235.771 5.46651 0
233.238 5.60988 0
234.263 1.25852 0
235.65 3.32674 0
234.504 5.53833 0
233.118 3.47006 0
234.384 3.39854 0
235.529 1.18675 0
238.06 1.04242 0
238.304 5.32207 0
235.771 5.46651 0
236.794 1.11472 0
238.182 3.18236 0
237.038 5.39442 0
235.65 3.32674 0
236.916 3.25468 0
238.06 1.04242 0
240.591 0.897037 0
240.837 5.17657 0
238.304 5.32207 0
239.325 0.969862 0
240.714 3.03692 0
239.571 5.24945 0
238.182 3.18236 0
239.448 3.10977 0
240.591 0.897037 0
243.122 0.750606 0
243.37 5.03003 0
240.837 5.17657 0
241.857 0.823952 0
243.246 2.89043 0
242.104 5.10343 0
240.714 3.03692 0
241.98 2.9638 0
243.122 0.750606 0
245.653 0.603139 0
245.903 4.88245 0
243.37 5.03003 0
244.388 0.677001 0
245.778 2.74291 0
244.636 4.95637 0
243.246 2.89043 0
244.512 2.8168 0
245.653 0.603139 0
248.185 0.454646 0
248.436 4.73385 0
245.903 4.88245 0
246.919 0.52902 0
248.31 2.59436 0
247.169 4.80828 0
245.778 2.74291 0
247.044 2.66876 0
248.185 0.454646 0
250.716 0.305138 0
250.969 4.58424 0
248.436 4.73385 0
249.45 0.380019 0
250.842 2.44479 0
249.702 4.65917 0
248.31 2.59436 0
249.576 2.5197 0
250.716 0.305138 0
253.247 0.154626 0
253.501 4.43361 0
250.969 4.58424 0
251.981 0.230007 0
253.374 2.29423 0
252.235 4.50905 0
250.842 2.44479 0
252.108 2.36963 0
253.247 0.154626 0
255.778 0.00311814 0
256.034 4.282 0
253.501 4.43361 0
254.512 0.0789956 0
255.906 2.14266 0
254.768 4.35793 0
253.374 2.29423 0
254.64 2.21857 0
255.778 0.00311814 0
258.309 -0.149374 0
258.567 4.1294 0
256.034 4.282 0
257.043 -0.0730054 0
258.438 1.99012 0
257.3 4.20582 0
255.906 2.14266 0
257.172 2.06651 0
258.309 -0.149374 0
260.84 -0.30284 0
261.099 3.97582 0
258.567 4.1294 0
259.574 -0.225986 0
260.97 1.83659 0
259.833 4.05273 0
258.438 1.99012 0
259.704 1.91348 0
260.84 -0.30284 0
263.371 -0.45727 0
263.632 3.82129 0
261.099 3.97582 0
262.105 -0.379935 0
263.501 1.68211 0
262.366 3.89868 0
260.97 1.83659 0
262.235 1.75947 0
263.371 -0.45727 0
265.902 -0.612654 0
266.164 3.6658 0
263.632 3.82129 0
264.636 -0.534843 0
266.033 1.52667 0
264.898 3.74366 0
263.501 1.68211 0
264.767 1.60451 0
265.902 -0.612654 0
268.432 -0.768981 0
268.697 3.50936 0
266.164 3.6658 0
267.167 -0.6907 0
268.565 1.37029 0
267.431 3.5877 0
266.033 1.52667 0
267.299 1.4486 0
268.432 -0.768981 0
270.963 -0.926242 0
271.229 3.352 0
268.697 3.50936 0
269.698 -0.847496 0
271.096 1.21298 0
269.963 3.4308 0
268.565 1.37029 0
269.83 1.29175 0
270.963 -0.926242 0
273.494 -1.08443 0
273.762 3.19371 0
271.229 3.352 0
272.229 -1.00522 0
273.628 1.05474 0
272.495 3.27297 0
271.096 1.21298 0
272.362 1.13397 0
273.494 -1.08443 0
276.025 -1.24352 0
276.294 3.03451 0
273.762 3.19371 0
274.759 -1.16386 0
276.159 0.895588 0
275.028 3.11422 0
273.628 1.05474 0
274.894 0.975277 0
276.025 -1.24352 0
278.556 -1.40352 0
278.826 2.8744 0
276.294 3.03451 0
277.29 -1.32341 0
278.691 0.735537 0
277.56 2.95457 0
276.159 0.895588 0
277.425 0.815675 0
278.556 -1.40352 0
281.086 -1.56441 0
281.358 2.71341 0
278.826 2.8744 0
279.821 -1.48385 0
281.222 0.574593 0
280.092 2.79402 0
278.691 0.735537 0
279.957 0.655175 0
281.086 -1.56441 0
283.617 -1.72618 0
283.89 2.55153 0
281.358 2.71341 0
282.352 -1.64519 0
283.754 0.412767 0
282.624 2.63258 0
281.222 0.574593 0
282.488 0.49379 0
283.617 -1.72618 0
286.148 -1.88883 0
286.423 2.38879 0
283.89 2.55153 0
284.882 -1.8074 0
286.285 0.25007 0
285.157 2.47027 0
283.754 0.412767 0
285.019 0.331527 0
286.148 -1.88883 0
288.678 -2.05233 0
288.955 2.22518 0
286.423 2.38879 0
287.413 -1.97047 0
288.817 0.0865121 0
287.689 2.30709 0
286.285 0.25007 0
287.551 0.168398 0
288.678 -2.05233 0
291.209 -2.21669 0
291.487 2.06072 0
288.955 2.22518 0
289.944 -2.13441 0
291.348 -0.077897 0
290.221 2.14306 0
288.817 0.0865121 0
290.082 0.00441331 0
291.209 -2.21669 0
293.739 -2.38189 0
294.019 1.89542 0
291.487 2.06072 0
292.474 -2.29919 0
293.879 -0.243147 0
292.753 1.97818 0
291.348 -0.077897 0
292.613 -0.160417 0
293.739 -2.38189 0
296.27 -2.54792 0
296.551 1.72929 0
294.019 1.89542 0
295.005 -2.4648 0
296.41 -0.409227 0
295.285 1.81246 0
293.879 -0.243147 0
295.145 -0.326084 0
296.27 -2.54792 0
298.801 -2.71477 0
299.083 1.56234 0
296.551 1.72929 0
297.535 -2.63124 0
298.942 -0.576127 0
297.817 1.64592 0
296.41 -0.409227 0
297.676 -0.492575 0
298.801 -2.71477 0
301.331 -2.88243 0
301.614 1.39459 0
299.083 1.56234 0
300.066 -2.7985 0
301.473 -0.743838 0
300.348 1.47857 0
298.942 -0.576127 0
300.207 -0.659882 0
301.331 -2.88243 0
303.861 -3.05089 0
304.146 1.22603 0
301.614 1.39459 0
302.596 -2.96656 0
304.004 -0.912348 0
302.88 1.31041 0
301.473 -0.743838 0
302.738 -0.827993 0
303.861 -3.05089 0
306.392 -3.22014 0
306.678 1.05668 0
304.146 1.22603 0
305.127 -3.13542 0
306.535 -1.08165 0
305.412 1.14145 0
304.004 -0.912348 0
305.269 -0.996899 0
306.392 -3.22014 0
308.922 -3.39017 0
309.21 0.886555 0
306.678 1.05668 0
307.657 -3.30506 0
309.066 -1.25173 0
307.944 0.971715 0
306.535 -1.08165 0
307.8 -1.16659 0
308.922 -3.39017 0
311.453 -3.56097 0
311.741 0.715661 0
309.21 0.886555 0
310.188 -3.47547 0
311.597 -1.42257 0
310.475 0.801204 0
309.066 -1.25173 0
310.332 -1.33705 0
311.453 -3.56097 0
313.983 -3.73253 0
314.273 0.544009 0
311.741 0.715661 0
312.718 -3.64665 0
314.128 -1.59418 0
313.007 0.629929 0
311.597 -1.42257 0
312.863 -1.50828 0
313.983 -3.73253 0
316.513 -3.90483 0
316.805 0.371608 0
314.273 0.544009 0
315.248 -3.81859 0
316.659 -1.76653 0
315.539 0.457901 0
314.128 -1.59418 0
315.393 -1.68026 0
316.513 -3.90483 0
319.044 -4.07788 0
319.336 0.19847 0
316.805 0.371608 0
317.779 -3.99126 0
319.19 -1.93963 0
318.07 0.285131 0
316.659 -1.76653 0
317.924 -1.85299 0
319.044 -4.07788 0
321.574 -4.25165 0
321.868 0.0246043 0
319.336 0.19847 0
320.309 -4.16467 0
321.721 -2.11345 0
320.602 0.111628 0
319.19 -1.93963 0
320.455 -2.02645 0
321.574 -4.25165 0
324.104 -4.42614 0
324.399 -0.149979 0
321.868 0.0246043 0
322.839 -4.33881 0
324.252 -2.28799 0
323.133 -0.0625982 0
321.721 -2.11345 0
322.986 -2.20063 0
324.104 -4.42614 0
326.634 -4.60134 0
326.93 -0.325269 0
324.399 -0.149979 0
325.369 -4.51365 0
326.782 -2.46323 0
325.665 -0.237536 0
324.252 -2.28799 0
325.517 -2.37552 0
326.634 -4.60134 0
329.165 -4.77724 0
329.462 -0.501256 0
326.93 -0.325269 0
327.9 -4.6892 0
329.313 -2.63917 0
328.196 -0.413176 0
326.782 -2.46323 0
328.048 -2.55112 0
329.165 -4.77724 0
331.695 -4.95382 0
331.993 -0.677929 0
329.462 -0.501256 0
330.43 -4.86545 0
331.844 -2.81581 0
330.727 -0.589507 0
329.313 -2.63917 0
330.579 -2.7274 0
331.695 -4.95382 0
334.225 -5.13109 0
334.524 -0.855279 0
331.993 -0.677929 0
332.96 -5.04237 0
334.375 -2.99311 0
333.259 -0.76652 0
331.844 -2.81581 0
333.109 -2.90437 0
334.225 -5.13109 0
336.755 -5.30901 0
337.056 -1.03329 0
334.524 -0.855279 0
335.49 -5.21997 0
336.905 -3.17109 0
335.79 -0.944204 0
334.375 -2.99311 0
335.64 -3.08202 0
336.755 -5.30901 0
339.285 -5.4876 0
339.587 -1.21197 0
337.056 -1.03329 0
338.02 -5.39823 0
339.436 -3.34971 0
338.321 -1.12255 0
336.905 -3.17109 0
338.171 -3.26032 0
339.285 -5.4876 0
341.815 -5.66683 0
342.118 -1.39128 0
339.587 -1.21197 0
340.55 -5.57714 0
341.967 -3.52899 0
340.853 -1.30154 0
339.436 -3.34971 0
340.701 -3.43927 0
341.815 -5.66683 0
344.346 -5.8467 0
344.649 -1.57123 0
342.118 -1.39128 0
343.08 -5.75669 0
344.497 -3.7089 0
343.384 -1.48118 0
341.967 -3.52899 0
343.232 -3.61887 0
344.346 -5.8467 0
346.876 -6.02719 0
347.18 -1.75181 0
344.649 -1.57123 0
345.611 -5.93687 0
347.028 -3.88944 0
345.915 -1.66145 0
344.497 -3.7089 0
345.763 -3.79909 0
346.876 -6.02719 0
349.406 -6.2083 0
349.712 -1.933 0
347.18 -1.75181 0
348.141 -6.11767 0
349.559 -4.07059 0
348.446 -1.84233 0
347.028 -3.88944 0
348.293 -3.97994 0
349.406 -6.2083 0
351.936 -6.39002 0
352.243 -2.1148 0
349.712 -1.933 0
350.671 -6.29909 0
352.089 -4.25235 0
350.977 -2.02383 0
349.559 -4.07059 0
350.824 -4.16139 0
351.936 -6.39002 0
354.466 -6.57233 0
354.774 -2.29719 0
352.243 -2.1148 0
353.201 -6.4811 0
354.62 -4.4347 0
353.508 -2.20592 0
352.089 -4.25235 0
353.354 -4.34345 0
354.466 -6.57233 0
356.996 -6.75523 0
357.305 -2.48017 0
354.774 -2.29719 0
355.731 -6.66371 0
357.15 -4.61764 0
356.039 -2.38861 0
354.62 -4.4347 0
355.885 -4.5261 0
356.996 -6.75523 0
359.526 -6.9387 0
359.836 -2.66372 0
357.305 -2.48017 0
358.261 -6.84689 0
359.681 -4.80115 0
358.57 -2.57187 0
357.15 -4.61764 0
358.415 -4.70932 0
359.526 -6.9387 0
362.056 -7.12273 0
362.366 -2.84783 0
359.836 -2.66372 0
360.791 -7.03064 0
362.211 -4.98522 0
361.101 -2.7557 0
359.681 -4.80115 0
360.946 -4.89311 0
362.056 -7.12273 0
364.586 -7.30732 0
364.897 -3.03249 0
362.366 -2.84783 0
363.321 -7.21496 0
364.742 -5.16985 0
363.632 -2.94009 0
362.211 -4.98522 0
363.476 -5.07747 0
364.586 -7.30732 0
367.116 -7.49246 0
367.428 -3.2177 0
364.897 -3.03249 0
365.851 -7.39982 0
367.272 -5.35502 0
366.163 -3.12503 0
364.742 -5.16985 0
366.007 -5.26237 0
367.116 -7.49246 0
369.646 -7.67812 0
369.959 -3.40344 0
367.428 -3.2177 0
368.381 -7.58522 0
369.802 -5.54073 0
368.694 -3.31051 0
367.272 -5.35502 0
368.537 -5.44781 0
369.646 -7.67812 0
372.175 -7.86431 0
372.49 -3.58971 0
369.959 -3.40344 0
370.911 -7.77115 0
372.333 -5.72696 0
371.224 -3.49651 0
369.802 -5.54073 0
371.067 -5.63378 0
372.175 -7.86431 0
374.705 -8.05102 0
375.021 -3.77648 0
372.49 -3.58971 0
373.44 -7.9576 0
374.863 -5.9137 0
373.755 -3.68303 0
372.333 -5.72696 0
373.598 -5.82026 0
374.705 -8.05102 0
377.235 -8.23823 0
377.551 -3.96376 0
375.021 -3.77648 0
375.97 -8.14456 0
377.393 -6.10094 0
376.286 -3.87006 0
374.863 -5.9137 0
376.128 -6.00726 0
377.235 -8.23823 0
379.765 -8.42593 0
380.082 -4.15153 0
377.551 -3.96376 0
378.5 -8.33202 0
379.924 -6.28868 0
378.817 -4.05759 0
377.393 -6.10094 0
378.658 -6.19475 0
379.765 -8.42593 0
382.295 -8.61411 0
382.613 -4.33979 0
380.082 -4.15153 0
381.03 -8.51996 0
382.454 -6.4769 0
381.347 -4.2456 0
379.924 -6.28868 0
381.189 -6.38273 0
382.295 -8.61411 0
384.825 -8.80277 0
385.143 -4.52851 0
382.613 -4.33979 0
383.56 -8.70838 0
384.984 -6.66559 0
383.878 -4.43409 0
382.454 -6.4769 0
383.719 -6.57119 0
384.825 -8.80277 0
387.355 -8.99189 0
387.674 -4.71769 0
385.143 -4.52851 0
386.09 -8.89727 0
387.514 -6.85474 0
386.409 -4.62304 0
384.984 -6.66559 0
386.249 -6.76011 0
387.355 -8.99189 0
389.885 -9.18146 0
390.205 -4.90733 0
387.674 -4.71769 0
388.62 -9.08662 0
390.045 -7.04435 0
388.939 -4.81246 0
387.514 -6.85474 0
388.78 -6.94949 0
389.885 -9.18146 0
392.414 -9.37147 0
392.735 -5.09741 0
390.205 -4.90733 0
391.15 -9.27641 0
392.575 -7.23439 0
391.47 -5.00231 0
390.045 -7.04435 0
391.31 -7.13931 0
392.414 -9.37147 0
394.944 -9.56191 0
395.266 -5.28791 0
392.735 -5.09741 0
393.679 -9.46664 0
395.105 -7.42487 0
394 -5.19261 0
392.575 -7.23439 0
393.84 -7.32958 0
394.944 -9.56191 0
397.474 -9.75278 0
397.796 -5.47884 0
395.266 -5.28791 0
396.209 -9.65729 0
397.635 -7.61577 0
396.531 -5.38332 0
395.105 -7.42487 0
396.37 -7.52027 0
397.474 -9.75278 0
400.004 -9.94406 0
400.327 -5.67018 0
397.796 -5.47884 0
398.739 -9.84837 0
400.165 -7.80707 0
399.062 -5.57446 0
397.635 -7.61577 0
398.9 -7.71137 0
400.004 -9.94406 0
402.534 -10.1357 0
402.857 -5.86191 0
400.327 -5.67018 0
401.269 -10.0398 0
402.696 -7.99878 0
401.592 -5.76599 0
400.165 -7.80707 0
401.43 -7.90288 0
402.534 -10.1357 0
405.064 -10.3278 0
405.388 -6.05404 0
402.857 -5.86191 0
403.799 -10.2317 0
405.226 -8.19088 0
404.123 -5.95793 0
402.696 -7.99878 0
403.961 -8.09478 0
405.064 -10.3278 0
407.593 -10.5202 0
407.918 -6.24654 0
405.388 -6.05404 0
406.329 -10.424 0
407.756 -8.38336 0
406.653 -6.15024 0
405.226 -8.19088 0
406.491 -8.28707 0
407.593 -10.5202 0
410.123 -10.7131 0
410.449 -6.43942 0
407.918 -6.24654 0
408.858 -10.6166 0
410.286 -8.57621 0
409.183 -6.34293 0
407.756 -8.38336 0
409.021 -8.47974 0
410.123 -10.7131 0
412.653 -10.9062 0
412.979 -6.63265 0
410.449 -6.43942 0
411.388 -10.8096 0
412.816 -8.76941 0
411.714 -6.53599 0
410.286 -8.57621 0
411.551 -8.67276 0
412.653 -10.9062 0
415.183 -11.0998 0
415.509 -6.82623 0
412.979 -6.63265 0
413.918 -11.003 0
415.346 -8.96297 0
414.244 -6.7294 0
412.816 -8.76941 0
414.081 -8.86615 0
415.183 -11.0998 0
417.713 -11.2936 0
418.04 -7.02015 0
415.509 -6.82623 0
416.448 -11.1967 0
417.876 -9.15686 0
416.775 -6.92315 0
415.346 -8.96297 0
416.611 -9.05987 0
417.713 -11.2936 0
420.243 -11.4878 0
420.57 -7.2144 0
418.04 -7.02015 0
418.978 -11.3907 0
420.406 -9.35109 0
419.305 -7.11724 0
417.876 -9.15686 0
419.141 -9.25394 0
420.243 -11.4878 0
422.772 -11.6824 0
423.101 -7.40897 0
420.57 -7.2144 0
421.507 -11.5851 0
422.936 -9.54563 0
421.835 -7.31164 0
420.406 -9.35109 0
421.671 -9.44832 0
422.772 -11.6824 0
425.302 -11.8772 0
425.631 -7.60384 0
423.101 -7.40897 0
424.037 -11.7797 0
425.467 -9.74048 0
424.366 -7.50636 0
422.936 -9.54563 0
424.202 -9.64302 0
425.302 -11.8772 0
427.832 -12.0723 0
428.161 -7.79901 0
425.631 -7.60384 0
426.567 -11.9747 0
427.997 -9.93563 0
426.896 -7.70139 0
425.467 -9.74048 0
426.732 -9.83802 0
427.832 -12.0723 0
430.362 -12.2677 0
430.691 -7.99447 0
428.161 -7.79901 0
429.097 -12.17 0
430.527 -10.1311 0
429.426 -7.8967 0
427.997 -9.93563 0
429.262 -10.0333 0
430.362 -12.2677 0
432.892 -12.4634 0
433.222 -8.1902 0
430.691 -7.99447 0
431.627 -12.3655 0
433.057 -10.3268 0
431.957 -8.0923 0
430.527 -10.1311 0
431.792 -10.2289 0
432.892 -12.4634 0
435.422 -12.6594 0
435.752 -8.3862 0
433.222 -8.1902 0
434.157 -12.5614 0
435.587 -10.5228 0
434.487 -8.28817 0
433.057 -10.3268 0
434.322 -10.4247 0
435.422 -12.6594 0
437.951 -12.8556 0
438.282 -8.58246 0
435.752 -8.3862 0
436.686 -12.7574 0
438.117 -10.719 0
437.017 -8.4843 0
435.587 -10.5228 0
436.852 -10.6208 0
437.951 -12.8556 0
440.481 -13.0521 0
440.813 -8.77897 0
438.282 -8.58246 0
439.216 -12.9538 0
440.647 -10.9155 0
439.547 -8.68068 0
438.117 -10.719 0
439.382 -10.8172 0
440.481 -13.0521 0
443.011 -13.2488 0
443.343 -8.97571 0
440.813 -8.77897 0
441.746 -13.1504 0
443.177 -11.1122 0
442.078 -8.87731 0
440.647 -10.9155 0
441.912 -11.0138 0
443.011 -13.2488 0
445.541 -13.4457 0
445.873 -9.17267 0
443.343 -8.97571 0
444.276 -13.3472 0
445.707 -11.3092 0
444.608 -9.07416 0
443.177 -11.1122 0
444.442 -11.2107 0
445.541 -13.4457 0
448.071 -13.6428 0
448.403 -9.36985 0
445.873 -9.17267 0
446.806 -13.5442 0
448.237 -11.5063 0
447.138 -9.27124 0
445.707 -11.3092 0
446.972 -11.4077 0
448.071 -13.6428 0
450.601 -13.8402 0
450.934 -9.56724 0
448.403 -9.36985 0
449.336 -13.7415 0
450.767 -11.7037 0
449.668 -9.46852 0
448.237 -11.5063 0
449.502 -11.605 0
450.601 -13.8402 0
453.131 -14.0377 0
453.464 -9.76482 0
450.934 -9.56724 0
451.866 -13.9389 0
453.297 -11.9013 0
452.199 -9.66601 0
450.767 -11.7037 0
452.032 -11.8024 0
453.131 -14.0377 0
455.661 -14.2355 0
455.994 -9.96259 0
453.464 -9.76482 0
454.396 -14.1366 0
455.827 -12.099 0
454.729 -9.86368 0
453.297 -11.9013 0
454.562 -12.0001 0
455.661 -14.2355 0
458.19 -14.4334 0
458.524 -10.1605 0
455.994 -9.96259 0
456.925 -14.3344 0
458.357 -12.2969 0
457.259 -10.0615 0
455.827 -12.099 0
457.092 -12.1979 0
458.19 -14.4334 0
460.72 -14.6314 0
461.054 -10.3586 0
458.524 -10.1605 0
459.455 -14.5324 0
460.887 -12.495 0
459.789 -10.2596 0
458.357 -12.2969 0
459.622 -12.396 0
460.72 -14.6314 0
463.25 -14.8297 0
463.585 -10.5569 0
461.054 -10.3586 0
461.985 -14.7305 0
463.417 -12.6933 0
462.319 -10.4577 0
460.887 -12.495 0
462.152 -12.5941 0
463.25 -14.8297 0
465.78 -15.0281 0
466.115 -10.7553 0
463.585 -10.5569 0
464.515 -14.9288 0
465.948 -12.8917 0
464.85 -10.6561 0
463.417 -12.6933 0
464.683 -12.7925 0
465.78 -15.0281 0
468.31 -15.2266 0
468.645 -10.9538 0
466.115 -10.7553 0
467.045 -15.1273 0
468.478 -13.0902 0
467.38 -10.8546 0
465.948 -12.8917 0
467.213 -12.9909 0
468.31 -15.2266 0
470.84 -15.4252 0
471.175 -11.1525 0
468.645 -10.9538 0
469.575 -15.3259 0
471.008 -13.2888 0
469.91 -11.0532 0
468.478 -13.0902 0
469.743 -13.1895 0
470.84 -15.4252 0
473.37 -15.624 0
473.705 -11.3513 0
471.175 -11.1525 0
472.105 -15.5246 0
473.538 -13.4876 0
472.44 -11.2519 0
471.008 -13.2888 0
472.273 -13.3882 0
473.37 -15.624 0
475.9 -15.8228 0
476.236 -11.5502 0
473.705 -11.3513 0
474.635 -15.7234 0
476.068 -13.6865 0
474.97 -11.4507 0
473.538 -13.4876 0
474.803 -13.587 0
475.9 -15.8228 0
478.43 -16.0218 0
478.766 -11.7491 0
476.236 -11.5502 0
477.165 -15.9223 0
478.598 -13.8854 0
477.501 -11.6496 0
476.068 -13.6865 0
477.333 -13.7859 0
478.43 -16.0218 0
480.96 -16.2208 0
481.296 -11.9482 0
478.766 -11.7491 0
479.695 -16.1213 0
481.128 -14.0845 0
480.031 -11.8486 0
478.598 -13.8854 0
479.863 -13.9849 0
480.96 -16.2208 0
483.491 -16.4199 0
483.826 -12.1473 0
481.296 -11.9482 0
482.225 -16.3203 0
483.658 -14.2836 0
482.561 -12.0477 0
481.128 -14.0845 0
482.393 -14.184 0
483.491 -16.4199 0
486.021 -16.6191 0
486.356 -12.3465 0
483.826 -12.1473 0
484.756 -16.5195 0
486.189 -14.4828 0
485.091 -12.2469 0
483.658 -14.2836 0
484.923 -14.3832 0
486.021 -16.6191 0
488.551 -16.8183 0
488.887 -12.5458 0
486.356 -12.3465 0
487.286 -16.7187 0
488.719 -14.682 0
487.621 -12.4461 0
486.189 -14.4828 0
487.454 -14.5824 0
488.551 -16.8183 0
491.081 -17.0176 0
491.417 -12.745 0
488.887 -12.5458 0
489.816 -16.918 0
491.249 -14.8813 0
490.152 -12.6454 0
488.719 -14.682 0
489.984 -14.7817 0
491.081 -17.0176 0
493.611 -17.2169 0
493.947 -12.9443 0
491.417 -12.745 0
492.346 -17.1173 0
493.779 -15.0806 0
492.682 -12.8447 0
491.249 -14.8813 0
492.514 -14.981 0
493.611 -17.2169 0
496.141 -17.4162 0
496.477 -13.1436 0
493.947 -12.9443 0
494.876 -17.3166 0
496.309 -15.2799 0
495.212 -13.044 0
493.779 -15.0806 0
495.044 -15.1803 0
496.141 -17.4162 0
498.672 -17.6155 0
499.007 -13.3427 0
496.477 -13.1436 0
497.407 -17.5159 0
498.84 -15.4791 0
497.742 -13.2432 0
496.309 -15.2799 0
497.574 -15.3795 0
0 12.8571 0
2.53656 12.8574 0
2.53953 17.1431 0
0 17.1429 0
1.26828 12.8576 0
2.53804 15.0003 0
1.26976 17.1433 0
0 15 0
1.26902 15.0005 0
2.53656 12.8574 0
5.07299 12.8549 0
5.07919 17.1406 0
2.53953 17.1431 0
3.80479 12.8565 0
5.07609 14.9979 0
3.80935 17.1421 0
2.53804 15.0003 0
3.80707 14.9994 0
5.07299 12.8549 0
7.60937 12.8499 0
7.6189 17.1356 0
5.07919 17.1406 0
6.34118 12.8527 0
7.61413 14.9929 0
6.34904 17.1384 0
5.07609 14.9979 0
6.34511 14.9957 0
7.60937 12.8499 0
10.1457 12.8427 0
10.1586 17.1284 0
7.6189 17.1356 0
8.87754 12.8466 0
10.1522 14.9858 0
8.88877 17.1323 0
7.61413 14.9929 0
8.88316 14.9896 0
10.1457 12.8427 0
12.682 12.8335 0
12.6984 17.1192 0
10.1586 17.1284 0
11.4139 12.8384 0
12.6902 14.9766 0
11.4285 17.124 0
10.1522 14.9858 0
11.4212 14.9814 0
12.682 12.8335 0
15.2184 12.8223 0
15.2381 17.1079 0
12.6984 17.1192 0
13.9502 12.8281 0
15.2282 14.9653 0
13.9682 17.1138 0
12.6902 14.9766 0
13.9592 14.9712 0
15.2184 12.8223 0
17.7547 12.8091 0
17.7778 17.0947 0
15.2381 17.1079 0
16.4865 12.8159 0
17.7663 14.9521 0
16.508 17.1015 0
15.2282 14.9653 0
16.4973 14.9589 0
17.7547 12.8091 0
20.2911 12.7939 0
20.3175 17.0795 0
17.7778 17.0947 0
19.0229 12.8017 0
20.3043 14.9369 0
19.0476 17.0873 0
17.7663 14.9521 0
19.0353 14.9448 0
20.2911 12.7939 0
22.8274 12.7768 0
22.8571 17.0624 0
20.3175 17.0795 0
21.5592 12.7856 0
22.8423 14.9198 0
21.5873 17.0712 0
20.3043 14.9369 0
21.5733 14.9286 0
22.8274 12.7768 0
25.3638 12.7578 0
25.3967 17.0434 0
22.8571 17.0624 0
24.0956 12.7676 0
25.3802 14.9008 0
24.1269 17.0531 0
22.8423 14.9198 0
24.1113 14.9106 0
25.3638 12.7578 0
27.9001 12.7369 0
27.9363 17.0224 0
25.3967 17.0434 0
26.6319 12.7476 0
27.9182 14.8799 0
26.6665 17.0331 0
25.3802 14.9008 0
26.6492 14.8906 0
27.9001 12.7369 0
30.4365 12.7141 0
30.4759 16.9996 0
27.9363 17.0224 0
29.1683 12.7257 0
30.4562 14.857 0
29.2061 17.0112 0
27.9182 14.8799 0
29.1872 14.8687 0
30.4365 12.7141 0
32.9728 12.6893 0
33.0154 16.9748 0
30.4759 16.9996 0
31.7046 12.7019 0
32.9941 14.8323 0
31.7456 16.9874 0
30.4562 14.857 0
31.7251 14.8449 0
32.9728 12.6893 0
35.5091 12.6627 0
35.5549 16.9481 0
33.0154 16.9748 0
34.241 12.6762 0
35.532 14.8056 0
34.2852 16.9617 0
32.9941 14.8323 0
34.2631 14.8192 0
35.5091 12.6627 0
38.0454 12.6342 0
38.0944 16.9196 0
35.5549 16.9481 0
36.7773 12.6487 0
38.0699 14.7771 0
36.8247 16.9341 0
35.532 14.8056 0
36.801 14.7916 0
38.0454 12.6342 0
40.5817 12.6038 0
40.6338 16.8892 0
38.0944 16.9196 0
39.3136 12.6192 0
40.6078 14.7467 0
39.3641 16.9046 0
38.0699 14.7771 0
39.3389 14.7621 0
40.5817 12.6038 0
43.118 12.5716 0
43.1733 16.8569 0
40.6338 16.8892 0
41.8499 12.5879 0
43.1456 14.7144 0
41.9036 16.8733 0
40.6078 14.7467 0
41.8767 14.7308 0
43.118 12.5716 0
45.6543 12.5375 0
45.7126 16.8228 0
43.1733 16.8569 0
44.3862 12.5548 0
45.6835 14.6803 0
44.443 16.8401 0
43.1456 14.7144 0
44.4146 14.6976 0
45.6543 12.5375 0
48.1905 12.5016 0
48.252 16.7868 0
45.7126 16.8228 0
46.9224 12.5198 0
48.2213 14.6444 0
46.9823 16.805 0
45.6835 14.6803 0
46.9524 14.6626 0
48.1905 12.5016 0
50.7268 12.4638 0
50.7913 16.749 0
48.252 16.7868 0
49.4587 12.4829 0
50.759 14.6066 0
49.5217 16.7682 0
48.2213 14.6444 0
49.4902 14.6257 0
50.7268 12.4638 0
53.263 12.4243 0
53.3306 16.7094 0
50.7913 16.749 0
51.9949 12.4443 0
53.2968 14.567 0
52.061 16.7295 0
50.759 14.6066 0
52.0279 14.5871 0
53.263 12.4243 0
55.7992 12.3829 0
55.8698 16.668 0
53.3306 16.7094 0
54.5311 12.4038 0
55.8345 14.5256 0
54.6002 16.6889 0
53.2968 14.567 0
54.5657 14.5466 0
55.7992 12.3829 0
58.3354 12.3397 0
58.409 16.6248 0
55.8698 16.668 0
57.0673 12.3615 0
58.3722 14.4825 0
57.1394 16.6466 0
55.8345 14.5256 0
57.1034 14.5043 0
58.3354 12.3397 0
60.8715 12.2948 0
60.9482 16.5798 0
58.409 16.6248 0
59.6034 12.3175 0
60.9099 14.4375 0
59.6786 16.6025 0
58.3722 14.4825 0
59.641 14.4602 0
60.8715 12.2948 0
63.4077 12.248 0
63.4873 16.533 0
60.9482 16.5798 0
62.1396 12.2716 0
63.4475 14.3907 0
62.2178 16.5566 0
60.9099 14.4375 0
62.1787 14.4143 0
63.4077 12.248 0
65.9438 12.1996 0
66.0264 16.4844 0
63.4873 16.533 0
64.6757 12.224 0
65.9851 14.3422 0
64.7569 16.5089 0
63.4475 14.3907 0
64.7163 14.3667 0
65.9438 12.1996 0
68.4798 12.1493 0
68.5654 16.4341 0
66.0264 16.4844 0
67.2118 12.1746 0
68.5226 14.2919 0
67.2959 16.4595 0
65.9851 14.3422 0
67.2539 14.3173 0
68.4798 12.1493 0
71.0159 12.0973 0
71.1044 16.3821 0
68.5654 16.4341 0
69.7479 12.1235 0
71.0602 14.2399 0
69.8349 16.4083 0
68.5226 14.2919 0
69.7914 14.2661 0
71.0159 12.0973 0
73.5519 12.0436 0
73.6434 16.3283 0
71.1044 16.3821 0
72.2839 12.0707 0
73.5977 14.1861 0
72.3739 16.3554 0
71.0602 14.2399 0
72.3289 14.2132 0
73.5519 12.0436 0
76.0879 11.9881 0
76.1823 16.2728 0
73.6434 16.3283 0
74.8199 12.0161 0
76.1351 14.1306 0
74.9128 16.3007 0
73.5977 14.1861 0
74.8664 14.1586 0
76.0879 11.9881 0
78.6239 11.9309 0
78.7211 16.2155 0
76.1823 16.2728 0
77.3559 11.9597 0
78.6725 14.0734 0
77.4517 16.2444 0
76.1351 14.1306 0
77.4038 14.1022 0
78.6239 11.9309 0
81.1598 11.8721 0
81.26 16.1566 0
78.7211 16.2155 0
79.8919 11.9017 0
81.2099 14.0145 0
79.9906 16.1863 0
78.6725 14.0734 0
79.9412 14.0442 0
81.1598 11.8721 0
83.6957 11.8115 0
83.7987 16.0959 0
81.26 16.1566 0
82.4278 11.842 0
83.7472 13.9539 0
82.5293 16.1265 0
81.2099 14.0145 0
82.4786 13.9844 0
83.6957 11.8115 0
86.2316 11.7492 0
86.3374 16.0336 0
83.7987 16.0959 0
84.9637 11.7806 0
86.2845 13.8916 0
85.0681 16.065 0
83.7472 13.9539 0
85.0159 13.923 0
86.2316 11.7492 0
88.7675 11.6853 0
88.8761 15.9696 0
86.3374 16.0336 0
87.4995 11.7175 0
88.8218 13.8276 0
87.6068 16.0018 0
86.2845 13.8916 0
87.5532 13.8598 0
88.7675 11.6853 0
91.3033 11.6197 0
91.4147 15.9039 0
88.8761 15.9696 0
90.0354 11.6527 0
91.359 13.762 0
90.1454 15.937 0
88.8218 13.8276 0
90.0904 13.795 0
91.3033 11.6197 0
93.8391 11.5525 0
93.9533 15.8366 0
91.4147 15.9039 0
92.5712 11.5863 0
93.8962 13.6947 0
92.684 15.8705 0
91.359 13.762 0
92.6276 13.7286 0
93.8391 11.5525 0
96.3748 11.4836 0
96.4918 15.7677 0
93.9533 15.8366 0
95.1069 11.5182 0
96.4333 13.6258 0
95.2225 15.8024 0
93.8962 13.6947 0
95.1647 13.6605 0
96.3748 11.4836 0
98.9105 11.4131 0
99.0302 15.6971 0
96.4918 15.7677 0
97.6427 11.4485 0
98.9704 13.5552 0
97.761 15.7326 0
96.4333 13.6258 0
97.7018 13.5907 0
98.9105 11.4131 0
101.446 11.3409 0
101.569 15.6249 0
99.0302 15.6971 0
100.178 11.3772 0
101.507 13.4831 0
100.299 15.6612 0
98.9704 13.5552 0
100.239 13.5193 0
101.446 11.3409 0
103.982 11.2672 0
104.107 15.551 0
101.569 15.6249 0
102.714 11.3042 0
104.044 13.4093 0
102.838 15.5881 0
101.507 13.4831 0
102.776 13.4464 0
103.982 11.2672 0
106.517 11.1918 0
106.645 15.4756 0
104.107 15.551 0
105.25 11.2297 0
106.581 13.3339 0
105.376 15.5135 0
104.044 13.4093 0
105.313 13.3718 0
106.517 11.1918 0
109.053 11.1149 0
109.184 15.3986 0
106.645 15.4756 0
107.785 11.1535 0
109.118 13.2569 0
107.914 15.4373 0
106.581 13.3339 0
107.85 13.2956 0
109.053 11.1149 0
111.588 11.0363 0
111.722 15.32 0
109.184 15.3986 0
110.321 11.0758 0
111.655 13.1783 0
110.453 15.3595 0
109.118 13.2569 0
110.387 13.2178 0
111.588 11.0363 0
114.124 10.9562 0
114.26 15.2398 0
111.722 15.32 0
112.856 10.9965 0
114.192 13.0982 0
112.991 15.2801 0
111.655 13.1783 0
112.923 13.1384 0
114.124 10.9562 0
116.659 10.8746 0
116.798 15.158 0
114.26 15.2398 0
115.392 10.9156 0
116.729 13.0165 0
115.529 15.1991 0
114.192 13.0982 0
115.46 13.0575 0
116.659 10.8746 0
119.195 10.7914 0
119.336 15.0747 0
116.798 15.158 0
117.927 10.8332 0
119.265 12.9332 0
118.067 15.1166 0
116.729 13.0165 0
117.997 12.975 0
119.195 10.7914 0
121.73 10.7066 0
121.874 14.9899 0
119.336 15.0747 0
120.462 10.7492 0
121.802 12.8484 0
120.605 15.0325 0
119.265 12.9332 0
120.534 12.891 0
121.73 10.7066 0
124.265 10.6203 0
124.412 14.9035 0
121.874 14.9899 0
122.998 10.6637 0
124.339 12.7621 0
123.143 14.9469 0
121.802 12.8484 0
123.07 12.8055 0
124.265 10.6203 0
126.801 10.5326 0
126.95 14.8157 0
124.412 14.9035 0
125.533 10.5766 0
126.875 12.6743 0
125.681 14.8598 0
124.339 12.7621 0
125.607 12.7184 0
126.801 10.5326 0
129.336 10.4433 0
129.487 14.7263 0
126.95 14.8157 0
128.068 10.4881 0
129.412 12.5849 0
128.218 14.7712 0
126.875 12.6743 0
128.143 12.6298 0
129.336 10.4433 0
131.871 10.3524 0
132.025 14.6354 0
129.487 14.7263 0
130.604 10.398 0
131.948 12.4941 0
130.756 14.681 0
129.412 12.5849 0
130.68 12.5397 0
131.871 10.3524 0
134.406 10.2602 0
134.563 14.543 0
132.025 14.6354 0
133.139 10.3065 0
134.484 12.4017 0
133.294 14.5894 0
131.948 12.4941 0
133.216 12.4481 0
134.406 10.2602 0
136.941 10.1664 0
137.1 14.4491 0
134.563 14.543 0
135.674 10.2135 0
137.021 12.3079 0
135.831 14.4963 0
134.484 12.4017 0
135.753 12.355 0
136.941 10.1664 0
139.476 10.0712 0
139.638 14.3538 0
137.1 14.4491 0
138.209 10.119 0
139.557 12.2126 0
138.369 14.4017 0
137.021 12.3079 0
138.289 12.2605 0
139.476 10.0712 0
142.011 9.97446 0
142.175 14.257 0
139.638 14.3538 0
140.744 10.023 0
142.093 12.1159 0
140.906 14.3056 0
139.557 12.2126 0
140.825 12.1645 0
142.011 9.97446 0
144.546 9.87632 0
144.713 14.1588 0
142.175 14.257 0
143.279 9.92557 0
144.629 12.0177 0
143.444 14.2081 0
142.093 12.1159 0
143.361 12.067 0
144.546 9.87632 0
147.081 9.77675 0
147.25 14.0591 0
144.713 14.1588 0
145.814 9.82671 0
147.166 11.9181 0
145.981 14.1091 0
144.629 12.0177 0
145.897 11.9681 0
147.081 9.77675 0
149.616 9.67575 0
149.787 13.958 0
147.25 14.0591 0
148.349 9.72642 0
149.702 11.817 0
148.518 14.0088 0
147.166 11.9181 0
148.434 11.8677 0
149.616 9.67575 0
152.151 9.57333 0
152.324 13.8555 0
149.787 13.958 0
150.883 9.62471 0
152.238 11.7146 0
151.056 13.9069 0
149.702 11.817 0
150.97 11.766 0
152.151 9.57333 0
154.686 9.4695 0
154.861 13.7516 0
152.324 13.8555 0
153.418 9.52159 0
154.774 11.6107 0
153.593 13.8037 0
152.238 11.7146 0
153.506 11.6628 0
154.686 9.4695 0
157.22 9.36428 0
157.398 13.6463 0
154.861 13.7516 0
155.953 9.41707 0
157.309 11.5054 0
156.13 13.6991 0
154.774 11.6107 0
156.041 11.5582 0
157.22 9.36428 0
159.755 9.25768 0
159.935 13.5396 0
157.398 13.6463 0
158.488 9.31115 0
159.845 11.3988 0
158.667 13.5931 0
157.309 11.5054 0
158.577 11.4523 0
159.755 9.25768 0
162.29 9.1497 0
162.472 13.4315 0
159.935 13.5396 0
161.022 9.20386 0
162.381 11.2907 0
161.204 13.4857 0
159.845 11.3988 0
161.113 11.3449 0
162.29 9.1497 0
164.824 9.04036 0
165.009 13.3221 0
162.472 13.4315 0
163.557 9.0952 0
164.917 11.1814 0
163.741 13.3769 0
162.381 11.2907 0
163.649 11.2362 0
164.824 9.04036 0
167.359 8.92966 0
167.546 13.2113 0
165.009 13.3221 0
166.091 8.98518 0
167.452 11.0706 0
166.278 13.2668 0
164.917 11.1814 0
166.185 11.1261 0
167.359 8.92966 0
169.893 8.81762 0
170.083 13.0991 0
167.546 13.2113 0
168.626 8.8738 0
169.988 10.9585 0
168.814 13.1554 0
167.452 11.0706 0
168.72 11.0147 0
169.893 8.81762 0
172.428 8.70424 0
172.619 12.9856 0
170.083 13.0991 0
171.16 8.76109 0
172.523 10.8451 0
171.351 13.0425 0
169.988 10.9585 0
171.256 10.902 0
172.428 8.70424 0
174.962 8.58954 0
175.156 12.8708 0
172.619 12.9856 0
173.695 8.64706 0
175.059 10.7303 0
173.888 12.9284 0
172.523 10.8451 0
173.791 10.7879 0
174.962 8.58954 0
177.496 8.47353 0
177.693 12.7547 0
175.156 12.8708 0
176.229 8.5317 0
177.594 10.6143 0
176.424 12.8129 0
175.059 10.7303 0
176.327 10.6725 0
177.496 8.47353 0
180.03 8.35621 0
180.229 12.6373 0
177.693 12.7547 0
178.763 8.41503 0
180.13 10.4969 0
178.961 12.6962 0
177.594 10.6143 0
178.862 10.5557 0
180.03 8.35621 0
182.565 8.23761 0
182.765 12.5186 0
180.229 12.6373 0
181.298 8.29707 0
182.665 10.3782 0
181.497 12.5781 0
180.13 10.4969 0
181.397 10.4377 0
182.565 8.23761 0
185.099 8.11772 0
185.302 12.3986 0
182.765 12.5186 0
183.832 8.17782 0
185.2 10.2583 0
184.033 12.4588 0
182.665 10.3782 0
183.933 10.3184 0
185.099 8.11772 0
187.633 7.99656 0
187.838 12.2774 0
185.302 12.3986 0
186.366 8.0573 0
187.735 10.1371 0
186.57 12.3381 0
185.2 10.2583 0
186.468 10.1979 0
187.633 7.99656 0
190.167 7.87413 0
190.374 12.1548 0
187.838 12.2774 0
188.9 7.9355 0
190.271 10.0146 0
189.106 12.2162 0
187.735 10.1371 0
189.003 10.076 0
190.167 7.87413 0
192.701 7.75046 0
192.91 12.031 0
190.374 12.1548 0
191.434 7.81245 0
192.806 9.89089 0
191.642 12.0931 0
190.271 10.0146 0
191.538 9.95291 0
192.701 7.75046 0
195.235 7.62554 0
195.446 11.906 0
192.91 12.031 0
193.968 7.68816 0
195.341 9.76592 0
194.178 11.9687 0
192.806 9.89089 0
194.073 9.82856 0
195.235 7.62554 0
197.769 7.4994 0
197.982 11.7798 0
195.446 11.906 0
196.502 7.56262 0
197.876 9.63972 0
196.714 11.8431 0
195.341 9.76592 0
196.608 9.70297 0
197.769 7.4994 0
200.303 7.37203 0
200.518 11.6523 0
197.982 11.7798 0
199.036 7.43587 0
200.41 9.5123 0
199.25 11.7162 0
197.876 9.63972 0
199.143 9.57616 0
200.303 7.37203 0
202.836 7.24345 0
203.054 11.5236 0
200.518 11.6523 0
201.57 7.30789 0
202.945 9.38367 0
201.786 11.5881 0
200.41 9.5123 0
201.678 9.44814 0
202.836 7.24345 0
205.37 7.11368 0
205.59 11.3938 0
203.054 11.5236 0
204.103 7.17872 0
205.48 9.25384 0
204.322 11.4588 0
202.945 9.38367 0
204.213 9.31891 0
205.37 7.11368 0
207.904 6.98271 0
208.125 11.2627 0
205.59 11.3938 0
206.637 7.04834 0
208.015 9.12282 0
206.857 11.3284 0
205.48 9.25384 0
206.747 9.18848 0
207.904 6.98271 0
210.438 6.85057 0
210.661 11.1304 0
208.125 11.2627 0
209.171 6.91679 0
210.549 8.99063 0
209.393 11.1967 0
208.015 9.12282 0
209.282 9.05687 0
210.438 6.85057 0
212.971 6.71725 0
213.196 10.997 0
210.661 11.1304 0
211.704 6.78405 0
213.084 8.85726 0
211.929 11.0639 0
210.549 8.99063 0
211.817 8.92409 0
212.971 6.71725 0
215.505 6.58278 0
215.732 10.8624 0
213.196 10.997 0
214.238 6.65016 0
215.618 8.72273 0
214.464 10.9299 0
213.084 8.85726 0
214.351 8.79014 0
215.505 6.58278 0
218.038 6.44716 0
218.267 10.7267 0
215.732 10.8624 0
216.771 6.51511 0
218.153 8.58706 0
217 10.7947 0
215.618 8.72273 0
216.886 8.65504 0
218.038 6.44716 0
220.572 6.3104 0
220.803 10.5899 0
218.267 10.7267 0
219.305 6.37892 0
220.687 8.45025 0
219.535 10.6584 0
218.153 8.58706 0
219.42 8.51879 0
220.572 6.3104 0
223.105 6.17251 0
223.338 10.4519 0
220.803 10.5899 0
221.838 6.24159 0
223.221 8.31231 0
222.07 10.521 0
220.687 8.45025 0
221.954 8.38142 0
223.105 6.17251 0
225.638 6.0335 0
225.873 10.3128 0
223.338 10.4519 0
224.372 6.10314 0
225.756 8.17325 0
224.606 10.3825 0
223.221 8.31231 0
224.489 8.24292 0
225.638 6.0335 0
228.171 5.89339 0
228.408 10.1725 0
225.873 10.3128 0
226.905 5.96358 0
228.29 8.03308 0
227.141 10.2428 0
225.756 8.17325 0
227.023 8.1033 0
228.171 5.89339 0
230.705 5.75218 0
230.943 10.0312 0
228.408 10.1725 0
229.438 5.82292 0
230.824 7.89182 0
229.676 10.102 0
228.29 8.03308 0
229.557 7.96259 0
230.705 5.75218 0
233.238 5.60988 0
233.478 9.88883 0
230.943 10.0312 0
231.971 5.68117 0
233.358 7.74947 0
232.211 9.96016 0
230.824 7.89182 0
232.091 7.82078 0
233.238 5.60988 0
235.771 5.46651 0
236.013 9.74535 0
233.478 9.88883 0
234.504 5.53833 0
235.892 7.60605 0
234.746 9.81723 0
233.358 7.74947 0
234.625 7.67789 0
235.771 5.46651 0
238.304 5.32207 0
238.548 9.60081 0
236.013 9.74535 0
237.038 5.39442 0
238.426 7.46155 0
237.281 9.67322 0
235.892 7.60605 0
237.159 7.53393 0
238.304 5.32207 0
240.837 5.17657 0
241.083 9.45522 0
238.548 9.60081 0
239.571 5.24945 0
240.96 7.31601 0
239.816 9.52815 0
238.426 7.46155 0
239.693 7.38891 0
240.837 5.17657 0
243.37 5.03003 0
243.618 9.30857 0
241.083 9.45522 0
242.104 5.10343 0
243.494 7.16941 0
242.35 9.38202 0
240.96 7.31601 0
242.227 7.24284 0
243.37 5.03003 0
245.903 4.88245 0
246.152 9.1609 0
243.618 9.30857 0
244.636 4.95637 0
246.028 7.02178 0
244.885 9.23486 0
243.494 7.16941 0
244.761 7.09573 0
245.903 4.88245 0
248.436 4.73385 0
248.687 9.01219 0
246.152 9.1609 0
247.169 4.80828 0
248.561 6.87313 0
247.42 9.08667 0
246.028 7.02178 0
247.294 6.94759 0
248.436 4.73385 0
250.969 4.58424 0
251.221 8.86248 0
248.687 9.01219 0
249.702 4.65917 0
251.095 6.72346 0
249.954 8.93746 0
248.561 6.87313 0
249.828 6.79842 0
250.969 4.58424 0
253.501 4.43361 0
253.756 8.71175 0
251.221 8.86248 0
252.235 4.50905 0
253.629 6.57279 0
252.489 8.78724 0
251.095 6.72346 0
252.362 6.64825 0
253.501 4.43361 0
256.034 4.282 0
256.29 8.56004 0
253.756 8.71175 0
254.768 4.35793 0
256.162 6.42112 0
255.023 8.63602 0
253.629 6.57279 0
254.895 6.49708 0
256.034 4.282 0
258.567 4.1294 0
258.824 8.40734 0
256.29 8.56004 0
257.3 4.20582 0
258.696 6.26847 0
257.557 8.48381 0
256.162 6.42112 0
257.429 6.34492 0
258.567 4.1294 0
261.099 3.97582 0
261.359 8.25367 0
258.824 8.40734 0
259.833 4.05273 0
261.229 6.11485 0
260.092 8.33062 0
258.696 6.26847 0
259.962 6.19178 0
261.099 3.97582 0
263.632 3.82129 0
263.893 8.09903 0
261.359 8.25367 0
262.366 3.89868 0
263.762 5.96026 0
262.626 8.17647 0
261.229 6.11485 0
262.496 6.03767 0
263.632 3.82129 0
266.164 3.6658 0
266.427 7.94344 0
263.893 8.09903 0
264.898 3.74366 0
266.296 5.80472 0
265.16 8.02136 0
263.762 5.96026 0
265.029 5.88261 0
266.164 3.6658 0
268.697 3.50936 0
268.961 7.78691 0
266.427 7.94344 0
267.431 3.5877 0
268.829 5.64824 0
267.694 7.8653 0
266.296 5.80472 0
267.562 5.7266 0
268.697 3.50936 0
271.229 3.352 0
271.495 7.62945 0
268.961 7.78691 0
269.963 3.4308 0
271.362 5.49082 0
270.228 7.7083 0
268.829 5.64824 0
270.096 5.56965 0
271.229 3.352 0
273.762 3.19371 0
274.029 7.47106 0
271.495 7.62945 0
272.495 3.27297 0
273.895 5.33248 0
272.762 7.55037 0
271.362 5.49082 0
272.629 5.41177 0
273.762 3.19371 0
276.294 3.03451 0
276.563 7.31177 0
274.029 7.47106 0
275.028 3.11422 0
276.428 5.17323 0
275.296 7.39153 0
273.895 5.33248 0
275.162 5.25297 0
276.294 3.03451 0
278.826 2.8744 0
279.097 7.15157 0
276.563 7.31177 0
277.56 2.95457 0
278.961 5.01308 0
277.83 7.23178 0
276.428 5.17323 0
277.695 5.09327 0
278.826 2.8744 0
281.358 2.71341 0
281.63 6.99048 0
279.097 7.15157 0
280.092 2.79402 0
281.494 4.85204 0
280.363 7.07114 0
278.961 5.01308 0
280.228 4.93267 0
281.358 2.71341 0
283.89 2.55153 0
284.164 6.82851 0
281.63 6.99048 0
282.624 2.63258 0
284.027 4.69012 0
282.897 6.9096 0
281.494 4.85204 0
282.761 4.77119 0
283.89 2.55153 0
286.423 2.38879 0
286.697 6.66567 0
284.164 6.82851 0
285.157 2.47027 0
286.56 4.52732 0
285.431 6.7472 0
284.027 4.69012 0
285.294 4.60883 0
286.423 2.38879 0
288.955 2.22518 0
289.231 6.50197 0
286.697 6.66567 0
287.689 2.30709 0
289.093 4.36366 0
287.964 6.58393 0
286.56 4.52732 0
287.826 4.4456 0
288.955 2.22518 0
291.487 2.06072 0
291.764 6.33742 0
289.231 6.50197 0
290.221 2.14306 0
291.626 4.19916 0
290.498 6.4198 0
289.093 4.36366 0
290.359 4.28152 0
291.487 2.06072 0
294.019 1.89542 0
294.298 6.17203 0
291.764 6.33742 0
292.753 1.97818 0
294.158 4.03381 0
293.031 6.25483 0
291.626 4.19916 0
292.892 4.11659 0
294.019 1.89542 0
296.551 1.72929 0
296.831 6.00581 0
294.298 6.17203 0
295.285 1.81246 0
296.691 3.86764 0
295.564 6.08902 0
294.158 4.03381 0
295.425 3.95083 0
296.551 1.72929 0
299.083 1.56234 0
299.364 5.83877 0
296.831 6.00581 0
297.817 1.64592 0
299.223 3.70064 0
298.098 5.92239 0
296.691 3.86764 0
297.957 3.78424 0
299.083 1.56234 0
301.614 1.39459 0
301.898 5.67092 0
299.364 5.83877 0
300.348 1.47857 0
301.756 3.53284 0
300.631 5.75494 0
299.223 3.70064 0
300.49 3.61684 0
301.614 1.39459 0
304.146 1.22603 0
304.431 5.50227 0
301.898 5.67092 0
302.88 1.31041 0
304.288 3.36424 0
303.164 5.5867 0
301.756 3.53284 0
303.022 3.44864 0
304.146 1.22603 0
306.678 1.05668 0
306.964 5.33284 0
304.431 5.50227 0
305.412 1.14145 0
306.821 3.19484 0
305.697 5.41765 0
304.288 3.36424 0
305.555 3.27964 0
306.678 1.05668 0
309.21 0.886555 0
309.497 5.16263 0
306.964 5.33284 0
307.944 0.971715 0
309.353 3.02467 0
308.23 5.24783 0
306.821 3.19484 0
308.087 3.10985 0
309.21 0.886555 0
311.741 0.715661 0
312.03 4.99165 0
309.497 5.16263 0
310.475 0.801204 0
311.886 2.85373 0
310.763 5.07723 0
309.353 3.02467 0
310.619 2.9393 0
311.741 0.715661 0
314.273 0.544009 0
314.563 4.81991 0
312.03 4.99165 0
313.007 0.629929 0
314.418 2.68204 0
313.296 4.90587 0
311.886 2.85373 0
313.152 2.76798 0
314.273 0.544009 0
316.805 0.371608 0
317.096 4.64742 0
314.563 4.81991 0
315.539 0.457901 0
316.95 2.50959 0
315.829 4.73376 0
314.418 2.68204 0
315.684 2.59591 0
316.805 0.371608 0
319.336 0.19847 0
319.628 4.4742 0
317.096 4.64742 0
318.07 0.285131 0
319.482 2.33641 0
318.362 4.5609 0
316.95 2.50959 0
318.216 2.42309 0
319.336 0.19847 0
321.868 0.0246043 0
322.161 4.30025 0
319.628 4.4742 0
320.602 0.111628 0
322.014 2.1625 0
320.895 4.38731 0
319.482 2.33641 0
320.748 2.24955 0
321.868 0.0246043 0
324.399 -0.149979 0
324.694 4.12558 0
322.161 4.30025 0
323.133 -0.0625982 0
324.546 1.98788 0
323.427 4.21301 0
322.014 2.1625 0
323.28 2.07528 0
324.399 -0.149979 0
326.93 -0.325269 0
327.226 3.95021 0
324.694 4.12558 0
325.665 -0.237536 0
327.078 1.81255 0
325.96 4.03799 0
324.546 1.98788 0
325.812 1.9003 0
326.93 -0.325269 0
329.462 -0.501256 0
329.759 3.77414 0
327.226 3.95021 0
328.196 -0.413176 0
329.61 1.63652 0
328.493 3.86226 0
327.078 1.81255 0
328.344 1.72462 0
329.462 -0.501256 0
331.993 -0.677929 0
332.291 3.59739 0
329.759 3.77414 0
330.727 -0.589507 0
332.142 1.4598 0
331.025 3.68585 0
329.61 1.63652 0
330.876 1.54825 0
331.993 -0.677929 0
334.524 -0.855279 0
334.824 3.41996 0
332.291 3.59739 0
333.259 -0.76652 0
334.674 1.28241 0
333.558 3.50876 0
332.142 1.4598 0
333.408 1.37119 0
334.524 -0.855279 0
337.056 -1.03329 0
337.356 3.24187 0
334.824 3.41996 0
335.79 -0.944204 0
337.206 1.10436 0
336.09 3.331 0
334.674 1.28241 0
335.94 1.19347 0
337.056 -1.03329 0
339.587 -1.21197 0
339.888 3.06312 0
337.356 3.24187 0
338.321 -1.12255 0
339.738 0.925646 0
338.622 3.15258 0
337.206 1.10436 0
338.472 1.01508 0
339.587 -1.21197 0
342.118 -1.39128 0
342.421 2.88373 0
339.888 3.06312 0
340.853 -1.30154 0
342.269 0.74629 0
341.155 2.9735 0
339.738 0.925646 0
341.004 0.836048 0
342.118 -1.39128 0
344.649 -1.57123 0
344.953 2.7037 0
342.421 2.88373 0
343.384 -1.48118 0
344.801 0.566299 0
343.687 2.79379 0
342.269 0.74629 0
343.535 0.656373 0
344.649 -1.57123 0
347.18 -1.75181 0
347.485 2.52305 0
344.953 2.7037 0
345.915 -1.66145 0
347.333 0.385683 0
346.219 2.61345 0
344.801 0.566299 0
346.067 0.476069 0
347.18 -1.75181 0
349.712 -1.933 0
350.017 2.34178 0
347.485 2.52305 0
348.446 -1.84233 0
349.864 0.204454 0
348.751 2.43249 0
347.333 0.385683 0
348.599 0.295145 0
349.712 -1.933 0
352.243 -2.1148 0
352.549 2.15991 0
350.017 2.34178 0
350.977 -2.02383 0
352.396 0.0226197 0
351.283 2.25092 0
349.864 0.204454 0
351.13 0.113612 0
352.243 -2.1148 0
354.774 -2.29719 0
355.081 1.97745 0
352.549 2.15991 0
353.508 -2.20592 0
354.927 -0.159808 0
353.815 2.06876 0
352.396 0.0226197 0
353.662 -0.0685205 0
354.774 -2.29719 0
357.305 -2.48017 0
357.613 1.79441 0
355.081 1.97745 0
356.039 -2.38861 0
357.459 -0.342819 0
356.347 1.886 0
354.927 -0.159808 0
356.193 -0.251241 0
357.305 -2.48017 0
359.836 -2.66372 0
360.145 1.61079 0
357.613 1.79441 0
358.57 -2.57187 0
359.99 -0.526404 0
358.879 1.70267 0
357.459 -0.342819 0
358.725 -0.43454 0
359.836 -2.66372 0
362.366 -2.84783 0
362.677 1.42661 0
360.145 1.61079 0
361.101 -2.7557 0
362.522 -0.710551 0
361.411 1.51877 0
359.99 -0.526404 0
361.256 -0.618408 0
362.366 -2.84783 0
364.897 -3.03249 0
365.209 1.24187 0
362.677 1.42661 0
363.632 -2.94009 0
365.053 -0.895252 0
363.943 1.33431 0
362.522 -0.710551 0
363.787 -0.802833 0
364.897 -3.03249 0
367.428 -3.2177 0
367.741 1.0566 0
365.209 1.24187 0
366.163 -3.12503 0
367.584 -1.08049 0
366.475 1.1493 0
365.053 -0.895252 0
366.319 -0.987806 0
367.428 -3.2177 0
369.959 -3.40344 0
370.272 0.870793 0
367.741 1.0566 0
368.694 -3.31051 0
370.116 -1.26627 0
369.007 0.963762 0
367.584 -1.08049 0
368.85 -1.17332 0
369.959 -3.40344 0
372.49 -3.58971 0
372.804 0.684465 0
370.272 0.870793 0
371.224 -3.49651 0
372.647 -1.45257 0
371.538 0.777693 0
370.116 -1.26627 0
371.381 -1.35935 0
372.49 -3.58971 0
375.021 -3.77648 0
375.336 0.497625 0
372.804 0.684465 0
373.755 -3.68303 0
375.178 -1.63938 0
374.07 0.591108 0
372.647 -1.45257 0
373.913 -1.54591 0
375.021 -3.77648 0
377.551 -3.96376 0
377.867 0.310285 0
375.336 0.497625 0
376.286 -3.87006 0
377.709 -1.82669 0
376.601 0.404017 0
375.178 -1.63938 0
376.444 -1.73297 0
377.551 -3.96376 0
380.082 -4.15153 0
380.399 0.122454 0
377.867 0.310285 0
378.817 -4.05759 0
380.24 -2.01449 0
379.133 0.21643 0
377.709 -1.82669 0
378.975 -1.92053 0
380.082 -4.15153 0
382.613 -4.33979 0
382.93 -0.0658577 0
380.399 0.122454 0
381.347 -4.2456 0
382.771 -2.20277 0
381.665 0.0283575 0
380.24 -2.01449 0
381.506 -2.10857 0
382.613 -4.33979 0
385.143 -4.52851 0
385.462 -0.25464 0
382.93 -0.0658577 0
383.878 -4.43409 0
385.303 -2.39152 0
384.196 -0.160191 0
382.771 -2.20277 0
384.037 -2.29709 0
385.143 -4.52851 0
387.674 -4.71769 0
387.993 -0.443882 0
385.462 -0.25464 0
386.409 -4.62304 0
387.834 -2.58074 0
386.727 -0.349204 0
385.303 -2.39152 0
386.568 -2.48608 0
387.674 -4.71769 0
390.205 -4.90733 0
390.524 -0.633573 0
387.993 -0.443882 0
388.939 -4.81246 0
390.365 -2.7704 0
389.259 -0.538672 0
387.834 -2.58074 0
389.099 -2.67552 0
390.205 -4.90733 0
392.735 -5.09741 0
393.056 -0.823704 0
390.524 -0.633573 0
391.47 -5.00231 0
392.895 -2.96051 0
391.79 -0.728584 0
390.365 -2.7704 0
391.63 -2.8654 0
392.735 -5.09741 0
395.266 -5.28791 0
395.587 -1.01426 0
393.056 -0.823704 0
394 -5.19261 0
395.426 -3.15104 0
394.321 -0.918931 0
392.895 -2.96051 0
394.161 -3.05572 0
395.266 -5.28791 0
397.796 -5.47884 0
398.118 -1.20524 0
395.587 -1.01426 0
396.531 -5.38332 0
397.957 -3.342 0
396.853 -1.1097 0
395.426 -3.15104 0
396.692 -3.24647 0
397.796 -5.47884 0
400.327 -5.67018 0
400.649 -1.39663 0
398.118 -1.20524 0
399.062 -5.57446 0
400.488 -3.53336 0
399.384 -1.30089 0
397.957 -3.342 0
399.223 -3.43763 0
400.327 -5.67018 0
402.857 -5.86191 0
403.181 -1.58842 0
400.649 -1.39663 0
401.592 -5.76599 0
403.019 -3.72512 0
401.915 -1.49248 0
400.488 -3.53336 0
401.754 -3.62919 0
402.857 -5.86191 0
405.388 -6.05404 0
405.712 -1.78059 0
403.181 -1.58842 0
404.123 -5.95793 0
405.55 -3.91728 0
404.446 -1.68446 0
403.019 -3.72512 0
404.284 -3.82115 0
405.388 -6.05404 0
407.918 -6.24654 0
408.243 -1.97315 0
405.712 -1.78059 0
406.653 -6.15024 0
408.081 -4.10981 0
406.977 -1.87682 0
405.55 -3.91728 0
406.815 -4.01349 0
407.918 -6.24654 0
410.449 -6.43942 0
410.774 -2.16607 0
408.243 -1.97315 0
409.183 -6.34293 0
410.611 -4.3027 0
409.508 -2.06956 0
408.081 -4.10981 0
409.346 -4.20621 0
410.449 -6.43942 0
412.979 -6.63265 0
413.305 -2.35935 0
410.774 -2.16607 0
411.714 -6.53599 0
413.142 -4.49596 0
412.039 -2.26266 0
410.611 -4.3027 0
411.877 -4.39929 0
412.979 -6.63265 0
415.509 -6.82623 0
415.836 -2.55297 0
413.305 -2.35935 0
414.244 -6.7294 0
415.673 -4.68957 0
414.57 -2.45612 0
413.142 -4.49596 0
414.407 -4.59272 0
415.509 -6.82623 0
418.04 -7.02015 0
418.367 -2.74693 0
415.836 -2.55297 0
416.775 -6.92315 0
418.203 -4.88351 0
417.101 -2.64991 0
415.673 -4.68957 0
416.938 -4.7865 0
418.04 -7.02015 0
420.57 -7.2144 0
420.898 -2.94122 0
418.367 -2.74693 0
419.305 -7.11724 0
420.734 -5.07778 0
419.632 -2.84404 0
418.203 -4.88351 0
419.469 -4.9806 0
420.57 -7.2144 0
423.101 -7.40897 0
423.429 -3.13583 0
420.898 -2.94122 0
421.835 -7.31164 0
423.265 -5.27237 0
422.163 -3.03849 0
420.734 -5.07778 0
421.999 -5.17503 0
423.101 -7.40897 0
425.631 -7.60384 0
425.959 -3.33074 0
423.429 -3.13583 0
424.366 -7.50636 0
425.795 -5.46726 0
424.694 -3.23325 0
423.265 -5.27237 0
424.53 -5.36977 0
425.631 -7.60384 0
428.161 -7.79901 0
428.49 -3.52595 0
425.959 -3.33074 0
426.896 -7.70139 0
428.326 -5.66245 0
427.225 -3.42831 0
425.795 -5.46726 0
427.06 -5.56482 0
428.161 -7.79901 0
430.691 -7.99447 0
431.021 -3.72145 0
428.49 -3.52595 0
429.426 -7.8967 0
430.856 -5.85793 0
429.756 -3.62366 0
428.326 -5.66245 0
429.591 -5.76015 0
430.691 -7.99447 0
433.222 -8.1902 0
433.552 -3.91722 0
431.021 -3.72145 0
431.957 -8.0923 0
433.387 -6.05368 0
432.286 -3.8193 0
430.856 -5.85793 0
432.122 -5.95577 0
433.222 -8.1902 0
435.752 -8.3862 0
436.082 -4.11325 0
433.552 -3.91722 0
434.487 -8.28817 0
435.917 -6.2497 0
434.817 -4.0152 0
433.387 -6.05368 0
434.652 -6.15166 0
435.752 -8.3862 0
438.282 -8.58246 0
438.613 -4.30954 0
436.082 -4.11325 0
437.017 -8.4843 0
438.448 -6.44598 0
437.348 -4.21137 0
435.917 -6.2497 0
437.183 -6.34781 0
438.282 -8.58246 0
440.813 -8.77897 0
441.144 -4.50608 0
438.613 -4.30954 0
439.547 -8.68068 0
440.978 -6.6425 0
439.879 -4.40778 0
438.448 -6.44598 0
439.713 -6.54421 0
440.813 -8.77897 0
443.343 -8.97571 0
443.674 -4.70285 0
441.144 -4.50608 0
442.078 -8.87731 0
443.509 -6.83925 0
442.409 -4.60443 0
440.978 -6.6425 0
442.243 -6.74085 0
443.343 -8.97571 0
445.873 -9.17267 0
446.205 -4.89984 0
443.674 -4.70285 0
444.608 -9.07416 0
446.039 -7.03623 0
444.94 -4.80132 0
443.509 -6.83925 0
444.774 -6.93772 0
445.873 -9.17267 0
448.403 -9.36985 0
448.736 -5.09705 0
446.205 -4.89984 0
447.138 -9.27124 0
448.569 -7.23343 0
447.47 -4.99842 0
446.039 -7.03623 0
447.304 -7.13481 0
448.403 -9.36985 0
450.934 -9.56724 0
451.266 -5.29447 0
448.736 -5.09705 0
449.668 -9.46852 0
451.1 -7.43083 0
450.001 -5.19573 0
448.569 -7.23343 0
449.835 -7.33211 0
450.934 -9.56724 0
453.464 -9.76482 0
453.797 -5.49207 0
451.266 -5.29447 0
452.199 -9.66601 0
453.63 -7.62843 0
452.531 -5.39325 0
451.1 -7.43083 0
452.365 -7.52961 0
453.464 -9.76482 0
455.994 -9.96259 0
456.327 -5.68986 0
453.797 -5.49207 0
454.729 -9.86368 0
456.161 -7.82621 0
455.062 -5.59094 0
453.63 -7.62843 0
454.895 -7.72729 0
455.994 -9.96259 0
458.524 -10.1605 0
458.858 -5.88783 0
456.327 -5.68986 0
457.259 -10.0615 0
458.691 -8.02416 0
457.593 -5.78882 0
456.161 -7.82621 0
457.426 -7.92516 0
458.524 -10.1605 0
461.054 -10.3586 0
461.388 -6.08595 0
458.858 -5.88783 0
459.789 -10.2596 0
461.221 -8.22228 0
460.123 -5.98687 0
458.691 -8.02416 0
459.956 -8.1232 0
461.054 -10.3586 0
463.585 -10.5569 0
463.919 -6.28423 0
461.388 -6.08595 0
462.319 -10.4577 0
463.752 -8.42055 0
462.653 -6.18507 0
461.221 -8.22228 0
462.486 -8.32139 0
463.585 -10.5569 0
466.115 -10.7553 0
466.449 -6.48265 0
463.919 -6.28423 0
464.85 -10.6561 0
466.282 -8.61896 0
465.184 -6.38343 0
463.752 -8.42055 0
465.017 -8.51974 0
466.115 -10.7553 0
468.645 -10.9538 0
468.98 -6.68121 0
466.449 -6.48265 0
467.38 -10.8546 0
468.812 -8.81751 0
467.714 -6.58191 0
466.282 -8.61896 0
467.547 -8.71822 0
468.645 -10.9538 0
471.175 -11.1525 0
471.51 -6.87988 0
468.98 -6.68121 0
469.91 -11.0532 0
471.343 -9.01618 0
470.245 -6.78053 0
468.812 -8.81751 0
470.077 -8.91683 0
471.175 -11.1525 0
473.705 -11.3513 0
474.04 -7.07867 0
471.51 -6.87988 0
472.44 -11.2519 0
473.873 -9.21496 0
472.775 -6.97927 0
471.343 -9.01618 0
472.608 -9.11556 0
473.705 -11.3513 0
476.236 -11.5502 0
476.571 -7.27756 0
474.04 -7.07867 0
474.97 -11.4507 0
476.403 -9.41385 0
475.305 -7.17811 0
473.873 -9.21496 0
475.138 -9.31439 0
476.236 -11.5502 0
478.766 -11.7491 0
479.101 -7.47655 0
476.571 -7.27756 0
477.501 -11.6496 0
478.933 -9.61283 0
477.836 -7.37704 0
476.403 -9.41385 0
477.668 -9.51333 0
478.766 -11.7491 0
481.296 -11.9482 0
481.631 -7.67561 0
479.101 -7.47655 0
480.031 -11.8486 0
481.464 -9.81189 0
480.366 -7.57607 0
478.933 -9.61283 0
480.198 -9.71235 0
481.296 -11.9482 0
483.826 -12.1473 0
484.162 -7.87475 0
481.631 -7.67561 0
482.561 -12.0477 0
483.994 -10.011 0
482.896 -7.77518 0
481.464 -9.81189 0
482.729 -9.91145 0
483.826 -12.1473 0
486.356 -12.3465 0
486.692 -8.07396 0
484.162 -7.87475 0
485.091 -12.2469 0
486.524 -10.2102 0
485.427 -7.97435 0
483.994 -10.011 0
485.259 -10.1106 0
486.356 -12.3465 0
488.887 -12.5458 0
489.222 -8.27321 0
486.692 -8.07396 0
487.621 -12.4461 0
489.054 -10.4095 0
487.957 -8.17358 0
486.524 -10.2102 0
487.789 -10.3099 0
488.887 -12.5458 0
491.417 -12.745 0
491.752 -8.4725 0
489.222 -8.27321 0
490.152 -12.6454 0
491.585 -10.6088 0
490.487 -8.37285 0
489.054 -10.4095 0
490.319 -10.5091 0
491.417 -12.745 0
493.947 -12.9443 0
494.283 -8.67179 0
491.752 -8.4725 0
492.682 -12.8447 0
494.115 -10.8081 0
493.018 -8.57215 0
491.585 -10.6088 0
492.85 -10.7084 0
493.947 -12.9443 0
496.477 -13.1436 0
496.813 -8.87104 0
494.283 -8.67179 0
495.212 -13.044 0
496.645 -11.0073 0
495.548 -8.77142 0
494.115 -10.8081 0
495.38 -10.9077 0
496.477 -13.1436 0
499.007 -13.3427 0
499.343 -9.07018 0
496.813 -8.87104 0
497.742 -13.2432 0
499.175 -11.2064 0
498.078 -8.97063 0
496.645 -11.0073 0
497.91 -11.1069 0
0 17.1429 0
2.53953 17.1431 0
2.54257 21.4281 0
0 21.4286 0
1.26976 17.1433 0
2.54104 19.2857 0
1.27122 21.4287 0
0 19.2857 0
1.27048 19.2861 0
2.53953 17.1431 0
5.07919 17.1406 0
5.08548 21.425 0
2.54257 21.4281 0
3.80935 17.1421 0
5.08231 19.283 0
3.81399 21.4268 0
2.54104 19.2857 0
3.81165 19.2846 0
5.07919 17.1406 0
7.6189 17.1356 0
7.62859 21.4197 0
5.08548 21.425 0
6.34904 17.1384 0
7.62371 19.2779 0
6.35702 21.4226 0
5.08231 19.283 0
6.353 19.2807 0
7.6189 17.1356 0
10.1586 17.1284 0
10.1717 21.4124 0
7.62859 21.4197 0
8.88877 17.1323 0
10.1652 19.2706 0
8.90017 21.4163 0
7.62371 19.2779 0
8.89443 19.2745 0
10.1586 17.1284 0
12.6984 17.1192 0
12.7149 21.4031 0
10.1717 21.4124 0
11.4285 17.124 0
12.7066 19.2613 0
11.4433 21.408 0
10.1652 19.2706 0
11.4359 19.2662 0
12.6984 17.1192 0
15.2381 17.1079 0
15.2579 21.3918 0
12.7149 21.4031 0
13.9682 17.1138 0
15.248 19.2501 0
13.9864 21.3977 0
12.7066 19.2613 0
13.9773 19.256 0
15.2381 17.1079 0
17.7778 17.0947 0
17.801 21.3786 0
15.2579 21.3918 0
16.508 17.1015 0
17.7894 19.2369 0
16.5295 21.3855 0
15.248 19.2501 0
16.5187 19.2437 0
17.7778 17.0947 0
20.3175 17.0795 0
20.3439 21.3634 0
17.801 21.3786 0
19.0476 17.0873 0
20.3307 19.2217 0
19.0725 21.3713 0
17.7894 19.2369 0
19.06 19.2295 0
20.3175 17.0795 0
22.8571 17.0624 0
22.8868 21.3463 0
20.3439 21.3634 0
21.5873 17.0712 0
22.872 19.2046 0
21.6154 21.3551 0
20.3307 19.2217 0
21.6013 19.2134 0
22.8571 17.0624 0
25.3967 17.0434 0
25.4297 21.3273 0
22.8868 21.3463 0
24.1269 17.0531 0
25.4132 19.1855 0
24.1583 21.337 0
22.872 19.2046 0
24.1426 19.1953 0
25.3967 17.0434 0
27.9363 17.0224 0
27.9725 21.3063 0
25.4297 21.3273 0
26.6665 17.0331 0
27.9544 19.1646 0
26.7011 21.317 0
25.4132 19.1855 0
26.6838 19.1753 0
27.9363 17.0224 0
30.4759 16.9996 0
30.5153 21.2834 0
27.9725 21.3063 0
29.2061 17.0112 0
30.4956 19.1417 0
29.2439 21.2951 0
27.9544 19.1646 0
29.225 19.1534 0
30.4759 16.9996 0
33.0154 16.9748 0
33.0581 21.2586 0
30.5153 21.2834 0
31.7456 16.9874 0
33.0367 19.1169 0
31.7867 21.2713 0
30.4956 19.1417 0
31.7662 19.1295 0
33.0154 16.9748 0
35.5549 16.9481 0
35.6007 21.232 0
33.0581 21.2586 0
34.2852 16.9617 0
35.5778 19.0902 0
34.3294 21.2455 0
33.0367 19.1169 0
34.3073 19.1038 0
35.5549 16.9481 0
38.0944 16.9196 0
38.1434 21.2034 0
35.6007 21.232 0
36.8247 16.9341 0
38.1189 19.0617 0
36.8721 21.2179 0
35.5778 19.0902 0
36.8484 19.0762 0
38.0944 16.9196 0
40.6338 16.8892 0
40.686 21.173 0
38.1434 21.2034 0
39.3641 16.9046 0
40.6599 19.0313 0
39.4147 21.1884 0
38.1189 19.0617 0
39.3894 19.0467 0
40.6338 16.8892 0
43.1733 16.8569 0
43.2285 21.1407 0
40.686 21.173 0
41.9036 16.8733 0
43.2009 18.999 0
41.9573 21.157 0
40.6599 19.0313 0
41.9304 19.0154 0
43.1733 16.8569 0
45.7126 16.8228 0
45.771 21.1065 0
43.2285 21.1407 0
44.443 16.8401 0
45.7418 18.9648 0
44.4998 21.1238 0
43.2009 18.999 0
44.4714 18.9821 0
45.7126 16.8228 0
48.252 16.7868 0
48.3135 21.0705 0
45.771 21.1065 0
46.9823 16.805 0
48.2827 18.9289 0
47.0423 21.0887 0
45.7418 18.9648 0
47.0123 18.9471 0
48.252 16.7868 0
50.7913 16.749 0
50.8559 21.0327 0
48.3135 21.0705 0
49.5217 16.7682 0
50.8236 18.8911 0
49.5847 21.0518 0
48.2827 18.9289 0
49.5532 18.9102 0
50.7913 16.749 0
53.3306 16.7094 0
53.3982 20.993 0
50.8559 21.0327 0
52.061 16.7295 0
53.3644 18.8514 0
52.127 21.0131 0
50.8236 18.8911 0
52.094 18.8715 0
53.3306 16.7094 0
55.8698 16.668 0
55.9405 20.9516 0
53.3982 20.993 0
54.6002 16.6889 0
55.9052 18.81 0
54.6694 20.9725 0
53.3644 18.8514 0
54.6348 18.8309 0
55.8698 16.668 0
58.409 16.6248 0
58.4827 20.9083 0
55.9405 20.9516 0
57.1394 16.6466 0
58.4459 18.7667 0
57.2116 20.9302 0
55.9052 18.81 0
57.1755 18.7886 0
58.409 16.6248 0
60.9482 16.5798 0
61.0249 20.8633 0
58.4827 20.9083 0
59.6786 16.6025 0
60.9865 18.7217 0
59.7538 20.886 0
58.4459 18.7667 0
59.7162 18.7445 0
60.9482 16.5798 0
63.4873 16.533 0
63.567 20.8164 0
61.0249 20.8633 0
62.2178 16.5566 0
63.5272 18.6749 0
62.296 20.8401 0
60.9865 18.7217 0
62.2569 18.6985 0
63.4873 16.533 0
66.0264 16.4844 0
66.1091 20.7678 0
63.567 20.8164 0
64.7569 16.5089 0
66.0677 18.6263 0
64.838 20.7924 0
63.5272 18.6749 0
64.7974 18.6508 0
66.0264 16.4844 0
68.5654 16.4341 0
68.6511 20.7175 0
66.1091 20.7678 0
67.2959 16.4595 0
68.6082 18.576 0
67.3801 20.7429 0
66.0677 18.6263 0
67.338 18.6014 0
68.5654 16.4341 0
71.1044 16.3821 0
71.193 20.6654 0
68.6511 20.7175 0
69.8349 16.4083 0
71.1487 18.5239 0
69.922 20.6916 0
68.6082 18.576 0
69.8785 18.5502 0
71.1044 16.3821 0
73.6434 16.3283 0
73.7349 20.6115 0
71.193 20.6654 0
72.3739 16.3554 0
73.6891 18.4701 0
72.4639 20.6387 0
71.1487 18.5239 0
72.4189 18.4972 0
73.6434 16.3283 0
76.1823 16.2728 0
76.2767 20.5559 0
73.7349 20.6115 0
74.9128 16.3007 0
76.2295 18.4145 0
75.0058 20.5839 0
73.6891 18.4701 0
74.9593 18.4425 0
76.1823 16.2728 0
78.7211 16.2155 0
78.8184 20.4986 0
76.2767 20.5559 0
77.4517 16.2444 0
78.7698 18.3573 0
77.5476 20.5275 0
76.2295 18.4145 0
77.4996 18.3861 0
78.7211 16.2155 0
81.26 16.1566 0
81.3601 20.4396 0
78.8184 20.4986 0
79.9906 16.1863 0
81.31 18.2983 0
80.0893 20.4694 0
78.7698 18.3573 0
80.0399 18.328 0
81.26 16.1566 0
83.7987 16.0959 0
83.9017 20.3789 0
81.3601 20.4396 0
82.5293 16.1265 0
83.8502 18.2376 0
82.6309 20.4095 0
81.31 18.2983 0
82.5801 18.2682 0
83.7987 16.0959 0
86.3374 16.0336 0
86.4433 20.3166 0
83.9017 20.3789 0
85.0681 16.065 0
86.3903 18.1753 0
85.1725 20.348 0
83.8502 18.2376 0
85.1203 18.2067 0
86.3374 16.0336 0
88.8761 15.9696 0
88.9848 20.2525 0
86.4433 20.3166 0
87.6068 16.0018 0
88.9304 18.1112 0
87.714 20.2847 0
86.3903 18.1753 0
87.6604 18.1435 0
88.8761 15.9696 0
91.4147 15.9039 0
91.5262 20.1868 0
88.9848 20.2525 0
90.1454 15.937 0
91.4704 18.0455 0
90.2555 20.2198 0
88.9304 18.1112 0
90.2004 18.0786 0
91.4147 15.9039 0
93.9533 15.8366 0
94.0675 20.1194 0
91.5262 20.1868 0
92.684 15.8705 0
94.0104 17.9782 0
92.7968 20.1533 0
91.4704 18.0455 0
92.7404 18.0121 0
93.9533 15.8366 0
96.4918 15.7677 0
96.6088 20.0504 0
94.0675 20.1194 0
95.2225 15.8024 0
96.5503 17.9092 0
95.3382 20.0851 0
94.0104 17.9782 0
95.2803 17.9439 0
96.4918 15.7677 0
99.0302 15.6971 0
99.15 19.9797 0
96.6088 20.0504 0
97.761 15.7326 0
99.0901 17.8386 0
97.8794 20.0152 0
96.5503 17.9092 0
97.8202 17.8741 0
99.0302 15.6971 0
101.569 15.6249 0
101.691 19.9074 0
99.15 19.9797 0
100.299 15.6612 0
101.63 17.7663 0
100.421 19.9438 0
99.0901 17.8386 0
100.36 17.8026 0
101.569 15.6249 0
104.107 15.551 0
104.232 19.8335 0
101.691 19.9074 0
102.838 15.5881 0
104.17 17.6924 0
102.962 19.8707 0
101.63 17.7663 0
102.9 17.7296 0
104.107 15.551 0
106.645 15.4756 0
106.773 19.758 0
104.232 19.8335 0
105.376 15.5135 0
106.709 17.617 0
105.503 19.796 0
104.17 17.6924 0
105.439 17.6549 0
106.645 15.4756 0
109.184 15.3986 0
109.314 19.6809 0
106.773 19.758 0
107.914 15.4373 0
109.249 17.5399 0
108.044 19.7197 0
106.709 17.617 0
107.979 17.5786 0
109.184 15.3986 0
111.722 15.32 0
111.855 19.6022 0
109.314 19.6809 0
110.453 15.3595 0
111.788 17.4613 0
110.585 19.6418 0
109.249 17.5399 0
110.519 17.5008 0
111.722 15.32 0
114.26 15.2398 0
114.396 19.522 0
111.855 19.6022 0
112.991 15.2801 0
114.328 17.381 0
113.125 19.5623 0
111.788 17.4613 0
113.058 17.4213 0
114.26 15.2398 0
116.798 15.158 0
116.936 19.4402 0
114.396 19.522 0
115.529 15.1991 0
116.867 17.2993 0
115.666 19.4813 0
114.328 17.381 0
115.597 17.3403 0
116.798 15.158 0
119.336 15.0747 0
119.477 19.3568 0
116.936 19.4402 0
118.067 15.1166 0
119.406 17.2159 0
118.207 19.3987 0
116.867 17.2993 0
118.137 17.2578 0
119.336 15.0747 0
121.874 14.9899 0
122.018 19.2719 0
119.477 19.3568 0
120.605 15.0325 0
121.946 17.1311 0
120.747 19.3145 0
119.406 17.2159 0
120.676 17.1737 0
121.874 14.9899 0
124.412 14.9035 0
124.558 19.1854 0
122.018 19.2719 0
123.143 14.9469 0
124.485 17.0447 0
123.288 19.2289 0
121.946 17.1311 0
123.215 17.088 0
124.412 14.9035 0
126.95 14.8157 0
127.098 19.0975 0
124.558 19.1854 0
125.681 14.8598 0
127.024 16.9567 0
125.828 19.1417 0
124.485 17.0447 0
125.754 17.0009 0
126.95 14.8157 0
129.487 14.7263 0
129.639 19.008 0
127.098 19.0975 0
128.218 14.7712 0
129.563 16.8673 0
128.369 19.0529 0
127.024 16.9567 0
128.293 16.9122 0
129.487 14.7263 0
132.025 14.6354 0
132.179 18.917 0
129.639 19.008 0
130.756 14.681 0
132.102 16.7764 0
130.909 18.9627 0
129.563 16.8673 0
130.832 16.822 0
132.025 14.6354 0
134.563 14.543 0
134.719 18.8246 0
132.179 18.917 0
133.294 14.5894 0
134.641 16.6839 0
133.449 18.871 0
132.102 16.7764 0
133.371 16.7303 0
134.563 14.543 0
137.1 14.4491 0
137.259 18.7306 0
134.719 18.8246 0
135.831 14.4963 0
137.18 16.59 0
135.989 18.7778 0
134.641 16.6839 0
135.91 16.6372 0
137.1 14.4491 0
139.638 14.3538 0
139.799 18.6352 0
137.259 18.7306 0
138.369 14.4017 0
139.718 16.4947 0
138.529 18.6831 0
137.18 16.59 0
138.449 16.5425 0
139.638 14.3538 0
142.175 14.257 0
142.339 18.5384 0
139.799 18.6352 0
140.906 14.3056 0
142.257 16.3978 0
141.069 18.587 0
139.718 16.4947 0
140.988 16.4464 0
142.175 14.257 0
144.713 14.1588 0
144.879 18.44 0
142.339 18.5384 0
143.444 14.2081 0
144.796 16.2996 0
143.609 18.4894 0
142.257 16.3978 0
143.526 16.3489 0
144.713 14.1588 0
147.25 14.0591 0
147.419 18.3403 0
144.879 18.44 0
145.981 14.1091 0
147.334 16.1999 0
146.149 18.3903 0
144.796 16.2996 0
146.065 16.2499 0
147.25 14.0591 0
149.787 13.958 0
149.958 18.2391 0
147.419 18.3403 0
148.518 14.0088 0
149.873 16.0987 0
148.688 18.2899 0
147.334 16.1999 0
148.603 16.1495 0
149.787 13.958 0
152.324 13.8555 0
152.498 18.1365 0
149.958 18.2391 0
151.056 13.9069 0
152.411 15.9962 0
151.228 18.188 0
149.873 16.0987 0
151.142 16.0476 0
152.324 13.8555 0
154.861 13.7516 0
155.037 18.0325 0
152.498 18.1365 0
153.593 13.8037 0
154.949 15.8922 0
153.767 18.0847 0
152.411 15.9962 0
153.68 15.9443 0
154.861 13.7516 0
157.398 13.6463 0
157.577 17.9271 0
155.037 18.0325 0
156.13 13.6991 0
157.488 15.7868 0
156.307 17.98 0
154.949 15.8922 0
156.218 15.8397 0
157.398 13.6463 0
159.935 13.5396 0
160.116 17.8203 0
157.577 17.9271 0
158.667 13.5931 0
160.026 15.6801 0
158.846 17.8739 0
157.488 15.7868 0
158.757 15.7336 0
159.935 13.5396 0
162.472 13.4315 0
162.655 17.7121 0
160.116 17.8203 0
161.204 13.4857 0
162.564 15.572 0
161.386 17.7664 0
160.026 15.6801 0
161.295 15.6262 0
162.472 13.4315 0
165.009 13.3221 0
165.194 17.6026 0
162.655 17.7121 0
163.741 13.3769 0
165.102 15.4625 0
163.925 17.6575 0
162.564 15.572 0
163.833 15.5174 0
165.009 13.3221 0
167.546 13.2113 0
167.733 17.4917 0
165.194 17.6026 0
166.278 13.2668 0
167.64 15.3516 0
166.464 17.5473 0
165.102 15.4625 0
166.371 15.4072 0
167.546 13.2113 0
170.083 13.0991 0
170.272 17.3795 0
167.733 17.4917 0
168.814 13.1554 0
170.178 15.2394 0
169.003 17.4358 0
167.64 15.3516 0
168.909 15.2957 0
170.083 13.0991 0
172.619 12.9856 0
172.811 17.2659 0
170.272 17.3795 0
171.351 13.0425 0
172.715 15.1259 0
171.542 17.3229 0
170.178 15.2394 0
171.446 15.1828 0
172.619 12.9856 0
175.156 12.8708 0
175.35 17.151 0
172.811 17.2659 0
173.888 12.9284 0
175.253 15.0111 0
174.081 17.2086 0
172.715 15.1259 0
173.984 15.0687 0
175.156 12.8708 0
177.693 12.7547 0
177.889 17.0348 0
175.35 17.151 0
176.424 12.8129 0
177.791 14.8949 0
176.619 17.0931 0
175.253 15.0111 0
176.522 14.9532 0
177.693 12.7547 0
180.229 12.6373 0
180.427 16.9173 0
177.889 17.0348 0
178.961 12.6962 0
180.328 14.7774 0
179.158 16.9762 0
177.791 14.8949 0
179.059 14.8363 0
180.229 12.6373 0
182.765 12.5186 0
182.966 16.7985 0
180.427 16.9173 0
181.497 12.5781 0
182.866 14.6587 0
181.697 16.8581 0
180.328 14.7774 0
181.597 14.7182 0
182.765 12.5186 0
185.302 12.3986 0
185.504 16.6784 0
182.966 16.7985 0
184.033 12.4588 0
185.403 14.5387 0
184.235 16.7386 0
182.866 14.6587 0
184.134 14.5988 0
185.302 12.3986 0
187.838 12.2774 0
188.043 16.5571 0
185.504 16.6784 0
186.57 12.3381 0
187.94 14.4173 0
186.774 16.6179 0
185.403 14.5387 0
186.672 14.4782 0
187.838 12.2774 0
190.374 12.1548 0
190.581 16.4344 0
188.043 16.5571 0
189.106 12.2162 0
190.478 14.2948 0
189.312 16.4959 0
187.94 14.4173 0
189.209 14.3562 0
190.374 12.1548 0
192.91 12.031 0
193.119 16.3106 0
190.581 16.4344 0
191.642 12.0931 0
193.015 14.1709 0
191.85 16.3727 0
190.478 14.2948 0
191.746 14.233 0
192.91 12.031 0
195.446 11.906 0
195.657 16.1855 0
193.119 16.3106 0
194.178 11.9687 0
195.552 14.0459 0
194.388 16.2482 0
193.015 14.1709 0
194.283 14.1086 0
195.446 11.906 0
197.982 11.7798 0
198.196 16.0591 0
195.657 16.1855 0
196.714 11.8431 0
198.089 13.9196 0
196.927 16.1224 0
195.552 14.0459 0
196.82 13.9829 0
197.982 11.7798 0
200.518 11.6523 0
200.733 15.9316 0
198.196 16.0591 0
199.25 11.7162 0
200.626 13.7921 0
199.465 15.9955 0
198.089 13.9196 0
199.357 13.856 0
200.518 11.6523 0
203.054 11.5236 0
203.271 15.8028 0
200.733 15.9316 0
201.786 11.5881 0
203.163 13.6633 0
202.002 15.8673 0
200.626 13.7921 0
201.894 13.7279 0
203.054 11.5236 0
205.59 11.3938 0
205.809 15.6728 0
203.271 15.8028 0
204.322 11.4588 0
205.699 13.5334 0
204.54 15.7379 0
203.163 13.6633 0
204.431 13.5985 0
205.59 11.3938 0
208.125 11.2627 0
208.347 15.5416 0
205.809 15.6728 0
206.857 11.3284 0
208.236 13.4023 0
207.078 15.6074 0
205.699 13.5334 0
206.968 13.468 0
208.125 11.2627 0
210.661 11.1304 0
210.884 15.4093 0
208.347 15.5416 0
209.393 11.1967 0
210.773 13.27 0
209.616 15.4756 0
208.236 13.4023 0
209.504 13.3363 0
210.661 11.1304 0
213.196 10.997 0
213.422 15.2758 0
210.884 15.4093 0
211.929 11.0639 0
213.309 13.1365 0
212.153 15.3427 0
210.773 13.27 0
212.041 13.2034 0
213.196 10.997 0
215.732 10.8624 0
215.959 15.1411 0
213.422 15.2758 0
214.464 10.9299 0
215.846 13.0019 0
214.691 15.2086 0
213.309 13.1365 0
214.577 13.0694 0
215.732 10.8624 0
218.267 10.7267 0
218.497 15.0053 0
215.959 15.1411 0
217 10.7947 0
218.382 12.8661 0
217.228 15.0734 0
215.846 13.0019 0
217.114 12.9342 0
218.267 10.7267 0
220.803 10.5899 0
221.034 14.8683 0
218.497 15.0053 0
219.535 10.6584 0
220.918 12.7292 0
219.765 14.937 0
218.382 12.8661 0
219.65 12.7978 0
220.803 10.5899 0
223.338 10.4519 0
223.571 14.7303 0
221.034 14.8683 0
222.07 10.521 0
223.455 12.5912 0
222.303 14.7994 0
220.918 12.7292 0
222.186 12.6603 0
223.338 10.4519 0
225.873 10.3128 0
226.108 14.5911 0
223.571 14.7303 0
224.606 10.3825 0
225.991 12.452 0
224.84 14.6608 0
223.455 12.5912 0
224.723 12.5217 0
225.873 10.3128 0
228.408 10.1725 0
228.645 14.4508 0
226.108 14.5911 0
227.141 10.2428 0
228.527 12.3118 0
227.377 14.521 0
225.991 12.452 0
227.259 12.382 0
228.408 10.1725 0
230.943 10.0312 0
231.182 14.3093 0
228.645 14.4508 0
229.676 10.102 0
231.063 12.1704 0
229.914 14.3802 0
228.527 12.3118 0
229.795 12.2412 0
230.943 10.0312 0
233.478 9.88883 0
233.719 14.1669 0
231.182 14.3093 0
232.211 9.96016 0
233.599 12.028 0
232.45 14.2382 0
231.063 12.1704 0
232.331 12.0993 0
233.478 9.88883 0
236.013 9.74535 0
236.256 14.0233 0
233.719 14.1669 0
234.746 9.81723 0
236.134 11.8844 0
234.987 14.0952 0
233.599 12.028 0
234.867 11.9563 0
236.013 9.74535 0
238.548 9.60081 0
238.792 13.8787 0
236.256 14.0233 0
237.281 9.67322 0
238.67 11.7398 0
237.524 13.9511 0
236.134 11.8844 0
237.402 11.8123 0
238.548 9.60081 0
241.083 9.45522 0
241.329 13.733 0
238.792 13.8787 0
239.816 9.52815 0
241.206 11.5942 0
240.061 13.8059 0
238.67 11.7398 0
239.938 11.6672 0
241.083 9.45522 0
243.618 9.30857 0
243.865 13.5862 0
241.329 13.733 0
242.35 9.38202 0
243.741 11.4475 0
242.597 13.6597 0
241.206 11.5942 0
242.474 11.521 0
243.618 9.30857 0
246.152 9.1609 0
246.402 13.4385 0
243.865 13.5862 0
244.885 9.23486 0
246.277 11.2998 0
245.133 13.5125 0
243.741 11.4475 0
245.009 11.3738 0
246.152 9.1609 0
248.687 9.01219 0
248.938 13.2897 0
246.402 13.4385 0
247.42 9.08667 0
248.812 11.151 0
247.67 13.3642 0
246.277 11.2998 0
247.545 11.2255 0
248.687 9.01219 0
251.221 8.86248 0
251.474 13.1399 0
248.938 13.2897 0
249.954 8.93746 0
251.348 11.0013 0
250.206 13.2149 0
248.812 11.151 0
250.08 11.0763 0
251.221 8.86248 0
253.756 8.71175 0
254.01 12.989 0
251.474 13.1399 0
252.489 8.78724 0
253.883 10.8505 0
252.742 13.0646 0
251.348 11.0013 0
252.615 10.926 0
253.756 8.71175 0
256.29 8.56004 0
256.546 12.8372 0
254.01 12.989 0
255.023 8.63602 0
256.418 10.6987 0
255.278 12.9133 0
253.883 10.8505 0
255.151 10.7747 0
256.29 8.56004 0
258.824 8.40734 0
259.082 12.6844 0
256.546 12.8372 0
257.557 8.48381 0
258.953 10.546 0
257.814 12.761 0
256.418 10.6987 0
257.686 10.6225 0
258.824 8.40734 0
261.359 8.25367 0
261.618 12.5307 0
259.082 12.6844 0
260.092 8.33062 0
261.488 10.3923 0
260.35 12.6077 0
258.953 10.546 0
260.221 10.4693 0
261.359 8.25367 0
263.893 8.09903 0
264.154 12.376 0
261.618 12.5307 0
262.626 8.17647 0
264.023 10.2376 0
262.886 12.4534 0
261.488 10.3923 0
262.756 10.3151 0
263.893 8.09903 0
266.427 7.94344 0
266.69 12.2203 0
264.154 12.376 0
265.16 8.02136 0
266.558 10.082 0
265.422 12.2982 0
264.023 10.2376 0
265.291 10.1599 0
266.427 7.94344 0
268.961 7.78691 0
269.225 12.0637 0
266.69 12.2203 0
267.694 7.8653 0
269.093 9.92539 0
267.957 12.1421 0
266.558 10.082 0
267.826 10.0038 0
268.961 7.78691 0
271.495 7.62945 0
271.761 11.9061 0
269.225 12.0637 0
270.228 7.7083 0
271.628 9.76788 0
270.493 11.985 0
269.093 9.92539 0
270.361 9.84675 0
271.495 7.62945 0
274.029 7.47106 0
274.296 11.7476 0
271.761 11.9061 0
272.762 7.55037 0
274.163 9.60945 0
273.029 11.827 0
271.628 9.76788 0
272.895 9.68878 0
274.029 7.47106 0
276.563 7.31177 0
276.832 11.5883 0
274.296 11.7476 0
275.296 7.39153 0
276.697 9.45011 0
275.564 11.6681 0
274.163 9.60945 0
275.43 9.52989 0
276.563 7.31177 0
279.097 7.15157 0
279.367 11.428 0
276.832 11.5883 0
277.83 7.23178 0
279.232 9.28987 0
278.099 11.5082 0
276.697 9.45011 0
277.964 9.3701 0
279.097 7.15157 0
281.63 6.99048 0
281.902 11.2668 0
279.367 11.428 0
280.363 7.07114 0
281.766 9.12873 0
280.635 11.3475 0
279.232 9.28987 0
280.499 9.20941 0
281.63 6.99048 0
284.164 6.82851 0
284.437 11.1047 0
281.902 11.2668 0
282.897 6.9096 0
284.301 8.96672 0
283.17 11.1859 0
281.766 9.12873 0
283.033 9.04783 0
284.164 6.82851 0
286.697 6.66567 0
286.972 10.9418 0
284.437 11.1047 0
285.431 6.7472 0
286.835 8.80383 0
285.705 11.0234 0
284.301 8.96672 0
285.568 8.88538 0
286.697 6.66567 0
289.231 6.50197 0
289.507 10.778 0
286.972 10.9418 0
287.964 6.58393 0
289.369 8.64009 0
288.24 10.86 0
286.835 8.80383 0
288.102 8.72207 0
289.231 6.50197 0
291.764 6.33742 0
292.042 10.6134 0
289.507 10.778 0
290.498 6.4198 0
291.903 8.4755 0
290.775 10.6958 0
289.369 8.64009 0
290.636 8.5579 0
291.764 6.33742 0
294.298 6.17203 0
294.577 10.4479 0
292.042 10.6134 0
293.031 6.25483 0
294.437 8.31006 0
293.31 10.5308 0
291.903 8.4755 0
293.17 8.39288 0
294.298 6.17203 0
296.831 6.00581 0
297.112 10.2816 0
294.577 10.4479 0
295.564 6.08902 0
296.971 8.1438 0
295.844 10.3649 0
294.437 8.31006 0
295.704 8.22704 0
296.831 6.00581 0
299.364 5.83877 0
299.646 10.1145 0
297.112 10.2816 0
298.098 5.92239 0
299.505 7.97672 0
298.379 10.1982 0
296.971 8.1438 0
298.238 8.06036 0
299.364 5.83877 0
301.898 5.67092 0
302.181 9.94657 0
299.646 10.1145 0
300.631 5.75494 0
302.039 7.80883 0
300.914 10.0306 0
299.505 7.97672 0
300.772 7.89288 0
301.898 5.67092 0
304.431 5.50227 0
304.715 9.77784 0
302.181 9.94657 0
303.164 5.5867 0
304.573 7.64014 0
303.448 9.8623 0
302.039 7.80883 0
303.306 7.72459 0
304.431 5.50227 0
306.964 5.33284 0
307.25 9.60833 0
304.715 9.77784 0
305.697 5.41765 0
307.107 7.47067 0
305.983 9.69318 0
304.573 7.64014 0
305.84 7.5555 0
306.964 5.33284 0
309.497 5.16263 0
309.784 9.43804 0
307.25 9.60833 0
308.23 5.24783 0
309.64 7.30041 0
308.517 9.52328 0
307.107 7.47067 0
308.374 7.38564 0
309.497 5.16263 0
312.03 4.99165 0
312.318 9.26698 0
309.784 9.43804 0
310.763 5.07723 0
312.174 7.12939 0
311.051 9.3526 0
309.64 7.30041 0
310.907 7.215 0
312.03 4.99165 0
314.563 4.81991 0
314.852 9.09516 0
312.318 9.26698 0
313.296 4.90587 0
314.708 6.95762 0
313.585 9.18116 0
312.174 7.12939 0
313.441 7.0436 0
314.563 4.81991 0
317.096 4.64742 0
317.387 8.9226 0
314.852 9.09516 0
315.829 4.73376 0
317.241 6.78509 0
316.12 9.00897 0
314.708 6.95762 0
315.974 6.87145 0
317.096 4.64742 0
319.628 4.4742 0
319.921 8.7493 0
317.387 8.9226 0
318.362 4.5609 0
319.774 6.61183 0
318.654 8.83604 0
317.241 6.78509 0
318.508 6.69855 0
319.628 4.4742 0
322.161 4.30025 0
322.455 8.57528 0
319.921 8.7493 0
320.895 4.38731 0
322.308 6.43784 0
321.188 8.66238 0
319.774 6.61183 0
321.041 6.52493 0
322.161 4.30025 0
324.694 4.12558 0
324.988 8.40054 0
322.455 8.57528 0
323.427 4.21301 0
324.841 6.26314 0
323.721 8.488 0
322.308 6.43784 0
323.574 6.35058 0
324.694 4.12558 0
327.226 3.95021 0
327.522 8.22509 0
324.988 8.40054 0
325.96 4.03799 0
327.374 6.08773 0
326.255 8.3129 0
324.841 6.26314 0
326.108 6.17552 0
327.226 3.95021 0
329.759 3.77414 0
330.056 8.04895 0
327.522 8.22509 0
328.493 3.86226 0
329.907 5.91162 0
328.789 8.13711 0
327.374 6.08773 0
328.641 5.99976 0
329.759 3.77414 0
332.291 3.59739 0
332.59 7.87213 0
330.056 8.04895 0
331.025 3.68585 0
332.44 5.73483 0
331.323 7.96063 0
329.907 5.91162 0
331.174 5.82331 0
332.291 3.59739 0
334.824 3.41996 0
335.123 7.69463 0
332.59 7.87213 0
333.558 3.50876 0
334.973 5.55737 0
333.856 7.78346 0
332.44 5.73483 0
333.707 5.64619 0
334.824 3.41996 0
337.356 3.24187 0
337.657 7.51647 0
335.123 7.69463 0
336.09 3.331 0
337.506 5.37924 0
336.39 7.60563 0
334.973 5.55737 0
336.24 5.46839 0
337.356 3.24187 0
339.888 3.06312 0
340.19 7.33765 0
337.657 7.51647 0
338.622 3.15258 0
340.039 5.20046 0
338.923 7.42714 0
337.506 5.37924 0
338.773 5.28993 0
339.888 3.06312 0
342.421 2.88373 0
342.723 7.15819 0
340.19 7.33765 0
341.155 2.9735 0
342.572 5.02103 0
341.457 7.248 0
340.039 5.20046 0
341.306 5.11082 0
342.421 2.88373 0
344.953 2.7037 0
345.257 6.9781 0
342.723 7.15819 0
343.687 2.79379 0
345.105 4.84097 0
343.99 7.06822 0
342.572 5.02103 0
343.838 4.93107 0
344.953 2.7037 0
347.485 2.52305 0
347.79 6.79738 0
345.257 6.9781 0
346.219 2.61345 0
347.638 4.66028 0
346.523 6.88781 0
345.105 4.84097 0
346.371 4.7507 0
347.485 2.52305 0
350.017 2.34178 0
350.323 6.61605 0
347.79 6.79738 0
348.751 2.43249 0
350.17 4.47898 0
349.056 6.70679 0
347.638 4.66028 0
348.904 4.56971 0
350.017 2.34178 0
352.549 2.15991 0
352.856 6.43412 0
350.323 6.61605 0
351.283 2.25092 0
352.703 4.29708 0
351.59 6.52516 0
350.17 4.47898 0
351.436 4.3881 0
352.549 2.15991 0
355.081 1.97745 0
355.389 6.25159 0
352.856 6.43412 0
353.815 2.06876 0
355.235 4.11458 0
354.123 6.34293 0
352.703 4.29708 0
353.969 4.20591 0
355.081 1.97745 0
357.613 1.79441 0
357.922 6.06848 0
355.389 6.25159 0
356.347 1.886 0
357.768 3.93151 0
356.656 6.16011 0
355.235 4.11458 0
356.501 4.02312 0
357.613 1.79441 0
360.145 1.61079 0
360.455 5.88481 0
357.922 6.06848 0
358.879 1.70267 0
360.3 3.74786 0
359.188 5.97672 0
357.768 3.93151 0
359.034 3.83975 0
360.145 1.61079 0
362.677 1.42661 0
362.988 5.70057 0
360.455 5.88481 0
361.411 1.51877 0
362.832 3.56365 0
361.721 5.79276 0
360.3 3.74786 0
361.566 3.65582 0
362.677 1.42661 0
365.209 1.24187 0
365.52 5.51577 0
362.988 5.70057 0
363.943 1.33431 0
365.365 3.37888 0
364.254 5.60824 0
362.832 3.56365 0
364.099 3.47133 0
365.209 1.24187 0
367.741 1.0566 0
368.053 5.33044 0
365.52 5.51577 0
366.475 1.1493 0
367.897 3.19358 0
366.787 5.42317 0
365.365 3.37888 0
366.631 3.2863 0
367.741 1.0566 0
370.272 0.870793 0
370.586 5.14458 0
368.053 5.33044 0
369.007 0.963762 0
370.429 3.00774 0
369.319 5.23758 0
367.897 3.19358 0
369.163 3.10073 0
370.272 0.870793 0
372.804 0.684465 0
373.118 4.9582 0
370.586 5.14458 0
371.538 0.777693 0
372.961 2.82139 0
371.852 5.05145 0
370.429 3.00774 0
371.695 2.91463 0
372.804 0.684465 0
375.336 0.497625 0
375.651 4.7713 0
373.118 4.9582 0
374.07 0.591108 0
375.493 2.63452 0
374.385 4.86481 0
372.961 2.82139 0
374.227 2.72802 0
375.336 0.497625 0
377.867 0.310285 0
378.183 4.58391 0
375.651 4.7713 0
376.601 0.404017 0
378.025 2.44715 0
376.917 4.67767 0
375.493 2.63452 0
376.759 2.5409 0
377.867 0.310285 0
380.399 0.122454 0
380.716 4.39603 0
378.183 4.58391 0
379.133 0.21643 0
380.557 2.25929 0
379.449 4.49003 0
378.025 2.44715 0
379.291 2.35328 0
380.399 0.122454 0
382.93 -0.0658577 0
383.248 4.20766 0
380.716 4.39603 0
381.665 0.0283575 0
383.089 2.07095 0
381.982 4.3019 0
380.557 2.25929 0
381.823 2.16518 0
382.93 -0.0658577 0
385.462 -0.25464 0
385.78 4.01883 0
383.248 4.20766 0
384.196 -0.160191 0
385.621 1.88215 0
384.514 4.11331 0
383.089 2.07095 0
384.355 1.97661 0
385.462 -0.25464 0
387.993 -0.443882 0
388.312 3.82954 0
385.78 4.01883 0
386.727 -0.349204 0
388.153 1.69288 0
387.046 3.92424 0
385.621 1.88215 0
386.887 1.78757 0
387.993 -0.443882 0
390.524 -0.633573 0
390.844 3.6398 0
388.312 3.82954 0
389.259 -0.538672 0
390.684 1.50316 0
389.578 3.73473 0
388.153 1.69288 0
389.419 1.59808 0
390.524 -0.633573 0
393.056 -0.823704 0
393.376 3.44962 0
390.844 3.6398 0
391.79 -0.728584 0
393.216 1.31301 0
392.11 3.54477 0
390.684 1.50316 0
391.95 1.40814 0
393.056 -0.823704 0
395.587 -1.01426 0
395.908 3.25902 0
393.376 3.44962 0
394.321 -0.918931 0
395.748 1.12242 0
394.642 3.35437 0
393.216 1.31301 0
394.482 1.21777 0
395.587 -1.01426 0
398.118 -1.20524 0
398.44 3.068 0
395.908 3.25902 0
396.853 -1.1097 0
398.279 0.931421 0
397.174 3.16356 0
395.748 1.12242 0
397.013 1.02697 0
398.118 -1.20524 0
400.649 -1.39663 0
400.972 2.87656 0
398.44 3.068 0
399.384 -1.30089 0
400.811 0.74001 0
399.706 2.97233 0
398.279 0.931421 0
399.545 0.835766 0
400.649 -1.39663 0
403.181 -1.58842 0
403.504 2.68474 0
400.972 2.87656 0
401.915 -1.49248 0
403.342 0.548201 0
402.238 2.7807 0
400.811 0.74001 0
402.077 0.644155 0
403.181 -1.58842 0
405.712 -1.78059 0
406.036 2.49252 0
403.504 2.68474 0
404.446 -1.68446 0
405.874 0.356005 0
404.77 2.58868 0
403.342 0.548201 0
404.608 0.452151 0
405.712 -1.78059 0
408.243 -1.97315 0
408.567 2.29993 0
406.036 2.49252 0
406.977 -1.87682 0
408.405 0.163432 0
407.302 2.39627 0
405.874 0.356005 0
407.139 0.259765 0
408.243 -1.97315 0
410.774 -2.16607 0
411.099 2.10697 0
408.567 2.29993 0
409.508 -2.06956 0
410.937 -0.0295093 0
409.833 2.2035 0
408.405 0.163432 0
409.671 0.0670064 0
410.774 -2.16607 0
413.305 -2.35935 0
413.631 1.91366 0
411.099 2.10697 0
412.039 -2.26266 0
413.468 -0.222807 0
412.365 2.01036 0
410.937 -0.0295093 0
412.202 -0.126114 0
413.305 -2.35935 0
415.836 -2.55297 0
416.162 1.71999 0
413.631 1.91366 0
414.57 -2.45612 0
415.999 -0.416452 0
414.897 1.81687 0
413.468 -0.222807 0
414.733 -0.319587 0
415.836 -2.55297 0
418.367 -2.74693 0
418.694 1.526 0
416.162 1.71999 0
417.101 -2.64991 0
418.53 -0.610433 0
417.428 1.62304 0
415.999 -0.416452 0
417.265 -0.513401 0
418.367 -2.74693 0
420.898 -2.94122 0
421.225 1.33168 0
418.694 1.526 0
419.632 -2.84404 0
421.061 -0.80474 0
419.96 1.42888 0
418.53 -0.610433 0
419.796 -0.707546 0
420.898 -2.94122 0
423.429 -3.13583 0
423.757 1.13704 0
421.225 1.33168 0
422.163 -3.03849 0
423.593 -0.999363 0
422.491 1.23439 0
421.061 -0.80474 0
422.327 -0.902012 0
423.429 -3.13583 0
425.959 -3.33074 0
426.288 0.942094 0
423.757 1.13704 0
424.694 -3.23325 0
426.124 -1.19429 0
425.022 1.0396 0
423.593 -0.999363 0
424.858 -1.09679 0
425.959 -3.33074 0
428.49 -3.52595 0
428.819 0.746857 0
426.288 0.942094 0
427.225 -3.42831 0
428.655 -1.38952 0
427.554 0.844512 0
426.124 -1.19429 0
427.389 -1.29187 0
428.49 -3.52595 0
431.021 -3.72145 0
431.351 0.551334 0
428.819 0.746857 0
429.756 -3.62366 0
431.186 -1.58503 0
430.085 0.64913 0
428.655 -1.38952 0
429.92 -1.48724 0
431.021 -3.72145 0
433.552 -3.91722 0
433.882 0.355538 0
431.351 0.551334 0
432.286 -3.8193 0
433.717 -1.78081 0
432.616 0.45347 0
431.186 -1.58503 0
432.451 -1.68288 0
433.552 -3.91722 0
436.082 -4.11325 0
436.413 0.159477 0
433.882 0.355538 0
434.817 -4.0152 0
436.248 -1.97686 0
435.147 0.257539 0
433.717 -1.78081 0
434.982 -1.8788 0
436.082 -4.11325 0
438.613 -4.30954 0
438.944 -0.036838 0
436.413 0.159477 0
437.348 -4.21137 0
438.779 -2.17316 0
437.679 0.0613505 0
436.248 -1.97686 0
437.513 -2.07498 0
438.613 -4.30954 0
441.144 -4.50608 0
441.475 -0.233396 0
438.944 -0.036838 0
439.879 -4.40778 0
441.309 -2.36971 0
440.21 -0.135087 0
438.779 -2.17316 0
440.044 -2.27141 0
441.144 -4.50608 0
443.674 -4.70285 0
444.006 -0.430188 0
441.475 -0.233396 0
442.409 -4.60443 0
443.84 -2.56649 0
442.741 -0.331764 0
441.309 -2.36971 0
442.575 -2.46807 0
443.674 -4.70285 0
446.205 -4.89984 0
446.537 -0.627203 0
444.006 -0.430188 0
444.94 -4.80132 0
446.371 -2.7635 0
445.272 -0.528668 0
443.84 -2.56649 0
445.106 -2.66497 0
446.205 -4.89984 0
448.736 -5.09705 0
449.068 -0.82443 0
446.537 -0.627203 0
447.47 -4.99842 0
448.902 -2.96072 0
447.803 -0.725791 0
446.371 -2.7635 0
447.636 -2.86208 0
448.736 -5.09705 0
451.266 -5.29447 0
451.599 -1.02186 0
449.068 -0.82443 0
450.001 -5.19573 0
451.433 -3.15814 0
450.334 -0.923121 0
448.902 -2.96072 0
450.167 -3.05941 0
451.266 -5.29447 0
453.797 -5.49207 0
454.13 -1.21948 0
451.599 -1.02186 0
452.531 -5.39325 0
453.963 -3.35576 0
452.864 -1.12065 0
451.433 -3.15814 0
452.698 -3.25693 0
453.797 -5.49207 0
456.327 -5.68986 0
456.661 -1.41729 0
454.13 -1.21948 0
455.062 -5.59094 0
456.494 -3.55356 0
455.395 -1.31836 0
453.963 -3.35576 0
455.229 -3.45463 0
456.327 -5.68986 0
458.858 -5.88783 0
459.191 -1.61527 0
456.661 -1.41729 0
457.593 -5.78882 0
459.025 -3.75153 0
457.926 -1.51626 0
456.494 -3.55356 0
457.759 -3.65252 0
458.858 -5.88783 0
461.388 -6.08595 0
461.722 -1.8134 0
459.191 -1.61527 0
460.123 -5.98687 0
461.555 -3.94966 0
460.457 -1.71432 0
459.025 -3.75153 0
460.29 -3.85057 0
461.388 -6.08595 0
463.919 -6.28423 0
464.253 -2.01169 0
461.722 -1.8134 0
462.653 -6.18507 0
464.086 -4.14795 0
462.988 -1.91253 0
461.555 -3.94966 0
462.82 -4.04879 0
463.919 -6.28423 0
466.449 -6.48265 0
466.784 -2.21013 0
464.253 -2.01169 0
465.184 -6.38343 0
466.616 -4.34637 0
465.518 -2.11089 0
464.086 -4.14795 0
465.351 -4.24714 0
466.449 -6.48265 0
468.98 -6.68121 0
469.314 -2.40869 0
466.784 -2.21013 0
467.714 -6.58191 0
469.147 -4.54493 0
468.049 -2.30939 0
466.616 -4.34637 0
467.882 -4.44564 0
468.98 -6.68121 0
471.51 -6.87988 0
471.845 -2.60737 0
469.314 -2.40869 0
470.245 -6.78053 0
471.677 -4.74361 0
470.579 -2.50801 0
469.147 -4.54493 0
470.412 -4.64426 0
471.51 -6.87988 0
474.04 -7.07867 0
474.375 -2.80616 0
471.845 -2.60737 0
472.775 -6.97927 0
474.208 -4.94241 0
473.11 -2.70675 0
471.677 -4.74361 0
472.943 -4.843 0
474.04 -7.07867 0
476.571 -7.27756 0
476.906 -3.00506 0
474.375 -2.80616 0
475.305 -7.17811 0
476.738 -5.1413 0
475.641 -2.9056 0
474.208 -4.94241 0
475.473 -5.04184 0
476.571 -7.27756 0
479.101 -7.47655 0
479.436 -3.20404 0
476.906 -3.00506 0
477.836 -7.37704 0
479.269 -5.34028 0
478.171 -3.10454 0
476.738 -5.1413 0
478.003 -5.24078 0
479.101 -7.47655 0
481.631 -7.67561 0
481.967 -3.4031 0
479.436 -3.20404 0
480.366 -7.57607 0
481.799 -5.53935 0
480.702 -3.30356 0
479.269 -5.34028 0
480.534 -5.43981 0
481.631 -7.67561 0
484.162 -7.87475 0
484.497 -3.60224 0
481.967 -3.4031 0
482.896 -7.77518 0
484.329 -5.73849 0
483.232 -3.50266 0
481.799 -5.53935 0
483.064 -5.63891 0
484.162 -7.87475 0
486.692 -8.07396 0
487.028 -3.80144 0
484.497 -3.60224 0
485.427 -7.97435 0
486.86 -5.93769 0
485.762 -3.70183 0
484.329 -5.73849 0
485.595 -5.83808 0
486.692 -8.07396 0
489.222 -8.27321 0
489.558 -4.00069 0
487.028 -3.80144 0
487.957 -8.17358 0
489.39 -6.13694 0
488.293 -3.90105 0
486.86 -5.93769 0
488.125 -6.03731 0
489.222 -8.27321 0
491.752 -8.4725 0
492.088 -4.19998 0
489.558 -4.00069 0
490.487 -8.37285 0
491.92 -6.33624 0
490.823 -4.10033 0
489.39 -6.13694 0
490.655 -6.23659 0
491.752 -8.4725 0
494.283 -8.67179 0
494.618 -4.39931 0
492.088 -4.19998 0
493.018 -8.57215 0
494.451 -6.53555 0
493.353 -4.29964 0
491.92 -6.33624 0
493.185 -6.43589 0
494.283 -8.67179 0
496.813 -8.87104 0
497.149 -4.59864 0
494.618 -4.39931 0
495.548 -8.77142 0
496.981 -6.73482 0
495.884 -4.49898 0
494.451 -6.53555 0
495.716 -6.63519 0
496.813 -8.87104 0
499.343 -9.07018 0
499.679 -4.79788 0
497.149 -4.59864 0
498.078 -8.97063 0
499.511 -6.934 0
498.414 -4.69828 0
496.981 -6.73482 0
498.246 -6.83443 0
0 21.4286 0
2.54257 21.4281 0
2.54583 25.7121 0
0 25.7143 0
1.27122 21.4287 0
2.54414 23.5703 0
1.2728 25.7135 0
0 23.5714 0
1.27202 23.5712 0
2.54257 21.4281 0
5.08548 21.425 0
5.09229 25.7079 0
2.54583 25.7121 0
3.81399 21.4268 0
5.08877 23.5667 0
3.81902 25.7102 0
2.54414 23.5703 0
3.8164 23.5688 0
5.08548 21.425 0
7.62859 21.4197 0
7.63883 25.7021 0
5.09229 25.7079 0
6.35702 21.4226 0
7.63361 23.5612 0
6.36556 25.7052 0
5.08877 23.5667 0
6.36118 23.5642 0
7.62859 21.4197 0
10.1717 21.4124 0
10.1853 25.6947 0
7.63883 25.7021 0
8.90017 21.4163 0
10.1785 23.5537 0
8.91208 25.6986 0
7.63361 23.5612 0
8.90604 23.5577 0
10.1717 21.4124 0
12.7149 21.4031 0
12.7317 25.6853 0
10.1853 25.6947 0
11.4433 21.408 0
12.7232 23.5444 0
11.4585 25.6902 0
10.1785 23.5537 0
11.4509 23.5493 0
12.7149 21.4031 0
15.2579 21.3918 0
15.2781 25.6741 0
12.7317 25.6853 0
13.9864 21.3977 0
15.268 23.5331 0
14.0049 25.6799 0
12.7232 23.5444 0
13.9956 23.539 0
15.2579 21.3918 0
17.801 21.3786 0
17.8244 25.6609 0
15.2781 25.6741 0
16.5295 21.3855 0
17.8126 23.5199 0
16.5512 25.6677 0
15.268 23.5331 0
16.5403 23.5268 0
17.801 21.3786 0
20.3439 21.3634 0
20.3706 25.6457 0
17.8244 25.6609 0
19.0725 21.3713 0
20.3572 23.5048 0
19.0975 25.6535 0
17.8126 23.5199 0
19.0849 23.5126 0
20.3439 21.3634 0
22.8868 21.3463 0
22.9168 25.6286 0
20.3706 25.6457 0
21.6154 21.3551 0
22.9018 23.4877 0
21.6437 25.6374 0
20.3572 23.5048 0
21.6295 23.4965 0
22.8868 21.3463 0
25.4297 21.3273 0
25.4629 25.6095 0
22.9168 25.6286 0
24.1583 21.337 0
25.4463 23.4686 0
24.1898 25.6193 0
22.9018 23.4877 0
24.174 23.4784 0
25.4297 21.3273 0
27.9725 21.3063 0
28.0089 25.5886 0
25.4629 25.6095 0
26.7011 21.317 0
27.9907 23.4476 0
26.7359 25.5993 0
25.4463 23.4686 0
26.7185 23.4584 0
27.9725 21.3063 0
30.5153 21.2834 0
30.5549 25.5657 0
28.0089 25.5886 0
29.2439 21.2951 0
30.5351 23.4248 0
29.2819 25.5774 0
27.9907 23.4476 0
29.2629 23.4364 0
30.5153 21.2834 0
33.0581 21.2586 0
33.1009 25.5409 0
30.5549 25.5657 0
31.7867 21.2713 0
33.0794 23.4 0
31.8279 25.5535 0
30.5351 23.4248 0
31.8073 23.4126 0
33.0581 21.2586 0
35.6007 21.232 0
35.6467 25.5142 0
33.1009 25.5409 0
34.3294 21.2455 0
35.6237 23.3733 0
34.3738 25.5278 0
33.0794 23.4 0
34.3516 23.3869 0
35.6007 21.232 0
38.1434 21.2034 0
38.1925 25.4856 0
35.6467 25.5142 0
36.8721 21.2179 0
38.1679 23.3447 0
36.9196 25.5001 0
35.6237 23.3733 0
36.8958 23.3592 0
38.1434 21.2034 0
40.686 21.173 0
40.7383 25.4552 0
38.1925 25.4856 0
39.4147 21.1884 0
40.7121 23.3143 0
39.4654 25.4706 0
38.1679 23.3447 0
39.44 23.3297 0
40.686 21.173 0
43.2285 21.1407 0
43.284 25.4228 0
40.7383 25.4552 0
41.9573 21.157 0
43.2562 23.2819 0
42.0111 25.4392 0
40.7121 23.3143 0
41.9842 23.2983 0
43.2285 21.1407 0
45.771 21.1065 0
45.8296 25.3887 0
43.284 25.4228 0
44.4998 21.1238 0
45.8003 23.2478 0
44.5568 25.406 0
43.2562 23.2819 0
44.5283 23.2651 0
45.771 21.1065 0
48.3135 21.0705 0
48.3751 25.3526 0
45.8296 25.3887 0
47.0423 21.0887 0
48.3443 23.2118 0
47.1023 25.3709 0
45.8003 23.2478 0
47.0723 23.23 0
48.3135 21.0705 0
50.8559 21.0327 0
50.9206 25.3148 0
48.3751 25.3526 0
49.5847 21.0518 0
50.8882 23.1739 0
49.6479 25.3339 0
48.3443 23.2118 0
49.6162 23.1931 0
50.8559 21.0327 0
53.3982 20.993 0
53.466 25.2751 0
50.9206 25.3148 0
52.127 21.0131 0
53.4321 23.1343 0
52.1933 25.2952 0
50.8882 23.1739 0
52.1601 23.1543 0
53.3982 20.993 0
55.9405 20.9516 0
56.0113 25.2336 0
53.466 25.2751 0
54.6694 20.9725 0
55.9759 23.0928 0
54.7387 25.2546 0
53.4321 23.1343 0
54.704 23.1137 0
55.9405 20.9516 0
58.4827 20.9083 0
58.5566 25.1903 0
56.0113 25.2336 0
57.2116 20.9302 0
58.5196 23.0495 0
57.2839 25.2122 0
55.9759 23.0928 0
57.2478 23.0714 0
58.4827 20.9083 0
61.0249 20.8633 0
61.1017 25.1452 0
58.5566 25.1903 0
59.7538 20.886 0
61.0633 23.0044 0
59.8292 25.168 0
58.5196 23.0495 0
59.7915 23.0272 0
61.0249 20.8633 0
63.567 20.8164 0
63.6468 25.0984 0
61.1017 25.1452 0
62.296 20.8401 0
63.6069 22.9576 0
62.3743 25.122 0
61.0633 23.0044 0
62.3351 22.9812 0
63.567 20.8164 0
66.1091 20.7678 0
66.1919 25.0497 0
63.6468 25.0984 0
64.838 20.7924 0
66.1504 22.909 0
64.9194 25.0743 0
63.6069 22.9576 0
64.8787 22.9335 0
66.1091 20.7678 0
68.6511 20.7175 0
68.7368 24.9993 0
66.1919 25.0497 0
67.3801 20.7429 0
68.6939 22.8586 0
67.4644 25.0247 0
66.1504 22.909 0
67.4222 22.884 0
68.6511 20.7175 0
71.193 20.6654 0
71.2817 24.9472 0
68.7368 24.9993 0
69.922 20.6916 0
71.2373 22.8065 0
70.0093 24.9735 0
68.6939 22.8586 0
69.9656 22.8327 0
71.193 20.6654 0
73.7349 20.6115 0
73.8265 24.8933 0
71.2817 24.9472 0
72.4639 20.6387 0
73.7807 22.7526 0
72.5541 24.9204 0
71.2373 22.8065 0
72.509 22.7797 0
73.7349 20.6115 0
76.2767 20.5559 0
76.3712 24.8377 0
73.8265 24.8933 0
75.0058 20.5839 0
76.3239 22.697 0
75.0989 24.8657 0
73.7807 22.7526 0
75.0523 22.725 0
76.2767 20.5559 0
78.8184 20.4986 0
78.9158 24.7803 0
76.3712 24.8377 0
77.5476 20.5275 0
78.8671 22.6397 0
77.6435 24.8092 0
76.3239 22.697 0
77.5955 22.6685 0
78.8184 20.4986 0
81.3601 20.4396 0
81.4604 24.7213 0
78.9158 24.7803 0
80.0893 20.4694 0
81.4102 22.5806 0
80.1881 24.751 0
78.8671 22.6397 0
80.1387 22.6104 0
81.3601 20.4396 0
83.9017 20.3789 0
84.0049 24.6605 0
81.4604 24.7213 0
82.6309 20.4095 0
83.9533 22.5199 0
82.7326 24.6911 0
81.4102 22.5806 0
82.6818 22.5505 0
83.9017 20.3789 0
86.4433 20.3166 0
86.5492 24.5981 0
84.0049 24.6605 0
85.1725 20.348 0
86.4962 22.4575 0
85.2771 24.6295 0
83.9533 22.5199 0
85.2248 22.4889 0
86.4433 20.3166 0
88.9848 20.2525 0
89.0935 24.534 0
86.5492 24.5981 0
87.714 20.2847 0
89.0391 22.3934 0
87.8214 24.5662 0
86.4962 22.4575 0
87.7677 22.4257 0
88.9848 20.2525 0
91.5262 20.1868 0
91.6378 24.4682 0
89.0935 24.534 0
90.2555 20.2198 0
91.5819 22.3277 0
90.3657 24.5013 0
89.0391 22.3934 0
90.3105 22.3607 0
91.5262 20.1868 0
94.0675 20.1194 0
94.1819 24.4008 0
91.6378 24.4682 0
92.7968 20.1533 0
94.1247 22.2602 0
92.9098 24.4347 0
91.5819 22.3277 0
92.8533 22.2942 0
94.0675 20.1194 0
96.6088 20.0504 0
96.7259 24.3317 0
94.1819 24.4008 0
95.3382 20.0851 0
96.6673 22.1912 0
95.4539 24.3664 0
94.1247 22.2602 0
95.396 22.2259 0
96.6088 20.0504 0
99.15 19.9797 0
99.2699 24.2609 0
96.7259 24.3317 0
97.8794 20.0152 0
99.2099 22.1205 0
97.9979 24.2965 0
96.6673 22.1912 0
97.9386 22.156 0
99.15 19.9797 0
101.691 19.9074 0
101.814 24.1886 0
99.2699 24.2609 0
100.421 19.9438 0
101.752 22.0482 0
100.542 24.225 0
99.2099 22.1205 0
100.481 22.0845 0
101.691 19.9074 0
104.232 19.8335 0
104.357 24.1146 0
101.814 24.1886 0
102.962 19.8707 0
104.295 21.9742 0
103.086 24.1518 0
101.752 22.0482 0
103.024 22.0114 0
104.232 19.8335 0
106.773 19.758 0
106.901 24.0391 0
104.357 24.1146 0
105.503 19.796 0
106.837 21.8987 0
105.629 24.0771 0
104.295 21.9742 0
105.566 21.9367 0
106.773 19.758 0
109.314 19.6809 0
109.445 23.9619 0
106.901 24.0391 0
108.044 19.7197 0
109.379 21.8216 0
108.173 24.0007 0
106.837 21.8987 0
108.108 21.8603 0
109.314 19.6809 0
111.855 19.6022 0
111.988 23.8832 0
109.445 23.9619 0
110.585 19.6418 0
111.922 21.7429 0
110.717 23.9227 0
109.379 21.8216 0
110.65 21.7824 0
111.855 19.6022 0
114.396 19.522 0
114.532 23.8028 0
111.988 23.8832 0
113.125 19.5623 0
114.464 21.6626 0
113.26 23.8432 0
111.922 21.7429 0
113.193 21.7029 0
114.396 19.522 0
116.936 19.4402 0
117.075 23.721 0
114.532 23.8028 0
115.666 19.4813 0
117.006 21.5807 0
115.803 23.7621 0
114.464 21.6626 0
115.735 21.6218 0
116.936 19.4402 0
119.477 19.3568 0
119.618 23.6375 0
117.075 23.721 0
118.207 19.3987 0
119.548 21.4973 0
118.347 23.6794 0
117.006 21.5807 0
118.277 21.5392 0
119.477 19.3568 0
122.018 19.2719 0
122.161 23.5525 0
119.618 23.6375 0
120.747 19.3145 0
122.089 21.4124 0
120.89 23.5952 0
119.548 21.4973 0
120.818 21.455 0
122.018 19.2719 0
124.558 19.1854 0
124.704 23.466 0
122.161 23.5525 0
123.288 19.2289 0
124.631 21.3259 0
123.433 23.5095 0
122.089 21.4124 0
123.36 21.3693 0
124.558 19.1854 0
127.098 19.0975 0
127.247 23.378 0
124.704 23.466 0
125.828 19.1417 0
127.173 21.2379 0
125.976 23.4222 0
124.631 21.3259 0
125.902 21.2821 0
127.098 19.0975 0
129.639 19.008 0
129.79 23.2885 0
127.247 23.378 0
128.369 19.0529 0
129.714 21.1484 0
128.519 23.3334 0
127.173 21.2379 0
128.444 21.1933 0
129.639 19.008 0
132.179 18.917 0
132.333 23.1974 0
129.79 23.2885 0
130.909 18.9627 0
132.256 21.0574 0
131.062 23.2431 0
129.714 21.1484 0
130.985 21.1031 0
132.179 18.917 0
134.719 18.8246 0
134.876 23.1049 0
132.333 23.1974 0
133.449 18.871 0
134.797 20.9649 0
133.604 23.1513 0
132.256 21.0574 0
133.527 21.0113 0
134.719 18.8246 0
137.259 18.7306 0
137.418 23.0109 0
134.876 23.1049 0
135.989 18.7778 0
137.339 20.8709 0
136.147 23.0581 0
134.797 20.9649 0
136.068 20.9181 0
137.259 18.7306 0
139.799 18.6352 0
139.961 22.9154 0
137.418 23.0109 0
138.529 18.6831 0
139.88 20.7755 0
138.689 22.9633 0
137.339 20.8709 0
138.609 20.8234 0
139.799 18.6352 0
142.339 18.5384 0
142.503 22.8184 0
139.961 22.9154 0
141.069 18.587 0
142.421 20.6785 0
141.232 22.8671 0
139.88 20.7755 0
141.15 20.7272 0
142.339 18.5384 0
144.879 18.44 0
145.045 22.72 0
142.503 22.8184 0
143.609 18.4894 0
144.962 20.5802 0
143.774 22.7694 0
142.421 20.6785 0
143.691 20.6296 0
144.879 18.44 0
147.419 18.3403 0
147.587 22.6202 0
145.045 22.72 0
146.149 18.3903 0
147.503 20.4804 0
146.316 22.6703 0
144.962 20.5802 0
146.232 20.5305 0
147.419 18.3403 0
149.958 18.2391 0
150.129 22.5189 0
147.587 22.6202 0
148.688 18.2899 0
150.044 20.3792 0
148.858 22.5698 0
147.503 20.4804 0
148.773 20.43 0
149.958 18.2391 0
152.498 18.1365 0
152.671 22.4163 0
150.129 22.5189 0
151.228 18.188 0
152.584 20.2765 0
151.4 22.4678 0
150.044 20.3792 0
151.314 20.328 0
152.498 18.1365 0
155.037 18.0325 0
155.213 22.3122 0
152.671 22.4163 0
153.767 18.0847 0
155.125 20.1725 0
153.942 22.3644 0
152.584 20.2765 0
153.855 20.2247 0
155.037 18.0325 0
157.577 17.9271 0
157.755 22.2067 0
155.213 22.3122 0
156.307 17.98 0
157.666 20.067 0
156.484 22.2596 0
155.125 20.1725 0
156.395 20.1199 0
157.577 17.9271 0
160.116 17.8203 0
160.297 22.0998 0
157.755 22.2067 0
158.846 17.8739 0
160.206 19.9602 0
159.026 22.1534 0
157.666 20.067 0
158.936 20.0138 0
160.116 17.8203 0
162.655 17.7121 0
162.838 21.9916 0
160.297 22.0998 0
161.386 17.7664 0
162.747 19.852 0
161.567 22.0459 0
160.206 19.9602 0
161.476 19.9063 0
162.655 17.7121 0
165.194 17.6026 0
165.38 21.882 0
162.838 21.9916 0
163.925 17.6575 0
165.287 19.7424 0
164.109 21.9369 0
162.747 19.852 0
164.017 19.7974 0
165.194 17.6026 0
167.733 17.4917 0
167.921 21.771 0
165.38 21.882 0
166.464 17.5473 0
167.827 19.6315 0
166.65 21.8267 0
165.287 19.7424 0
166.557 19.6871 0
167.733 17.4917 0
170.272 17.3795 0
170.462 21.6587 0
167.921 21.771 0
169.003 17.4358 0
170.367 19.5192 0
169.192 21.715 0
167.827 19.6315 0
169.097 19.5755 0
170.272 17.3795 0
172.811 17.2659 0
173.003 21.545 0
170.462 21.6587 0
171.542 17.3229 0
172.907 19.4056 0
171.733 21.602 0
170.367 19.5192 0
171.637 19.4626 0
172.811 17.2659 0
175.35 17.151 0
175.544 21.4301 0
173.003 21.545 0
174.081 17.2086 0
175.447 19.2907 0
174.274 21.4877 0
172.907 19.4056 0
174.177 19.3483 0
175.35 17.151 0
177.889 17.0348 0
178.085 21.3138 0
175.544 21.4301 0
176.619 17.0931 0
177.987 19.1744 0
176.815 21.3721 0
175.447 19.2907 0
176.717 19.2327 0
177.889 17.0348 0
180.427 16.9173 0
180.626 21.1962 0
178.085 21.3138 0
179.158 16.9762 0
180.527 19.0569 0
179.356 21.2551 0
177.987 19.1744 0
179.257 19.1158 0
180.427 16.9173 0
182.966 16.7985 0
183.167 21.0773 0
180.626 21.1962 0
181.697 16.8581 0
183.066 18.938 0
181.896 21.1369 0
180.527 19.0569 0
181.797 18.9976 0
182.966 16.7985 0
185.504 16.6784 0
185.707 20.9571 0
183.167 21.0773 0
184.235 16.7386 0
185.606 18.8179 0
184.437 21.0174 0
183.066 18.938 0
184.336 18.8781 0
185.504 16.6784 0
188.043 16.5571 0
188.248 20.8357 0
185.707 20.9571 0
186.774 16.6179 0
188.145 18.6965 0
186.978 20.8966 0
185.606 18.8179 0
186.876 18.7574 0
188.043 16.5571 0
190.581 16.4344 0
190.788 20.713 0
188.248 20.8357 0
189.312 16.4959 0
190.685 18.5739 0
189.518 20.7745 0
188.145 18.6965 0
189.415 18.6353 0
190.581 16.4344 0
193.119 16.3106 0
193.329 20.589 0
190.788 20.713 0
191.85 16.3727 0
193.224 18.4499 0
192.059 20.6512 0
190.685 18.5739 0
191.954 18.5121 0
193.119 16.3106 0
195.657 16.1855 0
195.869 20.4638 0
193.329 20.589 0
194.388 16.2482 0
195.763 18.3248 0
194.599 20.5266 0
193.224 18.4499 0
194.494 18.3875 0
195.657 16.1855 0
198.196 16.0591 0
198.409 20.3374 0
195.869 20.4638 0
196.927 16.1224 0
198.302 18.1984 0
197.139 20.4008 0
195.763 18.3248 0
197.033 18.2617 0
198.196 16.0591 0
200.733 15.9316 0
200.949 20.2098 0
198.409 20.3374 0
199.465 15.9955 0
200.841 18.0708 0
199.679 20.2737 0
198.302 18.1984 0
199.572 18.1347 0
200.733 15.9316 0
203.271 15.8028 0
203.489 20.0809 0
200.949 20.2098 0
202.002 15.8673 0
203.38 17.942 0
202.219 20.1455 0
200.841 18.0708 0
202.111 18.0065 0
203.271 15.8028 0
205.809 15.6728 0
206.029 19.9508 0
203.489 20.0809 0
204.54 15.7379 0
205.919 17.812 0
204.759 20.016 0
203.38 17.942 0
204.649 17.8771 0
205.809 15.6728 0
208.347 15.5416 0
208.568 19.8196 0
206.029 19.9508 0
207.078 15.6074 0
208.458 17.6808 0
207.299 19.8854 0
205.919 17.812 0
207.188 17.7465 0
208.347 15.5416 0
210.884 15.4093 0
211.108 19.6872 0
208.568 19.8196 0
209.616 15.4756 0
210.996 17.5484 0
209.838 19.7535 0
208.458 17.6808 0
209.727 17.6147 0
210.884 15.4093 0
213.422 15.2758 0
213.647 19.5536 0
211.108 19.6872 0
212.153 15.3427 0
213.535 17.4148 0
212.378 19.6205 0
210.996 17.5484 0
212.265 17.4817 0
213.422 15.2758 0
215.959 15.1411 0
216.187 19.4188 0
213.647 19.5536 0
214.691 15.2086 0
216.073 17.2801 0
214.917 19.4863 0
213.535 17.4148 0
214.804 17.3476 0
215.959 15.1411 0
218.497 15.0053 0
218.726 19.2829 0
216.187 19.4188 0
217.228 15.0734 0
218.611 17.1442 0
217.456 19.351 0
216.073 17.2801 0
217.342 17.2123 0
218.497 15.0053 0
221.034 14.8683 0
221.265 19.1459 0
218.726 19.2829 0
219.765 14.937 0
221.15 17.0072 0
219.996 19.2145 0
218.611 17.1442 0
219.88 17.0759 0
221.034 14.8683 0
223.571 14.7303 0
223.804 19.0077 0
221.265 19.1459 0
222.303 14.7994 0
223.688 16.8691 0
222.535 19.0769 0
221.15 17.0072 0
222.419 16.9383 0
223.571 14.7303 0
226.108 14.5911 0
226.343 18.8684 0
223.804 19.0077 0
224.84 14.6608 0
226.226 16.7299 0
225.074 18.9382 0
223.688 16.8691 0
224.957 16.7996 0
226.108 14.5911 0
228.645 14.4508 0
228.882 18.728 0
226.343 18.8684 0
227.377 14.521 0
228.764 16.5895 0
227.613 18.7984 0
226.226 16.7299 0
227.495 16.6598 0
228.645 14.4508 0
231.182 14.3093 0
231.421 18.5865 0
228.882 18.728 0
229.914 14.3802 0
231.301 16.4481 0
230.151 18.6574 0
228.764 16.5895 0
230.033 16.5189 0
231.182 14.3093 0
233.719 14.1669 0
233.959 18.444 0
231.421 18.5865 0
232.45 14.2382 0
233.839 16.3055 0
232.69 18.5154 0
231.301 16.4481 0
232.57 16.3769 0
233.719 14.1669 0
236.256 14.0233 0
236.498 18.3003 0
233.959 18.444 0
234.987 14.0952 0
236.377 16.1619 0
235.229 18.3723 0
233.839 16.3055 0
235.108 16.2338 0
236.256 14.0233 0
238.792 13.8787 0
239.036 18.1556 0
236.498 18.3003 0
237.524 13.9511 0
238.914 16.0172 0
237.767 18.2281 0
236.377 16.1619 0
237.646 16.0897 0
238.792 13.8787 0
241.329 13.733 0
241.575 18.0098 0
239.036 18.1556 0
240.061 13.8059 0
241.452 15.8715 0
240.306 18.0828 0
238.914 16.0172 0
240.183 15.9445 0
241.329 13.733 0
243.865 13.5862 0
244.113 17.863 0
241.575 18.0098 0
242.597 13.6597 0
243.989 15.7247 0
242.844 17.9365 0
241.452 15.8715 0
242.72 15.7982 0
243.865 13.5862 0
246.402 13.4385 0
246.651 17.7151 0
244.113 17.863 0
245.133 13.5125 0
246.526 15.5769 0
245.382 17.7892 0
243.989 15.7247 0
245.258 15.6509 0
246.402 13.4385 0
248.938 13.2897 0
249.189 17.5663 0
246.651 17.7151 0
247.67 13.3642 0
249.064 15.4281 0
247.92 17.6408 0
246.526 15.5769 0
247.795 15.5026 0
248.938 13.2897 0
251.474 13.1399 0
251.727 17.4164 0
249.189 17.5663 0
250.206 13.2149 0
251.601 15.2782 0
250.458 17.4914 0
249.064 15.4281 0
250.332 15.3533 0
251.474 13.1399 0
254.01 12.989 0
254.265 17.2655 0
251.727 17.4164 0
252.742 13.0646 0
254.138 15.1274 0
252.996 17.341 0
251.601 15.2782 0
252.869 15.2029 0
254.01 12.989 0
256.546 12.8372 0
256.803 17.1136 0
254.265 17.2655 0
255.278 12.9133 0
256.674 14.9755 0
255.534 17.1896 0
254.138 15.1274 0
255.406 15.0516 0
256.546 12.8372 0
259.082 12.6844 0
259.34 16.9607 0
256.803 17.1136 0
257.814 12.761 0
259.211 14.8227 0
258.071 17.0373 0
256.674 14.9755 0
257.943 14.8992 0
259.082 12.6844 0
261.618 12.5307 0
261.878 16.8069 0
259.34 16.9607 0
260.35 12.6077 0
261.748 14.6689 0
260.609 16.8839 0
259.211 14.8227 0
260.48 14.7459 0
261.618 12.5307 0
264.154 12.376 0
264.415 16.6521 0
261.878 16.8069 0
262.886 12.4534 0
264.285 14.5141 0
263.146 16.7296 0
261.748 14.6689 0
263.016 14.5916 0
264.154 12.376 0
266.69 12.2203 0
266.952 16.4963 0
264.415 16.6521 0
265.422 12.2982 0
266.821 14.3584 0
265.684 16.5743 0
264.285 14.5141 0
265.553 14.4364 0
266.69 12.2203 0
269.225 12.0637 0
269.49 16.3396 0
266.952 16.4963 0
267.957 12.1421 0
269.357 14.2017 0
268.221 16.4181 0
266.821 14.3584 0
268.089 14.2802 0
269.225 12.0637 0
271.761 11.9061 0
272.027 16.182 0
269.49 16.3396 0
270.493 11.985 0
271.894 14.0441 0
270.758 16.2609 0
269.357 14.2017 0
270.626 14.1231 0
271.761 11.9061 0
274.296 11.7476 0
274.564 16.0234 0
272.027 16.182 0
273.029 11.827 0
274.43 13.8856 0
273.295 16.1028 0
271.894 14.0441 0
273.162 13.965 0
274.296 11.7476 0
276.832 11.5883 0
277.101 15.864 0
274.564 16.0234 0
275.564 11.6681 0
276.966 13.7262 0
275.832 15.9438 0
274.43 13.8856 0
275.698 13.806 0
276.832 11.5883 0
279.367 11.428 0
279.637 15.7036 0
277.101 15.864 0
278.099 11.5082 0
279.502 13.5659 0
278.369 15.7839 0
276.966 13.7262 0
278.234 13.6462 0
279.367 11.428 0
281.902 11.2668 0
282.174 15.5423 0
279.637 15.7036 0
280.635 11.3475 0
282.038 13.4047 0
280.906 15.6231 0
279.502 13.5659 0
280.77 13.4854 0
281.902 11.2668 0
284.437 11.1047 0
284.711 15.3802 0
282.174 15.5423 0
283.17 11.1859 0
284.574 13.2426 0
283.442 15.4614 0
282.038 13.4047 0
283.306 13.3237 0
284.437 11.1047 0
286.972 10.9418 0
287.247 15.2172 0
284.711 15.3802 0
285.705 11.0234 0
287.11 13.0796 0
285.979 15.2988 0
284.574 13.2426 0
285.842 13.1612 0
286.972 10.9418 0
289.507 10.778 0
289.784 15.0534 0
287.247 15.2172 0
288.24 10.86 0
289.645 12.9158 0
288.515 15.1354 0
287.11 13.0796 0
288.378 12.9978 0
289.507 10.778 0
292.042 10.6134 0
292.32 14.8886 0
289.784 15.0534 0
290.775 10.6958 0
292.181 12.7511 0
291.052 14.9711 0
289.645 12.9158 0
290.913 12.8336 0
292.042 10.6134 0
294.577 10.4479 0
294.856 14.7231 0
292.32 14.8886 0
293.31 10.5308 0
294.717 12.5856 0
293.588 14.806 0
292.181 12.7511 0
293.449 12.6685 0
294.577 10.4479 0
297.112 10.2816 0
297.392 14.5567 0
294.856 14.7231 0
295.844 10.3649 0
297.252 12.4193 0
296.124 14.64 0
294.717 12.5856 0
295.984 12.5025 0
297.112 10.2816 0
299.646 10.1145 0
299.928 14.3895 0
297.392 14.5567 0
298.379 10.1982 0
299.787 12.2521 0
298.66 14.4732 0
297.252 12.4193 0
298.52 12.3358 0
299.646 10.1145 0
302.181 9.94657 0
302.464 14.2215 0
299.928 14.3895 0
300.914 10.0306 0
302.323 12.0841 0
301.196 14.3056 0
299.787 12.2521 0
301.055 12.1682 0
302.181 9.94657 0
304.715 9.77784 0
305 14.0527 0
302.464 14.2215 0
303.448 9.8623 0
304.858 11.9154 0
303.732 14.1372 0
302.323 12.0841 0
303.59 11.9999 0
304.715 9.77784 0
307.25 9.60833 0
307.536 13.8831 0
305 14.0527 0
305.983 9.69318 0
307.393 11.7458 0
306.268 13.968 0
304.858 11.9154 0
306.125 11.8307 0
307.25 9.60833 0
309.784 9.43804 0
310.071 13.7128 0
307.536 13.8831 0
308.517 9.52328 0
309.928 11.5755 0
308.804 13.7981 0
307.393 11.7458 0
308.66 11.6608 0
309.784 9.43804 0
312.318 9.26698 0
312.607 13.5417 0
310.071 13.7128 0
311.051 9.3526 0
312.463 11.4044 0
311.339 13.6273 0
309.928 11.5755 0
311.195 11.49 0
312.318 9.26698 0
314.852 9.09516 0
315.142 13.3698 0
312.607 13.5417 0
313.585 9.18116 0
314.997 11.2325 0
313.875 13.4558 0
312.463 11.4044 0
313.73 11.3186 0
314.852 9.09516 0
317.387 8.9226 0
317.678 13.1971 0
315.142 13.3698 0
316.12 9.00897 0
317.532 11.0599 0
316.41 13.2835 0
314.997 11.2325 0
316.265 11.1463 0
317.387 8.9226 0
319.921 8.7493 0
320.213 13.0238 0
317.678 13.1971 0
318.654 8.83604 0
320.067 10.8866 0
318.945 13.1105 0
317.532 11.0599 0
318.799 10.9734 0
319.921 8.7493 0
322.455 8.57528 0
322.748 12.8497 0
320.213 13.0238 0
321.188 8.66238 0
322.601 10.7126 0
321.481 12.9368 0
320.067 10.8866 0
321.334 10.7997 0
322.455 8.57528 0
324.988 8.40054 0
325.283 12.6749 0
322.748 12.8497 0
323.721 8.488 0
325.136 10.5378 0
324.016 12.7624 0
322.601 10.7126 0
323.869 10.6253 0
324.988 8.40054 0
327.522 8.22509 0
327.818 12.4994 0
325.283 12.6749 0
326.255 8.3129 0
327.67 10.3623 0
326.551 12.5872 0
325.136 10.5378 0
326.403 10.4501 0
327.522 8.22509 0
330.056 8.04895 0
330.353 12.3232 0
327.818 12.4994 0
328.789 8.13711 0
330.204 10.1861 0
329.086 12.4114 0
327.67 10.3623 0
328.937 10.2743 0
330.056 8.04895 0
332.59 7.87213 0
332.888 12.1463 0
330.353 12.3232 0
331.323 7.96063 0
332.739 10.0093 0
331.62 12.2348 0
330.204 10.1861 0
331.472 10.0978 0
332.59 7.87213 0
335.123 7.69463 0
335.423 11.9687 0
332.888 12.1463 0
333.856 7.78346 0
335.273 9.83175 0
334.155 12.0576 0
332.739 10.0093 0
334.006 9.9206 0
335.123 7.69463 0
337.657 7.51647 0
337.957 11.7905 0
335.423 11.9687 0
336.39 7.60563 0
337.807 9.65355 0
336.69 11.8797 0
335.273 9.83175 0
336.54 9.74273 0
337.657 7.51647 0
340.19 7.33765 0
340.492 11.6116 0
337.957 11.7905 0
338.923 7.42714 0
340.341 9.47471 0
339.224 11.7011 0
337.807 9.65355 0
339.074 9.56421 0
340.19 7.33765 0
342.723 7.15819 0
343.026 11.4321 0
340.492 11.6116 0
341.457 7.248 0
342.875 9.29521 0
341.759 11.5219 0
340.341 9.47471 0
341.608 9.38504 0
342.723 7.15819 0
345.257 6.9781 0
345.561 11.2519 0
343.026 11.4321 0
343.99 7.06822 0
345.409 9.11509 0
344.293 11.3421 0
342.875 9.29521 0
344.142 9.20523 0
345.257 6.9781 0
347.79 6.79738 0
348.095 11.0712 0
345.561 11.2519 0
346.523 6.88781 0
347.942 8.93434 0
346.828 11.1616 0
345.409 9.11509 0
346.675 9.02479 0
347.79 6.79738 0
350.323 6.61605 0
350.629 10.8898 0
348.095 11.0712 0
349.056 6.70679 0
350.476 8.75298 0
349.362 10.9806 0
347.942 8.93434 0
349.209 8.84374 0
350.323 6.61605 0
352.856 6.43412 0
353.163 10.7078 0
350.629 10.8898 0
351.59 6.52516 0
353.01 8.57102 0
351.896 10.7989 0
350.476 8.75298 0
351.743 8.66208 0
352.856 6.43412 0
355.389 6.25159 0
355.697 10.5252 0
353.163 10.7078 0
354.123 6.34293 0
355.543 8.38847 0
354.43 10.6166 0
353.01 8.57102 0
354.276 8.47982 0
355.389 6.25159 0
357.922 6.06848 0
358.231 10.3421 0
355.697 10.5252 0
356.656 6.16011 0
358.076 8.20534 0
356.964 10.4337 0
355.543 8.38847 0
356.81 8.29697 0
357.922 6.06848 0
360.455 5.88481 0
360.765 10.1583 0
358.231 10.3421 0
359.188 5.97672 0
360.61 8.02163 0
359.498 10.2503 0
358.076 8.20534 0
359.343 8.11355 0
360.455 5.88481 0
362.988 5.70057 0
363.299 9.97404 0
360.765 10.1583 0
361.721 5.79276 0
363.143 7.83736 0
362.032 10.0663 0
360.61 8.02163 0
361.876 7.92957 0
362.988 5.70057 0
365.52 5.51577 0
365.832 9.7892 0
363.299 9.97404 0
364.254 5.60824 0
365.676 7.65255 0
364.565 9.88169 0
363.143 7.83736 0
364.41 7.74502 0
365.52 5.51577 0
368.053 5.33044 0
368.366 9.60382 0
365.832 9.7892 0
366.787 5.42317 0
368.209 7.46719 0
367.099 9.69657 0
365.676 7.65255 0
366.943 7.55993 0
368.053 5.33044 0
370.586 5.14458 0
370.899 9.41791 0
368.366 9.60382 0
369.319 5.23758 0
370.742 7.2813 0
369.633 9.51093 0
368.209 7.46719 0
369.476 7.37431 0
370.586 5.14458 0
373.118 4.9582 0
373.433 9.23148 0
370.899 9.41791 0
371.852 5.05145 0
373.275 7.09489 0
372.166 9.32476 0
370.742 7.2813 0
372.009 7.18816 0
373.118 4.9582 0
375.651 4.7713 0
375.966 9.04454 0
373.433 9.23148 0
374.385 4.86481 0
375.808 6.90798 0
374.699 9.13807 0
373.275 7.09489 0
374.542 7.0015 0
375.651 4.7713 0
378.183 4.58391 0
378.499 8.8571 0
375.966 9.04454 0
376.917 4.67767 0
378.341 6.72056 0
377.233 8.95088 0
375.808 6.90798 0
377.075 6.81433 0
378.183 4.58391 0
380.716 4.39603 0
381.032 8.66917 0
378.499 8.8571 0
379.449 4.49003 0
380.874 6.53265 0
379.766 8.7632 0
378.341 6.72056 0
379.608 6.62667 0
380.716 4.39603 0
383.248 4.20766 0
383.566 8.48077 0
381.032 8.66917 0
381.982 4.3019 0
383.407 6.34427 0
382.299 8.57503 0
380.874 6.53265 0
382.14 6.43852 0
383.248 4.20766 0
385.78 4.01883 0
386.099 8.2919 0
383.566 8.48077 0
384.514 4.11331 0
385.939 6.15542 0
384.832 8.38639 0
383.407 6.34427 0
384.673 6.2499 0
385.78 4.01883 0
388.312 3.82954 0
388.631 8.10257 0
386.099 8.2919 0
387.046 3.92424 0
388.472 5.9661 0
387.365 8.19729 0
385.939 6.15542 0
387.206 6.06082 0
388.312 3.82954 0
390.844 3.6398 0
391.164 7.91279 0
388.631 8.10257 0
389.578 3.73473 0
391.004 5.77634 0
389.898 8.00773 0
388.472 5.9661 0
389.738 5.87128 0
390.844 3.6398 0
393.376 3.44962 0
393.697 7.72257 0
391.164 7.91279 0
392.11 3.54477 0
393.537 5.58615 0
392.431 7.81773 0
391.004 5.77634 0
392.271 5.6813 0
393.376 3.44962 0
395.908 3.25902 0
396.23 7.53193 0
393.697 7.72257 0
394.642 3.35437 0
396.069 5.39552 0
394.964 7.62731 0
393.537 5.58615 0
394.803 5.49089 0
395.908 3.25902 0
398.44 3.068 0
398.762 7.34087 0
396.23 7.53193 0
397.174 3.16356 0
398.601 5.20448 0
397.496 7.43645 0
396.069 5.39552 0
397.335 5.30005 0
398.44 3.068 0
400.972 2.87656 0
401.295 7.14941 0
398.762 7.34087 0
399.706 2.97233 0
401.134 5.01303 0
400.029 7.24519 0
398.601 5.20448 0
399.867 5.10881 0
400.972 2.87656 0
403.504 2.68474 0
403.828 6.95755 0
401.295 7.14941 0
402.238 2.7807 0
403.666 4.82119 0
402.561 7.05353 0
401.134 5.01303 0
402.4 4.91716 0
403.504 2.68474 0
406.036 2.49252 0
406.36 6.7653 0
403.828 6.95755 0
404.77 2.58868 0
406.198 4.62895 0
405.094 6.86147 0
403.666 4.82119 0
404.932 4.72512 0
406.036 2.49252 0
408.567 2.29993 0
408.892 6.57268 0
406.36 6.7653 0
407.302 2.39627 0
408.73 4.43635 0
407.626 6.66904 0
406.198 4.62895 0
407.464 4.5327 0
408.567 2.29993 0
411.099 2.10697 0
411.425 6.37969 0
408.892 6.57268 0
409.833 2.2035 0
411.262 4.24337 0
410.158 6.47623 0
408.73 4.43635 0
409.996 4.3399 0
411.099 2.10697 0
413.631 1.91366 0
413.957 6.18635 0
411.425 6.37969 0
412.365 2.01036 0
413.794 4.05004 0
412.691 6.28306 0
411.262 4.24337 0
412.528 4.14675 0
413.631 1.91366 0
416.162 1.71999 0
416.489 5.99266 0
413.957 6.18635 0
414.897 1.81687 0
416.326 3.85637 0
415.223 6.08955 0
413.794 4.05004 0
415.06 3.95325 0
416.162 1.71999 0
418.694 1.526 0
419.021 5.79864 0
416.489 5.99266 0
417.428 1.62304 0
418.857 3.66235 0
417.755 5.89569 0
416.326 3.85637 0
417.591 3.7594 0
418.694 1.526 0
421.225 1.33168 0
421.553 5.60429 0
419.021 5.79864 0
419.96 1.42888 0
421.389 3.46802 0
420.287 5.7015 0
418.857 3.66235 0
420.123 3.56523 0
421.225 1.33168 0
423.757 1.13704 0
424.085 5.40963 0
421.553 5.60429 0
422.491 1.23439 0
423.921 3.27337 0
422.819 5.507 0
421.389 3.46802 0
422.655 3.37073 0
423.757 1.13704 0
426.288 0.942094 0
426.617 5.21467 0
424.085 5.40963 0
425.022 1.0396 0
426.452 3.07841 0
425.351 5.31218 0
423.921 3.27337 0
425.187 3.17593 0
426.288 0.942094 0
428.819 0.746857 0
429.149 5.01941 0
426.617 5.21467 0
427.554 0.844512 0
428.984 2.88316 0
427.883 5.11707 0
426.452 3.07841 0
427.718 2.98083 0
428.819 0.746857 0
431.351 0.551334 0
431.68 4.82387 0
429.149 5.01941 0
430.085 0.64913 0
431.515 2.68763 0
430.414 4.92167 0
428.984 2.88316 0
430.25 2.78543 0
431.351 0.551334 0
433.882 0.355538 0
434.212 4.62805 0
431.68 4.82387 0
432.616 0.45347 0
434.047 2.49182 0
432.946 4.72599 0
431.515 2.68763 0
432.781 2.58976 0
433.882 0.355538 0
436.413 0.159477 0
436.744 4.43197 0
434.212 4.62805 0
435.147 0.257539 0
436.578 2.29575 0
435.478 4.53004 0
434.047 2.49182 0
435.313 2.39382 0
436.413 0.159477 0
438.944 -0.036838 0
439.275 4.23564 0
436.744 4.43197 0
437.679 0.0613505 0
439.11 2.09943 0
438.009 4.33384 0
436.578 2.29575 0
437.844 2.19762 0
438.944 -0.036838 0
441.475 -0.233396 0
441.807 4.03907 0
439.275 4.23564 0
440.21 -0.135087 0
441.641 1.90286 0
440.541 4.13739 0
439.11 2.09943 0
440.375 2.00118 0
441.475 -0.233396 0
444.006 -0.430188 0
444.338 3.84227 0
441.807 4.03907 0
442.741 -0.331764 0
444.172 1.70607 0
443.072 3.9407 0
441.641 1.90286 0
442.906 1.80449 0
444.006 -0.430188 0
446.537 -0.627203 0
446.869 3.64524 0
444.338 3.84227 0
445.272 -0.528668 0
446.703 1.50904 0
445.604 3.74378 0
444.172 1.70607 0
445.438 1.60758 0
446.537 -0.627203 0
449.068 -0.82443 0
449.401 3.448 0
446.869 3.64524 0
447.803 -0.725791 0
449.234 1.31181 0
448.135 3.54665 0
446.703 1.50904 0
447.969 1.41045 0
449.068 -0.82443 0
451.599 -1.02186 0
451.932 3.25056 0
449.401 3.448 0
450.334 -0.923121 0
451.765 1.11437 0
450.666 3.34931 0
449.234 1.31181 0
450.5 1.21312 0
451.599 -1.02186 0
454.13 -1.21948 0
454.463 3.05293 0
451.932 3.25056 0
452.864 -1.12065 0
454.296 0.916747 0
453.197 3.15177 0
451.765 1.11437 0
453.031 1.01558 0
454.13 -1.21948 0
456.661 -1.41729 0
456.994 2.85512 0
454.463 3.05293 0
455.395 -1.31836 0
456.827 0.718938 0
455.729 2.95405 0
454.296 0.916747 0
455.562 0.817865 0
456.661 -1.41729 0
459.191 -1.61527 0
459.525 2.65714 0
456.994 2.85512 0
457.926 -1.51626 0
459.358 0.520958 0
458.26 2.75615 0
456.827 0.718938 0
458.093 0.619969 0
459.191 -1.61527 0
461.722 -1.8134 0
462.056 2.459 0
459.525 2.65714 0
460.457 -1.71432 0
461.889 0.322816 0
460.791 2.55809 0
459.358 0.520958 0
460.624 0.421906 0
461.722 -1.8134 0
464.253 -2.01169 0
464.587 2.26071 0
462.056 2.459 0
462.988 -1.91253 0
464.42 0.124524 0
463.322 2.35987 0
461.889 0.322816 0
463.155 0.223688 0
464.253 -2.01169 0
466.784 -2.21013 0
467.118 2.06228 0
464.587 2.26071 0
465.518 -2.11089 0
466.951 -0.0739084 0
465.853 2.16151 0
464.42 0.124524 0
465.685 0.0253248 0
466.784 -2.21013 0
469.314 -2.40869 0
469.649 1.86371 0
467.118 2.06228 0
468.049 -2.30939 0
469.482 -0.272471 0
468.384 1.96301 0
466.951 -0.0739084 0
468.216 -0.173174 0
469.314 -2.40869 0
471.845 -2.60737 0
472.18 1.66503 0
469.649 1.86371 0
470.579 -2.50801 0
472.012 -0.471154 0
470.914 1.76439 0
469.482 -0.272471 0
470.747 -0.371798 0
471.845 -2.60737 0
474.375 -2.80616 0
474.71 1.46624 0
472.18 1.66503 0
473.11 -2.70675 0
474.543 -0.669946 0
473.445 1.56565 0
472.012 -0.471154 0
473.278 -0.570537 0
474.375 -2.80616 0
476.906 -3.00506 0
477.241 1.26736 0
474.71 1.46624 0
475.641 -2.9056 0
477.073 -0.868838 0
475.976 1.36681 0
474.543 -0.669946 0
475.808 -0.76938 0
476.906 -3.00506 0
479.436 -3.20404 0
479.772 1.06838 0
477.241 1.26736 0
478.171 -3.10454 0
479.604 -1.06782 0
478.507 1.16788 0
477.073 -0.868838 0
478.339 -0.968317 0
479.436 -3.20404 0
481.967 -3.4031 0
482.302 0.869328 0
479.772 1.06838 0
480.702 -3.30356 0
482.135 -1.26688 0
481.037 0.968864 0
479.604 -1.06782 0
480.869 -1.16734 0
481.967 -3.4031 0
484.497 -3.60224 0
484.833 0.670207 0
482.302 0.869328 0
483.232 -3.50266 0
484.665 -1.46601 0
483.568 0.769776 0
482.135 -1.26688 0
483.4 -1.36643 0
484.497 -3.60224 0
487.028 -3.80144 0
487.363 0.471027 0
484.833 0.670207 0
485.762 -3.70183 0
487.195 -1.66519 0
486.098 0.570624 0
484.665 -1.46601 0
485.93 -1.56559 0
487.028 -3.80144 0
489.558 -4.00069 0
489.894 0.271794 0
487.363 0.471027 0
488.293 -3.90105 0
489.726 -1.86444 0
488.629 0.371417 0
487.195 -1.66519 0
488.461 -1.76481 0
489.558 -4.00069 0
492.088 -4.19998 0
492.424 0.0725045 0
489.894 0.271794 0
490.823 -4.10033 0
492.256 -2.06373 0
491.159 0.172157 0
489.726 -1.86444 0
490.991 -1.96408 0
492.088 -4.19998 0
494.618 -4.39931 0
494.955 -0.12686 0
492.424 0.0725045 0
493.353 -4.29964 0
494.786 -2.26308 0
493.689 -0.0271656 0
492.256 -2.06373 0
493.521 -2.1634 0
494.618 -4.39931 0
497.149 -4.59864 0
497.485 -0.326345 0
494.955 -0.12686 0
495.884 -4.49898 0
497.317 -2.46249 0
496.22 -0.226584 0
494.786 -2.26308 0
496.052 -2.36278 0
497.149 -4.59864 0
499.679 -4.79788 0
500.015 -0.525921 0
497.485 -0.326345 0
498.414 -4.69828 0
499.847 -2.66185 0
498.75 -0.426138 0
497.317 -2.46249 0
498.582 -2.56219 0
0 25.7143 0
2.54583 25.7121 0
2.55109 29.9935 0
0 30 0
1.2728 25.7135 0
2.54787 27.8532 0
1.27612 29.9959 0
0 27.8571 0
1.27371 27.8554 0
2.54583 25.7121 0
5.09229 25.7079 0
5.10043 29.9886 0
2.55109 29.9935 0
3.81902 25.7102 0
5.09615 27.8485 0
3.82578 29.9911 0
2.54787 27.8532 0
3.82204 27.8509 0
5.09229 25.7079 0
7.63883 25.7021 0
7.64986 29.9828 0
5.10043 29.9886 0
6.36556 25.7052 0
7.64428 27.8426 0
6.37513 29.9859 0
5.09615 27.8485 0
6.37023 27.8458 0
7.63883 25.7021 0
10.1853 25.6947 0
10.1994 29.9753 0
7.64986 29.9828 0
8.91208 25.6986 0
10.1923 27.8352 0
8.92461 29.9792 0
7.64428 27.8426 0
8.91831 27.8391 0
10.1853 25.6947 0
12.7317 25.6853 0
12.7489 29.9659 0
10.1994 29.9753 0
11.4585 25.6902 0
12.7403 27.8258 0
11.4742 29.9708 0
10.1923 27.8352 0
11.4663 27.8307 0
12.7317 25.6853 0
15.2781 25.6741 0
15.2985 29.9547 0
12.7489 29.9659 0
14.0049 25.6799 0
15.2883 27.8146 0
14.0237 29.9606 0
12.7403 27.8258 0
14.0143 27.8204 0
15.2781 25.6741 0
17.8244 25.6609 0
17.848 29.9415 0
15.2985 29.9547 0
16.5512 25.6677 0
17.8362 27.8014 0
16.5733 29.9483 0
15.2883 27.8146 0
16.5622 27.8082 0
17.8244 25.6609 0
20.3706 25.6457 0
20.3975 29.9263 0
17.848 29.9415 0
19.0975 25.6535 0
20.384 27.7862 0
19.1228 29.9342 0
17.8362 27.8014 0
19.1101 27.794 0
20.3706 25.6457 0
22.9168 25.6286 0
22.9469 29.9092 0
20.3975 29.9263 0
21.6437 25.6374 0
22.9318 27.7691 0
21.6722 29.918 0
20.384 27.7862 0
21.6579 27.7779 0
22.9168 25.6286 0
25.4629 25.6095 0
25.4963 29.8902 0
22.9469 29.9092 0
24.1898 25.6193 0
25.4795 27.7501 0
24.2216 29.9 0
22.9318 27.7691 0
24.2057 27.7598 0
25.4629 25.6095 0
28.0089 25.5886 0
28.0456 29.8692 0
25.4963 29.8902 0
26.7359 25.5993 0
28.0272 27.7291 0
26.771 29.8799 0
25.4795 27.7501 0
26.7534 27.7398 0
28.0089 25.5886 0
30.5549 25.5657 0
30.5948 29.8463 0
28.0456 29.8692 0
29.2819 25.5774 0
30.5748 27.7062 0
29.3202 29.858 0
28.0272 27.7291 0
29.301 27.7179 0
30.5549 25.5657 0
33.1009 25.5409 0
33.1439 29.8215 0
30.5948 29.8463 0
31.8279 25.5535 0
33.1224 27.6814 0
31.8694 29.8342 0
30.5748 27.7062 0
31.8486 27.694 0
33.1009 25.5409 0
35.6467 25.5142 0
35.693 29.7948 0
33.1439 29.8215 0
34.3738 25.5278 0
35.6698 27.6547 0
34.4185 29.8084 0
33.1224 27.6814 0
34.3961 27.6683 0
35.6467 25.5142 0
38.1925 25.4856 0
38.2419 29.7662 0
35.693 29.7948 0
36.9196 25.5001 0
38.2172 27.6261 0
36.9675 29.7808 0
35.6698 27.6547 0
36.9435 27.6406 0
38.1925 25.4856 0
40.7383 25.4552 0
40.7908 29.7358 0
38.2419 29.7662 0
39.4654 25.4706 0
40.7645 27.5957 0
39.5164 29.7512 0
38.2172 27.6261 0
39.4909 27.6111 0
40.7383 25.4552 0
43.284 25.4228 0
43.3396 29.7034 0
40.7908 29.7358 0
42.0111 25.4392 0
43.3118 27.5633 0
42.0653 29.7198 0
40.7645 27.5957 0
42.0381 27.5797 0
43.284 25.4228 0
45.8296 25.3887 0
45.8884 29.6692 0
43.3396 29.7034 0
44.5568 25.406 0
45.8589 27.5291 0
44.614 29.6866 0
43.3118 27.5633 0
44.5854 27.5465 0
45.8296 25.3887 0
48.3751 25.3526 0
48.437 29.6332 0
45.8884 29.6692 0
47.1023 25.3709 0
48.406 27.4931 0
47.1627 29.6514 0
45.8589 27.5291 0
47.1325 27.5114 0
48.3751 25.3526 0
50.9206 25.3148 0
50.9855 29.5953 0
48.437 29.6332 0
49.6479 25.3339 0
50.953 27.4552 0
49.7113 29.6145 0
48.406 27.4931 0
49.6795 27.4744 0
50.9206 25.3148 0
53.466 25.2751 0
53.534 29.5556 0
50.9855 29.5953 0
52.1933 25.2952 0
53.5 27.4156 0
52.2598 29.5757 0
50.953 27.4552 0
52.2265 27.4356 0
53.466 25.2751 0
56.0113 25.2336 0
56.0824 29.5141 0
53.534 29.5556 0
54.7387 25.2546 0
56.0468 27.3741 0
54.8082 29.5351 0
53.5 27.4156 0
54.7734 27.395 0
56.0113 25.2336 0
58.5566 25.1903 0
58.6307 29.4708 0
56.0824 29.5141 0
57.2839 25.2122 0
58.5936 27.3307 0
57.3565 29.4927 0
56.0468 27.3741 0
57.3202 27.3526 0
58.5566 25.1903 0
61.1017 25.1452 0
61.1788 29.4257 0
58.6307 29.4708 0
59.8292 25.168 0
61.1403 27.2856 0
59.9048 29.4485 0
58.5936 27.3307 0
59.8669 27.3084 0
61.1017 25.1452 0
63.6468 25.0984 0
63.7269 29.3788 0
61.1788 29.4257 0
62.3743 25.122 0
63.6869 27.2388 0
62.4529 29.4025 0
61.1403 27.2856 0
62.4136 27.2624 0
63.6468 25.0984 0
66.1919 25.0497 0
66.2749 29.3301 0
63.7269 29.3788 0
64.9194 25.0743 0
66.2334 27.1901 0
65.001 29.3547 0
63.6869 27.2388 0
64.9601 27.2147 0
66.1919 25.0497 0
68.7368 24.9993 0
68.8229 29.2797 0
66.2749 29.3301 0
67.4644 25.0247 0
68.7798 27.1397 0
67.5489 29.3051 0
66.2334 27.1901 0
67.5066 27.1651 0
68.7368 24.9993 0
71.2817 24.9472 0
71.3707 29.2275 0
68.8229 29.2797 0
70.0093 24.9735 0
71.3261 27.0875 0
70.0968 29.2538 0
68.7798 27.1397 0
70.053 27.1138 0
71.2817 24.9472 0
73.8265 24.8933 0
73.9184 29.1736 0
71.3707 29.2275 0
72.5541 24.9204 0
73.8724 27.0336 0
72.6445 29.2007 0
71.3261 27.0875 0
72.5993 27.0608 0
73.8265 24.8933 0
76.3712 24.8377 0
76.466 29.1179 0
73.9184 29.1736 0
75.0989 24.8657 0
76.4186 26.978 0
75.1922 29.146 0
73.8724 27.0336 0
75.1455 27.006 0
76.3712 24.8377 0
78.9158 24.7803 0
79.0135 29.0605 0
76.466 29.1179 0
77.6435 24.8092 0
78.9646 26.9206 0
77.7398 29.0894 0
76.4186 26.978 0
77.6916 26.9495 0
78.9158 24.7803 0
81.4604 24.7213 0
81.5609 29.0014 0
79.0135 29.0605 0
80.1881 24.751 0
81.5106 26.8615 0
80.2872 29.0312 0
78.9646 26.9206 0
80.2376 26.8913 0
81.4604 24.7213 0
84.0049 24.6605 0
84.1082 28.9407 0
81.5609 29.0014 0
82.7326 24.6911 0
84.0565 26.8008 0
82.8346 28.9713 0
81.5106 26.8615 0
82.7836 26.8314 0
84.0049 24.6605 0
86.5492 24.5981 0
86.6555 28.8782 0
84.1082 28.9407 0
85.2771 24.6295 0
86.6023 26.7383 0
85.3819 28.9096 0
84.0565 26.8008 0
85.3294 26.7697 0
86.5492 24.5981 0
89.0935 24.534 0
89.2026 28.814 0
86.6555 28.8782 0
87.8214 24.5662 0
89.148 26.6742 0
87.929 28.8463 0
86.6023 26.7383 0
87.8752 26.7064 0
89.0935 24.534 0
91.6378 24.4682 0
91.7496 28.7482 0
89.2026 28.814 0
90.3657 24.5013 0
91.6936 26.6084 0
90.4761 28.7813 0
89.148 26.6742 0
90.4208 26.6415 0
91.6378 24.4682 0
94.1819 24.4008 0
94.2965 28.6807 0
91.7496 28.7482 0
92.9098 24.4347 0
94.2391 26.5409 0
93.0231 28.7147 0
91.6936 26.6084 0
92.9664 26.5748 0
94.1819 24.4008 0
96.7259 24.3317 0
96.8433 28.6116 0
94.2965 28.6807 0
95.4539 24.3664 0
96.7846 26.4718 0
95.5699 28.6463 0
94.2391 26.5409 0
95.5119 26.5066 0
96.7259 24.3317 0
99.2699 24.2609 0
99.39 28.5408 0
96.8433 28.6116 0
97.9979 24.2965 0
99.3299 26.401 0
98.1167 28.5764 0
96.7846 26.4718 0
98.0572 26.4366 0
99.2699 24.2609 0
101.814 24.1886 0
101.937 28.4684 0
99.39 28.5408 0
100.542 24.225 0
101.875 26.3287 0
100.663 28.5048 0
99.3299 26.401 0
100.603 26.3651 0
101.814 24.1886 0
104.357 24.1146 0
104.483 28.3944 0
101.937 28.4684 0
103.086 24.1518 0
104.42 26.2547 0
103.21 28.4316 0
101.875 26.3287 0
103.148 26.2919 0
104.357 24.1146 0
106.901 24.0391 0
107.029 28.3188 0
104.483 28.3944 0
105.629 24.0771 0
106.965 26.1791 0
105.756 28.3568 0
104.42 26.2547 0
105.693 26.2171 0
106.901 24.0391 0
109.445 23.9619 0
109.576 28.2416 0
107.029 28.3188 0
108.173 24.0007 0
109.51 26.1019 0
108.303 28.2804 0
106.965 26.1791 0
108.238 26.1407 0
109.445 23.9619 0
111.988 23.8832 0
112.122 28.1628 0
109.576 28.2416 0
110.717 23.9227 0
112.055 26.0231 0
110.849 28.2023 0
109.51 26.1019 0
110.783 26.0627 0
111.988 23.8832 0
114.532 23.8028 0
114.668 28.0824 0
112.122 28.1628 0
113.26 23.8432 0
114.6 25.9428 0
113.395 28.1228 0
112.055 26.0231 0
113.327 25.9831 0
114.532 23.8028 0
117.075 23.721 0
117.214 28.0004 0
114.668 28.0824 0
115.803 23.7621 0
117.144 25.8609 0
115.941 28.0416 0
114.6 25.9428 0
115.872 25.902 0
117.075 23.721 0
119.618 23.6375 0
119.76 27.9169 0
117.214 28.0004 0
118.347 23.6794 0
119.689 25.7774 0
118.487 27.9589 0
117.144 25.8609 0
118.417 25.8193 0
119.618 23.6375 0
122.161 23.5525 0
122.305 27.8319 0
119.76 27.9169 0
120.89 23.5952 0
122.233 25.6924 0
121.033 27.8746 0
119.689 25.7774 0
120.961 25.7351 0
122.161 23.5525 0
124.704 23.466 0
124.851 27.7453 0
122.305 27.8319 0
123.433 23.5095 0
124.778 25.6058 0
123.578 27.7888 0
122.233 25.6924 0
123.505 25.6493 0
124.704 23.466 0
127.247 23.378 0
127.396 27.6572 0
124.851 27.7453 0
125.976 23.4222 0
127.322 25.5178 0
126.124 27.7015 0
124.778 25.6058 0
126.05 25.562 0
127.247 23.378 0
129.79 23.2885 0
129.942 27.5676 0
127.396 27.6572 0
128.519 23.3334 0
129.866 25.4282 0
128.669 27.6126 0
127.322 25.5178 0
128.594 25.4732 0
129.79 23.2885 0
132.333 23.1974 0
132.487 27.4765 0
129.942 27.5676 0
131.062 23.2431 0
132.41 25.3371 0
131.215 27.5223 0
129.866 25.4282 0
131.138 25.3829 0
132.333 23.1974 0
134.876 23.1049 0
135.032 27.3839 0
132.487 27.4765 0
133.604 23.1513 0
134.954 25.2446 0
133.76 27.4304 0
132.41 25.3371 0
133.682 25.291 0
134.876 23.1049 0
137.418 23.0109 0
137.577 27.2898 0
135.032 27.3839 0
136.147 23.0581 0
137.498 25.1505 0
136.305 27.3371 0
134.954 25.2446 0
136.226 25.1977 0
137.418 23.0109 0
139.961 22.9154 0
140.122 27.1943 0
137.577 27.2898 0
138.689 22.9633 0
140.041 25.055 0
138.85 27.2422 0
137.498 25.1505 0
138.77 25.1029 0
139.961 22.9154 0
142.503 22.8184 0
142.667 27.0973 0
140.122 27.1943 0
141.232 22.8671 0
142.585 24.958 0
141.395 27.146 0
140.041 25.055 0
141.313 25.0067 0
142.503 22.8184 0
145.045 22.72 0
145.212 26.9988 0
142.667 27.0973 0
143.774 22.7694 0
145.128 24.8596 0
143.939 27.0482 0
142.585 24.958 0
143.857 24.909 0
145.045 22.72 0
147.587 22.6202 0
147.756 26.8989 0
145.212 26.9988 0
146.316 22.6703 0
147.672 24.7597 0
146.484 26.949 0
145.128 24.8596 0
146.4 24.8098 0
147.587 22.6202 0
150.129 22.5189 0
150.301 26.7976 0
147.756 26.8989 0
148.858 22.5698 0
150.215 24.6584 0
149.029 26.8484 0
147.672 24.7597 0
148.943 24.7092 0
150.129 22.5189 0
152.671 22.4163 0
152.845 26.6948 0
150.301 26.7976 0
151.4 22.4678 0
152.758 24.5557 0
151.573 26.7464 0
150.215 24.6584 0
151.487 24.6072 0
152.671 22.4163 0
155.213 22.3122 0
155.389 26.5907 0
152.845 26.6948 0
153.942 22.3644 0
155.301 24.4516 0
154.117 26.6429 0
152.758 24.5557 0
154.03 24.5038 0
155.213 22.3122 0
157.755 22.2067 0
157.933 26.4851 0
155.389 26.5907 0
156.484 22.2596 0
157.844 24.3461 0
156.661 26.5381 0
155.301 24.4516 0
156.573 24.399 0
157.755 22.2067 0
160.297 22.0998 0
160.477 26.3782 0
157.933 26.4851 0
159.026 22.1534 0
160.387 24.2392 0
159.205 26.4318 0
157.844 24.3461 0
159.116 24.2928 0
160.297 22.0998 0
162.838 21.9916 0
163.021 26.2699 0
160.477 26.3782 0
161.567 22.0459 0
162.93 24.1309 0
161.749 26.3242 0
160.387 24.2392 0
161.658 24.1852 0
162.838 21.9916 0
165.38 21.882 0
165.565 26.1602 0
163.021 26.2699 0
164.109 21.9369 0
165.472 24.0212 0
164.293 26.2152 0
162.93 24.1309 0
164.201 24.0762 0
165.38 21.882 0
167.921 21.771 0
168.109 26.0491 0
165.565 26.1602 0
166.65 21.8267 0
168.015 23.9102 0
166.837 26.1048 0
165.472 24.0212 0
166.743 23.9659 0
167.921 21.771 0
170.462 21.6587 0
170.652 25.9368 0
168.109 26.0491 0
169.192 21.715 0
170.557 23.7979 0
169.38 25.9931 0
168.015 23.9102 0
169.286 23.8542 0
170.462 21.6587 0
173.003 21.545 0
173.195 25.823 0
170.652 25.9368 0
171.733 21.602 0
173.099 23.6842 0
171.924 25.8801 0
170.557 23.7979 0
171.828 23.7412 0
173.003 21.545 0
175.544 21.4301 0
175.739 25.708 0
173.195 25.823 0
174.274 21.4877 0
175.641 23.5692 0
174.467 25.7657 0
173.099 23.6842 0
174.37 23.6268 0
175.544 21.4301 0
178.085 21.3138 0
178.282 25.5916 0
175.739 25.708 0
176.815 21.3721 0
178.184 23.4528 0
177.01 25.65 0
175.641 23.5692 0
176.913 23.5112 0
178.085 21.3138 0
180.626 21.1962 0
180.825 25.474 0
178.282 25.5916 0
179.356 21.2551 0
180.725 23.3352 0
179.553 25.5329 0
178.184 23.4528 0
179.455 23.3942 0
180.626 21.1962 0
183.167 21.0773 0
183.368 25.355 0
180.825 25.474 0
181.896 21.1369 0
183.267 23.2163 0
182.096 25.4146 0
180.725 23.3352 0
181.996 23.2759 0
183.167 21.0773 0
185.707 20.9571 0
185.911 25.2348 0
183.368 25.355 0
184.437 21.0174 0
185.809 23.0961 0
184.639 25.295 0
183.267 23.2163 0
184.538 23.1563 0
185.707 20.9571 0
188.248 20.8357 0
188.453 25.1132 0
185.911 25.2348 0
186.978 20.8966 0
188.351 22.9746 0
187.182 25.1742 0
185.809 23.0961 0
187.08 23.0355 0
188.248 20.8357 0
190.788 20.713 0
190.996 24.9905 0
188.453 25.1132 0
189.518 20.7745 0
190.892 22.8519 0
189.725 25.052 0
188.351 22.9746 0
189.621 22.9134 0
190.788 20.713 0
193.329 20.589 0
193.538 24.8664 0
190.996 24.9905 0
192.059 20.6512 0
193.433 22.7279 0
192.267 24.9286 0
190.892 22.8519 0
192.163 22.79 0
193.329 20.589 0
195.869 20.4638 0
196.081 24.7412 0
193.538 24.8664 0
194.599 20.5266 0
195.975 22.6026 0
194.809 24.8039 0
193.433 22.7279 0
194.704 22.6654 0
195.869 20.4638 0
198.409 20.3374 0
198.623 24.6146 0
196.081 24.7412 0
197.139 20.4008 0
198.516 22.4762 0
197.352 24.6781 0
195.975 22.6026 0
197.245 22.5395 0
198.409 20.3374 0
200.949 20.2098 0
201.165 24.4869 0
198.623 24.6146 0
199.679 20.2737 0
201.057 22.3485 0
199.894 24.5509 0
198.516 22.4762 0
199.786 22.4125 0
200.949 20.2098 0
203.489 20.0809 0
203.707 24.358 0
201.165 24.4869 0
202.219 20.1455 0
203.598 22.2196 0
202.436 24.4226 0
201.057 22.3485 0
202.327 22.2842 0
203.489 20.0809 0
206.029 19.9508 0
206.248 24.2279 0
203.707 24.358 0
204.759 20.016 0
206.139 22.0895 0
204.978 24.2931 0
203.598 22.2196 0
204.868 22.1547 0
206.029 19.9508 0
208.568 19.8196 0
208.79 24.0965 0
206.248 24.2279 0
207.299 19.8854 0
208.679 21.9582 0
207.519 24.1623 0
206.139 22.0895 0
207.409 22.024 0
208.568 19.8196 0
211.108 19.6872 0
211.332 23.964 0
208.79 24.0965 0
209.838 19.7535 0
211.22 21.8257 0
210.061 24.0304 0
208.679 21.9582 0
209.95 21.8921 0
211.108 19.6872 0
213.647 19.5536 0
213.873 23.8303 0
211.332 23.964 0
212.378 19.6205 0
213.76 21.6921 0
212.602 23.8973 0
211.22 21.8257 0
212.49 21.7591 0
213.647 19.5536 0
216.187 19.4188 0
216.414 23.6955 0
213.873 23.8303 0
214.917 19.4863 0
216.301 21.5573 0
215.144 23.7631 0
213.76 21.6921 0
215.03 21.6248 0
216.187 19.4188 0
218.726 19.2829 0
218.956 23.5595 0
216.414 23.6955 0
217.456 19.351 0
218.841 21.4213 0
217.685 23.6277 0
216.301 21.5573 0
217.571 21.4895 0
218.726 19.2829 0
221.265 19.1459 0
221.497 23.4224 0
218.956 23.5595 0
219.996 19.2145 0
221.381 21.2843 0
220.226 23.4911 0
218.841 21.4213 0
220.111 21.3529 0
221.265 19.1459 0
223.804 19.0077 0
224.038 23.2842 0
221.497 23.4224 0
222.535 19.0769 0
223.921 21.1461 0
222.767 23.3534 0
221.381 21.2843 0
222.651 21.2153 0
223.804 19.0077 0
226.343 18.8684 0
226.579 23.1448 0
224.038 23.2842 0
225.074 18.9382 0
226.461 21.0067 0
225.308 23.2146 0
223.921 21.1461 0
225.191 21.0765 0
226.343 18.8684 0
228.882 18.728 0
229.119 23.0043 0
226.579 23.1448 0
227.613 18.7984 0
229.001 20.8663 0
227.849 23.0747 0
226.461 21.0067 0
227.731 20.9367 0
228.882 18.728 0
231.421 18.5865 0
231.66 22.8628 0
229.119 23.0043 0
230.151 18.6574 0
231.54 20.7248 0
230.39 22.9337 0
229.001 20.8663 0
230.27 20.7957 0
231.421 18.5865 0
233.959 18.444 0
234.2 22.7201 0
231.66 22.8628 0
232.69 18.5154 0
234.08 20.5822 0
232.93 22.7916 0
231.54 20.7248 0
232.81 20.6536 0
233.959 18.444 0
236.498 18.3003 0
236.741 22.5764 0
234.2 22.7201 0
235.229 18.3723 0
236.619 20.4385 0
235.471 22.6484 0
234.08 20.5822 0
235.35 20.5104 0
236.498 18.3003 0
239.036 18.1556 0
239.281 22.4316 0
236.741 22.5764 0
237.767 18.2281 0
239.159 20.2937 0
238.011 22.5041 0
236.619 20.4385 0
237.889 20.3662 0
239.036 18.1556 0
241.575 18.0098 0
241.821 22.2857 0
239.281 22.4316 0
240.306 18.0828 0
241.698 20.1479 0
240.551 22.3588 0
239.159 20.2937 0
240.428 20.2209 0
241.575 18.0098 0
244.113 17.863 0
244.361 22.1388 0
241.821 22.2857 0
242.844 17.9365 0
244.237 20.001 0
243.091 22.2124 0
241.698 20.1479 0
242.967 20.0746 0
244.113 17.863 0
246.651 17.7151 0
246.901 21.9909 0
244.361 22.1388 0
245.382 17.7892 0
246.776 19.8531 0
245.631 22.065 0
244.237 20.001 0
245.506 19.9272 0
246.651 17.7151 0
249.189 17.5663 0
249.441 21.842 0
246.901 21.9909 0
247.92 17.6408 0
249.315 19.7042 0
248.171 21.9166 0
246.776 19.8531 0
248.045 19.7788 0
249.189 17.5663 0
251.727 17.4164 0
251.98 21.692 0
249.441 21.842 0
250.458 17.4914 0
251.854 19.5543 0
250.71 21.7671 0
249.315 19.7042 0
250.584 19.6294 0
251.727 17.4164 0
254.265 17.2655 0
254.52 21.541 0
251.98 21.692 0
252.996 17.341 0
254.392 19.4034 0
253.25 21.6166 0
251.854 19.5543 0
253.123 19.479 0
254.265 17.2655 0
256.803 17.1136 0
257.059 21.3891 0
254.52 21.541 0
255.534 17.1896 0
256.931 19.2514 0
255.789 21.4652 0
254.392 19.4034 0
255.662 19.3275 0
256.803 17.1136 0
259.34 16.9607 0
259.598 21.2361 0
257.059 21.3891 0
258.071 17.0373 0
259.469 19.0985 0
258.329 21.3127 0
256.931 19.2514 0
258.2 19.1751 0
259.34 16.9607 0
261.878 16.8069 0
262.138 21.0822 0
259.598 21.2361 0
260.609 16.8839 0
262.008 18.9446 0
260.868 21.1593 0
259.469 19.0985 0
260.738 19.0217 0
261.878 16.8069 0
264.415 16.6521 0
264.677 20.9273 0
262.138 21.0822 0
263.146 16.7296 0
264.546 18.7898 0
263.407 21.0049 0
262.008 18.9446 0
263.277 18.8673 0
264.415 16.6521 0
266.952 16.4963 0
267.215 20.7715 0
264.677 20.9273 0
265.684 16.5743 0
267.084 18.634 0
265.946 20.8495 0
264.546 18.7898 0
265.815 18.712 0
266.952 16.4963 0
269.49 16.3396 0
269.754 20.6147 0
267.215 20.7715 0
268.221 16.4181 0
269.622 18.4773 0
268.485 20.6932 0
267.084 18.634 0
268.353 18.5558 0
269.49 16.3396 0
272.027 16.182 0
272.293 20.457 0
269.754 20.6147 0
270.758 16.2609 0
272.16 18.3196 0
271.024 20.536 0
269.622 18.4773 0
270.891 18.3986 0
272.027 16.182 0
274.564 16.0234 0
274.831 20.2984 0
272.293 20.457 0
273.295 16.1028 0
274.698 18.161 0
273.562 20.3778 0
272.16 18.3196 0
273.429 18.2404 0
274.564 16.0234 0
277.101 15.864 0
277.37 20.1389 0
274.831 20.2984 0
275.832 15.9438 0
277.235 18.0015 0
276.101 20.2188 0
274.698 18.161 0
275.966 18.0814 0
277.101 15.864 0
279.637 15.7036 0
279.908 19.9784 0
277.37 20.1389 0
278.369 15.7839 0
279.773 17.8411 0
278.639 20.0588 0
277.235 18.0015 0
278.504 17.9214 0
279.637 15.7036 0
282.174 15.5423 0
282.446 19.8171 0
279.908 19.9784 0
280.906 15.6231 0
282.31 17.6798 0
281.177 19.8979 0
279.773 17.8411 0
281.042 17.7606 0
282.174 15.5423 0
284.711 15.3802 0
284.985 19.6549 0
282.446 19.8171 0
283.442 15.4614 0
284.848 17.5177 0
283.715 19.7361 0
282.31 17.6798 0
283.579 17.5989 0
284.711 15.3802 0
287.247 15.2172 0
287.522 19.4919 0
284.985 19.6549 0
285.979 15.2988 0
287.385 17.3546 0
286.254 19.5735 0
284.848 17.5177 0
286.116 17.4363 0
287.247 15.2172 0
289.784 15.0534 0
290.06 19.3279 0
287.522 19.4919 0
288.515 15.1354 0
289.922 17.1907 0
288.791 19.41 0
287.385 17.3546 0
288.653 17.2728 0
289.784 15.0534 0
292.32 14.8886 0
292.598 19.1632 0
290.06 19.3279 0
291.052 14.9711 0
292.459 17.026 0
291.329 19.2456 0
289.922 17.1907 0
291.19 17.1085 0
292.32 14.8886 0
294.856 14.7231 0
295.136 18.9975 0
292.598 19.1632 0
293.588 14.806 0
294.996 16.8604 0
293.867 19.0805 0
292.459 17.026 0
293.727 16.9433 0
294.856 14.7231 0
297.392 14.5567 0
297.673 18.8311 0
295.136 18.9975 0
296.124 14.64 0
297.533 16.694 0
296.404 18.9144 0
294.996 16.8604 0
296.264 16.7773 0
297.392 14.5567 0
299.928 14.3895 0
300.211 18.6638 0
297.673 18.8311 0
298.66 14.4732 0
300.069 16.5268 0
298.942 18.7476 0
297.533 16.694 0
298.801 16.6105 0
299.928 14.3895 0
302.464 14.2215 0
302.748 18.4958 0
300.211 18.6638 0
301.196 14.3056 0
302.606 16.3587 0
301.479 18.5799 0
300.069 16.5268 0
301.338 16.4429 0
302.464 14.2215 0
305 14.0527 0
305.285 18.3269 0
302.748 18.4958 0
303.732 14.1372 0
305.143 16.1899 0
304.016 18.4114 0
302.606 16.3587 0
303.874 16.2744 0
305 14.0527 0
307.536 13.8831 0
307.822 18.1573 0
305.285 18.3269 0
306.268 13.968 0
307.679 16.0203 0
306.554 18.2422 0
305.143 16.1899 0
306.411 16.1052 0
307.536 13.8831 0
310.071 13.7128 0
310.359 17.9868 0
307.822 18.1573 0
308.804 13.7981 0
310.215 15.8499 0
309.091 18.0722 0
307.679 16.0203 0
308.947 15.9352 0
310.071 13.7128 0
312.607 13.5417 0
312.896 17.8157 0
310.359 17.9868 0
311.339 13.6273 0
312.751 15.6787 0
311.627 17.9013 0
310.215 15.8499 0
311.483 15.7644 0
312.607 13.5417 0
315.142 13.3698 0
315.433 17.6437 0
312.896 17.8157 0
313.875 13.4558 0
315.287 15.5068 0
314.164 17.7298 0
312.751 15.6787 0
314.019 15.5929 0
315.142 13.3698 0
317.678 13.1971 0
317.969 17.471 0
315.433 17.6437 0
316.41 13.2835 0
317.823 15.3342 0
316.701 17.5575 0
315.287 15.5068 0
316.555 15.4206 0
317.678 13.1971 0
320.213 13.0238 0
320.506 17.2976 0
317.969 17.471 0
318.945 13.1105 0
320.359 15.1608 0
319.237 17.3844 0
317.823 15.3342 0
319.091 15.2476 0
320.213 13.0238 0
322.748 12.8497 0
323.042 17.1235 0
320.506 17.2976 0
321.481 12.9368 0
322.895 14.9866 0
321.774 17.2106 0
320.359 15.1608 0
321.627 15.0738 0
322.748 12.8497 0
325.283 12.6749 0
325.578 16.9486 0
323.042 17.1235 0
324.016 12.7624 0
325.431 14.8118 0
324.31 17.0361 0
322.895 14.9866 0
324.163 14.8993 0
325.283 12.6749 0
327.818 12.4994 0
328.114 16.773 0
325.578 16.9486 0
326.551 12.5872 0
327.966 14.6363 0
326.846 16.8609 0
325.431 14.8118 0
326.699 14.7241 0
327.818 12.4994 0
330.353 12.3232 0
330.651 16.5968 0
328.114 16.773 0
329.086 12.4114 0
330.502 14.46 0
329.382 16.685 0
327.966 14.6363 0
329.234 14.5482 0
330.353 12.3232 0
332.888 12.1463 0
333.186 16.4198 0
330.651 16.5968 0
331.62 12.2348 0
333.037 14.2831 0
331.918 16.5084 0
330.502 14.46 0
331.769 14.3717 0
332.888 12.1463 0
335.423 11.9687 0
335.722 16.2422 0
333.186 16.4198 0
334.155 12.0576 0
335.572 14.1055 0
334.454 16.3311 0
333.037 14.2831 0
334.305 14.1944 0
335.423 11.9687 0
337.957 11.7905 0
338.258 16.0639 0
335.722 16.2422 0
336.69 11.8797 0
338.108 13.9273 0
336.99 16.1532 0
335.572 14.1055 0
336.84 14.0165 0
337.957 11.7905 0
340.492 11.6116 0
340.794 15.885 0
338.258 16.0639 0
339.224 11.7011 0
340.643 13.7484 0
339.526 15.9746 0
338.108 13.9273 0
339.375 13.8379 0
340.492 11.6116 0
343.026 11.4321 0
343.329 15.7054 0
340.794 15.885 0
341.759 11.5219 0
343.178 13.5688 0
342.061 15.7953 0
340.643 13.7484 0
341.91 13.6587 0
343.026 11.4321 0
345.561 11.2519 0
345.865 15.5252 0
343.329 15.7054 0
344.293 11.3421 0
345.713 13.3887 0
344.597 15.6154 0
343.178 13.5688 0
344.445 13.4788 0
345.561 11.2519 0
348.095 11.0712 0
348.4 15.3444 0
345.865 15.5252 0
346.828 11.1616 0
348.247 13.2079 0
347.132 15.4349 0
345.713 13.3887 0
346.98 13.2983 0
348.095 11.0712 0
350.629 10.8898 0
350.935 15.163 0
348.4 15.3444 0
349.362 10.9806 0
350.782 13.0265 0
349.667 15.2538 0
348.247 13.2079 0
349.515 13.1172 0
350.629 10.8898 0
353.163 10.7078 0
353.47 14.981 0
350.935 15.163 0
351.896 10.7989 0
353.317 12.8444 0
352.203 15.072 0
350.782 13.0265 0
352.049 12.9355 0
353.163 10.7078 0
355.697 10.5252 0
356.005 14.7983 0
353.47 14.981 0
354.43 10.6166 0
355.851 12.6618 0
354.738 14.8897 0
353.317 12.8444 0
354.584 12.7532 0
355.697 10.5252 0
358.231 10.3421 0
358.54 14.6151 0
356.005 14.7983 0
356.964 10.4337 0
358.385 12.4787 0
357.273 14.7068 0
355.851 12.6618 0
357.118 12.5703 0
358.231 10.3421 0
360.765 10.1583 0
361.075 14.4314 0
358.54 14.6151 0
359.498 10.2503 0
360.92 12.2949 0
359.807 14.5233 0
358.385 12.4787 0
359.653 12.3869 0
360.765 10.1583 0
363.299 9.97404 0
363.61 14.247 0
361.075 14.4314 0
362.032 10.0663 0
363.454 12.1106 0
362.342 14.3393 0
360.92 12.2949 0
362.187 12.2028 0
363.299 9.97404 0
365.832 9.7892 0
366.144 14.0621 0
363.61 14.247 0
364.565 9.88169 0
365.988 11.9257 0
364.877 14.1546 0
363.454 12.1106 0
364.721 12.0182 0
365.832 9.7892 0
368.366 9.60382 0
368.679 13.8767 0
366.144 14.0621 0
367.099 9.69657 0
368.522 11.7403 0
367.411 13.9695 0
365.988 11.9257 0
367.255 11.8331 0
368.366 9.60382 0
370.899 9.41791 0
371.213 13.6908 0
368.679 13.8767 0
369.633 9.51093 0
371.056 11.5544 0
369.946 13.7838 0
368.522 11.7403 0
369.789 11.6474 0
370.899 9.41791 0
373.433 9.23148 0
373.747 13.5043 0
371.213 13.6908 0
372.166 9.32476 0
373.59 11.3679 0
372.48 13.5976 0
371.056 11.5544 0
372.323 11.4612 0
373.433 9.23148 0
375.966 9.04454 0
376.282 13.3173 0
373.747 13.5043 0
374.699 9.13807 0
376.124 11.181 0
375.014 13.4109 0
373.59 11.3679 0
374.857 11.2745 0
375.966 9.04454 0
378.499 8.8571 0
378.816 13.1299 0
376.282 13.3173 0
377.233 8.95088 0
378.657 10.9935 0
377.549 13.2236 0
376.124 11.181 0
377.391 11.0873 0
378.499 8.8571 0
381.032 8.66917 0
381.35 12.9419 0
378.816 13.1299 0
379.766 8.7632 0
381.191 10.8056 0
380.083 13.0359 0
378.657 10.9935 0
379.924 10.8996 0
381.032 8.66917 0
383.566 8.48077 0
383.883 12.7535 0
381.35 12.9419 0
382.299 8.57503 0
383.724 10.6172 0
382.617 12.8477 0
381.191 10.8056 0
382.458 10.7114 0
383.566 8.48077 0
386.099 8.2919 0
386.417 12.5645 0
383.883 12.7535 0
384.832 8.38639 0
386.258 10.4283 0
385.15 12.6591 0
383.724 10.6172 0
384.991 10.5228 0
386.099 8.2919 0
388.631 8.10257 0
388.951 12.3752 0
386.417 12.5645 0
387.365 8.19729 0
388.791 10.2389 0
387.684 12.4699 0
386.258 10.4283 0
387.525 10.3337 0
388.631 8.10257 0
391.164 7.91279 0
391.485 12.1854 0
388.951 12.3752 0
389.898 8.00773 0
391.324 10.0491 0
390.218 12.2803 0
388.791 10.2389 0
390.058 10.1441 0
391.164 7.91279 0
393.697 7.72257 0
394.018 11.9951 0
391.485 12.1854 0
392.431 7.81773 0
393.858 9.8589 0
392.751 12.0903 0
391.324 10.0491 0
392.591 9.95407 0
393.697 7.72257 0
396.23 7.53193 0
396.552 11.8045 0
394.018 11.9951 0
394.964 7.62731 0
396.391 9.66825 0
395.285 11.8999 0
393.858 9.8589 0
395.124 9.76363 0
396.23 7.53193 0
398.762 7.34087 0
399.085 11.6134 0
396.552 11.8045 0
397.496 7.43645 0
398.924 9.47717 0
397.818 11.709 0
396.391 9.66825 0
397.657 9.57276 0
398.762 7.34087 0
401.295 7.14941 0
401.618 11.4219 0
399.085 11.6134 0
400.029 7.24519 0
401.457 9.28569 0
400.352 11.5177 0
398.924 9.47717 0
400.19 9.38148 0
401.295 7.14941 0
403.828 6.95755 0
404.151 11.23 0
401.618 11.4219 0
402.561 7.05353 0
403.989 9.09382 0
402.885 11.326 0
401.457 9.28569 0
402.723 9.18981 0
403.828 6.95755 0
406.36 6.7653 0
406.684 11.0377 0
404.151 11.23 0
405.094 6.86147 0
406.522 8.90156 0
405.418 11.1339 0
403.989 9.09382 0
405.256 8.99774 0
406.36 6.7653 0
408.892 6.57268 0
409.217 10.8451 0
406.684 11.0377 0
407.626 6.66904 0
409.055 8.70893 0
407.951 10.9415 0
406.522 8.90156 0
407.788 8.80529 0
408.892 6.57268 0
411.425 6.37969 0
411.75 10.6521 0
409.217 10.8451 0
410.158 6.47623 0
411.587 8.51593 0
410.484 10.7486 0
409.055 8.70893 0
410.321 8.61247 0
411.425 6.37969 0
413.957 6.18635 0
414.283 10.4587 0
411.75 10.6521 0
412.691 6.28306 0
414.12 8.32257 0
413.017 10.5554 0
411.587 8.51593 0
412.854 8.41929 0
413.957 6.18635 0
416.489 5.99266 0
416.816 10.265 0
414.283 10.4587 0
415.223 6.08955 0
416.652 8.12888 0
415.549 10.3619 0
414.12 8.32257 0
415.386 8.22577 0
416.489 5.99266 0
419.021 5.79864 0
419.348 10.071 0
416.816 10.265 0
417.755 5.89569 0
419.185 7.93484 0
418.082 10.168 0
416.652 8.12888 0
417.918 8.0319 0
419.021 5.79864 0
421.553 5.60429 0
421.881 9.87661 0
419.348 10.071 0
420.287 5.7015 0
421.717 7.74049 0
420.615 9.97383 0
419.185 7.93484 0
420.451 7.83771 0
421.553 5.60429 0
424.085 5.40963 0
424.413 9.68194 0
421.881 9.87661 0
422.819 5.507 0
424.249 7.54582 0
423.147 9.77931 0
421.717 7.74049 0
422.983 7.64319 0
424.085 5.40963 0
426.617 5.21467 0
426.946 9.48696 0
424.413 9.68194 0
425.351 5.31218 0
426.781 7.35085 0
425.68 9.58449 0
424.249 7.54582 0
425.515 7.44837 0
426.617 5.21467 0
429.149 5.01941 0
429.478 9.29169 0
426.946 9.48696 0
427.883 5.11707 0
429.313 7.15558 0
428.212 9.38936 0
426.781 7.35085 0
428.047 7.25325 0
429.149 5.01941 0
431.68 4.82387 0
432.01 9.09614 0
429.478 9.29169 0
430.414 4.92167 0
431.845 6.96003 0
430.744 9.19395 0
429.313 7.15558 0
430.579 7.05784 0
431.68 4.82387 0
434.212 4.62805 0
434.542 8.90032 0
432.01 9.09614 0
432.946 4.72599 0
434.377 6.76421 0
433.276 8.99826 0
431.845 6.96003 0
433.111 6.86216 0
434.212 4.62805 0
436.744 4.43197 0
437.074 8.70423 0
434.542 8.90032 0
435.478 4.53004 0
436.909 6.56813 0
435.808 8.8023 0
434.377 6.76421 0
435.643 6.66621 0
436.744 4.43197 0
439.275 4.23564 0
439.606 8.50789 0
437.074 8.70423 0
438.009 4.33384 0
439.441 6.3718 0
438.34 8.60609 0
436.909 6.56813 0
438.175 6.47 0
439.275 4.23564 0
441.807 4.03907 0
442.138 8.31132 0
439.606 8.50789 0
440.541 4.13739 0
441.972 6.17522 0
440.872 8.40963 0
439.441 6.3718 0
440.707 6.27354 0
441.807 4.03907 0
444.338 3.84227 0
444.67 8.11451 0
442.138 8.31132 0
443.072 3.9407 0
444.504 5.97841 0
443.404 8.21294 0
441.972 6.17522 0
443.238 6.07685 0
444.338 3.84227 0
446.869 3.64524 0
447.202 7.91748 0
444.67 8.11451 0
445.604 3.74378 0
447.036 5.78139 0
445.936 8.01602 0
444.504 5.97841 0
445.77 5.87993 0
446.869 3.64524 0
449.401 3.448 0
449.733 7.72024 0
447.202 7.91748 0
448.135 3.54665 0
449.567 5.58415 0
448.468 7.81889 0
447.036 5.78139 0
448.301 5.68279 0
449.401 3.448 0
451.932 3.25056 0
452.265 7.5228 0
449.733 7.72024 0
450.666 3.34931 0
452.098 5.38671 0
450.999 7.62154 0
449.567 5.58415 0
450.833 5.48545 0
451.932 3.25056 0
454.463 3.05293 0
454.797 7.32517 0
452.265 7.5228 0
453.197 3.15177 0
454.63 5.18908 0
453.531 7.42401 0
452.098 5.38671 0
453.364 5.28791 0
454.463 3.05293 0
456.994 2.85512 0
457.328 7.12736 0
454.797 7.32517 0
455.729 2.95405 0
457.161 4.99127 0
456.062 7.22629 0
454.63 5.18908 0
455.895 5.09019 0
456.994 2.85512 0
459.525 2.65714 0
459.859 6.92939 0
457.328 7.12736 0
458.26 2.75615 0
459.692 4.79328 0
458.594 7.0284 0
457.161 4.99127 0
458.427 4.8923 0
459.525 2.65714 0
462.056 2.459 0
462.391 6.73125 0
459.859 6.92939 0
460.791 2.55809 0
462.223 4.59514 0
461.125 6.83034 0
459.692 4.79328 0
460.958 4.69423 0
462.056 2.459 0
464.587 2.26071 0
464.922 6.53296 0
462.391 6.73125 0
463.322 2.35987 0
464.754 4.39685 0
463.656 6.63212 0
462.223 4.59514 0
463.489 4.49602 0
464.587 2.26071 0
467.118 2.06228 0
467.453 6.33454 0
464.922 6.53296 0
465.853 2.16151 0
467.285 4.19843 0
466.187 6.43377 0
464.754 4.39685 0
466.02 4.29766 0
467.118 2.06228 0
469.649 1.86371 0
469.984 6.13599 0
467.453 6.33454 0
468.384 1.96301 0
469.816 3.99987 0
468.719 6.23528 0
467.285 4.19843 0
468.551 4.09916 0
469.649 1.86371 0
472.18 1.66503 0
472.515 5.93732 0
469.984 6.13599 0
470.914 1.76439 0
472.347 3.80119 0
471.25 6.03667 0
469.816 3.99987 0
471.082 3.90054 0
472.18 1.66503 0
474.71 1.46624 0
475.046 5.73854 0
472.515 5.93732 0
473.445 1.56565 0
474.878 3.60241 0
473.78 5.83794 0
472.347 3.80119 0
473.613 3.70181 0
474.71 1.46624 0
477.241 1.26736 0
477.577 5.53967 0
475.046 5.73854 0
475.976 1.36681 0
477.409 3.40353 0
476.311 5.63912 0
474.878 3.60241 0
476.144 3.50298 0
477.241 1.26736 0
479.772 1.06838 0
480.108 5.34071 0
477.577 5.53967 0
478.507 1.16788 0
479.94 3.20456 0
478.842 5.4402 0
477.409 3.40353 0
478.674 3.30405 0
479.772 1.06838 0
482.302 0.869328 0
482.638 5.14167 0
480.108 5.34071 0
481.037 0.968864 0
482.47 3.00551 0
481.373 5.2412 0
479.94 3.20456 0
481.205 3.10504 0
482.302 0.869328 0
484.833 0.670207 0
485.169 4.94256 0
482.638 5.14167 0
483.568 0.769776 0
485.001 2.8064 0
483.904 5.04212 0
482.47 3.00551 0
483.736 2.90596 0
484.833 0.670207 0
487.363 0.471027 0
487.7 4.7434 0
485.169 4.94256 0
486.098 0.570624 0
487.531 2.60723 0
486.434 4.84299 0
485.001 2.8064 0
486.266 2.70682 0
487.363 0.471027 0
489.894 0.271794 0
490.23 4.54418 0
487.7 4.7434 0
488.629 0.371417 0
490.062 2.408 0
488.965 4.6438 0
487.531 2.60723 0
488.797 2.50762 0
489.894 0.271794 0
492.424 0.0725045 0
492.761 4.3449 0
490.23 4.54418 0
491.159 0.172157 0
492.592 2.20872 0
491.495 4.44455 0
490.062 2.408 0
491.327 2.30837 0
492.424 0.0725045 0
494.955 -0.12686 0
495.291 4.14554 0
492.761 4.3449 0
493.689 -0.0271656 0
495.123 2.00936 0
494.026 4.24524 0
492.592 2.20872 0
493.858 2.10905 0
494.955 -0.12686 0
497.485 -0.326345 0
497.822 3.94598 0
495.291 4.14554 0
496.22 -0.226584 0
497.653 1.80982 0
496.556 4.04579 0
495.123 2.00936 0
496.388 1.90963 0
497.485 -0.326345 0
500.015 -0.525921 0
500.352 3.7456 0
497.822 3.94598 0
498.75 -0.426138 0
500.183 1.60989 0
499.087 3.84602 0
497.653 1.80982 0
498.918 1.70992 0
      </DataArray>
    </Points>
    <Cells>
      <DataArray type="Int32" Name="connectivity" format="ascii">
0 1 2 3 4 5 6 7 8 
9 10 11 12 13 14 15 16 17 
18 19 20 21 22 23 24 25 26 
27 28 29 30 31 32 33 34 35 
36 37 38 39 40 41 42 43 44 
45 46 47 48 49 50 51 52 53 
54 55 56 57 58 59 60 61 62 
63 64 65 66 67 68 69 70 71 
72 73 74 75 76 77 78 79 80 
81 82 83 84 85 86 87 88 89 
90 91 92 93 94 95 96 97 98 
99 100 101 102 103 104 105 106 107 
108 109 110 111 112 113 114 115 116 
117 118 119 120 121 122 123 124 125 
126 127 128 129 130 131 132 133 134 
135 136 137 138 139 140 141 142 143 
144 145 146 147 148 149 150 151 152 
153 154 155 156 157 158 159 160 161 
162 163 164 165 166 167 168 169 170 
171 172 173 174 175 176 177 178 179 
180 181 182 183 184 185 186 187 188 
189 190 191 192 193 194 195 196 197 
198 199 200 201 202 203 204 205 206 
207 208 209 210 211 212 213 214 215 
216 217 218 219 220 221 222 223 224 
225 226 227 228 229 230 231 232 233 
234 235 236 237 238 239 240 241 242 
243 244 245 246 247 248 249 250 251 
252 253 254 255 256 257 258 259 260 
261 262 263 264 265 266 267 268 269 
270 271 272 273 274 275 276 277 278 
279 280 281 282 283 284 285 286 287 
288 289 290 291 292 293 294 295 296 
297 298 299 300 301 302 303 304 305 
306 307 308 309 310 311 312 313 314 
315 316 317 318 319 320 321 322 323 
324 325 326 327 328 329 330 331 332 
333 334 335 336 337 338 339 340 341 
342 343 344 345 346 347 348 349 350 
351 352 353 354 355 356 357 358 359 
360 361 362 363 364 365 366 367 368 
369 370 371 372 373 374 375 376 377 
378 379 380 381 382 383 384 385 386 
387 388 389 390 391 392 393 394 395 
396 397 398 399 400 401 402 403 404 
405 406 407 408 409 410 411 412 413 
414 415 416 417 418 419 420 421 422 
423 424 425 426 427 428 429 430 431 
432 433 434 435 436 437 438 439 440 
441 442 443 444 445 446 447 448 449 
450 451 452 453 454 455 456 457 458 
459 460 461 462 463 464 465 466 467 
468 469 470 471 472 473 474 475 476 
477 478 479 480 481 482 483 484 485 
486 487 488 489 490 491 492 493 494 
495 496 497 498 499 500 501 502 503 
504 505 506 507 508 509 510 511 512 
513 514 515 516 517 518 519 520 521 
522 523 524 525 526 527 528 529 530 
531 532 533 534 535 536 537 538 539 
540 541 542 543 544 545 546 547 548 
549 550 551 552 553 554 555 556 557 
558 559 560 561 562 563 564 565 566 
567 568 569 570 571 572 573 574 575 
576 577 578 579 580 581 582 583 584 
585 586 587 588 589 590 591 592 593 
594 595 596 597 598 599 600 601 602 
603 604 605 606 607 608 609 610 611 
612 613 614 615 616 617 618 619 620 
621 622 623 624 625 626 627 628 629 
630 631 632 633 634 635 636 637 638 
639 640 641 642 643 644 645 646 647 
648 649 650 651 652 653 654 655 656 
657 658 659 660 661 662 663 664 665 
666 667 668 669 670 671 672 673 674 
675 676 677 678 679 680 681 682 683 
684 685 686 687 688 689 690 691 692 
693 694 695 696 697 698 699 700 701 
702 703 704 705 706 707 708 709 710 
711 712 713 714 715 716 717 718 719 
720 721 722 723 724 725 726 727 728 
729 730 731 732 733 734 735 736 737 
738 739 740 741 742 743 744 745 746 
747 748 749 750 751 752 753 754 755 
756 757 758 759 760 761 762 763 764 
765 766 767 768 769 770 771 772 773 
774 775 776 777 778 779 780 781 782 
783 784 785 786 787 788 789 790 791 
792 793 794 795 796 797 798 799 800 
801 802 803 804 805 806 807 808 809 
810 811 812 813 814 815 816 817 818 
819 820 821 822 823 824 825 826 827 
828 829 830 831 832 833 834 835 836 
837 838 839 840 841 842 843 844 845 
846 847 848 849 850 851 852 853 854 
855 856 857 858 859 860 861 862 863 
864 865 866 867 868 869 870 871 872 
873 874 875 876 877 878 879 880 881 
882 883 884 885 886 887 888 889 890 
891 892 893 894 895 896 897 898 899 
900 901 902 903 904 905 906 907 908 
909 910 911 912 913 914 915 916 917 
918 919 920 921 922 923 924 925 926 
927 928 929 930 931 932 933 934 935 
936 937 938 939 940 941 942 943 944 
945 946 947 948 949 950 951 952 953 
954 955 956 957 958 959 960 961 962 
963 964 965 966 967 968 969 970 971 
972 973 974 975 976 977 978 979 980 
981 982 983 984 985 986 987 988 989 
990 991 992 993 994 995 996 997 998 
999 1000 1001 1002 1003 1004 1005 1006 1007 
1008 1009 1010 1011 1012 1013 1014 1015 1016 
1017 1018 1019 1020 1021 1022 1023 1024 1025 
1026 1027 1028 1029 1030 1031 1032 1033 1034 
1035 1036 1037 1038 1039 1040 1041 1042 1043 
1044 1045 1046 1047 1048 1049 1050 1051 1052 
1053 1054 1055 1056 1057 1058 1059 1060 1061 
1062 1063 1064 1065 1066 1067 1068 1069 1070 
1071 1072 1073 1074 1075 1076 1077 1078 1079 
1080 1081 1082 1083 1084 1085 1086 1087 1088 
1089 1090 1091 1092 1093 1094 1095 1096 1097 
1098 1099 1100 1101 1102 1103 1104 1105 1106 
1107 1108 1109 1110 1111 1112 1113 1114 1115 
1116 1117 1118 1119 1120 1121 1122 1123 1124 
1125 1126 1127 1128 1129 1130 1131 1132 1133 
1134 1135 1136 1137 1138 1139 1140 1141 1142 
1143 1144 1145 1146 1147 1148 1149 1150 1151 
1152 1153 1154 1155 1156 1157 1158 1159 1160 
1161 1162 1163 1164 1165 1166 1167 1168 1169 
1170 1171 1172 1173 1174 1175 1176 1177 1178 
1179 1180 1181 1182 1183 1184 1185 1186 1187 
1188 1189 1190 1191 1192 1193 1194 1195 1196 
1197 1198 1199 1200 1201 1202 1203 1204 1205 
1206 1207 1208 1209 1210 1211 1212 1213 1214 
1215 1216 1217 1218 1219 1220 1221 1222 1223 
1224 1225 1226 1227 1228 1229 1230 1231 1232 
1233 1234 1235 1236 1237 1238 1239 1240 1241 
1242 1243 1244 1245 1246 1247 1248 1249 1250 
1251 1252 1253 1254 1255 1256 1257 1258 1259 
1260 1261 1262 1263 1264 1265 1266 1267 1268 
1269 1270 1271 1272 1273 1274 1275 1276 1277 
1278 1279 1280 1281 1282 1283 1284 1285 1286 
1287 1288 1289 1290 1291 1292 1293 1294 1295 
1296 1297 1298 1299 1300 1301 1302 1303 1304 
1305 1306 1307 1308 1309 1310 1311 1312 1313 
1314 1315 1316 1317 1318 1319 1320 1321 1322 
1323 1324 1325 1326 1327 1328 1329 1330 1331 
1332 1333 1334 1335 1336 1337 1338 1339 1340 
1341 1342 1343 1344 1345 1346 1347 1348 1349 
1350 1351 1352 1353 1354 1355 1356 1357 1358 
1359 1360 1361 1362 1363 1364 1365 1366 1367 
1368 1369 1370 1371 1372 1373 1374 1375 1376 
1377 1378 1379 1380 1381 1382 1383 1384 1385 
1386 1387 1388 1389 1390 1391 1392 1393 1394 
1395 1396 1397 1398 1399 1400 1401 1402 1403 
1404 1405 1406 1407 1408 1409 1410 1411 1412 
1413 1414 1415 1416 1417 1418 1419 1420 1421 
1422 1423 1424 1425 1426 1427 1428 1429 1430 
1431 1432 1433 1434 1435 1436 1437 1438 1439 
1440 1441 1442 1443 1444 1445 1446 1447 1448 
1449 1450 1451 1452 1453 1454 1455 1456 1457 
1458 1459 1460 1461 1462 1463 1464 1465 1466 
1467 1468 1469 1470 1471 1472 1473 1474 1475 
1476 1477 1478 1479 1480 1481 1482 1483 1484 
1485 1486 1487 1488 1489 1490 1491 1492 1493 
1494 1495 1496 1497 1498 1499 1500 1501 1502 
1503 1504 1505 1506 1507 1508 1509 1510 1511 
1512 1513 1514 1515 1516 1517 1518 1519 1520 
1521 1522 1523 1524 1525 1526 1527 1528 1529 
1530 1531 1532 1533 1534 1535 1536 1537 1538 
1539 1540 1541 1542 1543 1544 1545 1546 1547 
1548 1549 1550 1551 1552 1553 1554 1555 1556 
1557 1558 1559 1560 1561 1562 1563 1564 1565 
1566 1567 1568 1569 1570 1571 1572 1573 1574 
1575 1576 1577 1578 1579 1580 1581 1582 1583 
1584 1585 1586 1587 1588 1589 1590 1591 1592 
1593 1594 1595 1596 1597 1598 1599 1600 1601 
1602 1603 1604 1605 1606 1607 1608 1609 1610 
1611 1612 1613 1614 1615 1616 1617 1618 1619 
1620 1621 1622 1623 1624 1625 1626 1627 1628 
1629 1630 1631 1632 1633 1634 1635 1636 1637 
1638 1639 1640 1641 1642 1643 1644 1645 1646 
1647 1648 1649 1650 1651 1652 1653 1654 1655 
1656 1657 1658 1659 1660 1661 1662 1663 1664 
1665 1666 1667 1668 1669 1670 1671 1672 1673 
1674 1675 1676 1677 1678 1679 1680 1681 1682 
1683 1684 1685 1686 1687 1688 1689 1690 1691 
1692 1693 1694 1695 1696 1697 1698 1699 1700 
1701 1702 1703 1704 1705 1706 1707 1708 1709 
1710 1711 1712 1713 1714 1715 1716 1717 1718 
1719 1720 1721 1722 1723 1724 1725 1726 1727 
1728 1729 1730 1731 1732 1733 1734 1735 1736 
1737 1738 1739 1740 1741 1742 1743 1744 1745 
1746 1747 1748 1749 1750 1751 1752 1753 1754 
1755 1756 1757 1758 1759 1760 1761 1762 1763 
1764 1765 1766 1767 1768 1769 1770 1771 1772 
1773 1774 1775 1776 1777 1778 1779 1780 1781 
1782 1783 1784 1785 1786 1787 1788 1789 1790 
1791 1792 1793 1794 1795 1796 1797 1798 1799 
1800 1801 1802 1803 1804 1805 1806 1807 1808 
1809 1810 1811 1812 1813 1814 1815 1816 1817 
1818 1819 1820 1821 1822 1823 1824 1825 1826 
1827 1828 1829 1830 1831 1832 1833 1834 1835 
1836 1837 1838 1839 1840 1841 1842 1843 1844 
1845 1846 1847 1848 1849 1850 1851 1852 1853 
1854 1855 1856 1857 1858 1859 1860 1861 1862 
1863 1864 1865 1866 1867 1868 1869 1870 1871 
1872 1873 1874 1875 1876 1877 1878 1879 1880 
1881 1882 1883 1884 1885 1886 1887 1888 1889 
1890 1891 1892 1893 1894 1895 1896 1897 1898 
1899 1900 1901 1902 1903 1904 1905 1906 1907 
1908 1909 1910 1911 1912 1913 1914 1915 1916 
1917 1918 1919 1920 1921 1922 1923 1924 1925 
1926 1927 1928 1929 1930 1931 1932 1933 1934 
1935 1936 1937 1938 1939 1940 1941 1942 1943 
1944 1945 1946 1947 1948 1949 1950 1951 1952 
1953 1954 1955 1956 1957 1958 1959 1960 1961 
1962 1963 1964 1965 1966 1967 1968 1969 1970 
1971 1972 1973 1974 1975 1976 1977 1978 1979 
1980 1981 1982 1983 1984 1985 1986 1987 1988 
1989 1990 1991 1992 1993 1994 1995 1996 1997 
1998 1999 2000 2001 2002 2003 2004 2005 2006 
2007 2008 2009 2010 2011 2012 2013 2014 2015 
2016 2017 2018 2019 2020 2021 2022 2023 2024 
2025 2026 2027 2028 2029 2030 2031 2032 2033 
2034 2035 2036 2037 2038 2039 2040 2041 2042 
2043 2044 2045 2046 2047 2048 2049 2050 2051 
2052 2053 2054 2055 2056 2057 2058 2059 2060 
2061 2062 2063 2064 2065 2066 2067 2068 2069 
2070 2071 2072 2073 2074 2075 2076 2077 2078 
2079 2080 2081 2082 2083 2084 2085 2086 2087 
2088 2089 2090 2091 2092 2093 2094 2095 2096 
2097 2098 2099 2100 2101 2102 2103 2104 2105 
2106 2107 2108 2109 2110 2111 2112 2113 2114 
2115 2116 2117 2118 2119 2120 2121 2122 2123 
2124 2125 2126 2127 2128 2129 2130 2131 2132 
2133 2134 2135 2136 2137 2138 2139 2140 2141 
2142 2143 2144 2145 2146 2147 2148 2149 2150 
2151 2152 2153 2154 2155 2156 2157 2158 2159 
2160 2161 2162 2163 2164 2165 2166 2167 2168 
2169 2170 2171 2172 2173 2174 2175 2176 2177 
2178 2179 2180 2181 2182 2183 2184 2185 2186 
2187 2188 2189 2190 2191 2192 2193 2194 2195 
2196 2197 2198 2199 2200 2201 2202 2203 2204 
2205 2206 2207 2208 2209 2210 2211 2212 2213 
2214 2215 2216 2217 2218 2219 2220 2221 2222 
2223 2224 2225 2226 2227 2228 2229 2230 2231 
2232 2233 2234 2235 2236 2237 2238 2239 2240 
2241 2242 2243 2244 2245 2246 2247 2248 2249 
2250 2251 2252 2253 2254 2255 2256 2257 2258 
2259 2260 2261 2262 2263 2264 2265 2266 2267 
2268 2269 2270 2271 2272 2273 2274 2275 2276 
2277 2278 2279 2280 2281 2282 2283 2284 2285 
2286 2287 2288 2289 2290 2291 2292 2293 2294 
2295 2296 2297 2298 2299 2300 2301 2302 2303 
2304 2305 2306 2307 2308 2309 2310 2311 2312 
2313 2314 2315 2316 2317 2318 2319 2320 2321 
2322 2323 2324 2325 2326 2327 2328 2329 2330 
2331 2332 2333 2334 2335 2336 2337 2338 2339 
2340 2341 2342 2343 2344 2345 2346 2347 2348 
2349 2350 2351 2352 2353 2354 2355 2356 2357 
2358 2359 2360 2361 2362 2363 2364 2365 2366 
2367 2368 2369 2370 2371 2372 2373 2374 2375 
2376 2377 2378 2379 2380 2381 2382 2383 2384 
2385 2386 2387 2388 2389 2390 2391 2392 2393 
2394 2395 2396 2397 2398 2399 2400 2401 2402 
2403 2404 2405 2406 2407 2408 2409 2410 2411 
2412 2413 2414 2415 2416 2417 2418 2419 2420 
2421 2422 2423 2424 2425 2426 2427 2428 2429 
2430 2431 2432 2433 2434 2435 2436 2437 2438 
2439 2440 2441 2442 2443 2444 2445 2446 2447 
2448 2449 2450 2451 2452 2453 2454 2455 2456 
2457 2458 2459 2460 2461 2462 2463 2464 2465 
2466 2467 2468 2469 2470 2471 2472 2473 2474 
2475 2476 2477 2478 2479 2480 2481 2482 2483 
2484 2485 2486 2487 2488 2489 2490 2491 2492 
2493 2494 2495 2496 2497 2498 2499 2500 2501 
2502 2503 2504 2505 2506 2507 2508 2509 2510 
2511 2512 2513 2514 2515 2516 2517 2518 2519 
2520 2521 2522 2523 2524 2525 2526 2527 2528 
2529 2530 2531 2532 2533 2534 2535 2536 2537 
2538 2539 2540 2541 2542 2543 2544 2545 2546 
2547 2548 2549 2550 2551 2552 2553 2554 2555 
2556 2557 2558 2559 2560 2561 2562 2563 2564 
2565 2566 2567 2568 2569 2570 2571 2572 2573 
2574 2575 2576 2577 2578 2579 2580 2581 2582 
2583 2584 2585 2586 2587 2588 2589 2590 2591 
2592 2593 2594 2595 2596 2597 2598 2599 2600 
2601 2602 2603 2604 2605 2606 2607 2608 2609 
2610 2611 2612 2613 2614 2615 2616 2617 2618 
2619 2620 2621 2622 2623 2624 2625 2626 2627 
2628 2629 2630 2631 2632 2633 2634 2635 2636 
2637 2638 2639 2640 2641 2642 2643 2644 2645 
2646 2647 2648 2649 2650 2651 2652 2653 2654 
2655 2656 2657 2658 2659 2660 2661 2662 2663 
2664 2665 2666 2667 2668 2669 2670 2671 2672 
2673 2674 2675 2676 2677 2678 2679 2680 2681 
2682 2683 2684 2685 2686 2687 2688 2689 2690 
2691 2692 2693 2694 2695 2696 2697 2698 2699 
2700 2701 2702 2703 2704 2705 2706 2707 2708 
2709 2710 2711 2712 2713 2714 2715 2716 2717 
2718 2719 2720 2721 2722 2723 2724 2725 2726 
2727 2728 2729 2730 2731 2732 2733 2734 2735 
2736 2737 2738 2739 2740 2741 2742 2743 2744 
2745 2746 2747 2748 2749 2750 2751 2752 2753 
2754 2755 2756 2757 2758 2759 2760 2761 2762 
2763 2764 2765 2766 2767 2768 2769 2770 2771 
2772 2773 2774 2775 2776 2777 2778 2779 2780 
2781 2782 2783 2784 2785 2786 2787 2788 2789 
2790 2791 2792 2793 2794 2795 2796 2797 2798 
2799 2800 2801 2802 2803 2804 2805 2806 2807 
2808 2809 2810 2811 2812 2813 2814 2815 2816 
2817 2818 2819 2820 2821 2822 2823 2824 2825 
2826 2827 2828 2829 2830 2831 2832 2833 2834 
2835 2836 2837 2838 2839 2840 2841 2842 2843 
2844 2845 2846 2847 2848 2849 2850 2851 2852 
2853 2854 2855 2856 2857 2858 2859 2860 2861 
2862 2863 2864 2865 2866 2867 2868 2869 2870 
2871 2872 2873 2874 2875 2876 2877 2878 2879 
2880 2881 2882 2883 2884 2885 2886 2887 2888 
2889 2890 2891 2892 2893 2894 2895 2896 2897 
2898 2899 2900 2901 2902 2903 2904 2905 2906 
2907 2908 2909 2910 2911 2912 2913 2914 2915 
2916 2917 2918 2919 2920 2921 2922 2923 2924 
2925 2926 2927 2928 2929 2930 2931 2932 2933 
2934 2935 2936 2937 2938 2939 2940 2941 2942 
2943 2944 2945 2946 2947 2948 2949 2950 2951 
2952 2953 2954 2955 2956 2957 2958 2959 2960 
2961 2962 2963 2964 2965 2966 2967 2968 2969 
2970 2971 2972 2973 2974 2975 2976 2977 2978 
2979 2980 2981 2982 2983 2984 2985 2986 2987 
2988 2989 2990 2991 2992 2993 2994 2995 2996 
2997 2998 2999 3000 3001 3002 3003 3004 3005 
3006 3007 3008 3009 3010 3011 3012 3013 3014 
3015 3016 3017 3018 3019 3020 3021 3022 3023 
3024 3025 3026 3027 3028 3029 3030 3031 3032 
3033 3034 3035 3036 3037 3038 3039 3040 3041 
3042 3043 3044 3045 3046 3047 3048 3049 3050 
3051 3052 3053 3054 3055 3056 3057 3058 3059 
3060 3061 3062 3063 3064 3065 3066 3067 3068 
3069 3070 3071 3072 3073 3074 3075 3076 3077 
3078 3079 3080 3081 3082 3083 3084 3085 3086 
3087 3088 3089 3090 3091 3092 3093 3094 3095 
3096 3097 3098 3099 3100 3101 3102 3103 3104 
3105 3106 3107 3108 3109 3110 3111 3112 3113 
3114 3115 3116 3117 3118 3119 3120 3121 3122 
3123 3124 3125 3126 3127 3128 3129 3130 3131 
3132 3133 3134 3135 3136 3137 3138 3139 3140 
3141 3142 3143 3144 3145 3146 3147 3148 3149 
3150 3151 3152 3153 3154 3155 3156 3157 3158 
3159 3160 3161 3162 3163 3164 3165 3166 3167 
3168 3169 3170 3171 3172 3173 3174 3175 3176 
3177 3178 3179 3180 3181 3182 3183 3184 3185 
3186 3187 3188 3189 3190 3191 3192 3193 3194 
3195 3196 3197 3198 3199 3200 3201 3202 3203 
3204 3205 3206 3207 3208 3209 3210 3211 3212 
3213 3214 3215 3216 3217 3218 3219 3220 3221 
3222 3223 3224 3225 3226 3227 3228 3229 3230 
3231 3232 3233 3234 3235 3236 3237 3238 3239 
3240 3241 3242 3243 3244 3245 3246 3247 3248 
3249 3250 3251 3252 3253 3254 3255 3256 3257 
3258 3259 3260 3261 3262 3263 3264 3265 3266 
3267 3268 3269 3270 3271 3272 3273 3274 3275 
3276 3277 3278 3279 3280 3281 3282 3283 3284 
3285 3286 3287 3288 3289 3290 3291 3292 3293 
3294 3295 3296 3297 3298 3299 3300 3301 3302 
3303 3304 3305 3306 3307 3308 3309 3310 3311 
3312 3313 3314 3315 3316 3317 3318 3319 3320 
3321 3322 3323 3324 3325 3326 3327 3328 3329 
3330 3331 3332 3333 3334 3335 3336 3337 3338 
3339 3340 3341 3342 3343 3344 3345 3346 3347 
3348 3349 3350 3351 3352 3353 3354 3355 3356 
3357 3358 3359 3360 3361 3362 3363 3364 3365 
3366 3367 3368 3369 3370 3371 3372 3373 3374 
3375 3376 3377 3378 3379 3380 3381 3382 3383 
3384 3385 3386 3387 3388 3389 3390 3391 3392 
3393 3394 3395 3396 3397 3398 3399 3400 3401 
3402 3403 3404 3405 3406 3407 3408 3409 3410 
3411 3412 3413 3414 3415 3416 3417 3418 3419 
3420 3421 3422 3423 3424 3425 3426 3427 3428 
3429 3430 3431 3432 3433 3434 3435 3436 3437 
3438 3439 3440 3441 3442 3443 3444 3445 3446 
3447 3448 3449 3450 3451 3452 3453 3454 3455 
3456 3457 3458 3459 3460 3461 3462 3463 3464 
3465 3466 3467 3468 3469 3470 3471 3472 3473 
3474 3475 3476 3477 3478 3479 3480 3481 3482 
3483 3484 3485 3486 3487 3488 3489 3490 3491 
3492 3493 3494 3495 3496 3497 3498 3499 3500 
3501 3502 3503 3504 3505 3506 3507 3508 3509 
3510 3511 3512 3513 3514 3515 3516 3517 3518 
3519 3520 3521 3522 3523 3524 3525 3526 3527 
3528 3529 3530 3531 3532 3533 3534 3535 3536 
3537 3538 3539 3540 3541 3542 3543 3544 3545 
3546 3547 3548 3549 3550 3551 3552 3553 3554 
3555 3556 3557 3558 3559 3560 3561 3562 3563 
3564 3565 3566 3567 3568 3569 3570 3571 3572 
3573 3574 3575 3576 3577 3578 3579 3580 3581 
3582 3583 3584 3585 3586 3587 3588 3589 3590 
3591 3592 3593 3594 3595 3596 3597 3598 3599 
3600 3601 3602 3603 3604 3605 3606 3607 3608 
3609 3610 3611 3612 3613 3614 3615 3616 3617 
3618 3619 3620 3621 3622 3623 3624 3625 3626 
3627 3628 3629 3630 3631 3632 3633 3634 3635 
3636 3637 3638 3639 3640 3641 3642 3643 3644 
3645 3646 3647 3648 3649 3650 3651 3652 3653 
3654 3655 3656 3657 3658 3659 3660 3661 3662 
3663 3664 3665 3666 3667 3668 3669 3670 3671 
3672 3673 3674 3675 3676 3677 3678 3679 3680 
3681 3682 3683 3684 3685 3686 3687 3688 3689 
3690 3691 3692 3693 3694 3695 3696 3697 3698 
3699 3700 3701 3702 3703 3704 3705 3706 3707 
3708 3709 3710 3711 3712 3713 3714 3715 3716 
3717 3718 3719 3720 3721 3722 3723 3724 3725 
3726 3727 3728 3729 3730 3731 3732 3733 3734 
3735 3736 3737 3738 3739 3740 3741 3742 3743 
3744 3745 3746 3747 3748 3749 3750 3751 3752 
3753 3754 3755 3756 3757 3758 3759 3760 3761 
3762 3763 3764 3765 3766 3767 3768 3769 3770 
3771 3772 3773 3774 3775 3776 3777 3778 3779 
3780 3781 3782 3783 3784 3785 3786 3787 3788 
3789 3790 3791 3792 3793 3794 3795 3796 3797 
3798 3799 3800 3801 3802 3803 3804 3805 3806 
3807 3808 3809 3810 3811 3812 3813 3814 3815 
3816 3817 3818 3819 3820 3821 3822 3823 3824 
3825 3826 3827 3828 3829 3830 3831 3832 3833 
3834 3835 3836 3837 3838 3839 3840 3841 3842 
3843 3844 3845 3846 3847 3848 3849 3850 3851 
3852 3853 3854 3855 3856 3857 3858 3859 3860 
3861 3862 3863 3864 3865 3866 3867 3868 3869 
3870 3871 3872 3873 3874 3875 3876 3877 3878 
3879 3880 3881 3882 3883 3884 3885 3886 3887 
3888 3889 3890 3891 3892 3893 3894 3895 3896 
3897 3898 3899 3900 3901 3902 3903 3904 3905 
3906 3907 3908 3909 3910 3911 3912 3913 3914 
3915 3916 3917 3918 3919 3920 3921 3922 3923 
3924 3925 3926 3927 3928 3929 3930 3931 3932 
3933 3934 3935 3936 3937 3938 3939 3940 3941 
3942 3943 3944 3945 3946 3947 3948 3949 3950 
3951 3952 3953 3954 3955 3956 3957 3958 3959 
3960 3961 3962 3963 3964 3965 3966 3967 3968 
3969 3970 3971 3972 3973 3974 3975 3976 3977 
3978 3979 3980 3981 3982 3983 3984 3985 3986 
3987 3988 3989 3990 3991 3992 3993 3994 3995 
3996 3997 3998 3999 4000 4001 4002 4003 4004 
4005 4006 4007 4008 4009 4010 4011 4012 4013 
4014 4015 4016 4017 4018 4019 4020 4021 4022 
4023 4024 4025 4026 4027 4028 4029 4030 4031 
4032 4033 4034 4035 4036 4037 4038 4039 4040 
4041 4042 4043 4044 4045 4046 4047 4048 4049 
4050 4051 4052 4053 4054 4055 4056 4057 4058 
4059 4060 4061 4062 4063 4064 4065 4066 4067 
4068 4069 4070 4071 4072 4073 4074 4075 4076 
4077 4078 4079 4080 4081 4082 4083 4084 4085 
4086 4087 4088 4089 4090 4091 4092 4093 4094 
4095 4096 4097 4098 4099 4100 4101 4102 4103 
4104 4105 4106 4107 4108 4109 4110 4111 4112 
4113 4114 4115 4116 4117 4118 4119 4120 4121 
4122 4123 4124 4125 4126 4127 4128 4129 4130 
4131 4132 4133 4134 4135 4136 4137 4138 4139 
4140 4141 4142 4143 4144 4145 4146 4147 4148 
4149 4150 4151 4152 4153 4154 4155 4156 4157 
4158 4159 4160 4161 4162 4163 4164 4165 4166 
4167 4168 4169 4170 4171 4172 4173 4174 4175 
4176 4177 4178 4179 4180 4181 4182 4183 4184 
4185 4186 4187 4188 4189 4190 4191 4192 4193 
4194 4195 4196 4197 4198 4199 4200 4201 4202 
4203 4204 4205 4206 4207 4208 4209 4210 4211 
4212 4213 4214 4215 4216 4217 4218 4219 4220 
4221 4222 4223 4224 4225 4226 4227 4228 4229 
4230 4231 4232 4233 4234 4235 4236 4237 4238 
4239 4240 4241 4242 4243 4244 4245 4246 4247 
4248 4249 4250 4251 4252 4253 4254 4255 4256 
4257 4258 4259 4260 4261 4262 4263 4264 4265 
4266 4267 4268 4269 4270 4271 4272 4273 4274 
4275 4276 4277 4278 4279 4280 4281 4282 4283 
4284 4285 4286 4287 4288 4289 4290 4291 4292 
4293 4294 4295 4296 4297 4298 4299 4300 4301 
4302 4303 4304 4305 4306 4307 4308 4309 4310 
4311 4312 4313 4314 4315 4316 4317 4318 4319 
4320 4321 4322 4323 4324 4325 4326 4327 4328 
4329 4330 4331 4332 4333 4334 4335 4336 4337 
4338 4339 4340 4341 4342 4343 4344 4345 4346 
4347 4348 4349 4350 4351 4352 4353 4354 4355 
4356 4357 4358 4359 4360 4361 4362 4363 4364 
4365 4366 4367 4368 4369 4370 4371 4372 4373 
4374 4375 4376 4377 4378 4379 4380 4381 4382 
4383 4384 4385 4386 4387 4388 4389 4390 4391 
4392 4393 4394 4395 4396 4397 4398 4399 4400 
4401 4402 4403 4404 4405 4406 4407 4408 4409 
4410 4411 4412 4413 4414 4415 4416 4417 4418 
4419 4420 4421 4422 4423 4424 4425 4426 4427 
4428 4429 4430 4431 4432 4433 4434 4435 4436 
4437 4438 4439 4440 4441 4442 4443 4444 4445 
4446 4447 4448 4449 4450 4451 4452 4453 4454 
4455 4456 4457 4458 4459 4460 4461 4462 4463 
4464 4465 4466 4467 4468 4469 4470 4471 4472 
4473 4474 4475 4476 4477 4478 4479 4480 4481 
4482 4483 4484 4485 4486 4487 4488 4489 4490 
4491 4492 4493 4494 4495 4496 4497 4498 4499 
4500 4501 4502 4503 4504 4505 4506 4507 4508 
4509 4510 4511 4512 4513 4514 4515 4516 4517 
4518 4519 4520 4521 4522 4523 4524 4525 4526 
4527 4528 4529 4530 4531 4532 4533 4534 4535 
4536 4537 4538 4539 4540 4541 4542 4543 4544 
4545 4546 4547 4548 4549 4550 4551 4552 4553 
4554 4555 4556 4557 4558 4559 4560 4561 4562 
4563 4564 4565 4566 4567 4568 4569 4570 4571 
4572 4573 4574 4575 4576 4577 4578 4579 4580 
4581 4582 4583 4584 4585 4586 4587 4588 4589 
4590 4591 4592 4593 4594 4595 4596 4597 4598 
4599 4600 4601 4602 4603 4604 4605 4606 4607 
4608 4609 4610 4611 4612 4613 4614 4615 4616 
4617 4618 4619 4620 4621 4622 4623 4624 4625 
4626 4627 4628 4629 4630 4631 4632 4633 4634 
4635 4636 4637 4638 4639 4640 4641 4642 4643 
4644 4645 4646 4647 4648 4649 4650 4651 4652 
4653 4654 4655 4656 4657 4658 4659 4660 4661 
4662 4663 4664 4665 4666 4667 4668 4669 4670 
4671 4672 4673 4674 4675 4676 4677 4678 4679 
4680 4681 4682 4683 4684 4685 4686 4687 4688 
4689 4690 4691 4692 4693 4694 4695 4696 4697 
4698 4699 4700 4701 4702 4703 4704 4705 4706 
4707 4708 4709 4710 4711 4712 4713 4714 4715 
4716 4717 4718 4719 4720 4721 4722 4723 4724 
4725 4726 4727 4728 4729 4730 4731 4732 4733 
4734 4735 4736 4737 4738 4739 4740 4741 4742 
4743 4744 4745 4746 4747 4748 4749 4750 4751 
4752 4753 4754 4755 4756 4757 4758 4759 4760 
4761 4762 4763 4764 4765 4766 4767 4768 4769 
4770 4771 4772 4773 4774 4775 4776 4777 4778 
4779 4780 4781 4782 4783 4784 4785 4786 4787 
4788 4789 4790 4791 4792 4793 4794 4795 4796 
4797 4798 4799 4800 4801 4802 4803 4804 4805 
4806 4807 4808 4809 4810 4811 4812 4813 4814 
4815 4816 4817 4818 4819 4820 4821 4822 4823 
4824 4825 4826 4827 4828 4829 4830 4831 4832 
4833 4834 4835 4836 4837 4838 4839 4840 4841 
4842 4843 4844 4845 4846 4847 4848 4849 4850 
4851 4852 4853 4854 4855 4856 4857 4858 4859 
4860 4861 4862 4863 4864 4865 4866 4867 4868 
4869 4870 4871 4872 4873 4874 4875 4876 4877 
4878 4879 4880 4881 4882 4883 4884 4885 4886 
4887 4888 4889 4890 4891 4892 4893 4894 4895 
4896 4897 4898 4899 4900 4901 4902 4903 4904 
4905 4906 4907 4908 4909 4910 4911 4912 4913 
4914 4915 4916 4917 4918 4919 4920 4921 4922 
4923 4924 4925 4926 4927 4928 4929 4930 4931 
4932 4933 4934 4935 4936 4937 4938 4939 4940 
4941 4942 4943 4944 4945 4946 4947 4948 4949 
4950 4951 4952 4953 4954 4955 4956 4957 4958 
4959 4960 4961 4962 4963 4964 4965 4966 4967 
4968 4969 4970 4971 4972 4973 4974 4975 4976 
4977 4978 4979 4980 4981 4982 4983 4984 4985 
4986 4987 4988 4989 4990 4991 4992 4993 4994 
4995 4996 4997 4998 4999 5000 5001 5002 5003 
5004 5005 5006 5007 5008 5009 5010 5011 5012 
5013 5014 5015 5016 5017 5018 5019 5020 5021 
5022 5023 5024 5025 5026 5027 5028 5029 5030 
5031 5032 5033 5034 5035 5036 5037 5038 5039 
5040 5041 5042 5043 5044 5045 5046 5047 5048 
5049 5050 5051 5052 5053 5054 5055 5056 5057 
5058 5059 5060 5061 5062 5063 5064 5065 5066 
5067 5068 5069 5070 5071 5072 5073 5074 5075 
5076 5077 5078 5079 5080 5081 5082 5083 5084 
5085 5086 5087 5088 5089 5090 5091 5092 5093 
5094 5095 5096 5097 5098 5099 5100 5101 5102 
5103 5104 5105 5106 5107 5108 5109 5110 5111 
5112 5113 5114 5115 5116 5117 5118 5119 5120 
5121 5122 5123 5124 5125 5126 5127 5128 5129 
5130 5131 5132 5133 5134 5135 5136 5137 5138 
5139 5140 5141 5142 5143 5144 5145 5146 5147 
5148 5149 5150 5151 5152 5153 5154 5155 5156 
5157 5158 5159 5160 5161 5162 5163 5164 5165 
5166 5167 5168 5169 5170 5171 5172 5173 5174 
5175 5176 5177 5178 5179 5180 5181 5182 5183 
5184 5185 5186 5187 5188 5189 5190 5191 5192 
5193 5194 5195 5196 5197 5198 5199 5200 5201 
5202 5203 5204 5205 5206 5207 5208 5209 5210 
5211 5212 5213 5214 5215 5216 5217 5218 5219 
5220 5221 5222 5223 5224 5225 5226 5227 5228 
5229 5230 5231 5232 5233 5234 5235 5236 5237 
5238 5239 5240 5241 5242 5243 5244 5245 5246 
5247 5248 5249 5250 5251 5252 5253 5254 5255 
5256 5257 5258 5259 5260 5261 5262 5263 5264 
5265 5266 5267 5268 5269 5270 5271 5272 5273 
5274 5275 5276 5277 5278 5279 5280 5281 5282 
5283 5284 5285 5286 5287 5288 5289 5290 5291 
5292 5293 5294 5295 5296 5297 5298 5299 5300 
5301 5302 5303 5304 5305 5306 5307 5308 5309 
5310 5311 5312 5313 5314 5315 5316 5317 5318 
5319 5320 5321 5322 5323 5324 5325 5326 5327 
5328 5329 5330 5331 5332 5333 5334 5335 5336 
5337 5338 5339 5340 5341 5342 5343 5344 5345 
5346 5347 5348 5349 5350 5351 5352 5353 5354 
5355 5356 5357 5358 5359 5360 5361 5362 5363 
5364 5365 5366 5367 5368 5369 5370 5371 5372 
5373 5374 5375 5376 5377 5378 5379 5380 5381 
5382 5383 5384 5385 5386 5387 5388 5389 5390 
5391 5392 5393 5394 5395 5396 5397 5398 5399 
5400 5401 5402 5403 5404 5405 5406 5407 5408 
5409 5410 5411 5412 5413 5414 5415 5416 5417 
5418 5419 5420 5421 5422 5423 5424 5425 5426 
5427 5428 5429 5430 5431 5432 5433 5434 5435 
5436 5437 5438 5439 5440 5441 5442 5443 5444 
5445 5446 5447 5448 5449 5450 5451 5452 5453 
5454 5455 5456 5457 5458 5459 5460 5461 5462 
5463 5464 5465 5466 5467 5468 5469 5470 5471 
5472 5473 5474 5475 5476 5477 5478 5479 5480 
5481 5482 5483 5484 5485 5486 5487 5488 5489 
5490 5491 5492 5493 5494 5495 5496 5497 5498 
5499 5500 5501 5502 5503 5504 5505 5506 5507 
5508 5509 5510 5511 5512 5513 5514 5515 5516 
5517 5518 5519 5520 5521 5522 5523 5524 5525 
5526 5527 5528 5529 5530 5531 5532 5533 5534 
5535 5536 5537 5538 5539 5540 5541 5542 5543 
5544 5545 5546 5547 5548 5549 5550 5551 5552 
5553 5554 5555 5556 5557 5558 5559 5560 5561 
5562 5563 5564 5565 5566 5567 5568 5569 5570 
5571 5572 5573 5574 5575 5576 5577 5578 5579 
5580 5581 5582 5583 5584 5585 5586 5587 5588 
5589 5590 5591 5592 5593 5594 5595 5596 5597 
5598 5599 5600 5601 5602 5603 5604 5605 5606 
5607 5608 5609 5610 5611 5612 5613 5614 5615 
5616 5617 5618 5619 5620 5621 5622 5623 5624 
5625 5626 5627 5628 5629 5630 5631 5632 5633 
5634 5635 5636 5637 5638 5639 5640 5641 5642 
5643 5644 5645 5646 5647 5648 5649 5650 5651 
5652 5653 5654 5655 5656 5657 5658 5659 5660 
5661 5662 5663 5664 5665 5666 5667 5668 5669 
5670 5671 5672 5673 5674 5675 5676 5677 5678 
5679 5680 5681 5682 5683 5684 5685 5686 5687 
5688 5689 5690 5691 5692 5693 5694 5695 5696 
5697 5698 5699 5700 5701 5702 5703 5704 5705 
5706 5707 5708 5709 5710 5711 5712 5713 5714 
5715 5716 5717 5718 5719 5720 5721 5722 5723 
5724 5725 5726 5727 5728 5729 5730 5731 5732 
5733 5734 5735 5736 5737 5738 5739 5740 5741 
5742 5743 5744 5745 5746 5747 5748 5749 5750 
5751 5752 5753 5754 5755 5756 5757 5758 5759 
5760 5761 5762 5763 5764 5765 5766 5767 5768 
5769 5770 5771 5772 5773 5774 5775 5776 5777 
5778 5779 5780 5781 5782 5783 5784 5785 5786 
5787 5788 5789 5790 5791 5792 5793 5794 5795 
5796 5797 5798 5799 5800 5801 5802 5803 5804 
5805 5806 5807 5808 5809 5810 5811 5812 5813 
5814 5815 5816 5817 5818 5819 5820 5821 5822 
5823 5824 5825 5826 5827 5828 5829 5830 5831 
5832 5833 5834 5835 5836 5837 5838 5839 5840 
5841 5842 5843 5844 5845 5846 5847 5848 5849 
5850 5851 5852 5853 5854 5855 5856 5857 5858 
5859 5860 5861 5862 5863 5864 5865 5866 5867 
5868 5869 5870 5871 5872 5873 5874 5875 5876 
5877 5878 5879 5880 5881 5882 5883 5884 5885 
5886 5887 5888 5889 5890 5891 5892 5893 5894 
5895 5896 5897 5898 5899 5900 5901 5902 5903 
5904 5905 5906 5907 5908 5909 5910 5911 5912 
5913 5914 5915 5916 5917 5918 5919 5920 5921 
5922 5923 5924 5925 5926 5927 5928 5929 5930 
5931 5932 5933 5934 5935 5936 5937 5938 5939 
5940 5941 5942 5943 5944 5945 5946 5947 5948 
5949 5950 5951 5952 5953 5954 5955 5956 5957 
5958 5959 5960 5961 5962 5963 5964 5965 5966 
5967 5968 5969 5970 5971 5972 5973 5974 5975 
5976 5977 5978 5979 5980 5981 5982 5983 5984 
5985 5986 5987 5988 5989 5990 5991 5992 5993 
5994 5995 5996 5997 5998 5999 6000 6001 6002 
6003 6004 6005 6006 6007 6008 6009 6010 6011 
6012 6013 6014 6015 6016 6017 6018 6019 6020 
6021 6022 6023 6024 6025 6026 6027 6028 6029 
6030 6031 6032 6033 6034 6035 6036 6037 6038 
6039 6040 6041 6042 6043 6044 6045 6046 6047 
6048 6049 6050 6051 6052 6053 6054 6055 6056 
6057 6058 6059 6060 6061 6062 6063 6064 6065 
6066 6067 6068 6069 6070 6071 6072 6073 6074 
6075 6076 6077 6078 6079 6080 6081 6082 6083 
6084 6085 6086 6087 6088 6089 6090 6091 6092 
6093 6094 6095 6096 6097 6098 6099 6100 6101 
6102 6103 6104 6105 6106 6107 6108 6109 6110 
6111 6112 6113 6114 6115 6116 6117 6118 6119 
6120 6121 6122 6123 6124 6125 6126 6127 6128 
6129 6130 6131 6132 6133 6134 6135 6136 6137 
6138 6139 6140 6141 6142 6143 6144 6145 6146 
6147 6148 6149 6150 6151 6152 6153 6154 6155 
6156 6157 6158 6159 6160 6161 6162 6163 6164 
6165 6166 6167 6168 6169 6170 6171 6172 6173 
6174 6175 6176 6177 6178 6179 6180 6181 6182 
6183 6184 6185 6186 6187 6188 6189 6190 6191 
6192 6193 6194 6195 6196 6197 6198 6199 6200 
6201 6202 6203 6204 6205 6206 6207 6208 6209 
6210 6211 6212 6213 6214 6215 6216 6217 6218 
6219 6220 6221 6222 6223 6224 6225 6226 6227 
6228 6229 6230 6231 6232 6233 6234 6235 6236 
6237 6238 6239 6240 6241 6242 6243 6244 6245 
6246 6247 6248 6249 6250 6251 6252 6253 6254 
6255 6256 6257 6258 6259 6260 6261 6262 6263 
6264 6265 6266 6267 6268 6269 6270 6271 6272 
6273 6274 6275 6276 6277 6278 6279 6280 6281 
6282 6283 6284 6285 6286 6287 6288 6289 6290 
6291 6292 6293 6294 6295 6296 6297 6298 6299 
6300 6301 6302 6303 6304 6305 6306 6307 6308 
6309 6310 6311 6312 6313 6314 6315 6316 6317 
6318 6319 6320 6321 6322 6323 6324 6325 6326 
6327 6328 6329 6330 6331 6332 6333 6334 6335 
6336 6337 6338 6339 6340 6341 6342 6343 6344 
6345 6346 6347 6348 6349 6350 6351 6352 6353 
6354 6355 6356 6357 6358 6359 6360 6361 6362 
6363 6364 6365 6366 6367 6368 6369 6370 6371 
6372 6373 6374 6375 6376 6377 6378 6379 6380 
6381 6382 6383 6384 6385 6386 6387 6388 6389 
6390 6391 6392 6393 6394 6395 6396 6397 6398 
6399 6400 6401 6402 6403 6404 6405 6406 6407 
6408 6409 6410 6411 6412 6413 6414 6415 6416 
6417 6418 6419 6420 6421 6422 6423 6424 6425 
6426 6427 6428 6429 6430 6431 6432 6433 6434 
6435 6436 6437 6438 6439 6440 6441 6442 6443 
6444 6445 6446 6447 6448 6449 6450 6451 6452 
6453 6454 6455 6456 6457 6458 6459 6460 6461 
6462 6463 6464 6465 6466 6467 6468 6469 6470 
6471 6472 6473 6474 6475 6476 6477 6478 6479 
6480 6481 6482 6483 6484 6485 6486 6487 6488 
6489 6490 6491 6492 6493 6494 6495 6496 6497 
6498 6499 6500 6501 6502 6503 6504 6505 6506 
6507 6508 6509 6510 6511 6512 6513 6514 6515 
6516 6517 6518 6519 6520 6521 6522 6523 6524 
6525 6526 6527 6528 6529 6530 6531 6532 6533 
6534 6535 6536 6537 6538 6539 6540 6541 6542 
6543 6544 6545 6546 6547 6548 6549 6550 6551 
6552 6553 6554 6555 6556 6557 6558 6559 6560 
6561 6562 6563 6564 6565 6566 6567 6568 6569 
6570 6571 6572 6573 6574 6575 6576 6577 6578 
6579 6580 6581 6582 6583 6584 6585 6586 6587 
6588 6589 6590 6591 6592 6593 6594 6595 6596 
6597 6598 6599 6600 6601 6602 6603 6604 6605 
6606 6607 6608 6609 6610 6611 6612 6613 6614 
6615 6616 6617 6618 6619 6620 6621 6622 6623 
6624 6625 6626 6627 6628 6629 6630 6631 6632 
6633 6634 6635 6636 6637 6638 6639 6640 6641 
6642 6643 6644 6645 6646 6647 6648 6649 6650 
6651 6652 6653 6654 6655 6656 6657 6658 6659 
6660 6661 6662 6663 6664 6665 6666 6667 6668 
6669 6670 6671 6672 6673 6674 6675 6676 6677 
6678 6679 6680 6681 6682 6683 6684 6685 6686 
6687 6688 6689 6690 6691 6692 6693 6694 6695 
6696 6697 6698 6699 6700 6701 6702 6703 6704 
6705 6706 6707 6708 6709 6710 6711 6712 6713 
6714 6715 6716 6717 6718 6719 6720 6721 6722 
6723 6724 6725 6726 6727 6728 6729 6730 6731 
6732 6733 6734 6735 6736 6737 6738 6739 6740 
6741 6742 6743 6744 6745 6746 6747 6748 6749 
6750 6751 6752 6753 6754 6755 6756 6757 6758 
6759 6760 6761 6762 6763 6764 6765 6766 6767 
6768 6769 6770 6771 6772 6773 6774 6775 6776 
6777 6778 6779 6780 6781 6782 6783 6784 6785 
6786 6787 6788 6789 6790 6791 6792 6793 6794 
6795 6796 6797 6798 6799 6800 6801 6802 6803 
6804 6805 6806 6807 6808 6809 6810 6811 6812 
6813 6814 6815 6816 6817 6818 6819 6820 6821 
6822 6823 6824 6825 6826 6827 6828 6829 6830 
6831 6832 6833 6834 6835 6836 6837 6838 6839 
6840 6841 6842 6843 6844 6845 6846 6847 6848 
6849 6850 6851 6852 6853 6854 6855 6856 6857 
6858 6859 6860 6861 6862 6863 6864 6865 6866 
6867 6868 6869 6870 6871 6872 6873 6874 6875 
6876 6877 6878 6879 6880 6881 6882 6883 6884 
6885 6886 6887 6888 6889 6890 6891 6892 6893 
6894 6895 6896 6897 6898 6899 6900 6901 6902 
6903 6904 6905 6906 6907 6908 6909 6910 6911 
6912 6913 6914 6915 6916 6917 6918 6919 6920 
6921 6922 6923 6924 6925 6926 6927 6928 6929 
6930 6931 6932 6933 6934 6935 6936 6937 6938 
6939 6940 6941 6942 6943 6944 6945 6946 6947 
6948 6949 6950 6951 6952 6953 6954 6955 6956 
6957 6958 6959 6960 6961 6962 6963 6964 6965 
6966 6967 6968 6969 6970 6971 6972 6973 6974 
6975 6976 6977 6978 6979 6980 6981 6982 6983 
6984 6985 6986 6987 6988 6989 6990 6991 6992 
6993 6994 6995 6996 6997 6998 6999 7000 7001 
7002 7003 7004 7005 7006 7007 7008 7009 7010 
7011 7012 7013 7014 7015 7016 7017 7018 7019 
7020 7021 7022 7023 7024 7025 7026 7027 7028 
7029 7030 7031 7032 7033 7034 7035 7036 7037 
7038 7039 7040 7041 7042 7043 7044 7045 7046 
7047 7048 7049 7050 7051 7052 7053 7054 7055 
7056 7057 7058 7059 7060 7061 7062 7063 7064 
7065 7066 7067 7068 7069 7070 7071 7072 7073 
7074 7075 7076 7077 7078 7079 7080 7081 7082 
7083 7084 7085 7086 7087 7088 7089 7090 7091 
7092 7093 7094 7095 7096 7097 7098 7099 7100 
7101 7102 7103 7104 7105 7106 7107 7108 7109 
7110 7111 7112 7113 7114 7115 7116 7117 7118 
7119 7120 7121 7122 7123 7124 7125 7126 7127 
7128 7129 7130 7131 7132 7133 7134 7135 7136 
7137 7138 7139 7140 7141 7142 7143 7144 7145 
7146 7147 7148 7149 7150 7151 7152 7153 7154 
7155 7156 7157 7158 7159 7160 7161 7162 7163 
7164 7165 7166 7167 7168 7169 7170 7171 7172 
7173 7174 7175 7176 7177 7178 7179 7180 7181 
7182 7183 7184 7185 7186 7187 7188 7189 7190 
7191 7192 7193 7194 7195 7196 7197 7198 7199 
7200 7201 7202 7203 7204 7205 7206 7207 7208 
7209 7210 7211 7212 7213 7214 7215 7216 7217 
7218 7219 7220 7221 7222 7223 7224 7225 7226 
7227 7228 7229 7230 7231 7232 7233 7234 7235 
7236 7237 7238 7239 7240 7241 7242 7243 7244 
7245 7246 7247 7248 7249 7250 7251 7252 7253 
7254 7255 7256 7257 7258 7259 7260 7261 7262 
7263 7264 7265 7266 7267 7268 7269 7270 7271 
7272 7273 7274 7275 7276 7277 7278 7279 7280 
7281 7282 7283 7284 7285 7286 7287 7288 7289 
7290 7291 7292 7293 7294 7295 7296 7297 7298 
7299 7300 7301 7302 7303 7304 7305 7306 7307 
7308 7309 7310 7311 7312 7313 7314 7315 7316 
7317 7318 7319 7320 7321 7322 7323 7324 7325 
7326 7327 7328 7329 7330 7331 7332 7333 7334 
7335 7336 7337 7338 7339 7340 7341 7342 7343 
7344 7345 7346 7347 7348 7349 7350 7351 7352 
7353 7354 7355 7356 7357 7358 7359 7360 7361 
7362 7363 7364 7365 7366 7367 7368 7369 7370 
7371 7372 7373 7374 7375 7376 7377 7378 7379 
7380 7381 7382 7383 7384 7385 7386 7387 7388 
7389 7390 7391 7392 7393 7394 7395 7396 7397 
7398 7399 7400 7401 7402 7403 7404 7405 7406 
7407 7408 7409 7410 7411 7412 7413 7414 7415 
7416 7417 7418 7419 7420 7421 7422 7423 7424 
7425 7426 7427 7428 7429 7430 7431 7432 7433 
7434 7435 7436 7437 7438 7439 7440 7441 7442 
7443 7444 7445 7446 7447 7448 7449 7450 7451 
7452 7453 7454 7455 7456 7457 7458 7459 7460 
7461 7462 7463 7464 7465 7466 7467 7468 7469 
7470 7471 7472 7473 7474 7475 7476 7477 7478 
7479 7480 7481 7482 7483 7484 7485 7486 7487 
7488 7489 7490 7491 7492 7493 7494 7495 7496 
7497 7498 7499 7500 7501 7502 7503 7504 7505 
7506 7507 7508 7509 7510 7511 7512 7513 7514 
7515 7516 7517 7518 7519 7520 7521 7522 7523 
7524 7525 7526 7527 7528 7529 7530 7531 7532 
7533 7534 7535 7536 7537 7538 7539 7540 7541 
7542 7543 7544 7545 7546 7547 7548 7549 7550 
7551 7552 7553 7554 7555 7556 7557 7558 7559 
7560 7561 7562 7563 7564 7565 7566 7567 7568 
7569 7570 7571 7572 7573 7574 7575 7576 7577 
7578 7579 7580 7581 7582 7583 7584 7585 7586 
7587 7588 7589 7590 7591 7592 7593 7594 7595 
7596 7597 7598 7599 7600 7601 7602 7603 7604 
7605 7606 7607 7608 7609 7610 7611 7612 7613 
7614 7615 7616 7617 7618 7619 7620 7621 7622 
7623 7624 7625 7626 7627 7628 7629 7630 7631 
7632 7633 7634 7635 7636 7637 7638 7639 7640 
7641 7642 7643 7644 7645 7646 7647 7648 7649 
7650 7651 7652 7653 7654 7655 7656 7657 7658 
7659 7660 7661 7662 7663 7664 7665 7666 7667 
7668 7669 7670 7671 7672 7673 7674 7675 7676 
7677 7678 7679 7680 7681 7682 7683 7684 7685 
7686 7687 7688 7689 7690 7691 7692 7693 7694 
7695 7696 7697 7698 7699 7700 7701 7702 7703 
7704 7705 7706 7707 7708 7709 7710 7711 7712 
7713 7714 7715 7716 7717 7718 7719 7720 7721 
7722 7723 7724 7725 7726 7727 7728 7729 7730 
7731 7732 7733 7734 7735 7736 7737 7738 7739 
7740 7741 7742 7743 7744 7745 7746 7747 7748 
7749 7750 7751 7752 7753 7754 7755 7756 7757 
7758 7759 7760 7761 7762 7763 7764 7765 7766 
7767 7768 7769 7770 7771 7772 7773 7774 7775 
7776 7777 7778 7779 7780 7781 7782 7783 7784 
7785 7786 7787 7788 7789 7790 7791 7792 7793 
7794 7795 7796 7797 7798 7799 7800 7801 7802 
7803 7804 7805 7806 7807 7808 7809 7810 7811 
7812 7813 7814 7815 7816 7817 7818 7819 7820 
7821 7822 7823 7824 7825 7826 7827 7828 7829 
7830 7831 7832 7833 7834 7835 7836 7837 7838 
7839 7840 7841 7842 7843 7844 7845 7846 7847 
7848 7849 7850 7851 7852 7853 7854 7855 7856 
7857 7858 7859 7860 7861 7862 7863 7864 7865 
7866 7867 7868 7869 7870 7871 7872 7873 7874 
7875 7876 7877 7878 7879 7880 7881 7882 7883 
7884 7885 7886 7887 7888 7889 7890 7891 7892 
7893 7894 7895 7896 7897 7898 7899 7900 7901 
7902 7903 7904 7905 7906 7907 7908 7909 7910 
7911 7912 7913 7914 7915 7916 7917 7918 7919 
7920 7921 7922 7923 7924 7925 7926 7927 7928 
7929 7930 7931 7932 7933 7934 7935 7936 7937 
7938 7939 7940 7941 7942 7943 7944 7945 7946 
7947 7948 7949 7950 7951 7952 7953 7954 7955 
7956 7957 7958 7959 7960 7961 7962 7963 7964 
7965 7966 7967 7968 7969 7970 7971 7972 7973 
7974 7975 7976 7977 7978 7979 7980 7981 7982 
7983 7984 7985 7986 7987 7988 7989 7990 7991 
7992 7993 7994 7995 7996 7997 7998 7999 8000 
8001 8002 8003 8004 8005 8006 8007 8008 8009 
8010 8011 8012 8013 8014 8015 8016 8017 8018 
8019 8020 8021 8022 8023 8024 8025 8026 8027 
8028 8029 8030 8031 8032 8033 8034 8035 8036 
8037 8038 8039 8040 8041 8042 8043 8044 8045 
8046 8047 8048 8049 8050 8051 8052 8053 8054 
8055 8056 8057 8058 8059 8060 8061 8062 8063 
8064 8065 8066 8067 8068 8069 8070 8071 8072 
8073 8074 8075 8076 8077 8078 8079 8080 8081 
8082 8083 8084 8085 8086 8087 8088 8089 8090 
8091 8092 8093 8094 8095 8096 8097 8098 8099 
8100 8101 8102 8103 8104 8105 8106 8107 8108 
8109 8110 8111 8112 8113 8114 8115 8116 8117 
8118 8119 8120 8121 8122 8123 8124 8125 8126 
8127 8128 8129 8130 8131 8132 8133 8134 8135 
8136 8137 8138 8139 8140 8141 8142 8143 8144 
8145 8146 8147 8148 8149 8150 8151 8152 8153 
8154 8155 8156 8157 8158 8159 8160 8161 8162 
8163 8164 8165 8166 8167 8168 8169 8170 8171 
8172 8173 8174 8175 8176 8177 8178 8179 8180 
8181 8182 8183 8184 8185 8186 8187 8188 8189 
8190 8191 8192 8193 8194 8195 8196 8197 8198 
8199 8200 8201 8202 8203 8204 8205 8206 8207 
8208 8209 8210 8211 8212 8213 8214 8215 8216 
8217 8218 8219 8220 8221 8222 8223 8224 8225 
8226 8227 8228 8229 8230 8231 8232 8233 8234 
8235 8236 8237 8238 8239 8240 8241 8242 8243 
8244 8245 8246 8247 8248 8249 8250 8251 8252 
8253 8254 8255 8256 8257 8258 8259 8260 8261 
8262 8263 8264 8265 8266 8267 8268 8269 8270 
8271 8272 8273 8274 8275 8276 8277 8278 8279 
8280 8281 8282 8283 8284 8285 8286 8287 8288 
8289 8290 8291 8292 8293 8294 8295 8296 8297 
8298 8299 8300 8301 8302 8303 8304 8305 8306 
8307 8308 8309 8310 8311 8312 8313 8314 8315 
8316 8317 8318 8319 8320 8321 8322 8323 8324 
8325 8326 8327 8328 8329 8330 8331 8332 8333 
8334 8335 8336 8337 8338 8339 8340 8341 8342 
8343 8344 8345 8346 8347 8348 8349 8350 8351 
8352 8353 8354 8355 8356 8357 8358 8359 8360 
8361 8362 8363 8364 8365 8366 8367 8368 8369 
8370 8371 8372 8373 8374 8375 8376 8377 8378 
8379 8380 8381 8382 8383 8384 8385 8386 8387 
8388 8389 8390 8391 8392 8393 8394 8395 8396 
8397 8398 8399 8400 8401 8402 8403 8404 8405 
8406 8407 8408 8409 8410 8411 8412 8413 8414 
8415 8416 8417 8418 8419 8420 8421 8422 8423 
8424 8425 8426 8427 8428 8429 8430 8431 8432 
8433 8434 8435 8436 8437 8438 8439 8440 8441 
8442 8443 8444 8445 8446 8447 8448 8449 8450 
8451 8452 8453 8454 8455 8456 8457 8458 8459 
8460 8461 8462 8463 8464 8465 8466 8467 8468 
8469 8470 8471 8472 8473 8474 8475 8476 8477 
8478 8479 8480 8481 8482 8483 8484 8485 8486 
8487 8488 8489 8490 8491 8492 8493 8494 8495 
8496 8497 8498 8499 8500 8501 8502 8503 8504 
8505 8506 8507 8508 8509 8510 8511 8512 8513 
8514 8515 8516 8517 8518 8519 8520 8521 8522 
8523 8524 8525 8526 8527 8528 8529 8530 8531 
8532 8533 8534 8535 8536 8537 8538 8539 8540 
8541 8542 8543 8544 8545 8546 8547 8548 8549 
8550 8551 8552 8553 8554 8555 8556 8557 8558 
8559 8560 8561 8562 8563 8564 8565 8566 8567 
8568 8569 8570 8571 8572 8573 8574 8575 8576 
8577 8578 8579 8580 8581 8582 8583 8584 8585 
8586 8587 8588 8589 8590 8591 8592 8593 8594 
8595 8596 8597 8598 8599 8600 8601 8602 8603 
8604 8605 8606 8607 8608 8609 8610 8611 8612 
8613 8614 8615 8616 8617 8618 8619 8620 8621 
8622 8623 8624 8625 8626 8627 8628 8629 8630 
8631 8632 8633 8634 8635 8636 8637 8638 8639 
8640 8641 8642 8643 8644 8645 8646 8647 8648 
8649 8650 8651 8652 8653 8654 8655 8656 8657 
8658 8659 8660 8661 8662 8663 8664 8665 8666 
8667 8668 8669 8670 8671 8672 8673 8674 8675 
8676 8677 8678 8679 8680 8681 8682 8683 8684 
8685 8686 8687 8688 8689 8690 8691 8692 8693 
8694 8695 8696 8697 8698 8699 8700 8701 8702 
8703 8704 8705 8706 8707 8708 8709 8710 8711 
8712 8713 8714 8715 8716 8717 8718 8719 8720 
8721 8722 8723 8724 8725 8726 8727 8728 8729 
8730 8731 8732 8733 8734 8735 8736 8737 8738 
8739 8740 8741 8742 8743 8744 8745 8746 8747 
8748 8749 8750 8751 8752 8753 8754 8755 8756 
8757 8758 8759 8760 8761 8762 8763 8764 8765 
8766 8767 8768 8769 8770 8771 8772 8773 8774 
8775 8776 8777 8778 8779 8780 8781 8782 8783 
8784 8785 8786 8787 8788 8789 8790 8791 8792 
8793 8794 8795 8796 8797 8798 8799 8800 8801 
8802 8803 8804 8805 8806 8807 8808 8809 8810 
8811 8812 8813 8814 8815 8816 8817 8818 8819 
8820 8821 8822 8823 8824 8825 8826 8827 8828 
8829 8830 8831 8832 8833 8834 8835 8836 8837 
8838 8839 8840 8841 8842 8843 8844 8845 8846 
8847 8848 8849 8850 8851 8852 8853 8854 8855 
8856 8857 8858 8859 8860 8861 8862 8863 8864 
8865 8866 8867 8868 8869 8870 8871 8872 8873 
8874 8875 8876 8877 8878 8879 8880 8881 8882 
8883 8884 8885 8886 8887 8888 8889 8890 8891 
8892 8893 8894 8895 8896 8897 8898 8899 8900 
8901 8902 8903 8904 8905 8906 8907 8908 8909 
8910 8911 8912 8913 8914 8915 8916 8917 8918 
8919 8920 8921 8922 8923 8924 8925 8926 8927 
8928 8929 8930 8931 8932 8933 8934 8935 8936 
8937 8938 8939 8940 8941 8942 8943 8944 8945 
8946 8947 8948 8949 8950 8951 8952 8953 8954 
8955 8956 8957 8958 8959 8960 8961 8962 8963 
8964 8965 8966 8967 8968 8969 8970 8971 8972 
8973 8974 8975 8976 8977 8978 8979 8980 8981 
8982 8983 8984 8985 8986 8987 8988 8989 8990 
8991 8992 8993 8994 8995 8996 8997 8998 8999 
9000 9001 9002 9003 9004 9005 9006 9007 9008 
9009 9010 9011 9012 9013 9014 9015 9016 9017 
9018 9019 9020 9021 9022 9023 9024 9025 9026 
9027 9028 9029 9030 9031 9032 9033 9034 9035 
9036 9037 9038 9039 9040 9041 9042 9043 9044 
9045 9046 9047 9048 9049 9050 9051 9052 9053 
9054 9055 9056 9057 9058 9059 9060 9061 9062 
9063 9064 9065 9066 9067 9068 9069 9070 9071 
9072 9073 9074 9075 9076 9077 9078 9079 9080 
9081 9082 9083 9084 9085 9086 9087 9088 9089 
9090 9091 9092 9093 9094 9095 9096 9097 9098 
9099 9100 9101 9102 9103 9104 9105 9106 9107 
9108 9109 9110 9111 9112 9113 9114 9115 9116 
9117 9118 9119 9120 9121 9122 9123 9124 9125 
9126 9127 9128 9129 9130 9131 9132 9133 9134 
9135 9136 9137 9138 9139 9140 9141 9142 9143 
9144 9145 9146 9147 9148 9149 9150 9151 9152 
9153 9154 9155 9156 9157 9158 9159 9160 9161 
9162 9163 9164 9165 9166 9167 9168 9169 9170 
9171 9172 9173 9174 9175 9176 9177 9178 9179 
9180 9181 9182 9183 9184 9185 9186 9187 9188 
9189 9190 9191 9192 9193 9194 9195 9196 9197 
9198 9199 9200 9201 9202 9203 9204 9205 9206 
9207 9208 9209 9210 9211 9212 9213 9214 9215 
9216 9217 9218 9219 9220 9221 9222 9223 9224 
9225 9226 9227 9228 9229 9230 9231 9232 9233 
9234 9235 9236 9237 9238 9239 9240 9241 9242 
9243 9244 9245 9246 9247 9248 9249 9250 9251 
9252 9253 9254 9255 9256 9257 9258 9259 9260 
9261 9262 9263 9264 9265 9266 9267 9268 9269 
9270 9271 9272 9273 9274 9275 9276 9277 9278 
9279 9280 9281 9282 9283 9284 9285 9286 9287 
9288 9289 9290 9291 9292 9293 9294 9295 9296 
9297 9298 9299 9300 9301 9302 9303 9304 9305 
9306 9307 9308 9309 9310 9311 9312 9313 9314 
9315 9316 9317 9318 9319 9320 9321 9322 9323 
9324 9325 9326 9327 9328 9329 9330 9331 9332 
9333 9334 9335 9336 9337 9338 9339 9340 9341 
9342 9343 9344 9345 9346 9347 9348 9349 9350 
9351 9352 9353 9354 9355 9356 9357 9358 9359 
9360 9361 9362 9363 9364 9365 9366 9367 9368 
9369 9370 9371 9372 9373 9374 9375 9376 9377 
9378 9379 9380 9381 9382 9383 9384 9385 9386 
9387 9388 9389 9390 9391 9392 9393 9394 9395 
9396 9397 9398 9399 9400 9401 9402 9403 9404 
9405 9406 9407 9408 9409 9410 9411 9412 9413 
9414 9415 9416 9417 9418 9419 9420 9421 9422 
9423 9424 9425 9426 9427 9428 9429 9430 9431 
9432 9433 9434 9435 9436 9437 9438 9439 9440 
9441 9442 9443 9444 9445 9446 9447 9448 9449 
9450 9451 9452 9453 9454 9455 9456 9457 9458 
9459 9460 9461 9462 9463 9464 9465 9466 9467 
9468 9469 9470 9471 9472 9473 9474 9475 9476 
9477 9478 9479 9480 9481 9482 9483 9484 9485 
9486 9487 9488 9489 9490 9491 9492 9493 9494 
9495 9496 9497 9498 9499 9500 9501 9502 9503 
9504 9505 9506 9507 9508 9509 9510 9511 9512 
9513 9514 9515 9516 9517 9518 9519 9520 9521 
9522 9523 9524 9525 9526 9527 9528 9529 9530 
9531 9532 9533 9534 9535 9536 9537 9538 9539 
9540 9541 9542 9543 9544 9545 9546 9547 9548 
9549 9550 9551 9552 9553 9554 9555 9556 9557 
9558 9559 9560 9561 9562 9563 9564 9565 9566 
9567 9568 9569 9570 9571 9572 9573 9574 9575 
9576 9577 9578 9579 9580 9581 9582 9583 9584 
9585 9586 9587 9588 9589 9590 9591 9592 9593 
9594 9595 9596 9597 9598 9599 9600 9601 9602 
9603 9604 9605 9606 9607 9608 9609 9610 9611 
9612 9613 9614 9615 9616 9617 9618 9619 9620 
9621 9622 9623 9624 9625 9626 9627 9628 9629 
9630 9631 9632 9633 9634 9635 9636 9637 9638 
9639 9640 9641 9642 9643 9644 9645 9646 9647 
9648 9649 9650 9651 9652 9653 9654 9655 9656 
9657 9658 9659 9660 9661 9662 9663 9664 9665 
9666 9667 9668 9669 9670 9671 9672 9673 9674 
9675 9676 9677 9678 9679 9680 9681 9682 9683 
9684 9685 9686 9687 9688 9689 9690 9691 9692 
9693 9694 9695 9696 9697 9698 9699 9700 9701 
9702 9703 9704 9705 9706 9707 9708 9709 9710 
9711 9712 9713 9714 9715 9716 9717 9718 9719 
9720 9721 9722 9723 9724 9725 9726 9727 9728 
9729 9730 9731 9732 9733 9734 9735 9736 9737 
9738 9739 9740 9741 9742 9743 9744 9745 9746 
9747 9748 9749 9750 9751 9752 9753 9754 9755 
9756 9757 9758 9759 9760 9761 9762 9763 9764 
9765 9766 9767 9768 9769 9770 9771 9772 9773 
9774 9775 9776 9777 9778 9779 9780 9781 9782 
9783 9784 9785 9786 9787 9788 9789 9790 9791 
9792 9793 9794 9795 9796 9797 9798 9799 9800 
9801 9802 9803 9804 9805 9806 9807 9808 9809 
9810 9811 9812 9813 9814 9815 9816 9817 9818 
9819 9820 9821 9822 9823 9824 9825 9826 9827 
9828 9829 9830 9831 9832 9833 9834 9835 9836 
9837 9838 9839 9840 9841 9842 9843 9844 9845 
9846 9847 9848 9849 9850 9851 9852 9853 9854 
9855 9856 9857 9858 9859 9860 9861 9862 9863 
9864 9865 9866 9867 9868 9869 9870 9871 9872 
9873 9874 9875 9876 9877 9878 9879 9880 9881 
9882 9883 9884 9885 9886 9887 9888 9889 9890 
9891 9892 9893 9894 9895 9896 9897 9898 9899 
9900 9901 9902 9903 9904 9905 9906 9907 9908 
9909 9910 9911 9912 9913 9914 9915 9916 9917 
9918 9919 9920 9921 9922 9923 9924 9925 9926 
9927 9928 9929 9930 9931 9932 9933 9934 9935 
9936 9937 9938 9939 9940 9941 9942 9943 9944 
9945 9946 9947 9948 9949 9950 9951 9952 9953 
9954 9955 9956 9957 9958 9959 9960 9961 9962 
9963 9964 9965 9966 9967 9968 9969 9970 9971 
9972 9973 9974 9975 9976 9977 9978 9979 9980 
9981 9982 9983 9984 9985 9986 9987 9988 9989 
9990 9991 9992 9993 9994 9995 9996 9997 9998 
9999 10000 10001 10002 10003 10004 10005 10006 10007 
10008 10009 10010 10011 10012 10013 10014 10015 10016 
10017 10018 10019 10020 10021 10022 10023 10024 10025 
10026 10027 10028 10029 10030 10031 10032 10033 10034 
10035 10036 10037 10038 10039 10040 10041 10042 10043 
10044 10045 10046 10047 10048 10049 10050 10051 10052 
10053 10054 10055 10056 10057 10058 10059 10060 10061 
10062 10063 10064 10065 10066 10067 10068 10069 10070 
10071 10072 10073 10074 10075 10076 10077 10078 10079 
10080 10081 10082 10083 10084 10085 10086 10087 10088 
10089 10090 10091 10092 10093 10094 10095 10096 10097 
10098 10099 10100 10101 10102 10103 10104 10105 10106 
10107 10108 10109 10110 10111 10112 10113 10114 10115 
10116 10117 10118 10119 10120 10121 10122 10123 10124 
10125 10126 10127 10128 10129 10130 10131 10132 10133 
10134 10135 10136 10137 10138 10139 10140 10141 10142 
10143 10144 10145 10146 10147 10148 10149 10150 10151 
10152 10153 10154 10155 10156 10157 10158 10159 10160 
10161 10162 10163 10164 10165 10166 10167 10168 10169 
10170 10171 10172 10173 10174 10175 10176 10177 10178 
10179 10180 10181 10182 10183 10184 10185 10186 10187 
10188 10189 10190 10191 10192 10193 10194 10195 10196 
10197 10198 10199 10200 10201 10202 10203 10204 10205 
10206 10207 10208 10209 10210 10211 10212 10213 10214 
10215 10216 10217 10218 10219 10220 10221 10222 10223 
10224 10225 10226 10227 10228 10229 10230 10231 10232 
10233 10234 10235 10236 10237 10238 10239 10240 10241 
10242 10243 10244 10245 10246 10247 10248 10249 10250 
10251 10252 10253 10254 10255 10256 10257 10258 10259 
10260 10261 10262 10263 10264 10265 10266 10267 10268 
10269 10270 10271 10272 10273 10274 10275 10276 10277 
10278 10279 10280 10281 10282 10283 10284 10285 10286 
10287 10288 10289 10290 10291 10292 10293 10294 10295 
10296 10297 10298 10299 10300 10301 10302 10303 10304 
10305 10306 10307 10308 10309 10310 10311 10312 10313 
10314 10315 10316 10317 10318 10319 10320 10321 10322 
10323 10324 10325 10326 10327 10328 10329 10330 10331 
10332 10333 10334 10335 10336 10337 10338 10339 10340 
10341 10342 10343 10344 10345 10346 10347 10348 10349 
10350 10351 10352 10353 10354 10355 10356 10357 10358 
10359 10360 10361 10362 10363 10364 10365 10366 10367 
10368 10369 10370 10371 10372 10373 10374 10375 10376 
10377 10378 10379 10380 10381 10382 10383 10384 10385 
10386 10387 10388 10389 10390 10391 10392 10393 10394 
10395 10396 10397 10398 10399 10400 10401 10402 10403 
10404 10405 10406 10407 10408 10409 10410 10411 10412 
10413 10414 10415 10416 10417 10418 10419 10420 10421 
10422 10423 10424 10425 10426 10427 10428 10429 10430 
10431 10432 10433 10434 10435 10436 10437 10438 10439 
10440 10441 10442 10443 10444 10445 10446 10447 10448 
10449 10450 10451 10452 10453 10454 10455 10456 10457 
10458 10459 10460 10461 10462 10463 10464 10465 10466 
10467 10468 10469 10470 10471 10472 10473 10474 10475 
10476 10477 10478 10479 10480 10481 10482 10483 10484 
10485 10486 10487 10488 10489 10490 10491 10492 10493 
10494 10495 10496 10497 10498 10499 10500 10501 10502 
10503 10504 10505 10506 10507 10508 10509 10510 10511 
10512 10513 10514 10515 10516 10517 10518 10519 10520 
10521 10522 10523 10524 10525 10526 10527 10528 10529 
10530 10531 10532 10533 10534 10535 10536 10537 10538 
10539 10540 10541 10542 10543 10544 10545 10546 10547 
10548 10549 10550 10551 10552 10553 10554 10555 10556 
10557 10558 10559 10560 10561 10562 10563 10564 10565 
10566 10567 10568 10569 10570 10571 10572 10573 10574 
10575 10576 10577 10578 10579 10580 10581 10582 10583 
10584 10585 10586 10587 10588 10589 10590 10591 10592 
10593 10594 10595 10596 10597 10598 10599 10600 10601 
10602 10603 10604 10605 10606 10607 10608 10609 10610 
10611 10612 10613 10614 10615 10616 10617 10618 10619 
10620 10621 10622 10623 10624 10625 10626 10627 10628 
10629 10630 10631 10632 10633 10634 10635 10636 10637 
10638 10639 10640 10641 10642 10643 10644 10645 10646 
10647 10648 10649 10650 10651 10652 10653 10654 10655 
10656 10657 10658 10659 10660 10661 10662 10663 10664 
10665 10666 10667 10668 10669 10670 10671 10672 10673 
10674 10675 10676 10677 10678 10679 10680 10681 10682 
10683 10684 10685 10686 10687 10688 10689 10690 10691 
10692 10693 10694 10695 10696 10697 10698 10699 10700 
10701 10702 10703 10704 10705 10706 10707 10708 10709 
10710 10711 10712 10713 10714 10715 10716 10717 10718 
10719 10720 10721 10722 10723 10724 10725 10726 10727 
10728 10729 10730 10731 10732 10733 10734 10735 10736 
10737 10738 10739 10740 10741 10742 10743 10744 10745 
10746 10747 10748 10749 10750 10751 10752 10753 10754 
10755 10756 10757 10758 10759 10760 10761 10762 10763 
10764 10765 10766 10767 10768 10769 10770 10771 10772 
10773 10774 10775 10776 10777 10778 10779 10780 10781 
10782 10783 10784 10785 10786 10787 10788 10789 10790 
10791 10792 10793 10794 10795 10796 10797 10798 10799 
10800 10801 10802 10803 10804 10805 10806 10807 10808 
10809 10810 10811 10812 10813 10814 10815 10816 10817 
10818 10819 10820 10821 10822 10823 10824 10825 10826 
10827 10828 10829 10830 10831 10832 10833 10834 10835 
10836 10837 10838 10839 10840 10841 10842 10843 10844 
10845 10846 10847 10848 10849 10850 10851 10852 10853 
10854 10855 10856 10857 10858 10859 10860 10861 10862 
10863 10864 10865 10866 10867 10868 10869 10870 10871 
10872 10873 10874 10875 10876 10877 10878 10879 10880 
10881 10882 10883 10884 10885 10886 10887 10888 10889 
10890 10891 10892 10893 10894 10895 10896 10897 10898 
10899 10900 10901 10902 10903 10904 10905 10906 10907 
10908 10909 10910 10911 10912 10913 10914 10915 10916 
10917 10918 10919 10920 10921 10922 10923 10924 10925 
10926 10927 10928 10929 10930 10931 10932 10933 10934 
10935 10936 10937 10938 10939 10940 10941 10942 10943 
10944 10945 10946 10947 10948 10949 10950 10951 10952 
10953 10954 10955 10956 10957 10958 10959 10960 10961 
10962 10963 10964 10965 10966 10967 10968 10969 10970 
10971 10972 10973 10974 10975 10976 10977 10978 10979 
10980 10981 10982 10983 10984 10985 10986 10987 10988 
10989 10990 10991 10992 10993 10994 10995 10996 10997 
10998 10999 11000 11001 11002 11003 11004 11005 11006 
11007 11008 11009 11010 11011 11012 11013 11014 11015 
11016 11017 11018 11019 11020 11021 11022 11023 11024 
11025 11026 11027 11028 11029 11030 11031 11032 11033 
11034 11035 11036 11037 11038 11039 11040 11041 11042 
11043 11044 11045 11046 11047 11048 11049 11050 11051 
11052 11053 11054 11055 11056 11057 11058 11059 11060 
11061 11062 11063 11064 11065 11066 11067 11068 11069 
11070 11071 11072 11073 11074 11075 11076 11077 11078 
11079 11080 11081 11082 11083 11084 11085 11086 11087 
11088 11089 11090 11091 11092 11093 11094 11095 11096 
11097 11098 11099 11100 11101 11102 11103 11104 11105 
11106 11107 11108 11109 11110 11111 11112 11113 11114 
11115 11116 11117 11118 11119 11120 11121 11122 11123 
11124 11125 11126 11127 11128 11129 11130 11131 11132 
11133 11134 11135 11136 11137 11138 11139 11140 11141 
11142 11143 11144 11145 11146 11147 11148 11149 11150 
11151 11152 11153 11154 11155 11156 11157 11158 11159 
11160 11161 11162 11163 11164 11165 11166 11167 11168 
11169 11170 11171 11172 11173 11174 11175 11176 11177 
11178 11179 11180 11181 11182 11183 11184 11185 11186 
11187 11188 11189 11190 11191 11192 11193 11194 11195 
11196 11197 11198 11199 11200 11201 11202 11203 11204 
11205 11206 11207 11208 11209 11210 11211 11212 11213 
11214 11215 11216 11217 11218 11219 11220 11221 11222 
11223 11224 11225 11226 11227 11228 11229 11230 11231 
11232 11233 11234 11235 11236 11237 11238 11239 11240 
11241 11242 11243 11244 11245 11246 11247 11248 11249 
11250 11251 11252 11253 11254 11255 11256 11257 11258 
11259 11260 11261 11262 11263 11264 11265 11266 11267 
11268 11269 11270 11271 11272 11273 11274 11275 11276 
11277 11278 11279 11280 11281 11282 11283 11284 11285 
11286 11287 11288 11289 11290 11291 11292 11293 11294 
11295 11296 11297 11298 11299 11300 11301 11302 11303 
11304 11305 11306 11307 11308 11309 11310 11311 11312 
11313 11314 11315 11316 11317 11318 11319 11320 11321 
11322 11323 11324 11325 11326 11327 11328 11329 11330 
11331 11332 11333 11334 11335 11336 11337 11338 11339 
11340 11341 11342 11343 11344 11345 11346 11347 11348 
11349 11350 11351 11352 11353 11354 11355 11356 11357 
11358 11359 11360 11361 11362 11363 11364 11365 11366 
11367 11368 11369 11370 11371 11372 11373 11374 11375 
11376 11377 11378 11379 11380 11381 11382 11383 11384 
11385 11386 11387 11388 11389 11390 11391 11392 11393 
11394 11395 11396 11397 11398 11399 11400 11401 11402 
11403 11404 11405 11406 11407 11408 11409 11410 11411 
11412 11413 11414 11415 11416 11417 11418 11419 11420 
11421 11422 11423 11424 11425 11426 11427 11428 11429 
11430 11431 11432 11433 11434 11435 11436 11437 11438 
11439 11440 11441 11442 11443 11444 11445 11446 11447 
11448 11449 11450 11451 11452 11453 11454 11455 11456 
11457 11458 11459 11460 11461 11462 11463 11464 11465 
11466 11467 11468 11469 11470 11471 11472 11473 11474 
11475 11476 11477 11478 11479 11480 11481 11482 11483 
11484 11485 11486 11487 11488 11489 11490 11491 11492 
11493 11494 11495 11496 11497 11498 11499 11500 11501 
11502 11503 11504 11505 11506 11507 11508 11509 11510 
11511 11512 11513 11514 11515 11516 11517 11518 11519 
11520 11521 11522 11523 11524 11525 11526 11527 11528 
11529 11530 11531 11532 11533 11534 11535 11536 11537 
11538 11539 11540 11541 11542 11543 11544 11545 11546 
11547 11548 11549 11550 11551 11552 11553 11554 11555 
11556 11557 11558 11559 11560 11561 11562 11563 11564 
11565 11566 11567 11568 11569 11570 11571 11572 11573 
11574 11575 11576 11577 11578 11579 11580 11581 11582 
11583 11584 11585 11586 11587 11588 11589 11590 11591 
11592 11593 11594 11595 11596 11597 11598 11599 11600 
11601 11602 11603 11604 11605 11606 11607 11608 11609 
11610 11611 11612 11613 11614 11615 11616 11617 11618 
11619 11620 11621 11622 11623 11624 11625 11626 11627 
11628 11629 11630 11631 11632 11633 11634 11635 11636 
11637 11638 11639 11640 11641 11642 11643 11644 11645 
11646 11647 11648 11649 11650 11651 11652 11653 11654 
11655 11656 11657 11658 11659 11660 11661 11662 11663 
11664 11665 11666 11667 11668 11669 11670 11671 11672 
11673 11674 11675 11676 11677 11678 11679 11680 11681 
11682 11683 11684 11685 11686 11687 11688 11689 11690 
11691 11692 11693 11694 11695 11696 11697 11698 11699 
11700 11701 11702 11703 11704 11705 11706 11707 11708 
11709 11710 11711 11712 11713 11714 11715 11716 11717 
11718 11719 11720 11721 11722 11723 11724 11725 11726 
11727 11728 11729 11730 11731 11732 11733 11734 11735 
11736 11737 11738 11739 11740 11741 11742 11743 11744 
11745 11746 11747 11748 11749 11750 11751 11752 11753 
11754 11755 11756 11757 11758 11759 11760 11761 11762 
11763 11764 11765 11766 11767 11768 11769 11770 11771 
11772 11773 11774 11775 11776 11777 11778 11779 11780 
11781 11782 11783 11784 11785 11786 11787 11788 11789 
11790 11791 11792 11793 11794 11795 11796 11797 11798 
11799 11800 11801 11802 11803 11804 11805 11806 11807 
11808 11809 11810 11811 11812 11813 11814 11815 11816 
11817 11818 11819 11820 11821 11822 11823 11824 11825 
11826 11827 11828 11829 11830 11831 11832 11833 11834 
11835 11836 11837 11838 11839 11840 11841 11842 11843 
11844 11845 11846 11847 11848 11849 11850 11851 11852 
11853 11854 11855 11856 11857 11858 11859 11860 11861 
11862 11863 11864 11865 11866 11867 11868 11869 11870 
11871 11872 11873 11874 11875 11876 11877 11878 11879 
11880 11881 11882 11883 11884 11885 11886 11887 11888 
11889 11890 11891 11892 11893 11894 11895 11896 11897 
11898 11899 11900 11901 11902 11903 11904 11905 11906 
11907 11908 11909 11910 11911 11912 11913 11914 11915 
11916 11917 11918 11919 11920 11921 11922 11923 11924 
11925 11926 11927 11928 11929 11930 11931 11932 11933 
11934 11935 11936 11937 11938 11939 11940 11941 11942 
11943 11944 11945 11946 11947 11948 11949 11950 11951 
11952 11953 11954 11955 11956 11957 11958 11959 11960 
11961 11962 11963 11964 11965 11966 11967 11968 11969 
11970 11971 11972 11973 11974 11975 11976 11977 11978 
11979 11980 11981 11982 11983 11984 11985 11986 11987 
11988 11989 11990 11991 11992 11993 11994 11995 11996 
11997 11998 11999 12000 12001 12002 12003 12004 12005 
12006 12007 12008 12009 12010 12011 12012 12013 12014 
12015 12016 12017 12018 12019 12020 12021 12022 12023 
12024 12025 12026 12027 12028 12029 12030 12031 12032 
12033 12034 12035 12036 12037 12038 12039 12040 12041 
12042 12043 12044 12045 12046 12047 12048 12049 12050 
12051 12052 12053 12054 12055 12056 12057 12058 12059 
12060 12061 12062 12063 12064 12065 12066 12067 12068 
12069 12070 12071 12072 12073 12074 12075 12076 12077 
12078 12079 12080 12081 12082 12083 12084 12085 12086 
12087 12088 12089 12090 12091 12092 12093 12094 12095 
12096 12097 12098 12099 12100 12101 12102 12103 12104 
12105 12106 12107 12108 12109 12110 12111 12112 12113 
12114 12115 12116 12117 12118 12119 12120 12121 12122 
12123 12124 12125 12126 12127 12128 12129 12130 12131 
12132 12133 12134 12135 12136 12137 12138 12139 12140 
12141 12142 12143 12144 12145 12146 12147 12148 12149 
12150 12151 12152 12153 12154 12155 12156 12157 12158 
12159 12160 12161 12162 12163 12164 12165 12166 12167 
12168 12169 12170 12171 12172 12173 12174 12175 12176 
12177 12178 12179 12180 12181 12182 12183 12184 12185 
12186 12187 12188 12189 12190 12191 12192 12193 12194 
12195 12196 12197 12198 12199 12200 12201 12202 12203 
12204 12205 12206 12207 12208 12209 12210 12211 12212 
12213 12214 12215 12216 12217 12218 12219 12220 12221 
12222 12223 12224 12225 12226 12227 12228 12229 12230 
12231 12232 12233 12234 12235 12236 12237 12238 12239 
12240 12241 12242 12243 12244 12245 12246 12247 12248 
12249 12250 12251 12252 12253 12254 12255 12256 12257 
12258 12259 12260 12261 12262 12263 12264 12265 12266 
12267 12268 12269 12270 12271 12272 12273 12274 12275 
12276 12277 12278 12279 12280 12281 12282 12283 12284 
12285 12286 12287 12288 12289 12290 12291 12292 12293 
12294 12295 12296 12297 12298 12299 12300 12301 12302 
12303 12304 12305 12306 12307 12308 12309 12310 12311 
12312 12313 12314 12315 12316 12317 12318 12319 12320 
12321 12322 12323 12324 12325 12326 12327 12328 12329 
12330 12331 12332 12333 12334 12335 12336 12337 12338 
12339 12340 12341 12342 12343 12344 12345 12346 12347 
12348 12349 12350 12351 12352 12353 12354 12355 12356 
12357 12358 12359 12360 12361 12362 12363 12364 12365 
12366 12367 12368 12369 12370 12371 12372 12373 12374 
12375 12376 12377 12378 12379 12380 12381 12382 12383 
12384 12385 12386 12387 12388 12389 12390 12391 12392 
12393 12394 12395 12396 12397 12398 12399 12400 12401 
12402 12403 12404 12405 12406 12407 12408 12409 12410 
      </DataArray>
      <DataArray type="Int32" Name="offsets" format="ascii">
9
18
27
36
45
54
63
72
81
90
99
108
117
126
135
144
153
162
171
180
189
198
207
216
225
234
243
252
261
270
279
288
297
306
315
324
333
342
351
360
369
378
387
396
405
414
423
432
441
450
459
468
477
486
495
504
513
522
531
540
549
558
567
576
585
594
603
612
621
630
639
648
657
666
675
684
693
702
711
720
729
738
747
756
765
774
783
792
801
810
819
828
837
846
855
864
873
882
891
900
909
918
927
936
945
954
963
972
981
990
999
1008
1017
1026
1035
1044
1053
1062
1071
1080
1089
1098
1107
1116
1125
1134
1143
1152
1161
1170
1179
1188
1197
1206
1215
1224
1233
1242
1251
1260
1269
1278
1287
1296
1305
1314
1323
1332
1341
1350
1359
1368
1377
1386
1395
1404
1413
1422
1431
1440
1449
1458
1467
1476
1485
1494
1503
1512
1521
1530
1539
1548
1557
1566
1575
1584
1593
1602
1611
1620
1629
1638
1647
1656
1665
1674
1683
1692
1701
1710
1719
1728
1737
1746
1755
1764
1773
1782
1791
1800
1809
1818
1827
1836
1845
1854
1863
1872
1881
1890
1899
1908
1917
1926
1935
1944
1953
1962
1971
1980
1989
1998
2007
2016
2025
2034
2043
2052
2061
2070
2079
2088
2097
2106
2115
2124
2133
2142
2151
2160
2169
2178
2187
2196
2205
2214
2223
2232
2241
2250
2259
2268
2277
2286
2295
2304
2313
2322
2331
2340
2349
2358
2367
2376
2385
2394
2403
2412
2421
2430
2439
2448
2457
2466
2475
2484
2493
2502
2511
2520
2529
2538
2547
2556
2565
2574
2583
2592
2601
2610
2619
2628
2637
2646
2655
2664
2673
2682
2691
2700
2709
2718
2727
2736
2745
2754
2763
2772
2781
2790
2799
2808
2817
2826
2835
2844
2853
2862
2871
2880
2889
2898
2907
2916
2925
2934
2943
2952
2961
2970
2979
2988
2997
3006
3015
3024
3033
3042
3051
3060
3069
3078
3087
3096
3105
3114
3123
3132
3141
3150
3159
3168
3177
3186
3195
3204
3213
3222
3231
3240
3249
3258
3267
3276
3285
3294
3303
3312
3321
3330
3339
3348
3357
3366
3375
3384
3393
3402
3411
3420
3429
3438
3447
3456
3465
3474
3483
3492
3501
3510
3519
3528
3537
3546
3555
3564
3573
3582
3591
3600
3609
3618
3627
3636
3645
3654
3663
3672
3681
3690
3699
3708
3717
3726
3735
3744
3753
3762
3771
3780
3789
3798
3807
3816
3825
3834
3843
3852
3861
3870
3879
3888
3897
3906
3915
3924
3933
3942
3951
3960
3969
3978
3987
3996
4005
4014
4023
4032
4041
4050
4059
4068
4077
4086
4095
4104
4113
4122
4131
4140
4149
4158
4167
4176
4185
4194
4203
4212
4221
4230
4239
4248
4257
4266
4275
4284
4293
4302
4311
4320
4329
4338
4347
4356
4365
4374
4383
4392
4401
4410
4419
4428
4437
4446
4455
4464
4473
4482
4491
4500
4509
4518
4527
4536
4545
4554
4563
4572
4581
4590
4599
4608
4617
4626
4635
4644
4653
4662
4671
4680
4689
4698
4707
4716
4725
4734
4743
4752
4761
4770
4779
4788
4797
4806
4815
4824
4833
4842
4851
4860
4869
4878
4887
4896
4905
4914
4923
4932
4941
4950
4959
4968
4977
4986
4995
5004
5013
5022
5031
5040
5049
5058
5067
5076
5085
5094
5103
5112
5121
5130
5139
5148
5157
5166
5175
5184
5193
5202
5211
5220
5229
5238
5247
5256
5265
5274
5283
5292
5301
5310
5319
5328
5337
5346
5355
5364
5373
5382
5391
5400
5409
5418
5427
5436
5445
5454
5463
5472
5481
5490
5499
5508
5517
5526
5535
5544
5553
5562
5571
5580
5589
5598
5607
5616
5625
5634
5643
5652
5661
5670
5679
5688
5697
5706
5715
5724
5733
5742
5751
5760
5769
5778
5787
5796
5805
5814
5823
5832
5841
5850
5859
5868
5877
5886
5895
5904
5913
5922
5931
5940
5949
5958
5967
5976
5985
5994
6003
6012
6021
6030
6039
6048
6057
6066
6075
6084
6093
6102
6111
6120
6129
6138
6147
6156
6165
6174
6183
6192
6201
6210
6219
6228
6237
6246
6255
6264
6273
6282
6291
6300
6309
6318
6327
6336
6345
6354
6363
6372
6381
6390
6399
6408
6417
6426
6435
6444
6453
6462
6471
6480
6489
6498
6507
6516
6525
6534
6543
6552
6561
6570
6579
6588
6597
6606
6615
6624
6633
6642
6651
6660
6669
6678
6687
6696
6705
6714
6723
6732
6741
6750
6759
6768
6777
6786
6795
6804
6813
6822
6831
6840
6849
6858
6867
6876
6885
6894
6903
6912
6921
6930
6939
6948
6957
6966
6975
6984
6993
7002
7011
7020
7029
7038
7047
7056
7065
7074
7083
7092
7101
7110
7119
7128
7137
7146
7155
7164
7173
7182
7191
7200
7209
7218
7227
7236
7245
7254
7263
7272
7281
7290
7299
7308
7317
7326
7335
7344
7353
7362
7371
7380
7389
7398
7407
7416
7425
7434
7443
7452
7461
7470
7479
7488
7497
7506
7515
7524
7533
7542
7551
7560
7569
7578
7587
7596
7605
7614
7623
7632
7641
7650
7659
7668
7677
7686
7695
7704
7713
7722
7731
7740
7749
7758
7767
7776
7785
7794
7803
7812
7821
7830
7839
7848
7857
7866
7875
7884
7893
7902
7911
7920
7929
7938
7947
7956
7965
7974
7983
7992
8001
8010
8019
8028
8037
8046
8055
8064
8073
8082
8091
8100
8109
8118
8127
8136
8145
8154
8163
8172
8181
8190
8199
8208
8217
8226
8235
8244
8253
8262
8271
8280
8289
8298
8307
8316
8325
8334
8343
8352
8361
8370
8379
8388
8397
8406
8415
8424
8433
8442
8451
8460
8469
8478
8487
8496
8505
8514
8523
8532
8541
8550
8559
8568
8577
8586
8595
8604
8613
8622
8631
8640
8649
8658
8667
8676
8685
8694
8703
8712
8721
8730
8739
8748
8757
8766
8775
8784
8793
8802
8811
8820
8829
8838
8847
8856
8865
8874
8883
8892
8901
8910
8919
8928
8937
8946
8955
8964
8973
8982
8991
9000
9009
9018
9027
9036
9045
9054
9063
9072
9081
9090
9099
9108
9117
9126
9135
9144
9153
9162
9171
9180
9189
9198
9207
9216
9225
9234
9243
9252
9261
9270
9279
9288
9297
9306
9315
9324
9333
9342
9351
9360
9369
9378
9387
9396
9405
9414
9423
9432
9441
9450
9459
9468
9477
9486
9495
9504
9513
9522
9531
9540
9549
9558
9567
9576
9585
9594
9603
9612
9621
9630
9639
9648
9657
9666
9675
9684
9693
9702
9711
9720
9729
9738
9747
9756
9765
9774
9783
9792
9801
9810
9819
9828
9837
9846
9855
9864
9873
9882
9891
9900
9909
9918
9927
9936
9945
9954
9963
9972
9981
9990
9999
10008
10017
10026
10035
10044
10053
10062
10071
10080
10089
10098
10107
10116
10125
10134
10143
10152
10161
10170
10179
10188
10197
10206
10215
10224
10233
10242
10251
10260
10269
10278
10287
10296
10305
10314
10323
10332
10341
10350
10359
10368
10377
10386
10395
10404
10413
10422
10431
10440
10449
10458
10467
10476
10485
10494
10503
10512
10521
10530
10539
10548
10557
10566
10575
10584
10593
10602
10611
10620
10629
10638
10647
10656
10665
10674
10683
10692
10701
10710
10719
10728
10737
10746
10755
10764
10773
10782
10791
10800
10809
10818
10827
10836
10845
10854
10863
10872
10881
10890
10899
10908
10917
10926
10935
10944
10953
10962
10971
10980
10989
10998
11007
11016
11025
11034
11043
11052
11061
11070
11079
11088
11097
11106
11115
11124
11133
11142
11151
11160
11169
11178
11187
11196
11205
11214
11223
11232
11241
11250
11259
11268
11277
11286
11295
11304
11313
11322
11331
11340
11349
11358
11367
11376
11385
11394
11403
11412
11421
11430
11439
11448
11457
11466
11475
11484
11493
11502
11511
11520
11529
11538
11547
11556
11565
11574
11583
11592
11601
11610
11619
11628
11637
11646
11655
11664
11673
11682
11691
11700
11709
11718
11727
11736
11745
11754
11763
11772
11781
11790
11799
11808
11817
11826
11835
11844
11853
11862
11871
11880
11889
11898
11907
11916
11925
11934
11943
11952
11961
11970
11979
11988
11997
12006
12015
12024
12033
12042
12051
12060
12069
12078
12087
12096
12105
12114
12123
12132
12141
12150
12159
12168
12177
12186
12195
12204
12213
12222
12231
12240
12249
12258
12267
12276
12285
12294
12303
12312
12321
12330
12339
12348
12357
12366
12375
12384
12393
12402
12411
      </DataArray>
      <DataArray type="UInt8" Name="types" format="ascii">
70
70
70
70
70
70
70
70
70
70
70
70
70
70
70
70
70
70
70
70
70
70
70
70
70
70
70
70
70
70
70
70
70
70
70
70
70
70
70
70
70
70
70
70
70
70
70
70
70
70
70
70
70
70
70
70
70
70
70
70
70
70
70
70
70
70
70
70
70
70
70
70
70
70
70
70
70
70
70
70
70
70
70
70
70
70
70
70
70
70
70
70
70
70
70
70
70
70
70
70
70
70
70
70
70
70
70
70
70
70
70
70
70
70
70
70
70
70
70
70
70
70
70
70
70
70
70
70
70
70
70
70
70
70
70
70
70
70
70
70
70
70
70
70
70
70
70
70
70
70
70
70
70
70
70
70
70
70
70
70
70
70
70
70
70
70
70
70
70
70
70
70
70
70
70
70
70
70
70
70
70
70
70
70
70
70
70
70
70
70
70
70
70
70
70
70
70
70
70
70
70
70
70
70
70
70
70
70
70
70
70
70
70
70
70
70
70
70
70
70
70
70
70
70
70
70
70
70
70
70
70
70
70
70
70
70
70
70
70
70
70
70
70
70
70
70
70
70
70
70
70
70
70
70
70
70
70
70
70
70
70
70
70
70
70
70
70
70
70
70
70
70
70
70
70
70
70
70
70
70
70
70
70
70
70
70
70
70
70
70
70
70
70
70
70
70
70
70
70
70
70
70
70
70
70
70
70
70
70
70
70
70
70
70
70
70
70
70
70
70
70
70
70
70
70
70
70
70
70
70
70
70
70
70
70
70
70
70
70
70
70
70
70
70
70
70
70
70
70
70
70
70
70
70
70
70
70
70
70
70
70
70
70
70
70
70
70
70
70
70
70
70
70
70
70
70
70
70
70
70
70
70
70
70
70
70
70
70
70
70
70
70
70
70
70
70
70
70
70
70
70
70
70
70
70
70
70
70
70
70
70
70
70
70
70
70
70
70
70
70
70
70
70
70
70
70
70
70
70
70
70
70
70
70
70
70
70
70
70
70
70
70
70
70
70
70
70
70
70
70
70
70
70
70
70
70
70
70
70
70
70
70
70
70
70
70
70
70
70
70
70
70
70
70
70
70
70
70
70
70
70
70
70
70
70
70
70
70
70
70
70
70
70
70
70
70
70
70
70
70
70
70
70
70
70
70
70
70
70
70
70
70
70
70
70
70
70
70
70
70
70
70
70
70
70
70
70
70
70
70
70
70
70
70
70
70
70
70
70
70
70
70
70
70
70
70
70
70
70
70
70
70
70
70
70
70
70
70
70
70
70
70
70
70
70
70
70
70
70
70
70
70
70
70
70
70
70
70
70
70
70
70
70
70
70
70
70
70
70
70
70
70
70
70
70
70
70
70
70
70
70
70
70
70
70
70
70
70
70
70
70
70
70
70
70
70
70
70
70
70
70
70
70
70
70
70
70
70
70
70
70
70
70
70
70
70
70
70
70
70
70
70
70
70
70
70
70
70
70
70
70
70
70
70
70
70
70
70
70
70
70
70
70
70
70
70
70
70
70
70
70
70
70
70
70
70
70
70
70
70
70
70
70
70
70
70
70
70
70
70
70
70
70
70
70
70
70
70
70
70
70
70
70
70
70
70
70
70
70
70
70
70
70
70
70
70
70
70
70
70
70
70
70
70
70
70
70
70
70
70
70
70
70
70
70
70
70
70
70
70
70
70
70
70
70
70
70
70
70
70
70
70
70
70
70
70
70
70
70
70
70
70
70
70
70
70
70
70
70
70
70
70
70
70
70
70
70
70
70
70
70
70
70
70
70
70
70
70
70
70
70
70
70
70
70
70
70
70
70
70
70
70
70
70
70
70
70
70
70
70
70
70
70
70
70
70
70
70
70
70
70
70
70
70
70
70
70
70
70
70
70
70
70
70
70
70
70
70
70
70
70
70
70
70
70
70
70
70
70
70
70
70
70
70
70
70
70
70
70
70
70
70
70
70
70
70
70
70
70
70
70
70
70
70
70
70
70
70
70
70
70
70
70
70
70
70
70
70
70
70
70
70
70
70
70
70
70
70
70
70
70
70
70
70
70
70
70
70
70
70
70
70
70
70
70
70
70
70
70
70
70
70
70
70
70
70
70
70
70
70
70
70
70
70
70
70
70
70
70
70
70
70
70
70
70
70
70
70
70
70
70
70
70
70
70
70
70
70
70
70
70
70
70
70
70
70
70
70
70
70
70
70
70
70
70
70
70
70
70
70
70
70
70
70
70
70
70
70
70
70
70
70
70
70
70
70
70
70
70
70
70
70
70
70
70
70
70
70
70
70
70
70
70
70
70
70
70
70
70
70
70
70
70
70
70
70
70
70
70
70
70
70
70
70
70
70
70
70
70
70
70
70
70
70
70
70
70
70
70
70
70
70
70
70
70
70
70
70
70
70
70
70
70
70
70
70
70
70
70
70
70
70
70
70
70
70
70
70
70
70
70
70
70
70
70
70
70
70
70
70
70
70
70
70
70
70
70
70
70
70
70
70
70
70
70
70
70
70
70
70
70
70
70
70
70
70
70
70
70
70
70
70
70
70
70
70
70
70
70
70
70
70
70
70
70
70
70
70
70
70
70
70
70
70
70
70
70
70
70
70
70
70
70
70
70
70
70
70
70
70
70
70
70
70
70
70
70
70
70
70
70
70
70
70
70
70
70
70
70
70
70
70
70
70
70
70
70
70
70
70
70
70
70
70
70
70
70
70
70
70
70
70
70
70
70
70
70
70
70
70
70
70
70
70
70
70
70
70
70
70
70
70
70
70
70
70
70
70
70
70
70
70
70
70
70
70
70
70
70
70
70
70
70
70
70
70
70
70
70
70
70
70
70
70
70
70
70
70
70
70
70
70
70
70
70
70
70
70
70
70
70
70
70
70
70
70
70
70
70
70
70
70
70
70
70
70
70
70
70
70
70
70
70
70
70
70
70
70
70
70
70
70
70
70
70
70
70
70
70
70
70
70
70
70
70
70
70
70
70
70
70
70
70
70
70
70
70
70
70
70
70
70
70
70
70
70
70
70
70
70
70
70
70
70
70
70
70
70
70
70
70
70
70
70
70
70
70
70
70
70
70
70
70
70
70
70
70
70
70
70
70
70
70
70
70
70
70
70
70
      </DataArray>
    </Cells>
    <PointData>
      <DataArray type="Float64" NumberOfComponents="3" Name="Displacement" format="ascii">
0 0 0
-0.0130806 -0.00650149 -0.00650149
-0.00780309 -0.00218921 -0.00218921
0 0 0
-0.00712054 -0.00405804 -0.00405804
-0.00985444 -0.00392662 -0.00392662
-0.00378581 -0.00078289 -0.00078289
0 0 0
-0.00469896 -0.00173199 -0.00173199
-0.0130806 -0.00650149 -0.00650149
-0.0243974 -0.0112769 -0.0112769
-0.0162544 -0.00632729 -0.00632729
-0.00780309 -0.00218921 -0.00218921
-0.0187545 -0.00879893 -0.00879893
-0.0201223 -0.00855111 -0.00855111
-0.0119885 -0.00405832 -0.00405832
-0.00985444 -0.00392662 -0.00392662
-0.0150174 -0.00616971 -0.00616971
-0.0243974 -0.0112769 -0.0112769
-0.0358205 -0.0170396 -0.0170396
-0.0247827 -0.012015 -0.012015
-0.0162544 -0.00632729 -0.00632729
-0.0300881 -0.0139889 -0.0139889
-0.0302418 -0.0143365 -0.0143365
-0.0205234 -0.00897062 -0.00897062
-0.0201223 -0.00855111 -0.00855111
-0.0251948 -0.0112547 -0.0112547
-0.0358205 -0.0170396 -0.0170396
-0.047342 -0.0244609 -0.0244609
-0.0332711 -0.0194273 -0.0194273
-0.0247827 -0.012015 -0.012015
-0.0415723 -0.0205255 -0.0205255
-0.0402784 -0.0217442 -0.0217442
-0.0290338 -0.0154955 -0.0154955
-0.0302418 -0.0143365 -0.0143365
-0.0352667 -0.0178222 -0.0178222
-0.047342 -0.0244609 -0.0244609
-0.0589297 -0.0336933 -0.0336933
-0.0416923 -0.0286875 -0.0286875
-0.0332711 -0.0194273 -0.0194273
-0.0531308 -0.0288444 -0.0288444
-0.0502859 -0.0309921 -0.0309921
-0.0374895 -0.0238212 -0.0238212
-0.0402784 -0.0217442 -0.0217442
-0.0452849 -0.0261314 -0.0261314
-0.0589297 -0.0336933 -0.0336933
-0.0705272 -0.0448405 -0.0448405
-0.0500644 -0.0398663 -0.0398663
-0.0416923 -0.0286875 -0.0286875
-0.064729 -0.0390252 -0.0390252
-0.060266 -0.0421491 -0.0421491
-0.0458839 -0.0340351 -0.0340351
-0.0502859 -0.0309921 -0.0309921
-0.0552794 -0.0363298 -0.0363298
-0.0705272 -0.0448405 -0.0448405
-0.0821153 -0.0579162 -0.0579162
-0.0583923 -0.0529834 -0.0529834
-0.0500644 -0.0398663 -0.0398663
-0.0763236 -0.0511367 -0.0511367
-0.0702191 -0.0552444 -0.0552444
-0.0542335 -0.0461821 -0.0461821
-0.060266 -0.0421491 -0.0421491
-0.0652461 -0.0484538 -0.0484538
-0.0821153 -0.0579162 -0.0579162
-0.093674 -0.0729325 -0.0729325
-0.0666836 -0.0680438 -0.0680438
-0.0583923 -0.0529834 -0.0529834
-0.0878991 -0.0651819 -0.0651819
-0.0801401 -0.0702814 -0.0702814
-0.0625422 -0.0602709 -0.0602709
-0.0702191 -0.0552444 -0.0552444
-0.0751838 -0.0625205 -0.0625205
-0.093674 -0.0729325 -0.0729325
-0.105196 -0.0898817 -0.0898817
-0.0749412 -0.0850411 -0.0850411
-0.0666836 -0.0680438 -0.0680438
-0.0994398 -0.081166 -0.081166
-0.0900272 -0.0872548 -0.0872548
-0.0708165 -0.0763009 -0.0763009
-0.0801401 -0.0702814 -0.0702814
-0.085088 -0.0785266 -0.0785266
-0.105196 -0.0898817 -0.0898817
-0.116675 -0.108757 -0.108757
-0.083168 -0.103967 -0.103967
-0.0749412 -0.0850411 -0.0850411
-0.110941 -0.0990792 -0.0990792
-0.0998787 -0.106156 -0.106156
-0.0790583 -0.0942635 -0.0942635
-0.0900272 -0.0872548 -0.0872548
-0.0949574 -0.0964649 -0.0964649
-0.116675 -0.108757 -0.108757
-0.128111 -0.129547 -0.129547
-0.0913655 -0.12481 -0.12481
-0.083168 -0.103967 -0.103967
-0.122399 -0.118913 -0.118913
-0.109695 -0.126973 -0.126973
-0.0872703 -0.114149 -0.114149
-0.0998787 -0.106156 -0.106156
-0.104791 -0.116325 -0.116325
-0.128111 -0.129547 -0.129547
-0.139503 -0.152242 -0.152242
-0.0995356 -0.14756 -0.14756
-0.0913655 -0.12481 -0.12481
-0.133813 -0.140657 -0.140657
-0.119475 -0.149696 -0.149696
-0.0954539 -0.135947 -0.135947
-0.109695 -0.126973 -0.126973
-0.114589 -0.138097 -0.138097
-0.139503 -0.152242 -0.152242
-0.150852 -0.176831 -0.176831
-0.10768 -0.172206 -0.172206
-0.0995356 -0.14756 -0.14756
-0.145183 -0.1643 -0.1643
-0.129221 -0.174315 -0.174315
-0.103611 -0.159647 -0.159647
-0.119475 -0.149696 -0.149696
-0.124352 -0.16177 -0.16177
-0.150852 -0.176831 -0.176831
-0.162159 -0.203303 -0.203303
-0.115799 -0.198738 -0.198738
-0.10768 -0.172206 -0.172206
-0.156511 -0.189832 -0.189832
-0.138934 -0.200818 -0.200818
-0.111742 -0.185237 -0.185237
-0.129221 -0.174315 -0.174315
-0.134082 -0.187332 -0.187332
-0.162159 -0.203303 -0.203303
-0.173425 -0.231648 -0.231648
-0.123895 -0.227145 -0.227145
-0.115799 -0.198738 -0.198738
-0.167797 -0.217242 -0.217242
-0.148615 -0.229196 -0.229196
-0.11985 -0.212708 -0.212708
-0.138934 -0.200818 -0.200818
-0.143778 -0.214774 -0.214774
-0.173425 -0.231648 -0.231648
-0.184651 -0.261857 -0.261857
-0.131968 -0.257418 -0.257418
-0.123895 -0.227145 -0.227145
-0.179043 -0.24652 -0.24652
-0.158264 -0.259437 -0.259437
-0.127934 -0.242049 -0.242049
-0.148615 -0.229196 -0.229196
-0.153443 -0.244084 -0.244084
-0.184651 -0.261857 -0.261857
-0.195839 -0.293917 -0.293917
-0.140021 -0.289544 -0.289544
-0.131968 -0.257418 -0.257418
-0.190249 -0.277656 -0.277656
-0.167884 -0.291532 -0.291532
-0.135997 -0.27325 -0.27325
-0.158264 -0.259437 -0.259437
-0.163078 -0.275254 -0.275254
-0.195839 -0.293917 -0.293917
-0.206989 -0.32782 -0.32782
-0.148054 -0.323516 -0.323516
-0.140021 -0.289544 -0.289544
-0.201418 -0.310639 -0.310639
-0.177476 -0.32547 -0.32547
-0.14404 -0.3063 -0.3063
-0.167884 -0.291532 -0.291532
-0.172684 -0.308272 -0.308272
-0.206989 -0.32782 -0.32782
-0.218104 -0.363556 -0.363556
-0.156069 -0.359321 -0.359321
-0.148054 -0.323516 -0.323516
-0.212551 -0.34546 -0.34546
-0.18704 -0.361242 -0.361242
-0.152063 -0.34119 -0.34119
-0.177476 -0.32547 -0.32547
-0.182261 -0.343128 -0.343128
-0.218104 -0.363556 -0.363556
-0.229183 -0.401113 -0.401113
-0.164066 -0.39695 -0.39695
-0.156069 -0.359321 -0.359321
-0.223648 -0.382107 -0.382107
-0.196579 -0.398836 -0.398836
-0.160069 -0.377908 -0.377908
-0.18704 -0.361242 -0.361242
-0.191813 -0.379812 -0.379812
-0.229183 -0.401113 -0.401113
-0.240229 -0.440482 -0.440482
-0.172047 -0.436393 -0.436393
-0.164066 -0.39695 -0.39695
-0.23471 -0.420572 -0.420572
-0.206092 -0.438243 -0.438243
-0.168058 -0.416446 -0.416446
-0.196579 -0.398836 -0.398836
-0.201338 -0.418314 -0.418314
-0.240229 -0.440482 -0.440482
-0.251243 -0.481652 -0.481652
-0.180013 -0.47764 -0.47764
-0.172047 -0.436393 -0.436393
-0.24574 -0.460843 -0.460843
-0.215582 -0.479453 -0.479453
-0.176032 -0.456792 -0.456792
-0.206092 -0.438243 -0.438243
-0.21084 -0.458624 -0.458624
-0.251243 -0.481652 -0.481652
-0.262225 -0.524615 -0.524615
-0.187965 -0.520679 -0.520679
-0.180013 -0.47764 -0.47764
-0.256738 -0.50291 -0.50291
-0.225049 -0.522455 -0.522455
-0.183991 -0.498936 -0.498936
-0.215582 -0.479453 -0.479453
-0.220318 -0.500731 -0.500731
-0.262225 -0.524615 -0.524615
-0.273177 -0.569358 -0.569358
-0.195905 -0.565502 -0.565502
-0.187965 -0.520679 -0.520679
-0.267705 -0.546764 -0.546764
-0.234495 -0.567239 -0.567239
-0.191936 -0.542868 -0.542868
-0.225049 -0.522455 -0.522455
-0.229774 -0.544625 -0.544625
-0.273177 -0.569358 -0.569358
-0.2841 -0.615872 -0.615872
-0.203832 -0.612098 -0.612098
-0.195905 -0.565502 -0.565502
-0.278642 -0.592394 -0.592394
-0.24392 -0.613795 -0.613795
-0.19987 -0.588579 -0.588579
-0.234495 -0.567239 -0.567239
-0.23921 -0.590297 -0.590297
-0.2841 -0.615872 -0.615872
-0.294995 -0.664147 -0.664147
-0.211749 -0.660456 -0.660456
-0.203832 -0.612098 -0.612098
-0.289551 -0.63979 -0.63979
-0.253325 -0.662113 -0.662113
-0.207792 -0.636057 -0.636057
-0.24392 -0.613795 -0.613795
-0.248625 -0.637735 -0.637735
-0.294995 -0.664147 -0.664147
-0.305862 -0.714173 -0.714173
-0.219656 -0.710567 -0.710567
-0.211749 -0.660456 -0.660456
-0.300432 -0.688942 -0.688942
-0.262713 -0.712183 -0.712183
-0.215704 -0.685293 -0.685293
-0.253325 -0.662113 -0.662113
-0.258021 -0.68693 -0.68693
-0.305862 -0.714173 -0.714173
-0.316703 -0.765939 -0.765939
-0.227555 -0.76242 -0.76242
-0.219656 -0.710567 -0.710567
-0.311286 -0.739839 -0.739839
-0.272083 -0.763993 -0.763993
-0.223607 -0.736276 -0.736276
-0.262713 -0.712183 -0.712183
-0.2674 -0.737871 -0.737871
-0.316703 -0.765939 -0.765939
-0.32752 -0.819436 -0.819436
-0.235446 -0.816004 -0.816004
-0.227555 -0.76242 -0.76242
-0.322115 -0.792472 -0.792472
-0.281436 -0.817535 -0.817535
-0.231502 -0.788996 -0.788996
-0.272083 -0.763993 -0.763993
-0.276761 -0.790549 -0.790549
-0.32752 -0.819436 -0.819436
-0.338312 -0.874653 -0.874653
-0.24333 -0.871311 -0.871311
-0.235446 -0.816004 -0.816004
-0.332919 -0.84683 -0.84683
-0.290774 -0.872798 -0.872798
-0.239389 -0.843443 -0.843443
-0.281436 -0.817535 -0.817535
-0.286107 -0.844952 -0.844952
-0.338312 -0.874653 -0.874653
-0.349081 -0.931579 -0.931579
-0.251209 -0.928329 -0.928329
-0.24333 -0.871311 -0.871311
-0.343699 -0.902903 -0.902903
-0.300098 -0.929772 -0.929772
-0.24727 -0.899607 -0.899607
-0.290774 -0.872798 -0.872798
-0.295438 -0.901072 -0.901072
-0.349081 -0.931579 -0.931579
-0.359827 -0.990206 -0.990206
-0.259083 -0.987048 -0.987048
-0.251209 -0.928329 -0.928329
-0.354457 -0.960681 -0.960681
-0.309408 -0.988445 -0.988445
-0.255146 -0.957476 -0.957476
-0.300098 -0.929772 -0.929772
-0.304754 -0.958897 -0.958897
-0.359827 -0.990206 -0.990206
-0.370552 -1.05052 -1.05052
-0.266952 -1.04746 -1.04746
-0.259083 -0.987048 -0.987048
-0.365192 -1.02015 -1.02015
-0.318705 -1.04881 -1.04881
-0.263018 -1.01704 -1.01704
-0.309408 -0.988445 -0.988445
-0.314058 -1.01842 -1.01842
-0.370552 -1.05052 -1.05052
-0.381257 -1.11252 -1.11252
-0.274819 -1.10955 -1.10955
-0.266952 -1.04746 -1.04746
-0.375907 -1.08131 -1.08131
-0.327991 -1.11085 -1.11085
-0.270886 -1.07829 -1.07829
-0.318705 -1.04881 -1.04881
-0.323349 -1.07962 -1.07962
-0.381257 -1.11252 -1.11252
-0.391942 -1.17618 -1.17618
-0.282684 -1.17331 -1.17331
-0.274819 -1.10955 -1.10955
-0.386602 -1.14414 -1.14414
-0.337265 -1.17457 -1.17457
-0.278752 -1.14122 -1.14122
-0.327991 -1.11085 -1.11085
-0.332629 -1.1425 -1.1425
-0.391942 -1.17618 -1.17618
-0.402608 -1.2415 -1.2415
-0.290547 -1.23873 -1.23873
-0.282684 -1.17331 -1.17331
-0.397277 -1.20864 -1.20864
-0.34653 -1.23994 -1.23994
-0.286615 -1.20582 -1.20582
-0.337265 -1.17457 -1.17457
-0.341899 -1.20705 -1.20705
-0.402608 -1.2415 -1.2415
-0.413256 -1.30848 -1.30848
-0.29841 -1.30581 -1.30581
-0.290547 -1.23873 -1.23873
-0.407934 -1.27479 -1.27479
-0.355785 -1.30697 -1.30697
-0.294478 -1.27206 -1.27206
-0.34653 -1.23994 -1.23994
-0.351159 -1.27325 -1.27325
-0.413256 -1.30848 -1.30848
-0.423887 -1.37709 -1.37709
-0.306272 -1.37452 -1.37452
-0.29841 -1.30581 -1.30581
-0.418573 -1.34258 -1.34258
-0.365032 -1.37563 -1.37563
-0.302341 -1.33996 -1.33996
-0.355785 -1.30697 -1.30697
-0.36041 -1.34109 -1.34109
-0.423887 -1.37709 -1.37709
-0.434501 -1.44733 -1.44733
-0.314136 -1.44486 -1.44486
-0.306272 -1.37452 -1.37452
-0.429196 -1.412 -1.412
-0.374271 -1.44592 -1.44592
-0.310204 -1.40949 -1.40949
-0.365032 -1.37563 -1.37563
-0.369652 -1.41057 -1.41057
-0.434501 -1.44733 -1.44733
-0.4451 -1.51918 -1.51918
-0.322002 -1.51682 -1.51682
-0.314136 -1.44486 -1.44486
-0.439802 -1.48305 -1.48305
-0.383503 -1.51783 -1.51783
-0.318069 -1.48064 -1.48064
-0.374271 -1.44592 -1.44592
-0.378888 -1.48167 -1.48167
-0.4451 -1.51918 -1.51918
-0.455684 -1.59265 -1.59265
-0.32987 -1.59039 -1.59039
-0.322002 -1.51682 -1.51682
-0.450394 -1.55572 -1.55572
-0.392729 -1.59135 -1.59135
-0.325936 -1.5534 -1.5534
-0.383503 -1.51783 -1.51783
-0.388117 -1.55439 -1.55439
-0.455684 -1.59265 -1.59265
-0.466253 -1.66771 -1.66771
-0.337742 -1.66556 -1.66556
-0.32987 -1.59039 -1.59039
-0.46097 -1.62998 -1.62998
-0.40195 -1.66647 -1.66647
-0.333806 -1.62778 -1.62778
-0.392729 -1.59135 -1.59135
-0.39734 -1.62871 -1.62871
-0.466253 -1.66771 -1.66771
-0.47681 -1.74436 -1.74436
-0.345618 -1.74232 -1.74232
-0.337742 -1.66556 -1.66556
-0.471533 -1.70584 -1.70584
-0.411166 -1.74317 -1.74317
-0.341679 -1.70374 -1.70374
-0.40195 -1.66647 -1.66647
-0.406558 -1.70462 -1.70462
-0.47681 -1.74436 -1.74436
-0.487353 -1.82259 -1.82259
-0.353498 -1.82065 -1.82065
-0.345618 -1.74232 -1.74232
-0.482083 -1.78328 -1.78328
-0.420377 -1.82145 -1.82145
-0.349557 -1.78129 -1.78129
-0.411166 -1.74317 -1.74317
-0.415772 -1.78212 -1.78212
-0.487353 -1.82259 -1.82259
-0.497884 -1.90238 -1.90238
-0.361383 -1.90056 -1.90056
-0.353498 -1.82065 -1.82065
-0.49262 -1.86229 -1.86229
-0.429586 -1.90131 -1.90131
-0.35744 -1.86041 -1.86041
-0.420377 -1.82145 -1.82145
-0.424982 -1.86118 -1.86118
-0.497884 -1.90238 -1.90238
-0.508404 -1.98374 -1.98374
-0.369275 -1.98202 -1.98202
-0.361383 -1.90056 -1.90056
-0.503145 -1.94287 -1.94287
-0.438791 -1.98271 -1.98271
-0.365328 -1.9411 -1.9411
-0.429586 -1.90131 -1.90131
-0.434189 -1.94182 -1.94182
-0.508404 -1.98374 -1.98374
-0.518913 -2.06664 -2.06664
-0.377173 -2.06503 -2.06503
-0.369275 -1.98202 -1.98202
-0.51366 -2.02499 -2.02499
-0.447994 -2.06567 -2.06567
-0.373223 -2.02333 -2.02333
-0.438791 -1.98271 -1.98271
-0.443393 -2.024 -2.024
-0.518913 -2.06664 -2.06664
-0.529411 -2.15107 -2.15107
-0.385078 -2.14958 -2.14958
-0.377173 -2.06503 -2.06503
-0.524163 -2.10866 -2.10866
-0.457196 -2.15016 -2.15016
-0.381124 -2.10711 -2.10711
-0.447994 -2.06567 -2.06567
-0.452596 -2.10772 -2.10772
-0.529411 -2.15107 -2.15107
-0.5399 -2.23703 -2.23703
-0.392991 -2.23566 -2.23566
-0.385078 -2.14958 -2.14958
-0.534657 -2.19386 -2.19386
-0.466397 -2.23618 -2.23618
-0.389034 -2.19243 -2.19243
-0.457196 -2.15016 -2.15016
-0.461797 -2.19298 -2.19298
-0.5399 -2.23703 -2.23703
-0.55038 -2.32451 -2.32451
-0.400912 -2.32325 -2.32325
-0.392991 -2.23566 -2.23566
-0.545141 -2.28058 -2.28058
-0.475598 -2.32372 -2.32372
-0.396951 -2.27926 -2.27926
-0.466397 -2.23618 -2.23618
-0.470997 -2.27976 -2.27976
-0.55038 -2.32451 -2.32451
-0.560851 -2.41349 -2.41349
-0.408843 -2.41235 -2.41235
-0.400912 -2.32325 -2.32325
-0.555616 -2.36881 -2.36881
-0.484798 -2.41276 -2.41276
-0.404876 -2.36761 -2.36761
-0.475598 -2.32372 -2.32372
-0.480198 -2.36805 -2.36805
-0.560851 -2.41349 -2.41349
-0.571314 -2.50397 -2.50397
-0.416782 -2.50294 -2.50294
-0.408843 -2.41235 -2.41235
-0.566084 -2.45855 -2.45855
-0.494 -2.5033 -2.5033
-0.412811 -2.45746 -2.45746
-0.484798 -2.41276 -2.41276
-0.489399 -2.45784 -2.45784
-0.571314 -2.50397 -2.50397
-0.58177 -2.59594 -2.59594
-0.424732 -2.59503 -2.59503
-0.416782 -2.50294 -2.50294
-0.576543 -2.54977 -2.54977
-0.503202 -2.59532 -2.59532
-0.420756 -2.5488 -2.5488
-0.494 -2.5033 -2.5033
-0.498601 -2.54913 -2.54913
-0.58177 -2.59594 -2.59594
-0.592218 -2.68938 -2.68938
-0.432692 -2.68858 -2.68858
-0.424732 -2.59503 -2.59503
-0.586995 -2.64247 -2.64247
-0.512407 -2.68882 -2.68882
-0.428711 -2.64162 -2.64162
-0.503202 -2.59532 -2.59532
-0.507804 -2.64189 -2.64189
-0.592218 -2.68938 -2.68938
-0.602661 -2.78428 -2.78428
-0.440663 -2.78361 -2.78361
-0.432692 -2.68858 -2.68858
-0.59744 -2.73665 -2.73665
-0.521613 -2.78379 -2.78379
-0.436676 -2.73591 -2.73591
-0.512407 -2.68882 -2.68882
-0.51701 -2.73612 -2.73612
-0.602661 -2.78428 -2.78428
-0.613097 -2.88064 -2.88064
-0.448646 -2.88009 -2.88009
-0.440663 -2.78361 -2.78361
-0.607879 -2.83228 -2.83228
-0.530822 -2.88021 -2.88021
-0.444653 -2.83167 -2.83167
-0.521613 -2.78379 -2.78379
-0.526217 -2.83182 -2.83182
-0.613097 -2.88064 -2.88064
-0.623527 -2.97845 -2.97845
-0.45664 -2.97801 -2.97801
-0.448646 -2.88009 -2.88009
-0.618312 -2.92937 -2.92937
-0.540035 -2.97808 -2.97808
-0.452641 -2.92887 -2.92887
-0.530822 -2.88021 -2.88021
-0.535428 -2.92896 -2.92896
-0.623527 -2.97845 -2.97845
-0.633952 -3.07769 -3.07769
-0.464646 -3.07737 -3.07737
-0.45664 -2.97801 -2.97801
-0.62874 -3.02789 -3.02789
-0.549251 -3.07738 -3.07738
-0.460642 -3.02752 -3.02752
-0.540035 -2.97808 -2.97808
-0.544642 -3.02755 -3.02755
-0.633952 -3.07769 -3.07769
-0.644373 -3.17835 -3.17835
-0.472666 -3.17816 -3.17816
-0.464646 -3.07737 -3.07737
-0.639163 -3.12784 -3.12784
-0.55847 -3.1781 -3.1781
-0.468654 -3.12759 -3.12759
-0.549251 -3.07738 -3.07738
-0.55386 -3.12756 -3.12756
-0.644373 -3.17835 -3.17835
-0.654789 -3.28043 -3.28043
-0.480698 -3.28036 -3.28036
-0.472666 -3.17816 -3.17816
-0.649581 -3.22921 -3.22921
-0.567694 -3.28024 -3.28024
-0.47668 -3.22908 -3.22908
-0.55847 -3.1781 -3.1781
-0.563082 -3.229 -3.229
-0.654789 -3.28043 -3.28043
-0.665201 -3.38391 -3.38391
-0.488743 -3.38396 -3.38396
-0.480698 -3.28036 -3.28036
-0.659995 -3.33199 -3.33199
-0.576923 -3.38379 -3.38379
-0.484719 -3.33199 -3.33199
-0.567694 -3.28024 -3.28024
-0.572308 -3.33184 -3.33184
-0.665201 -3.38391 -3.38391
-0.675609 -3.48879 -3.48879
-0.496803 -3.48896 -3.48896
-0.488743 -3.38396 -3.38396
-0.670405 -3.43617 -3.43617
-0.586157 -3.48873 -3.48873
-0.492771 -3.43629 -3.43629
-0.576923 -3.38379 -3.38379
-0.581539 -3.43608 -3.43608
-0.675609 -3.48879 -3.48879
-0.686014 -3.59504 -3.59504
-0.504876 -3.59535 -3.59535
-0.496803 -3.48896 -3.48896
-0.680812 -3.54174 -3.54174
-0.595396 -3.59505 -3.59505
-0.500838 -3.54198 -3.54198
-0.586157 -3.48873 -3.48873
-0.590776 -3.54172 -3.54172
-0.686014 -3.59504 -3.59504
-0.696416 -3.70268 -3.70268
-0.512964 -3.7031 -3.7031
-0.504876 -3.59535 -3.59535
-0.691215 -3.64869 -3.64869
-0.604641 -3.70274 -3.70274
-0.508919 -3.64905 -3.64905
-0.595396 -3.59505 -3.59505
-0.600018 -3.64873 -3.64873
-0.696416 -3.70268 -3.70268
-0.706815 -3.81167 -3.81167
-0.521067 -3.81222 -3.81222
-0.512964 -3.7031 -3.7031
-0.701616 -3.757 -3.757
-0.613892 -3.8118 -3.8118
-0.517014 -3.75749 -3.75749
-0.604641 -3.70274 -3.70274
-0.609266 -3.7571 -3.7571
-0.706815 -3.81167 -3.81167
-0.717212 -3.92202 -3.92202
-0.529185 -3.9227 -3.9227
-0.521067 -3.81222 -3.81222
-0.712014 -3.86668 -3.86668
-0.62315 -3.92222 -3.92222
-0.525124 -3.86729 -3.86729
-0.613892 -3.8118 -3.8118
-0.61852 -3.86684 -3.86684
-0.717212 -3.92202 -3.92202
-0.727607 -4.03371 -4.03371
-0.537318 -4.03451 -4.03451
-0.529185 -3.9227 -3.9227
-0.72241 -3.9777 -3.9777
-0.632413 -4.03397 -4.03397
-0.53325 -3.97844 -3.97844
-0.62315 -3.92222 -3.92222
-0.627781 -3.97793 -3.97793
-0.727607 -4.03371 -4.03371
-0.738 -4.14673 -4.14673
-0.545467 -4.14766 -4.14766
-0.537318 -4.03451 -4.03451
-0.732804 -4.09005 -4.09005
-0.641684 -4.14706 -4.14706
-0.541391 -4.09092 -4.09092
-0.632413 -4.03397 -4.03397
-0.637048 -4.09035 -4.09035
-0.738 -4.14673 -4.14673
-0.748391 -4.26108 -4.26108
-0.553631 -4.26214 -4.26214
-0.545467 -4.14766 -4.14766
-0.743196 -4.20374 -4.20374
-0.650962 -4.26147 -4.26147
-0.549547 -4.20473 -4.20473
-0.641684 -4.14706 -4.14706
-0.646322 -4.2041 -4.2041
-0.748391 -4.26108 -4.26108
-0.758781 -4.37673 -4.37673
-0.561812 -4.37792 -4.37792
-0.553631 -4.26214 -4.26214
-0.753586 -4.31874 -4.31874
-0.660247 -4.37719 -4.37719
-0.55772 -4.31986 -4.31986
-0.650962 -4.26147 -4.26147
-0.655604 -4.31916 -4.31916
-0.758781 -4.37673 -4.37673
-0.76917 -4.49369 -4.49369
-0.570009 -4.49501 -4.49501
-0.561812 -4.37792 -4.37792
-0.763975 -4.43505 -4.43505
-0.66954 -4.49421 -4.49421
-0.565908 -4.4363 -4.4363
-0.660247 -4.37719 -4.37719
-0.664893 -4.43554 -4.43554
-0.76917 -4.49369 -4.49369
-0.779557 -4.61194 -4.61194
-0.578222 -4.61338 -4.61338
-0.570009 -4.49501 -4.49501
-0.774364 -4.55266 -4.55266
-0.67884 -4.61253 -4.61253
-0.574113 -4.55403 -4.55403
-0.66954 -4.49421 -4.49421
-0.674189 -4.55321 -4.55321
-0.779557 -4.61194 -4.61194
-0.789944 -4.73147 -4.73147
-0.586452 -4.73304 -4.73304
-0.578222 -4.61338 -4.61338
-0.784751 -4.67155 -4.67155
-0.688149 -4.73212 -4.73212
-0.582335 -4.67305 -4.67305
-0.67884 -4.61253 -4.61253
-0.683494 -4.67217 -4.67217
-0.789944 -4.73147 -4.73147
-0.80033 -4.85228 -4.85228
-0.594698 -4.85398 -4.85398
-0.586452 -4.73304 -4.73304
-0.795137 -4.79172 -4.79172
-0.697465 -4.85299 -4.85299
-0.590573 -4.79335 -4.79335
-0.688149 -4.73212 -4.73212
-0.692806 -4.7924 -4.7924
-0.80033 -4.85228 -4.85228
-0.810716 -4.97434 -4.97434
-0.602962 -4.97617 -4.97617
-0.594698 -4.85398 -4.85398
-0.805523 -4.91315 -4.91315
-0.70679 -4.97512 -4.97512
-0.598828 -4.91491 -4.91491
-0.697465 -4.85299 -4.85299
-0.702127 -4.9139 -4.9139
-0.810716 -4.97434 -4.97434
-0.821101 -5.09766 -5.09766
-0.611243 -5.09961 -5.09961
-0.602962 -4.97617 -4.97617
-0.815909 -5.03584 -5.03584
-0.716123 -5.0985 -5.0985
-0.6071 -5.03773 -5.03773
-0.70679 -4.97512 -4.97512
-0.711455 -5.03666 -5.03666
-0.821101 -5.09766 -5.09766
-0.831487 -5.22221 -5.22221
-0.619541 -5.2243 -5.2243
-0.611243 -5.09961 -5.09961
-0.826294 -5.15978 -5.15978
-0.725464 -5.22312 -5.22312
-0.615389 -5.1618 -5.1618
-0.716123 -5.0985 -5.0985
-0.720793 -5.16066 -5.16066
-0.831487 -5.22221 -5.22221
-0.841871 -5.348 -5.348
-0.627856 -5.35021 -5.35021
-0.619541 -5.2243 -5.2243
-0.836679 -5.28495 -5.28495
-0.734814 -5.34897 -5.34897
-0.623696 -5.2871 -5.2871
-0.725464 -5.22312 -5.22312
-0.730138 -5.2859 -5.2859
-0.841871 -5.348 -5.348
-0.852256 -5.475 -5.475
-0.636188 -5.47734 -5.47734
-0.627856 -5.35021 -5.35021
-0.847064 -5.41135 -5.41135
-0.744173 -5.47605 -5.47605
-0.63202 -5.41363 -5.41363
-0.734814 -5.34897 -5.34897
-0.739493 -5.41236 -5.41236
-0.852256 -5.475 -5.475
-0.862641 -5.60322 -5.60322
-0.644538 -5.60569 -5.60569
-0.636188 -5.47734 -5.47734
-0.857449 -5.53896 -5.53896
-0.75354 -5.60433 -5.60433
-0.640361 -5.54137 -5.54137
-0.744173 -5.47605 -5.47605
-0.748856 -5.54004 -5.54004
-0.862641 -5.60322 -5.60322
-0.873026 -5.73263 -5.73263
-0.652905 -5.73523 -5.73523
-0.644538 -5.60569 -5.60569
-0.867834 -5.66777 -5.66777
-0.762917 -5.73381 -5.73381
-0.648719 -5.67031 -5.67031
-0.75354 -5.60433 -5.60433
-0.758227 -5.66892 -5.66892
-0.873026 -5.73263 -5.73263
-0.883411 -5.86324 -5.86324
-0.66129 -5.86597 -5.86597
-0.652905 -5.73523 -5.73523
-0.878219 -5.79779 -5.79779
-0.772302 -5.86448 -5.86448
-0.657096 -5.80045 -5.80045
-0.762917 -5.73381 -5.73381
-0.767608 -5.79899 -5.79899
-0.883411 -5.86324 -5.86324
-0.893796 -5.99502 -5.99502
-0.669693 -5.99788 -5.99788
-0.66129 -5.86597 -5.86597
-0.888604 -5.92898 -5.92898
-0.781695 -5.99633 -5.99633
-0.665489 -5.93178 -5.93178
-0.772302 -5.86448 -5.86448
-0.776997 -5.93026 -5.93026
-0.893796 -5.99502 -5.99502
-0.904182 -6.12797 -6.12797
-0.678113 -6.13096 -6.13096
-0.669693 -5.99788 -5.99788
-0.898989 -6.06135 -6.06135
-0.791098 -6.12935 -6.12935
-0.673901 -6.06428 -6.06428
-0.781695 -5.99633 -5.99633
-0.786396 -6.06269 -6.06269
-0.904182 -6.12797 -6.12797
-0.914567 -6.26208 -6.26208
-0.686551 -6.2652 -6.2652
-0.678113 -6.13096 -6.13096
-0.909375 -6.19488 -6.19488
-0.80051 -6.26352 -6.26352
-0.682329 -6.19794 -6.19794
-0.791098 -6.12935 -6.12935
-0.795803 -6.19629 -6.19629
-0.914567 -6.26208 -6.26208
-0.924953 -6.39734 -6.39734
-0.695006 -6.40059 -6.40059
-0.686551 -6.2652 -6.2652
-0.91976 -6.32957 -6.32957
-0.80993 -6.39885 -6.39885
-0.690776 -6.33276 -6.33276
-0.80051 -6.26352 -6.26352
-0.805219 -6.33104 -6.33104
-0.924953 -6.39734 -6.39734
-0.935339 -6.53374 -6.53374
-0.703478 -6.53712 -6.53712
-0.695006 -6.40059 -6.40059
-0.930146 -6.4654 -6.4654
-0.819359 -6.53531 -6.53531
-0.69924 -6.46872 -6.46872
-0.80993 -6.39885 -6.39885
-0.814644 -6.46694 -6.46694
-0.935339 -6.53374 -6.53374
-0.945725 -6.67127 -6.67127
-0.711969 -6.67478 -6.67478
-0.703478 -6.53712 -6.53712
-0.940532 -6.60236 -6.60236
-0.828797 -6.67291 -6.67291
-0.707721 -6.60581 -6.60581
-0.819359 -6.53531 -6.53531
-0.824077 -6.60397 -6.60397
-0.945725 -6.67127 -6.67127
-0.956111 -6.80991 -6.80991
-0.720476 -6.81355 -6.81355
-0.711969 -6.67478 -6.67478
-0.950918 -6.74045 -6.74045
-0.838244 -6.81162 -6.81162
-0.71622 -6.74403 -6.74403
-0.828797 -6.67291 -6.67291
-0.83352 -6.74212 -6.74212
-0.956111 -6.80991 -6.80991
-0.966496 -6.94967 -6.94967
-0.729001 -6.95343 -6.95343
-0.720476 -6.81355 -6.81355
-0.961304 -6.87965 -6.87965
-0.8477 -6.95143 -6.95143
-0.724737 -6.88336 -6.88336
-0.838244 -6.81162 -6.81162
-0.842971 -6.88139 -6.88139
-0.966496 -6.94967 -6.94967
-0.976882 -7.09052 -7.09052
-0.737544 -7.09441 -7.09441
-0.729001 -6.95343 -6.95343
-0.971689 -7.01995 -7.01995
-0.857164 -7.09235 -7.09235
-0.73327 -7.02379 -7.02379
-0.8477 -6.95143 -6.95143
-0.852431 -7.02176 -7.02176
-0.976882 -7.09052 -7.09052
-0.987268 -7.23245 -7.23245
-0.746103 -7.23648 -7.23648
-0.737544 -7.09441 -7.09441
-0.982075 -7.16135 -7.16135
-0.866636 -7.23435 -7.23435
-0.741821 -7.16531 -7.16531
-0.857164 -7.09235 -7.09235
-0.861899 -7.16322 -7.16322
-0.987268 -7.23245 -7.23245
-0.997653 -7.37547 -7.37547
-0.75468 -7.37962 -7.37962
-0.746103 -7.23648 -7.23648
-0.99246 -7.30383 -7.30383
-0.876117 -7.37743 -7.37743
-0.750389 -7.30792 -7.30792
-0.866636 -7.23435 -7.23435
-0.871376 -7.30576 -7.30576
-0.997653 -7.37547 -7.37547
-1.00804 -7.51955 -7.51955
-0.763273 -7.52383 -7.52383
-0.75468 -7.37962 -7.37962
-1.00285 -7.44738 -7.44738
-0.885606 -7.52158 -7.52158
-0.758974 -7.45159 -7.45159
-0.876117 -7.37743 -7.37743
-0.880861 -7.44937 -7.44937
-1.00804 -7.51955 -7.51955
-1.01842 -7.66469 -7.66469
-0.771884 -7.6691 -7.6691
-0.763273 -7.52383 -7.52383
-1.01323 -7.59199 -7.59199
-0.895103 -7.66678 -7.66678
-0.767576 -7.59633 -7.59633
-0.885606 -7.52158 -7.52158
-0.890354 -7.59405 -7.59405
-1.01842 -7.66469 -7.66469
-1.02881 -7.81087 -7.81087
-0.780511 -7.81541 -7.81541
-0.771884 -7.6691 -7.6691
-1.02361 -7.73765 -7.73765
-0.904609 -7.81303 -7.81303
-0.776195 -7.74212 -7.74212
-0.895103 -7.66678 -7.66678
-0.899855 -7.73978 -7.73978
-1.02881 -7.81087 -7.81087
-1.03919 -7.95809 -7.95809
-0.789154 -7.96276 -7.96276
-0.780511 -7.81541 -7.81541
-1.034 -7.88435 -7.88435
-0.914122 -7.96032 -7.96032
-0.78483 -7.88896 -7.88896
-0.904609 -7.81303 -7.81303
-0.909364 -7.88655 -7.88655
-1.03919 -7.95809 -7.95809
-1.04957 -8.10634 -8.10634
-0.797814 -8.11113 -8.11113
-0.789154 -7.96276 -7.96276
-1.04438 -8.03209 -8.03209
-0.923642 -8.10863 -8.10863
-0.793482 -8.03682 -8.03682
-0.914122 -7.96032 -7.96032
-0.918881 -8.03435 -8.03435
-1.04957 -8.10634 -8.10634
-1.05995 -8.2556 -8.2556
-0.80649 -8.26052 -8.26052
-0.797814 -8.11113 -8.11113
-1.05476 -8.18084 -8.18084
-0.93317 -8.25796 -8.25796
-0.80215 -8.1857 -8.1857
-0.923642 -8.10863 -8.10863
-0.928405 -8.18317 -8.18317
-1.05995 -8.2556 -8.2556
-1.07033 -8.40587 -8.40587
-0.815182 -8.41092 -8.41092
-0.80649 -8.26052 -8.26052
-1.06514 -8.33061 -8.33061
-0.942706 -8.40829 -8.40829
-0.810834 -8.3356 -8.3356
-0.93317 -8.25796 -8.25796
-0.937937 -8.333 -8.333
-1.07033 -8.40587 -8.40587
-1.0807 -8.55713 -8.55713
-0.823889 -8.56231 -8.56231
-0.815182 -8.41092 -8.41092
-1.07552 -8.48138 -8.48138
-0.952248 -8.55962 -8.55962
-0.819534 -8.48649 -8.48649
-0.942706 -8.40829 -8.40829
-0.947476 -8.48383 -8.48383
-1.0807 -8.55713 -8.55713
-1.09108 -8.70938 -8.70938
-0.832613 -8.71468 -8.71468
-0.823889 -8.56231 -8.56231
-1.08589 -8.63314 -8.63314
-0.961797 -8.71193 -8.71193
-0.828249 -8.63837 -8.63837
-0.952248 -8.55962 -8.55962
-0.957022 -8.63565 -8.63565
-1.09108 -8.70938 -8.70938
-1.10145 -8.86261 -8.86261
-0.841351 -8.86803 -8.86803
-0.832613 -8.71468 -8.71468
-1.09627 -8.78588 -8.78588
-0.971353 -8.86522 -8.86522
-0.83698 -8.79124 -8.79124
-0.961797 -8.71193 -8.71193
-0.966575 -8.78846 -8.78846
-1.10145 -8.86261 -8.86261
-1.11182 -9.0168 -9.0168
-0.850105 -9.02235 -9.02235
-0.841351 -8.86803 -8.86803
-1.10664 -8.93958 -8.93958
-0.980915 -9.01947 -9.01947
-0.845726 -8.94507 -8.94507
-0.971353 -8.86522 -8.86522
-0.976134 -8.94223 -8.94223
-1.11182 -9.0168 -9.0168
-1.12219 -9.17194 -9.17194
-0.858873 -9.17762 -9.17762
-0.850105 -9.02235 -9.02235
-1.11701 -9.09425 -9.09425
-0.990484 -9.17468 -9.17468
-0.854487 -9.09986 -9.09986
-0.980915 -9.01947 -9.01947
-0.985699 -9.09696 -9.09696
-1.12219 -9.17194 -9.17194
-1.13256 -9.32803 -9.32803
-0.867656 -9.33383 -9.33383
-0.858873 -9.17762 -9.17762
-1.12738 -9.24987 -9.24987
-1.00006 -9.33083 -9.33083
-0.863262 -9.25561 -9.25561
-0.990484 -9.17468 -9.17468
-0.99527 -9.25264 -9.25264
-1.13256 -9.32803 -9.32803
-1.14292 -9.48505 -9.48505
-0.876453 -9.49097 -9.49097
-0.867656 -9.33383 -9.33383
-1.13774 -9.40642 -9.40642
-1.00964 -9.48792 -9.48792
-0.872052 -9.41229 -9.41229
-1.00006 -9.33083 -9.33083
-1.00485 -9.40926 -9.40926
-1.14292 -9.48505 -9.48505
-1.15328 -9.643 -9.643
-0.885264 -9.64904 -9.64904
-0.876453 -9.49097 -9.49097
-1.1481 -9.56391 -9.56391
-1.01922 -9.64593 -9.64593
-0.880856 -9.56989 -9.56989
-1.00964 -9.48792 -9.48792
-1.01443 -9.56681 -9.56681
-1.15328 -9.643 -9.643
-1.16363 -9.80186 -9.80186
-0.894088 -9.80803 -9.80803
-0.885264 -9.64904 -9.64904
-1.15846 -9.72232 -9.72232
-1.02881 -9.80485 -9.80485
-0.889674 -9.72842 -9.72842
-1.01922 -9.64593 -9.64593
-1.02402 -9.72527 -9.72527
-1.16363 -9.80186 -9.80186
-1.17398 -9.96162 -9.96162
-0.902926 -9.96791 -9.96791
-0.894088 -9.80803 -9.80803
-1.16881 -9.88163 -9.88163
-1.03841 -9.96467 -9.96467
-0.898505 -9.88786 -9.88786
-1.02881 -9.80485 -9.80485
-1.03361 -9.88465 -9.88465
-1.17398 -9.96162 -9.96162
-1.18433 -10.1223 -10.1223
-0.911777 -10.1287 -10.1287
-0.902926 -9.96791 -9.96791
-1.17916 -10.0418 -10.0418
-1.04801 -10.1254 -10.1254
-0.90735 -10.0482 -10.0482
-1.03841 -9.96467 -9.96467
-1.04321 -10.0449 -10.0449
-1.18433 -10.1223 -10.1223
-1.19467 -10.2838 -10.2838
-0.92064 -10.2904 -10.2904
-0.911777 -10.1287 -10.1287
-1.1895 -10.2029 -10.2029
-1.05761 -10.287 -10.287
-0.916207 -10.2094 -10.2094
-1.04801 -10.1254 -10.1254
-1.05281 -10.2061 -10.2061
-1.19467 -10.2838 -10.2838
-1.20501 -10.4462 -10.4462
-0.929516 -10.4529 -10.4529
-0.92064 -10.2904 -10.2904
-1.19984 -10.3649 -10.3649
-1.06721 -10.4495 -10.4495
-0.925077 -10.3715 -10.3715
-1.05761 -10.287 -10.287
-1.06241 -10.3681 -10.3681
-1.20501 -10.4462 -10.4462
-1.21534 -10.6095 -10.6095
-0.938404 -10.6163 -10.6163
-0.929516 -10.4529 -10.4529
-1.21018 -10.5278 -10.5278
-1.07682 -10.6128 -10.6128
-0.933959 -10.5345 -10.5345
-1.06721 -10.4495 -10.4495
-1.07202 -10.531 -10.531
-1.21534 -10.6095 -10.6095
-1.22567 -10.7736 -10.7736
-0.947303 -10.7805 -10.7805
-0.938404 -10.6163 -10.6163
-1.2205 -10.6915 -10.6915
-1.08644 -10.777 -10.777
-0.942852 -10.6983 -10.6983
-1.07682 -10.6128 -10.6128
-1.08163 -10.6948 -10.6948
-1.22567 -10.7736 -10.7736
-1.23598 -10.9386 -10.9386
-0.956214 -10.9456 -10.9456
-0.947303 -10.7805 -10.7805
-1.23083 -10.856 -10.856
-1.09605 -10.942 -10.942
-0.951757 -10.863 -10.863
-1.08644 -10.777 -10.777
-1.09124 -10.8594 -10.8594
-1.23598 -10.9386 -10.9386
-1.2463 -11.1044 -11.1044
-0.965135 -11.1115 -11.1115
-0.956214 -10.9456 -10.9456
-1.24114 -11.0214 -11.0214
-1.10567 -11.1079 -11.1079
-0.960673 -11.0285 -11.0285
-1.09605 -10.942 -10.942
-1.10086 -11.0249 -11.0249
-1.2463 -11.1044 -11.1044
-1.2566 -11.271 -11.271
-0.974067 -11.2783 -11.2783
-0.965135 -11.1115 -11.1115
-1.25145 -11.1876 -11.1876
-1.11529 -11.2746 -11.2746
-0.9696 -11.1948 -11.1948
-1.10567 -11.1079 -11.1079
-1.11048 -11.1911 -11.1911
-1.2566 -11.271 -11.271
-1.2669 -11.4385 -11.4385
-0.983009 -11.4458 -11.4458
-0.974067 -11.2783 -11.2783
-1.26175 -11.3547 -11.3547
-1.12491 -11.4421 -11.4421
-0.978537 -11.362 -11.362
-1.11529 -11.2746 -11.2746
-1.1201 -11.3582 -11.3582
-1.2669 -11.4385 -11.4385
-1.27719 -11.6067 -11.6067
-0.99196 -11.6142 -11.6142
-0.983009 -11.4458 -11.4458
-1.27205 -11.5225 -11.5225
-1.13453 -11.6104 -11.6104
-0.987483 -11.5299 -11.5299
-1.12491 -11.4421 -11.4421
-1.12972 -11.5261 -11.5261
-1.27719 -11.6067 -11.6067
-1.28747 -11.7757 -11.7757
-1.00092 -11.7833 -11.7833
-0.99196 -11.6142 -11.6142
-1.28233 -11.6911 -11.6911
-1.14415 -11.7795 -11.7795
-0.996439 -11.6987 -11.6987
-1.13453 -11.6104 -11.6104
-1.13934 -11.6948 -11.6948
-1.28747 -11.7757 -11.7757
-1.29775 -11.9456 -11.9456
-1.00989 -11.9533 -11.9533
-1.00092 -11.7833 -11.7833
-1.29261 -11.8605 -11.8605
-1.15377 -11.9493 -11.9493
-1.0054 -11.8682 -11.8682
-1.14415 -11.7795 -11.7795
-1.14896 -11.8643 -11.8643
-1.29775 -11.9456 -11.9456
-1.30801 -12.1161 -12.1161
-1.01887 -12.1239 -12.1239
-1.00989 -11.9533 -11.9533
-1.30288 -12.0307 -12.0307
-1.16339 -12.12 -12.12
-1.01438 -12.0385 -12.0385
-1.15377 -11.9493 -11.9493
-1.15858 -12.0345 -12.0345
-1.30801 -12.1161 -12.1161
-1.31827 -12.2875 -12.2875
-1.02785 -12.2954 -12.2954
-1.01887 -12.1239 -12.1239
-1.31314 -12.2017 -12.2017
-1.17301 -12.2914 -12.2914
-1.02336 -12.2096 -12.2096
-1.16339 -12.12 -12.12
-1.1682 -12.2056 -12.2056
-1.31827 -12.2875 -12.2875
-1.32851 -12.4596 -12.4596
-1.03685 -12.4676 -12.4676
-1.02785 -12.2954 -12.2954
-1.32339 -12.3734 -12.3734
-1.18263 -12.4635 -12.4635
-1.03235 -12.3814 -12.3814
-1.17301 -12.2914 -12.2914
-1.17782 -12.3773 -12.3773
-1.32851 -12.4596 -12.4596
-1.33875 -12.6324 -12.6324
-1.04585 -12.6405 -12.6405
-1.03685 -12.4676 -12.4676
-1.33363 -12.5459 -12.5459
-1.19225 -12.6364 -12.6364
-1.04134 -12.554 -12.554
-1.18263 -12.4635 -12.4635
-1.18744 -12.5499 -12.5499
-1.33875 -12.6324 -12.6324
-1.34897 -12.806 -12.806
-1.05485 -12.8142 -12.8142
-1.04585 -12.6405 -12.6405
-1.34386 -12.7191 -12.7191
-1.20186 -12.81 -12.81
-1.05035 -12.7273 -12.7273
-1.19225 -12.6364 -12.6364
-1.19706 -12.7231 -12.7231
-1.34897 -12.806 -12.806
-1.35918 -12.9802 -12.9802
-1.06386 -12.9886 -12.9886
-1.05485 -12.8142 -12.8142
-1.35408 -12.893 -12.893
-1.21148 -12.9844 -12.9844
-1.05936 -12.9013 -12.9013
-1.20186 -12.81 -12.81
-1.20667 -12.8971 -12.8971
-1.35918 -12.9802 -12.9802
-1.36939 -13.1552 -13.1552
-1.07288 -13.1637 -13.1637
-1.06386 -12.9886 -12.9886
-1.36429 -13.0677 -13.0677
-1.22108 -13.1594 -13.1594
-1.06837 -13.0761 -13.0761
-1.21148 -12.9844 -12.9844
-1.21628 -13.0718 -13.0718
-1.36939 -13.1552 -13.1552
-1.37957 -13.3309 -13.3309
-1.0819 -13.3395 -13.3395
-1.07288 -13.1637 -13.1637
-1.37448 -13.243 -13.243
-1.23069 -13.3351 -13.3351
-1.07739 -13.2515 -13.2515
-1.22108 -13.1594 -13.1594
-1.22589 -13.2472 -13.2472
-1.37957 -13.3309 -13.3309
-1.38975 -13.5073 -13.5073
-1.09093 -13.516 -13.516
-1.0819 -13.3395 -13.3395
-1.38466 -13.419 -13.419
-1.24029 -13.5116 -13.5116
-1.08641 -13.4277 -13.4277
-1.23069 -13.3351 -13.3351
-1.23549 -13.4233 -13.4233
-1.38975 -13.5073 -13.5073
-1.39991 -13.6844 -13.6844
-1.09996 -13.6932 -13.6932
-1.09093 -13.516 -13.516
-1.39483 -13.5958 -13.5958
-1.24989 -13.6887 -13.6887
-1.09544 -13.6045 -13.6045
-1.24029 -13.5116 -13.5116
-1.24509 -13.6001 -13.6001
-1.39991 -13.6844 -13.6844
-1.41006 -13.8621 -13.8621
-1.10899 -13.871 -13.871
-1.09996 -13.6932 -13.6932
-1.40498 -13.7731 -13.7731
-1.25948 -13.8665 -13.8665
-1.10448 -13.782 -13.782
-1.24989 -13.6887 -13.6887
-1.25468 -13.7775 -13.7775
-1.41006 -13.8621 -13.8621
-1.42019 -14.0405 -14.0405
-1.11803 -14.0495 -14.0495
-1.10899 -13.871 -13.871
-1.41513 -13.9512 -13.9512
-1.26906 -14.0449 -14.0449
-1.11351 -13.9602 -13.9602
-1.25948 -13.8665 -13.8665
-1.26427 -13.9556 -13.9556
-1.42019 -14.0405 -14.0405
-1.43031 -14.2195 -14.2195
-1.12707 -14.2286 -14.2286
-1.11803 -14.0495 -14.0495
-1.42525 -14.1299 -14.1299
-1.27864 -14.224 -14.224
-1.12255 -14.139 -14.139
-1.26906 -14.0449 -14.0449
-1.27385 -14.1344 -14.1344
-1.43031 -14.2195 -14.2195
-1.44041 -14.3992 -14.3992
-1.13611 -14.4084 -14.4084
-1.12707 -14.2286 -14.2286
-1.43536 -14.3093 -14.3093
-1.28821 -14.4037 -14.4037
-1.13159 -14.3184 -14.3184
-1.27864 -14.224 -14.224
-1.28343 -14.3138 -14.3138
-1.44041 -14.3992 -14.3992
-1.45049 -14.5795 -14.5795
-1.14515 -14.5888 -14.5888
-1.13611 -14.4084 -14.4084
-1.44545 -14.4893 -14.4893
-1.29777 -14.5841 -14.5841
-1.14063 -14.4985 -14.4985
-1.28821 -14.4037 -14.4037
-1.29299 -14.4938 -14.4938
-1.45049 -14.5795 -14.5795
-1.46056 -14.7604 -14.7604
-1.15419 -14.7698 -14.7698
-1.14515 -14.5888 -14.5888
-1.45553 -14.6699 -14.6699
-1.30733 -14.7651 -14.7651
-1.14967 -14.6792 -14.6792
-1.29777 -14.5841 -14.5841
-1.30255 -14.6745 -14.6745
-1.46056 -14.7604 -14.7604
-1.47062 -14.9419 -14.9419
-1.16323 -14.9514 -14.9514
-1.15419 -14.7698 -14.7698
-1.46559 -14.8511 -14.8511
-1.31688 -14.9466 -14.9466
-1.15871 -14.8606 -14.8606
-1.30733 -14.7651 -14.7651
-1.3121 -14.8558 -14.8558
-1.47062 -14.9419 -14.9419
-1.48065 -15.1241 -15.1241
-1.17227 -15.1337 -15.1337
-1.16323 -14.9514 -14.9514
-1.47563 -15.0329 -15.0329
-1.32641 -15.1288 -15.1288
-1.16775 -15.0425 -15.0425
-1.31688 -14.9466 -14.9466
-1.32165 -15.0376 -15.0376
-1.48065 -15.1241 -15.1241
-1.49066 -15.3068 -15.3068
-1.18131 -15.3165 -15.3165
-1.17227 -15.1337 -15.1337
-1.48566 -15.2153 -15.2153
-1.33594 -15.3116 -15.3116
-1.17679 -15.225 -15.225
-1.32641 -15.1288 -15.1288
-1.33118 -15.2201 -15.2201
-1.49066 -15.3068 -15.3068
-1.50066 -15.4901 -15.4901
-1.19035 -15.4999 -15.4999
-1.18131 -15.3165 -15.3165
-1.49566 -15.3983 -15.3983
-1.34546 -15.4949 -15.4949
-1.18583 -15.4081 -15.4081
-1.33594 -15.3116 -15.3116
-1.3407 -15.4032 -15.4032
-1.50066 -15.4901 -15.4901
-1.51064 -15.6739 -15.6739
-1.19939 -15.6838 -15.6838
-1.19035 -15.4999 -15.4999
-1.50565 -15.5819 -15.5819
-1.35496 -15.6788 -15.6788
-1.19487 -15.5918 -15.5918
-1.34546 -15.4949 -15.4949
-1.35021 -15.5868 -15.5868
-1.51064 -15.6739 -15.6739
-1.52059 -15.8583 -15.8583
-1.20842 -15.8683 -15.8683
-1.19939 -15.6838 -15.6838
-1.51562 -15.7661 -15.7661
-1.36446 -15.8633 -15.8633
-1.2039 -15.776 -15.776
-1.35496 -15.6788 -15.6788
-1.35971 -15.771 -15.771
-1.52059 -15.8583 -15.8583
-1.53053 -16.0433 -16.0433
-1.21745 -16.0534 -16.0534
-1.20842 -15.8683 -15.8683
-1.52556 -15.9507 -15.9507
-1.37394 -16.0483 -16.0483
-1.21293 -15.9608 -15.9608
-1.36446 -15.8633 -15.8633
-1.3692 -15.9557 -15.9557
-1.53053 -16.0433 -16.0433
-1.54044 -16.2288 -16.2288
-1.22647 -16.239 -16.239
-1.21745 -16.0534 -16.0534
-1.53548 -16.136 -16.136
-1.38341 -16.2338 -16.2338
-1.22196 -16.1461 -16.1461
-1.37394 -16.0483 -16.0483
-1.37868 -16.141 -16.141
-1.54044 -16.2288 -16.2288
-1.55033 -16.4148 -16.4148
-1.23549 -16.4251 -16.4251
-1.22647 -16.239 -16.239
-1.54539 -16.3217 -16.3217
-1.39286 -16.4199 -16.4199
-1.23098 -16.3319 -16.3319
-1.38341 -16.2338 -16.2338
-1.38814 -16.3268 -16.3268
-1.55033 -16.4148 -16.4148
-1.5602 -16.6013 -16.6013
-1.24451 -16.6117 -16.6117
-1.23549 -16.4251 -16.4251
-1.55527 -16.508 -16.508
-1.4023 -16.6065 -16.6065
-1.24 -16.5183 -16.5183
-1.39286 -16.4199 -16.4199
-1.39759 -16.5131 -16.5131
-1.5602 -16.6013 -16.6013
-1.57004 -16.7884 -16.7884
-1.25351 -16.7988 -16.7988
-1.24451 -16.6117 -16.6117
-1.56512 -16.6948 -16.6948
-1.41173 -16.7935 -16.7935
-1.24901 -16.7052 -16.7052
-1.4023 -16.6065 -16.6065
-1.40702 -16.6999 -16.6999
-1.57004 -16.7884 -16.7884
-1.57986 -16.9759 -16.9759
-1.26251 -16.9864 -16.9864
-1.25351 -16.7988 -16.7988
-1.57495 -16.8821 -16.8821
-1.42114 -16.9811 -16.9811
-1.25801 -16.8926 -16.8926
-1.41173 -16.7935 -16.7935
-1.41644 -16.8873 -16.8873
-1.57986 -16.9759 -16.9759
-1.58966 -17.1639 -17.1639
-1.27151 -17.1745 -17.1745
-1.26251 -16.9864 -16.9864
-1.58476 -17.0699 -17.0699
-1.43053 -17.1692 -17.1692
-1.26701 -17.0804 -17.0804
-1.42114 -16.9811 -16.9811
-1.42584 -17.0751 -17.0751
-1.58966 -17.1639 -17.1639
-1.59942 -17.3524 -17.3524
-1.28049 -17.3631 -17.3631
-1.27151 -17.1745 -17.1745
-1.59454 -17.2581 -17.2581
-1.43991 -17.3577 -17.3577
-1.276 -17.2688 -17.2688
-1.43053 -17.1692 -17.1692
-1.43523 -17.2634 -17.2634
-1.59942 -17.3524 -17.3524
-1.60917 -17.5414 -17.5414
-1.28947 -17.5522 -17.5522
-1.28049 -17.3631 -17.3631
-1.6043 -17.4468 -17.4468
-1.44927 -17.5467 -17.5467
-1.28498 -17.4576 -17.4576
-1.43991 -17.3577 -17.3577
-1.44459 -17.4522 -17.4522
-1.60917 -17.5414 -17.5414
-1.61888 -17.7308 -17.7308
-1.29843 -17.7417 -17.7417
-1.28947 -17.5522 -17.5522
-1.61403 -17.636 -17.636
-1.45861 -17.7362 -17.7362
-1.29395 -17.6469 -17.6469
-1.44927 -17.5467 -17.5467
-1.45394 -17.6414 -17.6414
-1.61888 -17.7308 -17.7308
-1.62857 -17.9207 -17.9207
-1.30739 -17.9316 -17.9316
-1.29843 -17.7417 -17.7417
-1.62373 -17.8257 -17.8257
-1.46793 -17.9261 -17.9261
-1.30291 -17.8366 -17.8366
-1.45861 -17.7362 -17.7362
-1.46328 -17.8311 -17.8311
-1.62857 -17.9207 -17.9207
-1.63823 -18.1109 -18.1109
-1.31633 -18.122 -18.122
-1.30739 -17.9316 -17.9316
-1.63341 -18.0157 -18.0157
-1.47724 -18.1164 -18.1164
-1.31186 -18.0267 -18.0267
-1.46793 -17.9261 -17.9261
-1.47259 -18.0212 -18.0212
-1.63823 -18.1109 -18.1109
-1.64786 -18.3017 -18.3017
-1.32527 -18.3128 -18.3128
-1.31633 -18.122 -18.122
-1.64305 -18.2063 -18.2063
-1.48652 -18.3072 -18.3072
-1.3208 -18.2173 -18.2173
-1.47724 -18.1164 -18.1164
-1.48188 -18.2117 -18.2117
-1.64786 -18.3017 -18.3017
-1.65747 -18.4928 -18.4928
-1.33419 -18.504 -18.504
-1.32527 -18.3128 -18.3128
-1.65267 -18.3972 -18.3972
-1.49578 -18.4983 -18.4983
-1.32973 -18.4083 -18.4083
-1.48652 -18.3072 -18.3072
-1.49115 -18.4027 -18.4027
-1.65747 -18.4928 -18.4928
-1.66704 -18.6843 -18.6843
-1.3431 -18.6956 -18.6956
-1.33419 -18.504 -18.504
-1.66225 -18.5885 -18.5885
-1.50502 -18.6899 -18.6899
-1.33864 -18.5997 -18.5997
-1.49578 -18.4983 -18.4983
-1.5004 -18.5941 -18.5941
-1.66704 -18.6843 -18.6843
-1.67658 -18.8763 -18.8763
-1.35199 -18.8876 -18.8876
-1.3431 -18.6956 -18.6956
-1.67181 -18.7802 -18.7802
-1.51424 -18.8819 -18.8819
-1.34754 -18.7915 -18.7915
-1.50502 -18.6899 -18.6899
-1.50963 -18.7859 -18.7859
-1.67658 -18.8763 -18.8763
-1.68608 -19.0686 -19.0686
-1.36087 -19.08 -19.08
-1.35199 -18.8876 -18.8876
-1.68133 -18.9724 -18.9724
-1.52343 -19.0742 -19.0742
-1.35643 -18.9837 -18.9837
-1.51424 -18.8819 -18.8819
-1.51884 -18.978 -18.978
-1.68608 -19.0686 -19.0686
-1.69556 -19.2612 -19.2612
-1.36973 -19.2727 -19.2727
-1.36087 -19.08 -19.08
-1.69083 -19.1649 -19.1649
-1.5326 -19.267 -19.267
-1.3653 -19.1763 -19.1763
-1.52343 -19.0742 -19.0742
-1.52802 -19.1705 -19.1705
-1.69556 -19.2612 -19.2612
-1.705 -19.4543 -19.4543
-1.37858 -19.4658 -19.4658
-1.36973 -19.2727 -19.2727
-1.70029 -19.3577 -19.3577
-1.54175 -19.46 -19.46
-1.37416 -19.3692 -19.3692
-1.5326 -19.267 -19.267
-1.53718 -19.3634 -19.3634
-1.705 -19.4543 -19.4543
-1.71441 -19.6477 -19.6477
-1.38741 -19.6593 -19.6593
-1.37858 -19.4658 -19.4658
-1.70971 -19.5509 -19.5509
-1.55087 -19.6535 -19.6535
-1.383 -19.5625 -19.5625
-1.54175 -19.46 -19.46
-1.54631 -19.5567 -19.5567
-1.71441 -19.6477 -19.6477
-1.72378 -19.8414 -19.8414
-1.39623 -19.8531 -19.8531
-1.38741 -19.6593 -19.6593
-1.7191 -19.7445 -19.7445
-1.55996 -19.8472 -19.8472
-1.39182 -19.7562 -19.7562
-1.55087 -19.6535 -19.6535
-1.55542 -19.7503 -19.7503
-1.72378 -19.8414 -19.8414
-1.73312 -20.0355 -20.0355
-1.40502 -20.0473 -20.0473
-1.39623 -19.8531 -19.8531
-1.72846 -19.9384 -19.9384
-1.56903 -20.0413 -20.0413
-1.40063 -19.9501 -19.9501
-1.55996 -19.8472 -19.8472
-1.5645 -19.9443 -19.9443
-1.73312 -20.0355 -20.0355
-1.74243 -20.2299 -20.2299
-1.4138 -20.2417 -20.2417
-1.40502 -20.0473 -20.0473
-1.73778 -20.1326 -20.1326
-1.57807 -20.2358 -20.2358
-1.40941 -20.1444 -20.1444
-1.56903 -20.0413 -20.0413
-1.57355 -20.1385 -20.1385
-1.74243 -20.2299 -20.2299
-1.75169 -20.4246 -20.4246
-1.42256 -20.4365 -20.4365
-1.4138 -20.2417 -20.2417
-1.74706 -20.3272 -20.3272
-1.58708 -20.4305 -20.4305
-1.41818 -20.3391 -20.3391
-1.57807 -20.2358 -20.2358
-1.58258 -20.3331 -20.3331
-1.75169 -20.4246 -20.4246
-1.76092 -20.6196 -20.6196
-1.43129 -20.6316 -20.6316
-1.42256 -20.4365 -20.4365
-1.75631 -20.5221 -20.5221
-1.59606 -20.6255 -20.6255
-1.42693 -20.534 -20.534
-1.58708 -20.4305 -20.4305
-1.59157 -20.528 -20.528
-1.76092 -20.6196 -20.6196
-1.77011 -20.8149 -20.8149
-1.44001 -20.8269 -20.8269
-1.43129 -20.6316 -20.6316
-1.76552 -20.7172 -20.7172
-1.60501 -20.8209 -20.8209
-1.43565 -20.7292 -20.7292
-1.59606 -20.6255 -20.6255
-1.60054 -20.7232 -20.7232
-1.77011 -20.8149 -20.8149
-1.77926 -21.0105 -21.0105
-1.4487 -21.0225 -21.0225
-1.44001 -20.8269 -20.8269
-1.77469 -20.9126 -20.9126
-1.61394 -21.0165 -21.0165
-1.44436 -20.9247 -20.9247
-1.60501 -20.8209 -20.8209
-1.60948 -20.9186 -20.9186
-1.77926 -21.0105 -21.0105
-1.78837 -21.2063 -21.2063
-1.45737 -21.2185 -21.2185
-1.4487 -21.0225 -21.0225
-1.78382 -21.1084 -21.1084
-1.62283 -21.2124 -21.2124
-1.45304 -21.1205 -21.1205
-1.61394 -21.0165 -21.0165
-1.61838 -21.1144 -21.1144
-1.78837 -21.2063 -21.2063
-1.79744 -21.4024 -21.4024
-1.46602 -21.4146 -21.4146
-1.45737 -21.2185 -21.2185
-1.79291 -21.3043 -21.3043
-1.63168 -21.4085 -21.4085
-1.4617 -21.3165 -21.3165
-1.62283 -21.2124 -21.2124
-1.62726 -21.3104 -21.3104
-1.79744 -21.4024 -21.4024
-1.80646 -21.5988 -21.5988
-1.47465 -21.611 -21.611
-1.46602 -21.4146 -21.4146
-1.80195 -21.5006 -21.5006
-1.64051 -21.6049 -21.6049
-1.47034 -21.5128 -21.5128
-1.63168 -21.4085 -21.4085
-1.6361 -21.5067 -21.5067
-1.80646 -21.5988 -21.5988
-1.81545 -21.7954 -21.7954
-1.48324 -21.8077 -21.8077
-1.47465 -21.611 -21.611
-1.81096 -21.697 -21.697
-1.6493 -21.8015 -21.8015
-1.47895 -21.7093 -21.7093
-1.64051 -21.6049 -21.6049
-1.64491 -21.7032 -21.7032
-1.81545 -21.7954 -21.7954
-1.82439 -21.9922 -21.9922
-1.49182 -22.0046 -22.0046
-1.48324 -21.8077 -21.8077
-1.81993 -21.8938 -21.8938
-1.65806 -21.9984 -21.9984
-1.48753 -21.9061 -21.9061
-1.6493 -21.8015 -21.8015
-1.65369 -21.8999 -21.8999
-1.82439 -21.9922 -21.9922
-1.83329 -22.1892 -22.1892
-1.50036 -22.2017 -22.2017
-1.49182 -22.0046 -22.0046
-1.82885 -22.0907 -22.0907
-1.66678 -22.1954 -22.1954
-1.49609 -22.1031 -22.1031
-1.65806 -21.9984 -21.9984
-1.66243 -22.0969 -22.0969
-1.83329 -22.1892 -22.1892
-1.84214 -22.3865 -22.3865
-1.50888 -22.399 -22.399
-1.50036 -22.2017 -22.2017
-1.83772 -22.2878 -22.2878
-1.67547 -22.3927 -22.3927
-1.50463 -22.3003 -22.3003
-1.66678 -22.1954 -22.1954
-1.67113 -22.2941 -22.2941
-1.84214 -22.3865 -22.3865
-1.85095 -22.584 -22.584
-1.51737 -22.5965 -22.5965
-1.50888 -22.399 -22.399
-1.84655 -22.4852 -22.4852
-1.68412 -22.5902 -22.5902
-1.51313 -22.4977 -22.4977
-1.67547 -22.3927 -22.3927
-1.6798 -22.4914 -22.4914
-1.85095 -22.584 -22.584
-1.85971 -22.7816 -22.7816
-1.52584 -22.7942 -22.7942
-1.51737 -22.5965 -22.5965
-1.85534 -22.6828 -22.6828
-1.69273 -22.7879 -22.7879
-1.52161 -22.6953 -22.6953
-1.68412 -22.5902 -22.5902
-1.68843 -22.689 -22.689
-1.85971 -22.7816 -22.7816
-1.86843 -22.9794 -22.9794
-1.53427 -22.9921 -22.9921
-1.52584 -22.7942 -22.7942
-1.86408 -22.8805 -22.8805
-1.70131 -22.9857 -22.9857
-1.53006 -22.8931 -22.8931
-1.69273 -22.7879 -22.7879
-1.69702 -22.8868 -22.8868
-1.86843 -22.9794 -22.9794
-1.8771 -23.1774 -23.1774
-1.54267 -23.1901 -23.1901
-1.53427 -22.9921 -22.9921
-1.87277 -23.0784 -23.0784
-1.70984 -23.1837 -23.1837
-1.53847 -23.0911 -23.0911
-1.70131 -22.9857 -22.9857
-1.70558 -23.0847 -23.0847
-1.8771 -23.1774 -23.1774
-1.88572 -23.3756 -23.3756
-1.55104 -23.3883 -23.3883
-1.54267 -23.1901 -23.1901
-1.88141 -23.2765 -23.2765
-1.71834 -23.3819 -23.3819
-1.54686 -23.2892 -23.2892
-1.70984 -23.1837 -23.1837
-1.71409 -23.2828 -23.2828
-1.88572 -23.3756 -23.3756
-1.89429 -23.5739 -23.5739
-1.55938 -23.5866 -23.5866
-1.55104 -23.3883 -23.3883
-1.89001 -23.4747 -23.4747
-1.72679 -23.5802 -23.5802
-1.55522 -23.4874 -23.4874
-1.71834 -23.3819 -23.3819
-1.72257 -23.4811 -23.4811
-1.89429 -23.5739 -23.5739
-1.90281 -23.7723 -23.7723
-1.56769 -23.7851 -23.7851
-1.55938 -23.5866 -23.5866
-1.89855 -23.6731 -23.6731
-1.7352 -23.7787 -23.7787
-1.56354 -23.6858 -23.6858
-1.72679 -23.5802 -23.5802
-1.731 -23.6794 -23.6794
-1.90281 -23.7723 -23.7723
-1.91128 -23.9709 -23.9709
-1.57596 -23.9837 -23.9837
-1.56769 -23.7851 -23.7851
-1.90705 -23.8716 -23.8716
-1.74358 -23.9773 -23.9773
-1.57183 -23.8844 -23.8844
-1.7352 -23.7787 -23.7787
-1.7394 -23.878 -23.878
-1.91128 -23.9709 -23.9709
-1.9197 -24.1695 -24.1695
-1.5842 -24.1824 -24.1824
-1.57596 -23.9837 -23.9837
-1.91549 -24.0702 -24.0702
-1.7519 -24.176 -24.176
-1.58008 -24.0831 -24.0831
-1.74358 -23.9773 -23.9773
-1.74774 -24.0766 -24.0766
-1.9197 -24.1695 -24.1695
-1.92806 -24.3683 -24.3683
-1.5924 -24.3812 -24.3812
-1.5842 -24.1824 -24.1824
-1.92388 -24.2689 -24.2689
-1.76019 -24.3748 -24.3748
-1.5883 -24.2818 -24.2818
-1.7519 -24.176 -24.176
-1.75605 -24.2754 -24.2754
-1.92806 -24.3683 -24.3683
-1.93637 -24.5672 -24.5672
-1.60057 -24.5802 -24.5802
-1.5924 -24.3812 -24.3812
-1.93222 -24.4677 -24.4677
-1.76843 -24.5737 -24.5737
-1.59649 -24.4807 -24.4807
-1.76019 -24.3748 -24.3748
-1.76431 -24.4742 -24.4742
-1.93637 -24.5672 -24.5672
-1.94463 -24.7662 -24.7662
-1.6087 -24.7792 -24.7792
-1.60057 -24.5802 -24.5802
-1.94051 -24.6667 -24.6667
-1.77662 -24.7727 -24.7727
-1.60464 -24.6797 -24.6797
-1.76843 -24.5737 -24.5737
-1.77253 -24.6732 -24.6732
-1.94463 -24.7662 -24.7662
-1.95284 -24.9652 -24.9652
-1.61679 -24.9783 -24.9783
-1.6087 -24.7792 -24.7792
-1.94874 -24.8657 -24.8657
-1.78478 -24.9717 -24.9717
-1.61275 -24.8787 -24.8787
-1.77662 -24.7727 -24.7727
-1.78071 -24.8722 -24.8722
-1.95284 -24.9652 -24.9652
-1.961 -25.1643 -25.1643
-1.62484 -25.1774 -25.1774
-1.61679 -24.9783 -24.9783
-1.95693 -25.0648 -25.0648
-1.79288 -25.1709 -25.1709
-1.62082 -25.0778 -25.0778
-1.78478 -24.9717 -24.9717
-1.78883 -25.0713 -25.0713
-1.961 -25.1643 -25.1643
-1.96912 -25.3635 -25.3635
-1.63285 -25.3766 -25.3766
-1.62484 -25.1774 -25.1774
-1.96507 -25.2639 -25.2639
-1.80095 -25.37 -25.37
-1.62885 -25.277 -25.277
-1.79288 -25.1709 -25.1709
-1.79692 -25.2704 -25.2704
-1.96912 -25.3635 -25.3635
-1.97721 -25.5627 -25.5627
-1.64081 -25.5759 -25.5759
-1.63285 -25.3766 -25.3766
-1.97317 -25.4631 -25.4631
-1.80898 -25.5693 -25.5693
-1.63683 -25.4762 -25.4762
-1.80095 -25.37 -25.37
-1.80497 -25.4697 -25.4697
-1.97721 -25.5627 -25.5627
-1.9853 -25.762 -25.762
-1.64872 -25.7752 -25.7752
-1.64081 -25.5759 -25.5759
-1.98126 -25.6624 -25.6624
-1.81696 -25.7686 -25.7686
-1.64477 -25.6755 -25.6755
-1.80898 -25.5693 -25.5693
-1.81297 -25.6689 -25.6689
-1.9853 -25.762 -25.762
-1.99345 -25.9615 -25.9615
-1.65658 -25.9747 -25.9747
-1.64872 -25.7752 -25.7752
-1.98936 -25.8618 -25.8618
-1.82489 -25.9681 -25.9681
-1.65265 -25.8749 -25.8749
-1.81696 -25.7686 -25.7686
-1.82093 -25.8683 -25.8683
-1.99345 -25.9615 -25.9615
-2.00168 -26.1618 -26.1618
-1.66449 -26.1742 -26.1742
-1.65658 -25.9747 -25.9747
-1.99757 -26.0614 -26.0614
-1.83279 -26.168 -26.168
-1.66052 -26.0745 -26.0745
-1.82489 -25.9681 -25.9681
-1.82883 -26.068 -26.068
0 0 0
-0.00780309 -0.00218921 -0.00218921
-0.00454754 -0.000452781 -0.000452781
0 0 0
-0.00378581 -0.00078289 -0.00078289
-0.00611457 -0.00110906 -0.00110906
-0.00220501 0.000144033 0.000144033
0 0 0
-0.00301066 -0.000230801 -0.000230801
-0.00780309 -0.00218921 -0.00218921
-0.0162544 -0.00632729 -0.00632729
-0.00944192 -0.00349106 -0.00349106
-0.00454754 -0.000452781 -0.000452781
-0.0119885 -0.00405832 -0.00405832
-0.0127327 -0.00466396 -0.00466396
-0.00696411 -0.00167945 -0.00167945
-0.00611457 -0.00110906 -0.00110906
-0.00937053 -0.00261422 -0.00261422
-0.0162544 -0.00632729 -0.00632729
-0.0247827 -0.012015 -0.012015
-0.0145414 -0.00875412 -0.00875412
-0.00944192 -0.00349106 -0.00349106
-0.0205234 -0.00897062 -0.00897062
-0.0195615 -0.0101546 -0.0101546
-0.0119759 -0.00585906 -0.00585906
-0.0127327 -0.00466396 -0.00466396
-0.0161383 -0.00717908 -0.00717908
-0.0247827 -0.012015 -0.012015
-0.0332711 -0.0194273 -0.0194273
-0.0196856 -0.0160444 -0.0160444
-0.0145414 -0.00875412 -0.00875412
-0.0290338 -0.0154955 -0.0154955
-0.0264052 -0.017522 -0.017522
-0.0171135 -0.0121513 -0.0121513
-0.0195615 -0.0101546 -0.0101546
-0.0229869 -0.0136017 -0.0136017
-0.0332711 -0.0194273 -0.0194273
-0.0416923 -0.0286875 -0.0286875
-0.0248169 -0.0253086 -0.0253086
-0.0196856 -0.0160444 -0.0160444
-0.0374895 -0.0238212 -0.0238212
-0.0332005 -0.026789 -0.026789
-0.0222549 -0.0204312 -0.0204312
-0.0264052 -0.017522 -0.017522
-0.0298099 -0.021916 -0.021916
-0.0416923 -0.0286875 -0.0286875
-0.0500644 -0.0398663 -0.0398663
-0.0299073 -0.0365262 -0.0365262
-0.0248169 -0.0253086 -0.0253086
-0.0458839 -0.0340351 -0.0340351
-0.0399435 -0.0379894 -0.0379894
-0.0273674 -0.0306737 -0.0306737
-0.0332005 -0.026789 -0.026789
-0.0365782 -0.0321465 -0.0321465
-0.0500644 -0.0398663 -0.0398663
-0.0583923 -0.0529834 -0.0529834
-0.0349606 -0.0496936 -0.0496936
-0.0299073 -0.0365262 -0.0365262
-0.0542335 -0.0461821 -0.0461821
-0.0466403 -0.0511318 -0.0511318
-0.0324382 -0.0428665 -0.0428665
-0.0399435 -0.0379894 -0.0379894
-0.0432972 -0.0443177 -0.0443177
-0.0583923 -0.0529834 -0.0529834
-0.0666836 -0.0680438 -0.0680438
-0.0399815 -0.0648036 -0.0648036
-0.0349606 -0.0496936 -0.0496936
-0.0625422 -0.0602709 -0.0602709
-0.0532997 -0.0662172 -0.0662172
-0.0374746 -0.0570062 -0.0570062
-0.0466403 -0.0511318 -0.0511318
-0.0499743 -0.0584319 -0.0584319
-0.0666836 -0.0680438 -0.0680438
-0.0749412 -0.0850411 -0.0850411
-0.0449779 -0.0818495 -0.0818495
-0.0399815 -0.0648036 -0.0648036
-0.0708165 -0.0763009 -0.0763009
-0.0599282 -0.083239 -0.083239
-0.0424823 -0.0730851 -0.0730851
-0.0532997 -0.0662172 -0.0662172
-0.0566175 -0.0744866 -0.0744866
-0.0749412 -0.0850411 -0.0850411
-0.083168 -0.103967 -0.103967
-0.0499549 -0.100822 -0.100822
-0.0449779 -0.0818495 -0.0818495
-0.0790583 -0.0942635 -0.0942635
-0.0665308 -0.102189 -0.102189
-0.0474685 -0.0910955 -0.0910955
-0.0599282 -0.083239 -0.083239
-0.0632325 -0.0924735 -0.0924735
-0.083168 -0.103967 -0.103967
-0.0913655 -0.12481 -0.12481
-0.0549172 -0.121713 -0.121713
-0.0499549 -0.100822 -0.100822
-0.0872703 -0.114149 -0.114149
-0.0731108 -0.123056 -0.123056
-0.0524377 -0.111028 -0.111028
-0.0665308 -0.102189 -0.102189
-0.0698234 -0.112383 -0.112383
-0.0913655 -0.12481 -0.12481
-0.0995356 -0.14756 -0.14756
-0.0598676 -0.14451 -0.14451
-0.0549172 -0.121713 -0.121713
-0.0954539 -0.135947 -0.135947
-0.0796711 -0.145831 -0.145831
-0.0573937 -0.132874 -0.132874
-0.0731108 -0.123056 -0.123056
-0.0763933 -0.134206 -0.134206
-0.0995356 -0.14756 -0.14756
-0.10768 -0.172206 -0.172206
-0.0648085 -0.169206 -0.169206
-0.0598676 -0.14451 -0.14451
-0.103611 -0.159647 -0.159647
-0.0862134 -0.170503 -0.170503
-0.0623391 -0.156622 -0.156622
-0.0796711 -0.145831 -0.145831
-0.0829444 -0.157931 -0.157931
-0.10768 -0.172206 -0.172206
-0.115799 -0.198738 -0.198738
-0.0697417 -0.195789 -0.195789
-0.0648085 -0.169206 -0.169206
-0.111742 -0.185237 -0.185237
-0.0927395 -0.197062 -0.197062
-0.0672759 -0.182262 -0.182262
-0.0862134 -0.170503 -0.170503
-0.0894784 -0.183547 -0.183547
-0.115799 -0.198738 -0.198738
-0.123895 -0.227145 -0.227145
-0.0746687 -0.224249 -0.224249
-0.0697417 -0.195789 -0.195789
-0.11985 -0.212708 -0.212708
-0.0992507 -0.225497 -0.225497
-0.0722059 -0.209785 -0.209785
-0.0927395 -0.197062 -0.197062
-0.0959969 -0.211045 -0.211045
-0.123895 -0.227145 -0.227145
-0.131968 -0.257418 -0.257418
-0.079591 -0.254576 -0.254576
-0.0746687 -0.224249 -0.224249
-0.127934 -0.242049 -0.242049
-0.105749 -0.255797 -0.255797
-0.0771304 -0.23918 -0.23918
-0.0992507 -0.225497 -0.225497
-0.102501 -0.240414 -0.240414
-0.131968 -0.257418 -0.257418
-0.140021 -0.289544 -0.289544
-0.0845098 -0.28676 -0.28676
-0.079591 -0.254576 -0.254576
-0.135997 -0.27325 -0.27325
-0.112234 -0.287954 -0.287954
-0.0820507 -0.270436 -0.270436
-0.105749 -0.255797 -0.255797
-0.108993 -0.271644 -0.271644
-0.140021 -0.289544 -0.289544
-0.148054 -0.323516 -0.323516
-0.0894264 -0.32079 -0.32079
-0.0845098 -0.28676 -0.28676
-0.14404 -0.3063 -0.3063
-0.118709 -0.321955 -0.321955
-0.0869683 -0.303545 -0.303545
-0.112234 -0.287954 -0.287954
-0.115473 -0.304724 -0.304724
-0.148054 -0.323516 -0.323516
-0.156069 -0.359321 -0.359321
-0.094342 -0.356656 -0.356656
-0.0894264 -0.32079 -0.32079
-0.152063 -0.34119 -0.34119
-0.125174 -0.357792 -0.357792
-0.0918842 -0.338494 -0.338494
-0.118709 -0.321955 -0.321955
-0.121942 -0.339645 -0.339645
-0.156069 -0.359321 -0.359321
-0.164066 -0.39695 -0.39695
-0.0992577 -0.394348 -0.394348
-0.094342 -0.356656 -0.356656
-0.160069 -0.377908 -0.377908
-0.13163 -0.395454 -0.395454
-0.0967998 -0.375274 -0.375274
-0.125174 -0.357792 -0.357792
-0.128403 -0.376396 -0.376396
-0.164066 -0.39695 -0.39695
-0.172047 -0.436393 -0.436393
-0.104175 -0.433856 -0.433856
-0.0992577 -0.394348 -0.394348
-0.168058 -0.416446 -0.416446
-0.138079 -0.434931 -0.434931
-0.101716 -0.413876 -0.413876
-0.13163 -0.395454 -0.395454
-0.134855 -0.414966 -0.414966
-0.172047 -0.436393 -0.436393
-0.180013 -0.47764 -0.47764
-0.109094 -0.475169 -0.475169
-0.104175 -0.433856 -0.433856
-0.176032 -0.456792 -0.456792
-0.144522 -0.476212 -0.476212
-0.106634 -0.454288 -0.454288
-0.138079 -0.434931 -0.434931
-0.141301 -0.455346 -0.455346
-0.180013 -0.47764 -0.47764
-0.187965 -0.520679 -0.520679
-0.114017 -0.518278 -0.518278
-0.109094 -0.475169 -0.475169
-0.183991 -0.498936 -0.498936
-0.150959 -0.519287 -0.519287
-0.111555 -0.4965 -0.4965
-0.144522 -0.476212 -0.476212
-0.147741 -0.497526 -0.497526
-0.187965 -0.520679 -0.520679
-0.195905 -0.565502 -0.565502
-0.118945 -0.563171 -0.563171
-0.114017 -0.518278 -0.518278
-0.191936 -0.542868 -0.542868
-0.157393 -0.564146 -0.564146
-0.116481 -0.540502 -0.540502
-0.150959 -0.519287 -0.519287
-0.154176 -0.541494 -0.541494
-0.195905 -0.565502 -0.565502
-0.203832 -0.612098 -0.612098
-0.123878 -0.609839 -0.609839
-0.118945 -0.563171 -0.563171
-0.19987 -0.588579 -0.588579
-0.163823 -0.610779 -0.610779
-0.121411 -0.586284 -0.586284
-0.157393 -0.564146 -0.564146
-0.160608 -0.587241 -0.587241
-0.203832 -0.612098 -0.612098
-0.211749 -0.660456 -0.660456
-0.128819 -0.658271 -0.658271
-0.123878 -0.609839 -0.609839
-0.207792 -0.636057 -0.636057
-0.170252 -0.659175 -0.659175
-0.126348 -0.633835 -0.633835
-0.163823 -0.610779 -0.610779
-0.167038 -0.634757 -0.634757
-0.211749 -0.660456 -0.660456
-0.219656 -0.710567 -0.710567
-0.133767 -0.708457 -0.708457
-0.128819 -0.658271 -0.658271
-0.215704 -0.685293 -0.685293
-0.176679 -0.709325 -0.709325
-0.131292 -0.683145 -0.683145
-0.170252 -0.659175 -0.659175
-0.173465 -0.684032 -0.684032
-0.219656 -0.710567 -0.710567
-0.227555 -0.76242 -0.76242
-0.138724 -0.760388 -0.760388
-0.133767 -0.708457 -0.708457
-0.223607 -0.736276 -0.736276
-0.183107 -0.761218 -0.761218
-0.136244 -0.734205 -0.734205
-0.176679 -0.709325 -0.709325
-0.179893 -0.735054 -0.735054
-0.227555 -0.76242 -0.76242
-0.235446 -0.816004 -0.816004
-0.14369 -0.814051 -0.814051
-0.138724 -0.760388 -0.760388
-0.231502 -0.788996 -0.788996
-0.189536 -0.814843 -0.814843
-0.141206 -0.787003 -0.787003
-0.183107 -0.761218 -0.761218
-0.186321 -0.787814 -0.787814
-0.235446 -0.816004 -0.816004
-0.24333 -0.871311 -0.871311
-0.148667 -0.869438 -0.869438
-0.14369 -0.814051 -0.814051
-0.239389 -0.843443 -0.843443
-0.195966 -0.870191 -0.870191
-0.146177 -0.84153 -0.84153
-0.189536 -0.814843 -0.814843
-0.192751 -0.842302 -0.842302
-0.24333 -0.871311 -0.871311
-0.251209 -0.928329 -0.928329
-0.153657 -0.926539 -0.926539
-0.148667 -0.869438 -0.869438
-0.24727 -0.899607 -0.899607
-0.2024 -0.927251 -0.927251
-0.15116 -0.897775 -0.897775
-0.195966 -0.870191 -0.870191
-0.199183 -0.898508 -0.898508
-0.251209 -0.928329 -0.928329
-0.259083 -0.987048 -0.987048
-0.158658 -0.985342 -0.985342
-0.153657 -0.926539 -0.926539
-0.255146 -0.957476 -0.957476
-0.208838 -0.986014 -0.986014
-0.156156 -0.955728 -0.955728
-0.2024 -0.927251 -0.927251
-0.205618 -0.95642 -0.95642
-0.259083 -0.987048 -0.987048
-0.266952 -1.04746 -1.04746
-0.163673 -1.04584 -1.04584
-0.158658 -0.985342 -0.985342
-0.263018 -1.01704 -1.01704
-0.21528 -1.04647 -1.04647
-0.161164 -1.01538 -1.01538
-0.208838 -0.986014 -0.986014
-0.212058 -1.01603 -1.01603
-0.266952 -1.04746 -1.04746
-0.274819 -1.10955 -1.10955
-0.168703 -1.10802 -1.10802
-0.163673 -1.04584 -1.04584
-0.270886 -1.07829 -1.07829
-0.221728 -1.1086 -1.1086
-0.166186 -1.07672 -1.07672
-0.21528 -1.04647 -1.04647
-0.218503 -1.07733 -1.07733
-0.274819 -1.10955 -1.10955
-0.282684 -1.17331 -1.17331
-0.173748 -1.17186 -1.17186
-0.168703 -1.10802 -1.10802
-0.278752 -1.14122 -1.14122
-0.228183 -1.17241 -1.17241
-0.171223 -1.13973 -1.13973
-0.221728 -1.1086 -1.1086
-0.224954 -1.1403 -1.1403
-0.282684 -1.17331 -1.17331
-0.290547 -1.23873 -1.23873
-0.178809 -1.23738 -1.23738
-0.173748 -1.17186 -1.17186
-0.286615 -1.20582 -1.20582
-0.234645 -1.23788 -1.23788
-0.176276 -1.20441 -1.20441
-0.228183 -1.17241 -1.17241
-0.231413 -1.20494 -1.20494
-0.290547 -1.23873 -1.23873
-0.29841 -1.30581 -1.30581
-0.183887 -1.30454 -1.30454
-0.178809 -1.23738 -1.23738
-0.294478 -1.27206 -1.27206
-0.241115 -1.305 -1.305
-0.181345 -1.27075 -1.27075
-0.234645 -1.23788 -1.23788
-0.237879 -1.27123 -1.27123
-0.29841 -1.30581 -1.30581
-0.306272 -1.37452 -1.37452
-0.188982 -1.37334 -1.37334
-0.183887 -1.30454 -1.30454
-0.302341 -1.33996 -1.33996
-0.247594 -1.37376 -1.37376
-0.186432 -1.33874 -1.33874
-0.241115 -1.305 -1.305
-0.244353 -1.33917 -1.33917
-0.306272 -1.37452 -1.37452
-0.314136 -1.44486 -1.44486
-0.194096 -1.44378 -1.44378
-0.188982 -1.37334 -1.37334
-0.310204 -1.40949 -1.40949
-0.254083 -1.44415 -1.44415
-0.191537 -1.40836 -1.40836
-0.247594 -1.37376 -1.37376
-0.250837 -1.40875 -1.40875
-0.314136 -1.44486 -1.44486
-0.322002 -1.51682 -1.51682
-0.19923 -1.51584 -1.51584
-0.194096 -1.44378 -1.44378
-0.318069 -1.48064 -1.48064
-0.260582 -1.51616 -1.51616
-0.19666 -1.47961 -1.47961
-0.254083 -1.44415 -1.44415
-0.257331 -1.47995 -1.47995
-0.322002 -1.51682 -1.51682
-0.32987 -1.59039 -1.59039
-0.204383 -1.5895 -1.5895
-0.19923 -1.51584 -1.51584
-0.325936 -1.5534 -1.5534
-0.267093 -1.58977 -1.58977
-0.201804 -1.55247 -1.55247
-0.260582 -1.51616 -1.51616
-0.263836 -1.55276 -1.55276
-0.32987 -1.59039 -1.59039
-0.337742 -1.66556 -1.66556
-0.209557 -1.66477 -1.66477
-0.204383 -1.5895 -1.5895
-0.333806 -1.62778 -1.62778
-0.273616 -1.66499 -1.66499
-0.206967 -1.62694 -1.62694
-0.267093 -1.58977 -1.58977
-0.270353 -1.62719 -1.62719
-0.337742 -1.66556 -1.66556
-0.345618 -1.74232 -1.74232
-0.214752 -1.74162 -1.74162
-0.209557 -1.66477 -1.66477
-0.341679 -1.70374 -1.70374
-0.280151 -1.7418 -1.7418
-0.212152 -1.703 -1.703
-0.273616 -1.66499 -1.66499
-0.276882 -1.7032 -1.7032
-0.345618 -1.74232 -1.74232
-0.353498 -1.82065 -1.82065
-0.21997 -1.82006 -1.82006
-0.214752 -1.74162 -1.74162
-0.349557 -1.78129 -1.78129
-0.2867 -1.82019 -1.82019
-0.217358 -1.78065 -1.78065
-0.280151 -1.7418 -1.7418
-0.283424 -1.7808 -1.7808
-0.353498 -1.82065 -1.82065
-0.361383 -1.90056 -1.90056
-0.22521 -1.90007 -1.90007
-0.21997 -1.82006 -1.82006
-0.35744 -1.86041 -1.86041
-0.293263 -1.90015 -1.90015
-0.222587 -1.85987 -1.85987
-0.2867 -1.82019 -1.82019
-0.28998 -1.85997 -1.85997
-0.361383 -1.90056 -1.90056
-0.369275 -1.98202 -1.98202
-0.230474 -1.98163 -1.98163
-0.22521 -1.90007 -1.90007
-0.365328 -1.9411 -1.9411
-0.29984 -1.98166 -1.98166
-0.227839 -1.94065 -1.94065
-0.293263 -1.90015 -1.90015
-0.29655 -1.94071 -1.94071
-0.369275 -1.98202 -1.98202
-0.377173 -2.06503 -2.06503
-0.235762 -2.06474 -2.06474
-0.230474 -1.98163 -1.98163
-0.373223 -2.02333 -2.02333
-0.306433 -2.06472 -2.06472
-0.233115 -2.02299 -2.02299
-0.29984 -1.98166 -1.98166
-0.303135 -2.023 -2.023
-0.377173 -2.06503 -2.06503
-0.385078 -2.14958 -2.14958
-0.241074 -2.1494 -2.1494
-0.235762 -2.06474 -2.06474
-0.381124 -2.10711 -2.10711
-0.313042 -2.14932 -2.14932
-0.238415 -2.10688 -2.10688
-0.306433 -2.06472 -2.06472
-0.309736 -2.10683 -2.10683
-0.385078 -2.14958 -2.14958
-0.392991 -2.23566 -2.23566
-0.246412 -2.23558 -2.23558
-0.241074 -2.1494 -2.1494
-0.389034 -2.19243 -2.19243
-0.319667 -2.23545 -2.23545
-0.24374 -2.1923 -2.1923
-0.313042 -2.14932 -2.14932
-0.316353 -2.1922 -2.1922
-0.392991 -2.23566 -2.23566
-0.400912 -2.32325 -2.32325
-0.251776 -2.32327 -2.32327
-0.246412 -2.23558 -2.23558
-0.396951 -2.27926 -2.27926
-0.32631 -2.3231 -2.3231
-0.249091 -2.27924 -2.27924
-0.319667 -2.23545 -2.23545
-0.322986 -2.27909 -2.27909
-0.400912 -2.32325 -2.32325
-0.408843 -2.41235 -2.41235
-0.257165 -2.41248 -2.41248
-0.251776 -2.32327 -2.32327
-0.404876 -2.36761 -2.36761
-0.33297 -2.41225 -2.41225
-0.254467 -2.36769 -2.36769
-0.32631 -2.3231 -2.3231
-0.329638 -2.36749 -2.36749
-0.408843 -2.41235 -2.41235
-0.416782 -2.50294 -2.50294
-0.262582 -2.50318 -2.50318
-0.257165 -2.41248 -2.41248
-0.412811 -2.45746 -2.45746
-0.339648 -2.5029 -2.5029
-0.25987 -2.45765 -2.45765
-0.33297 -2.41225 -2.41225
-0.336307 -2.45739 -2.45739
-0.416782 -2.50294 -2.50294
-0.424732 -2.59503 -2.59503
-0.268026 -2.59537 -2.59537
-0.262582 -2.50318 -2.50318
-0.420756 -2.5488 -2.5488
-0.346345 -2.59504 -2.59504
-0.265301 -2.54909 -2.54909
-0.339648 -2.5029 -2.5029
-0.342994 -2.54879 -2.54879
-0.424732 -2.59503 -2.59503
-0.432692 -2.68858 -2.68858
-0.273498 -2.68904 -2.68904
-0.268026 -2.59537 -2.59537
-0.428711 -2.64162 -2.64162
-0.353061 -2.68866 -2.68866
-0.270759 -2.64202 -2.64202
-0.346345 -2.59504 -2.59504
-0.3497 -2.64167 -2.64167
-0.432692 -2.68858 -2.68858
-0.440663 -2.78361 -2.78361
-0.278998 -2.78418 -2.78418
-0.273498 -2.68904 -2.68904
-0.436676 -2.73591 -2.73591
-0.359796 -2.78374 -2.78374
-0.276245 -2.73643 -2.73643
-0.353061 -2.68866 -2.68866
-0.356426 -2.73601 -2.73601
-0.440663 -2.78361 -2.78361
-0.448646 -2.88009 -2.88009
-0.284528 -2.88077 -2.88077
-0.278998 -2.78418 -2.78418
-0.444653 -2.83167 -2.83167
-0.366552 -2.88027 -2.88027
-0.281759 -2.83229 -2.83229
-0.359796 -2.78374 -2.78374
-0.363172 -2.83182 -2.83182
-0.448646 -2.88009 -2.88009
-0.45664 -2.97801 -2.97801
-0.290086 -2.9788 -2.9788
-0.284528 -2.88077 -2.88077
-0.452641 -2.92887 -2.92887
-0.373328 -2.97826 -2.97826
-0.287303 -2.9296 -2.9296
-0.366552 -2.88027 -2.88027
-0.369938 -2.92908 -2.92908
-0.45664 -2.97801 -2.97801
-0.464646 -3.07737 -3.07737
-0.295674 -3.07828 -3.07828
-0.290086 -2.9788 -2.9788
-0.460642 -3.02752 -3.02752
-0.380126 -3.07767 -3.07767
-0.292876 -3.02836 -3.02836
-0.373328 -2.97826 -2.97826
-0.376724 -3.02779 -3.02779
-0.464646 -3.07737 -3.07737
-0.472666 -3.17816 -3.17816
-0.301293 -3.17917 -3.17917
-0.295674 -3.07828 -3.07828
-0.468654 -3.12759 -3.12759
-0.386944 -3.17852 -3.17852
-0.29848 -3.12855 -3.12855
-0.380126 -3.07767 -3.07767
-0.383532 -3.12792 -3.12792
-0.472666 -3.17816 -3.17816
-0.480698 -3.28036 -3.28036
-0.306941 -3.28149 -3.28149
-0.301293 -3.17917 -3.17917
-0.47668 -3.22908 -3.22908
-0.393785 -3.28077 -3.28077
-0.304113 -3.23016 -3.23016
-0.386944 -3.17852 -3.17852
-0.390362 -3.22947 -3.22947
-0.480698 -3.28036 -3.28036
-0.488743 -3.38396 -3.38396
-0.312621 -3.38521 -3.38521
-0.306941 -3.28149 -3.28149
-0.484719 -3.33199 -3.33199
-0.400647 -3.38444 -3.38444
-0.309777 -3.33317 -3.33317
-0.393785 -3.28077 -3.28077
-0.397213 -3.33243 -3.33243
-0.488743 -3.38396 -3.38396
-0.496803 -3.48896 -3.48896
-0.318332 -3.49032 -3.49032
-0.312621 -3.38521 -3.38521
-0.492771 -3.43629 -3.43629
-0.407533 -3.48949 -3.48949
-0.315472 -3.43759 -3.43759
-0.400647 -3.38444 -3.38444
-0.404087 -3.43679 -3.43679
-0.496803 -3.48896 -3.48896
-0.504876 -3.59535 -3.59535
-0.324074 -3.59682 -3.59682
-0.318332 -3.49032 -3.49032
-0.500838 -3.54198 -3.54198
-0.41444 -3.59594 -3.59594
-0.321199 -3.5434 -3.5434
-0.407533 -3.48949 -3.48949
-0.410984 -3.54254 -3.54254
-0.504876 -3.59535 -3.59535
-0.512964 -3.7031 -3.7031
-0.329848 -3.70469 -3.70469
-0.324074 -3.59682 -3.59682
-0.508919 -3.64905 -3.64905
-0.421372 -3.70375 -3.70375
-0.326957 -3.65058 -3.65058
-0.41444 -3.59594 -3.59594
-0.417903 -3.64967 -3.64967
-0.512964 -3.7031 -3.7031
-0.521067 -3.81222 -3.81222
-0.335655 -3.81393 -3.81393
-0.329848 -3.70469 -3.70469
-0.517014 -3.75749 -3.75749
-0.428326 -3.81293 -3.81293
-0.332747 -3.75914 -3.75914
-0.421372 -3.70375 -3.70375
-0.424846 -3.75817 -3.75817
-0.521067 -3.81222 -3.81222
-0.529185 -3.9227 -3.9227
-0.341494 -3.92452 -3.92452
-0.335655 -3.81393 -3.81393
-0.525124 -3.86729 -3.86729
-0.435305 -3.92346 -3.92346
-0.33857 -3.86905 -3.86905
-0.428326 -3.81293 -3.81293
-0.431812 -3.86803 -3.86803
-0.529185 -3.9227 -3.9227
-0.537318 -4.03451 -4.03451
-0.347365 -4.03645 -4.03645
-0.341494 -3.92452 -3.92452
-0.53325 -3.97844 -3.97844
-0.442307 -4.03534 -4.03534
-0.344425 -3.98032 -3.98032
-0.435305 -3.92346 -3.92346
-0.438803 -3.97924 -3.97924
-0.537318 -4.03451 -4.03451
-0.545467 -4.14766 -4.14766
-0.35327 -4.14972 -4.14972
-0.347365 -4.03645 -4.03645
-0.541391 -4.09092 -4.09092
-0.449334 -4.14855 -4.14855
-0.350314 -4.09292 -4.09292
-0.442307 -4.03534 -4.03534
-0.445817 -4.09178 -4.09178
-0.545467 -4.14766 -4.14766
-0.553631 -4.26214 -4.26214
-0.359208 -4.26431 -4.26431
-0.35327 -4.14972 -4.14972
-0.549547 -4.20473 -4.20473
-0.456385 -4.26308 -4.26308
-0.356235 -4.20685 -4.20685
-0.449334 -4.14855 -4.14855
-0.452856 -4.20565 -4.20565
-0.553631 -4.26214 -4.26214
-0.561812 -4.37792 -4.37792
-0.365179 -4.38021 -4.38021
-0.359208 -4.26431 -4.26431
-0.55772 -4.31986 -4.31986
-0.463461 -4.37893 -4.37893
-0.362189 -4.3221 -4.3221
-0.456385 -4.26308 -4.26308
-0.45992 -4.32084 -4.32084
-0.561812 -4.37792 -4.37792
-0.570009 -4.49501 -4.49501
-0.371184 -4.49742 -4.49742
-0.365179 -4.38021 -4.38021
-0.565908 -4.4363 -4.4363
-0.470562 -4.49607 -4.49607
-0.368178 -4.43865 -4.43865
-0.463461 -4.37893 -4.37893
-0.467008 -4.43734 -4.43734
-0.570009 -4.49501 -4.49501
-0.578222 -4.61338 -4.61338
-0.377223 -4.61591 -4.61591
-0.371184 -4.49742 -4.49742
-0.574113 -4.55403 -4.55403
-0.477688 -4.61451 -4.61451
-0.3742 -4.5565 -4.5565
-0.470562 -4.49607 -4.49607
-0.474121 -4.55513 -4.55513
-0.578222 -4.61338 -4.61338
-0.586452 -4.73304 -4.73304
-0.383296 -4.73569 -4.73569
-0.377223 -4.61591 -4.61591
-0.582335 -4.67305 -4.67305
-0.484839 -4.73423 -4.73423
-0.380256 -4.67564 -4.67564
-0.477688 -4.61451 -4.61451
-0.48126 -4.67421 -4.67421
-0.586452 -4.73304 -4.73304
-0.594698 -4.85398 -4.85398
-0.389404 -4.85674 -4.85674
-0.383296 -4.73569 -4.73569
-0.590573 -4.79335 -4.79335
-0.492016 -4.85523 -4.85523
-0.386346 -4.79606 -4.79606
-0.484839 -4.73423 -4.73423
-0.488424 -4.79457 -4.79457
-0.594698 -4.85398 -4.85398
-0.602962 -4.97617 -4.97617
-0.395545 -4.97906 -4.97906
-0.389404 -4.85674 -4.85674
-0.598828 -4.91491 -4.91491
-0.499219 -4.97748 -4.97748
-0.39247 -4.91774 -4.91774
-0.492016 -4.85523 -4.85523
-0.495614 -4.9162 -4.9162
-0.602962 -4.97617 -4.97617
-0.611243 -5.09961 -5.09961
-0.401721 -5.10262 -5.10262
-0.395545 -4.97906 -4.97906
-0.6071 -5.03773 -5.03773
-0.506447 -5.10098 -5.10098
-0.398629 -5.04068 -5.04068
-0.499219 -4.97748 -4.97748
-0.502829 -5.03908 -5.03908
-0.611243 -5.09961 -5.09961
-0.619541 -5.2243 -5.2243
-0.407932 -5.22742 -5.22742
-0.401721 -5.10262 -5.10262
-0.615389 -5.1618 -5.1618
-0.513701 -5.22573 -5.22573
-0.404822 -5.16487 -5.16487
-0.506447 -5.10098 -5.10098
-0.510071 -5.1632 -5.1632
-0.619541 -5.2243 -5.2243
-0.627856 -5.35021 -5.35021
-0.414177 -5.35346 -5.35346
-0.407932 -5.22742 -5.22742
-0.623696 -5.2871 -5.2871
-0.520981 -5.3517 -5.3517
-0.41105 -5.29029 -5.29029
-0.513701 -5.22573 -5.22573
-0.517338 -5.28856 -5.28856
-0.627856 -5.35021 -5.35021
-0.636188 -5.47734 -5.47734
-0.420457 -5.48071 -5.48071
-0.414177 -5.35346 -5.35346
-0.63202 -5.41363 -5.41363
-0.528288 -5.4789 -5.4789
-0.417313 -5.41693 -5.41693
-0.520981 -5.3517 -5.3517
-0.524631 -5.41515 -5.41515
-0.636188 -5.47734 -5.47734
-0.644538 -5.60569 -5.60569
-0.426772 -5.60918 -5.60918
-0.420457 -5.48071 -5.48071
-0.640361 -5.54137 -5.54137
-0.53562 -5.60731 -5.60731
-0.42361 -5.5448 -5.5448
-0.528288 -5.4789 -5.4789
-0.53195 -5.54295 -5.54295
-0.644538 -5.60569 -5.60569
-0.652905 -5.73523 -5.73523
-0.433122 -5.73884 -5.73884
-0.426772 -5.60918 -5.60918
-0.648719 -5.67031 -5.67031
-0.542979 -5.73691 -5.73691
-0.429943 -5.67386 -5.67386
-0.53562 -5.60731 -5.60731
-0.539296 -5.67196 -5.67196
-0.652905 -5.73523 -5.73523
-0.66129 -5.86597 -5.86597
-0.439507 -5.8697 -5.8697
-0.433122 -5.73884 -5.73884
-0.657096 -5.80045 -5.80045
-0.550363 -5.86771 -5.86771
-0.43631 -5.80412 -5.80412
-0.542979 -5.73691 -5.73691
-0.546668 -5.80216 -5.80216
-0.66129 -5.86597 -5.86597
-0.669693 -5.99788 -5.99788
-0.445926 -6.00173 -6.00173
-0.439507 -5.8697 -5.8697
-0.665489 -5.93178 -5.93178
-0.557775 -5.99968 -5.99968
-0.442712 -5.93557 -5.93557
-0.550363 -5.86771 -5.86771
-0.554066 -5.93355 -5.93355
-0.669693 -5.99788 -5.99788
-0.678113 -6.13096 -6.13096
-0.452381 -6.13494 -6.13494
-0.445926 -6.00173 -6.00173
-0.673901 -6.06428 -6.06428
-0.565212 -6.13283 -6.13283
-0.449149 -6.06819 -6.06819
-0.557775 -5.99968 -5.99968
-0.56149 -6.06611 -6.06611
-0.678113 -6.13096 -6.13096
-0.686551 -6.2652 -6.2652
-0.458871 -6.2693 -6.2693
-0.452381 -6.13494 -6.13494
-0.682329 -6.19794 -6.19794
-0.572676 -6.26713 -6.26713
-0.455622 -6.20197 -6.20197
-0.565212 -6.13283 -6.13283
-0.56894 -6.19983 -6.19983
-0.686551 -6.2652 -6.2652
-0.695006 -6.40059 -6.40059
-0.465395 -6.40481 -6.40481
-0.458871 -6.2693 -6.2693
-0.690776 -6.33276 -6.33276
-0.580166 -6.40258 -6.40258
-0.462129 -6.33691 -6.33691
-0.572676 -6.26713 -6.26713
-0.576417 -6.33471 -6.33471
-0.695006 -6.40059 -6.40059
-0.703478 -6.53712 -6.53712
-0.471955 -6.54146 -6.54146
-0.465395 -6.40481 -6.40481
-0.69924 -6.46872 -6.46872
-0.587682 -6.53917 -6.53917
-0.468671 -6.47299 -6.47299
-0.580166 -6.40258 -6.40258
-0.58392 -6.47073 -6.47073
-0.703478 -6.53712 -6.53712
-0.711969 -6.67478 -6.67478
-0.47855 -6.67923 -6.67923
-0.471955 -6.54146 -6.54146
-0.707721 -6.60581 -6.60581
-0.595224 -6.67689 -6.67689
-0.475248 -6.6102 -6.6102
-0.587682 -6.53917 -6.53917
-0.59145 -6.60789 -6.60789
-0.711969 -6.67478 -6.67478
-0.720476 -6.81355 -6.81355
-0.485179 -6.81813 -6.81813
-0.47855 -6.67923 -6.67923
-0.71622 -6.74403 -6.74403
-0.602793 -6.81572 -6.81572
-0.48186 -6.74854 -6.74854
-0.595224 -6.67689 -6.67689
-0.599005 -6.74617 -6.74617
-0.720476 -6.81355 -6.81355
-0.729001 -6.95343 -6.95343
-0.491843 -6.95813 -6.95813
-0.485179 -6.81813 -6.81813
-0.724737 -6.88336 -6.88336
-0.610387 -6.95567 -6.95567
-0.488507 -6.88799 -6.88799
-0.602793 -6.81572 -6.81572
-0.606587 -6.88556 -6.88556
-0.729001 -6.95343 -6.95343
-0.737544 -7.09441 -7.09441
-0.498542 -7.09923 -7.09923
-0.491843 -6.95813 -6.95813
-0.73327 -7.02379 -7.02379
-0.618008 -7.09671 -7.09671
-0.495188 -7.02854 -7.02854
-0.610387 -6.95567 -6.95567
-0.614194 -7.02605 -7.02605
-0.737544 -7.09441 -7.09441
-0.746103 -7.23648 -7.23648
-0.505275 -7.24141 -7.24141
-0.498542 -7.09923 -7.09923
-0.741821 -7.16531 -7.16531
-0.625654 -7.23883 -7.23883
-0.501904 -7.17019 -7.17019
-0.618008 -7.09671 -7.09671
-0.621828 -7.16763 -7.16763
-0.746103 -7.23648 -7.23648
-0.75468 -7.37962 -7.37962
-0.512043 -7.38468 -7.38468
-0.505275 -7.24141 -7.24141
-0.750389 -7.30792 -7.30792
-0.633326 -7.38204 -7.38204
-0.508655 -7.31291 -7.31291
-0.625654 -7.23883 -7.23883
-0.629487 -7.3103 -7.3103
-0.75468 -7.37962 -7.37962
-0.763273 -7.52383 -7.52383
-0.518845 -7.52901 -7.52901
-0.512043 -7.38468 -7.38468
-0.758974 -7.45159 -7.45159
-0.641024 -7.52631 -7.52631
-0.51544 -7.45671 -7.45671
-0.633326 -7.38204 -7.38204
-0.637172 -7.45404 -7.45404
-0.763273 -7.52383 -7.52383
-0.771884 -7.6691 -7.6691
-0.525682 -7.67439 -7.67439
-0.518845 -7.52901 -7.52901
-0.767576 -7.59633 -7.59633
-0.648748 -7.67163 -7.67163
-0.522259 -7.60157 -7.60157
-0.641024 -7.52631 -7.52631
-0.644883 -7.59884 -7.59884
-0.771884 -7.6691 -7.6691
-0.780511 -7.81541 -7.81541
-0.532552 -7.82082 -7.82082
-0.525682 -7.67439 -7.67439
-0.776195 -7.74212 -7.74212
-0.656496 -7.81801 -7.81801
-0.529113 -7.74748 -7.74748
-0.648748 -7.67163 -7.67163
-0.652619 -7.74469 -7.74469
-0.780511 -7.81541 -7.81541
-0.789154 -7.96276 -7.96276
-0.539456 -7.96829 -7.96829
-0.532552 -7.82082 -7.82082
-0.78483 -7.88896 -7.88896
-0.66427 -7.96542 -7.96542
-0.536 -7.89443 -7.89443
-0.656496 -7.81801 -7.81801
-0.66038 -7.89158 -7.89158
-0.789154 -7.96276 -7.96276
-0.797814 -8.11113 -8.11113
-0.546394 -8.11678 -8.11678
-0.539456 -7.96829 -7.96829
-0.793482 -8.03682 -8.03682
-0.672069 -8.11385 -8.11385
-0.542921 -8.04241 -8.04241
-0.66427 -7.96542 -7.96542
-0.668167 -8.03951 -8.03951
-0.797814 -8.11113 -8.11113
-0.80649 -8.26052 -8.26052
-0.553366 -8.26629 -8.26629
-0.546394 -8.11678 -8.11678
-0.80215 -8.1857 -8.1857
-0.679893 -8.2633 -8.2633
-0.549876 -8.19141 -8.19141
-0.672069 -8.11385 -8.11385
-0.675978 -8.18845 -8.18845
-0.80649 -8.26052 -8.26052
-0.815182 -8.41092 -8.41092
-0.560371 -8.4168 -8.4168
-0.553366 -8.26629 -8.26629
-0.810834 -8.3356 -8.3356
-0.687742 -8.41376 -8.41376
-0.556864 -8.34142 -8.34142
-0.679893 -8.2633 -8.2633
-0.683814 -8.3384 -8.3384
-0.815182 -8.41092 -8.41092
-0.823889 -8.56231 -8.56231
-0.567409 -8.56831 -8.56831
-0.560371 -8.4168 -8.4168
-0.819534 -8.48649 -8.48649
-0.695614 -8.56521 -8.56521
-0.563886 -8.49243 -8.49243
-0.687742 -8.41376 -8.41376
-0.691675 -8.48936 -8.48936
-0.823889 -8.56231 -8.56231
-0.832613 -8.71468 -8.71468
-0.57448 -8.7208 -8.7208
-0.567409 -8.56831 -8.56831
-0.828249 -8.63837 -8.63837
-0.703512 -8.71764 -8.71764
-0.57094 -8.64443 -8.64443
-0.695614 -8.56521 -8.56521
-0.69956 -8.6413 -8.6413
-0.832613 -8.71468 -8.71468
-0.841351 -8.86803 -8.86803
-0.581584 -8.87427 -8.87427
-0.57448 -8.7208 -8.7208
-0.83698 -8.79124 -8.79124
-0.711433 -8.87105 -8.87105
-0.578028 -8.79741 -8.79741
-0.703512 -8.71764 -8.71764
-0.707469 -8.79422 -8.79422
-0.841351 -8.86803 -8.86803
-0.850105 -9.02235 -9.02235
-0.58872 -9.0287 -9.0287
-0.581584 -8.87427 -8.87427
-0.845726 -8.94507 -8.94507
-0.719377 -9.02542 -9.02542
-0.585147 -8.95136 -8.95136
-0.711433 -8.87105 -8.87105
-0.715402 -8.94812 -8.94812
-0.850105 -9.02235 -9.02235
-0.858873 -9.17762 -9.17762
-0.595888 -9.18408 -9.18408
-0.58872 -9.0287 -9.0287
-0.854487 -9.09986 -9.09986
-0.727346 -9.18075 -9.18075
-0.5923 -9.10627 -9.10627
-0.719377 -9.02542 -9.02542
-0.723359 -9.10297 -9.10297
-0.858873 -9.17762 -9.17762
-0.867656 -9.33383 -9.33383
-0.603088 -9.34041 -9.34041
-0.595888 -9.18408 -9.18408
-0.863262 -9.25561 -9.25561
-0.735337 -9.33702 -9.33702
-0.599484 -9.26213 -9.26213
-0.727346 -9.18075 -9.18075
-0.731338 -9.25877 -9.25877
-0.867656 -9.33383 -9.33383
-0.876453 -9.49097 -9.49097
-0.610319 -9.49767 -9.49767
-0.603088 -9.34041 -9.34041
-0.872052 -9.41229 -9.41229
-0.743351 -9.49423 -9.49423
-0.6067 -9.41892 -9.41892
-0.735337 -9.33702 -9.33702
-0.739341 -9.41551 -9.41551
-0.876453 -9.49097 -9.49097
-0.885264 -9.64904 -9.64904
-0.617582 -9.65585 -9.65585
-0.610319 -9.49767 -9.49767
-0.880856 -9.56989 -9.56989
-0.751388 -9.65235 -9.65235
-0.613947 -9.57665 -9.57665
-0.743351 -9.49423 -9.49423
-0.747367 -9.57317 -9.57317
-0.885264 -9.64904 -9.64904
-0.894088 -9.80803 -9.80803
-0.624876 -9.81495 -9.81495
-0.617582 -9.65585 -9.65585
-0.889674 -9.72842 -9.72842
-0.759448 -9.81139 -9.81139
-0.621225 -9.73529 -9.73529
-0.751388 -9.65235 -9.65235
-0.755415 -9.73176 -9.73176
-0.894088 -9.80803 -9.80803
-0.902926 -9.96791 -9.96791
-0.632201 -9.97495 -9.97495
-0.624876 -9.81495 -9.81495
-0.898505 -9.88786 -9.88786
-0.767529 -9.97134 -9.97134
-0.628535 -9.89484 -9.89484
-0.759448 -9.81139 -9.81139
-0.763486 -9.89125 -9.89125
-0.902926 -9.96791 -9.96791
-0.911777 -10.1287 -10.1287
-0.639556 -10.1358 -10.1358
-0.632201 -9.97495 -9.97495
-0.90735 -10.0482 -10.0482
-0.775632 -10.1322 -10.1322
-0.635875 -10.0553 -10.0553
-0.767529 -9.97134 -9.97134
-0.771578 -10.0516 -10.0516
-0.911777 -10.1287 -10.1287
-0.92064 -10.2904 -10.2904
-0.646941 -10.2976 -10.2976
-0.639556 -10.1358 -10.1358
-0.916207 -10.2094 -10.2094
-0.783756 -10.2939 -10.2939
-0.643245 -10.2166 -10.2166
-0.775632 -10.1322 -10.1322
-0.779691 -10.2129 -10.2129
-0.92064 -10.2904 -10.2904
-0.929516 -10.4529 -10.4529
-0.654355 -10.4603 -10.4603
-0.646941 -10.2976 -10.2976
-0.925077 -10.3715 -10.3715
-0.791901 -10.4565 -10.4565
-0.650644 -10.3788 -10.3788
-0.783756 -10.2939 -10.2939
-0.787826 -10.3751 -10.3751
-0.929516 -10.4529 -10.4529
-0.938404 -10.6163 -10.6163
-0.661799 -10.6238 -10.6238
-0.654355 -10.4603 -10.4603
-0.933959 -10.5345 -10.5345
-0.800067 -10.6199 -10.6199
-0.658074 -10.5419 -10.5419
-0.791901 -10.4565 -10.4565
-0.795982 -10.5381 -10.5381
-0.938404 -10.6163 -10.6163
-0.947303 -10.7805 -10.7805
-0.669272 -10.7881 -10.7881
-0.661799 -10.6238 -10.6238
-0.942852 -10.6983 -10.6983
-0.808254 -10.7842 -10.7842
-0.665532 -10.7058 -10.7058
-0.800067 -10.6199 -10.6199
-0.804158 -10.702 -10.702
-0.947303 -10.7805 -10.7805
-0.956214 -10.9456 -10.9456
-0.676774 -10.9533 -10.9533
-0.669272 -10.7881 -10.7881
-0.951757 -10.863 -10.863
-0.81646 -10.9494 -10.9494
-0.673019 -10.8706 -10.8706
-0.808254 -10.7842 -10.7842
-0.812354 -10.8667 -10.8667
-0.956214 -10.9456 -10.9456
-0.965135 -11.1115 -11.1115
-0.684303 -11.1193 -11.1193
-0.676774 -10.9533 -10.9533
-0.960673 -11.0285 -11.0285
-0.824685 -11.1154 -11.1154
-0.680535 -11.0362 -11.0362
-0.81646 -10.9494 -10.9494
-0.82057 -11.0323 -11.0323
-0.965135 -11.1115 -11.1115
-0.974067 -11.2783 -11.2783
-0.691861 -11.2862 -11.2862
-0.684303 -11.1193 -11.1193
-0.9696 -11.1948 -11.1948
-0.83293 -11.2822 -11.2822
-0.688079 -11.2027 -11.2027
-0.824685 -11.1154 -11.1154
-0.828805 -11.1987 -11.1987
-0.974067 -11.2783 -11.2783
-0.983009 -11.4458 -11.4458
-0.699445 -11.4539 -11.4539
-0.691861 -11.2862 -11.2862
-0.978537 -11.362 -11.362
-0.841193 -11.4498 -11.4498
-0.69565 -11.3699 -11.3699
-0.83293 -11.2822 -11.2822
-0.837059 -11.3659 -11.3659
-0.983009 -11.4458 -11.4458
-0.99196 -11.6142 -11.6142
-0.707057 -11.6223 -11.6223
-0.699445 -11.4539 -11.4539
-0.987483 -11.5299 -11.5299
-0.849475 -11.6182 -11.6182
-0.703248 -11.538 -11.538
-0.841193 -11.4498 -11.4498
-0.845332 -11.5339 -11.5339
-0.99196 -11.6142 -11.6142
-1.00092 -11.7833 -11.7833
-0.714695 -11.7916 -11.7916
-0.707057 -11.6223 -11.6223
-0.996439 -11.6987 -11.6987
-0.857774 -11.7874 -11.7874
-0.710873 -11.7068 -11.7068
-0.849475 -11.6182 -11.6182
-0.853622 -11.7027 -11.7027
-1.00092 -11.7833 -11.7833
-1.00989 -11.9533 -11.9533
-0.722359 -11.9616 -11.9616
-0.714695 -11.7916 -11.7916
-1.0054 -11.8682 -11.8682
-0.866091 -11.9573 -11.9573
-0.718524 -11.8765 -11.8765
-0.857774 -11.7874 -11.7874
-0.86193 -11.8723 -11.8723
-1.00989 -11.9533 -11.9533
-1.01887 -12.1239 -12.1239
-0.730049 -12.1324 -12.1324
-0.722359 -11.9616 -11.9616
-1.01438 -12.0385 -12.0385
-0.874425 -12.1281 -12.1281
-0.726201 -12.0469 -12.0469
-0.866091 -11.9573 -11.9573
-0.870256 -12.0426 -12.0426
-1.01887 -12.1239 -12.1239
-1.02785 -12.2954 -12.2954
-0.737764 -12.304 -12.304
-0.730049 -12.1324 -12.1324
-1.02336 -12.2096 -12.2096
-0.882775 -12.2996 -12.2996
-0.733904 -12.2181 -12.2181
-0.874425 -12.1281 -12.1281
-0.878598 -12.2138 -12.2138
-1.02785 -12.2954 -12.2954
-1.03685 -12.4676 -12.4676
-0.745504 -12.4763 -12.4763
-0.737764 -12.304 -12.304
-1.03235 -12.3814 -12.3814
-0.891141 -12.4719 -12.4719
-0.741631 -12.39 -12.39
-0.882775 -12.2996 -12.2996
-0.886956 -12.3856 -12.3856
-1.03685 -12.4676 -12.4676
-1.04585 -12.6405 -12.6405
-0.753268 -12.6493 -12.6493
-0.745504 -12.4763 -12.4763
-1.04134 -12.554 -12.554
-0.899523 -12.6449 -12.6449
-0.749383 -12.5627 -12.5627
-0.891141 -12.4719 -12.4719
-0.89533 -12.5583 -12.5583
-1.04585 -12.6405 -12.6405
-1.05485 -12.8142 -12.8142
-0.761056 -12.8231 -12.8231
-0.753268 -12.6493 -12.6493
-1.05035 -12.7273 -12.7273
-0.90792 -12.8186 -12.8186
-0.757159 -12.7361 -12.7361
-0.899523 -12.6449 -12.6449
-0.903719 -12.7316 -12.7316
-1.05485 -12.8142 -12.8142
-1.06386 -12.9886 -12.9886
-0.768867 -12.9976 -12.9976
-0.761056 -12.8231 -12.8231
-1.05936 -12.9013 -12.9013
-0.916331 -12.993 -12.993
-0.764958 -12.9102 -12.9102
-0.90792 -12.8186 -12.8186
-0.912124 -12.9057 -12.9057
-1.06386 -12.9886 -12.9886
-1.07288 -13.1637 -13.1637
-0.7767 -13.1728 -13.1728
-0.768867 -12.9976 -12.9976
-1.06837 -13.0761 -13.0761
-0.924757 -13.1682 -13.1682
-0.772781 -13.0851 -13.0851
-0.916331 -12.993 -12.993
-0.920542 -13.0805 -13.0805
-1.07288 -13.1637 -13.1637
-1.0819 -13.3395 -13.3395
-0.784556 -13.3487 -13.3487
-0.7767 -13.1728 -13.1728
-1.07739 -13.2515 -13.2515
-0.933196 -13.344 -13.344
-0.780625 -13.2606 -13.2606
-0.924757 -13.1682 -13.1682
-0.928974 -13.256 -13.256
-1.0819 -13.3395 -13.3395
-1.09093 -13.516 -13.516
-0.792434 -13.5253 -13.5253
-0.784556 -13.3487 -13.3487
-1.08641 -13.4277 -13.4277
-0.941648 -13.5206 -13.5206
-0.788492 -13.4369 -13.4369
-0.933196 -13.344 -13.344
-0.93742 -13.4322 -13.4322
-1.09093 -13.516 -13.516
-1.09996 -13.6932 -13.6932
-0.800332 -13.7025 -13.7025
-0.792434 -13.5253 -13.5253
-1.09544 -13.6045 -13.6045
-0.950112 -13.6978 -13.6978
-0.79638 -13.6138 -13.6138
-0.941648 -13.5206 -13.5206
-0.945878 -13.6091 -13.6091
-1.09996 -13.6932 -13.6932
-1.10899 -13.871 -13.871
-0.808252 -13.8804 -13.8804
-0.800332 -13.7025 -13.7025
-1.10448 -13.782 -13.782
-0.958589 -13.8757 -13.8757
-0.804289 -13.7914 -13.7914
-0.950112 -13.6978 -13.6978
-0.954349 -13.7866 -13.7866
-1.10899 -13.871 -13.871
-1.11803 -14.0495 -14.0495
-0.816191 -14.059 -14.059
-0.808252 -13.8804 -13.8804
-1.11351 -13.9602 -13.9602
-0.967077 -14.0542 -14.0542
-0.812219 -13.9697 -13.9697
-0.958589 -13.8757 -13.8757
-0.962831 -13.9648 -13.9648
-1.11803 -14.0495 -14.0495
-1.12707 -14.2286 -14.2286
-0.82415 -14.2383 -14.2383
-0.816191 -14.059 -14.059
-1.12255 -14.139 -14.139
-0.975576 -14.2334 -14.2334
-0.820168 -14.1486 -14.1486
-0.967077 -14.0542 -14.0542
-0.971325 -14.1437 -14.1437
-1.12707 -14.2286 -14.2286
-1.13611 -14.4084 -14.4084
-0.832128 -14.4181 -14.4181
-0.82415 -14.2383 -14.2383
-1.13159 -14.3184 -14.3184
-0.984085 -14.4132 -14.4132
-0.828137 -14.3281 -14.3281
-0.975576 -14.2334 -14.2334
-0.979829 -14.3232 -14.3232
-1.13611 -14.4084 -14.4084
-1.14515 -14.5888 -14.5888
-0.840124 -14.5986 -14.5986
-0.832128 -14.4181 -14.4181
-1.14063 -14.4985 -14.4985
-0.992604 -14.5936 -14.5936
-0.836124 -14.5083 -14.5083
-0.984085 -14.4132 -14.4132
-0.988343 -14.5033 -14.5033
-1.14515 -14.5888 -14.5888
-1.15419 -14.7698 -14.7698
-0.848139 -14.7797 -14.7797
-0.840124 -14.5986 -14.5986
-1.14967 -14.6792 -14.6792
-1.00113 -14.7747 -14.7747
-0.844129 -14.6891 -14.6891
-0.992604 -14.5936 -14.5936
-0.996867 -14.6841 -14.6841
-1.15419 -14.7698 -14.7698
-1.16323 -14.9514 -14.9514
-0.85617 -14.9614 -14.9614
-0.848139 -14.7797 -14.7797
-1.15871 -14.8606 -14.8606
-1.00967 -14.9564 -14.9564
-0.852152 -14.8705 -14.8705
-1.00113 -14.7747 -14.7747
-1.0054 -14.8655 -14.8655
-1.16323 -14.9514 -14.9514
-1.17227 -15.1337 -15.1337
-0.864218 -15.1438 -15.1438
-0.85617 -14.9614 -14.9614
-1.16775 -15.0425 -15.0425
-1.01821 -15.1387 -15.1387
-0.860192 -15.0525 -15.0525
-1.00967 -14.9564 -14.9564
-1.01394 -15.0474 -15.0474
-1.17227 -15.1337 -15.1337
-1.18131 -15.3165 -15.3165
-0.872282 -15.3267 -15.3267
-0.864218 -15.1438 -15.1438
-1.17679 -15.225 -15.225
-1.02677 -15.3215 -15.3215
-0.868248 -15.2351 -15.2351
-1.01821 -15.1387 -15.1387
-1.02249 -15.23 -15.23
-1.18131 -15.3165 -15.3165
-1.19035 -15.4999 -15.4999
-0.880362 -15.5101 -15.5101
-0.872282 -15.3267 -15.3267
-1.18583 -15.4081 -15.4081
-1.03532 -15.5049 -15.5049
-0.87632 -15.4183 -15.4183
-1.02677 -15.3215 -15.3215
-1.03104 -15.4131 -15.4131
-1.19035 -15.4999 -15.4999
-1.19939 -15.6838 -15.6838
-0.888457 -15.6942 -15.6942
-0.880362 -15.5101 -15.5101
-1.19487 -15.5918 -15.5918
-1.04389 -15.6889 -15.6889
-0.884408 -15.6021 -15.6021
-1.03532 -15.5049 -15.5049
-1.03961 -15.5969 -15.5969
-1.19939 -15.6838 -15.6838
-1.20842 -15.8683 -15.8683
-0.896565 -15.8787 -15.8787
-0.888457 -15.6942 -15.6942
-1.2039 -15.776 -15.776
-1.05246 -15.8735 -15.8735
-0.892509 -15.7864 -15.7864
-1.04389 -15.6889 -15.6889
-1.04817 -15.7811 -15.7811
-1.20842 -15.8683 -15.8683
-1.21745 -16.0534 -16.0534
-0.904688 -16.0639 -16.0639
-0.896565 -15.8787 -15.8787
-1.21293 -15.9608 -15.9608
-1.06104 -16.0586 -16.0586
-0.900625 -15.9712 -15.9712
-1.05246 -15.8735 -15.8735
-1.05675 -15.966 -15.966
-1.21745 -16.0534 -16.0534
-1.22647 -16.239 -16.239
-0.912823 -16.2496 -16.2496
-0.904688 -16.0639 -16.0639
-1.22196 -16.1461 -16.1461
-1.06962 -16.2442 -16.2442
-0.908754 -16.1567 -16.1567
-1.06104 -16.0586 -16.0586
-1.06532 -16.1513 -16.1513
-1.22647 -16.239 -16.239
-1.23549 -16.4251 -16.4251
-0.920971 -16.4357 -16.4357
-0.912823 -16.2496 -16.2496
-1.23098 -16.3319 -16.3319
-1.0782 -16.4303 -16.4303
-0.916895 -16.3426 -16.3426
-1.06962 -16.2442 -16.2442
-1.07391 -16.3372 -16.3372
-1.23549 -16.4251 -16.4251
-1.24451 -16.6117 -16.6117
-0.92913 -16.6224 -16.6224
-0.920971 -16.4357 -16.4357
-1.24 -16.5183 -16.5183
-1.08679 -16.617 -16.617
-0.925049 -16.529 -16.529
-1.0782 -16.4303 -16.4303
-1.08249 -16.5236 -16.5236
-1.24451 -16.6117 -16.6117
-1.25351 -16.7988 -16.7988
-0.9373 -16.8097 -16.8097
-0.92913 -16.6224 -16.6224
-1.24901 -16.7052 -16.7052
-1.09537 -16.8042 -16.8042
-0.933214 -16.716 -16.716
-1.08679 -16.617 -16.617
-1.09108 -16.7105 -16.7105
-1.25351 -16.7988 -16.7988
-1.26251 -16.9864 -16.9864
-0.945481 -16.9974 -16.9974
-0.9373 -16.8097 -16.8097
-1.25801 -16.8926 -16.8926
-1.10397 -16.9918 -16.9918
-0.941389 -16.9034 -16.9034
-1.09537 -16.8042 -16.8042
-1.09967 -16.898 -16.898
-1.26251 -16.9864 -16.9864
-1.27151 -17.1745 -17.1745
-0.953671 -17.1855 -17.1855
-0.945481 -16.9974 -16.9974
-1.26701 -17.0804 -17.0804
-1.11256 -17.18 -17.18
-0.949575 -17.0914 -17.0914
-1.10397 -16.9918 -16.9918
-1.10826 -17.0859 -17.0859
-1.27151 -17.1745 -17.1745
-1.28049 -17.3631 -17.3631
-0.961871 -17.3742 -17.3742
-0.953671 -17.1855 -17.1855
-1.276 -17.2688 -17.2688
-1.12115 -17.3686 -17.3686
-0.95777 -17.2798 -17.2798
-1.11256 -17.18 -17.18
-1.11685 -17.2742 -17.2742
-1.28049 -17.3631 -17.3631
-1.28947 -17.5522 -17.5522
-0.970079 -17.5633 -17.5633
-0.961871 -17.3742 -17.3742
-1.28498 -17.4576 -17.4576
-1.12974 -17.5577 -17.5577
-0.965974 -17.4687 -17.4687
-1.12115 -17.3686 -17.3686
-1.12544 -17.4631 -17.4631
-1.28947 -17.5522 -17.5522
-1.29843 -17.7417 -17.7417
-0.978294 -17.7529 -17.7529
-0.970079 -17.5633 -17.5633
-1.29395 -17.6469 -17.6469
-1.13833 -17.7472 -17.7472
-0.974186 -17.658 -17.658
-1.12974 -17.5577 -17.5577
-1.13404 -17.6524 -17.6524
-1.29843 -17.7417 -17.7417
-1.30739 -17.9316 -17.9316
-0.986517 -17.9429 -17.9429
-0.978294 -17.7529 -17.7529
-1.30291 -17.8366 -17.8366
-1.14692 -17.9372 -17.9372
-0.982405 -17.8478 -17.8478
-1.13833 -17.7472 -17.7472
-1.14263 -17.8422 -17.8422
-1.30739 -17.9316 -17.9316
-1.31633 -18.122 -18.122
-0.994746 -18.1333 -18.1333
-0.986517 -17.9429 -17.9429
-1.31186 -18.0267 -18.0267
-1.15551 -18.1276 -18.1276
-0.99063 -18.0381 -18.0381
-1.14692 -17.9372 -17.9372
-1.15121 -18.0324 -18.0324
-1.31633 -18.122 -18.122
-1.32527 -18.3128 -18.3128
-1.00298 -18.3242 -18.3242
-0.994746 -18.1333 -18.1333
-1.3208 -18.2173 -18.2173
-1.16409 -18.3184 -18.3184
-0.998862 -18.2287 -18.2287
-1.15551 -18.1276 -18.1276
-1.1598 -18.223 -18.223
-1.32527 -18.3128 -18.3128
-1.33419 -18.504 -18.504
-1.01122 -18.5155 -18.5155
-1.00298 -18.3242 -18.3242
-1.32973 -18.4083 -18.4083
-1.17267 -18.5097 -18.5097
-1.0071 -18.4198 -18.4198
-1.16409 -18.3184 -18.3184
-1.16838 -18.414 -18.414
-1.33419 -18.504 -18.504
-1.3431 -18.6956 -18.6956
-1.01946 -18.7072 -18.7072
-1.01122 -18.5155 -18.5155
-1.33864 -18.5997 -18.5997
-1.18125 -18.7013 -18.7013
-1.01534 -18.6113 -18.6113
-1.17267 -18.5097 -18.5097
-1.17696 -18.6055 -18.6055
-1.3431 -18.6956 -18.6956
-1.35199 -18.8876 -18.8876
-1.02771 -18.8992 -18.8992
-1.01946 -18.7072 -18.7072
-1.34754 -18.7915 -18.7915
-1.18982 -18.8934 -18.8934
-1.02359 -18.8031 -18.8031
-1.18125 -18.7013 -18.7013
-1.18553 -18.7973 -18.7973
-1.35199 -18.8876 -18.8876
-1.36087 -19.08 -19.08
-1.03596 -19.0917 -19.0917
-1.02771 -18.8992 -18.8992
-1.35643 -18.9837 -18.9837
-1.19838 -19.0858 -19.0858
-1.03183 -18.9954 -18.9954
-1.18982 -18.8934 -18.8934
-1.1941 -18.9895 -18.9895
-1.36087 -19.08 -19.08
-1.36973 -19.2727 -19.2727
-1.04421 -19.2845 -19.2845
-1.03596 -19.0917 -19.0917
-1.3653 -19.1763 -19.1763
-1.20694 -19.2786 -19.2786
-1.04009 -19.188 -19.188
-1.19838 -19.0858 -19.0858
-1.20266 -19.1821 -19.1821
-1.36973 -19.2727 -19.2727
-1.37858 -19.4658 -19.4658
-1.05247 -19.4777 -19.4777
-1.04421 -19.2845 -19.2845
-1.37416 -19.3692 -19.3692
-1.21549 -19.4717 -19.4717
-1.04834 -19.381 -19.381
-1.20694 -19.2786 -19.2786
-1.21122 -19.3751 -19.3751
-1.37858 -19.4658 -19.4658
-1.38741 -19.6593 -19.6593
-1.06072 -19.6712 -19.6712
-1.05247 -19.4777 -19.4777
-1.383 -19.5625 -19.5625
-1.22403 -19.6652 -19.6652
-1.05659 -19.5744 -19.5744
-1.21549 -19.4717 -19.4717
-1.21976 -19.5684 -19.5684
-1.38741 -19.6593 -19.6593
-1.39623 -19.8531 -19.8531
-1.06897 -19.8651 -19.8651
-1.06072 -19.6712 -19.6712
-1.39182 -19.7562 -19.7562
-1.23257 -19.8591 -19.8591
-1.06485 -19.7681 -19.7681
-1.22403 -19.6652 -19.6652
-1.2283 -19.7621 -19.7621
-1.39623 -19.8531 -19.8531
-1.40502 -20.0473 -20.0473
-1.07723 -20.0593 -20.0593
-1.06897 -19.8651 -19.8651
-1.40063 -19.9501 -19.9501
-1.24109 -20.0532 -20.0532
-1.0731 -19.9621 -19.9621
-1.23257 -19.8591 -19.8591
-1.23683 -19.9561 -19.9561
-1.40502 -20.0473 -20.0473
-1.4138 -20.2417 -20.2417
-1.08548 -20.2538 -20.2538
-1.07723 -20.0593 -20.0593
-1.40941 -20.1444 -20.1444
-1.24961 -20.2477 -20.2477
-1.08135 -20.1565 -20.1565
-1.24109 -20.0532 -20.0532
-1.24535 -20.1504 -20.1504
-1.4138 -20.2417 -20.2417
-1.42256 -20.4365 -20.4365
-1.09373 -20.4486 -20.4486
-1.08548 -20.2538 -20.2538
-1.41818 -20.3391 -20.3391
-1.25811 -20.4425 -20.4425
-1.0896 -20.3512 -20.3512
-1.24961 -20.2477 -20.2477
-1.25386 -20.3451 -20.3451
-1.42256 -20.4365 -20.4365
-1.43129 -20.6316 -20.6316
-1.10197 -20.6437 -20.6437
-1.09373 -20.4486 -20.4486
-1.42693 -20.534 -20.534
-1.2666 -20.6376 -20.6376
-1.09785 -20.5461 -20.5461
-1.25811 -20.4425 -20.4425
-1.26236 -20.54 -20.54
-1.43129 -20.6316 -20.6316
-1.44001 -20.8269 -20.8269
-1.11021 -20.8391 -20.8391
-1.10197 -20.6437 -20.6437
-1.43565 -20.7292 -20.7292
-1.27508 -20.833 -20.833
-1.10609 -20.7414 -20.7414
-1.2666 -20.6376 -20.6376
-1.27084 -20.7353 -20.7353
-1.44001 -20.8269 -20.8269
-1.4487 -21.0225 -21.0225
-1.11845 -21.0348 -21.0348
-1.11021 -20.8391 -20.8391
-1.44436 -20.9247 -20.9247
-1.28355 -21.0287 -21.0287
-1.11433 -20.937 -20.937
-1.27508 -20.833 -20.833
-1.27932 -20.9308 -20.9308
-1.4487 -21.0225 -21.0225
-1.45737 -21.2185 -21.2185
-1.12668 -21.2308 -21.2308
-1.11845 -21.0348 -21.0348
-1.45304 -21.1205 -21.1205
-1.292 -21.2246 -21.2246
-1.12257 -21.1328 -21.1328
-1.28355 -21.0287 -21.0287
-1.28777 -21.1266 -21.1266
-1.45737 -21.2185 -21.2185
-1.46602 -21.4146 -21.4146
-1.13491 -21.427 -21.427
-1.12668 -21.2308 -21.2308
-1.4617 -21.3165 -21.3165
-1.30044 -21.4208 -21.4208
-1.1308 -21.3289 -21.3289
-1.292 -21.2246 -21.2246
-1.29622 -21.3227 -21.3227
-1.46602 -21.4146 -21.4146
-1.47465 -21.611 -21.611
-1.14313 -21.6235 -21.6235
-1.13491 -21.427 -21.427
-1.47034 -21.5128 -21.5128
-1.30886 -21.6172 -21.6172
-1.13902 -21.5252 -21.5252
-1.30044 -21.4208 -21.4208
-1.30465 -21.519 -21.519
-1.47465 -21.611 -21.611
-1.48324 -21.8077 -21.8077
-1.15134 -21.8202 -21.8202
-1.14313 -21.6235 -21.6235
-1.47895 -21.7093 -21.7093
-1.31726 -21.8139 -21.8139
-1.14723 -21.7218 -21.7218
-1.30886 -21.6172 -21.6172
-1.31306 -21.7155 -21.7155
-1.48324 -21.8077 -21.8077
-1.49182 -22.0046 -22.0046
-1.15954 -22.0171 -22.0171
-1.15134 -21.8202 -21.8202
-1.48753 -21.9061 -21.9061
-1.32565 -22.0108 -22.0108
-1.15544 -21.9186 -21.9186
-1.31726 -21.8139 -21.8139
-1.32146 -21.9123 -21.9123
-1.49182 -22.0046 -22.0046
-1.50036 -22.2017 -22.2017
-1.16774 -22.2143 -22.2143
-1.15954 -22.0171 -22.0171
-1.49609 -22.1031 -22.1031
-1.33402 -22.2079 -22.2079
-1.16364 -22.1157 -22.1157
-1.32565 -22.0108 -22.0108
-1.32984 -22.1094 -22.1094
-1.50036 -22.2017 -22.2017
-1.50888 -22.399 -22.399
-1.17592 -22.4116 -22.4116
-1.16774 -22.2143 -22.2143
-1.50463 -22.3003 -22.3003
-1.34237 -22.4053 -22.4053
-1.17183 -22.3129 -22.3129
-1.33402 -22.2079 -22.2079
-1.3382 -22.3066 -22.3066
-1.50888 -22.399 -22.399
-1.51737 -22.5965 -22.5965
-1.18409 -22.6092 -22.6092
-1.17592 -22.4116 -22.4116
-1.51313 -22.4977 -22.4977
-1.3507 -22.6028 -22.6028
-1.18001 -22.5104 -22.5104
-1.34237 -22.4053 -22.4053
-1.34654 -22.504 -22.504
-1.51737 -22.5965 -22.5965
-1.52584 -22.7942 -22.7942
-1.19225 -22.8069 -22.8069
-1.18409 -22.6092 -22.6092
-1.52161 -22.6953 -22.6953
-1.35902 -22.8005 -22.8005
-1.18817 -22.708 -22.708
-1.3507 -22.6028 -22.6028
-1.35486 -22.7016 -22.7016
-1.52584 -22.7942 -22.7942
-1.53427 -22.9921 -22.9921
-1.2004 -23.0048 -23.0048
-1.19225 -22.8069 -22.8069
-1.53006 -22.8931 -22.8931
-1.36731 -22.9984 -22.9984
-1.19633 -22.9058 -22.9058
-1.35902 -22.8005 -22.8005
-1.36316 -22.8994 -22.8994
-1.53427 -22.9921 -22.9921
-1.54267 -23.1901 -23.1901
-1.20854 -23.2029 -23.2029
-1.2004 -23.0048 -23.0048
-1.53847 -23.0911 -23.0911
-1.37558 -23.1965 -23.1965
-1.20447 -23.1038 -23.1038
-1.36731 -22.9984 -22.9984
-1.37144 -23.0974 -23.0974
-1.54267 -23.1901 -23.1901
-1.55104 -23.3883 -23.3883
-1.21666 -23.4011 -23.4011
-1.20854 -23.2029 -23.2029
-1.54686 -23.2892 -23.2892
-1.38382 -23.3947 -23.3947
-1.2126 -23.302 -23.302
-1.37558 -23.1965 -23.1965
-1.3797 -23.2956 -23.2956
-1.55104 -23.3883 -23.3883
-1.55938 -23.5866 -23.5866
-1.22477 -23.5995 -23.5995
-1.21666 -23.4011 -23.4011
-1.55522 -23.4874 -23.4874
-1.39204 -23.593 -23.593
-1.22072 -23.5003 -23.5003
-1.38382 -23.3947 -23.3947
-1.38794 -23.4938 -23.4938
-1.55938 -23.5866 -23.5866
-1.56769 -23.7851 -23.7851
-1.23286 -23.798 -23.798
-1.22477 -23.5995 -23.5995
-1.56354 -23.6858 -23.6858
-1.40024 -23.7915 -23.7915
-1.22881 -23.6987 -23.6987
-1.39204 -23.593 -23.593
-1.39615 -23.6923 -23.6923
-1.56769 -23.7851 -23.7851
-1.57596 -23.9837 -23.9837
-1.24093 -23.9966 -23.9966
-1.23286 -23.798 -23.798
-1.57183 -23.8844 -23.8844
-1.40842 -23.9902 -23.9902
-1.2369 -23.8973 -23.8973
-1.40024 -23.7915 -23.7915
-1.40433 -23.8908 -23.8908
-1.57596 -23.9837 -23.9837
-1.5842 -24.1824 -24.1824
-1.24899 -24.1954 -24.1954
-1.24093 -23.9966 -23.9966
-1.58008 -24.0831 -24.0831
-1.41657 -24.1889 -24.1889
-1.24497 -24.096 -24.096
-1.40842 -23.9902 -23.9902
-1.4125 -24.0895 -24.0895
-1.5842 -24.1824 -24.1824
-1.5924 -24.3812 -24.3812
-1.25703 -24.3942 -24.3942
-1.24899 -24.1954 -24.1954
-1.5883 -24.2818 -24.2818
-1.42469 -24.3877 -24.3877
-1.25301 -24.2948 -24.2948
-1.41657 -24.1889 -24.1889
-1.42063 -24.2883 -24.2883
-1.5924 -24.3812 -24.3812
-1.60057 -24.5802 -24.5802
-1.26505 -24.5932 -24.5932
-1.25703 -24.3942 -24.3942
-1.59649 -24.4807 -24.4807
-1.43278 -24.5867 -24.5867
-1.26104 -24.4937 -24.4937
-1.42469 -24.3877 -24.3877
-1.42874 -24.4872 -24.4872
-1.60057 -24.5802 -24.5802
-1.6087 -24.7792 -24.7792
-1.27305 -24.7922 -24.7922
-1.26505 -24.5932 -24.5932
-1.60464 -24.6797 -24.6797
-1.44084 -24.7857 -24.7857
-1.26905 -24.6927 -24.6927
-1.43278 -24.5867 -24.5867
-1.43682 -24.6862 -24.6862
-1.6087 -24.7792 -24.7792
-1.61679 -24.9783 -24.9783
-1.28102 -24.9913 -24.9913
-1.27305 -24.7922 -24.7922
-1.61275 -24.8787 -24.8787
-1.44887 -24.9848 -24.9848
-1.27704 -24.8918 -24.8918
-1.44084 -24.7857 -24.7857
-1.44486 -24.8852 -24.8852
-1.61679 -24.9783 -24.9783
-1.62484 -25.1774 -25.1774
-1.28897 -25.1905 -25.1905
-1.28102 -24.9913 -24.9913
-1.62082 -25.0778 -25.0778
-1.45687 -25.1839 -25.1839
-1.285 -25.0909 -25.0909
-1.44887 -24.9848 -24.9848
-1.45288 -25.0844 -25.0844
-1.62484 -25.1774 -25.1774
-1.63285 -25.3766 -25.3766
-1.29689 -25.3897 -25.3897
-1.28897 -25.1905 -25.1905
-1.62885 -25.277 -25.277
-1.46483 -25.3832 -25.3832
-1.29293 -25.2901 -25.2901
-1.45687 -25.1839 -25.1839
-1.46085 -25.2836 -25.2836
-1.63285 -25.3766 -25.3766
-1.64081 -25.5759 -25.5759
-1.30477 -25.589 -25.589
-1.29689 -25.3897 -25.3897
-1.63683 -25.4762 -25.4762
-1.47274 -25.5825 -25.5825
-1.30083 -25.4894 -25.4894
-1.46483 -25.3832 -25.3832
-1.46879 -25.4828 -25.4828
-1.64081 -25.5759 -25.5759
-1.64872 -25.7752 -25.7752
-1.31263 -25.7884 -25.7884
-1.30477 -25.589 -25.589
-1.64477 -25.6755 -25.6755
-1.48062 -25.7818 -25.7818
-1.3087 -25.6887 -25.6887
-1.47274 -25.5825 -25.5825
-1.47669 -25.6821 -25.6821
-1.64872 -25.7752 -25.7752
-1.65658 -25.9747 -25.9747
-1.32049 -25.9877 -25.9877
-1.31263 -25.7884 -25.7884
-1.65265 -25.8749 -25.8749
-1.48847 -25.9812 -25.9812
-1.31656 -25.888 -25.888
-1.48062 -25.7818 -25.7818
-1.48454 -25.8815 -25.8815
-1.65658 -25.9747 -25.9747
-1.66449 -26.1742 -26.1742
-1.32836 -26.1869 -26.1869
-1.32049 -25.9877 -25.9877
-1.66052 -26.0745 -26.0745
-1.49637 -26.1805 -26.1805
-1.32442 -26.0873 -26.0873
-1.48847 -25.9812 -25.9812
-1.49242 -26.0809 -26.0809
0 0 0
-0.00454754 -0.000452781 -0.000452781
-0.00151397 0.000245852 0.000245852
0 0 0
-0.00220501 0.000144033 0.000144033
-0.00301964 -1.47854e-05 -1.47854e-05
-0.00075402 0.000488799 0.000488799
0 0 0
-0.00146632 0.000372329 0.000372329
-0.00454754 -0.000452781 -0.000452781
-0.00944192 -0.00349106 -0.00349106
-0.00315007 -0.0022798 -0.0022798
-0.00151397 0.000245852 0.000245852
-0.00696411 -0.00167945 -0.00167945
-0.00626716 -0.00271538 -0.00271538
-0.00231694 -0.000692592 -0.000692592
-0.00301964 -1.47854e-05 -1.47854e-05
-0.00462305 -0.00105592 -0.00105592
-0.00944192 -0.00349106 -0.00349106
-0.0145414 -0.00875412 -0.00875412
-0.00484567 -0.00723581 -0.00723581
-0.00315007 -0.0022798 -0.0022798
-0.0119759 -0.00585906 -0.00585906
-0.0096525 -0.00779091 -0.00779091
-0.00399307 -0.00447051 -0.00447051
-0.00626716 -0.00271538 -0.00271538
-0.0079476 -0.00497174 -0.00497174
-0.0145414 -0.00875412 -0.00875412
-0.0196856 -0.0160444 -0.0160444
-0.00658106 -0.0144005 -0.0144005
-0.00484567 -0.00723581 -0.00723581
-0.0171135 -0.0121513 -0.0121513
-0.0130916 -0.0150068 -0.0150068
-0.00571045 -0.0105521 -0.0105521
-0.0096525 -0.00779091 -0.00779091
-0.0113695 -0.0111404 -0.0111404
-0.0196856 -0.0160444 -0.0160444
-0.0248169 -0.0253086 -0.0253086
-0.00831894 -0.0236369 -0.0236369
-0.00658106 -0.0144005 -0.0144005
-0.0222549 -0.0204312 -0.0204312
-0.0165322 -0.0242568 -0.0242568
-0.00745062 -0.0187652 -0.0187652
-0.0130916 -0.0150068 -0.0150068
-0.0148136 -0.0193815 -0.0193815
-0.0248169 -0.0253086 -0.0253086
-0.0299073 -0.0365262 -0.0365262
-0.0100535 -0.0348751 -0.0348751
-0.00831894 -0.0236369 -0.0236369
-0.0273674 -0.0306737 -0.0306737
-0.0199512 -0.0354863 -0.0354863
-0.00918698 -0.0290085 -0.0290085
-0.0165322 -0.0242568 -0.0242568
-0.0182449 -0.029626 -0.029626
-0.0299073 -0.0365262 -0.0365262
-0.0349606 -0.0496936 -0.0496936
-0.0117788 -0.0480785 -0.0480785
-0.0100535 -0.0348751 -0.0348751
-0.0324382 -0.0428665 -0.0428665
-0.0233458 -0.0486741 -0.0486741
-0.0109172 -0.0412325 -0.0412325
-0.0199512 -0.0354863 -0.0354863
-0.0216514 -0.0418364 -0.0418364
-0.0349606 -0.0496936 -0.0496936
-0.0399815 -0.0648036 -0.0648036
-0.0134989 -0.0632288 -0.0632288
-0.0117788 -0.0480785 -0.0480785
-0.0374746 -0.0570062 -0.0570062
-0.0267198 -0.0638063 -0.0638063
-0.0126392 -0.0554111 -0.0554111
-0.0233458 -0.0486741 -0.0486741
-0.025035 -0.0559978 -0.0559978
-0.0399815 -0.0648036 -0.0648036
-0.0449779 -0.0818495 -0.0818495
-0.0152165 -0.0803143 -0.0803143
-0.0134989 -0.0632288 -0.0632288
-0.0424823 -0.0730851 -0.0730851
-0.0300789 -0.0808739 -0.0808739
-0.0143578 -0.0715302 -0.0715302
-0.0267198 -0.0638063 -0.0638063
-0.0284008 -0.0720987 -0.0720987
-0.0449779 -0.0818495 -0.0818495
-0.0499549 -0.100822 -0.100822
-0.0169355 -0.0993259 -0.0993259
-0.0152165 -0.0803143 -0.0803143
-0.0474685 -0.0910955 -0.0910955
-0.033428 -0.0998676 -0.0998676
-0.0160756 -0.0895799 -0.0895799
-0.0300789 -0.0808739 -0.0808739
-0.0317544 -0.0901305 -0.0901305
-0.0499549 -0.100822 -0.100822
-0.0549172 -0.121713 -0.121713
-0.0186586 -0.120255 -0.120255
-0.0169355 -0.0993259 -0.0993259
-0.0524377 -0.111028 -0.111028
-0.0367712 -0.120779 -0.120779
-0.0177964 -0.109551 -0.109551
-0.033428 -0.0998676 -0.0998676
-0.0351002 -0.110084 -0.110084
-0.0549172 -0.121713 -0.121713
-0.0598676 -0.14451 -0.14451
-0.0203882 -0.143092 -0.143092
-0.0186586 -0.120255 -0.120255
-0.0573937 -0.132874 -0.132874
-0.0401114 -0.143597 -0.143597
-0.0195225 -0.131435 -0.131435
-0.0367712 -0.120779 -0.120779
-0.0384415 -0.13195 -0.13195
-0.0598676 -0.14451 -0.14451
-0.0648085 -0.169206 -0.169206
-0.0221262 -0.167828 -0.167828
-0.0203882 -0.143092 -0.143092
-0.0623391 -0.156622 -0.156622
-0.0434508 -0.168314 -0.168314
-0.021256 -0.155223 -0.155223
-0.0401114 -0.143597 -0.143597
-0.0417811 -0.155719 -0.155719
-0.0648085 -0.169206 -0.169206
-0.0697417 -0.195789 -0.195789
-0.023874 -0.194453 -0.194453
-0.0221262 -0.167828 -0.167828
-0.0672759 -0.182262 -0.182262
-0.0467913 -0.194919 -0.194919
-0.0229988 -0.180905 -0.180905
-0.0434508 -0.168314 -0.168314
-0.0451208 -0.181381 -0.181381
-0.0697417 -0.195789 -0.195789
-0.0746687 -0.224249 -0.224249
-0.0256333 -0.222957 -0.222957
-0.023874 -0.194453 -0.194453
-0.0722059 -0.209785 -0.209785
-0.0501343 -0.223402 -0.223402
-0.0247522 -0.20847 -0.20847
-0.0467913 -0.194919 -0.194919
-0.0484624 -0.208927 -0.208927
-0.0746687 -0.224249 -0.224249
-0.079591 -0.254576 -0.254576
-0.0274053 -0.253329 -0.253329
-0.0256333 -0.222957 -0.222957
-0.0771304 -0.23918 -0.23918
-0.0534813 -0.253754 -0.253754
-0.0265176 -0.23791 -0.23791
-0.0501343 -0.223402 -0.223402
-0.0518072 -0.238345 -0.238345
-0.079591 -0.254576 -0.254576
-0.0845098 -0.28676 -0.28676
-0.0291913 -0.285561 -0.285561
-0.0274053 -0.253329 -0.253329
-0.0820507 -0.270436 -0.270436
-0.0568336 -0.285962 -0.285962
-0.0282965 -0.269213 -0.269213
-0.0534813 -0.253754 -0.253754
-0.0551567 -0.269626 -0.269626
-0.0845098 -0.28676 -0.28676
-0.0894264 -0.32079 -0.32079
-0.0309925 -0.319641 -0.319641
-0.0291913 -0.285561 -0.285561
-0.0869683 -0.303545 -0.303545
-0.0601924 -0.320018 -0.320018
-0.0300899 -0.30237 -0.30237
-0.0568336 -0.285962 -0.285962
-0.0585121 -0.30276 -0.30276
-0.0894264 -0.32079 -0.32079
-0.094342 -0.356656 -0.356656
-0.0328101 -0.355559 -0.355559
-0.0309925 -0.319641 -0.319641
-0.0918842 -0.338494 -0.338494
-0.0635588 -0.355912 -0.355912
-0.0318992 -0.337371 -0.337371
-0.0601924 -0.320018 -0.320018
-0.0618746 -0.337736 -0.337736
-0.094342 -0.356656 -0.356656
-0.0992577 -0.394348 -0.394348
-0.0346454 -0.393305 -0.393305
-0.0328101 -0.355559 -0.355559
-0.0967998 -0.375274 -0.375274
-0.0669342 -0.393632 -0.393632
-0.0337255 -0.374204 -0.374204
-0.0635588 -0.355912 -0.355912
-0.0652453 -0.374544 -0.374544
-0.0992577 -0.394348 -0.394348
-0.104175 -0.433856 -0.433856
-0.0364994 -0.432869 -0.432869
-0.0346454 -0.393305 -0.393305
-0.101716 -0.413876 -0.413876
-0.0703196 -0.433169 -0.433169
-0.03557 -0.41286 -0.41286
-0.0669342 -0.393632 -0.393632
-0.0686256 -0.413174 -0.413174
-0.104175 -0.433856 -0.433856
-0.109094 -0.475169 -0.475169
-0.0383732 -0.47424 -0.47424
-0.0364994 -0.432869 -0.432869
-0.106634 -0.454288 -0.454288
-0.0737162 -0.474512 -0.474512
-0.0374337 -0.453329 -0.453329
-0.0703196 -0.433169 -0.433169
-0.0720164 -0.453615 -0.453615
-0.109094 -0.475169 -0.475169
-0.114017 -0.518278 -0.518278
-0.0402681 -0.517408 -0.517408
-0.0383732 -0.47424 -0.47424
-0.111555 -0.4965 -0.4965
-0.077125 -0.517651 -0.517651
-0.039318 -0.4956 -0.4956
-0.0737162 -0.474512 -0.474512
-0.075419 -0.495858 -0.495858
-0.114017 -0.518278 -0.518278
-0.118945 -0.563171 -0.563171
-0.042185 -0.562362 -0.562362
-0.0402681 -0.517408 -0.517408
-0.116481 -0.540502 -0.540502
-0.0805472 -0.562576 -0.562576
-0.0412237 -0.539662 -0.539662
-0.077125 -0.517651 -0.517651
-0.0788344 -0.539891 -0.539891
-0.118945 -0.563171 -0.563171
-0.123878 -0.609839 -0.609839
-0.0441251 -0.609093 -0.609093
-0.042185 -0.562362 -0.562362
-0.121411 -0.586284 -0.586284
-0.0839839 -0.609277 -0.609277
-0.0431521 -0.585506 -0.585506
-0.0805472 -0.562576 -0.562576
-0.0822637 -0.585705 -0.585705
-0.123878 -0.609839 -0.609839
-0.128819 -0.658271 -0.658271
-0.0460895 -0.657591 -0.657591
-0.0441251 -0.609093 -0.609093
-0.126348 -0.633835 -0.633835
-0.087436 -0.657743 -0.657743
-0.0451042 -0.633122 -0.633122
-0.0839839 -0.609277 -0.609277
-0.085708 -0.63329 -0.63329
-0.128819 -0.658271 -0.658271
-0.133767 -0.708457 -0.708457
-0.048079 -0.707844 -0.707844
-0.0460895 -0.657591 -0.657591
-0.131292 -0.683145 -0.683145
-0.0909047 -0.707964 -0.707964
-0.047081 -0.682498 -0.682498
-0.087436 -0.657743 -0.657743
-0.0891683 -0.682634 -0.682634
-0.133767 -0.708457 -0.708457
-0.138724 -0.760388 -0.760388
-0.0500948 -0.759842 -0.759842
-0.048079 -0.707844 -0.707844
-0.136244 -0.734205 -0.734205
-0.0943909 -0.759929 -0.759929
-0.0490836 -0.733625 -0.733625
-0.0909047 -0.707964 -0.707964
-0.0926456 -0.733729 -0.733729
-0.138724 -0.760388 -0.760388
-0.14369 -0.814051 -0.814051
-0.0521378 -0.813576 -0.813576
-0.0500948 -0.759842 -0.759842
-0.141206 -0.787003 -0.787003
-0.0978956 -0.813629 -0.813629
-0.0511128 -0.786493 -0.786493
-0.0943909 -0.759929 -0.759929
-0.0961409 -0.786563 -0.786563
-0.14369 -0.814051 -0.814051
-0.148667 -0.869438 -0.869438
-0.054209 -0.869035 -0.869035
-0.0521378 -0.813576 -0.813576
-0.146177 -0.84153 -0.84153
-0.10142 -0.869053 -0.869053
-0.0531698 -0.84109 -0.84109
-0.0978956 -0.813629 -0.813629
-0.0996552 -0.841126 -0.841126
-0.148667 -0.869438 -0.869438
-0.153657 -0.926539 -0.926539
-0.0563093 -0.926208 -0.926208
-0.054209 -0.869035 -0.869035
-0.15116 -0.897775 -0.897775
-0.104964 -0.926191 -0.926191
-0.0552555 -0.897408 -0.897408
-0.10142 -0.869053 -0.869053
-0.103189 -0.897408 -0.897408
-0.153657 -0.926539 -0.926539
-0.158658 -0.985342 -0.985342
-0.0584397 -0.985086 -0.985086
-0.0563093 -0.926208 -0.926208
-0.156156 -0.955728 -0.955728
-0.10853 -0.985033 -0.985033
-0.0573707 -0.955435 -0.955435
-0.104964 -0.926191 -0.926191
-0.106745 -0.9554 -0.9554
-0.158658 -0.985342 -0.985342
-0.163673 -1.04584 -1.04584
-0.060601 -1.04566 -1.04566
-0.0584397 -0.985086 -0.985086
-0.161164 -1.01538 -1.01538
-0.112118 -1.04557 -1.04557
-0.0595164 -1.01516 -1.01516
-0.10853 -0.985033 -0.985033
-0.110322 -1.01509 -1.01509
-0.163673 -1.04584 -1.04584
-0.168703 -1.10802 -1.10802
-0.0627942 -1.10791 -1.10791
-0.060601 -1.04566 -1.04566
-0.166186 -1.07672 -1.07672
-0.11573 -1.10779 -1.10779
-0.0616936 -1.07658 -1.07658
-0.112118 -1.04557 -1.04557
-0.113921 -1.07647 -1.07647
-0.168703 -1.10802 -1.10802
-0.173748 -1.17186 -1.17186
-0.0650201 -1.17184 -1.17184
-0.0627942 -1.10791 -1.10791
-0.171223 -1.13973 -1.13973
-0.119365 -1.17168 -1.17168
-0.063903 -1.13967 -1.13967
-0.11573 -1.10779 -1.10779
-0.117544 -1.13952 -1.13952
-0.173748 -1.17186 -1.17186
-0.178809 -1.23738 -1.23738
-0.0672795 -1.23743 -1.23743
-0.0650201 -1.17184 -1.17184
-0.176276 -1.20441 -1.20441
-0.123025 -1.23723 -1.23723
-0.0661455 -1.20443 -1.20443
-0.119365 -1.17168 -1.17168
-0.121192 -1.20425 -1.20425
-0.178809 -1.23738 -1.23738
-0.183887 -1.30454 -1.30454
-0.0695732 -1.30468 -1.30468
-0.0672795 -1.23743 -1.23743
-0.181345 -1.27075 -1.27075
-0.126711 -1.30443 -1.30443
-0.068422 -1.27085 -1.27085
-0.123025 -1.23723 -1.23723
-0.124865 -1.27063 -1.27063
-0.183887 -1.30454 -1.30454
-0.188982 -1.37334 -1.37334
-0.0719021 -1.37357 -1.37357
-0.0695732 -1.30468 -1.30468
-0.186432 -1.33874 -1.33874
-0.130423 -1.37328 -1.37328
-0.0707332 -1.33892 -1.33892
-0.126711 -1.30443 -1.30443
-0.128564 -1.33865 -1.33865
-0.188982 -1.37334 -1.37334
-0.194096 -1.44378 -1.44378
-0.074267 -1.44409 -1.44409
-0.0719021 -1.37357 -1.37357
-0.191537 -1.40836 -1.40836
-0.134162 -1.44376 -1.44376
-0.07308 -1.40862 -1.40862
-0.130423 -1.37328 -1.37328
-0.132289 -1.40832 -1.40832
-0.194096 -1.44378 -1.44378
-0.19923 -1.51584 -1.51584
-0.0766685 -1.51623 -1.51623
-0.074267 -1.44409 -1.44409
-0.19666 -1.47961 -1.47961
-0.13793 -1.51586 -1.51586
-0.0754631 -1.47996 -1.47996
-0.134162 -1.44376 -1.44376
-0.136043 -1.47961 -1.47961
-0.19923 -1.51584 -1.51584
-0.204383 -1.5895 -1.5895
-0.0791075 -1.58998 -1.58998
-0.0766685 -1.51623 -1.51623
-0.201804 -1.55247 -1.55247
-0.141726 -1.58957 -1.58957
-0.0778833 -1.5529 -1.5529
-0.13793 -1.51586 -1.51586
-0.139824 -1.55251 -1.55251
-0.204383 -1.5895 -1.5895
-0.209557 -1.66477 -1.66477
-0.0815847 -1.66534 -1.66534
-0.0791075 -1.58998 -1.58998
-0.206967 -1.62694 -1.62694
-0.145551 -1.66488 -1.66488
-0.0803413 -1.62746 -1.62746
-0.141726 -1.58957 -1.58957
-0.143635 -1.62703 -1.62703
-0.209557 -1.66477 -1.66477
-0.214752 -1.74162 -1.74162
-0.0841007 -1.74228 -1.74228
-0.0815847 -1.66534 -1.66534
-0.212152 -1.703 -1.703
-0.149407 -1.74178 -1.74178
-0.0828378 -1.70361 -1.70361
-0.145551 -1.66488 -1.66488
-0.147475 -1.70314 -1.70314
-0.214752 -1.74162 -1.74162
-0.21997 -1.82006 -1.82006
-0.0866562 -1.82081 -1.82081
-0.0841007 -1.74228 -1.74228
-0.217358 -1.78065 -1.78065
-0.153294 -1.82027 -1.82027
-0.0853734 -1.78135 -1.78135
-0.149407 -1.74178 -1.74178
-0.151346 -1.78083 -1.78083
-0.21997 -1.82006 -1.82006
-0.22521 -1.90007 -1.90007
-0.0892519 -1.90091 -1.90091
-0.0866562 -1.82081 -1.82081
-0.222587 -1.85987 -1.85987
-0.157211 -1.90032 -1.90032
-0.087949 -1.86066 -1.86066
-0.153294 -1.82027 -1.82027
-0.155249 -1.8601 -1.8601
-0.22521 -1.90007 -1.90007
-0.230474 -1.98163 -1.98163
-0.0918885 -1.98256 -1.98256
-0.0892519 -1.90091 -1.90091
-0.227839 -1.94065 -1.94065
-0.161162 -1.98193 -1.98193
-0.0905651 -1.94154 -1.94154
-0.157211 -1.90032 -1.90032
-0.159182 -1.94093 -1.94093
-0.230474 -1.98163 -1.98163
-0.235762 -2.06474 -2.06474
-0.0945666 -2.06577 -2.06577
-0.0918885 -1.98256 -1.98256
-0.233115 -2.02299 -2.02299
-0.165144 -2.06509 -2.06509
-0.0932223 -2.02397 -2.02397
-0.161162 -1.98193 -1.98193
-0.163149 -2.02332 -2.02332
-0.235762 -2.06474 -2.06474
-0.241074 -2.1494 -2.1494
-0.0972867 -2.15052 -2.15052
-0.0945666 -2.06577 -2.06577
-0.238415 -2.10688 -2.10688
-0.169161 -2.14979 -2.14979
-0.0959213 -2.10795 -2.10795
-0.165144 -2.06509 -2.06509
-0.167148 -2.10725 -2.10725
-0.241074 -2.1494 -2.1494
-0.246412 -2.23558 -2.23558
-0.100049 -2.23679 -2.23679
-0.0972867 -2.15052 -2.15052
-0.24374 -2.1923 -2.1923
-0.173211 -2.23602 -2.23602
-0.0986627 -2.19347 -2.19347
-0.169161 -2.14979 -2.14979
-0.171181 -2.19272 -2.19272
-0.246412 -2.23558 -2.23558
-0.251776 -2.32327 -2.32327
-0.102855 -2.32459 -2.32459
-0.100049 -2.23679 -2.23679
-0.249091 -2.27924 -2.27924
-0.177296 -2.32377 -2.32377
-0.101447 -2.2805 -2.2805
-0.173211 -2.23602 -2.23602
-0.175249 -2.27971 -2.27971
-0.251776 -2.32327 -2.32327
-0.257165 -2.41248 -2.41248
-0.105705 -2.41389 -2.41389
-0.102855 -2.32459 -2.32459
-0.254467 -2.36769 -2.36769
-0.181415 -2.41303 -2.41303
-0.104275 -2.36905 -2.36905
-0.177296 -2.32377 -2.32377
-0.179351 -2.36821 -2.36821
-0.257165 -2.41248 -2.41248
-0.262582 -2.50318 -2.50318
-0.108599 -2.50469 -2.50469
-0.105705 -2.41389 -2.41389
-0.25987 -2.45765 -2.45765
-0.185571 -2.50378 -2.50378
-0.107147 -2.45911 -2.45911
-0.181415 -2.41303 -2.41303
-0.183488 -2.45822 -2.45822
-0.262582 -2.50318 -2.50318
-0.268026 -2.59537 -2.59537
-0.111538 -2.59698 -2.59698
-0.108599 -2.50469 -2.50469
-0.265301 -2.54909 -2.54909
-0.189762 -2.59602 -2.59602
-0.110063 -2.55065 -2.55065
-0.185571 -2.50378 -2.50378
-0.187662 -2.54972 -2.54972
-0.268026 -2.59537 -2.59537
-0.273498 -2.68904 -2.68904
-0.114523 -2.69075 -2.69075
-0.111538 -2.59698 -2.59698
-0.270759 -2.64202 -2.64202
-0.19399 -2.68974 -2.68974
-0.113025 -2.64368 -2.64368
-0.189762 -2.59602 -2.59602
-0.191872 -2.6427 -2.6427
-0.273498 -2.68904 -2.68904
-0.278998 -2.78418 -2.78418
-0.117553 -2.78599 -2.78599
-0.114523 -2.69075 -2.69075
-0.276245 -2.73643 -2.73643
-0.198255 -2.78493 -2.78493
-0.116032 -2.73819 -2.73819
-0.19399 -2.68974 -2.68974
-0.196118 -2.73715 -2.73715
-0.278998 -2.78418 -2.78418
-0.284528 -2.88077 -2.88077
-0.120629 -2.88268 -2.88268
-0.117553 -2.78599 -2.78599
-0.281759 -2.83229 -2.83229
-0.202558 -2.88157 -2.88157
-0.119085 -2.83415 -2.83415
-0.198255 -2.78493 -2.78493
-0.200402 -2.83307 -2.83307
-0.284528 -2.88077 -2.88077
-0.290086 -2.9788 -2.9788
-0.123752 -2.98082 -2.98082
-0.120629 -2.88268 -2.88268
-0.287303 -2.9296 -2.9296
-0.206899 -2.97966 -2.97966
-0.122184 -2.93157 -2.93157
-0.202558 -2.88157 -2.88157
-0.204724 -2.93043 -2.93043
-0.290086 -2.9788 -2.9788
-0.295674 -3.07828 -3.07828
-0.126922 -3.0804 -3.0804
-0.123752 -2.98082 -2.98082
-0.292876 -3.02836 -3.02836
-0.211278 -3.07918 -3.07918
-0.125331 -3.03043 -3.03043
-0.206899 -2.97966 -2.97966
-0.209083 -3.02924 -3.02924
-0.295674 -3.07828 -3.07828
-0.301293 -3.17917 -3.17917
-0.13014 -3.1814 -3.1814
-0.126922 -3.0804 -3.0804
-0.29848 -3.12855 -3.12855
-0.215696 -3.18013 -3.18013
-0.128525 -3.13072 -3.13072
-0.211278 -3.07918 -3.07918
-0.213482 -3.12948 -3.12948
-0.301293 -3.17917 -3.17917
-0.306941 -3.28149 -3.28149
-0.133405 -3.28382 -3.28382
-0.13014 -3.1814 -3.1814
-0.304113 -3.23016 -3.23016
-0.220153 -3.2825 -3.2825
-0.131766 -3.23243 -3.23243
-0.215696 -3.18013 -3.18013
-0.217919 -3.23114 -3.23114
-0.306941 -3.28149 -3.28149
-0.312621 -3.38521 -3.38521
-0.136719 -3.38764 -3.38764
-0.133405 -3.28382 -3.28382
-0.309777 -3.33317 -3.33317
-0.224649 -3.38627 -3.38627
-0.135056 -3.33555 -3.33555
-0.220153 -3.2825 -3.2825
-0.222396 -3.33421 -3.33421
-0.312621 -3.38521 -3.38521
-0.318332 -3.49032 -3.49032
-0.140081 -3.49286 -3.49286
-0.136719 -3.38764 -3.38764
-0.315472 -3.43759 -3.43759
-0.229186 -3.49144 -3.49144
-0.138394 -3.44008 -3.44008
-0.224649 -3.38627 -3.38627
-0.226913 -3.43868 -3.43868
-0.318332 -3.49032 -3.49032
-0.324074 -3.59682 -3.59682
-0.143493 -3.59946 -3.59946
-0.140081 -3.49286 -3.49286
-0.321199 -3.5434 -3.5434
-0.233763 -3.59799 -3.59799
-0.141781 -3.54599 -3.54599
-0.229186 -3.49144 -3.49144
-0.231469 -3.54455 -3.54455
-0.324074 -3.59682 -3.59682
-0.329848 -3.70469 -3.70469
-0.146954 -3.70744 -3.70744
-0.143493 -3.59946 -3.59946
-0.326957 -3.65058 -3.65058
-0.23838 -3.70592 -3.70592
-0.145217 -3.65328 -3.65328
-0.233763 -3.59799 -3.59799
-0.236067 -3.65179 -3.65179
-0.329848 -3.70469 -3.70469
-0.335655 -3.81393 -3.81393
-0.150464 -3.81679 -3.81679
-0.146954 -3.70744 -3.70744
-0.332747 -3.75914 -3.75914
-0.243039 -3.81521 -3.81521
-0.148703 -3.76194 -3.76194
-0.23838 -3.70592 -3.70592
-0.240704 -3.7604 -3.7604
-0.335655 -3.81393 -3.81393
-0.341494 -3.92452 -3.92452
-0.154024 -3.92748 -3.92748
-0.150464 -3.81679 -3.81679
-0.33857 -3.86905 -3.86905
-0.247738 -3.92586 -3.92586
-0.152238 -3.87197 -3.87197
-0.243039 -3.81521 -3.81521
-0.245383 -3.87037 -3.87037
-0.341494 -3.92452 -3.92452
-0.347365 -4.03645 -4.03645
-0.157635 -4.03953 -4.03953
-0.154024 -3.92748 -3.92748
-0.344425 -3.98032 -3.98032
-0.252479 -4.03785 -4.03785
-0.155823 -3.98334 -3.98334
-0.247738 -3.92586 -3.92586
-0.250104 -3.98169 -3.98169
-0.347365 -4.03645 -4.03645
-0.35327 -4.14972 -4.14972
-0.161296 -4.1529 -4.1529
-0.157635 -4.03953 -4.03953
-0.350314 -4.09292 -4.09292
-0.257262 -4.15117 -4.15117
-0.159459 -4.09605 -4.09605
-0.252479 -4.03785 -4.03785
-0.254866 -4.09434 -4.09434
-0.35327 -4.14972 -4.14972
-0.359208 -4.26431 -4.26431
-0.165007 -4.2676 -4.2676
-0.161296 -4.1529 -4.1529
-0.356235 -4.20685 -4.20685
-0.262087 -4.26582 -4.26582
-0.163145 -4.21009 -4.21009
-0.257262 -4.15117 -4.15117
-0.259669 -4.20833 -4.20833
-0.359208 -4.26431 -4.26431
-0.365179 -4.38021 -4.38021
-0.16877 -4.38361 -4.38361
-0.165007 -4.2676 -4.2676
-0.362189 -4.3221 -4.3221
-0.266954 -4.38177 -4.38177
-0.166882 -4.32544 -4.32544
-0.262087 -4.26582 -4.26582
-0.264515 -4.32363 -4.32363
-0.365179 -4.38021 -4.38021
-0.371184 -4.49742 -4.49742
-0.172583 -4.50093 -4.50093
-0.16877 -4.38361 -4.38361
-0.368178 -4.43865 -4.43865
-0.271863 -4.49903 -4.49903
-0.17067 -4.44211 -4.44211
-0.266954 -4.38177 -4.38177
-0.269403 -4.44024 -4.44024
-0.371184 -4.49742 -4.49742
-0.377223 -4.61591 -4.61591
-0.176448 -4.61954 -4.61954
-0.172583 -4.50093 -4.50093
-0.3742 -4.5565 -4.5565
-0.276815 -4.61759 -4.61759
-0.174509 -4.56007 -4.56007
-0.271863 -4.49903 -4.49903
-0.274334 -4.55815 -4.55815
-0.377223 -4.61591 -4.61591
-0.383296 -4.73569 -4.73569
-0.180364 -4.73942 -4.73942
-0.176448 -4.61954 -4.61954
-0.380256 -4.67564 -4.67564
-0.281809 -4.73742 -4.73742
-0.178399 -4.67932 -4.67932
-0.276815 -4.61759 -4.61759
-0.279307 -4.67735 -4.67735
-0.383296 -4.73569 -4.73569
-0.389404 -4.85674 -4.85674
-0.184332 -4.86059 -4.86059
-0.180364 -4.73942 -4.73942
-0.386346 -4.79606 -4.79606
-0.286847 -4.85853 -4.85853
-0.182341 -4.79985 -4.79985
-0.281809 -4.73742 -4.73742
-0.284323 -4.79782 -4.79782
-0.389404 -4.85674 -4.85674
-0.395545 -4.97906 -4.97906
-0.188351 -4.98301 -4.98301
-0.184332 -4.86059 -4.86059
-0.39247 -4.91774 -4.91774
-0.291927 -4.9809 -4.9809
-0.186335 -4.92164 -4.92164
-0.286847 -4.85853 -4.85853
-0.289382 -4.91956 -4.91956
-0.395545 -4.97906 -4.97906
-0.401721 -5.10262 -5.10262
-0.192423 -5.10668 -5.10668
-0.188351 -4.98301 -4.98301
-0.398629 -5.04068 -5.04068
-0.297051 -5.10452 -5.10452
-0.190381 -5.04469 -5.04469
-0.291927 -4.9809 -4.9809
-0.294484 -5.04255 -5.04255
-0.401721 -5.10262 -5.10262
-0.407932 -5.22742 -5.22742
-0.196546 -5.2316 -5.2316
-0.192423 -5.10668 -5.10668
-0.404822 -5.16487 -5.16487
-0.302218 -5.22938 -5.22938
-0.194478 -5.16899 -5.16899
-0.297051 -5.10452 -5.10452
-0.299629 -5.1668 -5.1668
-0.407932 -5.22742 -5.22742
-0.414177 -5.35346 -5.35346
-0.200722 -5.35775 -5.35775
-0.196546 -5.2316 -5.2316
-0.41105 -5.29029 -5.29029
-0.307429 -5.35547 -5.35547
-0.198628 -5.29452 -5.29452
-0.302218 -5.22938 -5.22938
-0.304818 -5.29227 -5.29227
-0.414177 -5.35346 -5.35346
-0.420457 -5.48071 -5.48071
-0.20495 -5.48511 -5.48511
-0.200722 -5.35775 -5.35775
-0.417313 -5.41693 -5.41693
-0.312682 -5.48278 -5.48278
-0.202829 -5.42128 -5.42128
-0.307429 -5.35547 -5.35547
-0.31005 -5.41898 -5.41898
-0.420457 -5.48071 -5.48071
-0.426772 -5.60918 -5.60918
-0.20923 -5.61369 -5.61369
-0.20495 -5.48511 -5.48511
-0.42361 -5.5448 -5.5448
-0.31798 -5.61131 -5.61131
-0.207083 -5.54925 -5.54925
-0.312682 -5.48278 -5.48278
-0.315326 -5.54689 -5.54689
-0.426772 -5.60918 -5.60918
-0.433122 -5.73884 -5.73884
-0.213562 -5.74347 -5.74347
-0.20923 -5.61369 -5.61369
-0.429943 -5.67386 -5.67386
-0.323321 -5.74103 -5.74103
-0.211389 -5.67843 -5.67843
-0.31798 -5.61131 -5.61131
-0.320645 -5.67602 -5.67602
-0.433122 -5.73884 -5.73884
-0.439507 -5.8697 -5.8697
-0.217947 -5.87443 -5.87443
-0.213562 -5.74347 -5.74347
-0.43631 -5.80412 -5.80412
-0.328706 -5.87194 -5.87194
-0.215748 -5.8088 -5.8088
-0.323321 -5.74103 -5.74103
-0.326008 -5.80634 -5.80634
-0.439507 -5.8697 -5.8697
-0.445926 -6.00173 -6.00173
-0.222384 -6.00658 -6.00658
-0.217947 -5.87443 -5.87443
-0.442712 -5.93557 -5.93557
-0.334134 -6.00403 -6.00403
-0.220158 -5.94036 -5.94036
-0.328706 -5.87194 -5.87194
-0.331414 -5.93784 -5.93784
-0.445926 -6.00173 -6.00173
-0.452381 -6.13494 -6.13494
-0.226873 -6.13989 -6.13989
-0.222384 -6.00658 -6.00658
-0.449149 -6.06819 -6.06819
-0.339606 -6.13729 -6.13729
-0.224622 -6.07309 -6.07309
-0.334134 -6.00403 -6.00403
-0.336865 -6.07051 -6.07051
-0.452381 -6.13494 -6.13494
-0.458871 -6.2693 -6.2693
-0.231415 -6.27437 -6.27437
-0.226873 -6.13989 -6.13989
-0.455622 -6.20197 -6.20197
-0.345122 -6.27171 -6.27171
-0.229137 -6.20698 -6.20698
-0.339606 -6.13729 -6.13729
-0.342359 -6.20436 -6.20436
-0.458871 -6.2693 -6.2693
-0.465395 -6.40481 -6.40481
-0.236009 -6.40999 -6.40999
-0.231415 -6.27437 -6.27437
-0.462129 -6.33691 -6.33691
-0.350681 -6.40728 -6.40728
-0.233705 -6.34203 -6.34203
-0.345122 -6.27171 -6.27171
-0.347896 -6.33935 -6.33935
-0.465395 -6.40481 -6.40481
-0.471955 -6.54146 -6.54146
-0.240655 -6.54675 -6.54675
-0.236009 -6.40999 -6.40999
-0.468671 -6.47299 -6.47299
-0.356284 -6.54398 -6.54398
-0.238326 -6.47823 -6.47823
-0.350681 -6.40728 -6.40728
-0.353477 -6.47549 -6.47549
-0.471955 -6.54146 -6.54146
-0.47855 -6.67923 -6.67923
-0.245354 -6.68464 -6.68464
-0.240655 -6.54675 -6.54675
-0.475248 -6.6102 -6.6102
-0.361931 -6.68182 -6.68182
-0.242998 -6.61555 -6.61555
-0.356284 -6.54398 -6.54398
-0.359102 -6.61276 -6.61276
-0.47855 -6.67923 -6.67923
-0.485179 -6.81813 -6.81813
-0.250105 -6.82364 -6.82364
-0.245354 -6.68464 -6.68464
-0.48186 -6.74854 -6.74854
-0.367621 -6.82077 -6.82077
-0.247723 -6.754 -6.754
-0.361931 -6.68182 -6.68182
-0.364771 -6.75115 -6.75115
-0.485179 -6.81813 -6.81813
-0.491843 -6.95813 -6.95813
-0.254908 -6.96375 -6.96375
-0.250105 -6.82364 -6.82364
-0.488507 -6.88799 -6.88799
-0.373355 -6.96082 -6.96082
-0.2525 -6.89356 -6.89356
-0.367621 -6.82077 -6.82077
-0.370483 -6.89066 -6.89066
-0.491843 -6.95813 -6.95813
-0.498542 -7.09923 -7.09923
-0.259763 -7.10496 -7.10496
-0.254908 -6.96375 -6.96375
-0.495188 -7.02854 -7.02854
-0.379132 -7.10198 -7.10198
-0.257329 -7.03422 -7.03422
-0.373355 -6.96082 -6.96082
-0.376238 -7.03127 -7.03127
-0.498542 -7.09923 -7.09923
-0.505275 -7.24141 -7.24141
-0.26467 -7.24726 -7.24726
-0.259763 -7.10496 -7.10496
-0.501904 -7.17019 -7.17019
-0.384952 -7.24422 -7.24422
-0.26221 -7.17598 -7.17598
-0.379132 -7.10198 -7.10198
-0.382036 -7.17297 -7.17297
-0.505275 -7.24141 -7.24141
-0.512043 -7.38468 -7.38468
-0.269629 -7.39063 -7.39063
-0.26467 -7.24726 -7.24726
-0.508655 -7.31291 -7.31291
-0.390815 -7.38754 -7.38754
-0.267143 -7.31881 -7.31881
-0.384952 -7.24422 -7.24422
-0.387878 -7.31575 -7.31575
-0.512043 -7.38468 -7.38468
-0.518845 -7.52901 -7.52901
-0.27464 -7.53507 -7.53507
-0.269629 -7.39063 -7.39063
-0.51544 -7.45671 -7.45671
-0.396722 -7.53193 -7.53193
-0.272128 -7.46272 -7.46272
-0.390815 -7.38754 -7.38754
-0.393763 -7.4596 -7.4596
-0.518845 -7.52901 -7.52901
-0.525682 -7.67439 -7.67439
-0.279702 -7.68057 -7.68057
-0.27464 -7.53507 -7.53507
-0.522259 -7.60157 -7.60157
-0.402671 -7.67737 -7.67737
-0.277165 -7.60769 -7.60769
-0.396722 -7.53193 -7.53193
-0.399691 -7.60452 -7.60452
-0.525682 -7.67439 -7.67439
-0.532552 -7.82082 -7.82082
-0.284816 -7.82711 -7.82711
-0.279702 -7.68057 -7.68057
-0.529113 -7.74748 -7.74748
-0.408663 -7.82386 -7.82386
-0.282253 -7.75371 -7.75371
-0.402671 -7.67737 -7.67737
-0.405662 -7.75048 -7.75048
-0.532552 -7.82082 -7.82082
-0.539456 -7.96829 -7.96829
-0.289981 -7.97469 -7.97469
-0.284816 -7.82711 -7.82711
-0.536 -7.89443 -7.89443
-0.414698 -7.97138 -7.97138
-0.287392 -7.90077 -7.90077
-0.408663 -7.82386 -7.82386
-0.411675 -7.89749 -7.89749
-0.539456 -7.96829 -7.96829
-0.546394 -8.11678 -8.11678
-0.295197 -8.12329 -8.12329
-0.289981 -7.97469 -7.97469
-0.542921 -8.04241 -8.04241
-0.420775 -8.11993 -8.11993
-0.292583 -8.04886 -8.04886
-0.414698 -7.97138 -7.97138
-0.417731 -8.04553 -8.04553
-0.546394 -8.11678 -8.11678
-0.553366 -8.26629 -8.26629
-0.300464 -8.27291 -8.27291
-0.295197 -8.12329 -8.12329
-0.549876 -8.19141 -8.19141
-0.426894 -8.26949 -8.26949
-0.297824 -8.19797 -8.19797
-0.420775 -8.11993 -8.11993
-0.42383 -8.19458 -8.19458
-0.553366 -8.26629 -8.26629
-0.560371 -8.4168 -8.4168
-0.305782 -8.42353 -8.42353
-0.300464 -8.27291 -8.27291
-0.556864 -8.34142 -8.34142
-0.433056 -8.42006 -8.42006
-0.303117 -8.34809 -8.34809
-0.426894 -8.26949 -8.26949
-0.42997 -8.34465 -8.34465
-0.560371 -8.4168 -8.4168
-0.567409 -8.56831 -8.56831
-0.31115 -8.57514 -8.57514
-0.305782 -8.42353 -8.42353
-0.563886 -8.49243 -8.49243
-0.439259 -8.57162 -8.57162
-0.30846 -8.49921 -8.49921
-0.433056 -8.42006 -8.42006
-0.436152 -8.49572 -8.49572
-0.567409 -8.56831 -8.56831
-0.57448 -8.7208 -8.7208
-0.316569 -8.72774 -8.72774
-0.31115 -8.57514 -8.57514
-0.57094 -8.64443 -8.64443
-0.445504 -8.72417 -8.72417
-0.313853 -8.65132 -8.65132
-0.439259 -8.57162 -8.57162
-0.442376 -8.64777 -8.64777
-0.57448 -8.7208 -8.7208
-0.581584 -8.87427 -8.87427
-0.322037 -8.88132 -8.88132
-0.316569 -8.72774 -8.72774
-0.578028 -8.79741 -8.79741
-0.45179 -8.87769 -8.87769
-0.319297 -8.80441 -8.80441
-0.445504 -8.72417 -8.72417
-0.448642 -8.80081 -8.80081
-0.581584 -8.87427 -8.87427
-0.58872 -9.0287 -9.0287
-0.327555 -9.03586 -9.03586
-0.322037 -8.88132 -8.88132
-0.585147 -8.95136 -8.95136
-0.458117 -9.03218 -9.03218
-0.32479 -8.95847 -8.95847
-0.45179 -8.87769 -8.87769
-0.454948 -8.95481 -8.95481
-0.58872 -9.0287 -9.0287
-0.595888 -9.18408 -9.18408
-0.333123 -9.19135 -9.19135
-0.327555 -9.03586 -9.03586
-0.5923 -9.10627 -9.10627
-0.464485 -9.18761 -9.18761
-0.330333 -9.11348 -9.11348
-0.458117 -9.03218 -9.03218
-0.461296 -9.10978 -9.10978
-0.595888 -9.18408 -9.18408
-0.603088 -9.34041 -9.34041
-0.33874 -9.34778 -9.34778
-0.333123 -9.19135 -9.19135
-0.599484 -9.26213 -9.26213
-0.470893 -9.344 -9.344
-0.335925 -9.26945 -9.26945
-0.464485 -9.18761 -9.18761
-0.467684 -9.26569 -9.26569
-0.603088 -9.34041 -9.34041
-0.610319 -9.49767 -9.49767
-0.344406 -9.50515 -9.50515
-0.33874 -9.34778 -9.34778
-0.6067 -9.41892 -9.41892
-0.477342 -9.50131 -9.50131
-0.341567 -9.42635 -9.42635
-0.470893 -9.344 -9.344
-0.474113 -9.42254 -9.42254
-0.610319 -9.49767 -9.49767
-0.617582 -9.65585 -9.65585
-0.350121 -9.66343 -9.66343
-0.344406 -9.50515 -9.50515
-0.613947 -9.57665 -9.57665
-0.483831 -9.65955 -9.65955
-0.347257 -9.58418 -9.58418
-0.477342 -9.50131 -9.50131
-0.480582 -9.58031 -9.58031
-0.617582 -9.65585 -9.65585
-0.624876 -9.81495 -9.81495
-0.355884 -9.82264 -9.82264
-0.350121 -9.66343 -9.66343
-0.621225 -9.73529 -9.73529
-0.49036 -9.8187 -9.8187
-0.352996 -9.74292 -9.74292
-0.483831 -9.65955 -9.65955
-0.48709 -9.73901 -9.73901
-0.624876 -9.81495 -9.81495
-0.632201 -9.97495 -9.97495
-0.361695 -9.98274 -9.98274
-0.355884 -9.82264 -9.82264
-0.628535 -9.89484 -9.89484
-0.496927 -9.97875 -9.97875
-0.358783 -9.90258 -9.90258
-0.49036 -9.8187 -9.8187
-0.493639 -9.89861 -9.89861
-0.632201 -9.97495 -9.97495
-0.639556 -10.1358 -10.1358
-0.367553 -10.1437 -10.1437
-0.361695 -9.98274 -9.98274
-0.635875 -10.0553 -10.0553
-0.503534 -10.1397 -10.1397
-0.364618 -10.0631 -10.0631
-0.496927 -9.97875 -9.97875
-0.500226 -10.0591 -10.0591
-0.639556 -10.1358 -10.1358
-0.646941 -10.2976 -10.2976
-0.37346 -10.3056 -10.3056
-0.367553 -10.1437 -10.1437
-0.643245 -10.2166 -10.2166
-0.51018 -10.3015 -10.3015
-0.370501 -10.2246 -10.2246
-0.503534 -10.1397 -10.1397
-0.506852 -10.2205 -10.2205
-0.646941 -10.2976 -10.2976
-0.654355 -10.4603 -10.4603
-0.379413 -10.4684 -10.4684
-0.37346 -10.3056 -10.3056
-0.650644 -10.3788 -10.3788
-0.516864 -10.4642 -10.4642
-0.37643 -10.3869 -10.3869
-0.51018 -10.3015 -10.3015
-0.513517 -10.3828 -10.3828
-0.654355 -10.4603 -10.4603
-0.661799 -10.6238 -10.6238
-0.385413 -10.632 -10.632
-0.379413 -10.4684 -10.4684
-0.658074 -10.5419 -10.5419
-0.523586 -10.6278 -10.6278
-0.382407 -10.5501 -10.5501
-0.516864 -10.4642 -10.4642
-0.52022 -10.5459 -10.5459
-0.661799 -10.6238 -10.6238
-0.669272 -10.7881 -10.7881
-0.391459 -10.7964 -10.7964
-0.385413 -10.632 -10.632
-0.665532 -10.7058 -10.7058
-0.530345 -10.7922 -10.7922
-0.38843 -10.7141 -10.7141
-0.523586 -10.6278 -10.6278
-0.526961 -10.7099 -10.7099
-0.669272 -10.7881 -10.7881
-0.676774 -10.9533 -10.9533
-0.397551 -10.9617 -10.9617
-0.391459 -10.7964 -10.7964
-0.673019 -10.8706 -10.8706
-0.537142 -10.9574 -10.9574
-0.394499 -10.879 -10.879
-0.530345 -10.7922 -10.7922
-0.533739 -10.8747 -10.8747
-0.676774 -10.9533 -10.9533
-0.684303 -11.1193 -11.1193
-0.403688 -11.1279 -11.1279
-0.397551 -10.9617 -10.9617
-0.680535 -11.0362 -11.0362
-0.543976 -11.1235 -11.1235
-0.400614 -11.0447 -11.0447
-0.537142 -10.9574 -10.9574
-0.540554 -11.0404 -11.0404
-0.684303 -11.1193 -11.1193
-0.691861 -11.2862 -11.2862
-0.409871 -11.2948 -11.2948
-0.403688 -11.1279 -11.1279
-0.688079 -11.2027 -11.2027
-0.550846 -11.2904 -11.2904
-0.406774 -11.2112 -11.2112
-0.543976 -11.1235 -11.1235
-0.547406 -11.2069 -11.2069
-0.691861 -11.2862 -11.2862
-0.699445 -11.4539 -11.4539
-0.416098 -11.4626 -11.4626
-0.409871 -11.2948 -11.2948
-0.69565 -11.3699 -11.3699
-0.557752 -11.4581 -11.4581
-0.412979 -11.3786 -11.3786
-0.550846 -11.2904 -11.2904
-0.554294 -11.3742 -11.3742
-0.699445 -11.4539 -11.4539
-0.707057 -11.6223 -11.6223
-0.42237 -11.6311 -11.6311
-0.416098 -11.4626 -11.4626
-0.703248 -11.538 -11.538
-0.564693 -11.6266 -11.6266
-0.419228 -11.5467 -11.5467
-0.557752 -11.4581 -11.4581
-0.561218 -11.5423 -11.5423
-0.707057 -11.6223 -11.6223
-0.714695 -11.7916 -11.7916
-0.428685 -11.8005 -11.8005
-0.42237 -11.6311 -11.6311
-0.710873 -11.7068 -11.7068
-0.57167 -11.7959 -11.7959
-0.425522 -11.7157 -11.7157
-0.564693 -11.6266 -11.6266
-0.568178 -11.7112 -11.7112
-0.714695 -11.7916 -11.7916
-0.722359 -11.9616 -11.9616
-0.435044 -11.9706 -11.9706
-0.428685 -11.8005 -11.8005
-0.718524 -11.8765 -11.8765
-0.578682 -11.966 -11.966
-0.431859 -11.8854 -11.8854
-0.57167 -11.7959 -11.7959
-0.575172 -11.8809 -11.8809
-0.722359 -11.9616 -11.9616
-0.730049 -12.1324 -12.1324
-0.441446 -12.1415 -12.1415
-0.435044 -11.9706 -11.9706
-0.726201 -12.0469 -12.0469
-0.585728 -12.1369 -12.1369
-0.43824 -12.0559 -12.0559
-0.578682 -11.966 -11.966
-0.582201 -12.0513 -12.0513
-0.730049 -12.1324 -12.1324
-0.737764 -12.304 -12.304
-0.44789 -12.3131 -12.3131
-0.441446 -12.1415 -12.1415
-0.733904 -12.2181 -12.2181
-0.592808 -12.3085 -12.3085
-0.444663 -12.2272 -12.2272
-0.585728 -12.1369 -12.1369
-0.589263 -12.2226 -12.2226
-0.737764 -12.304 -12.304
-0.745504 -12.4763 -12.4763
-0.454376 -12.4855 -12.4855
-0.44789 -12.3131 -12.3131
-0.741631 -12.39 -12.39
-0.599921 -12.4808 -12.4808
-0.451128 -12.3992 -12.3992
-0.592808 -12.3085 -12.3085
-0.59636 -12.3945 -12.3945
-0.745504 -12.4763 -12.4763
-0.753268 -12.6493 -12.6493
-0.460904 -12.6587 -12.6587
-0.454376 -12.4855 -12.4855
-0.749383 -12.5627 -12.5627
-0.607067 -12.6539 -12.6539
-0.457635 -12.572 -12.572
-0.599921 -12.4808 -12.4808
-0.60349 -12.5673 -12.5673
-0.753268 -12.6493 -12.6493
-0.761056 -12.8231 -12.8231
-0.467473 -12.8325 -12.8325
-0.460904 -12.6587 -12.6587
-0.757159 -12.7361 -12.7361
-0.614245 -12.8277 -12.8277
-0.464184 -12.7455 -12.7455
-0.607067 -12.6539 -12.6539
-0.610652 -12.7407 -12.7407
-0.761056 -12.8231 -12.8231
-0.768867 -12.9976 -12.9976
-0.474083 -13.0071 -13.0071
-0.467473 -12.8325 -12.8325
-0.764958 -12.9102 -12.9102
-0.621455 -13.0023 -13.0023
-0.470773 -12.9197 -12.9197
-0.614245 -12.8277 -12.8277
-0.617846 -12.9149 -12.9149
-0.768867 -12.9976 -12.9976
-0.7767 -13.1728 -13.1728
-0.480732 -13.1824 -13.1824
-0.474083 -13.0071 -13.0071
-0.772781 -13.0851 -13.0851
-0.628697 -13.1775 -13.1775
-0.477403 -13.0947 -13.0947
-0.621455 -13.0023 -13.0023
-0.625072 -13.0898 -13.0898
-0.7767 -13.1728 -13.1728
-0.784556 -13.3487 -13.3487
-0.487421 -13.3584 -13.3584
-0.480732 -13.1824 -13.1824
-0.780625 -13.2606 -13.2606
-0.635969 -13.3535 -13.3535
-0.484072 -13.2703 -13.2703
-0.628697 -13.1775 -13.1775
-0.632329 -13.2654 -13.2654
-0.784556 -13.3487 -13.3487
-0.792434 -13.5253 -13.5253
-0.49415 -13.5351 -13.5351
-0.487421 -13.3584 -13.3584
-0.788492 -13.4369 -13.4369
-0.643272 -13.5301 -13.5301
-0.490781 -13.4467 -13.4467
-0.635969 -13.3535 -13.3535
-0.639617 -13.4417 -13.4417
-0.792434 -13.5253 -13.5253
-0.800332 -13.7025 -13.7025
-0.500916 -13.7124 -13.7124
-0.49415 -13.5351 -13.5351
-0.79638 -13.6138 -13.6138
-0.650605 -13.7074 -13.7074
-0.497528 -13.6237 -13.6237
-0.643272 -13.5301 -13.5301
-0.646935 -13.6187 -13.6187
-0.800332 -13.7025 -13.7025
-0.808252 -13.8804 -13.8804
-0.507721 -13.8904 -13.8904
-0.500916 -13.7124 -13.7124
-0.804289 -13.7914 -13.7914
-0.657967 -13.8854 -13.8854
-0.504314 -13.8013 -13.8013
-0.650605 -13.7074 -13.7074
-0.654282 -13.7963 -13.7963
-0.808252 -13.8804 -13.8804
-0.816191 -14.059 -14.059
-0.514563 -14.0691 -14.0691
-0.507721 -13.8904 -13.8904
-0.812219 -13.9697 -13.9697
-0.665358 -14.064 -14.064
-0.511137 -13.9797 -13.9797
-0.657967 -13.8854 -13.8854
-0.661659 -13.9746 -13.9746
-0.816191 -14.059 -14.059
-0.82415 -14.2383 -14.2383
-0.521442 -14.2484 -14.2484
-0.514563 -14.0691 -14.0691
-0.820168 -14.1486 -14.1486
-0.672777 -14.2433 -14.2433
-0.517998 -14.1587 -14.1587
-0.665358 -14.064 -14.064
-0.669064 -14.1536 -14.1536
-0.82415 -14.2383 -14.2383
-0.832128 -14.4181 -14.4181
-0.528357 -14.4284 -14.4284
-0.521442 -14.2484 -14.2484
-0.828137 -14.3281 -14.3281
-0.680224 -14.4232 -14.4232
-0.524895 -14.3383 -14.3383
-0.672777 -14.2433 -14.2433
-0.676497 -14.3332 -14.3332
-0.832128 -14.4181 -14.4181
-0.840124 -14.5986 -14.5986
-0.535308 -14.609 -14.609
-0.528357 -14.4284 -14.4284
-0.836124 -14.5083 -14.5083
-0.687697 -14.6037 -14.6037
-0.531828 -14.5186 -14.5186
-0.680224 -14.4232 -14.4232
-0.683957 -14.5134 -14.5134
-0.840124 -14.5986 -14.5986
-0.848139 -14.7797 -14.7797
-0.542294 -14.7901 -14.7901
-0.535308 -14.609 -14.609
-0.844129 -14.6891 -14.6891
-0.695198 -14.7849 -14.7849
-0.538797 -14.6995 -14.6995
-0.687697 -14.6037 -14.6037
-0.691444 -14.6942 -14.6942
-0.848139 -14.7797 -14.7797
-0.85617 -14.9614 -14.9614
-0.549315 -14.9719 -14.9719
-0.542294 -14.7901 -14.7901
-0.852152 -14.8705 -14.8705
-0.702724 -14.9666 -14.9666
-0.5458 -14.881 -14.881
-0.695198 -14.7849 -14.7849
-0.698957 -14.8757 -14.8757
-0.85617 -14.9614 -14.9614
-0.864218 -15.1438 -15.1438
-0.556369 -15.1543 -15.1543
-0.549315 -14.9719 -14.9719
-0.860192 -15.0525 -15.0525
-0.710275 -15.149 -15.149
-0.552838 -15.0631 -15.0631
-0.702724 -14.9666 -14.9666
-0.706496 -15.0577 -15.0577
-0.864218 -15.1438 -15.1438
-0.872282 -15.3267 -15.3267
-0.563457 -15.3373 -15.3373
-0.556369 -15.1543 -15.1543
-0.868248 -15.2351 -15.2351
-0.717851 -15.3319 -15.3319
-0.559909 -15.2457 -15.2457
-0.710275 -15.149 -15.149
-0.71406 -15.2404 -15.2404
-0.872282 -15.3267 -15.3267
-0.880362 -15.5101 -15.5101
-0.570578 -15.5209 -15.5209
-0.563457 -15.3373 -15.3373
-0.87632 -15.4183 -15.4183
-0.725452 -15.5154 -15.5154
-0.567014 -15.429 -15.429
-0.717851 -15.3319 -15.3319
-0.721648 -15.4236 -15.4236
-0.880362 -15.5101 -15.5101
-0.888457 -15.6942 -15.6942
-0.577731 -15.705 -15.705
-0.570578 -15.5209 -15.5209
-0.884408 -15.6021 -15.6021
-0.733075 -15.6995 -15.6995
-0.574151 -15.6128 -15.6128
-0.725452 -15.5154 -15.5154
-0.729261 -15.6074 -15.6074
-0.888457 -15.6942 -15.6942
-0.896565 -15.8787 -15.8787
-0.584916 -15.8896 -15.8896
-0.577731 -15.705 -15.705
-0.892509 -15.7864 -15.7864
-0.740722 -15.8841 -15.8841
-0.581319 -15.7972 -15.7972
-0.733075 -15.6995 -15.6995
-0.736896 -15.7918 -15.7918
-0.896565 -15.8787 -15.8787
-0.904688 -16.0639 -16.0639
-0.592131 -16.0748 -16.0748
-0.584916 -15.8896 -15.8896
-0.900625 -15.9712 -15.9712
-0.748391 -16.0693 -16.0693
-0.588519 -15.9822 -15.9822
-0.740722 -15.8841 -15.8841
-0.744554 -15.9767 -15.9767
-0.904688 -16.0639 -16.0639
-0.912823 -16.2496 -16.2496
-0.599377 -16.2606 -16.2606
-0.592131 -16.0748 -16.0748
-0.908754 -16.1567 -16.1567
-0.756081 -16.255 -16.255
-0.59575 -16.1676 -16.1676
-0.748391 -16.0693 -16.0693
-0.752233 -16.1621 -16.1621
-0.912823 -16.2496 -16.2496
-0.920971 -16.4357 -16.4357
-0.606652 -16.4469 -16.4469
-0.599377 -16.2606 -16.2606
-0.916895 -16.3426 -16.3426
-0.763793 -16.4412 -16.4412
-0.603011 -16.3537 -16.3537
-0.756081 -16.255 -16.255
-0.759935 -16.3481 -16.3481
-0.920971 -16.4357 -16.4357
-0.92913 -16.6224 -16.6224
-0.613956 -16.6336 -16.6336
-0.606652 -16.4469 -16.4469
-0.925049 -16.529 -16.529
-0.771525 -16.628 -16.628
-0.6103 -16.5402 -16.5402
-0.763793 -16.4412 -16.4412
-0.767656 -16.5346 -16.5346
-0.92913 -16.6224 -16.6224
-0.9373 -16.8097 -16.8097
-0.621289 -16.8209 -16.8209
-0.613956 -16.6336 -16.6336
-0.933214 -16.716 -16.716
-0.779276 -16.8152 -16.8152
-0.617619 -16.7272 -16.7272
-0.771525 -16.628 -16.628
-0.775398 -16.7215 -16.7215
-0.9373 -16.8097 -16.8097
-0.945481 -16.9974 -16.9974
-0.628649 -17.0087 -17.0087
-0.621289 -16.8209 -16.8209
-0.941389 -16.9034 -16.9034
-0.787047 -17.003 -17.003
-0.624966 -16.9147 -16.9147
-0.779276 -16.8152 -16.8152
-0.783159 -16.909 -16.909
-0.945481 -16.9974 -16.9974
-0.953671 -17.1855 -17.1855
-0.636036 -17.1969 -17.1969
-0.628649 -17.0087 -17.0087
-0.949575 -17.0914 -17.0914
-0.794836 -17.1912 -17.1912
-0.632339 -17.1027 -17.1027
-0.787047 -17.003 -17.003
-0.790939 -17.097 -17.097
-0.953671 -17.1855 -17.1855
-0.961871 -17.3742 -17.3742
-0.64345 -17.3857 -17.3857
-0.636036 -17.1969 -17.1969
-0.95777 -17.2798 -17.2798
-0.802643 -17.3799 -17.3799
-0.63974 -17.2912 -17.2912
-0.794836 -17.1912 -17.1912
-0.798737 -17.2855 -17.2855
-0.961871 -17.3742 -17.3742
-0.970079 -17.5633 -17.5633
-0.650889 -17.5748 -17.5748
-0.64345 -17.3857 -17.3857
-0.965974 -17.4687 -17.4687
-0.810466 -17.569 -17.569
-0.647167 -17.4802 -17.4802
-0.802643 -17.3799 -17.3799
-0.806552 -17.4744 -17.4744
-0.970079 -17.5633 -17.5633
-0.978294 -17.7529 -17.7529
-0.658354 -17.7645 -17.7645
-0.650889 -17.5748 -17.5748
-0.974186 -17.658 -17.658
-0.818306 -17.7586 -17.7586
-0.654619 -17.6696 -17.6696
-0.810466 -17.569 -17.569
-0.814384 -17.6638 -17.6638
-0.978294 -17.7529 -17.7529
-0.986517 -17.9429 -17.9429
-0.665842 -17.9545 -17.9545
-0.658354 -17.7645 -17.7645
-0.982405 -17.8478 -17.8478
-0.826162 -17.9487 -17.9487
-0.662095 -17.8595 -17.8595
-0.818306 -17.7586 -17.7586
-0.822232 -17.8536 -17.8536
-0.986517 -17.9429 -17.9429
-0.994746 -18.1333 -18.1333
-0.673355 -18.1451 -18.1451
-0.665842 -17.9545 -17.9545
-0.99063 -18.0381 -18.0381
-0.834033 -18.1392 -18.1392
-0.669596 -18.0497 -18.0497
-0.826162 -17.9487 -17.9487
-0.830095 -18.0439 -18.0439
-0.994746 -18.1333 -18.1333
-1.00298 -18.3242 -18.3242
-0.68089 -18.336 -18.336
-0.673355 -18.1451 -18.1451
-0.998862 -18.2287 -18.2287
-0.841918 -18.3301 -18.3301
-0.67712 -18.2405 -18.2405
-0.834033 -18.1392 -18.1392
-0.837973 -18.2346 -18.2346
-1.00298 -18.3242 -18.3242
-1.01122 -18.5155 -18.5155
-0.688447 -18.5273 -18.5273
-0.68089 -18.336 -18.336
-1.0071 -18.4198 -18.4198
-0.849816 -18.5214 -18.5214
-0.684666 -18.4316 -18.4316
-0.841918 -18.3301 -18.3301
-0.845865 -18.4257 -18.4257
-1.01122 -18.5155 -18.5155
-1.01946 -18.7072 -18.7072
-0.696026 -18.7191 -18.7191
-0.688447 -18.5273 -18.5273
-1.01534 -18.6113 -18.6113
-0.857727 -18.7131 -18.7131
-0.692234 -18.6231 -18.6231
-0.849816 -18.5214 -18.5214
-0.85377 -18.6172 -18.6172
-1.01946 -18.7072 -18.7072
-1.02771 -18.8992 -18.8992
-0.703626 -18.9112 -18.9112
-0.696026 -18.7191 -18.7191
-1.02359 -18.8031 -18.8031
-0.865651 -18.9052 -18.9052
-0.699824 -18.8151 -18.8151
-0.857727 -18.7131 -18.7131
-0.861688 -18.8091 -18.8091
-1.02771 -18.8992 -18.8992
-1.03596 -19.0917 -19.0917
-0.711246 -19.1037 -19.1037
-0.703626 -18.9112 -18.9112
-1.03183 -18.9954 -18.9954
-0.873586 -19.0976 -19.0976
-0.707433 -19.0074 -19.0074
-0.865651 -18.9052 -18.9052
-0.869617 -19.0014 -19.0014
-1.03596 -19.0917 -19.0917
-1.04421 -19.2845 -19.2845
-0.718885 -19.2966 -19.2966
-0.711246 -19.1037 -19.1037
-1.04009 -19.188 -19.188
-0.881531 -19.2905 -19.2905
-0.715063 -19.2001 -19.2001
-0.873586 -19.0976 -19.0976
-0.877557 -19.194 -19.194
-1.04421 -19.2845 -19.2845
-1.05247 -19.4777 -19.4777
-0.726543 -19.4898 -19.4898
-0.718885 -19.2966 -19.2966
-1.04834 -19.381 -19.381
-0.889487 -19.4837 -19.4837
-0.722711 -19.3931 -19.3931
-0.881531 -19.2905 -19.2905
-0.885508 -19.3871 -19.3871
-1.05247 -19.4777 -19.4777
-1.06072 -19.6712 -19.6712
-0.734218 -19.6834 -19.6834
-0.726543 -19.4898 -19.4898
-1.05659 -19.5744 -19.5744
-0.897452 -19.6773 -19.6773
-0.730378 -19.5865 -19.5865
-0.889487 -19.4837 -19.4837
-0.893468 -19.5804 -19.5804
-1.06072 -19.6712 -19.6712
-1.06897 -19.8651 -19.8651
-0.741911 -19.8773 -19.8773
-0.734218 -19.6834 -19.6834
-1.06485 -19.7681 -19.7681
-0.905425 -19.8711 -19.8711
-0.738063 -19.7803 -19.7803
-0.897452 -19.6773 -19.6773
-0.901437 -19.7742 -19.7742
-1.06897 -19.8651 -19.8651
-1.07723 -20.0593 -20.0593
-0.74962 -20.0715 -20.0715
-0.741911 -19.8773 -19.8773
-1.0731 -19.9621 -19.9621
-0.913406 -20.0654 -20.0654
-0.745764 -19.9744 -19.9744
-0.905425 -19.8711 -19.8711
-0.909415 -19.9682 -19.9682
-1.07723 -20.0593 -20.0593
-1.08548 -20.2538 -20.2538
-0.757345 -20.2661 -20.2661
-0.74962 -20.0715 -20.0715
-1.08135 -20.1565 -20.1565
-0.921394 -20.2599 -20.2599
-0.753481 -20.1688 -20.1688
-0.913406 -20.0654 -20.0654
-0.917399 -20.1626 -20.1626
-1.08548 -20.2538 -20.2538
-1.09373 -20.4486 -20.4486
-0.765085 -20.461 -20.461
-0.757345 -20.2661 -20.2661
-1.0896 -20.3512 -20.3512
-0.929389 -20.4548 -20.4548
-0.761213 -20.3635 -20.3635
-0.921394 -20.2599 -20.2599
-0.925391 -20.3573 -20.3573
-1.09373 -20.4486 -20.4486
-1.10197 -20.6437 -20.6437
-0.772839 -20.6562 -20.6562
-0.765085 -20.461 -20.461
-1.09785 -20.5461 -20.5461
-0.937389 -20.6499 -20.6499
-0.76896 -20.5585 -20.5585
-0.929389 -20.4548 -20.4548
-0.933388 -20.5523 -20.5523
-1.10197 -20.6437 -20.6437
-1.11021 -20.8391 -20.8391
-0.780607 -20.8516 -20.8516
-0.772839 -20.6562 -20.6562
-1.10609 -20.7414 -20.7414
-0.945394 -20.8454 -20.8454
-0.776721 -20.7538 -20.7538
-0.937389 -20.6499 -20.6499
-0.941391 -20.7476 -20.7476
-1.11021 -20.8391 -20.8391
-1.11845 -21.0348 -21.0348
-0.788387 -21.0473 -21.0473
-0.780607 -20.8516 -20.8516
-1.11433 -20.937 -20.937
-0.953403 -21.0411 -21.0411
-0.784495 -20.9494 -20.9494
-0.945394 -20.8454 -20.8454
-0.949398 -20.9432 -20.9432
-1.11845 -21.0348 -21.0348
-1.12668 -21.2308 -21.2308
-0.796179 -21.2433 -21.2433
-0.788387 -21.0473 -21.0473
-1.12257 -21.1328 -21.1328
-0.961415 -21.237 -21.237
-0.792281 -21.1453 -21.1453
-0.953403 -21.0411 -21.0411
-0.957408 -21.139 -21.139
-1.12668 -21.2308 -21.2308
-1.13491 -21.427 -21.427
-0.803982 -21.4396 -21.4396
-0.796179 -21.2433 -21.2433
-1.1308 -21.3289 -21.3289
-0.969429 -21.4333 -21.4333
-0.800079 -21.3414 -21.3414
-0.961415 -21.237 -21.237
-0.965422 -21.3351 -21.3351
-1.13491 -21.427 -21.427
-1.14313 -21.6235 -21.6235
-0.811796 -21.6361 -21.6361
-0.803982 -21.4396 -21.4396
-1.13902 -21.5252 -21.5252
-0.977446 -21.6298 -21.6298
-0.807887 -21.5378 -21.5378
-0.969429 -21.4333 -21.4333
-0.973437 -21.5315 -21.5315
-1.14313 -21.6235 -21.6235
-1.15134 -21.8202 -21.8202
-0.819619 -21.8328 -21.8328
-0.811796 -21.6361 -21.6361
-1.14723 -21.7218 -21.7218
-0.985463 -21.8265 -21.8265
-0.815706 -21.7345 -21.7345
-0.977446 -21.6298 -21.6298
-0.981454 -21.7281 -21.7281
-1.15134 -21.8202 -21.8202
-1.15954 -22.0171 -22.0171
-0.827451 -22.0298 -22.0298
-0.819619 -21.8328 -21.8328
-1.15544 -21.9186 -21.9186
-0.99348 -22.0234 -22.0234
-0.823534 -21.9313 -21.9313
-0.985463 -21.8265 -21.8265
-0.989472 -21.9249 -21.9249
-1.15954 -22.0171 -22.0171
-1.16774 -22.2143 -22.2143
-0.835291 -22.227 -22.227
-0.827451 -22.0298 -22.0298
-1.16364 -22.1157 -22.1157
-1.0015 -22.2206 -22.2206
-0.83137 -22.1284 -22.1284
-0.99348 -22.0234 -22.0234
-0.997489 -22.122 -22.122
-1.16774 -22.2143 -22.2143
-1.17592 -22.4116 -22.4116
-0.843138 -22.4244 -22.4244
-0.835291 -22.227 -22.227
-1.17183 -22.3129 -22.3129
-1.00951 -22.418 -22.418
-0.839214 -22.3257 -22.3257
-1.0015 -22.2206 -22.2206
-1.00551 -22.3193 -22.3193
-1.17592 -22.4116 -22.4116
-1.18409 -22.6092 -22.6092
-0.850992 -22.622 -22.622
-0.843138 -22.4244 -22.4244
-1.18001 -22.5104 -22.5104
-1.01753 -22.6155 -22.6155
-0.847064 -22.5232 -22.5232
-1.00951 -22.418 -22.418
-1.01352 -22.5167 -22.5167
-1.18409 -22.6092 -22.6092
-1.19225 -22.8069 -22.8069
-0.858852 -22.8197 -22.8197
-0.850992 -22.622 -22.622
-1.18817 -22.708 -22.708
-1.02554 -22.8133 -22.8133
-0.854921 -22.7208 -22.7208
-1.01753 -22.6155 -22.6155
-1.02153 -22.7144 -22.7144
-1.19225 -22.8069 -22.8069
-1.2004 -23.0048 -23.0048
-0.866716 -23.0177 -23.0177
-0.858852 -22.8197 -22.8197
-1.19633 -22.9058 -22.9058
-1.03354 -23.0112 -23.0112
-0.862783 -22.9187 -22.9187
-1.02554 -22.8133 -22.8133
-1.02954 -22.9122 -22.9122
-1.2004 -23.0048 -23.0048
-1.20854 -23.2029 -23.2029
-0.874585 -23.2158 -23.2158
-0.866716 -23.0177 -23.0177
-1.20447 -23.1038 -23.1038
-1.04155 -23.2093 -23.2093
-0.87065 -23.1167 -23.1167
-1.03354 -23.0112 -23.0112
-1.03755 -23.1102 -23.1102
-1.20854 -23.2029 -23.2029
-1.21666 -23.4011 -23.4011
-0.882457 -23.414 -23.414
-0.874585 -23.2158 -23.2158
-1.2126 -23.302 -23.302
-1.04954 -23.4076 -23.4076
-0.878521 -23.3149 -23.3149
-1.04155 -23.2093 -23.2093
-1.04555 -23.3084 -23.3084
-1.21666 -23.4011 -23.4011
-1.22477 -23.5995 -23.5995
-0.890332 -23.6124 -23.6124
-0.882457 -23.414 -23.414
-1.22072 -23.5003 -23.5003
-1.05753 -23.6059 -23.6059
-0.886394 -23.5132 -23.5132
-1.04954 -23.4076 -23.4076
-1.05354 -23.5067 -23.5067
-1.22477 -23.5995 -23.5995
-1.23286 -23.798 -23.798
-0.898208 -23.811 -23.811
-0.890332 -23.6124 -23.6124
-1.22881 -23.6987 -23.6987
-1.06552 -23.8045 -23.8045
-0.89427 -23.7117 -23.7117
-1.05753 -23.6059 -23.6059
-1.06153 -23.7052 -23.7052
-1.23286 -23.798 -23.798
-1.24093 -23.9966 -23.9966
-0.906086 -24.0096 -24.0096
-0.898208 -23.811 -23.811
-1.2369 -23.8973 -23.8973
-1.07349 -24.0031 -24.0031
-0.902147 -23.9103 -23.9103
-1.06552 -23.8045 -23.8045
-1.06951 -23.9038 -23.9038
-1.24093 -23.9966 -23.9966
-1.24899 -24.1954 -24.1954
-0.913963 -24.2084 -24.2084
-0.906086 -24.0096 -24.0096
-1.24497 -24.096 -24.096
-1.08146 -24.2019 -24.2019
-0.910024 -24.109 -24.109
-1.07349 -24.0031 -24.0031
-1.07748 -24.1025 -24.1025
-1.24899 -24.1954 -24.1954
-1.25703 -24.3942 -24.3942
-0.92184 -24.4073 -24.4073
-0.913963 -24.2084 -24.2084
-1.25301 -24.2948 -24.2948
-1.08942 -24.4008 -24.4008
-0.917902 -24.3078 -24.3078
-1.08146 -24.2019 -24.2019
-1.08544 -24.3013 -24.3013
-1.25703 -24.3942 -24.3942
-1.26505 -24.5932 -24.5932
-0.929715 -24.6063 -24.6063
-0.92184 -24.4073 -24.4073
-1.26104 -24.4937 -24.4937
-1.09737 -24.5997 -24.5997
-0.925778 -24.5068 -24.5068
-1.08942 -24.4008 -24.4008
-1.09339 -24.5002 -24.5002
-1.26505 -24.5932 -24.5932
-1.27305 -24.7922 -24.7922
-0.937586 -24.8053 -24.8053
-0.929715 -24.6063 -24.6063
-1.26905 -24.6927 -24.6927
-1.1053 -24.7988 -24.7988
-0.933651 -24.7058 -24.7058
-1.09737 -24.5997 -24.5997
-1.10134 -24.6992 -24.6992
-1.27305 -24.7922 -24.7922
-1.28102 -24.9913 -24.9913
-0.945454 -25.0045 -25.0045
-0.937586 -24.8053 -24.8053
-1.27704 -24.8918 -24.8918
-1.11322 -24.9979 -24.9979
-0.941521 -24.9049 -24.9049
-1.1053 -24.7988 -24.7988
-1.10926 -24.8983 -24.8983
-1.28102 -24.9913 -24.9913
-1.28897 -25.1905 -25.1905
-0.953315 -25.2037 -25.2037
-0.945454 -25.0045 -25.0045
-1.285 -25.0909 -25.0909
-1.12112 -25.1971 -25.1971
-0.949385 -25.104 -25.104
-1.11322 -24.9979 -24.9979
-1.11717 -25.0975 -25.0975
-1.28897 -25.1905 -25.1905
-1.29689 -25.3897 -25.3897
-0.961169 -25.4029 -25.4029
-0.953315 -25.2037 -25.2037
-1.29293 -25.2901 -25.2901
-1.12901 -25.3963 -25.3963
-0.957243 -25.3033 -25.3033
-1.12112 -25.1971 -25.1971
-1.12507 -25.2967 -25.2967
-1.29689 -25.3897 -25.3897
-1.30477 -25.589 -25.589
-0.969015 -25.6022 -25.6022
-0.961169 -25.4029 -25.4029
-1.30083 -25.4894 -25.4894
-1.13687 -25.5956 -25.5956
-0.965093 -25.5025 -25.5025
-1.12901 -25.3963 -25.3963
-1.13294 -25.496 -25.496
-1.30477 -25.589 -25.589
-1.31263 -25.7884 -25.7884
-0.976856 -25.8015 -25.8015
-0.969015 -25.6022 -25.6022
-1.3087 -25.6887 -25.6887
-1.14472 -25.7949 -25.7949
-0.972937 -25.7018 -25.7018
-1.13687 -25.5956 -25.5956
-1.1408 -25.6953 -25.6953
-1.31263 -25.7884 -25.7884
-1.32049 -25.9877 -25.9877
-0.984692 -26.0007 -26.0007
-0.976856 -25.8015 -25.8015
-1.31656 -25.888 -25.888
-1.15257 -25.9942 -25.9942
-0.980774 -25.9011 -25.9011
-1.14472 -25.7949 -25.7949
-1.14865 -25.8946 -25.8946
-1.32049 -25.9877 -25.9877
-1.32836 -26.1869 -26.1869
-0.992527 -26.1999 -26.1999
-0.984692 -26.0007 -26.0007
-1.32442 -26.0873 -26.0873
-1.16042 -26.1933 -26.1933
-0.988609 -26.1003 -26.1003
-1.15257 -25.9942 -25.9942
-1.15649 -26.0938 -26.0938
0 0 0
-0.00151397 0.000245852 0.000245852
0.00146144 0.000235121 0.000235121
0 0 0
-0.00075402 0.000488799 0.000488799
-2.63858e-05 0.000329024 0.000329024
0.000726991 0.000482775 0.000482775
0 0 0
-1.36406e-05 0.000523364 0.000523364
-0.00151397 0.000245852 0.000245852
-0.00315007 -0.0022798 -0.0022798
0.00304709 -0.00230019 -0.00230019
0.00146144 0.000235121 0.000235121
-0.00231694 -0.000692592 -0.000692592
-5.15461e-05 -0.00214418 -0.00214418
0.00223933 -0.000708013 -0.000708013
-2.63858e-05 0.000329024 0.000329024
-3.89109e-05 -0.000577498 -0.000577498
-0.00315007 -0.0022798 -0.0022798
-0.00484567 -0.00723581 -0.00723581
0.0046888 -0.00726718 -0.00726718
0.00304709 -0.00230019 -0.00230019
-0.00399307 -0.00447051 -0.00447051
-7.82126e-05 -0.00706311 -0.00706311
0.00386384 -0.0044962 -0.0044962
-5.15461e-05 -0.00214418 -0.00214418
-6.45465e-05 -0.00431484 -0.00431484
-0.00484567 -0.00723581 -0.00723581
-0.00658106 -0.0144005 -0.0144005
0.00636293 -0.0144445 -0.0144445
0.0046888 -0.00726718 -0.00726718
-0.00571045 -0.0105521 -0.0105521
-0.000108601 -0.014214 -0.014214
0.00552408 -0.0105895 -0.0105895
-7.82126e-05 -0.00706311 -0.00706311
-9.28327e-05 -0.0103697 -0.0103697
-0.00658106 -0.0144005 -0.0144005
-0.00831894 -0.0236369 -0.0236369
0.00802892 -0.0236954 -0.0236954
0.00636293 -0.0144445 -0.0144445
-0.00745062 -0.0187652 -0.0187652
-0.000144343 -0.0234498 -0.0234498
0.00719808 -0.0188163 -0.0188163
-0.000108601 -0.014214 -0.014214
-0.000125698 -0.0185772 -0.0185772
-0.00831894 -0.0236369 -0.0236369
-0.0100535 -0.0348751 -0.0348751
0.00967748 -0.0349499 -0.0349499
0.00802892 -0.0236954 -0.0236954
-0.00918698 -0.0290085 -0.0290085
-0.000187158 -0.0346961 -0.0346961
0.00885594 -0.029075 -0.029075
-0.000144343 -0.0234498 -0.0234498
-0.00016476 -0.0288247 -0.0288247
-0.0100535 -0.0348751 -0.0348751
-0.0117788 -0.0480785 -0.0480785
0.0112993 -0.0481712 -0.0481712
0.00967748 -0.0349499 -0.0349499
-0.0109172 -0.0412325 -0.0412325
-0.000238724 -0.0479107 -0.0479107
0.0104918 -0.0413161 -0.0413161
-0.000187158 -0.0346961 -0.0346961
-0.000211742 -0.041059 -0.041059
-0.0117788 -0.0480785 -0.0480785
-0.0134989 -0.0632288 -0.0632288
0.012895 -0.0633412 -0.0633412
0.0112993 -0.0481712 -0.0481712
-0.0126392 -0.0554111 -0.0554111
-0.00030072 -0.0630737 -0.0630737
0.0121004 -0.0555134 -0.0555134
-0.000238724 -0.0479107 -0.0479107
-0.000268317 -0.0552495 -0.0552495
-0.0134989 -0.0632288 -0.0632288
-0.0152165 -0.0803143 -0.0803143
0.0144642 -0.0804484 -0.0804484
0.012895 -0.0633412 -0.0633412
-0.0143578 -0.0715302 -0.0715302
-0.000374734 -0.0801725 -0.0801725
0.0136829 -0.0716532 -0.0716532
-0.00030072 -0.0630737 -0.0630737
-0.000336129 -0.0713817 -0.0713817
-0.0152165 -0.0803143 -0.0803143
-0.0169355 -0.0993259 -0.0993259
0.0160078 -0.0994837 -0.0994837
0.0144642 -0.0804484 -0.0804484
-0.0160756 -0.0895799 -0.0895799
-0.00046228 -0.099198 -0.099198
0.0152392 -0.0897255 -0.0897255
-0.000374734 -0.0801725 -0.0801725
-0.000416725 -0.0894449 -0.0894449
-0.0169355 -0.0993259 -0.0993259
-0.0186586 -0.120255 -0.120255
0.0175255 -0.120438 -0.120438
0.0160078 -0.0994837 -0.0994837
-0.0177964 -0.109551 -0.109551
-0.000564793 -0.120141 -0.120141
0.0167699 -0.109722 -0.109722
-0.00046228 -0.099198 -0.099198
-0.000511579 -0.109431 -0.109431
-0.0186586 -0.120255 -0.120255
-0.0203882 -0.143092 -0.143092
0.019017 -0.143304 -0.143304
0.0175255 -0.120438 -0.120438
-0.0195225 -0.131435 -0.131435
-0.000683649 -0.142994 -0.142994
0.0182746 -0.131633 -0.131633
-0.000564793 -0.120141 -0.120141
-0.000622094 -0.13133 -0.13133
-0.0203882 -0.143092 -0.143092
-0.0221262 -0.167828 -0.167828
0.0204815 -0.16807 -0.16807
0.019017 -0.143304 -0.143304
-0.021256 -0.155223 -0.155223
-0.00082018 -0.167746 -0.167746
0.0197527 -0.15545 -0.15545
-0.000683649 -0.142994 -0.142994
-0.000749623 -0.155133 -0.155133
-0.0221262 -0.167828 -0.167828
-0.023874 -0.194453 -0.194453
0.0219181 -0.194727 -0.194727
0.0204815 -0.16807 -0.16807
-0.0229988 -0.180905 -0.180905
-0.000975686 -0.194389 -0.194389
0.0212034 -0.181163 -0.181163
-0.00082018 -0.167746 -0.167746
-0.000895481 -0.180832 -0.180832
-0.023874 -0.194453 -0.194453
-0.0256333 -0.222957 -0.222957
0.0233256 -0.223266 -0.223266
0.0219181 -0.194727 -0.194727
-0.0247522 -0.20847 -0.20847
-0.00115144 -0.222911 -0.222911
0.0226255 -0.208762 -0.208762
-0.000975686 -0.194389 -0.194389
-0.00106095 -0.208415 -0.208415
-0.0256333 -0.222957 -0.222957
-0.0274053 -0.253329 -0.253329
0.0247028 -0.253675 -0.253675
0.0233256 -0.223266 -0.223266
-0.0265176 -0.23791 -0.23791
-0.00134869 -0.253303 -0.253303
0.024018 -0.238237 -0.238237
-0.00115144 -0.222911 -0.222911
-0.0012473 -0.237874 -0.237874
-0.0274053 -0.253329 -0.253329
-0.0291913 -0.285561 -0.285561
0.0260485 -0.285946 -0.285946
0.0247028 -0.253675 -0.253675
-0.0282965 -0.269213 -0.269213
-0.00156867 -0.285555 -0.285555
0.0253797 -0.269578 -0.269578
-0.00134869 -0.253303 -0.253303
-0.00145576 -0.269198 -0.269198
-0.0291913 -0.285561 -0.285561
-0.0309925 -0.319641 -0.319641
0.0273616 -0.320066 -0.320066
0.0260485 -0.285946 -0.285946
-0.0300899 -0.30237 -0.30237
-0.00181259 -0.319657 -0.319657
0.0267092 -0.302775 -0.302775
-0.00156867 -0.285555 -0.285555
-0.00168756 -0.302376 -0.302376
-0.0309925 -0.319641 -0.319641
-0.0328101 -0.355559 -0.355559
0.0286409 -0.356028 -0.356028
0.0273616 -0.320066 -0.320066
-0.0318992 -0.337371 -0.337371
-0.00208164 -0.355598 -0.355598
0.0280056 -0.337818 -0.337818
-0.00181259 -0.319657 -0.319657
-0.00194389 -0.337398 -0.337398
-0.0328101 -0.355559 -0.355559
-0.0346454 -0.393305 -0.393305
0.0298852 -0.393819 -0.393819
0.0286409 -0.356028 -0.356028
-0.0337255 -0.374204 -0.374204
-0.00237699 -0.393367 -0.393367
0.0292675 -0.374695 -0.374695
-0.00208164 -0.355598 -0.355598
-0.00222595 -0.374255 -0.374255
-0.0346454 -0.393305 -0.393305
-0.0364994 -0.432869 -0.432869
0.0310933 -0.433429 -0.433429
0.0298852 -0.393819 -0.393819
-0.03557 -0.41286 -0.41286
-0.00269981 -0.432956 -0.432956
0.0304938 -0.413397 -0.413397
-0.00237699 -0.393367 -0.393367
-0.0025349 -0.412935 -0.412935
-0.0364994 -0.432869 -0.432869
-0.0383732 -0.47424 -0.47424
0.0322641 -0.474849 -0.474849
0.0310933 -0.433429 -0.433429
-0.0374337 -0.453329 -0.453329
-0.00305121 -0.474352 -0.474352
0.0316834 -0.453913 -0.453913
-0.00269981 -0.432956 -0.432956
-0.00287187 -0.453428 -0.453428
-0.0383732 -0.47424 -0.47424
-0.0402681 -0.517408 -0.517408
0.0333965 -0.518068 -0.518068
0.0322641 -0.474849 -0.474849
-0.039318 -0.4956 -0.4956
-0.00343232 -0.517546 -0.517546
0.0328352 -0.496234 -0.496234
-0.00305121 -0.474352 -0.474352
-0.00323799 -0.495725 -0.495725
-0.0402681 -0.517408 -0.517408
-0.042185 -0.562362 -0.562362
0.0344894 -0.563075 -0.563075
0.0333965 -0.518068 -0.518068
-0.0412237 -0.539662 -0.539662
-0.00384423 -0.562528 -0.562528
0.033948 -0.540348 -0.540348
-0.00343232 -0.517546 -0.517546
-0.00363436 -0.539815 -0.539815
-0.042185 -0.562362 -0.562362
-0.0441251 -0.609093 -0.609093
0.0355418 -0.60986 -0.60986
0.0344894 -0.563075 -0.563075
-0.0431521 -0.585506 -0.585506
-0.00428801 -0.609288 -0.609288
0.0350207 -0.586246 -0.586246
-0.00384423 -0.562528 -0.562528
-0.00406207 -0.585687 -0.585687
-0.0441251 -0.609093 -0.609093
-0.0460895 -0.657591 -0.657591
0.0365525 -0.658414 -0.658414
0.0355418 -0.60986 -0.60986
-0.0451042 -0.633122 -0.633122
-0.0047647 -0.657814 -0.657814
0.0360524 -0.633917 -0.633917
-0.00428801 -0.609288 -0.609288
-0.00452217 -0.633331 -0.633331
-0.0460895 -0.657591 -0.657591
-0.048079 -0.707844 -0.707844
0.0375206 -0.708724 -0.708724
0.0365525 -0.658414 -0.658414
-0.047081 -0.682498 -0.682498
-0.00527533 -0.708097 -0.708097
0.0370419 -0.68335 -0.68335
-0.0047647 -0.657814 -0.657814
-0.00501571 -0.682737 -0.682737
-0.048079 -0.707844 -0.707844
-0.0500948 -0.759842 -0.759842
0.038445 -0.760782 -0.760782
0.0375206 -0.708724 -0.708724
-0.0490836 -0.733625 -0.733625
-0.00582091 -0.760127 -0.760127
0.0379883 -0.734536 -0.734536
-0.00527533 -0.708097 -0.708097
-0.00554369 -0.733894 -0.733894
-0.0500948 -0.759842 -0.759842
-0.0521378 -0.813576 -0.813576
0.0393247 -0.814577 -0.814577
0.038445 -0.760782 -0.760782
-0.0511128 -0.786493 -0.786493
-0.00640243 -0.813892 -0.813892
0.0388905 -0.787464 -0.787464
-0.00582091 -0.760127 -0.760127
-0.00610712 -0.786793 -0.786793
-0.0521378 -0.813576 -0.813576
-0.054209 -0.869035 -0.869035
0.0401589 -0.870099 -0.870099
0.0393247 -0.814577 -0.814577
-0.0531698 -0.84109 -0.84109
-0.00702084 -0.869384 -0.869384
0.0397476 -0.842123 -0.842123
-0.00640243 -0.813892 -0.813892
-0.00670696 -0.841423 -0.841423
-0.054209 -0.869035 -0.869035
-0.0563093 -0.926208 -0.926208
0.0409465 -0.927337 -0.927337
0.0401589 -0.870099 -0.870099
-0.0552555 -0.897408 -0.897408
-0.0076771 -0.92659 -0.92659
0.0405586 -0.898504 -0.898504
-0.00702084 -0.869384 -0.869384
-0.00734418 -0.897773 -0.897773
-0.0563093 -0.926208 -0.926208
-0.0584397 -0.985086 -0.985086
0.0416867 -0.98628 -0.98628
0.0409465 -0.927337 -0.927337
-0.0573707 -0.955435 -0.955435
-0.00837213 -0.985502 -0.985502
0.0413226 -0.956596 -0.956596
-0.0076771 -0.92659 -0.92659
-0.00801971 -0.955834 -0.955834
-0.0584397 -0.985086 -0.985086
-0.060601 -1.04566 -1.04566
0.0423784 -1.04692 -1.04692
0.0416867 -0.98628 -0.98628
-0.0595164 -1.01516 -1.01516
-0.00910682 -1.04611 -1.04611
0.0420386 -1.01639 -1.01639
-0.00837213 -0.985502 -0.985502
-0.00873446 -1.01559 -1.01559
-0.060601 -1.04566 -1.04566
-0.0627942 -1.10791 -1.10791
0.0430209 -1.10924 -1.10924
0.0423784 -1.04692 -1.04692
-0.0616936 -1.07658 -1.07658
-0.00988205 -1.1084 -1.1084
0.0427059 -1.07787 -1.07787
-0.00910682 -1.04611 -1.04611
-0.00948931 -1.07704 -1.07704
-0.0627942 -1.10791 -1.10791
-0.0650201 -1.17184 -1.17184
0.0436133 -1.17324 -1.17324
0.0430209 -1.10924 -1.10924
-0.063903 -1.13967 -1.13967
-0.0106987 -1.17237 -1.17237
0.0433235 -1.14104 -1.14104
-0.00988205 -1.1084 -1.1084
-0.0102851 -1.14017 -1.14017
-0.0650201 -1.17184 -1.17184
-0.0672795 -1.23743 -1.23743
0.0441548 -1.23891 -1.23891
0.0436133 -1.17324 -1.17324
-0.0661455 -1.20443 -1.20443
-0.0115576 -1.23799 -1.23799
0.0438905 -1.20587 -1.20587
-0.0106987 -1.17237 -1.17237
-0.0111228 -1.20497 -1.20497
-0.0672795 -1.23743 -1.23743
-0.0695732 -1.30468 -1.30468
0.0446444 -1.30623 -1.30623
0.0441548 -1.23891 -1.23891
-0.068422 -1.27085 -1.27085
-0.0124596 -1.30528 -1.30528
0.0444061 -1.27236 -1.27236
-0.0115576 -1.23799 -1.23799
-0.0120031 -1.27143 -1.27143
-0.0695732 -1.30468 -1.30468
-0.0719021 -1.37357 -1.37357
0.0450815 -1.37519 -1.37519
0.0446444 -1.30623 -1.30623
-0.0707332 -1.33892 -1.33892
-0.0134054 -1.3742 -1.3742
0.0448696 -1.3405 -1.3405
-0.0124596 -1.30528 -1.30528
-0.0129269 -1.33954 -1.33954
-0.0719021 -1.37357 -1.37357
-0.074267 -1.44409 -1.44409
0.0454653 -1.44578 -1.44578
0.0450815 -1.37519 -1.37519
-0.07308 -1.40862 -1.40862
-0.0143959 -1.44476 -1.44476
0.0452801 -1.41028 -1.41028
-0.0134054 -1.3742 -1.3742
-0.013895 -1.40928 -1.40928
-0.074267 -1.44409 -1.44409
-0.0766685 -1.51623 -1.51623
0.0457949 -1.518 -1.518
0.0454653 -1.44578 -1.44578
-0.0754631 -1.47996 -1.47996
-0.0154317 -1.51694 -1.51694
0.0456369 -1.48169 -1.48169
-0.0143959 -1.44476 -1.44476
-0.0149081 -1.48065 -1.48065
-0.0766685 -1.51623 -1.51623
-0.0791075 -1.58998 -1.58998
0.0460697 -1.59183 -1.59183
0.0457949 -1.518 -1.518
-0.0778833 -1.5529 -1.5529
-0.0165138 -1.59074 -1.59074
0.0459392 -1.55472 -1.55472
-0.0154317 -1.51694 -1.51694
-0.0159669 -1.55364 -1.55364
-0.0791075 -1.58998 -1.58998
-0.0815847 -1.66534 -1.66534
0.0462889 -1.66727 -1.66727
0.0460697 -1.59183 -1.59183
-0.0803413 -1.62746 -1.62746
-0.0176427 -1.66613 -1.66613
0.0461863 -1.62935 -1.62935
-0.0165138 -1.59074 -1.59074
-0.0170723 -1.62823 -1.62823
-0.0815847 -1.66534 -1.66534
-0.0841007 -1.74228 -1.74228
0.0464518 -1.74429 -1.74429
0.0462889 -1.66727 -1.66727
-0.0828378 -1.70361 -1.70361
-0.0188191 -1.74312 -1.74312
0.0463774 -1.70558 -1.70558
-0.0176427 -1.66613 -1.66613
-0.0182249 -1.70443 -1.70443
-0.0841007 -1.74228 -1.74228
-0.0866562 -1.82081 -1.82081
0.0465577 -1.8229 -1.8229
0.0464518 -1.74429 -1.74429
-0.0853734 -1.78135 -1.78135
-0.0200439 -1.82169 -1.82169
0.0465119 -1.7834 -1.7834
-0.0188191 -1.74312 -1.74312
-0.0194254 -1.78221 -1.78221
-0.0866562 -1.82081 -1.82081
-0.0892519 -1.90091 -1.90091
0.0466061 -1.90308 -1.90308
0.0465577 -1.8229 -1.8229
-0.087949 -1.86066 -1.86066
-0.0213175 -1.90183 -1.90183
0.0465892 -1.8628 -1.8628
-0.0200439 -1.82169 -1.82169
-0.0206745 -1.86156 -1.86156
-0.0892519 -1.90091 -1.90091
-0.0918885 -1.98256 -1.98256
0.0465962 -1.98482 -1.98482
0.0466061 -1.90308 -1.90308
-0.0905651 -1.94154 -1.94154
-0.0226407 -1.98353 -1.98353
0.0466085 -1.94376 -1.94376
-0.0213175 -1.90183 -1.90183
-0.0219728 -1.94248 -1.94248
-0.0918885 -1.98256 -1.98256
-0.0945666 -2.06577 -2.06577
0.0465274 -2.06812 -2.06812
0.0465962 -1.98482 -1.98482
-0.0932223 -2.02397 -2.02397
-0.024014 -2.06678 -2.06678
0.0465692 -2.02628 -2.02628
-0.0226407 -1.98353 -1.98353
-0.023321 -2.02496 -2.02496
-0.0945666 -2.06577 -2.06577
-0.0972867 -2.15052 -2.15052
0.0463991 -2.15295 -2.15295
0.0465274 -2.06812 -2.06812
-0.0959213 -2.10795 -2.10795
-0.0254382 -2.15157 -2.15157
0.0464707 -2.11034 -2.11034
-0.024014 -2.06678 -2.06678
-0.0247197 -2.10898 -2.10898
-0.0972867 -2.15052 -2.15052
-0.100049 -2.23679 -2.23679
0.0462107 -2.23931 -2.23931
0.0463991 -2.15295 -2.15295
-0.0986627 -2.19347 -2.19347
-0.0269137 -2.23789 -2.23789
0.0463124 -2.19594 -2.19594
-0.0254382 -2.15157 -2.15157
-0.0261695 -2.19454 -2.19454
-0.100049 -2.23679 -2.23679
-0.102855 -2.32459 -2.32459
0.0459617 -2.32719 -2.32719
0.0462107 -2.23931 -2.23931
-0.101447 -2.2805 -2.2805
-0.0284411 -2.32573 -2.32573
0.0460938 -2.28306 -2.28306
-0.0269137 -2.23789 -2.23789
-0.0276709 -2.28162 -2.28162
-0.102855 -2.32459 -2.32459
-0.105705 -2.41389 -2.41389
0.0456515 -2.41659 -2.41659
0.0459617 -2.32719 -2.32719
-0.104275 -2.36905 -2.36905
-0.0300211 -2.41508 -2.41508
0.0458143 -2.3717 -2.3717
-0.0284411 -2.32573 -2.32573
-0.0292245 -2.37022 -2.37022
-0.105705 -2.41389 -2.41389
-0.108599 -2.50469 -2.50469
0.0452795 -2.50748 -2.50748
0.0456515 -2.41659 -2.41659
-0.107147 -2.45911 -2.45911
-0.031654 -2.50593 -2.50593
0.0454733 -2.46185 -2.46185
-0.0300211 -2.41508 -2.41508
-0.0308309 -2.46032 -2.46032
-0.108599 -2.50469 -2.50469
-0.111538 -2.59698 -2.59698
0.0448454 -2.59986 -2.59986
0.0452795 -2.50748 -2.50748
-0.110063 -2.55065 -2.55065
-0.0333405 -2.59826 -2.59826
0.0450703 -2.55348 -2.55348
-0.031654 -2.50593 -2.50593
-0.0324906 -2.55191 -2.55191
-0.111538 -2.59698 -2.59698
-0.114523 -2.69075 -2.69075
0.0443485 -2.69372 -2.69372
0.0448454 -2.59986 -2.59986
-0.113025 -2.64368 -2.64368
-0.0350811 -2.69208 -2.69208
0.0446048 -2.6466 -2.6466
-0.0333405 -2.59826 -2.59826
-0.034204 -2.64499 -2.64499
-0.114523 -2.69075 -2.69075
-0.117553 -2.78599 -2.78599
0.0437884 -2.78905 -2.78905
0.0443485 -2.69372 -2.69372
-0.116032 -2.73819 -2.73819
-0.0368761 -2.78736 -2.78736
0.0440763 -2.7412 -2.7412
-0.0350811 -2.69208 -2.69208
-0.0359717 -2.73954 -2.73954
-0.117553 -2.78599 -2.78599
-0.120629 -2.88268 -2.88268
0.0431646 -2.88583 -2.88583
0.0437884 -2.78905 -2.78905
-0.119085 -2.83415 -2.83415
-0.0387261 -2.8841 -2.8841
0.0434845 -2.83726 -2.83726
-0.0368761 -2.78736 -2.78736
-0.0377942 -2.83555 -2.83555
-0.120629 -2.88268 -2.88268
-0.123752 -2.98082 -2.98082
0.0424767 -2.98406 -2.98406
0.0431646 -2.88583 -2.88583
-0.122184 -2.93157 -2.93157
-0.0406315 -2.98229 -2.98229
0.0428287 -2.93477 -2.93477
-0.0387261 -2.8841 -2.8841
-0.0396718 -2.93301 -2.93301
-0.123752 -2.98082 -2.98082
-0.126922 -3.0804 -3.0804
0.0417243 -3.08373 -3.08373
0.0424767 -2.98406 -2.98406
-0.125331 -3.03043 -3.03043
-0.0425927 -3.08191 -3.08191
0.0421086 -3.03372 -3.03372
-0.0406315 -2.98229 -2.98229
-0.0416051 -3.03192 -3.03192
-0.126922 -3.0804 -3.0804
-0.13014 -3.1814 -3.1814
0.0409069 -3.18483 -3.18483
0.0417243 -3.08373 -3.08373
-0.128525 -3.13072 -3.13072
-0.0446102 -3.18296 -3.18296
0.0413237 -3.1341 -3.1341
-0.0425927 -3.08191 -3.08191
-0.0435944 -3.13226 -3.13226
-0.13014 -3.1814 -3.1814
-0.133405 -3.28382 -3.28382
0.0400242 -3.28734 -3.28734
0.0409069 -3.18483 -3.18483
-0.131766 -3.23243 -3.23243
-0.0466842 -3.28543 -3.28543
0.0404738 -3.23591 -3.23591
-0.0446102 -3.18296 -3.18296
-0.0456401 -3.23402 -3.23402
-0.133405 -3.28382 -3.28382
-0.136719 -3.38764 -3.38764
0.0390759 -3.39126 -3.39126
0.0400242 -3.28734 -3.28734
-0.135056 -3.33555 -3.33555
-0.0488153 -3.3893 -3.3893
0.0395583 -3.33913 -3.33913
-0.0466842 -3.28543 -3.28543
-0.0477426 -3.33719 -3.33719
-0.136719 -3.38764 -3.38764
-0.140081 -3.49286 -3.49286
0.0380614 -3.49658 -3.49658
0.0390759 -3.39126 -3.39126
-0.138394 -3.44008 -3.44008
-0.0510037 -3.49457 -3.49457
0.0385769 -3.44375 -3.44375
-0.0488153 -3.3893 -3.3893
-0.0499023 -3.44176 -3.44176
-0.140081 -3.49286 -3.49286
-0.143493 -3.59946 -3.59946
0.0369806 -3.60328 -3.60328
0.0380614 -3.49658 -3.49658
-0.141781 -3.54599 -3.54599
-0.0532498 -3.60123 -3.60123
0.0375294 -3.54976 -3.54976
-0.0510037 -3.49457 -3.49457
-0.0521195 -3.54773 -3.54773
-0.143493 -3.59946 -3.59946
-0.146954 -3.70744 -3.70744
0.0358331 -3.71136 -3.71136
0.0369806 -3.60328 -3.60328
-0.145217 -3.65328 -3.65328
-0.0555539 -3.70926 -3.70926
0.0364152 -3.65715 -3.65715
-0.0532498 -3.60123 -3.60123
-0.0543946 -3.65507 -3.65507
-0.146954 -3.70744 -3.70744
-0.150464 -3.81679 -3.81679
0.0346186 -3.8208 -3.8208
0.0358331 -3.71136 -3.71136
-0.148703 -3.76194 -3.76194
-0.0579164 -3.81865 -3.81865
0.0352343 -3.76591 -3.76591
-0.0555539 -3.70926 -3.70926
-0.0567278 -3.76378 -3.76378
-0.150464 -3.81679 -3.81679
-0.154024 -3.92748 -3.92748
0.0333368 -3.9316 -3.9316
0.0346186 -3.8208 -3.8208
-0.152238 -3.87197 -3.87197
-0.0603374 -3.9294 -3.9294
0.0339861 -3.87603 -3.87603
-0.0579164 -3.81865 -3.81865
-0.0591195 -3.87386 -3.87386
-0.154024 -3.92748 -3.92748
-0.157635 -4.03953 -4.03953
0.0319874 -4.04374 -4.04374
0.0333368 -3.9316 -3.9316
-0.155823 -3.98334 -3.98334
-0.0628173 -4.04149 -4.04149
0.0326705 -3.9875 -3.9875
-0.0603374 -3.9294 -3.9294
-0.0615699 -3.98528 -3.98528
-0.157635 -4.03953 -4.03953
-0.161296 -4.1529 -4.1529
0.0305702 -4.15722 -4.15722
0.0319874 -4.04374 -4.04374
-0.159459 -4.09605 -4.09605
-0.0653563 -4.15492 -4.15492
0.0312873 -4.10031 -4.10031
-0.0628173 -4.04149 -4.04149
-0.0640794 -4.09804 -4.09804
-0.161296 -4.1529 -4.1529
-0.165007 -4.2676 -4.2676
0.0290849 -4.27202 -4.27202
0.0305702 -4.15722 -4.15722
-0.163145 -4.21009 -4.21009
-0.0679546 -4.26967 -4.26967
0.029836 -4.21445 -4.21445
-0.0653563 -4.15492 -4.15492
-0.066648 -4.21213 -4.21213
-0.165007 -4.2676 -4.2676
-0.16877 -4.38361 -4.38361
0.0275313 -4.38813 -4.38813
0.0290849 -4.27202 -4.27202
-0.166882 -4.32544 -4.32544
-0.0706126 -4.38573 -4.38573
0.0283167 -4.32991 -4.32991
-0.0679546 -4.26967 -4.26967
-0.0692761 -4.32754 -4.32754
-0.16877 -4.38361 -4.38361
-0.172583 -4.50093 -4.50093
0.0259093 -4.50554 -4.50554
0.0275313 -4.38813 -4.38813
-0.17067 -4.44211 -4.44211
-0.0733303 -4.5031 -4.5031
0.0267289 -4.44667 -4.44667
-0.0706126 -4.38573 -4.38573
-0.071964 -4.44425 -4.44425
-0.172583 -4.50093 -4.50093
-0.176448 -4.61954 -4.61954
0.0242186 -4.62425 -4.62425
0.0259093 -4.50554 -4.50554
-0.174509 -4.56007 -4.56007
-0.076108 -4.62176 -4.62176
0.0250725 -4.56474 -4.56474
-0.0733303 -4.5031 -4.5031
-0.0747117 -4.56227 -4.56227
-0.176448 -4.61954 -4.61954
-0.180364 -4.73942 -4.73942
0.022459 -4.74424 -4.74424
0.0242186 -4.62425 -4.62425
-0.178399 -4.67932 -4.67932
-0.0789459 -4.7417 -4.7417
0.0233474 -4.68409 -4.68409
-0.076108 -4.62176 -4.62176
-0.0775194 -4.68157 -4.68157
-0.180364 -4.73942 -4.73942
-0.184332 -4.86059 -4.86059
0.0206304 -4.86551 -4.86551
0.022459 -4.74424 -4.74424
-0.182341 -4.79985 -4.79985
-0.0818441 -4.86291 -4.86291
0.0215534 -4.80472 -4.80472
-0.0789459 -4.7417 -4.7417
-0.0803874 -4.80215 -4.80215
-0.184332 -4.86059 -4.86059
-0.188351 -4.98301 -4.98301
0.0187327 -4.98803 -4.98803
0.0206304 -4.86551 -4.86551
-0.186335 -4.92164 -4.92164
-0.0848027 -4.98539 -4.98539
0.0196902 -4.92661 -4.92661
-0.0818441 -4.86291 -4.86291
-0.0833158 -4.92399 -4.92399
-0.188351 -4.98301 -4.98301
-0.192423 -5.10668 -5.10668
0.0167657 -5.11181 -5.11181
0.0187327 -4.98803 -4.98803
-0.190381 -5.04469 -5.04469
-0.0878219 -5.10911 -5.10911
0.0177579 -5.04976 -5.04976
-0.0848027 -4.98539 -4.98539
-0.0863048 -5.04709 -5.04709
-0.192423 -5.10668 -5.10668
-0.196546 -5.2316 -5.2316
0.0147293 -5.23683 -5.23683
0.0167657 -5.11181 -5.11181
-0.194478 -5.16899 -5.16899
-0.0909019 -5.23408 -5.23408
0.0157562 -5.17416 -5.17416
-0.0878219 -5.10911 -5.10911
-0.0893543 -5.17144 -5.17144
-0.196546 -5.2316 -5.2316
-0.200722 -5.35775 -5.35775
0.0126234 -5.36307 -5.36307
0.0147293 -5.23683 -5.23683
-0.198628 -5.29452 -5.29452
-0.0940426 -5.36028 -5.36028
0.0136851 -5.2998 -5.2998
-0.0909019 -5.23408 -5.23408
-0.0924646 -5.29703 -5.29703
-0.200722 -5.35775 -5.35775
-0.20495 -5.48511 -5.48511
0.010448 -5.49054 -5.49054
0.0126234 -5.36307 -5.36307
-0.202829 -5.42128 -5.42128
-0.0972442 -5.4877 -5.4877
0.0115444 -5.42666 -5.42666
-0.0940426 -5.36028 -5.36028
-0.0956358 -5.42384 -5.42384
-0.20495 -5.48511 -5.48511
-0.20923 -5.61369 -5.61369
0.00820289 -5.61922 -5.61922
0.010448 -5.49054 -5.49054
-0.207083 -5.54925 -5.54925
-0.100507 -5.61633 -5.61633
0.00933415 -5.55473 -5.55473
-0.0972442 -5.4877 -5.4877
-0.0988678 -5.55186 -5.55186
-0.20923 -5.61369 -5.61369
-0.213562 -5.74347 -5.74347
0.00588811 -5.7491 -5.7491
0.00820289 -5.61922 -5.61922
-0.211389 -5.67843 -5.67843
-0.10383 -5.74616 -5.74616
0.00705422 -5.68401 -5.68401
-0.100507 -5.61633 -5.61633
-0.102161 -5.68109 -5.68109
-0.213562 -5.74347 -5.74347
-0.217947 -5.87443 -5.87443
0.0035036 -5.88017 -5.88017
0.00588811 -5.7491 -5.7491
-0.215748 -5.8088 -5.8088
-0.107215 -5.87718 -5.87718
0.00470457 -5.81449 -5.81449
-0.10383 -5.74616 -5.74616
-0.105515 -5.81152 -5.81152
-0.217947 -5.87443 -5.87443
-0.222384 -6.00658 -6.00658
0.00104933 -6.01242 -6.01242
0.0035036 -5.88017 -5.88017
-0.220158 -5.94036 -5.94036
-0.11066 -6.00937 -6.00937
0.00228518 -5.94615 -5.94615
-0.107215 -5.87718 -5.87718
-0.10893 -5.94313 -5.94313
-0.222384 -6.00658 -6.00658
-0.226873 -6.13989 -6.13989
-0.0014747 -6.14584 -6.14584
0.00104933 -6.01242 -6.01242
-0.224622 -6.07309 -6.07309
-0.114167 -6.14274 -6.14274
-0.000203965 -6.07898 -6.07898
-0.11066 -6.00937 -6.00937
-0.112406 -6.07591 -6.07591
-0.226873 -6.13989 -6.13989
-0.231415 -6.27437 -6.27437
-0.00406849 -6.28041 -6.28041
-0.0014747 -6.14584 -6.14584
-0.229137 -6.20698 -6.20698
-0.117735 -6.27727 -6.27727
-0.00276287 -6.21298 -6.21298
-0.114167 -6.14274 -6.14274
-0.115943 -6.20986 -6.20986
-0.231415 -6.27437 -6.27437
-0.236009 -6.40999 -6.40999
-0.00673201 -6.41614 -6.41614
-0.00406849 -6.28041 -6.28041
-0.233705 -6.34203 -6.34203
-0.121364 -6.41294 -6.41294
-0.00539153 -6.34813 -6.34813
-0.117735 -6.27727 -6.27727
-0.119542 -6.34496 -6.34496
-0.236009 -6.40999 -6.40999
-0.240655 -6.54675 -6.54675
-0.00946524 -6.553 -6.553
-0.00673201 -6.41614 -6.41614
-0.238326 -6.47823 -6.47823
-0.125054 -6.54975 -6.54975
-0.00808992 -6.48443 -6.48443
-0.121364 -6.41294 -6.41294
-0.123201 -6.48121 -6.48121
-0.240655 -6.54675 -6.54675
-0.245354 -6.68464 -6.68464
-0.0122681 -6.69099 -6.69099
-0.00946524 -6.553 -6.553
-0.242998 -6.61555 -6.61555
-0.128804 -6.68769 -6.68769
-0.010858 -6.62186 -6.62186
-0.125054 -6.54975 -6.54975
-0.126921 -6.61858 -6.61858
-0.245354 -6.68464 -6.68464
-0.250105 -6.82364 -6.82364
-0.0151406 -6.8301 -6.8301
-0.0122681 -6.69099 -6.69099
-0.247723 -6.754 -6.754
-0.132616 -6.82675 -6.82675
-0.0136957 -6.76041 -6.76041
-0.128804 -6.68769 -6.68769
-0.130703 -6.75708 -6.75708
-0.250105 -6.82364 -6.82364
-0.254908 -6.96375 -6.96375
-0.0180826 -6.97032 -6.97032
-0.0151406 -6.8301 -6.8301
-0.2525 -6.89356 -6.89356
-0.136489 -6.96692 -6.96692
-0.0166029 -6.90007 -6.90007
-0.132616 -6.82675 -6.82675
-0.134545 -6.8967 -6.8967
-0.254908 -6.96375 -6.96375
-0.259763 -7.10496 -7.10496
-0.0210941 -7.11163 -7.11163
-0.0180826 -6.97032 -6.97032
-0.257329 -7.03422 -7.03422
-0.140422 -7.10818 -7.10818
-0.0195797 -7.04084 -7.04084
-0.136489 -6.96692 -6.96692
-0.138448 -7.03741 -7.03741
-0.259763 -7.10496 -7.10496
-0.26467 -7.24726 -7.24726
-0.0241749 -7.25403 -7.25403
-0.0210941 -7.11163 -7.11163
-0.26221 -7.17598 -7.17598
-0.144416 -7.25053 -7.25053
-0.0226258 -7.18269 -7.18269
-0.140422 -7.10818 -7.10818
-0.142411 -7.17922 -7.17922
-0.26467 -7.24726 -7.24726
-0.269629 -7.39063 -7.39063
-0.0273249 -7.3975 -7.3975
-0.0241749 -7.25403 -7.25403
-0.267143 -7.31881 -7.31881
-0.148471 -7.39395 -7.39395
-0.0257412 -7.32563 -7.32563
-0.144416 -7.25053 -7.25053
-0.146436 -7.32211 -7.32211
-0.269629 -7.39063 -7.39063
-0.27464 -7.53507 -7.53507
-0.030544 -7.54204 -7.54204
-0.0273249 -7.3975 -7.3975
-0.272128 -7.46272 -7.46272
-0.152585 -7.53845 -7.53845
-0.0289258 -7.46964 -7.46964
-0.148471 -7.39395 -7.39395
-0.15052 -7.46607 -7.46607
-0.27464 -7.53507 -7.53507
-0.279702 -7.68057 -7.68057
-0.0338321 -7.68764 -7.68764
-0.030544 -7.54204 -7.54204
-0.277165 -7.60769 -7.60769
-0.156761 -7.68399 -7.68399
-0.0321794 -7.61471 -7.61471
-0.152585 -7.53845 -7.53845
-0.154666 -7.61109 -7.61109
-0.279702 -7.68057 -7.68057
-0.284816 -7.82711 -7.82711
-0.0371889 -7.83428 -7.83428
-0.0338321 -7.68764 -7.68764
-0.282253 -7.75371 -7.75371
-0.160996 -7.83059 -7.83059
-0.0355019 -7.76083 -7.76083
-0.156761 -7.68399 -7.68399
-0.158871 -7.75716 -7.75716
-0.284816 -7.82711 -7.82711
-0.289981 -7.97469 -7.97469
-0.0406144 -7.98196 -7.98196
-0.0371889 -7.83428 -7.83428
-0.287392 -7.90077 -7.90077
-0.165291 -7.97822 -7.97822
-0.0388931 -7.90799 -7.90799
-0.160996 -7.83059 -7.83059
-0.163136 -7.90427 -7.90427
-0.289981 -7.97469 -7.97469
-0.295197 -8.12329 -8.12329
-0.0441084 -8.13066 -8.13066
-0.0406144 -7.98196 -7.98196
-0.292583 -8.04886 -8.04886
-0.169646 -8.12687 -8.12687
-0.0423529 -8.05619 -8.05619
-0.165291 -7.97822 -7.97822
-0.167461 -8.05241 -8.05241
-0.295197 -8.12329 -8.12329
-0.300464 -8.27291 -8.27291
-0.0476706 -8.28038 -8.28038
-0.0441084 -8.13066 -8.13066
-0.297824 -8.19797 -8.19797
-0.174061 -8.27654 -8.27654
-0.045881 -8.2054 -8.2054
-0.169646 -8.12687 -8.12687
-0.171846 -8.20158 -8.20158
-0.300464 -8.27291 -8.27291
-0.305782 -8.42353 -8.42353
-0.0513009 -8.4311 -8.4311
-0.0476706 -8.28038 -8.28038
-0.303117 -8.34809 -8.34809
-0.178535 -8.42721 -8.42721
-0.0494773 -8.35562 -8.35562
-0.174061 -8.27654 -8.27654
-0.176291 -8.35175 -8.35175
-0.305782 -8.42353 -8.42353
-0.31115 -8.57514 -8.57514
-0.0549991 -8.58282 -8.58282
-0.0513009 -8.4311 -8.4311
-0.30846 -8.49921 -8.49921
-0.183068 -8.57888 -8.57888
-0.0531415 -8.50684 -8.50684
-0.178535 -8.42721 -8.42721
-0.180794 -8.50292 -8.50292
-0.31115 -8.57514 -8.57514
-0.316569 -8.72774 -8.72774
-0.0587648 -8.73552 -8.73552
-0.0549991 -8.58282 -8.58282
-0.313853 -8.65132 -8.65132
-0.18766 -8.73153 -8.73153
-0.0568735 -8.65905 -8.65905
-0.183068 -8.57888 -8.57888
-0.185357 -8.65508 -8.65508
-0.316569 -8.72774 -8.72774
-0.322037 -8.88132 -8.88132
-0.062598 -8.88919 -8.88919
-0.0587648 -8.73552 -8.73552
-0.319297 -8.80441 -8.80441
-0.192311 -8.88515 -8.88515
-0.060673 -8.81223 -8.81223
-0.18766 -8.73153 -8.73153
-0.189978 -8.80822 -8.80822
-0.322037 -8.88132 -8.88132
-0.327555 -9.03586 -9.03586
-0.0664983 -9.04383 -9.04383
-0.062598 -8.88919 -8.88919
-0.32479 -8.95847 -8.95847
-0.19702 -9.03974 -9.03974
-0.0645398 -8.96639 -8.96639
-0.192311 -8.88515 -8.88515
-0.194659 -8.96233 -8.96233
-0.327555 -9.03586 -9.03586
-0.333123 -9.19135 -9.19135
-0.0704654 -9.19941 -9.19941
-0.0664983 -9.04383 -9.04383
-0.330333 -9.11348 -9.11348
-0.201788 -9.19528 -9.19528
-0.0684735 -9.1215 -9.1215
-0.19702 -9.03974 -9.03974
-0.199397 -9.11739 -9.11739
-0.333123 -9.19135 -9.19135
-0.33874 -9.34778 -9.34778
-0.0744992 -9.35594 -9.35594
-0.0704654 -9.19941 -9.19941
-0.335925 -9.26945 -9.26945
-0.206613 -9.35176 -9.35176
-0.072474 -9.27756 -9.27756
-0.201788 -9.19528 -9.19528
-0.204193 -9.2734 -9.2734
-0.33874 -9.34778 -9.34778
-0.344406 -9.50515 -9.50515
-0.0785993 -9.51341 -9.51341
-0.0744992 -9.35594 -9.35594
-0.341567 -9.42635 -9.42635
-0.211496 -9.50918 -9.50918
-0.076541 -9.43456 -9.43456
-0.206613 -9.35176 -9.35176
-0.209048 -9.43035 -9.43035
-0.344406 -9.50515 -9.50515
-0.350121 -9.66343 -9.66343
-0.0827654 -9.67179 -9.67179
-0.0785993 -9.51341 -9.51341
-0.347257 -9.58418 -9.58418
-0.216437 -9.66752 -9.66752
-0.0806741 -9.59249 -9.59249
-0.211496 -9.50918 -9.50918
-0.213959 -9.58823 -9.58823
-0.350121 -9.66343 -9.66343
-0.355884 -9.82264 -9.82264
-0.0869971 -9.83109 -9.83109
-0.0827654 -9.67179 -9.67179
-0.352996 -9.74292 -9.74292
-0.221434 -9.82677 -9.82677
-0.0848731 -9.75133 -9.75133
-0.216437 -9.66752 -9.66752
-0.218928 -9.74703 -9.74703
-0.355884 -9.82264 -9.82264
-0.361695 -9.98274 -9.98274
-0.0912943 -9.99129 -9.99129
-0.0869971 -9.83109 -9.83109
-0.358783 -9.90258 -9.90258
-0.226488 -9.98692 -9.98692
-0.0891376 -9.91108 -9.91108
-0.221434 -9.82677 -9.82677
-0.223954 -9.90673 -9.90673
-0.361695 -9.98274 -9.98274
-0.367553 -10.1437 -10.1437
-0.0956566 -10.1524 -10.1524
-0.0912943 -9.99129 -9.99129
-0.364618 -10.0631 -10.0631
-0.231599 -10.148 -10.148
-0.0934673 -10.0717 -10.0717
-0.226488 -9.98692 -9.98692
-0.229037 -10.0673 -10.0673
-0.367553 -10.1437 -10.1437
-0.37346 -10.3056 -10.3056
-0.100084 -10.3143 -10.3143
-0.0956566 -10.1524 -10.1524
-0.370501 -10.2246 -10.2246
-0.236766 -10.3099 -10.3099
-0.097862 -10.2333 -10.2333
-0.231599 -10.148 -10.148
-0.234175 -10.2288 -10.2288
-0.37346 -10.3056 -10.3056
-0.379413 -10.4684 -10.4684
-0.104575 -10.4772 -10.4772
-0.100084 -10.3143 -10.3143
-0.37643 -10.3869 -10.3869
-0.241988 -10.4727 -10.4727
-0.102321 -10.3957 -10.3957
-0.236766 -10.3099 -10.3099
-0.23937 -10.3912 -10.3912
-0.379413 -10.4684 -10.4684
-0.385413 -10.632 -10.632
-0.10913 -10.6409 -10.6409
-0.104575 -10.4772 -10.4772
-0.382407 -10.5501 -10.5501
-0.247265 -10.6363 -10.6363
-0.106844 -10.5589 -10.5589
-0.241988 -10.4727 -10.4727
-0.24462 -10.5544 -10.5544
-0.385413 -10.632 -10.632
-0.391459 -10.7964 -10.7964
-0.113749 -10.8054 -10.8054
-0.10913 -10.6409 -10.6409
-0.38843 -10.7141 -10.7141
-0.252598 -10.8008 -10.8008
-0.111432 -10.7231 -10.7231
-0.247265 -10.6363 -10.6363
-0.249925 -10.7185 -10.7185
-0.391459 -10.7964 -10.7964
-0.397551 -10.9617 -10.9617
-0.118431 -10.9708 -10.9708
-0.113749 -10.8054 -10.8054
-0.394499 -10.879 -10.879
-0.257985 -10.9662 -10.9662
-0.116082 -10.888 -10.888
-0.252598 -10.8008 -10.8008
-0.255285 -10.8834 -10.8834
-0.397551 -10.9617 -10.9617
-0.403688 -11.1279 -11.1279
-0.123176 -11.137 -11.137
-0.118431 -10.9708 -10.9708
-0.400614 -11.0447 -11.0447
-0.263426 -11.1324 -11.1324
-0.120796 -11.0538 -11.0538
-0.257985 -10.9662 -10.9662
-0.260699 -11.0492 -11.0492
-0.403688 -11.1279 -11.1279
-0.409871 -11.2948 -11.2948
-0.127984 -11.3041 -11.3041
-0.123176 -11.137 -11.137
-0.406774 -11.2112 -11.2112
-0.268921 -11.2994 -11.2994
-0.125572 -11.2205 -11.2205
-0.263426 -11.1324 -11.1324
-0.266167 -11.2158 -11.2158
-0.409871 -11.2948 -11.2948
-0.416098 -11.4626 -11.4626
-0.132853 -11.4719 -11.4719
-0.127984 -11.3041 -11.3041
-0.412979 -11.3786 -11.3786
-0.27447 -11.4672 -11.4672
-0.130411 -11.3879 -11.3879
-0.268921 -11.2994 -11.2994
-0.271689 -11.3832 -11.3832
-0.416098 -11.4626 -11.4626
-0.42237 -11.6311 -11.6311
-0.137784 -11.6406 -11.6406
-0.132853 -11.4719 -11.4719
-0.419228 -11.5467 -11.5467
-0.280071 -11.6358 -11.6358
-0.135311 -11.5562 -11.5562
-0.27447 -11.4672 -11.4672
-0.277264 -11.5514 -11.5514
-0.42237 -11.6311 -11.6311
-0.428685 -11.8005 -11.8005
-0.142777 -11.81 -11.81
-0.137784 -11.6406 -11.6406
-0.425522 -11.7157 -11.7157
-0.285725 -11.8052 -11.8052
-0.140273 -11.7252 -11.7252
-0.280071 -11.6358 -11.6358
-0.282892 -11.7204 -11.7204
-0.428685 -11.8005 -11.8005
-0.435044 -11.9706 -11.9706
-0.14783 -11.9802 -11.9802
-0.142777 -11.81 -11.81
-0.431859 -11.8854 -11.8854
-0.291431 -11.9753 -11.9753
-0.145296 -11.895 -11.895
-0.285725 -11.8052 -11.8052
-0.288572 -11.8901 -11.8901
-0.435044 -11.9706 -11.9706
-0.441446 -12.1415 -12.1415
-0.152943 -12.1512 -12.1512
-0.14783 -11.9802 -11.9802
-0.43824 -12.0559 -12.0559
-0.297189 -12.1463 -12.1463
-0.150379 -12.0656 -12.0656
-0.291431 -11.9753 -11.9753
-0.294304 -12.0607 -12.0607
-0.441446 -12.1415 -12.1415
-0.44789 -12.3131 -12.3131
-0.158116 -12.323 -12.323
-0.152943 -12.1512 -12.1512
-0.444663 -12.2272 -12.2272
-0.302998 -12.318 -12.318
-0.155522 -12.237 -12.237
-0.297189 -12.1463 -12.1463
-0.300087 -12.232 -12.232
-0.44789 -12.3131 -12.3131
-0.454376 -12.4855 -12.4855
-0.163349 -12.4954 -12.4954
-0.158116 -12.323 -12.323
-0.451128 -12.3992 -12.3992
-0.308857 -12.4904 -12.4904
-0.160725 -12.4091 -12.4091
-0.302998 -12.318 -12.318
-0.305921 -12.4041 -12.4041
-0.454376 -12.4855 -12.4855
-0.460904 -12.6587 -12.6587
-0.16864 -12.6687 -12.6687
-0.163349 -12.4954 -12.4954
-0.457635 -12.572 -12.572
-0.314767 -12.6636 -12.6636
-0.165987 -12.582 -12.582
-0.308857 -12.4904 -12.4904
-0.311806 -12.5769 -12.5769
-0.460904 -12.6587 -12.6587
-0.467473 -12.8325 -12.8325
-0.17399 -12.8426 -12.8426
-0.16864 -12.6687 -12.6687
-0.464184 -12.7455 -12.7455
-0.320726 -12.8375 -12.8375
-0.171308 -12.7555 -12.7555
-0.314767 -12.6636 -12.6636
-0.31774 -12.7505 -12.7505
-0.467473 -12.8325 -12.8325
-0.474083 -13.0071 -13.0071
-0.179398 -13.0173 -13.0173
-0.17399 -12.8426 -12.8426
-0.470773 -12.9197 -12.9197
-0.326735 -13.0121 -13.0121
-0.176687 -12.9299 -12.9299
-0.320726 -12.8375 -12.8375
-0.323725 -12.9247 -12.9247
-0.474083 -13.0071 -13.0071
-0.480732 -13.1824 -13.1824
-0.184863 -13.1926 -13.1926
-0.179398 -13.0173 -13.0173
-0.477403 -13.0947 -13.0947
-0.332792 -13.1875 -13.1875
-0.182123 -13.1049 -13.1049
-0.326735 -13.0121 -13.0121
-0.329758 -13.0997 -13.0997
-0.480732 -13.1824 -13.1824
-0.487421 -13.3584 -13.3584
-0.190385 -13.3687 -13.3687
-0.184863 -13.1926 -13.1926
-0.484072 -13.2703 -13.2703
-0.338898 -13.3635 -13.3635
-0.187617 -13.2806 -13.2806
-0.332792 -13.1875 -13.1875
-0.335839 -13.2754 -13.2754
-0.487421 -13.3584 -13.3584
-0.49415 -13.5351 -13.5351
-0.195963 -13.5455 -13.5455
-0.190385 -13.3687 -13.3687
-0.490781 -13.4467 -13.4467
-0.345051 -13.5402 -13.5402
-0.193167 -13.457 -13.457
-0.338898 -13.3635 -13.3635
-0.341969 -13.4518 -13.4518
-0.49415 -13.5351 -13.5351
-0.500916 -13.7124 -13.7124
-0.201597 -13.7229 -13.7229
-0.195963 -13.5455 -13.5455
-0.497528 -13.6237 -13.6237
-0.351252 -13.7176 -13.7176
-0.198773 -13.6341 -13.6341
-0.345051 -13.5402 -13.5402
-0.348146 -13.6288 -13.6288
-0.500916 -13.7124 -13.7124
-0.507721 -13.8904 -13.8904
-0.207287 -13.901 -13.901
-0.201597 -13.7229 -13.7229
-0.504314 -13.8013 -13.8013
-0.357499 -13.8956 -13.8956
-0.204435 -13.8119 -13.8119
-0.351252 -13.7176 -13.7176
-0.35437 -13.8065 -13.8065
-0.507721 -13.8904 -13.8904
-0.514563 -14.0691 -14.0691
-0.213031 -14.0797 -14.0797
-0.207287 -13.901 -13.901
-0.511137 -13.9797 -13.9797
-0.363792 -14.0744 -14.0744
-0.210152 -13.9903 -13.9903
-0.357499 -13.8956 -13.8956
-0.36064 -13.9849 -13.9849
-0.514563 -14.0691 -14.0691
-0.521442 -14.2484 -14.2484
-0.218829 -14.2591 -14.2591
-0.213031 -14.0797 -14.0797
-0.517998 -14.1587 -14.1587
-0.370131 -14.2537 -14.2537
-0.215923 -14.1694 -14.1694
-0.363792 -14.0744 -14.0744
-0.366956 -14.164 -14.164
-0.521442 -14.2484 -14.2484
-0.528357 -14.4284 -14.4284
-0.224681 -14.4392 -14.4392
-0.218829 -14.2591 -14.2591
-0.524895 -14.3383 -14.3383
-0.376514 -14.4337 -14.4337
-0.221748 -14.3491 -14.3491
-0.370131 -14.2537 -14.2537
-0.373317 -14.3436 -14.3436
-0.528357 -14.4284 -14.4284
-0.535308 -14.609 -14.609
-0.230586 -14.6198 -14.6198
-0.224681 -14.4392 -14.4392
-0.531828 -14.5186 -14.5186
-0.382942 -14.6143 -14.6143
-0.227627 -14.5294 -14.5294
-0.376514 -14.4337 -14.4337
-0.379723 -14.5239 -14.5239
-0.535308 -14.609 -14.609
-0.542294 -14.7901 -14.7901
-0.236544 -14.8011 -14.8011
-0.230586 -14.6198 -14.6198
-0.538797 -14.6995 -14.6995
-0.389414 -14.7955 -14.7955
-0.233558 -14.7104 -14.7104
-0.382942 -14.6143 -14.6143
-0.386173 -14.7049 -14.7049
-0.542294 -14.7901 -14.7901
-0.549315 -14.9719 -14.9719
-0.242553 -14.9829 -14.9829
-0.236544 -14.8011 -14.8011
-0.5458 -14.881 -14.881
-0.395929 -14.9774 -14.9774
-0.239542 -14.8919 -14.8919
-0.389414 -14.7955 -14.7955
-0.392666 -14.8864 -14.8864
-0.549315 -14.9719 -14.9719
-0.556369 -15.1543 -15.1543
-0.248613 -15.1654 -15.1654
-0.242553 -14.9829 -14.9829
-0.552838 -15.0631 -15.0631
-0.402487 -15.1598 -15.1598
-0.245577 -15.0741 -15.0741
-0.395929 -14.9774 -14.9774
-0.399203 -15.0685 -15.0685
-0.556369 -15.1543 -15.1543
-0.563457 -15.3373 -15.3373
-0.254725 -15.3485 -15.3485
-0.248613 -15.1654 -15.1654
-0.559909 -15.2457 -15.2457
-0.409087 -15.3428 -15.3428
-0.251663 -15.2569 -15.2569
-0.402487 -15.1598 -15.1598
-0.405781 -15.2512 -15.2512
-0.563457 -15.3373 -15.3373
-0.570578 -15.5209 -15.5209
-0.260886 -15.5321 -15.5321
-0.254725 -15.3485 -15.3485
-0.567014 -15.429 -15.429
-0.415728 -15.5264 -15.5264
-0.257799 -15.4402 -15.4402
-0.409087 -15.3428 -15.3428
-0.412402 -15.4345 -15.4345
-0.570578 -15.5209 -15.5209
-0.577731 -15.705 -15.705
-0.267097 -15.7162 -15.7162
-0.260886 -15.5321 -15.5321
-0.574151 -15.6128 -15.6128
-0.42241 -15.7106 -15.7106
-0.263985 -15.6241 -15.6241
-0.415728 -15.5264 -15.5264
-0.419064 -15.6184 -15.6184
-0.577731 -15.705 -15.705
-0.584916 -15.8896 -15.8896
-0.273357 -15.901 -15.901
-0.267097 -15.7162 -15.7162
-0.581319 -15.7972 -15.7972
-0.429132 -15.8953 -15.8953
-0.270221 -15.8085 -15.8085
-0.42241 -15.7106 -15.7106
-0.425766 -15.8028 -15.8028
-0.584916 -15.8896 -15.8896
-0.592131 -16.0748 -16.0748
-0.279665 -16.0863 -16.0863
-0.273357 -15.901 -15.901
-0.588519 -15.9822 -15.9822
-0.435894 -16.0805 -16.0805
-0.276505 -15.9936 -15.9936
-0.429132 -15.8953 -15.8953
-0.432508 -15.9878 -15.9878
-0.592131 -16.0748 -16.0748
-0.599377 -16.2606 -16.2606
-0.28602 -16.2721 -16.2721
-0.279665 -16.0863 -16.0863
-0.59575 -16.1676 -16.1676
-0.442694 -16.2663 -16.2663
-0.282836 -16.1791 -16.1791
-0.435894 -16.0805 -16.0805
-0.439289 -16.1733 -16.1733
-0.599377 -16.2606 -16.2606
-0.606652 -16.4469 -16.4469
-0.292422 -16.4584 -16.4584
-0.28602 -16.2721 -16.2721
-0.603011 -16.3537 -16.3537
-0.449533 -16.4526 -16.4526
-0.289215 -16.3652 -16.3652
-0.442694 -16.2663 -16.2663
-0.446109 -16.3594 -16.3594
-0.606652 -16.4469 -16.4469
-0.613956 -16.6336 -16.6336
-0.298871 -16.6452 -16.6452
-0.292422 -16.4584 -16.4584
-0.6103 -16.5402 -16.5402
-0.45641 -16.6394 -16.6394
-0.295641 -16.5517 -16.5517
-0.449533 -16.4526 -16.4526
-0.452967 -16.5459 -16.5459
-0.613956 -16.6336 -16.6336
-0.621289 -16.8209 -16.8209
-0.305366 -16.8326 -16.8326
-0.298871 -16.6452 -16.6452
-0.617619 -16.7272 -16.7272
-0.463323 -16.8267 -16.8267
-0.302113 -16.7388 -16.7388
-0.45641 -16.6394 -16.6394
-0.459862 -16.733 -16.733
-0.621289 -16.8209 -16.8209
-0.628649 -17.0087 -17.0087
-0.311905 -17.0204 -17.0204
-0.305366 -16.8326 -16.8326
-0.624966 -16.9147 -16.9147
-0.470273 -17.0145 -17.0145
-0.30863 -16.9264 -16.9264
-0.463323 -16.8267 -16.8267
-0.466794 -16.9205 -16.9205
-0.628649 -17.0087 -17.0087
-0.636036 -17.1969 -17.1969
-0.318489 -17.2087 -17.2087
-0.311905 -17.0204 -17.0204
-0.632339 -17.1027 -17.1027
-0.477259 -17.2028 -17.2028
-0.315191 -17.1145 -17.1145
-0.470273 -17.0145 -17.0145
-0.473761 -17.1086 -17.1086
-0.636036 -17.1969 -17.1969
-0.64345 -17.3857 -17.3857
-0.325116 -17.3975 -17.3975
-0.318489 -17.2087 -17.2087
-0.63974 -17.2912 -17.2912
-0.484279 -17.3915 -17.3915
-0.321797 -17.303 -17.303
-0.477259 -17.2028 -17.2028
-0.480765 -17.2971 -17.2971
-0.64345 -17.3857 -17.3857
-0.650889 -17.5748 -17.5748
-0.331786 -17.5867 -17.5867
-0.325116 -17.3975 -17.3975
-0.647167 -17.4802 -17.4802
-0.491334 -17.5807 -17.5807
-0.328446 -17.4921 -17.4921
-0.484279 -17.3915 -17.3915
-0.487802 -17.4861 -17.4861
-0.650889 -17.5748 -17.5748
-0.658354 -17.7645 -17.7645
-0.338499 -17.7764 -17.7764
-0.331786 -17.5867 -17.5867
-0.654619 -17.6696 -17.6696
-0.498423 -17.7704 -17.7704
-0.335137 -17.6815 -17.6815
-0.491334 -17.5807 -17.5807
-0.494874 -17.6755 -17.6755
-0.658354 -17.7645 -17.7645
-0.665842 -17.9545 -17.9545
-0.345253 -17.9666 -17.9666
-0.338499 -17.7764 -17.7764
-0.662095 -17.8595 -17.8595
-0.505544 -17.9605 -17.9605
-0.341871 -17.8714 -17.8714
-0.498423 -17.7704 -17.7704
-0.501979 -17.8654 -17.8654
-0.665842 -17.9545 -17.9545
-0.673355 -18.1451 -18.1451
-0.352048 -18.1571 -18.1571
-0.345253 -17.9666 -17.9666
-0.669596 -18.0497 -18.0497
-0.512698 -18.151 -18.151
-0.348645 -18.0618 -18.0618
-0.505544 -17.9605 -17.9605
-0.509117 -18.0557 -18.0557
-0.673355 -18.1451 -18.1451
-0.68089 -18.336 -18.336
-0.358883 -18.3481 -18.3481
-0.352048 -18.1571 -18.1571
-0.67712 -18.2405 -18.2405
-0.519883 -18.342 -18.342
-0.355461 -18.2526 -18.2526
-0.512698 -18.151 -18.151
-0.516287 -18.2465 -18.2465
-0.68089 -18.336 -18.336
-0.688447 -18.5273 -18.5273
-0.365758 -18.5395 -18.5395
-0.358883 -18.3481 -18.3481
-0.684666 -18.4316 -18.4316
-0.527099 -18.5334 -18.5334
-0.362316 -18.4437 -18.4437
-0.519883 -18.342 -18.342
-0.523487 -18.4376 -18.4376
-0.688447 -18.5273 -18.5273
-0.696026 -18.7191 -18.7191
-0.372672 -18.7313 -18.7313
-0.365758 -18.5395 -18.5395
-0.692234 -18.6231 -18.6231
-0.534346 -18.7251 -18.7251
-0.36921 -18.6353 -18.6353
-0.527099 -18.5334 -18.5334
-0.530719 -18.6292 -18.6292
-0.696026 -18.7191 -18.7191
-0.703626 -18.9112 -18.9112
-0.379623 -18.9235 -18.9235
-0.372672 -18.7313 -18.7313
-0.699824 -18.8151 -18.8151
-0.541621 -18.9173 -18.9173
-0.376143 -18.8273 -18.8273
-0.534346 -18.7251 -18.7251
-0.53798 -18.8212 -18.8212
-0.703626 -18.9112 -18.9112
-0.711246 -19.1037 -19.1037
-0.386612 -19.116 -19.116
-0.379623 -18.9235 -18.9235
-0.707433 -19.0074 -19.0074
-0.548926 -19.1098 -19.1098
-0.383113 -19.0197 -19.0197
-0.541621 -18.9173 -18.9173
-0.54527 -19.0135 -19.0135
-0.711246 -19.1037 -19.1037
-0.718885 -19.2966 -19.2966
-0.393638 -19.3089 -19.3089
-0.386612 -19.116 -19.116
-0.715063 -19.2001 -19.2001
-0.556258 -19.3027 -19.3027
-0.390121 -19.2124 -19.2124
-0.548926 -19.1098 -19.1098
-0.552589 -19.2062 -19.2062
-0.718885 -19.2966 -19.2966
-0.726543 -19.4898 -19.4898
-0.4007 -19.5022 -19.5022
-0.393638 -19.3089 -19.3089
-0.722711 -19.3931 -19.3931
-0.563618 -19.496 -19.496
-0.397164 -19.4055 -19.4055
-0.556258 -19.3027 -19.3027
-0.559935 -19.3993 -19.3993
-0.726543 -19.4898 -19.4898
-0.734218 -19.6834 -19.6834
-0.407796 -19.6958 -19.6958
-0.4007 -19.5022 -19.5022
-0.730378 -19.5865 -19.5865
-0.571004 -19.6896 -19.6896
-0.404244 -19.599 -19.599
-0.563618 -19.496 -19.496
-0.567308 -19.5927 -19.5927
-0.734218 -19.6834 -19.6834
-0.741911 -19.8773 -19.8773
-0.414928 -19.8898 -19.8898
-0.407796 -19.6958 -19.6958
-0.738063 -19.7803 -19.7803
-0.578417 -19.8835 -19.8835
-0.411358 -19.7928 -19.7928
-0.571004 -19.6896 -19.6896
-0.574707 -19.7865 -19.7865
-0.741911 -19.8773 -19.8773
-0.74962 -20.0715 -20.0715
-0.422092 -20.0841 -20.0841
-0.414928 -19.8898 -19.8898
-0.745764 -19.9744 -19.9744
-0.585854 -20.0778 -20.0778
-0.418506 -19.9869 -19.9869
-0.578417 -19.8835 -19.8835
-0.582132 -19.9806 -19.9806
-0.74962 -20.0715 -20.0715
-0.757345 -20.2661 -20.2661
-0.42929 -20.2787 -20.2787
-0.422092 -20.0841 -20.0841
-0.753481 -20.1688 -20.1688
-0.593315 -20.2724 -20.2724
-0.425687 -20.1813 -20.1813
-0.585854 -20.0778 -20.0778
-0.589581 -20.175 -20.175
-0.757345 -20.2661 -20.2661
-0.765085 -20.461 -20.461
-0.436521 -20.4736 -20.4736
-0.42929 -20.2787 -20.2787
-0.761213 -20.3635 -20.3635
-0.6008 -20.4673 -20.4673
-0.432901 -20.3761 -20.3761
-0.593315 -20.2724 -20.2724
-0.597055 -20.3698 -20.3698
-0.765085 -20.461 -20.461
-0.772839 -20.6562 -20.6562
-0.443782 -20.6688 -20.6688
-0.436521 -20.4736 -20.4736
-0.76896 -20.5585 -20.5585
-0.608308 -20.6625 -20.6625
-0.440147 -20.5712 -20.5712
-0.6008 -20.4673 -20.4673
-0.604551 -20.5648 -20.5648
-0.772839 -20.6562 -20.6562
-0.780607 -20.8516 -20.8516
-0.451074 -20.8643 -20.8643
-0.443782 -20.6688 -20.6688
-0.776721 -20.7538 -20.7538
-0.615838 -20.8579 -20.8579
-0.447424 -20.7665 -20.7665
-0.608308 -20.6625 -20.6625
-0.61207 -20.7602 -20.7602
-0.780607 -20.8516 -20.8516
-0.788387 -21.0473 -21.0473
-0.458397 -21.0601 -21.0601
-0.451074 -20.8643 -20.8643
-0.784495 -20.9494 -20.9494
-0.623389 -21.0537 -21.0537
-0.454732 -20.9622 -20.9622
-0.615838 -20.8579 -20.8579
-0.619611 -20.9558 -20.9558
-0.788387 -21.0473 -21.0473
-0.796179 -21.2433 -21.2433
-0.465748 -21.2561 -21.2561
-0.458397 -21.0601 -21.0601
-0.792281 -21.1453 -21.1453
-0.630961 -21.2497 -21.2497
-0.462069 -21.1581 -21.1581
-0.623389 -21.0537 -21.0537
-0.627173 -21.1517 -21.1517
-0.796179 -21.2433 -21.2433
-0.803982 -21.4396 -21.4396
-0.473128 -21.4524 -21.4524
-0.465748 -21.2561 -21.2561
-0.800079 -21.3414 -21.3414
-0.638553 -21.446 -21.446
-0.469435 -21.3542 -21.3542
-0.630961 -21.2497 -21.2497
-0.634755 -21.3478 -21.3478
-0.803982 -21.4396 -21.4396
-0.811796 -21.6361 -21.6361
-0.480536 -21.6489 -21.6489
-0.473128 -21.4524 -21.4524
-0.807887 -21.5378 -21.5378
-0.646164 -21.6425 -21.6425
-0.476828 -21.5506 -21.5506
-0.638553 -21.446 -21.446
-0.642356 -21.5442 -21.5442
-0.811796 -21.6361 -21.6361
-0.819619 -21.8328 -21.8328
-0.48797 -21.8457 -21.8457
-0.480536 -21.6489 -21.6489
-0.815706 -21.7345 -21.7345
-0.653792 -21.8393 -21.8393
-0.48425 -21.7473 -21.7473
-0.646164 -21.6425 -21.6425
-0.649976 -21.7408 -21.7408
-0.819619 -21.8328 -21.8328
-0.827451 -22.0298 -22.0298
-0.495431 -22.0427 -22.0427
-0.48797 -21.8457 -21.8457
-0.823534 -21.9313 -21.9313
-0.661439 -22.0362 -22.0362
-0.491697 -21.9442 -21.9442
-0.653792 -21.8393 -21.8393
-0.657614 -21.9377 -21.9377
-0.827451 -22.0298 -22.0298
-0.835291 -22.227 -22.227
-0.502917 -22.2399 -22.2399
-0.495431 -22.0427 -22.0427
-0.83137 -22.1284 -22.1284
-0.669102 -22.2334 -22.2334
-0.49917 -22.1413 -22.1413
-0.661439 -22.0362 -22.0362
-0.665268 -22.1348 -22.1348
-0.835291 -22.227 -22.227
-0.843138 -22.4244 -22.4244
-0.510427 -22.4373 -22.4373
-0.502917 -22.2399 -22.2399
-0.839214 -22.3257 -22.3257
-0.676781 -22.4308 -22.4308
-0.506669 -22.3386 -22.3386
-0.669102 -22.2334 -22.2334
-0.67294 -22.3321 -22.3321
-0.843138 -22.4244 -22.4244
-0.850992 -22.622 -22.622
-0.517961 -22.6349 -22.6349
-0.510427 -22.4373 -22.4373
-0.847064 -22.5232 -22.5232
-0.684475 -22.6284 -22.6284
-0.514191 -22.5361 -22.5361
-0.676781 -22.4308 -22.4308
-0.680626 -22.5296 -22.5296
-0.850992 -22.622 -22.622
-0.858852 -22.8197 -22.8197
-0.525519 -22.8327 -22.8327
-0.517961 -22.6349 -22.6349
-0.854921 -22.7208 -22.7208
-0.692184 -22.8262 -22.8262
-0.521737 -22.7338 -22.7338
-0.684475 -22.6284 -22.6284
-0.688328 -22.7273 -22.7273
-0.858852 -22.8197 -22.8197
-0.866716 -23.0177 -23.0177
-0.533098 -23.0307 -23.0307
-0.525519 -22.8327 -22.8327
-0.862783 -22.9187 -22.9187
-0.699906 -23.0242 -23.0242
-0.529306 -22.9317 -22.9317
-0.692184 -22.8262 -22.8262
-0.696043 -22.9252 -22.9252
-0.866716 -23.0177 -23.0177
-0.874585 -23.2158 -23.2158
-0.540699 -23.2288 -23.2288
-0.533098 -23.0307 -23.0307
-0.87065 -23.1167 -23.1167
-0.707641 -23.2223 -23.2223
-0.536896 -23.1297 -23.1297
-0.699906 -23.0242 -23.0242
-0.703772 -23.1232 -23.1232
-0.874585 -23.2158 -23.2158
-0.882457 -23.414 -23.414
-0.54832 -23.4271 -23.4271
-0.540699 -23.2288 -23.2288
-0.878521 -23.3149 -23.3149
-0.715388 -23.4205 -23.4205
-0.544507 -23.3279 -23.3279
-0.707641 -23.2223 -23.2223
-0.711513 -23.3214 -23.3214
-0.882457 -23.414 -23.414
-0.890332 -23.6124 -23.6124
-0.555962 -23.6255 -23.6255
-0.54832 -23.4271 -23.4271
-0.886394 -23.5132 -23.5132
-0.723146 -23.619 -23.619
-0.552139 -23.5263 -23.5263
-0.715388 -23.4205 -23.4205
-0.719265 -23.5197 -23.5197
-0.890332 -23.6124 -23.6124
-0.898208 -23.811 -23.811
-0.563623 -23.8241 -23.8241
-0.555962 -23.6255 -23.6255
-0.89427 -23.7117 -23.7117
-0.730914 -23.8175 -23.8175
-0.55979 -23.7248 -23.7248
-0.723146 -23.619 -23.619
-0.727029 -23.7182 -23.7182
-0.898208 -23.811 -23.811
-0.906086 -24.0096 -24.0096
-0.571302 -24.0227 -24.0227
-0.563623 -23.8241 -23.8241
-0.902147 -23.9103 -23.9103
-0.738693 -24.0162 -24.0162
-0.56746 -23.9234 -23.9234
-0.730914 -23.8175 -23.8175
-0.734802 -23.9168 -23.9168
-0.906086 -24.0096 -24.0096
-0.913963 -24.2084 -24.2084
-0.578998 -24.2215 -24.2215
-0.571302 -24.0227 -24.0227
-0.910024 -24.109 -24.109
-0.74648 -24.215 -24.215
-0.575148 -24.1221 -24.1221
-0.738693 -24.0162 -24.0162
-0.742585 -24.1156 -24.1156
-0.913963 -24.2084 -24.2084
-0.92184 -24.4073 -24.4073
-0.586713 -24.4204 -24.4204
-0.578998 -24.2215 -24.2215
-0.917902 -24.3078 -24.3078
-0.754276 -24.4138 -24.4138
-0.582853 -24.321 -24.321
-0.74648 -24.215 -24.215
-0.750377 -24.3144 -24.3144
-0.92184 -24.4073 -24.4073
-0.929715 -24.6063 -24.6063
-0.594444 -24.6194 -24.6194
-0.586713 -24.4204 -24.4204
-0.925778 -24.5068 -24.5068
-0.762079 -24.6128 -24.6128
-0.590576 -24.5199 -24.5199
-0.754276 -24.4138 -24.4138
-0.758176 -24.5133 -24.5133
-0.929715 -24.6063 -24.6063
-0.937586 -24.8053 -24.8053
-0.602192 -24.8185 -24.8185
-0.594444 -24.6194 -24.6194
-0.933651 -24.7058 -24.7058
-0.769889 -24.8119 -24.8119
-0.598316 -24.7189 -24.7189
-0.762079 -24.6128 -24.6128
-0.765983 -24.7124 -24.7124
-0.937586 -24.8053 -24.8053
-0.945454 -25.0045 -25.0045
-0.609957 -25.0176 -25.0176
-0.602192 -24.8185 -24.8185
-0.941521 -24.9049 -24.9049
-0.777705 -25.011 -25.011
-0.606072 -24.918 -24.918
-0.769889 -24.8119 -24.8119
-0.773796 -24.9115 -24.9115
-0.945454 -25.0045 -25.0045
-0.953315 -25.2037 -25.2037
-0.617739 -25.2168 -25.2168
-0.609957 -25.0176 -25.0176
-0.949385 -25.104 -25.104
-0.785527 -25.2102 -25.2102
-0.613846 -25.1172 -25.1172
-0.777705 -25.011 -25.011
-0.781616 -25.1106 -25.1106
-0.953315 -25.2037 -25.2037
-0.961169 -25.4029 -25.4029
-0.625537 -25.4161 -25.4161
-0.617739 -25.2168 -25.2168
-0.957243 -25.3033 -25.3033
-0.793353 -25.4095 -25.4095
-0.621636 -25.3164 -25.3164
-0.785527 -25.2102 -25.2102
-0.78944 -25.3099 -25.3099
-0.961169 -25.4029 -25.4029
-0.969015 -25.6022 -25.6022
-0.633349 -25.6154 -25.6154
-0.625537 -25.4161 -25.4161
-0.965093 -25.5025 -25.5025
-0.801182 -25.6088 -25.6088
-0.629441 -25.5157 -25.5157
-0.793353 -25.4095 -25.4095
-0.797268 -25.5091 -25.5091
-0.969015 -25.6022 -25.6022
-0.976856 -25.8015 -25.8015
-0.641167 -25.8146 -25.8146
-0.633349 -25.6154 -25.6154
-0.972937 -25.7018 -25.7018
-0.809011 -25.8081 -25.8081
-0.637257 -25.715 -25.715
-0.801182 -25.6088 -25.6088
-0.805097 -25.7084 -25.7084
-0.976856 -25.8015 -25.8015
-0.984692 -26.0007 -26.0007
-0.648983 -26.0139 -26.0139
-0.641167 -25.8146 -25.8146
-0.980774 -25.9011 -25.9011
-0.816837 -26.0073 -26.0073
-0.645076 -25.9143 -25.9143
-0.809011 -25.8081 -25.8081
-0.812925 -25.9077 -25.9077
-0.984692 -26.0007 -26.0007
-0.992527 -26.1999 -26.1999
-0.65678 -26.213 -26.213
-0.648983 -26.0139 -26.0139
-0.988609 -26.1003 -26.1003
-0.824652 -26.2064 -26.2064
-0.652885 -26.1135 -26.1135
-0.816837 -26.0073 -26.0073
-0.820746 -26.1069 -26.1069
0 0 0
0.00146144 0.000235121 0.000235121
0.00449719 -0.000481233 -0.000481233
0 0 0
0.000726991 0.000482775 0.000482775
0.00296787 -3.52658e-05 -3.52658e-05
0.00217987 0.000129513 0.000129513
0 0 0
0.00144003 0.000361683 0.000361683
0.00146144 0.000235121 0.000235121
0.00304709 -0.00230019 -0.00230019
0.00933874 -0.0035479 -0.0035479
0.00449719 -0.000481233 -0.000481233
0.00223933 -0.000708013 -0.000708013
0.00616439 -0.00275524 -0.00275524
0.00688787 -0.00172175 -0.00172175
0.00296787 -3.52658e-05 -3.52658e-05
0.00454605 -0.00108598 -0.00108598
0.00304709 -0.00230019 -0.00230019
0.0046888 -0.00726718 -0.00726718
0.0143804 -0.00884425 -0.00884425
0.00933874 -0.0035479 -0.0035479
0.00386384 -0.0044962 -0.0044962
0.00949421 -0.00785255 -0.00785255
0.0118445 -0.00593179 -0.00593179
0.00616439 -0.00275524 -0.00275524
0.00781783 -0.00502206 -0.00502206
0.0046888 -0.00726718 -0.00726718
0.00636293 -0.0144445 -0.0144445
0.01946 -0.0161736 -0.0161736
0.0143804 -0.00884425 -0.00884425
0.00552408 -0.0105895 -0.0105895
0.0128706 -0.015094 -0.015094
0.0169212 -0.0122603 -0.0122603
0.00949421 -0.00785255 -0.00785255
0.011181 -0.0112144 -0.0112144
0.00636293 -0.0144445 -0.0144445
0.00802892 -0.0236954 -0.0236954
0.0245164 -0.0254817 -0.0254817
0.01946 -0.0161736 -0.0161736
0.00719808 -0.0188163 -0.0188163
0.0162382 -0.0243733 -0.0243733
0.0219934 -0.0205818 -0.0205818
0.0128706 -0.015094 -0.015094
0.0145576 -0.019483 -0.019483
0.00802892 -0.0236954 -0.0236954
0.00967748 -0.0349499 -0.0349499
0.029518 -0.0367478 -0.0367478
0.0245164 -0.0254817 -0.0254817
0.00885594 -0.029075 -0.029075
0.0195702 -0.0356352 -0.0356352
0.0270245 -0.0308704 -0.0308704
0.0162382 -0.0243733 -0.0243733
0.0179093 -0.0297582 -0.0297582
0.00967748 -0.0349499 -0.0349499
0.0112993 -0.0481712 -0.0481712
0.0344648 -0.0499686 -0.0499686
0.029518 -0.0367478 -0.0367478
0.0104918 -0.0413161 -0.0413161
0.0228602 -0.0488588 -0.0488588
0.0319981 -0.0431142 -0.0431142
0.0195702 -0.0356352 -0.0356352
0.0212205 -0.0420027 -0.0420027
0.0112993 -0.0481712 -0.0481712
0.012895 -0.0633412 -0.0633412
0.0393582 -0.0651375 -0.0651375
0.0344648 -0.0499686 -0.0499686
0.0121004 -0.0555134 -0.0555134
0.0261086 -0.0640304 -0.0640304
0.0369179 -0.0573099 -0.0573099
0.0228602 -0.0488588 -0.0488588
0.0244894 -0.0562017 -0.0562017
0.012895 -0.0633412 -0.0633412
0.0144642 -0.0804484 -0.0804484
0.044203 -0.0822481 -0.0822481
0.0393582 -0.0651375 -0.0651375
0.0136829 -0.0716532 -0.0716532
0.0293181 -0.0811411 -0.0811411
0.0417865 -0.0734506 -0.0734506
0.0261086 -0.0640304 -0.0640304
0.0277181 -0.0723439 -0.0723439
0.0144642 -0.0804484 -0.0804484
0.0160078 -0.0994837 -0.0994837
0.0490015 -0.101292 -0.101292
0.044203 -0.0822481 -0.0822481
0.0152392 -0.0897255 -0.0897255
0.0324907 -0.100182 -0.100182
0.0466079 -0.091529 -0.091529
0.0293181 -0.0811411 -0.0811411
0.0309089 -0.0904209 -0.0904209
0.0160078 -0.0994837 -0.0994837
0.0175255 -0.120438 -0.120438
0.0537554 -0.12226 -0.12226
0.0490015 -0.101292 -0.101292
0.0167699 -0.109722 -0.109722
0.0356274 -0.121145 -0.121145
0.051384 -0.111536 -0.111536
0.0324907 -0.100182 -0.100182
0.0340635 -0.110424 -0.110424
0.0175255 -0.120438 -0.120438
0.019017 -0.143304 -0.143304
0.058465 -0.145142 -0.145142
0.0537554 -0.12226 -0.12226
0.0182746 -0.131633 -0.131633
0.0387284 -0.14402 -0.14402
0.0561158 -0.133462 -0.133462
0.0356274 -0.121145 -0.121145
0.0371824 -0.132344 -0.132344
0.019017 -0.143304 -0.143304
0.0204815 -0.16807 -0.16807
0.0631298 -0.169928 -0.169928
0.058465 -0.145142 -0.145142
0.0197527 -0.15545 -0.15545
0.0417934 -0.168797 -0.168797
0.060803 -0.157298 -0.157298
0.0387284 -0.14402 -0.14402
0.0402655 -0.156171 -0.156171
0.0204815 -0.16807 -0.16807
0.0219181 -0.194727 -0.194727
0.0677491 -0.196609 -0.196609
0.0631298 -0.169928 -0.169928
0.0212034 -0.181163 -0.181163
0.0448216 -0.195467 -0.195467
0.0654452 -0.183033 -0.183033
0.0417934 -0.168797 -0.168797
0.0433122 -0.181896 -0.181896
0.0219181 -0.194727 -0.194727
0.0233256 -0.223266 -0.223266
0.072322 -0.225173 -0.225173
0.0677491 -0.196609 -0.196609
0.0226255 -0.208762 -0.208762
0.047812 -0.22402 -0.22402
0.0700415 -0.210656 -0.210656
0.0448216 -0.195467 -0.195467
0.0463216 -0.209509 -0.209509
0.0233256 -0.223266 -0.223266
0.0247028 -0.253675 -0.253675
0.0768472 -0.25561 -0.25561
0.072322 -0.225173 -0.225173
0.024018 -0.238237 -0.238237
0.0507633 -0.254444 -0.254444
0.0745906 -0.240158 -0.240158
0.047812 -0.22402 -0.22402
0.0492926 -0.238999 -0.238999
0.0247028 -0.253675 -0.253675
0.0260485 -0.285946 -0.285946
0.0813236 -0.287911 -0.287911
0.0768472 -0.25561 -0.25561
0.0253797 -0.269578 -0.269578
0.0536745 -0.286731 -0.286731
0.0790916 -0.271529 -0.271529
0.0507633 -0.254444 -0.254444
0.052224 -0.270355 -0.270355
0.0260485 -0.285946 -0.285946
0.0273616 -0.320066 -0.320066
0.08575 -0.322064 -0.322064
0.0813236 -0.287911 -0.287911
0.0267092 -0.302775 -0.302775
0.0565444 -0.320869 -0.320869
0.0835432 -0.304757 -0.304757
0.0536745 -0.286731 -0.286731
0.0551147 -0.303569 -0.303569
0.0273616 -0.320066 -0.320066
0.0286409 -0.356028 -0.356028
0.0901252 -0.358059 -0.358059
0.08575 -0.322064 -0.322064
0.0280056 -0.337818 -0.337818
0.0593718 -0.356848 -0.356848
0.0879441 -0.339832 -0.339832
0.0565444 -0.320869 -0.320869
0.0579635 -0.338629 -0.338629
0.0286409 -0.356028 -0.356028
0.0298852 -0.393819 -0.393819
0.094448 -0.395887 -0.395887
0.0901252 -0.358059 -0.358059
0.0292675 -0.374695 -0.374695
0.0621554 -0.394658 -0.394658
0.0922932 -0.376745 -0.376745
0.0593718 -0.356848 -0.356848
0.0607691 -0.375525 -0.375525
0.0298852 -0.393819 -0.393819
0.0310933 -0.433429 -0.433429
0.0987172 -0.435535 -0.435535
0.094448 -0.395887 -0.395887
0.0304938 -0.413397 -0.413397
0.0648942 -0.434289 -0.434289
0.0965894 -0.415484 -0.415484
0.0621554 -0.394658 -0.394658
0.0635305 -0.414247 -0.414247
0.0310933 -0.433429 -0.433429
0.0322641 -0.474849 -0.474849
0.102932 -0.476995 -0.476995
0.0987172 -0.435535 -0.435535
0.0316834 -0.453913 -0.453913
0.067587 -0.47573 -0.47573
0.100831 -0.45604 -0.45604
0.0648942 -0.434289 -0.434289
0.0662465 -0.454784 -0.454784
0.0322641 -0.474849 -0.474849
0.0333965 -0.518068 -0.518068
0.107091 -0.520256 -0.520256
0.102932 -0.476995 -0.476995
0.0328352 -0.496234 -0.496234
0.0702327 -0.518971 -0.518971
0.105018 -0.498401 -0.498401
0.067587 -0.47573 -0.47573
0.0689158 -0.497126 -0.497126
0.0333965 -0.518068 -0.518068
0.0344894 -0.563075 -0.563075
0.111192 -0.565307 -0.565307
0.107091 -0.520256 -0.520256
0.033948 -0.540348 -0.540348
0.0728302 -0.564001 -0.564001
0.109149 -0.542558 -0.542558
0.0702327 -0.518971 -0.518971
0.0715376 -0.541263 -0.541263
0.0344894 -0.563075 -0.563075
0.0355418 -0.60986 -0.60986
0.115236 -0.612138 -0.612138
0.111192 -0.565307 -0.565307
0.0350207 -0.586246 -0.586246
0.0753785 -0.61081 -0.61081
0.113222 -0.588501 -0.588501
0.0728302 -0.564001 -0.564001
0.0741106 -0.587184 -0.587184
0.0355418 -0.60986 -0.60986
0.0365525 -0.658414 -0.658414
0.119221 -0.660739 -0.660739
0.115236 -0.612138 -0.612138
0.0360524 -0.633917 -0.633917
0.0778764 -0.659388 -0.659388
0.117236 -0.636218 -0.636218
0.0753785 -0.61081 -0.61081
0.0766338 -0.634879 -0.634879
0.0365525 -0.658414 -0.658414
0.0375206 -0.708724 -0.708724
0.123146 -0.711098 -0.711098
0.119221 -0.660739 -0.660739
0.0370419 -0.68335 -0.68335
0.0803229 -0.709725 -0.709725
0.121191 -0.685699 -0.685699
0.0778764 -0.659388 -0.659388
0.0791061 -0.684337 -0.684337
0.0375206 -0.708724 -0.708724
0.038445 -0.760782 -0.760782
0.12701 -0.763207 -0.763207
0.123146 -0.711098 -0.711098
0.0379883 -0.734536 -0.734536
0.0827171 -0.761809 -0.761809
0.125086 -0.736935 -0.736935
0.0803229 -0.709725 -0.709725
0.0815266 -0.735549 -0.735549
0.038445 -0.760782 -0.760782
0.0393247 -0.814577 -0.814577
0.130812 -0.817055 -0.817055
0.12701 -0.763207 -0.763207
0.0388905 -0.787464 -0.787464
0.085058 -0.815632 -0.815632
0.128918 -0.789914 -0.789914
0.0827171 -0.761809 -0.761809
0.0838943 -0.788504 -0.788504
0.0393247 -0.814577 -0.814577
0.0401589 -0.870099 -0.870099
0.13455 -0.87263 -0.87263
0.130812 -0.817055 -0.817055
0.0397476 -0.842123 -0.842123
0.0873445 -0.871181 -0.871181
0.132689 -0.844627 -0.844627
0.085058 -0.815632 -0.815632
0.0862081 -0.843191 -0.843191
0.0401589 -0.870099 -0.870099
0.0409465 -0.927337 -0.927337
0.138225 -0.929924 -0.929924
0.13455 -0.87263 -0.87263
0.0405586 -0.898504 -0.898504
0.0895758 -0.928448 -0.928448
0.136396 -0.901063 -0.901063
0.0873445 -0.871181 -0.871181
0.0884671 -0.899601 -0.899601
0.0409465 -0.927337 -0.927337
0.0416867 -0.98628 -0.98628
0.141835 -0.988924 -0.988924
0.138225 -0.929924 -0.929924
0.0413226 -0.956596 -0.956596
0.0917509 -0.987421 -0.987421
0.140038 -0.959211 -0.959211
0.0895758 -0.928448 -0.928448
0.0906704 -0.957722 -0.957722
0.0416867 -0.98628 -0.98628
0.0423784 -1.04692 -1.04692
0.145379 -1.04962 -1.04962
0.141835 -0.988924 -0.988924
0.0420386 -1.01639 -1.01639
0.0938689 -1.04809 -1.04809
0.143615 -1.01906 -1.01906
0.0917509 -0.987421 -0.987421
0.0928171 -1.01754 -1.01754
0.0423784 -1.04692 -1.04692
0.0430209 -1.10924 -1.10924
0.148856 -1.11201 -1.11201
0.145379 -1.04962 -1.04962
0.0427059 -1.07787 -1.07787
0.095929 -1.11045 -1.11045
0.147126 -1.0806 -1.0806
0.0938689 -1.04809 -1.04809
0.0949063 -1.07906 -1.07906
0.0430209 -1.10924 -1.10924
0.0436133 -1.17324 -1.17324
0.152266 -1.17607 -1.17607
0.148856 -1.11201 -1.11201
0.0433235 -1.14104 -1.14104
0.0979303 -1.17448 -1.17448
0.15057 -1.14383 -1.14383
0.095929 -1.11045 -1.11045
0.0969371 -1.14225 -1.14225
0.0436133 -1.17324 -1.17324
0.0441548 -1.23891 -1.23891
0.155608 -1.24179 -1.24179
0.152266 -1.17607 -1.17607
0.0438905 -1.20587 -1.20587
0.0998719 -1.24017 -1.24017
0.153946 -1.20872 -1.20872
0.0979303 -1.17448 -1.17448
0.0989086 -1.20712 -1.20712
0.0441548 -1.23891 -1.23891
0.0446444 -1.30623 -1.30623
0.15888 -1.30918 -1.30918
0.155608 -1.24179 -1.24179
0.0444061 -1.27236 -1.27236
0.101753 -1.30753 -1.30753
0.157253 -1.27528 -1.27528
0.0998719 -1.24017 -1.24017
0.10082 -1.27364 -1.27364
0.0446444 -1.30623 -1.30623
0.0450815 -1.37519 -1.37519
0.162083 -1.3782 -1.3782
0.15888 -1.30918 -1.30918
0.0448696 -1.3405 -1.3405
0.103573 -1.37652 -1.37652
0.16049 -1.34349 -1.34349
0.101753 -1.30753 -1.30753
0.102671 -1.34182 -1.34182
0.0450815 -1.37519 -1.37519
0.0454653 -1.44578 -1.44578
0.165215 -1.44887 -1.44887
0.162083 -1.3782 -1.3782
0.0452801 -1.41028 -1.41028
0.105331 -1.44715 -1.44715
0.163658 -1.41333 -1.41333
0.103573 -1.37652 -1.37652
0.10446 -1.41163 -1.41163
0.0454653 -1.44578 -1.44578
0.0457949 -1.518 -1.518
0.168275 -1.52115 -1.52115
0.165215 -1.44887 -1.44887
0.0456369 -1.48169 -1.48169
0.107026 -1.51941 -1.51941
0.166754 -1.48481 -1.48481
0.105331 -1.44715 -1.44715
0.106186 -1.48308 -1.48308
0.0457949 -1.518 -1.518
0.0460697 -1.59183 -1.59183
0.171263 -1.59506 -1.59506
0.168275 -1.52115 -1.52115
0.0459392 -1.55472 -1.55472
0.108657 -1.59327 -1.59327
0.169778 -1.5579 -1.5579
0.107026 -1.51941 -1.51941
0.107849 -1.55614 -1.55614
0.0460697 -1.59183 -1.59183
0.0462889 -1.66727 -1.66727
0.174178 -1.67056 -1.67056
0.171263 -1.59506 -1.59506
0.0461863 -1.62935 -1.62935
0.110224 -1.66874 -1.66874
0.172729 -1.63261 -1.63261
0.108657 -1.59327 -1.59327
0.109449 -1.63081 -1.63081
0.0462889 -1.66727 -1.66727
0.0464518 -1.74429 -1.74429
0.177019 -1.74766 -1.74766
0.174178 -1.67056 -1.67056
0.0463774 -1.70558 -1.70558
0.111726 -1.74581 -1.74581
0.175607 -1.70891 -1.70891
0.110224 -1.66874 -1.66874
0.110983 -1.70708 -1.70708
0.0464518 -1.74429 -1.74429
0.0465577 -1.8229 -1.8229
0.179786 -1.82634 -1.82634
0.177019 -1.74766 -1.74766
0.0465119 -1.7834 -1.7834
0.113163 -1.82445 -1.82445
0.178412 -1.7868 -1.7868
0.111726 -1.74581 -1.74581
0.112453 -1.78493 -1.78493
0.0465577 -1.8229 -1.8229
0.0466061 -1.90308 -1.90308
0.182478 -1.90659 -1.90659
0.179786 -1.82634 -1.82634
0.0465892 -1.8628 -1.8628
0.114533 -1.90467 -1.90467
0.181141 -1.86627 -1.86627
0.113163 -1.82445 -1.82445
0.113856 -1.86437 -1.86437
0.0466061 -1.90308 -1.90308
0.0465962 -1.98482 -1.98482
0.185094 -1.98841 -1.98841
0.182478 -1.90659 -1.90659
0.0466085 -1.94376 -1.94376
0.115836 -1.98645 -1.98645
0.183795 -1.94731 -1.94731
0.114533 -1.90467 -1.90467
0.115193 -1.94537 -1.94537
0.0465962 -1.98482 -1.98482
0.0465274 -2.06812 -2.06812
0.187634 -2.07178 -2.07178
0.185094 -1.98841 -1.98841
0.0465692 -2.02628 -2.02628
0.117072 -2.06978 -2.06978
0.186373 -2.0299 -2.0299
0.115836 -1.98645 -1.98645
0.116463 -2.02792 -2.02792
0.0465274 -2.06812 -2.06812
0.0463991 -2.15295 -2.15295
0.190097 -2.15669 -2.15669
0.187634 -2.07178 -2.07178
0.0464707 -2.11034 -2.11034
0.118239 -2.15465 -2.15465
0.188875 -2.11404 -2.11404
0.117072 -2.06978 -2.06978
0.117664 -2.11203 -2.11203
0.0463991 -2.15295 -2.15295
0.0462107 -2.23931 -2.23931
0.192482 -2.24313 -2.24313
0.190097 -2.15669 -2.15669
0.0463124 -2.19594 -2.19594
0.119338 -2.24106 -2.24106
0.191299 -2.19972 -2.19972
0.118239 -2.15465 -2.15465
0.118797 -2.19767 -2.19767
0.0462107 -2.23931 -2.23931
0.0459617 -2.32719 -2.32719
0.19479 -2.33109 -2.33109
0.192482 -2.24313 -2.24313
0.0460938 -2.28306 -2.28306
0.120367 -2.32898 -2.32898
0.193646 -2.28692 -2.28692
0.119338 -2.24106 -2.24106
0.119861 -2.28483 -2.28483
0.0459617 -2.32719 -2.32719
0.0456515 -2.41659 -2.41659
0.197019 -2.42056 -2.42056
0.19479 -2.33109 -2.33109
0.0458143 -2.3717 -2.3717
0.121327 -2.41841 -2.41841
0.195914 -2.37564 -2.37564
0.120367 -2.32898 -2.32898
0.120856 -2.37351 -2.37351
0.0456515 -2.41659 -2.41659
0.0452795 -2.50748 -2.50748
0.199169 -2.51154 -2.51154
0.197019 -2.42056 -2.42056
0.0454733 -2.46185 -2.46185
0.122216 -2.50935 -2.50935
0.198104 -2.46586 -2.46586
0.121327 -2.41841 -2.41841
0.12178 -2.46369 -2.46369
0.0452795 -2.50748 -2.50748
0.0448454 -2.59986 -2.59986
0.201239 -2.604 -2.604
0.199169 -2.51154 -2.51154
0.0450703 -2.55348 -2.55348
0.123034 -2.60177 -2.60177
0.200214 -2.55758 -2.55758
0.122216 -2.50935 -2.50935
0.122634 -2.55537 -2.55537
0.0448454 -2.59986 -2.59986
0.0443485 -2.69372 -2.69372
0.203229 -2.69794 -2.69794
0.201239 -2.604 -2.604
0.0446048 -2.6466 -2.6466
0.12378 -2.69567 -2.69567
0.202244 -2.65078 -2.65078
0.123034 -2.60177 -2.60177
0.123416 -2.64854 -2.64854
0.0443485 -2.69372 -2.69372
0.0437884 -2.78905 -2.78905
0.205138 -2.79335 -2.79335
0.203229 -2.69794 -2.69794
0.0440763 -2.7412 -2.7412
0.124455 -2.79104 -2.79104
0.204194 -2.74546 -2.74546
0.12378 -2.69567 -2.69567
0.124127 -2.74317 -2.74317
0.0437884 -2.78905 -2.78905
0.0431646 -2.88583 -2.88583
0.206967 -2.89022 -2.89022
0.205138 -2.79335 -2.79335
0.0434845 -2.83726 -2.83726
0.125057 -2.88787 -2.88787
0.206063 -2.8416 -2.8416
0.124455 -2.79104 -2.79104
0.124765 -2.83927 -2.83927
0.0431646 -2.88583 -2.88583
0.0424767 -2.98406 -2.98406
0.208713 -2.98854 -2.98854
0.206967 -2.89022 -2.89022
0.0428287 -2.93477 -2.93477
0.125587 -2.98615 -2.98615
0.20785 -2.9392 -2.9392
0.125057 -2.88787 -2.88787
0.125331 -2.93683 -2.93683
0.0424767 -2.98406 -2.98406
0.0417243 -3.08373 -3.08373
0.210378 -3.08829 -3.08829
0.208713 -2.98854 -2.98854
0.0421086 -3.03372 -3.03372
0.126043 -3.08586 -3.08586
0.209556 -3.03824 -3.03824
0.125587 -2.98615 -2.98615
0.125824 -3.03582 -3.03582
0.0417243 -3.08373 -3.08373
0.0409069 -3.18483 -3.18483
0.211961 -3.18948 -3.18948
0.210378 -3.08829 -3.08829
0.0413237 -3.1341 -3.1341
0.126426 -3.187 -3.187
0.21118 -3.13871 -3.13871
0.126043 -3.08586 -3.08586
0.126244 -3.13625 -3.13625
0.0409069 -3.18483 -3.18483
0.0400242 -3.28734 -3.28734
0.213461 -3.29208 -3.29208
0.211961 -3.18948 -3.18948
0.0404738 -3.23591 -3.23591
0.126735 -3.28956 -3.28956
0.212721 -3.2406 -3.2406
0.126426 -3.187 -3.187
0.126589 -3.2381 -3.2381
0.0400242 -3.28734 -3.28734
0.0390759 -3.39126 -3.39126
0.214878 -3.39609 -3.39609
0.213461 -3.29208 -3.29208
0.0395583 -3.33913 -3.33913
0.126969 -3.39353 -3.39353
0.21418 -3.34391 -3.34391
0.126735 -3.28956 -3.28956
0.126861 -3.34137 -3.34137
0.0390759 -3.39126 -3.39126
0.0380614 -3.49658 -3.49658
0.216211 -3.50149 -3.50149
0.214878 -3.39609 -3.39609
0.0385769 -3.44375 -3.44375
0.127128 -3.49889 -3.49889
0.215555 -3.44861 -3.44861
0.126969 -3.39353 -3.39353
0.127058 -3.44603 -3.44603
0.0380614 -3.49658 -3.49658
0.0369806 -3.60328 -3.60328
0.217461 -3.60828 -3.60828
0.216211 -3.50149 -3.50149
0.0375294 -3.54976 -3.54976
0.127213 -3.60563 -3.60563
0.216846 -3.55471 -3.55471
0.127128 -3.49889 -3.49889
0.12718 -3.55209 -3.55209
0.0369806 -3.60328 -3.60328
0.0358331 -3.71136 -3.71136
0.218626 -3.71645 -3.71645
0.217461 -3.60828 -3.60828
0.0364152 -3.65715 -3.65715
0.127222 -3.71376 -3.71376
0.218054 -3.66219 -3.66219
0.127213 -3.60563 -3.60563
0.127227 -3.65952 -3.65952
0.0358331 -3.71136 -3.71136
0.0346186 -3.8208 -3.8208
0.219707 -3.82598 -3.82598
0.218626 -3.71645 -3.71645
0.0352343 -3.76591 -3.76591
0.127155 -3.82325 -3.82325
0.219177 -3.77104 -3.77104
0.127222 -3.71376 -3.71376
0.127198 -3.76833 -3.76833
0.0346186 -3.8208 -3.8208
0.0333368 -3.9316 -3.9316
0.220704 -3.93687 -3.93687
0.219707 -3.82598 -3.82598
0.0339861 -3.87603 -3.87603
0.127012 -3.93409 -3.93409
0.220216 -3.88125 -3.88125
0.127155 -3.82325 -3.82325
0.127093 -3.8785 -3.8785
0.0333368 -3.9316 -3.9316
0.0319874 -4.04374 -4.04374
0.221615 -4.0491 -4.0491
0.220704 -3.93687 -3.93687
0.0326705 -3.9875 -3.9875
0.126793 -4.04628 -4.04628
0.22117 -3.99281 -3.99281
0.127012 -3.93409 -3.93409
0.126912 -3.99001 -3.99001
0.0319874 -4.04374 -4.04374
0.0305702 -4.15722 -4.15722
0.222441 -4.16266 -4.16266
0.221615 -4.0491 -4.0491
0.0312873 -4.10031 -4.10031
0.126498 -4.1598 -4.1598
0.222039 -4.10571 -4.10571
0.126793 -4.04628 -4.04628
0.126655 -4.10287 -4.10287
0.0305702 -4.15722 -4.15722
0.0290849 -4.27202 -4.27202
0.223182 -4.27755 -4.27755
0.222441 -4.16266 -4.16266
0.029836 -4.21445 -4.21445
0.126126 -4.27464 -4.27464
0.222822 -4.21994 -4.21994
0.126498 -4.1598 -4.1598
0.126321 -4.21706 -4.21706
0.0290849 -4.27202 -4.27202
0.0275313 -4.38813 -4.38813
0.223837 -4.39376 -4.39376
0.223182 -4.27755 -4.27755
0.0283167 -4.32991 -4.32991
0.125676 -4.3908 -4.3908
0.22352 -4.33549 -4.33549
0.126126 -4.27464 -4.27464
0.125911 -4.33256 -4.33256
0.0275313 -4.38813 -4.38813
0.0259093 -4.50554 -4.50554
0.224406 -4.51127 -4.51127
0.223837 -4.39376 -4.39376
0.0267289 -4.44667 -4.44667
0.12515 -4.50827 -4.50827
0.224132 -4.45235 -4.45235
0.125676 -4.3908 -4.3908
0.125423 -4.44937 -4.44937
0.0259093 -4.50554 -4.50554
0.0242186 -4.62425 -4.62425
0.224889 -4.63007 -4.63007
0.224406 -4.51127 -4.51127
0.0250725 -4.56474 -4.56474
0.124546 -4.62702 -4.62702
0.224659 -4.57051 -4.57051
0.12515 -4.50827 -4.50827
0.124858 -4.56748 -4.56748
0.0242186 -4.62425 -4.62425
0.022459 -4.74424 -4.74424
0.225286 -4.75015 -4.75015
0.224889 -4.63007 -4.63007
0.0233474 -4.68409 -4.68409
0.123865 -4.74706 -4.74706
0.225099 -4.68995 -4.68995
0.124546 -4.62702 -4.62702
0.124215 -4.68688 -4.68688
0.022459 -4.74424 -4.74424
0.0206304 -4.86551 -4.86551
0.225597 -4.87151 -4.87151
0.225286 -4.75015 -4.75015
0.0215534 -4.80472 -4.80472
0.123106 -4.86837 -4.86837
0.225453 -4.81067 -4.81067
0.123865 -4.74706 -4.74706
0.123495 -4.80756 -4.80756
0.0206304 -4.86551 -4.86551
0.0187327 -4.98803 -4.98803
0.225821 -4.99412 -4.99412
0.225597 -4.87151 -4.87151
0.0196902 -4.92661 -4.92661
0.122269 -4.99094 -4.99094
0.22572 -4.93266 -4.93266
0.123106 -4.86837 -4.86837
0.122697 -4.9295 -4.9295
0.0187327 -4.98803 -4.98803
0.0167657 -5.11181 -5.11181
0.225958 -5.11799 -5.11799
0.225821 -4.99412 -4.99412
0.0177579 -5.04976 -5.04976
0.121354 -5.11477 -5.11477
0.225901 -5.0559 -5.0559
0.122269 -4.99094 -4.99094
0.121822 -5.0527 -5.0527
0.0167657 -5.11181 -5.11181
0.0147293 -5.23683 -5.23683
0.226009 -5.24311 -5.24311
0.225958 -5.11799 -5.11799
0.0157562 -5.17416 -5.17416
0.120362 -5.23983 -5.23983
0.225995 -5.1804 -5.1804
0.121354 -5.11477 -5.11477
0.120868 -5.17715 -5.17715
0.0147293 -5.23683 -5.23683
0.0126234 -5.36307 -5.36307
0.225973 -5.36945 -5.36945
0.226009 -5.24311 -5.24311
0.0136851 -5.2998 -5.2998
0.11929 -5.36613 -5.36613
0.226002 -5.30612 -5.30612
0.120362 -5.23983 -5.23983
0.119836 -5.30283 -5.30283
0.0126234 -5.36307 -5.36307
0.010448 -5.49054 -5.49054
0.225849 -5.49701 -5.49701
0.225973 -5.36945 -5.36945
0.0115444 -5.42666 -5.42666
0.118141 -5.49365 -5.49365
0.225922 -5.43308 -5.43308
0.11929 -5.36613 -5.36613
0.118726 -5.42974 -5.42974
0.010448 -5.49054 -5.49054
0.00820289 -5.61922 -5.61922
0.225639 -5.62578 -5.62578
0.225849 -5.49701 -5.49701
0.00933415 -5.55473 -5.55473
0.116913 -5.62237 -5.62237
0.225755 -5.56125 -5.56125
0.118141 -5.49365 -5.49365
0.117537 -5.55786 -5.55786
0.00820289 -5.61922 -5.61922
0.00588811 -5.7491 -5.7491
0.225342 -5.75576 -5.75576
0.225639 -5.62578 -5.62578
0.00705422 -5.68401 -5.68401
0.115607 -5.7523 -5.7523
0.225501 -5.69062 -5.69062
0.116913 -5.62237 -5.62237
0.11627 -5.68719 -5.68719
0.00588811 -5.7491 -5.7491
0.0035036 -5.88017 -5.88017
0.224958 -5.88692 -5.88692
0.225342 -5.75576 -5.75576
0.00470457 -5.81449 -5.81449
0.114223 -5.88342 -5.88342
0.225161 -5.82119 -5.82119
0.115607 -5.7523 -5.7523
0.114925 -5.81771 -5.81771
0.0035036 -5.88017 -5.88017
0.00104933 -6.01242 -6.01242
0.224486 -6.01926 -6.01926
0.224958 -5.88692 -5.88692
0.00228518 -5.94615 -5.94615
0.11276 -6.01572 -6.01572
0.224733 -5.95295 -5.95295
0.114223 -5.88342 -5.88342
0.113501 -5.94942 -5.94942
0.00104933 -6.01242 -6.01242
-0.0014747 -6.14584 -6.14584
0.223927 -6.15278 -6.15278
0.224486 -6.01926 -6.01926
-0.000203965 -6.07898 -6.07898
0.111219 -6.14918 -6.14918
0.224218 -6.08587 -6.08587
0.11276 -6.01572 -6.01572
0.111999 -6.0823 -6.0823
-0.0014747 -6.14584 -6.14584
-0.00406849 -6.28041 -6.28041
0.223282 -6.28745 -6.28745
0.223927 -6.15278 -6.15278
-0.00276287 -6.21298 -6.21298
0.109599 -6.28381 -6.28381
0.223615 -6.21997 -6.21997
0.111219 -6.14918 -6.14918
0.110419 -6.21635 -6.21635
-0.00406849 -6.28041 -6.28041
-0.00673201 -6.41614 -6.41614
0.222549 -6.42327 -6.42327
0.223282 -6.28745 -6.28745
-0.00539153 -6.34813 -6.34813
0.107901 -6.41958 -6.41958
0.222926 -6.35521 -6.35521
0.109599 -6.28381 -6.28381
0.10876 -6.35155 -6.35155
-0.00673201 -6.41614 -6.41614
-0.00946524 -6.553 -6.553
0.221729 -6.56022 -6.56022
0.222549 -6.42327 -6.42327
-0.00808992 -6.48443 -6.48443
0.106124 -6.55649 -6.55649
0.22215 -6.4916 -6.4916
0.107901 -6.41958 -6.41958
0.107022 -6.48789 -6.48789
-0.00946524 -6.553 -6.553
-0.0122681 -6.69099 -6.69099
0.220822 -6.69831 -6.69831
0.221729 -6.56022 -6.56022
-0.010858 -6.62186 -6.62186
0.104269 -6.69453 -6.69453
0.221286 -6.62912 -6.62912
0.106124 -6.55649 -6.55649
0.105206 -6.62537 -6.62537
-0.0122681 -6.69099 -6.69099
-0.0151406 -6.8301 -6.8301
0.219828 -6.83751 -6.83751
0.220822 -6.69831 -6.69831
-0.0136957 -6.76041 -6.76041
0.102336 -6.83369 -6.83369
0.220336 -6.76777 -6.76777
0.104269 -6.69453 -6.69453
0.103312 -6.76397 -6.76397
-0.0151406 -6.8301 -6.8301
-0.0180826 -6.97032 -6.97032
0.218747 -6.97782 -6.97782
0.219828 -6.83751 -6.83751
-0.0166029 -6.90007 -6.90007
0.100325 -6.97395 -6.97395
0.219298 -6.90753 -6.90753
0.102336 -6.83369 -6.83369
0.10134 -6.90368 -6.90368
-0.0180826 -6.97032 -6.97032
-0.0210941 -7.11163 -7.11163
0.217579 -7.11922 -7.11922
0.218747 -6.97782 -6.97782
-0.0195797 -7.04084 -7.04084
0.0982349 -7.11531 -7.11531
0.218174 -7.04838 -7.04838
0.100325 -6.97395 -6.97395
0.0992895 -7.04449 -7.04449
-0.0210941 -7.11163 -7.11163
-0.0241749 -7.25403 -7.25403
0.216325 -7.26172 -7.26172
0.217579 -7.11922 -7.11922
-0.0226258 -7.18269 -7.18269
0.0960674 -7.25776 -7.25776
0.216963 -7.19034 -7.19034
0.0982349 -7.11531 -7.11531
0.0971609 -7.1864 -7.1864
-0.0241749 -7.25403 -7.25403
-0.0273249 -7.3975 -7.3975
0.214984 -7.40528 -7.40528
0.216325 -7.26172 -7.26172
-0.0257412 -7.32563 -7.32563
0.0938219 -7.40128 -7.40128
0.215665 -7.33337 -7.33337
0.0960674 -7.25776 -7.25776
0.0949543 -7.32938 -7.32938
-0.0273249 -7.3975 -7.3975
-0.030544 -7.54204 -7.54204
0.213557 -7.54992 -7.54992
0.214984 -7.40528 -7.40528
-0.0289258 -7.46964 -7.46964
0.0914986 -7.54587 -7.54587
0.214281 -7.47747 -7.47747
0.0938219 -7.40128 -7.40128
0.09267 -7.47344 -7.47344
-0.030544 -7.54204 -7.54204
-0.0338321 -7.68764 -7.68764
0.212043 -7.69561 -7.69561
0.213557 -7.54992 -7.54992
-0.0321794 -7.61471 -7.61471
0.0890977 -7.69151 -7.69151
0.212811 -7.62263 -7.62263
0.0914986 -7.54587 -7.54587
0.0903079 -7.61856 -7.61856
-0.0338321 -7.68764 -7.68764
-0.0371889 -7.83428 -7.83428
0.210443 -7.84234 -7.84234
0.212043 -7.69561 -7.69561
-0.0355019 -7.76083 -7.76083
0.0866193 -7.8382 -7.8382
0.211254 -7.76885 -7.76885
0.0890977 -7.69151 -7.69151
0.0878682 -7.76473 -7.76473
-0.0371889 -7.83428 -7.83428
-0.0406144 -7.98196 -7.98196
0.208757 -7.99011 -7.99011
0.210443 -7.84234 -7.84234
-0.0388931 -7.90799 -7.90799
0.0840636 -7.98593 -7.98593
0.209611 -7.9161 -7.9161
0.0866193 -7.8382 -7.8382
0.0853511 -7.91194 -7.91194
-0.0406144 -7.98196 -7.98196
-0.0441084 -8.13066 -8.13066
0.206986 -8.13891 -8.13891
0.208757 -7.99011 -7.99011
-0.0423529 -8.05619 -8.05619
0.0814308 -8.13468 -8.13468
0.207882 -8.06438 -8.06438
0.0840636 -7.98593 -7.98593
0.0827569 -8.06017 -8.06017
-0.0441084 -8.13066 -8.13066
-0.0476706 -8.28038 -8.28038
0.205128 -8.28872 -8.28872
0.206986 -8.13891 -8.13891
-0.045881 -8.2054 -8.2054
0.078721 -8.28444 -8.28444
0.206068 -8.21369 -8.21369
0.0814308 -8.13468 -8.13468
0.0800855 -8.20943 -8.20943
-0.0476706 -8.28038 -8.28038
-0.0513009 -8.4311 -8.4311
0.203186 -8.43953 -8.43953
0.205128 -8.28872 -8.28872
-0.0494773 -8.35562 -8.35562
0.0759345 -8.43521 -8.43521
0.204168 -8.364 -8.364
0.078721 -8.28444 -8.28444
0.0773373 -8.3597 -8.3597
-0.0513009 -8.4311 -8.4311
-0.0549991 -8.58282 -8.58282
0.201158 -8.59134 -8.59134
0.203186 -8.43953 -8.43953
-0.0531415 -8.50684 -8.50684
0.0730715 -8.58697 -8.58697
0.202182 -8.51531 -8.51531
0.0759345 -8.43521 -8.43521
0.0745125 -8.51097 -8.51097
-0.0549991 -8.58282 -8.58282
-0.0587648 -8.73552 -8.73552
0.199045 -8.74413 -8.74413
0.201158 -8.59134 -8.59134
-0.0568735 -8.65905 -8.65905
0.0701321 -8.73972 -8.73972
0.200112 -8.66761 -8.66761
0.0730715 -8.58697 -8.58697
0.0716113 -8.66322 -8.66322
-0.0587648 -8.73552 -8.73552
-0.062598 -8.88919 -8.88919
0.196847 -8.89789 -8.89789
0.199045 -8.74413 -8.74413
-0.060673 -8.81223 -8.81223
0.0671167 -8.89343 -8.89343
0.197957 -8.82089 -8.82089
0.0701321 -8.73972 -8.73972
0.0686339 -8.81645 -8.81645
-0.062598 -8.88919 -8.88919
-0.0664983 -9.04383 -9.04383
0.194565 -9.05261 -9.05261
0.196847 -8.89789 -8.89789
-0.0645398 -8.96639 -8.96639
0.0640255 -9.04812 -9.04812
0.195717 -8.97513 -8.97513
0.0671167 -8.89343 -8.89343
0.0655806 -8.97066 -8.97066
-0.0664983 -9.04383 -9.04383
-0.0704654 -9.19941 -9.19941
0.192199 -9.20829 -9.20829
0.194565 -9.05261 -9.05261
-0.0684735 -9.1215 -9.1215
0.0608587 -9.20375 -9.20375
0.193392 -9.13033 -9.13033
0.0640255 -9.04812 -9.04812
0.0624515 -9.12581 -9.12581
-0.0704654 -9.19941 -9.19941
-0.0744992 -9.35594 -9.35594
0.189749 -9.36491 -9.36491
0.192199 -9.20829 -9.20829
-0.072474 -9.27756 -9.27756
0.0576167 -9.36033 -9.36033
0.190984 -9.28648 -9.28648
0.0608587 -9.20375 -9.20375
0.0592471 -9.28192 -9.28192
-0.0744992 -9.35594 -9.35594
-0.0785993 -9.51341 -9.51341
0.187215 -9.52246 -9.52246
0.189749 -9.36491 -9.36491
-0.076541 -9.43456 -9.43456
0.0542997 -9.51783 -9.51783
0.188492 -9.44357 -9.44357
0.0576167 -9.36033 -9.36033
0.0559675 -9.43896 -9.43896
-0.0785993 -9.51341 -9.51341
-0.0827654 -9.67179 -9.67179
0.184597 -9.68093 -9.68093
0.187215 -9.52246 -9.52246
-0.0806741 -9.59249 -9.59249
0.050908 -9.67626 -9.67626
0.185916 -9.60158 -9.60158
0.0542997 -9.51783 -9.51783
0.0526131 -9.59694 -9.59694
-0.0827654 -9.67179 -9.67179
-0.0869971 -9.83109 -9.83109
0.181897 -9.84032 -9.84032
0.184597 -9.68093 -9.68093
-0.0848731 -9.75133 -9.75133
0.0474419 -9.83561 -9.83561
0.183258 -9.76051 -9.76051
0.050908 -9.67626 -9.67626
0.0491842 -9.75582 -9.75582
-0.0869971 -9.83109 -9.83109
-0.0912943 -9.99129 -9.99129
0.179114 -10.0006 -10.0006
0.181897 -9.84032 -9.84032
-0.0891376 -9.91108 -9.91108
0.0439018 -9.99585 -9.99585
0.180516 -9.92035 -9.92035
0.0474419 -9.83561 -9.83561
0.0456811 -9.91562 -9.91562
-0.0912943 -9.99129 -9.99129
-0.0956566 -10.1524 -10.1524
0.176249 -10.1618 -10.1618
0.179114 -10.0006 -10.0006
-0.0934673 -10.0717 -10.0717
0.0402879 -10.157 -10.157
0.177692 -10.0811 -10.0811
0.0439018 -9.99585 -9.99585
0.042104 -10.0763 -10.0763
-0.0956566 -10.1524 -10.1524
-0.100084 -10.3143 -10.3143
0.173301 -10.3238 -10.3238
0.176249 -10.1618 -10.1618
-0.097862 -10.2333 -10.2333
0.0366006 -10.319 -10.319
0.174785 -10.2427 -10.2427
0.0402879 -10.157 -10.157
0.0384534 -10.2379 -10.2379
-0.100084 -10.3143 -10.3143
-0.104575 -10.4772 -10.4772
0.170272 -10.4868 -10.4868
0.173301 -10.3238 -10.3238
-0.102321 -10.3957 -10.3957
0.0328404 -10.4819 -10.4819
0.171797 -10.4052 -10.4052
0.0366006 -10.319 -10.319
0.0347296 -10.4003 -10.4003
-0.104575 -10.4772 -10.4772
-0.10913 -10.6409 -10.6409
0.167161 -10.6505 -10.6505
0.170272 -10.4868 -10.4868
-0.106844 -10.5589 -10.5589
0.0290074 -10.6456 -10.6456
0.168727 -10.5685 -10.5685
0.0328404 -10.4819 -10.4819
0.0309329 -10.5636 -10.5636
-0.10913 -10.6409 -10.6409
-0.113749 -10.8054 -10.8054
0.16397 -10.8152 -10.8152
0.167161 -10.6505 -10.6505
-0.111432 -10.7231 -10.7231
0.0251022 -10.8102 -10.8102
0.165576 -10.7328 -10.7328
0.0290074 -10.6456 -10.6456
0.0270638 -10.7278 -10.7278
-0.113749 -10.8054 -10.8054
-0.118431 -10.9708 -10.9708
0.160698 -10.9807 -10.9807
0.16397 -10.8152 -10.8152
-0.116082 -10.888 -10.888
0.021125 -10.9757 -10.9757
0.162344 -10.8978 -10.8978
0.0251022 -10.8102 -10.8102
0.0231225 -10.8928 -10.8928
-0.118431 -10.9708 -10.9708
-0.123176 -11.137 -11.137
0.157346 -11.147 -11.147
0.160698 -10.9807 -10.9807
-0.120796 -11.0538 -11.0538
0.0170763 -11.1419 -11.1419
0.159032 -11.0637 -11.0637
0.021125 -10.9757 -10.9757
0.0191096 -11.0587 -11.0587
-0.123176 -11.137 -11.137
-0.127984 -11.3041 -11.3041
0.153914 -11.3141 -11.3141
0.157346 -11.147 -11.147
-0.125572 -11.2205 -11.2205
0.0129565 -11.309 -11.309
0.15564 -11.2304 -11.2304
0.0170763 -11.1419 -11.1419
0.0150253 -11.2254 -11.2254
-0.127984 -11.3041 -11.3041
-0.132853 -11.4719 -11.4719
0.150402 -11.482 -11.482
0.153914 -11.3141 -11.3141
-0.130411 -11.3879 -11.3879
0.00876602 -11.4769 -11.4769
0.152168 -11.3979 -11.3979
0.0129565 -11.309 -11.309
0.0108701 -11.3928 -11.3928
-0.132853 -11.4719 -11.4719
-0.137784 -11.6406 -11.6406
0.146812 -11.6507 -11.6507
0.150402 -11.482 -11.482
-0.135311 -11.5562 -11.5562
0.00450524 -11.6456 -11.6456
0.148617 -11.5663 -11.5663
0.00876602 -11.4769 -11.4769
0.00664439 -11.5611 -11.5611
-0.137784 -11.6406 -11.6406
-0.142777 -11.81 -11.81
0.143143 -11.8202 -11.8202
0.146812 -11.6507 -11.6507
-0.140273 -11.7252 -11.7252
0.000174615 -11.815 -11.815
0.144987 -11.7354 -11.7354
0.00450524 -11.6456 -11.6456
0.00234863 -11.7302 -11.7302
-0.142777 -11.81 -11.81
-0.14783 -11.9802 -11.9802
0.139396 -11.9905 -11.9905
0.143143 -11.8202 -11.8202
-0.145296 -11.895 -11.895
-0.00422541 -11.9853 -11.9853
0.141279 -11.9053 -11.9053
0.000174615 -11.815 -11.815
-0.00201675 -11.9001 -11.9001
-0.14783 -11.9802 -11.9802
-0.152943 -12.1512 -12.1512
0.135572 -12.1616 -12.1616
0.139396 -11.9905 -11.9905
-0.150379 -12.0656 -12.0656
-0.00869439 -12.1563 -12.1563
0.137494 -12.076 -12.076
-0.00422541 -11.9853 -11.9853
-0.00645131 -12.0707 -12.0707
-0.152943 -12.1512 -12.1512
-0.158116 -12.323 -12.323
0.13167 -12.3334 -12.3334
0.135572 -12.1616 -12.1616
-0.155522 -12.237 -12.237
-0.0132319 -12.3281 -12.3281
0.133631 -12.2474 -12.2474
-0.00869439 -12.1563 -12.1563
-0.0109546 -12.2421 -12.2421
-0.158116 -12.323 -12.323
-0.163349 -12.4954 -12.4954
0.127692 -12.506 -12.506
0.13167 -12.3334 -12.3334
-0.160725 -12.4091 -12.4091
-0.0178373 -12.5006 -12.5006
0.129691 -12.4196 -12.4196
-0.0132319 -12.3281 -12.3281
-0.0155261 -12.4143 -12.4143
-0.163349 -12.4954 -12.4954
-0.16864 -12.6687 -12.6687
0.123637 -12.6793 -12.6793
0.127692 -12.506 -12.506
-0.165987 -12.582 -12.582
-0.0225104 -12.6739 -12.6739
0.125674 -12.5925 -12.5925
-0.0178373 -12.5006 -12.5006
-0.0201654 -12.5872 -12.5872
-0.16864 -12.6687 -12.6687
-0.17399 -12.8426 -12.8426
0.119507 -12.8533 -12.8533
0.123637 -12.6793 -12.6793
-0.171308 -12.7555 -12.7555
-0.0272504 -12.8479 -12.8479
0.121582 -12.7662 -12.7662
-0.0225104 -12.6739 -12.6739
-0.024872 -12.7608 -12.7608
-0.17399 -12.8426 -12.8426
-0.179398 -13.0173 -13.0173
0.115302 -13.028 -13.028
0.119507 -12.8533 -12.8533
-0.176687 -12.9299 -12.9299
-0.032057 -13.0226 -13.0226
0.117414 -12.9406 -12.9406
-0.0272504 -12.8479 -12.8479
-0.0296454 -12.9351 -12.9351
-0.179398 -13.0173 -13.0173
-0.184863 -13.1926 -13.1926
0.111021 -13.2035 -13.2035
0.115302 -13.028 -13.028
-0.182123 -13.1049 -13.1049
-0.0369297 -13.198 -13.198
0.113171 -13.1157 -13.1157
-0.032057 -13.0226 -13.0226
-0.0344852 -13.1102 -13.1102
-0.184863 -13.1926 -13.1926
-0.190385 -13.3687 -13.3687
0.106667 -13.3796 -13.3796
0.111021 -13.2035 -13.2035
-0.187617 -13.2806 -13.2806
-0.0418679 -13.3741 -13.3741
0.108854 -13.2915 -13.2915
-0.0369297 -13.198 -13.198
-0.0393907 -13.286 -13.286
-0.190385 -13.3687 -13.3687
-0.195963 -13.5455 -13.5455
0.102239 -13.5564 -13.5564
0.106667 -13.3796 -13.3796
-0.193167 -13.457 -13.457
-0.0468711 -13.5509 -13.5509
0.104462 -13.4679 -13.4679
-0.0418679 -13.3741 -13.3741
-0.0443614 -13.4624 -13.4624
-0.195963 -13.5455 -13.5455
-0.201597 -13.7229 -13.7229
0.097738 -13.7339 -13.7339
0.102239 -13.5564 -13.5564
-0.198773 -13.6341 -13.6341
-0.0519388 -13.7283 -13.7283
0.0999977 -13.6451 -13.6451
-0.0468711 -13.5509 -13.5509
-0.0493969 -13.6395 -13.6395
-0.201597 -13.7229 -13.7229
-0.207287 -13.901 -13.901
0.0931643 -13.9121 -13.9121
0.097738 -13.7339 -13.7339
-0.204435 -13.8119 -13.8119
-0.0570704 -13.9065 -13.9065
0.0954602 -13.8229 -13.8229
-0.0519388 -13.7283 -13.7283
-0.0544967 -13.8173 -13.8173
-0.207287 -13.901 -13.901
-0.213031 -14.0797 -14.0797
0.0885185 -14.0909 -14.0909
0.0931643 -13.9121 -13.9121
-0.210152 -13.9903 -13.9903
-0.0622654 -14.0853 -14.0853
0.0908504 -14.0014 -14.0014
-0.0570704 -13.9065 -13.9065
-0.05966 -13.9958 -13.9958
-0.213031 -14.0797 -14.0797
-0.218829 -14.2591 -14.2591
0.0838013 -14.2704 -14.2704
0.0885185 -14.0909 -14.0909
-0.215923 -14.1694 -14.1694
-0.0675233 -14.2647 -14.2647
0.0861688 -14.1806 -14.1806
-0.0622654 -14.0853 -14.0853
-0.0648865 -14.1749 -14.1749
-0.218829 -14.2591 -14.2591
-0.224681 -14.4392 -14.4392
0.0790131 -14.4505 -14.4505
0.0838013 -14.2704 -14.2704
-0.221748 -14.3491 -14.3491
-0.0728434 -14.4447 -14.4447
0.081416 -14.3604 -14.3604
-0.0675233 -14.2647 -14.2647
-0.0701756 -14.3546 -14.3546
-0.224681 -14.4392 -14.4392
-0.230586 -14.6198 -14.6198
0.0741546 -14.6312 -14.6312
0.0790131 -14.4505 -14.4505
-0.227627 -14.5294 -14.5294
-0.0782252 -14.6254 -14.6254
0.0765926 -14.5408 -14.5408
-0.0728434 -14.4447 -14.4447
-0.0755266 -14.535 -14.535
-0.230586 -14.6198 -14.6198
-0.236544 -14.8011 -14.8011
0.0692263 -14.8125 -14.8125
0.0741546 -14.6312 -14.6312
-0.233558 -14.7104 -14.7104
-0.0836681 -14.8067 -14.8067
0.0716991 -14.7218 -14.7218
-0.0782252 -14.6254 -14.6254
-0.080939 -14.716 -14.716
-0.236544 -14.8011 -14.8011
-0.242553 -14.9829 -14.9829
0.0642288 -14.9945 -14.9945
0.0692263 -14.8125 -14.8125
-0.239542 -14.8919 -14.8919
-0.0891716 -14.9886 -14.9886
0.0667362 -14.9034 -14.9034
-0.0836681 -14.8067 -14.8067
-0.0864123 -14.8976 -14.8976
-0.242553 -14.9829 -14.9829
-0.248613 -15.1654 -15.1654
0.0591628 -15.177 -15.177
0.0642288 -14.9945 -14.9945
-0.245577 -15.0741 -15.0741
-0.094735 -15.1711 -15.1711
0.0617043 -15.0856 -15.0856
-0.0891716 -14.9886 -14.9886
-0.0919458 -15.0798 -15.0798
-0.248613 -15.1654 -15.1654
-0.254725 -15.3485 -15.3485
0.0540287 -15.3601 -15.3601
0.0591628 -15.177 -15.177
-0.251663 -15.2569 -15.2569
-0.100358 -15.3542 -15.3542
0.0566042 -15.2685 -15.2685
-0.094735 -15.1711 -15.1711
-0.097539 -15.2626 -15.2626
-0.254725 -15.3485 -15.3485
-0.260886 -15.5321 -15.5321
0.0488273 -15.5438 -15.5438
0.0540287 -15.3601 -15.3601
-0.257799 -15.4402 -15.4402
-0.106039 -15.5379 -15.5379
0.0514364 -15.4519 -15.4519
-0.100358 -15.3542 -15.3542
-0.103191 -15.446 -15.446
-0.260886 -15.5321 -15.5321
-0.267097 -15.7162 -15.7162
0.0435591 -15.728 -15.728
0.0488273 -15.5438 -15.5438
-0.263985 -15.6241 -15.6241
-0.111779 -15.7221 -15.7221
0.0462015 -15.6358 -15.6358
-0.106039 -15.5379 -15.5379
-0.108902 -15.6299 -15.6299
-0.267097 -15.7162 -15.7162
-0.273357 -15.901 -15.901
0.0382247 -15.9128 -15.9128
0.0435591 -15.728 -15.728
-0.270221 -15.8085 -15.8085
-0.117576 -15.9068 -15.9068
0.0409001 -15.8203 -15.8203
-0.111779 -15.7221 -15.7221
-0.11467 -15.8144 -15.8144
-0.273357 -15.901 -15.901
-0.279665 -16.0863 -16.0863
0.0328249 -16.0981 -16.0981
0.0382247 -15.9128 -15.9128
-0.276505 -15.9936 -15.9936
-0.12343 -16.0921 -16.0921
0.0355329 -16.0054 -16.0054
-0.117576 -15.9068 -15.9068
-0.120496 -15.9994 -15.9994
-0.279665 -16.0863 -16.0863
-0.28602 -16.2721 -16.2721
0.0273601 -16.284 -16.284
0.0328249 -16.0981 -16.0981
-0.282836 -16.1791 -16.1791
-0.12934 -16.278 -16.278
0.0301006 -16.191 -16.191
-0.12343 -16.0921 -16.0921
-0.126378 -16.185 -16.185
-0.28602 -16.2721 -16.2721
-0.292422 -16.4584 -16.4584
0.0218311 -16.4704 -16.4704
0.0273601 -16.284 -16.284
-0.289215 -16.3652 -16.3652
-0.135306 -16.4643 -16.4643
0.0246036 -16.3771 -16.3771
-0.12934 -16.278 -16.278
-0.132316 -16.3711 -16.3711
-0.292422 -16.4584 -16.4584
-0.298871 -16.6452 -16.6452
0.0162385 -16.6573 -16.6573
0.0218311 -16.4704 -16.4704
-0.295641 -16.5517 -16.5517
-0.141326 -16.6512 -16.6512
0.0190427 -16.5638 -16.5638
-0.135306 -16.4643 -16.4643
-0.138309 -16.5577 -16.5577
-0.298871 -16.6452 -16.6452
-0.305366 -16.8326 -16.8326
0.010583 -16.8447 -16.8447
0.0162385 -16.6573 -16.6573
-0.302113 -16.7388 -16.7388
-0.147401 -16.8386 -16.8386
0.0134186 -16.7509 -16.7509
-0.141326 -16.6512 -16.6512
-0.144357 -16.7448 -16.7448
-0.305366 -16.8326 -16.8326
-0.311905 -17.0204 -17.0204
0.00486523 -17.0325 -17.0325
0.010583 -16.8447 -16.8447
-0.30863 -16.9264 -16.9264
-0.15353 -17.0264 -17.0264
0.00773187 -16.9385 -16.9385
-0.147401 -16.8386 -16.8386
-0.150459 -16.9324 -16.9324
-0.311905 -17.0204 -17.0204
-0.318489 -17.2087 -17.2087
-0.000914174 -17.2209 -17.2209
0.00486523 -17.0325 -17.0325
-0.315191 -17.1145 -17.1145
-0.159712 -17.2148 -17.2148
0.00198319 -17.1267 -17.1267
-0.15353 -17.0264 -17.0264
-0.156614 -17.1205 -17.1205
-0.318489 -17.2087 -17.2087
-0.325116 -17.3975 -17.3975
-0.00675452 -17.4097 -17.4097
-0.000914174 -17.2209 -17.2209
-0.321797 -17.303 -17.303
-0.165946 -17.4036 -17.4036
-0.00382677 -17.3153 -17.3153
-0.159712 -17.2148 -17.2148
-0.162822 -17.3091 -17.3091
-0.325116 -17.3975 -17.3975
-0.331786 -17.5867 -17.5867
-0.0126551 -17.599 -17.599
-0.00675452 -17.4097 -17.4097
-0.328446 -17.4921 -17.4921
-0.172231 -17.5928 -17.5928
-0.00969733 -17.5043 -17.5043
-0.165946 -17.4036 -17.4036
-0.169082 -17.4981 -17.4981
-0.331786 -17.5867 -17.5867
-0.338499 -17.7764 -17.7764
-0.0186153 -17.7888 -17.7888
-0.0126551 -17.599 -17.599
-0.335137 -17.6815 -17.6815
-0.178568 -17.7826 -17.7826
-0.0156278 -17.6938 -17.6938
-0.172231 -17.5928 -17.5928
-0.175393 -17.6876 -17.6876
-0.338499 -17.7764 -17.7764
-0.345253 -17.9666 -17.9666
-0.0246344 -17.9789 -17.9789
-0.0186153 -17.7888 -17.7888
-0.341871 -17.8714 -17.8714
-0.184954 -17.9727 -17.9727
-0.0216175 -17.8838 -17.8838
-0.178568 -17.7826 -17.7826
-0.181755 -17.8776 -17.8776
-0.345253 -17.9666 -17.9666
-0.352048 -18.1571 -18.1571
-0.0307117 -18.1696 -18.1696
-0.0246344 -17.9789 -17.9789
-0.348645 -18.0618 -18.0618
-0.191391 -18.1633 -18.1633
-0.0276658 -18.0742 -18.0742
-0.184954 -17.9727 -17.9727
-0.188166 -18.0679 -18.0679
-0.352048 -18.1571 -18.1571
-0.358883 -18.3481 -18.3481
-0.0368464 -18.3606 -18.3606
-0.0307117 -18.1696 -18.1696
-0.355461 -18.2526 -18.2526
-0.197876 -18.3543 -18.3543
-0.0337719 -18.265 -18.265
-0.191391 -18.1633 -18.1633
-0.194627 -18.2587 -18.2587
-0.358883 -18.3481 -18.3481
-0.365758 -18.5395 -18.5395
-0.043038 -18.552 -18.552
-0.0368464 -18.3606 -18.3606
-0.362316 -18.4437 -18.4437
-0.204409 -18.5457 -18.5457
-0.0399352 -18.4562 -18.4562
-0.197876 -18.3543 -18.3543
-0.201136 -18.4499 -18.4499
-0.365758 -18.5395 -18.5395
-0.372672 -18.7313 -18.7313
-0.0492856 -18.7438 -18.7438
-0.043038 -18.552 -18.552
-0.36921 -18.6353 -18.6353
-0.21099 -18.7375 -18.7375
-0.0461549 -18.6479 -18.6479
-0.204409 -18.5457 -18.5457
-0.207693 -18.6416 -18.6416
-0.372672 -18.7313 -18.7313
-0.379623 -18.9235 -18.9235
-0.0555887 -18.936 -18.936
-0.0492856 -18.7438 -18.7438
-0.376143 -18.8273 -18.8273
-0.217617 -18.9297 -18.9297
-0.0524303 -18.8399 -18.8399
-0.21099 -18.7375 -18.7375
-0.214298 -18.8336 -18.8336
-0.379623 -18.9235 -18.9235
-0.386612 -19.116 -19.116
-0.0619463 -19.1286 -19.1286
-0.0555887 -18.936 -18.936
-0.383113 -19.0197 -19.0197
-0.22429 -19.1223 -19.1223
-0.0587607 -19.0323 -19.0323
-0.217617 -18.9297 -18.9297
-0.220948 -19.0259 -19.0259
-0.386612 -19.116 -19.116
-0.393638 -19.3089 -19.3089
-0.0683579 -19.3216 -19.3216
-0.0619463 -19.1286 -19.1286
-0.390121 -19.2124 -19.2124
-0.231009 -19.3152 -19.3152
-0.0651454 -19.2251 -19.2251
-0.22429 -19.1223 -19.1223
-0.227644 -19.2187 -19.2187
-0.393638 -19.3089 -19.3089
-0.4007 -19.5022 -19.5022
-0.0748227 -19.5149 -19.5149
-0.0683579 -19.3216 -19.3216
-0.397164 -19.4055 -19.4055
-0.237772 -19.5085 -19.5085
-0.0715837 -19.4182 -19.4182
-0.231009 -19.3152 -19.3152
-0.234385 -19.4118 -19.4118
-0.4007 -19.5022 -19.5022
-0.407796 -19.6958 -19.6958
-0.08134 -19.7086 -19.7086
-0.0748227 -19.5149 -19.5149
-0.404244 -19.599 -19.599
-0.24458 -19.7022 -19.7022
-0.0780749 -19.6117 -19.6117
-0.237772 -19.5085 -19.5085
-0.241171 -19.6053 -19.6053
-0.407796 -19.6958 -19.6958
-0.414928 -19.8898 -19.8898
-0.087909 -19.9026 -19.9026
-0.08134 -19.7086 -19.7086
-0.411358 -19.7928 -19.7928
-0.25143 -19.8961 -19.8961
-0.0846181 -19.8055 -19.8055
-0.24458 -19.7022 -19.7022
-0.247999 -19.7991 -19.7991
-0.414928 -19.8898 -19.8898
-0.422092 -20.0841 -20.0841
-0.094529 -20.0969 -20.0969
-0.087909 -19.9026 -19.9026
-0.418506 -19.9869 -19.9869
-0.258322 -20.0905 -20.0905
-0.0912127 -19.9997 -19.9997
-0.25143 -19.8961 -19.8961
-0.254871 -19.9933 -19.9933
-0.422092 -20.0841 -20.0841
-0.42929 -20.2787 -20.2787
-0.101199 -20.2915 -20.2915
-0.094529 -20.0969 -20.0969
-0.425687 -20.1813 -20.1813
-0.265256 -20.2851 -20.2851
-0.0978579 -20.1942 -20.1942
-0.258322 -20.0905 -20.0905
-0.261784 -20.1877 -20.1877
-0.42929 -20.2787 -20.2787
-0.436521 -20.4736 -20.4736
-0.107919 -20.4865 -20.4865
-0.101199 -20.2915 -20.2915
-0.432901 -20.3761 -20.3761
-0.272231 -20.48 -20.48
-0.104553 -20.389 -20.389
-0.265256 -20.2851 -20.2851
-0.268739 -20.3825 -20.3825
-0.436521 -20.4736 -20.4736
-0.443782 -20.6688 -20.6688
-0.114688 -20.6817 -20.6817
-0.107919 -20.4865 -20.4865
-0.440147 -20.5712 -20.5712
-0.279247 -20.6752 -20.6752
-0.111297 -20.5841 -20.5841
-0.272231 -20.48 -20.48
-0.275734 -20.5776 -20.5776
-0.443782 -20.6688 -20.6688
-0.451074 -20.8643 -20.8643
-0.121504 -20.8772 -20.8772
-0.114688 -20.6817 -20.6817
-0.447424 -20.7665 -20.7665
-0.286301 -20.8707 -20.8707
-0.11809 -20.7794 -20.7794
-0.279247 -20.6752 -20.6752
-0.282769 -20.7729 -20.7729
-0.451074 -20.8643 -20.8643
-0.458397 -21.0601 -21.0601
-0.128368 -21.073 -21.073
-0.121504 -20.8772 -20.8772
-0.454732 -20.9622 -20.9622
-0.293394 -21.0665 -21.0665
-0.12493 -20.9751 -20.9751
-0.286301 -20.8707 -20.8707
-0.289843 -20.9686 -20.9686
-0.458397 -21.0601 -21.0601
-0.465748 -21.2561 -21.2561
-0.135278 -21.2691 -21.2691
-0.128368 -21.073 -21.073
-0.462069 -21.1581 -21.1581
-0.300525 -21.2626 -21.2626
-0.131817 -21.171 -21.171
-0.293394 -21.0665 -21.0665
-0.296955 -21.1645 -21.1645
-0.465748 -21.2561 -21.2561
-0.473128 -21.4524 -21.4524
-0.142234 -21.4654 -21.4654
-0.135278 -21.2691 -21.2691
-0.469435 -21.3542 -21.3542
-0.307693 -21.4589 -21.4589
-0.13875 -21.3672 -21.3672
-0.300525 -21.2626 -21.2626
-0.304105 -21.3607 -21.3607
-0.473128 -21.4524 -21.4524
-0.480536 -21.6489 -21.6489
-0.149235 -21.662 -21.662
-0.142234 -21.4654 -21.4654
-0.476828 -21.5506 -21.5506
-0.314897 -21.6554 -21.6554
-0.145729 -21.5637 -21.5637
-0.307693 -21.4589 -21.4589
-0.311291 -21.5571 -21.5571
-0.480536 -21.6489 -21.6489
-0.48797 -21.8457 -21.8457
-0.15628 -21.8588 -21.8588
-0.149235 -21.662 -21.662
-0.48425 -21.7473 -21.7473
-0.322137 -21.8522 -21.8522
-0.152752 -21.7603 -21.7603
-0.314897 -21.6554 -21.6554
-0.318513 -21.7538 -21.7538
-0.48797 -21.8457 -21.8457
-0.495431 -22.0427 -22.0427
-0.163368 -22.0558 -22.0558
-0.15628 -21.8588 -21.8588
-0.491697 -21.9442 -21.9442
-0.329412 -22.0492 -22.0492
-0.159819 -21.9572 -21.9572
-0.322137 -21.8522 -21.8522
-0.32577 -21.9507 -21.9507
-0.495431 -22.0427 -22.0427
-0.502917 -22.2399 -22.2399
-0.170499 -22.253 -22.253
-0.163368 -22.0558 -22.0558
-0.49917 -22.1413 -22.1413
-0.33672 -22.2464 -22.2464
-0.166929 -22.1544 -22.1544
-0.329412 -22.0492 -22.0492
-0.333062 -22.1478 -22.1478
-0.502917 -22.2399 -22.2399
-0.510427 -22.4373 -22.4373
-0.177672 -22.4504 -22.4504
-0.170499 -22.253 -22.253
-0.506669 -22.3386 -22.3386
-0.344062 -22.4439 -22.4439
-0.174081 -22.3517 -22.3517
-0.33672 -22.2464 -22.2464
-0.340387 -22.3451 -22.3451
-0.510427 -22.4373 -22.4373
-0.517961 -22.6349 -22.6349
-0.184886 -22.6481 -22.6481
-0.177672 -22.4504 -22.4504
-0.514191 -22.5361 -22.5361
-0.351436 -22.6415 -22.6415
-0.181274 -22.5492 -22.5492
-0.344062 -22.4439 -22.4439
-0.347745 -22.5426 -22.5426
-0.517961 -22.6349 -22.6349
-0.525519 -22.8327 -22.8327
-0.19214 -22.8459 -22.8459
-0.184886 -22.6481 -22.6481
-0.521737 -22.7338 -22.7338
-0.358842 -22.8393 -22.8393
-0.188508 -22.7469 -22.7469
-0.351436 -22.6415 -22.6415
-0.355135 -22.7403 -22.7403
-0.525519 -22.8327 -22.8327
-0.533098 -23.0307 -23.0307
-0.199434 -23.0438 -23.0438
-0.19214 -22.8459 -22.8459
-0.529306 -22.9317 -22.9317
-0.366279 -23.0372 -23.0372
-0.195782 -22.9448 -22.9448
-0.358842 -22.8393 -22.8393
-0.362557 -22.9382 -22.9382
-0.533098 -23.0307 -23.0307
-0.540699 -23.2288 -23.2288
-0.206767 -23.242 -23.242
-0.199434 -23.0438 -23.0438
-0.536896 -23.1297 -23.1297
-0.373746 -23.2354 -23.2354
-0.203096 -23.1429 -23.1429
-0.366279 -23.0372 -23.0372
-0.370009 -23.1363 -23.1363
-0.540699 -23.2288 -23.2288
-0.54832 -23.4271 -23.4271
-0.214137 -23.4403 -23.4403
-0.206767 -23.242 -23.242
-0.544507 -23.3279 -23.3279
-0.381242 -23.4337 -23.4337
-0.210447 -23.3411 -23.3411
-0.373746 -23.2354 -23.2354
-0.37749 -23.3345 -23.3345
-0.54832 -23.4271 -23.4271
-0.555962 -23.6255 -23.6255
-0.221544 -23.6387 -23.6387
-0.214137 -23.4403 -23.4403
-0.552139 -23.5263 -23.5263
-0.388766 -23.6321 -23.6321
-0.217836 -23.5395 -23.5395
-0.381242 -23.4337 -23.4337
-0.385 -23.5329 -23.5329
-0.555962 -23.6255 -23.6255
-0.563623 -23.8241 -23.8241
-0.228988 -23.8373 -23.8373
-0.221544 -23.6387 -23.6387
-0.55979 -23.7248 -23.7248
-0.396319 -23.8306 -23.8306
-0.225262 -23.738 -23.738
-0.388766 -23.6321 -23.6321
-0.392539 -23.7314 -23.7314
-0.563623 -23.8241 -23.8241
-0.571302 -24.0227 -24.0227
-0.236468 -24.0359 -24.0359
-0.228988 -23.8373 -23.8373
-0.56746 -23.9234 -23.9234
-0.403898 -24.0293 -24.0293
-0.232724 -23.9366 -23.9366
-0.396319 -23.8306 -23.8306
-0.400105 -23.93 -23.93
-0.571302 -24.0227 -24.0227
-0.578998 -24.2215 -24.2215
-0.243983 -24.2347 -24.2347
-0.236468 -24.0359 -24.0359
-0.575148 -24.1221 -24.1221
-0.411504 -24.2281 -24.2281
-0.240221 -24.1353 -24.1353
-0.403898 -24.0293 -24.0293
-0.407698 -24.1287 -24.1287
-0.578998 -24.2215 -24.2215
-0.586713 -24.4204 -24.4204
-0.251532 -24.4336 -24.4336
-0.243983 -24.2347 -24.2347
-0.582853 -24.321 -24.321
-0.419136 -24.427 -24.427
-0.247753 -24.3342 -24.3342
-0.411504 -24.2281 -24.2281
-0.415317 -24.3276 -24.3276
-0.586713 -24.4204 -24.4204
-0.594444 -24.6194 -24.6194
-0.259116 -24.6326 -24.6326
-0.251532 -24.4336 -24.4336
-0.590576 -24.5199 -24.5199
-0.426794 -24.626 -24.626
-0.25532 -24.5331 -24.5331
-0.419136 -24.427 -24.427
-0.422962 -24.5265 -24.5265
-0.594444 -24.6194 -24.6194
-0.602192 -24.8185 -24.8185
-0.266735 -24.8317 -24.8317
-0.259116 -24.6326 -24.6326
-0.598316 -24.7189 -24.7189
-0.434479 -24.8251 -24.8251
-0.262921 -24.7321 -24.7321
-0.426794 -24.626 -24.626
-0.430633 -24.7255 -24.7255
-0.602192 -24.8185 -24.8185
-0.609957 -25.0176 -25.0176
-0.27439 -25.0308 -25.0308
-0.266735 -24.8317 -24.8317
-0.606072 -24.918 -24.918
-0.44219 -25.0242 -25.0242
-0.270558 -24.9312 -24.9312
-0.434479 -24.8251 -24.8251
-0.438331 -24.9246 -24.9246
-0.609957 -25.0176 -25.0176
-0.617739 -25.2168 -25.2168
-0.282082 -25.23 -25.23
-0.27439 -25.0308 -25.0308
-0.613846 -25.1172 -25.1172
-0.44993 -25.2234 -25.2234
-0.278231 -25.1304 -25.1304
-0.44219 -25.0242 -25.0242
-0.446057 -25.1238 -25.1238
-0.617739 -25.2168 -25.2168
-0.625537 -25.4161 -25.4161
-0.289814 -25.4293 -25.4293
-0.282082 -25.23 -25.23
-0.621636 -25.3164 -25.3164
-0.457698 -25.4227 -25.4227
-0.285943 -25.3296 -25.3296
-0.44993 -25.2234 -25.2234
-0.45381 -25.323 -25.323
-0.625537 -25.4161 -25.4161
-0.633349 -25.6154 -25.6154
-0.297585 -25.6286 -25.6286
-0.289814 -25.4293 -25.4293
-0.629441 -25.5157 -25.5157
-0.465491 -25.622 -25.622
-0.293695 -25.5289 -25.5289
-0.457698 -25.4227 -25.4227
-0.461592 -25.5223 -25.5223
-0.633349 -25.6154 -25.6154
-0.641167 -25.8146 -25.8146
-0.305388 -25.8279 -25.8279
-0.297585 -25.6286 -25.6286
-0.637257 -25.715 -25.715
-0.473301 -25.8213 -25.8213
-0.301484 -25.7282 -25.7282
-0.465491 -25.622 -25.622
-0.469395 -25.7216 -25.7216
-0.641167 -25.8146 -25.8146
-0.648983 -26.0139 -26.0139
-0.313195 -26.0272 -26.0272
-0.305388 -25.8279 -25.8279
-0.645076 -25.9143 -25.9143
-0.481108 -26.0205 -26.0205
-0.309293 -25.9276 -25.9276
-0.473301 -25.8213 -25.8213
-0.477206 -25.9209 -25.9209
-0.648983 -26.0139 -26.0139
-0.65678 -26.213 -26.213
-0.320976 -26.2265 -26.2265
-0.313195 -26.0272 -26.0272
-0.652885 -26.1135 -26.1135
-0.488899 -26.2197 -26.2197
-0.31709 -26.1269 -26.1269
-0.481108 -26.0205 -26.0205
-0.485007 -26.1201 -26.1201
0 0 0
0.00449719 -0.000481233 -0.000481233
0.00775408 -0.0022235 -0.0022235
0 0 0
0.00217987 0.000129513 0.000129513
0.00606597 -0.00114274 -0.00114274
0.00376373 -0.000799861 -0.000799861
0 0 0
0.00298696 -0.00024865 -0.00024865
0.00449719 -0.000481233 -0.000481233
0.00933874 -0.0035479 -0.0035479
0.0161462 -0.00640906 -0.00640906
0.00775408 -0.0022235 -0.0022235
0.00688787 -0.00172175 -0.00172175
0.0126278 -0.00473421 -0.00473421
0.0119103 -0.00411429 -0.00411429
0.00606597 -0.00114274 -0.00114274
0.00929459 -0.00266502 -0.00266502
0.00933874 -0.0035479 -0.0035479
0.0143804 -0.00884425 -0.00884425
0.0246125 -0.0121564 -0.0121564
0.0161462 -0.00640906 -0.00640906
0.0118445 -0.00593179 -0.00593179
0.0193962 -0.0102711 -0.0102711
0.0203847 -0.00908113 -0.00908113
0.0126278 -0.00473421 -0.00473421
0.0160037 -0.00727138 -0.00727138
0.0143804 -0.00884425 -0.00884425
0.01946 -0.0161736 -0.0161736
0.0330319 -0.0196348 -0.0196348
0.0246125 -0.0121564 -0.0121564
0.0169212 -0.0122603 -0.0122603
0.0261732 -0.0176913 -0.0176913
0.0288303 -0.0156691 -0.0156691
0.0193962 -0.0102711 -0.0102711
0.0227893 -0.0137439 -0.0137439
0.01946 -0.0161736 -0.0161736
0.0245164 -0.0254817 -0.0254817
0.0413727 -0.0289672 -0.0289672
0.0330319 -0.0196348 -0.0196348
0.0219934 -0.0205818 -0.0205818
0.0328914 -0.0270169 -0.0270169
0.0372118 -0.024064 -0.024064
0.0261732 -0.0176913 -0.0176913
0.0295408 -0.0221139 -0.0221139
0.0245164 -0.0254817 -0.0254817
0.029518 -0.0367478 -0.0367478
0.0496496 -0.0402254 -0.0402254
0.0413727 -0.0289672 -0.0289672
0.0270245 -0.0308704 -0.0308704
0.0395429 -0.0382815 -0.0382815
0.0455187 -0.0343535 -0.0343535
0.0328914 -0.0270169 -0.0270169
0.0362253 -0.0324057 -0.0324057
0.029518 -0.0367478 -0.0367478
0.0344648 -0.0499686 -0.0499686
0.0578641 -0.0534304 -0.0534304
0.0496496 -0.0402254 -0.0402254
0.0319981 -0.0431142 -0.0431142
0.0461304 -0.0514947 -0.0514947
0.0537644 -0.046584 -0.046584
0.0395429 -0.0382815 -0.0382815
0.0428443 -0.0446443 -0.0446443
0.0344648 -0.0499686 -0.0499686
0.0393582 -0.0651375 -0.0651375
0.0660211 -0.0685882 -0.0685882
0.0578641 -0.0534304 -0.0534304
0.0369179 -0.0573099 -0.0573099
0.0526594 -0.0666582 -0.0666582
0.0619497 -0.0607654 -0.0607654
0.0461304 -0.0514947 -0.0514947
0.0494019 -0.0588329 -0.0588329
0.0393582 -0.0651375 -0.0651375
0.044203 -0.0822481 -0.0822481
0.0741205 -0.0856934 -0.0856934
0.0660211 -0.0685882 -0.0685882
0.0417865 -0.0734506 -0.0734506
0.0591334 -0.0837664 -0.0837664
0.070078 -0.0768979 -0.0768979
0.0526594 -0.0666582 -0.0666582
0.0559031 -0.0749697 -0.0749697
0.044203 -0.0822481 -0.0822481
0.0490015 -0.101292 -0.101292
0.0821625 -0.104737 -0.104737
0.0741205 -0.0856934 -0.0856934
0.0466079 -0.091529 -0.091529
0.0655547 -0.102811 -0.102811
0.0781487 -0.0949737 -0.0949737
0.0591334 -0.0837664 -0.0837664
0.0623506 -0.0930472 -0.0930472
0.0490015 -0.101292 -0.101292
0.0537554 -0.12226 -0.12226
0.0901458 -0.12571 -0.12571
0.0821625 -0.104737 -0.104737
0.051384 -0.111536 -0.111536
0.0719239 -0.123782 -0.123782
0.0861615 -0.114983 -0.114983
0.0655547 -0.102811 -0.102811
0.0687458 -0.113056 -0.113056
0.0537554 -0.12226 -0.12226
0.058465 -0.145142 -0.145142
0.0980696 -0.148601 -0.148601
0.0901458 -0.12571 -0.12571
0.0561158 -0.133462 -0.133462
0.0782408 -0.146669 -0.146669
0.0941153 -0.136917 -0.136917
0.0719239 -0.123782 -0.123782
0.0750889 -0.134987 -0.134987
0.058465 -0.145142 -0.145142
0.0631298 -0.169928 -0.169928
0.105932 -0.1734 -0.1734
0.0980696 -0.148601 -0.148601
0.060803 -0.157298 -0.157298
0.0845048 -0.171463 -0.171463
0.102009 -0.160763 -0.160763
0.0782408 -0.146669 -0.146669
0.0813795 -0.158829 -0.158829
0.0631298 -0.169928 -0.169928
0.0677491 -0.196609 -0.196609
0.113733 -0.200095 -0.200095
0.105932 -0.1734 -0.1734
0.0654452 -0.183033 -0.183033
0.0907149 -0.198152 -0.198152
0.109841 -0.186511 -0.186511
0.0845048 -0.171463 -0.171463
0.0876166 -0.184571 -0.184571
0.0677491 -0.196609 -0.196609
0.072322 -0.225173 -0.225173
0.12147 -0.228676 -0.228676
0.113733 -0.200095 -0.200095
0.0700415 -0.210656 -0.210656
0.0968699 -0.226725 -0.226725
0.117609 -0.21415 -0.21415
0.0907149 -0.198152 -0.198152
0.0937994 -0.212203 -0.212203
0.072322 -0.225173 -0.225173
0.0768472 -0.25561 -0.25561
0.129142 -0.259133 -0.259133
0.12147 -0.228676 -0.228676
0.0745906 -0.240158 -0.240158
0.102969 -0.257173 -0.257173
0.125314 -0.243671 -0.243671
0.0968699 -0.226725 -0.226725
0.0999264 -0.241716 -0.241716
0.0768472 -0.25561 -0.25561
0.0813236 -0.287911 -0.287911
0.136748 -0.291455 -0.291455
0.129142 -0.259133 -0.259133
0.0790916 -0.271529 -0.271529
0.10901 -0.289486 -0.289486
0.132953 -0.275061 -0.275061
0.102969 -0.257173 -0.257173
0.105997 -0.273097 -0.273097
0.0813236 -0.287911 -0.287911
0.08575 -0.322064 -0.322064
0.144287 -0.325631 -0.325631
0.136748 -0.291455 -0.291455
0.0835432 -0.304757 -0.304757
0.114993 -0.323652 -0.323652
0.140526 -0.308312 -0.308312
0.10901 -0.289486 -0.289486
0.112009 -0.306338 -0.306338
0.08575 -0.322064 -0.322064
0.0901252 -0.358059 -0.358059
0.151757 -0.361652 -0.361652
0.144287 -0.325631 -0.325631
0.0879441 -0.339832 -0.339832
0.120915 -0.359661 -0.359661
0.14803 -0.343412 -0.343412
0.114993 -0.323652 -0.323652
0.117962 -0.341427 -0.341427
0.0901252 -0.358059 -0.358059
0.094448 -0.395887 -0.395887
0.159157 -0.399507 -0.399507
0.151757 -0.361652 -0.361652
0.0922932 -0.376745 -0.376745
0.126777 -0.397503 -0.397503
0.155466 -0.380351 -0.380351
0.120915 -0.359661 -0.359661
0.123854 -0.378354 -0.378354
0.094448 -0.395887 -0.395887
0.0987172 -0.435535 -0.435535
0.166487 -0.439186 -0.439186
0.159157 -0.399507 -0.399507
0.0965894 -0.415484 -0.415484
0.132577 -0.437168 -0.437168
0.162831 -0.419119 -0.419119
0.126777 -0.397503 -0.397503
0.129685 -0.417108 -0.417108
0.0987172 -0.435535 -0.435535
0.102932 -0.476995 -0.476995
0.173744 -0.480677 -0.480677
0.166487 -0.439186 -0.439186
0.100831 -0.45604 -0.45604
0.138313 -0.478644 -0.478644
0.170124 -0.459705 -0.459705
0.132577 -0.437168 -0.437168
0.135453 -0.45768 -0.45768
0.102932 -0.476995 -0.476995
0.107091 -0.520256 -0.520256
0.180928 -0.523971 -0.523971
0.173744 -0.480677 -0.480677
0.105018 -0.498401 -0.498401
0.143984 -0.521923 -0.521923
0.177345 -0.502099 -0.502099
0.138313 -0.478644 -0.478644
0.141157 -0.500059 -0.500059
0.107091 -0.520256 -0.520256
0.111192 -0.565307 -0.565307
0.188038 -0.569057 -0.569057
0.180928 -0.523971 -0.523971
0.109149 -0.542558 -0.542558
0.14959 -0.566992 -0.566992
0.184492 -0.54629 -0.54629
0.143984 -0.521923 -0.521923
0.146796 -0.544234 -0.544234
0.111192 -0.565307 -0.565307
0.115236 -0.612138 -0.612138
0.195073 -0.615925 -0.615925
0.188038 -0.569057 -0.569057
0.113222 -0.588501 -0.588501
0.15513 -0.613843 -0.613843
0.191565 -0.592269 -0.592269
0.14959 -0.566992 -0.566992
0.152368 -0.590196 -0.590196
0.115236 -0.612138 -0.612138
0.119221 -0.660739 -0.660739
0.202031 -0.664564 -0.664564
0.195073 -0.615925 -0.615925
0.117236 -0.636218 -0.636218
0.160601 -0.662464 -0.662464
0.198561 -0.640024 -0.640024
0.15513 -0.613843 -0.613843
0.157874 -0.637933 -0.637933
0.119221 -0.660739 -0.660739
0.123146 -0.711098 -0.711098
0.208911 -0.714965 -0.714965
0.202031 -0.664564 -0.664564
0.121191 -0.685699 -0.685699
0.166004 -0.712845 -0.712845
0.205481 -0.689545 -0.689545
0.160601 -0.662464 -0.662464
0.163311 -0.687435 -0.687435
0.123146 -0.711098 -0.711098
0.12701 -0.763207 -0.763207
0.215714 -0.767115 -0.767115
0.208911 -0.714965 -0.714965
0.125086 -0.736935 -0.736935
0.171337 -0.764976 -0.764976
0.212322 -0.740822 -0.740822
0.166004 -0.712845 -0.712845
0.168679 -0.738692 -0.738692
0.12701 -0.763207 -0.763207
0.130812 -0.817055 -0.817055
0.222437 -0.821007 -0.821007
0.215714 -0.767115 -0.767115
0.128918 -0.789914 -0.789914
0.1766 -0.818846 -0.818846
0.219085 -0.793844 -0.793844
0.171337 -0.764976 -0.764976
0.173977 -0.791694 -0.791694
0.130812 -0.817055 -0.817055
0.13455 -0.87263 -0.87263
0.229079 -0.876627 -0.876627
0.222437 -0.821007 -0.821007
0.132689 -0.844627 -0.844627
0.18179 -0.874446 -0.874446
0.225768 -0.848601 -0.848601
0.1766 -0.818846 -0.818846
0.179204 -0.846431 -0.846431
0.13455 -0.87263 -0.87263
0.138225 -0.929924 -0.929924
0.23564 -0.933968 -0.933968
0.229079 -0.876627 -0.876627
0.136396 -0.901063 -0.901063
0.186908 -0.931764 -0.931764
0.23237 -0.905083 -0.905083
0.18179 -0.874446 -0.874446
0.184359 -0.90289 -0.90289
0.138225 -0.929924 -0.929924
0.141835 -0.988924 -0.988924
0.242119 -0.993017 -0.993017
0.23564 -0.933968 -0.933968
0.140038 -0.959211 -0.959211
0.191953 -0.99079 -0.99079
0.23889 -0.963279 -0.963279
0.186908 -0.931764 -0.931764
0.18944 -0.961064 -0.961064
0.141835 -0.988924 -0.988924
0.145379 -1.04962 -1.04962
0.248515 -1.05376 -1.05376
0.242119 -0.993017 -0.993017
0.143615 -1.01906 -1.01906
0.196923 -1.05151 -1.05151
0.245327 -1.02318 -1.02318
0.191953 -0.99079 -0.99079
0.194447 -1.02094 -1.02094
0.145379 -1.04962 -1.04962
0.148856 -1.11201 -1.11201
0.254827 -1.1162 -1.1162
0.248515 -1.05376 -1.05376
0.147126 -1.0806 -1.0806
0.201818 -1.11392 -1.11392
0.251681 -1.08477 -1.08477
0.196923 -1.05151 -1.05151
0.19938 -1.08251 -1.08251
0.148856 -1.11201 -1.11201
0.152266 -1.17607 -1.17607
0.261053 -1.18031 -1.18031
0.254827 -1.1162 -1.1162
0.15057 -1.14383 -1.14383
0.206636 -1.17801 -1.17801
0.257951 -1.14805 -1.14805
0.201818 -1.11392 -1.11392
0.204236 -1.14576 -1.14576
0.152266 -1.17607 -1.17607
0.155608 -1.24179 -1.24179
0.267194 -1.2461 -1.2461
0.261053 -1.18031 -1.18031
0.153946 -1.20872 -1.20872
0.211377 -1.24377 -1.24377
0.264135 -1.213 -1.213
0.206636 -1.17801 -1.17801
0.209016 -1.21068 -1.21068
0.155608 -1.24179 -1.24179
0.15888 -1.30918 -1.30918
0.273249 -1.31353 -1.31353
0.267194 -1.2461 -1.2461
0.157253 -1.27528 -1.27528
0.216041 -1.31118 -1.31118
0.270233 -1.27961 -1.27961
0.211377 -1.24377 -1.24377
0.213719 -1.27727 -1.27727
0.15888 -1.30918 -1.30918
0.162083 -1.3782 -1.3782
0.279216 -1.38262 -1.38262
0.273249 -1.31353 -1.31353
0.16049 -1.34349 -1.34349
0.220626 -1.38024 -1.38024
0.276243 -1.34787 -1.34787
0.216041 -1.31118 -1.31118
0.218343 -1.3455 -1.3455
0.162083 -1.3782 -1.3782
0.165215 -1.44887 -1.44887
0.285095 -1.45334 -1.45334
0.279216 -1.38262 -1.38262
0.163658 -1.41333 -1.41333
0.225131 -1.45093 -1.45093
0.282167 -1.41777 -1.41777
0.220626 -1.38024 -1.38024
0.222889 -1.41538 -1.41538
0.165215 -1.44887 -1.44887
0.168275 -1.52115 -1.52115
0.290885 -1.52569 -1.52569
0.285095 -1.45334 -1.45334
0.166754 -1.48481 -1.48481
0.229556 -1.52325 -1.52325
0.288001 -1.48931 -1.48931
0.225131 -1.45093 -1.45093
0.227354 -1.48689 -1.48689
0.168275 -1.52115 -1.52115
0.171263 -1.59506 -1.59506
0.296585 -1.59965 -1.59965
0.290885 -1.52569 -1.52569
0.169778 -1.5579 -1.5579
0.233901 -1.59718 -1.59718
0.293747 -1.56247 -1.56247
0.229556 -1.52325 -1.52325
0.231739 -1.56001 -1.56001
0.171263 -1.59506 -1.59506
0.174178 -1.67056 -1.67056
0.302196 -1.67521 -1.67521
0.296585 -1.59965 -1.59965
0.172729 -1.63261 -1.63261
0.238163 -1.67272 -1.67272
0.299402 -1.63723 -1.63723
0.233901 -1.59718 -1.59718
0.236042 -1.63475 -1.63475
0.174178 -1.67056 -1.67056
0.177019 -1.74766 -1.74766
0.307715 -1.75238 -1.75238
0.302196 -1.67521 -1.67521
0.175607 -1.70891 -1.70891
0.242343 -1.74985 -1.74985
0.304966 -1.7136 -1.7136
0.238163 -1.67272 -1.67272
0.240264 -1.71108 -1.71108
0.177019 -1.74766 -1.74766
0.179786 -1.82634 -1.82634
0.313142 -1.83112 -1.83112
0.307715 -1.75238 -1.75238
0.178412 -1.7868 -1.7868
0.246441 -1.82856 -1.82856
0.31044 -1.79155 -1.79155
0.242343 -1.74985 -1.74985
0.244402 -1.78901 -1.78901
0.179786 -1.82634 -1.82634
0.182478 -1.90659 -1.90659
0.318477 -1.91144 -1.91144
0.313142 -1.83112 -1.83112
0.181141 -1.86627 -1.86627
0.250454 -1.90885 -1.90885
0.315821 -1.87108 -1.87108
0.246441 -1.82856 -1.82856
0.248458 -1.86851 -1.86851
0.182478 -1.90659 -1.90659
0.185094 -1.98841 -1.98841
0.323719 -1.99332 -1.99332
0.318477 -1.91144 -1.91144
0.183795 -1.94731 -1.94731
0.254383 -1.9907 -1.9907
0.321109 -1.95219 -1.95219
0.250454 -1.90885 -1.90885
0.252429 -1.94958 -1.94958
0.185094 -1.98841 -1.98841
0.187634 -2.07178 -2.07178
0.328867 -2.07676 -2.07676
0.323719 -1.99332 -1.99332
0.186373 -2.0299 -2.0299
0.258227 -2.0741 -2.0741
0.326304 -2.03485 -2.03485
0.254383 -1.9907 -1.9907
0.256316 -2.03221 -2.03221
0.187634 -2.07178 -2.07178
0.190097 -2.15669 -2.15669
0.333921 -2.16174 -2.16174
0.328867 -2.07676 -2.07676
0.188875 -2.11404 -2.11404
0.261986 -2.15905 -2.15905
0.331405 -2.11906 -2.11906
0.258227 -2.0741 -2.0741
0.260117 -2.11638 -2.11638
0.190097 -2.15669 -2.15669
0.192482 -2.24313 -2.24313
0.33888 -2.24825 -2.24825
0.333921 -2.16174 -2.16174
0.191299 -2.19972 -2.19972
0.265658 -2.24553 -2.24553
0.336412 -2.2048 -2.2048
0.261986 -2.15905 -2.15905
0.263833 -2.2021 -2.2021
0.192482 -2.24313 -2.24313
0.19479 -2.33109 -2.33109
0.343743 -2.33628 -2.33628
0.33888 -2.24825 -2.24825
0.193646 -2.28692 -2.28692
0.269244 -2.33352 -2.33352
0.341323 -2.29207 -2.29207
0.265658 -2.24553 -2.24553
0.267462 -2.28934 -2.28934
0.19479 -2.33109 -2.33109
0.197019 -2.42056 -2.42056
0.348511 -2.42582 -2.42582
0.343743 -2.33628 -2.33628
0.195914 -2.37564 -2.37564
0.272742 -2.42303 -2.42303
0.346139 -2.38086 -2.38086
0.269244 -2.33352 -2.33352
0.271004 -2.37809 -2.37809
0.197019 -2.42056 -2.42056
0.199169 -2.51154 -2.51154
0.353182 -2.51687 -2.51687
0.348511 -2.42582 -2.42582
0.198104 -2.46586 -2.46586
0.276153 -2.51404 -2.51404
0.350858 -2.47116 -2.47116
0.272742 -2.42303 -2.42303
0.274458 -2.46835 -2.46835
0.199169 -2.51154 -2.51154
0.201239 -2.604 -2.604
0.357756 -2.6094 -2.6094
0.353182 -2.51687 -2.51687
0.200214 -2.55758 -2.55758
0.279475 -2.60654 -2.60654
0.355481 -2.56295 -2.56295
0.276153 -2.51404 -2.51404
0.277825 -2.56011 -2.56011
0.201239 -2.604 -2.604
0.203229 -2.69794 -2.69794
0.362232 -2.70342 -2.70342
0.357756 -2.6094 -2.6094
0.202244 -2.65078 -2.65078
0.282708 -2.70052 -2.70052
0.360006 -2.65623 -2.65623
0.279475 -2.60654 -2.60654
0.281103 -2.65335 -2.65335
0.203229 -2.69794 -2.69794
0.205138 -2.79335 -2.79335
0.366611 -2.79891 -2.79891
0.362232 -2.70342 -2.70342
0.204194 -2.74546 -2.74546
0.285852 -2.79597 -2.79597
0.364434 -2.75098 -2.75098
0.282708 -2.70052 -2.70052
0.284291 -2.74806 -2.74806
0.205138 -2.79335 -2.79335
0.206967 -2.89022 -2.89022
0.370891 -2.89585 -2.89585
0.366611 -2.79891 -2.79891
0.206063 -2.8416 -2.8416
0.288906 -2.89288 -2.89288
0.368763 -2.8472 -2.8472
0.285852 -2.79597 -2.79597
0.28739 -2.84424 -2.84424
0.206967 -2.89022 -2.89022
0.208713 -2.98854 -2.98854
0.375072 -2.99424 -2.99424
0.370891 -2.89585 -2.89585
0.20785 -2.9392 -2.9392
0.29187 -2.99124 -2.99124
0.372994 -2.94487 -2.94487
0.288906 -2.89288 -2.89288
0.2904 -2.94188 -2.94188
0.208713 -2.98854 -2.98854
0.210378 -3.08829 -3.08829
0.379154 -3.09408 -3.09408
0.375072 -2.99424 -2.99424
0.209556 -3.03824 -3.03824
0.294744 -3.09103 -3.09103
0.377126 -3.04398 -3.04398
0.29187 -2.99124 -2.99124
0.293319 -3.04096 -3.04096
0.210378 -3.08829 -3.08829
0.211961 -3.18948 -3.18948
0.383137 -3.19534 -3.19534
0.379154 -3.09408 -3.09408
0.21118 -3.13871 -3.13871
0.297526 -3.19226 -3.19226
0.381158 -3.14453 -3.14453
0.294744 -3.09103 -3.09103
0.296147 -3.14147 -3.14147
0.211961 -3.18948 -3.18948
0.213461 -3.29208 -3.29208
0.387019 -3.29802 -3.29802
0.383137 -3.19534 -3.19534
0.212721 -3.2406 -3.2406
0.300217 -3.2949 -3.2949
0.38509 -3.2465 -3.2465
0.297526 -3.19226 -3.19226
0.298883 -3.2434 -3.2434
0.213461 -3.29208 -3.29208
0.214878 -3.39609 -3.39609
0.3908 -3.4021 -3.4021
0.387019 -3.29802 -3.29802
0.21418 -3.34391 -3.34391
0.302817 -3.39894 -3.39894
0.388922 -3.34988 -3.34988
0.300217 -3.2949 -3.2949
0.301529 -3.34675 -3.34675
0.214878 -3.39609 -3.39609
0.216211 -3.50149 -3.50149
0.394481 -3.50759 -3.50759
0.3908 -3.4021 -3.4021
0.215555 -3.44861 -3.44861
0.305324 -3.50439 -3.50439
0.392653 -3.45467 -3.45467
0.302817 -3.39894 -3.39894
0.304082 -3.45149 -3.45149
0.216211 -3.50149 -3.50149
0.217461 -3.60828 -3.60828
0.398061 -3.61446 -3.61446
0.394481 -3.50759 -3.50759
0.216846 -3.55471 -3.55471
0.307739 -3.61122 -3.61122
0.396284 -3.56085 -3.56085
0.305324 -3.50439 -3.50439
0.306543 -3.55763 -3.55763
0.217461 -3.60828 -3.60828
0.218626 -3.71645 -3.71645
0.401539 -3.7227 -3.7227
0.398061 -3.61446 -3.61446
0.218054 -3.66219 -3.66219
0.31006 -3.71943 -3.71943
0.399813 -3.66841 -3.66841
0.307739 -3.61122 -3.61122
0.308911 -3.66515 -3.66515
0.218626 -3.71645 -3.71645
0.219707 -3.82598 -3.82598
0.404915 -3.83232 -3.83232
0.401539 -3.7227 -3.7227
0.219177 -3.77104 -3.77104
0.312289 -3.829 -3.829
0.40324 -3.77734 -3.77734
0.31006 -3.71943 -3.71943
0.311186 -3.77405 -3.77405
0.219707 -3.82598 -3.82598
0.220704 -3.93687 -3.93687
0.40819 -3.94329 -3.94329
0.404915 -3.83232 -3.83232
0.220216 -3.88125 -3.88125
0.314425 -3.93993 -3.93993
0.406565 -3.88763 -3.88763
0.312289 -3.829 -3.829
0.313369 -3.8843 -3.8843
0.220704 -3.93687 -3.93687
0.221615 -4.0491 -4.0491
0.411362 -4.0556 -4.0556
0.40819 -3.94329 -3.94329
0.22117 -3.99281 -3.99281
0.316466 -4.0522 -4.0522
0.409789 -3.99927 -3.99927
0.314425 -3.93993 -3.93993
0.315457 -3.9959 -3.9959
0.221615 -4.0491 -4.0491
0.222441 -4.16266 -4.16266
0.414431 -4.16925 -4.16925
0.411362 -4.0556 -4.0556
0.222039 -4.10571 -4.10571
0.318414 -4.16581 -4.16581
0.412909 -4.11226 -4.11226
0.316466 -4.0522 -4.0522
0.317452 -4.10884 -4.10884
0.222441 -4.16266 -4.16266
0.223182 -4.27755 -4.27755
0.417398 -4.28422 -4.28422
0.414431 -4.16925 -4.16925
0.222822 -4.21994 -4.21994
0.320268 -4.28075 -4.28075
0.415928 -4.22657 -4.22657
0.318414 -4.16581 -4.16581
0.319353 -4.22312 -4.22312
0.223182 -4.27755 -4.27755
0.223837 -4.39376 -4.39376
0.420262 -4.40051 -4.40051
0.417398 -4.28422 -4.28422
0.22352 -4.33549 -4.33549
0.322027 -4.39699 -4.39699
0.418843 -4.3422 -4.3422
0.320268 -4.28075 -4.28075
0.321159 -4.33871 -4.33871
0.223837 -4.39376 -4.39376
0.224406 -4.51127 -4.51127
0.423022 -4.5181 -4.5181
0.420262 -4.40051 -4.40051
0.224132 -4.45235 -4.45235
0.323692 -4.51454 -4.51454
0.421655 -4.45914 -4.45914
0.322027 -4.39699 -4.39699
0.322872 -4.45561 -4.45561
0.224406 -4.51127 -4.51127
0.224889 -4.63007 -4.63007
0.425679 -4.63698 -4.63698
0.423022 -4.5181 -4.5181
0.224659 -4.57051 -4.57051
0.325262 -4.63339 -4.63339
0.424363 -4.57738 -4.57738
0.323692 -4.51454 -4.51454
0.324489 -4.5738 -4.5738
0.224889 -4.63007 -4.63007
0.225286 -4.75015 -4.75015
0.428232 -4.75715 -4.75715
0.425679 -4.63698 -4.63698
0.225099 -4.68995 -4.68995
0.326737 -4.75351 -4.75351
0.426968 -4.69691 -4.69691
0.325262 -4.63339 -4.63339
0.326012 -4.69329 -4.69329
0.225286 -4.75015 -4.75015
0.225597 -4.87151 -4.87151
0.430682 -4.87859 -4.87859
0.428232 -4.75715 -4.75715
0.225453 -4.81067 -4.81067
0.328117 -4.87491 -4.87491
0.42947 -4.81771 -4.81771
0.326737 -4.75351 -4.75351
0.327439 -4.81406 -4.81406
0.225597 -4.87151 -4.87151
0.225821 -4.99412 -4.99412
0.433027 -5.00129 -5.00129
0.430682 -4.87859 -4.87859
0.22572 -4.93266 -4.93266
0.329402 -4.99758 -4.99758
0.431868 -4.93979 -4.93979
0.328117 -4.87491 -4.87491
0.328772 -4.93609 -4.93609
0.225821 -4.99412 -4.99412
0.225958 -5.11799 -5.11799
0.435269 -5.12525 -5.12525
0.433027 -5.00129 -5.00129
0.225901 -5.0559 -5.0559
0.330592 -5.12149 -5.12149
0.434161 -5.06312 -5.06312
0.329402 -4.99758 -4.99758
0.330009 -5.05938 -5.05938
0.225958 -5.11799 -5.11799
0.226009 -5.24311 -5.24311
0.437407 -5.25045 -5.25045
0.435269 -5.12525 -5.12525
0.225995 -5.1804 -5.1804
0.331686 -5.24664 -5.24664
0.436351 -5.18769 -5.18769
0.330592 -5.12149 -5.12149
0.331151 -5.18391 -5.18391
0.226009 -5.24311 -5.24311
0.225973 -5.36945 -5.36945
0.43944 -5.37687 -5.37687
0.437407 -5.25045 -5.25045
0.226002 -5.30612 -5.30612
0.332684 -5.37303 -5.37303
0.438436 -5.31351 -5.31351
0.331686 -5.24664 -5.24664
0.332197 -5.30968 -5.30968
0.225973 -5.36945 -5.36945
0.225849 -5.49701 -5.49701
0.441369 -5.50452 -5.50452
0.43944 -5.37687 -5.37687
0.225922 -5.43308 -5.43308
0.333587 -5.50064 -5.50064
0.440417 -5.44055 -5.44055
0.332684 -5.37303 -5.37303
0.333148 -5.43668 -5.43668
0.225849 -5.49701 -5.49701
0.225639 -5.62578 -5.62578
0.443193 -5.63338 -5.63338
0.441369 -5.50452 -5.50452
0.225755 -5.56125 -5.56125
0.334394 -5.62945 -5.62945
0.442294 -5.5688 -5.5688
0.333587 -5.50064 -5.50064
0.334003 -5.56489 -5.56489
0.225639 -5.62578 -5.62578
0.225342 -5.75576 -5.75576
0.444913 -5.76344 -5.76344
0.443193 -5.63338 -5.63338
0.225501 -5.69062 -5.69062
0.335106 -5.75947 -5.75947
0.444066 -5.69826 -5.69826
0.334394 -5.62945 -5.62945
0.334762 -5.69431 -5.69431
0.225342 -5.75576 -5.75576
0.224958 -5.88692 -5.88692
0.446529 -5.89469 -5.89469
0.444913 -5.76344 -5.76344
0.225161 -5.82119 -5.82119
0.335722 -5.89068 -5.89068
0.445734 -5.82891 -5.82891
0.335106 -5.75947 -5.75947
0.335426 -5.82493 -5.82493
0.224958 -5.88692 -5.88692
0.224486 -6.01926 -6.01926
0.44804 -6.02712 -6.02712
0.446529 -5.89469 -5.89469
0.224733 -5.95295 -5.95295
0.336241 -6.02306 -6.02306
0.447298 -5.96075 -5.96075
0.335722 -5.89068 -5.89068
0.335993 -5.95672 -5.95672
0.224486 -6.01926 -6.01926
0.223927 -6.15278 -6.15278
0.449447 -6.16071 -6.16071
0.44804 -6.02712 -6.02712
0.224218 -6.08587 -6.08587
0.336665 -6.15662 -6.15662
0.448757 -6.09377 -6.09377
0.336241 -6.02306 -6.02306
0.336465 -6.0897 -6.0897
0.223927 -6.15278 -6.15278
0.223282 -6.28745 -6.28745
0.450749 -6.29547 -6.29547
0.449447 -6.16071 -6.16071
0.223615 -6.21997 -6.21997
0.336994 -6.29133 -6.29133
0.450111 -6.22795 -6.22795
0.336665 -6.15662 -6.15662
0.336841 -6.22383 -6.22383
0.223282 -6.28745 -6.28745
0.222549 -6.42327 -6.42327
0.451947 -6.43137 -6.43137
0.450749 -6.29547 -6.29547
0.222926 -6.35521 -6.35521
0.337226 -6.4272 -6.4272
0.451361 -6.36328 -6.36328
0.336994 -6.29133 -6.29133
0.337122 -6.35912 -6.35912
0.222549 -6.42327 -6.42327
0.221729 -6.56022 -6.56022
0.45304 -6.56841 -6.56841
0.451947 -6.43137 -6.43137
0.22215 -6.4916 -6.4916
0.337363 -6.5642 -6.5642
0.452507 -6.49975 -6.49975
0.337226 -6.4272 -6.4272
0.337306 -6.49555 -6.49555
0.221729 -6.56022 -6.56022
0.220822 -6.69831 -6.69831
0.454029 -6.70658 -6.70658
0.45304 -6.56841 -6.56841
0.221286 -6.62912 -6.62912
0.337404 -6.70233 -6.70233
0.453548 -6.63736 -6.63736
0.337363 -6.5642 -6.5642
0.337395 -6.63312 -6.63312
0.220822 -6.69831 -6.69831
0.219828 -6.83751 -6.83751
0.454914 -6.84587 -6.84587
0.454029 -6.70658 -6.70658
0.220336 -6.76777 -6.76777
0.337349 -6.84157 -6.84157
0.454485 -6.77609 -6.77609
0.337404 -6.70233 -6.70233
0.337388 -6.77181 -6.77181
0.219828 -6.83751 -6.83751
0.218747 -6.97782 -6.97782
0.455694 -6.98627 -6.98627
0.454914 -6.84587 -6.84587
0.219298 -6.90753 -6.90753
0.337199 -6.98192 -6.98192
0.455317 -6.91593 -6.91593
0.337349 -6.84157 -6.84157
0.337286 -6.91161 -6.91161
0.218747 -6.97782 -6.97782
0.217579 -7.11922 -7.11922
0.456371 -7.12776 -7.12776
0.455694 -6.98627 -6.98627
0.218174 -7.04838 -7.04838
0.336953 -7.12337 -7.12337
0.456045 -7.05688 -7.05688
0.337199 -6.98192 -6.98192
0.337088 -7.05251 -7.05251
0.217579 -7.11922 -7.11922
0.216325 -7.26172 -7.26172
0.456943 -7.27033 -7.27033
0.456371 -7.12776 -7.12776
0.216963 -7.19034 -7.19034
0.336612 -7.26591 -7.26591
0.45667 -7.19891 -7.19891
0.336953 -7.12337 -7.12337
0.336794 -7.19451 -7.19451
0.216325 -7.26172 -7.26172
0.214984 -7.40528 -7.40528
0.457411 -7.41399 -7.41399
0.456943 -7.27033 -7.27033
0.215665 -7.33337 -7.33337
0.336176 -7.40952 -7.40952
0.45719 -7.34203 -7.34203
0.336612 -7.26591 -7.26591
0.336406 -7.33758 -7.33758
0.214984 -7.40528 -7.40528
0.213557 -7.54992 -7.54992
0.457775 -7.55871 -7.55871
0.457411 -7.41399 -7.41399
0.214281 -7.47747 -7.47747
0.335644 -7.5542 -7.5542
0.457606 -7.48621 -7.48621
0.336176 -7.40952 -7.40952
0.335922 -7.48173 -7.48173
0.213557 -7.54992 -7.54992
0.212043 -7.69561 -7.69561
0.458036 -7.70448 -7.70448
0.457775 -7.55871 -7.55871
0.212811 -7.62263 -7.62263
0.335018 -7.69993 -7.69993
0.457919 -7.63146 -7.63146
0.335644 -7.5542 -7.5542
0.335343 -7.62693 -7.62693
0.212043 -7.69561 -7.69561
0.210443 -7.84234 -7.84234
0.458194 -7.8513 -7.8513
0.458036 -7.70448 -7.70448
0.211254 -7.76885 -7.76885
0.334296 -7.84671 -7.84671
0.458128 -7.77776 -7.77776
0.335018 -7.69993 -7.69993
0.334669 -7.77319 -7.77319
0.210443 -7.84234 -7.84234
0.208757 -7.99011 -7.99011
0.458248 -7.99915 -7.99915
0.458194 -7.8513 -7.8513
0.209611 -7.9161 -7.9161
0.33348 -7.99452 -7.99452
0.458233 -7.9251 -7.9251
0.334296 -7.84671 -7.84671
0.3339 -7.92049 -7.92049
0.208757 -7.99011 -7.99011
0.206986 -8.13891 -8.13891
0.458198 -8.14803 -8.14803
0.458248 -7.99915 -7.99915
0.207882 -8.06438 -8.06438
0.33257 -8.14336 -8.14336
0.458236 -8.07346 -8.07346
0.33348 -7.99452 -7.99452
0.333037 -8.06881 -8.06881
0.206986 -8.13891 -8.13891
0.205128 -8.28872 -8.28872
0.458046 -8.29792 -8.29792
0.458198 -8.14803 -8.14803
0.206068 -8.21369 -8.21369
0.331565 -8.29321 -8.29321
0.458135 -8.22285 -8.22285
0.33257 -8.14336 -8.14336
0.332079 -8.21816 -8.21816
0.205128 -8.28872 -8.28872
0.203186 -8.43953 -8.43953
0.457791 -8.44882 -8.44882
0.458046 -8.29792 -8.29792
0.204168 -8.364 -8.364
0.330466 -8.44406 -8.44406
0.457932 -8.37324 -8.37324
0.331565 -8.29321 -8.29321
0.331028 -8.36851 -8.36851
0.203186 -8.43953 -8.43953
0.201158 -8.59134 -8.59134
0.457434 -8.6007 -8.6007
0.457791 -8.44882 -8.44882
0.202182 -8.51531 -8.51531
0.329274 -8.59591 -8.59591
0.457625 -8.52464 -8.52464
0.330466 -8.44406 -8.44406
0.329882 -8.51987 -8.51987
0.201158 -8.59134 -8.59134
0.199045 -8.74413 -8.74413
0.456974 -8.75357 -8.75357
0.457434 -8.6007 -8.6007
0.200112 -8.66761 -8.66761
0.327987 -8.74874 -8.74874
0.457217 -8.67702 -8.67702
0.329274 -8.59591 -8.59591
0.328642 -8.67221 -8.67221
0.199045 -8.74413 -8.74413
0.196847 -8.89789 -8.89789
0.456412 -8.90742 -8.90742
0.456974 -8.75357 -8.75357
0.197957 -8.82089 -8.82089
0.326608 -8.90255 -8.90255
0.456706 -8.83038 -8.83038
0.327987 -8.74874 -8.74874
0.327309 -8.82553 -8.82553
0.196847 -8.89789 -8.89789
0.194565 -9.05261 -9.05261
0.455748 -9.06222 -9.06222
0.456412 -8.90742 -8.90742
0.195717 -8.97513 -8.97513
0.325135 -9.05732 -9.05732
0.456093 -8.9847 -8.9847
0.326608 -8.90255 -8.90255
0.325883 -8.97981 -8.97981
0.194565 -9.05261 -9.05261
0.192199 -9.20829 -9.20829
0.454983 -9.21798 -9.21798
0.455748 -9.06222 -9.06222
0.193392 -9.13033 -9.13033
0.323569 -9.21303 -9.21303
0.455379 -9.13998 -9.13998
0.325135 -9.05732 -9.05732
0.324363 -9.13506 -9.13506
0.192199 -9.20829 -9.20829
0.189749 -9.36491 -9.36491
0.454117 -9.37468 -9.37468
0.454983 -9.21798 -9.21798
0.190984 -9.28648 -9.28648
0.32191 -9.36969 -9.36969
0.454563 -9.29621 -9.29621
0.323569 -9.21303 -9.21303
0.322751 -9.29125 -9.29125
0.189749 -9.36491 -9.36491
0.187215 -9.52246 -9.52246
0.453149 -9.53231 -9.53231
0.454117 -9.37468 -9.37468
0.188492 -9.44357 -9.44357
0.32016 -9.52729 -9.52729
0.453646 -9.45338 -9.45338
0.32191 -9.36969 -9.36969
0.321047 -9.44837 -9.44837
0.187215 -9.52246 -9.52246
0.184597 -9.68093 -9.68093
0.452081 -9.69086 -9.69086
0.453149 -9.53231 -9.53231
0.185916 -9.60158 -9.60158
0.318317 -9.6858 -9.6858
0.452628 -9.61147 -9.61147
0.32016 -9.52729 -9.52729
0.31925 -9.60643 -9.60643
0.184597 -9.68093 -9.68093
0.181897 -9.84032 -9.84032
0.450913 -9.85033 -9.85033
0.452081 -9.69086 -9.69086
0.183258 -9.76051 -9.76051
0.316383 -9.84522 -9.84522
0.451509 -9.77048 -9.77048
0.318317 -9.6858 -9.6858
0.317361 -9.7654 -9.7654
0.181897 -9.84032 -9.84032
0.179114 -10.0006 -10.0006
0.449644 -10.0107 -10.0107
0.450913 -9.85033 -9.85033
0.180516 -9.92035 -9.92035
0.314357 -10.0055 -10.0055
0.450291 -9.9304 -9.9304
0.316383 -9.84522 -9.84522
0.315381 -9.92527 -9.92527
0.179114 -10.0006 -10.0006
0.176249 -10.1618 -10.1618
0.448276 -10.1719 -10.1719
0.449644 -10.0107 -10.0107
0.177692 -10.0811 -10.0811
0.31224 -10.1668 -10.1668
0.448972 -10.0912 -10.0912
0.314357 -10.0055 -10.0055
0.31331 -10.086 -10.086
0.176249 -10.1618 -10.1618
0.173301 -10.3238 -10.3238
0.446808 -10.3341 -10.3341
0.448276 -10.1719 -10.1719
0.174785 -10.2427 -10.2427
0.310032 -10.3289 -10.3289
0.447554 -10.2529 -10.2529
0.31224 -10.1668 -10.1668
0.311147 -10.2477 -10.2477
0.173301 -10.3238 -10.3238
0.170272 -10.4868 -10.4868
0.445241 -10.4971 -10.4971
0.446808 -10.3341 -10.3341
0.171797 -10.4052 -10.4052
0.307734 -10.4918 -10.4918
0.446037 -10.4155 -10.4155
0.310032 -10.3289 -10.3289
0.308894 -10.4102 -10.4102
0.170272 -10.4868 -10.4868
0.167161 -10.6505 -10.6505
0.443576 -10.6609 -10.6609
0.445241 -10.4971 -10.4971
0.168727 -10.5685 -10.5685
0.305346 -10.6556 -10.6556
0.444421 -10.5789 -10.5789
0.307734 -10.4918 -10.4918
0.306551 -10.5736 -10.5736
0.167161 -10.6505 -10.6505
0.16397 -10.8152 -10.8152
0.441812 -10.8256 -10.8256
0.443576 -10.6609 -10.6609
0.165576 -10.7328 -10.7328
0.302869 -10.8203 -10.8203
0.442706 -10.7432 -10.7432
0.305346 -10.6556 -10.6556
0.304119 -10.7379 -10.7379
0.16397 -10.8152 -10.8152
0.160698 -10.9807 -10.9807
0.439951 -10.9912 -10.9912
0.441812 -10.8256 -10.8256
0.162344 -10.8978 -10.8978
0.300302 -10.9858 -10.9858
0.440894 -10.9083 -10.9083
0.302869 -10.8203 -10.8203
0.301596 -10.903 -10.903
0.160698 -10.9807 -10.9807
0.157346 -11.147 -11.147
0.437991 -11.1576 -11.1576
0.439951 -10.9912 -10.9912
0.159032 -11.0637 -11.0637
0.297646 -11.1522 -11.1522
0.438983 -11.0743 -11.0743
0.300302 -10.9858 -10.9858
0.298985 -11.0689 -11.0689
0.157346 -11.147 -11.147
0.153914 -11.3141 -11.3141
0.435935 -11.3248 -11.3248
0.437991 -11.1576 -11.1576
0.15564 -11.2304 -11.2304
0.294902 -11.3193 -11.3193
0.436976 -11.2411 -11.2411
0.297646 -11.1522 -11.1522
0.296285 -11.2356 -11.2356
0.153914 -11.3141 -11.3141
0.150402 -11.482 -11.482
0.433782 -11.4928 -11.4928
0.435935 -11.3248 -11.3248
0.152168 -11.3979 -11.3979
0.29207 -11.4873 -11.4873
0.434871 -11.4087 -11.4087
0.294902 -11.3193 -11.3193
0.293497 -11.4032 -11.4032
0.150402 -11.482 -11.482
0.146812 -11.6507 -11.6507
0.431533 -11.6616 -11.6616
0.433782 -11.4928 -11.4928
0.148617 -11.5663 -11.5663
0.28915 -11.6561 -11.6561
0.43267 -11.5771 -11.5771
0.29207 -11.4873 -11.4873
0.290621 -11.5716 -11.5716
0.146812 -11.6507 -11.6507
0.143143 -11.8202 -11.8202
0.429188 -11.8311 -11.8311
0.431533 -11.6616 -11.6616
0.144987 -11.7354 -11.7354
0.286143 -11.8256 -11.8256
0.430373 -11.7463 -11.7463
0.28915 -11.6561 -11.6561
0.287657 -11.7407 -11.7407
0.143143 -11.8202 -11.8202
0.139396 -11.9905 -11.9905
0.426748 -12.0015 -12.0015
0.429188 -11.8311 -11.8311
0.141279 -11.9053 -11.9053
0.283049 -11.9959 -11.9959
0.42798 -11.9162 -11.9162
0.286143 -11.8256 -11.8256
0.284607 -11.9107 -11.9107
0.139396 -11.9905 -11.9905
0.135572 -12.1616 -12.1616
0.424213 -12.1726 -12.1726
0.426748 -12.0015 -12.0015
0.137494 -12.076 -12.076
0.279869 -12.167 -12.167
0.425492 -12.087 -12.087
0.283049 -11.9959 -11.9959
0.28147 -12.0814 -12.0814
0.135572 -12.1616 -12.1616
0.13167 -12.3334 -12.3334
0.421583 -12.3445 -12.3445
0.424213 -12.1726 -12.1726
0.133631 -12.2474 -12.2474
0.276604 -12.3389 -12.3389
0.42291 -12.2585 -12.2585
0.279869 -12.167 -12.167
0.278247 -12.2529 -12.2529
0.13167 -12.3334 -12.3334
0.127692 -12.506 -12.506
0.418859 -12.5171 -12.5171
0.421583 -12.3445 -12.3445
0.129691 -12.4196 -12.4196
0.273253 -12.5115 -12.5115
0.420233 -12.4307 -12.4307
0.276604 -12.3389 -12.3389
0.274939 -12.4251 -12.4251
0.127692 -12.506 -12.506
0.123637 -12.6793 -12.6793
0.416042 -12.6905 -12.6905
0.418859 -12.5171 -12.5171
0.125674 -12.5925 -12.5925
0.269817 -12.6848 -12.6848
0.417462 -12.6037 -12.6037
0.273253 -12.5115 -12.5115
0.271545 -12.5981 -12.5981
0.123637 -12.6793 -12.6793
0.119507 -12.8533 -12.8533
0.413132 -12.8646 -12.8646
0.416042 -12.6905 -12.6905
0.121582 -12.7662 -12.7662
0.266296 -12.8589 -12.8589
0.414599 -12.7775 -12.7775
0.269817 -12.6848 -12.6848
0.268067 -12.7718 -12.7718
0.119507 -12.8533 -12.8533
0.115302 -13.028 -13.028
0.410129 -13.0394 -13.0394
0.413132 -12.8646 -12.8646
0.117414 -12.9406 -12.9406
0.262692 -13.0336 -13.0336
0.411642 -12.9519 -12.9519
0.266296 -12.8589 -12.8589
0.264505 -12.9462 -12.9462
0.115302 -13.028 -13.028
0.111021 -13.2035 -13.2035
0.407034 -13.2149 -13.2149
0.410129 -13.0394 -13.0394
0.113171 -13.1157 -13.1157
0.259005 -13.2091 -13.2091
0.408593 -13.1271 -13.1271
0.262692 -13.0336 -13.0336
0.260859 -13.1213 -13.1213
0.111021 -13.2035 -13.2035
0.106667 -13.3796 -13.3796
0.403848 -13.3911 -13.3911
0.407034 -13.2149 -13.2149
0.108854 -13.2915 -13.2915
0.255234 -13.3853 -13.3853
0.405453 -13.3029 -13.3029
0.259005 -13.2091 -13.2091
0.25713 -13.2971 -13.2971
0.106667 -13.3796 -13.3796
0.102239 -13.5564 -13.5564
0.400571 -13.568 -13.568
0.403848 -13.3911 -13.3911
0.104462 -13.4679 -13.4679
0.251382 -13.5621 -13.5621
0.402221 -13.4795 -13.4795
0.255234 -13.3853 -13.3853
0.253318 -13.4736 -13.4736
0.102239 -13.5564 -13.5564
0.097738 -13.7339 -13.7339
0.397203 -13.7456 -13.7456
0.400571 -13.568 -13.568
0.0999977 -13.6451 -13.6451
0.247447 -13.7397 -13.7397
0.398898 -13.6567 -13.6567
0.251382 -13.5621 -13.5621
0.249425 -13.6508 -13.6508
0.097738 -13.7339 -13.7339
0.0931643 -13.9121 -13.9121
0.393746 -13.9238 -13.9238
0.397203 -13.7456 -13.7456
0.0954602 -13.8229 -13.8229
0.243432 -13.9179 -13.9179
0.395486 -13.8346 -13.8346
0.247447 -13.7397 -13.7397
0.24545 -13.8287 -13.8287
0.0931643 -13.9121 -13.9121
0.0885185 -14.0909 -14.0909
0.390199 -14.1027 -14.1027
0.393746 -13.9238 -13.9238
0.0908504 -14.0014 -14.0014
0.239335 -14.0967 -14.0967
0.391983 -14.0131 -14.0131
0.243432 -13.9179 -13.9179
0.241393 -14.0072 -14.0072
0.0885185 -14.0909 -14.0909
0.0838013 -14.2704 -14.2704
0.386563 -14.2822 -14.2822
0.390199 -14.1027 -14.1027
0.0861688 -14.1806 -14.1806
0.235159 -14.2762 -14.2762
0.388392 -14.1923 -14.1923
0.239335 -14.0967 -14.0967
0.237257 -14.1864 -14.1864
0.0838013 -14.2704 -14.2704
0.0790131 -14.4505 -14.4505
0.382839 -14.4623 -14.4623
0.386563 -14.2822 -14.2822
0.081416 -14.3604 -14.3604
0.230903 -14.4563 -14.4563
0.384712 -14.3722 -14.3722
0.235159 -14.2762 -14.2762
0.233041 -14.3662 -14.3662
0.0790131 -14.4505 -14.4505
0.0741546 -14.6312 -14.6312
0.379028 -14.6431 -14.6431
0.382839 -14.4623 -14.4623
0.0765926 -14.5408 -14.5408
0.226567 -14.6371 -14.6371
0.380944 -14.5526 -14.5526
0.230903 -14.4563 -14.4563
0.228745 -14.5466 -14.5466
0.0741546 -14.6312 -14.6312
0.0692263 -14.8125 -14.8125
0.375129 -14.8245 -14.8245
0.379028 -14.6431 -14.6431
0.0716991 -14.7218 -14.7218
0.222154 -14.8184 -14.8184
0.377089 -14.7337 -14.7337
0.226567 -14.6371 -14.6371
0.22437 -14.7277 -14.7277
0.0692263 -14.8125 -14.8125
0.0642288 -14.9945 -14.9945
0.371144 -15.0065 -15.0065
0.375129 -14.8245 -14.8245
0.0667362 -14.9034 -14.9034
0.217663 -15.0004 -15.0004
0.373147 -14.9154 -14.9154
0.222154 -14.8184 -14.8184
0.219918 -14.9094 -14.9094
0.0642288 -14.9945 -14.9945
0.0591628 -15.177 -15.177
0.367073 -15.1891 -15.1891
0.371144 -15.0065 -15.0065
0.0617043 -15.0856 -15.0856
0.213094 -15.183 -15.183
0.369119 -15.0977 -15.0977
0.217663 -15.0004 -15.0004
0.215388 -15.0916 -15.0916
0.0591628 -15.177 -15.177
0.0540287 -15.3601 -15.3601
0.362917 -15.3722 -15.3722
0.367073 -15.1891 -15.1891
0.0566042 -15.2685 -15.2685
0.208449 -15.3661 -15.3661
0.365005 -15.2806 -15.2806
0.213094 -15.183 -15.183
0.210781 -15.2745 -15.2745
0.0540287 -15.3601 -15.3601
0.0488273 -15.5438 -15.5438
0.358676 -15.556 -15.556
0.362917 -15.3722 -15.3722
0.0514364 -15.4519 -15.4519
0.203727 -15.5498 -15.5498
0.360807 -15.464 -15.464
0.208449 -15.3661 -15.3661
0.206098 -15.4579 -15.4579
0.0488273 -15.5438 -15.5438
0.0435591 -15.728 -15.728
0.35435 -15.7402 -15.7402
0.358676 -15.556 -15.556
0.0462015 -15.6358 -15.6358
0.198931 -15.7341 -15.7341
0.356523 -15.648 -15.648
0.203727 -15.5498 -15.5498
0.201339 -15.6419 -15.6419
0.0435591 -15.728 -15.728
0.0382247 -15.9128 -15.9128
0.349942 -15.9251 -15.9251
0.35435 -15.7402 -15.7402
0.0409001 -15.8203 -15.8203
0.194059 -15.9189 -15.9189
0.352157 -15.8326 -15.8326
0.198931 -15.7341 -15.7341
0.196504 -15.8264 -15.8264
0.0382247 -15.9128 -15.9128
0.0328249 -16.0981 -16.0981
0.345451 -16.1105 -16.1105
0.349942 -15.9251 -15.9251
0.0355329 -16.0054 -16.0054
0.189114 -16.1042 -16.1042
0.347707 -16.0177 -16.0177
0.194059 -15.9189 -15.9189
0.191596 -16.0115 -16.0115
0.0328249 -16.0981 -16.0981
0.0273601 -16.284 -16.284
0.340877 -16.2964 -16.2964
0.345451 -16.1105 -16.1105
0.0301006 -16.191 -16.191
0.184094 -16.2901 -16.2901
0.343174 -16.2034 -16.2034
0.189114 -16.1042 -16.1042
0.186613 -16.1971 -16.1971
0.0273601 -16.284 -16.284
0.0218311 -16.4704 -16.4704
0.336222 -16.4828 -16.4828
0.340877 -16.2964 -16.2964
0.0246036 -16.3771 -16.3771
0.179002 -16.4765 -16.4765
0.33856 -16.3895 -16.3895
0.184094 -16.2901 -16.2901
0.181558 -16.3833 -16.3833
0.0218311 -16.4704 -16.4704
0.0162385 -16.6573 -16.6573
0.331486 -16.6697 -16.6697
0.336222 -16.4828 -16.4828
0.0190427 -16.5638 -16.5638
0.173838 -16.6635 -16.6635
0.333864 -16.5762 -16.5762
0.179002 -16.4765 -16.4765
0.176429 -16.5699 -16.5699
0.0162385 -16.6573 -16.6573
0.010583 -16.8447 -16.8447
0.32667 -16.8572 -16.8572
0.331486 -16.6697 -16.6697
0.0134186 -16.7509 -16.7509
0.168602 -16.8509 -16.8509
0.329088 -16.7634 -16.7634
0.173838 -16.6635 -16.6635
0.171229 -16.7571 -16.7571
0.010583 -16.8447 -16.8447
0.00486523 -17.0325 -17.0325
0.321775 -17.0451 -17.0451
0.32667 -16.8572 -16.8572
0.00773187 -16.9385 -16.9385
0.163295 -17.0388 -17.0388
0.324232 -16.9511 -16.9511
0.168602 -16.8509 -16.8509
0.165958 -16.9448 -16.9448
0.00486523 -17.0325 -17.0325
-0.000914174 -17.2209 -17.2209
0.3168 -17.2335 -17.2335
0.321775 -17.0451 -17.0451
0.00198319 -17.1267 -17.1267
0.157918 -17.2272 -17.2272
0.319297 -17.1393 -17.1393
0.163295 -17.0388 -17.0388
0.160616 -17.1329 -17.1329
-0.000914174 -17.2209 -17.2209
-0.00675452 -17.4097 -17.4097
0.311747 -17.4224 -17.4224
0.3168 -17.2335 -17.2335
-0.00382677 -17.3153 -17.3153
0.152472 -17.416 -17.416
0.314283 -17.3279 -17.3279
0.157918 -17.2272 -17.2272
0.155204 -17.3215 -17.3215
-0.00675452 -17.4097 -17.4097
-0.0126551 -17.599 -17.599
0.306617 -17.6117 -17.6117
0.311747 -17.4224 -17.4224
-0.00969733 -17.5043 -17.5043
0.146956 -17.6053 -17.6053
0.309192 -17.517 -17.517
0.152472 -17.416 -17.416
0.149722 -17.5106 -17.5106
-0.0126551 -17.599 -17.599
-0.0186153 -17.7888 -17.7888
0.30141 -17.8015 -17.8015
0.306617 -17.6117 -17.6117
-0.0156278 -17.6938 -17.6938
0.141372 -17.7951 -17.7951
0.304023 -17.7066 -17.7066
0.146956 -17.6053 -17.6053
0.144173 -17.7001 -17.7001
-0.0186153 -17.7888 -17.7888
-0.0246344 -17.9789 -17.9789
0.296126 -17.9917 -17.9917
0.30141 -17.8015 -17.8015
-0.0216175 -17.8838 -17.8838
0.135721 -17.9853 -17.9853
0.298777 -17.8966 -17.8966
0.141372 -17.7951 -17.7951
0.138555 -17.8901 -17.8901
-0.0246344 -17.9789 -17.9789
-0.0307117 -18.1696 -18.1696
0.290767 -18.1824 -18.1824
0.296126 -17.9917 -17.9917
-0.0276658 -18.0742 -18.0742
0.130003 -18.1759 -18.1759
0.293456 -18.087 -18.087
0.135721 -17.9853 -17.9853
0.13287 -18.0805 -18.0805
-0.0307117 -18.1696 -18.1696
-0.0368464 -18.3606 -18.3606
0.285334 -18.3734 -18.3734
0.290767 -18.1824 -18.1824
-0.0337719 -18.265 -18.265
0.124219 -18.3669 -18.3669
0.28806 -18.2778 -18.2778
0.130003 -18.1759 -18.1759
0.127119 -18.2714 -18.2714
-0.0368464 -18.3606 -18.3606
-0.043038 -18.552 -18.552
0.279826 -18.5649 -18.5649
0.285334 -18.3734 -18.3734
-0.0399352 -18.4562 -18.4562
0.118369 -18.5584 -18.5584
0.282589 -18.4691 -18.4691
0.124219 -18.3669 -18.3669
0.121302 -18.4626 -18.4626
-0.043038 -18.552 -18.552
-0.0492856 -18.7438 -18.7438
0.274245 -18.7567 -18.7567
0.279826 -18.5649 -18.5649
-0.0461549 -18.6479 -18.6479
0.112454 -18.7502 -18.7502
0.277045 -18.6608 -18.6608
0.118369 -18.5584 -18.5584
0.11542 -18.6543 -18.6543
-0.0492856 -18.7438 -18.7438
-0.0555887 -18.936 -18.936
0.268591 -18.949 -18.949
0.274245 -18.7567 -18.7567
-0.0524303 -18.8399 -18.8399
0.106476 -18.9425 -18.9425
0.271427 -18.8528 -18.8528
0.112454 -18.7502 -18.7502
0.109473 -18.8463 -18.8463
-0.0555887 -18.936 -18.936
-0.0619463 -19.1286 -19.1286
0.262865 -19.1416 -19.1416
0.268591 -18.949 -18.949
-0.0587607 -19.0323 -19.0323
0.100434 -19.1351 -19.1351
0.265737 -19.0453 -19.0453
0.106476 -18.9425 -18.9425
0.103463 -19.0387 -19.0387
-0.0619463 -19.1286 -19.1286
-0.0683579 -19.3216 -19.3216
0.257069 -19.3346 -19.3346
0.262865 -19.1416 -19.1416
-0.0651454 -19.2251 -19.2251
0.0943299 -19.3281 -19.3281
0.259976 -19.2381 -19.2381
0.100434 -19.1351 -19.1351
0.0973898 -19.2315 -19.2315
-0.0683579 -19.3216 -19.3216
-0.0748227 -19.5149 -19.5149
0.251201 -19.5279 -19.5279
0.257069 -19.3346 -19.3346
-0.0715837 -19.4182 -19.4182
0.0881637 -19.5214 -19.5214
0.254144 -19.4312 -19.4312
0.0943299 -19.3281 -19.3281
0.0912545 -19.4247 -19.4247
-0.0748227 -19.5149 -19.5149
-0.08134 -19.7086 -19.7086
0.245264 -19.7216 -19.7216
0.251201 -19.5279 -19.5279
-0.0780749 -19.6117 -19.6117
0.0819364 -19.7151 -19.7151
0.248241 -19.6247 -19.6247
0.0881637 -19.5214 -19.5214
0.0850577 -19.6182 -19.6182
-0.08134 -19.7086 -19.7086
-0.087909 -19.9026 -19.9026
0.239258 -19.9156 -19.9156
0.245264 -19.7216 -19.7216
-0.0846181 -19.8055 -19.8055
0.0756488 -19.9091 -19.9091
0.242269 -19.8186 -19.8186
0.0819364 -19.7151 -19.7151
0.0788001 -19.812 -19.812
-0.087909 -19.9026 -19.9026
-0.094529 -20.0969 -20.0969
0.233183 -20.11 -20.11
0.239258 -19.9156 -19.9156
-0.0912127 -19.9997 -19.9997
0.0693015 -20.1034 -20.1034
0.236229 -20.0128 -20.0128
0.0756488 -19.9091 -19.9091
0.0724825 -20.0062 -20.0062
-0.094529 -20.0969 -20.0969
-0.101199 -20.2915 -20.2915
0.227041 -20.3047 -20.3047
0.233183 -20.11 -20.11
-0.0978579 -20.1942 -20.1942
0.0628953 -20.2981 -20.2981
0.230121 -20.2073 -20.2073
0.0693015 -20.1034 -20.1034
0.0661057 -20.2007 -20.2007
-0.101199 -20.2915 -20.2915
-0.107919 -20.4865 -20.4865
0.220833 -20.4996 -20.4996
0.227041 -20.3047 -20.3047
-0.104553 -20.389 -20.389
0.056431 -20.493 -20.493
0.223945 -20.4021 -20.4021
0.0628953 -20.2981 -20.2981
0.0596703 -20.3955 -20.3955
-0.107919 -20.4865 -20.4865
-0.114688 -20.6817 -20.6817
0.214558 -20.6949 -20.6949
0.220833 -20.4996 -20.4996
-0.111297 -20.5841 -20.5841
0.0499092 -20.6883 -20.6883
0.217704 -20.5972 -20.5972
0.056431 -20.493 -20.493
0.0531772 -20.5906 -20.5906
-0.114688 -20.6817 -20.6817
-0.121504 -20.8772 -20.8772
0.208218 -20.8904 -20.8904
0.214558 -20.6949 -20.6949
-0.11809 -20.7794 -20.7794
0.0433309 -20.8838 -20.8838
0.211396 -20.7926 -20.7926
0.0499092 -20.6883 -20.6883
0.0466271 -20.786 -20.786
-0.121504 -20.8772 -20.8772
-0.128368 -21.073 -21.073
0.201813 -21.0862 -21.0862
0.208218 -20.8904 -20.8904
-0.12493 -20.9751 -20.9751
0.0366967 -21.0796 -21.0796
0.205024 -20.9883 -20.9883
0.0433309 -20.8838 -20.8838
0.0400207 -20.9817 -20.9817
-0.128368 -21.073 -21.073
-0.135278 -21.2691 -21.2691
0.195345 -21.2823 -21.2823
0.201813 -21.0862 -21.0862
-0.131817 -21.171 -21.171
0.0300073 -21.2757 -21.2757
0.198587 -21.1842 -21.1842
0.0366967 -21.0796 -21.0796
0.0333588 -21.1776 -21.1776
-0.135278 -21.2691 -21.2691
-0.142234 -21.4654 -21.4654
0.188814 -21.4786 -21.4786
0.195345 -21.2823 -21.2823
-0.13875 -21.3672 -21.3672
0.0232636 -21.472 -21.472
0.192087 -21.3804 -21.3804
0.0300073 -21.2757 -21.2757
0.0266422 -21.3738 -21.3738
-0.142234 -21.4654 -21.4654
-0.149235 -21.662 -21.662
0.18222 -21.6752 -21.6752
0.188814 -21.4786 -21.4786
-0.145729 -21.5637 -21.5637
0.0164663 -21.6686 -21.6686
0.185525 -21.5769 -21.5769
0.0232636 -21.472 -21.472
0.0198716 -21.5703 -21.5703
-0.149235 -21.662 -21.662
-0.15628 -21.8588 -21.8588
0.175565 -21.872 -21.872
0.18222 -21.6752 -21.6752
-0.152752 -21.7603 -21.7603
0.00961624 -21.8654 -21.8654
0.1789 -21.7736 -21.7736
0.0164663 -21.6686 -21.6686
0.0130478 -21.7669 -21.7669
-0.15628 -21.8588 -21.8588
-0.163368 -22.0558 -22.0558
0.16885 -22.069 -22.069
0.175565 -21.872 -21.872
-0.159819 -21.9572 -21.9572
0.00271412 -22.0624 -22.0624
0.172215 -21.9705 -21.9705
0.00961624 -21.8654 -21.8654
0.00617163 -21.9638 -21.9638
-0.163368 -22.0558 -22.0558
-0.170499 -22.253 -22.253
0.162074 -22.2663 -22.2663
0.16885 -22.069 -22.069
-0.166929 -22.1544 -22.1544
-0.00423927 -22.2596 -22.2596
0.165469 -22.1676 -22.1676
0.00271412 -22.0624 -22.0624
-0.000756218 -22.161 -22.161
-0.170499 -22.253 -22.253
-0.177672 -22.4504 -22.4504
0.155239 -22.4637 -22.4637
0.162074 -22.2663 -22.2663
-0.174081 -22.3517 -22.3517
-0.0112431 -22.4571 -22.4571
0.158664 -22.365 -22.365
-0.00423927 -22.2596 -22.2596
-0.00773494 -22.3583 -22.3583
-0.177672 -22.4504 -22.4504
-0.184886 -22.6481 -22.6481
0.148346 -22.6614 -22.6614
0.155239 -22.4637 -22.4637
-0.181274 -22.5492 -22.5492
-0.0182967 -22.6547 -22.6547
0.1518 -22.5625 -22.5625
-0.0112431 -22.4571 -22.4571
-0.0147638 -22.5558 -22.5558
-0.184886 -22.6481 -22.6481
-0.19214 -22.8459 -22.8459
0.141396 -22.8592 -22.8592
0.148346 -22.6614 -22.6614
-0.188508 -22.7469 -22.7469
-0.0253992 -22.8525 -22.8525
0.144878 -22.7602 -22.7602
-0.0182967 -22.6547 -22.6547
-0.0218419 -22.7536 -22.7536
-0.19214 -22.8459 -22.8459
-0.199434 -23.0438 -23.0438
0.134388 -23.0571 -23.0571
0.141396 -22.8592 -22.8592
-0.195782 -22.9448 -22.9448
-0.0325498 -23.0505 -23.0505
0.137899 -22.9581 -22.9581
-0.0253992 -22.8525 -22.8525
-0.0289685 -22.9515 -22.9515
-0.199434 -23.0438 -23.0438
-0.206767 -23.242 -23.242
0.127325 -23.2553 -23.2553
0.134388 -23.0571 -23.0571
-0.203096 -23.1429 -23.1429
-0.0397477 -23.2486 -23.2486
0.130864 -23.1562 -23.1562
-0.0325498 -23.0505 -23.0505
-0.0361429 -23.1495 -23.1495
-0.206767 -23.242 -23.242
-0.214137 -23.4403 -23.4403
0.120207 -23.4536 -23.4536
0.127325 -23.2553 -23.2553
-0.210447 -23.3411 -23.3411
-0.0469922 -23.4469 -23.4469
0.123773 -23.3544 -23.3544
-0.0397477 -23.2486 -23.2486
-0.0433642 -23.3477 -23.3477
-0.214137 -23.4403 -23.4403
-0.221544 -23.6387 -23.6387
0.113034 -23.652 -23.652
0.120207 -23.4536 -23.4536
-0.217836 -23.5395 -23.5395
-0.0542824 -23.6453 -23.6453
0.116627 -23.5528 -23.5528
-0.0469922 -23.4469 -23.4469
-0.0506316 -23.5461 -23.5461
-0.221544 -23.6387 -23.6387
-0.228988 -23.8373 -23.8373
0.105808 -23.8506 -23.8506
0.113034 -23.652 -23.652
-0.225262 -23.738 -23.738
-0.0616176 -23.8439 -23.8439
0.109427 -23.7513 -23.7513
-0.0542824 -23.6453 -23.6453
-0.0579445 -23.7446 -23.7446
-0.228988 -23.8373 -23.8373
-0.236468 -24.0359 -24.0359
0.0985284 -24.0493 -24.0493
0.105808 -23.8506 -23.8506
-0.232724 -23.9366 -23.9366
-0.0689971 -24.0426 -24.0426
0.102174 -23.9499 -23.9499
-0.0616176 -23.8439 -23.8439
-0.0653019 -23.9432 -23.9432
-0.236468 -24.0359 -24.0359
-0.243983 -24.2347 -24.2347
0.0911973 -24.248 -24.248
0.0985284 -24.0493 -24.0493
-0.240221 -24.1353 -24.1353
-0.0764201 -24.2414 -24.2414
0.0948693 -24.1486 -24.1486
-0.0689971 -24.0426 -24.0426
-0.0727032 -24.142 -24.142
-0.243983 -24.2347 -24.2347
-0.251532 -24.4336 -24.4336
0.0838151 -24.4469 -24.4469
0.0911973 -24.248 -24.248
-0.247753 -24.3342 -24.3342
-0.0838861 -24.4403 -24.4403
0.0875126 -24.3475 -24.3475
-0.0764201 -24.2414 -24.2414
-0.0801478 -24.3408 -24.3408
-0.251532 -24.4336 -24.4336
-0.259116 -24.6326 -24.6326
0.0763826 -24.6459 -24.6459
0.0838151 -24.4469 -24.4469
-0.25532 -24.5331 -24.5331
-0.0913947 -24.6392 -24.6392
0.0801051 -24.5464 -24.5464
-0.0838861 -24.4403 -24.4403
-0.0876351 -24.5397 -24.5397
-0.259116 -24.6326 -24.6326
-0.266735 -24.8317 -24.8317
0.0689004 -24.845 -24.845
0.0763826 -24.6459 -24.6459
-0.262921 -24.7321 -24.7321
-0.0989459 -24.8383 -24.8383
0.0726477 -24.7454 -24.7454
-0.0913947 -24.6392 -24.6392
-0.095165 -24.7388 -24.7388
-0.266735 -24.8317 -24.8317
-0.27439 -25.0308 -25.0308
0.061369 -25.0441 -25.0441
0.0689004 -24.845 -24.845
-0.270558 -24.9312 -24.9312
-0.10654 -25.0374 -25.0374
0.0651409 -24.9445 -24.9445
-0.0989459 -24.8383 -24.8383
-0.102738 -24.9379 -24.9379
-0.27439 -25.0308 -25.0308
-0.282082 -25.23 -25.23
0.0537878 -25.2433 -25.2433
0.061369 -25.0441 -25.0441
-0.278231 -25.1304 -25.1304
-0.11418 -25.2366 -25.2366
0.0575846 -25.1437 -25.1437
-0.10654 -25.0374 -25.0374
-0.110354 -25.137 -25.137
-0.282082 -25.23 -25.23
-0.289814 -25.4293 -25.4293
0.0461557 -25.4425 -25.4425
0.0537878 -25.2433 -25.2433
-0.285943 -25.3296 -25.3296
-0.121867 -25.4359 -25.4359
0.0499785 -25.3429 -25.3429
-0.11418 -25.2366 -25.2366
-0.118017 -25.3362 -25.3362
-0.289814 -25.4293 -25.4293
-0.297585 -25.6286 -25.6286
0.0384669 -25.6418 -25.6418
0.0461557 -25.4425 -25.4425
-0.293695 -25.5289 -25.5289
-0.129606 -25.6352 -25.6352
0.0423186 -25.5421 -25.5421
-0.121867 -25.4359 -25.4359
-0.12573 -25.5355 -25.5355
-0.297585 -25.6286 -25.6286
-0.305388 -25.8279 -25.8279
0.0307157 -25.8411 -25.8411
0.0384669 -25.6418 -25.6418
-0.301484 -25.7282 -25.7282
-0.137396 -25.8345 -25.8345
0.0346001 -25.7415 -25.7415
-0.129606 -25.6352 -25.6352
-0.133495 -25.7348 -25.7348
-0.305388 -25.8279 -25.8279
-0.313195 -26.0272 -26.0272
0.0229002 -26.0406 -26.0406
0.0307157 -25.8411 -25.8411
-0.309293 -25.9276 -25.9276
-0.145215 -26.0339 -26.0339
0.0268131 -25.9409 -25.9409
-0.137396 -25.8345 -25.8345
-0.141307 -25.9342 -25.9342
-0.313195 -26.0272 -26.0272
-0.320976 -26.2265 -26.2265
0.0151115 -26.2402 -26.2402
0.0229002 -26.0406 -26.0406
-0.31709 -26.1269 -26.1269
-0.152978 -26.2333 -26.2333
0.0189906 -26.1404 -26.1404
-0.145215 -26.0339 -26.0339
-0.149107 -26.1336 -26.1336
0 0 0
0.00775408 -0.0022235 -0.0022235
0.0130214 -0.00653974 -0.00653974
0 0 0
0.00376373 -0.000799861 -0.000799861
0.00980102 -0.00395795 -0.00395795
0.00708001 -0.00406797 -0.00406797
0 0 0
0.00467584 -0.00174248 -0.00174248
0.00775408 -0.0022235 -0.0022235
0.0161462 -0.00640906 -0.00640906
0.0242909 -0.0113838 -0.0113838
0.0130214 -0.00653974 -0.00653974
0.0119103 -0.00411429 -0.00411429
0.0200109 -0.00864466 -0.00864466
0.0186746 -0.00887028 -0.00887028
0.00980102 -0.00395795 -0.00395795
0.0149347 -0.00622984 -0.00622984
0.0161462 -0.00640906 -0.00640906
0.0246125 -0.0121564 -0.0121564
0.0356479 -0.0172254 -0.0172254
0.0242909 -0.0113838 -0.0113838
0.0203847 -0.00908113 -0.00908113
0.0300679 -0.0145016 -0.0145016
0.0299505 -0.0141342 -0.0141342
0.0200109 -0.00864466 -0.00864466
0.0250532 -0.0113834 -0.0113834
0.0246125 -0.0121564 -0.0121564
0.0330319 -0.0196348 -0.0196348
0.0470897 -0.0247329 -0.0247329
0.0356479 -0.0172254 -0.0172254
0.0288303 -0.0156691 -0.0156691
0.0400322 -0.0219868 -0.0219868
0.0413615 -0.0207533 -0.0207533
0.0300679 -0.0145016 -0.0145016
0.0350581 -0.0180253 -0.0180253
0.0330319 -0.0196348 -0.0196348
0.0413727 -0.0289672 -0.0289672
0.0585839 -0.0340619 -0.0340619
0.0470897 -0.0247329 -0.0247329
0.0372118 -0.024064 -0.024064
0.0499543 -0.0313195 -0.0313195
0.0528335 -0.0291633 -0.0291633
0.0400322 -0.0219868 -0.0219868
0.0449979 -0.0264154 -0.0264154
0.0413727 -0.0289672 -0.0289672
0.0496496 -0.0402254 -0.0402254
0.0700732 -0.0453175 -0.0453175
0.0585839 -0.0340619 -0.0340619
0.0455187 -0.0343535 -0.0343535
0.0598337 -0.0425704 -0.0425704
0.0643311 -0.0394464 -0.0394464
0.0499543 -0.0313195 -0.0313195
0.0548996 -0.0367029 -0.0367029
0.0496496 -0.0402254 -0.0402254
0.0578641 -0.0534304 -0.0534304
0.081536 -0.0585151 -0.0585151
0.0700732 -0.0453175 -0.0453175
0.0537644 -0.046584 -0.046584
0.0696681 -0.0557705 -0.0557705
0.0758093 -0.0516728 -0.0516728
0.0598337 -0.0425704 -0.0425704
0.0647569 -0.0489261 -0.0489261
0.0578641 -0.0534304 -0.0534304
0.0660211 -0.0685882 -0.0685882
0.0929494 -0.0736677 -0.0736677
0.081536 -0.0585151 -0.0585151
0.0619497 -0.0607654 -0.0607654
0.0794497 -0.0709242 -0.0709242
0.0872498 -0.0658471 -0.0658471
0.0696681 -0.0557705 -0.0557705
0.0745658 -0.0631034 -0.0631034
0.0660211 -0.0685882 -0.0685882
0.0741205 -0.0856934 -0.0856934
0.104303 -0.0907685 -0.0907685
0.0929494 -0.0736677 -0.0736677
0.070078 -0.0768979 -0.0768979
0.0891741 -0.0880272 -0.0880272
0.0986343 -0.081975 -0.081975
0.0794497 -0.0709242 -0.0709242
0.0843194 -0.0792325 -0.0792325
0.0741205 -0.0856934 -0.0856934
0.0821625 -0.104737 -0.104737
0.115589 -0.109811 -0.109811
0.104303 -0.0907685 -0.0907685
0.0781487 -0.0949737 -0.0949737
0.0988366 -0.107071 -0.107071
0.109955 -0.100047 -0.100047
0.0891741 -0.0880272 -0.0880272
0.0940133 -0.0973069 -0.0973069
0.0821625 -0.104737 -0.104737
0.0901458 -0.12571 -0.12571
0.126803 -0.130783 -0.130783
0.115589 -0.109811 -0.109811
0.0861615 -0.114983 -0.114983
0.108434 -0.128044 -0.128044
0.121205 -0.120056 -0.120056
0.0988366 -0.107071 -0.107071
0.103644 -0.117317 -0.117317
0.0901458 -0.12571 -0.12571
0.0980696 -0.148601 -0.148601
0.137941 -0.153677 -0.153677
0.126803 -0.130783 -0.130783
0.0941153 -0.136917 -0.136917
0.117965 -0.150937 -0.150937
0.132381 -0.141991 -0.141991
0.108434 -0.128044 -0.128044
0.113208 -0.139251 -0.139251
0.0980696 -0.148601 -0.148601
0.105932 -0.1734 -0.1734
0.149002 -0.17848 -0.17848
0.137941 -0.153677 -0.153677
0.102009 -0.160763 -0.160763
0.127427 -0.175739 -0.175739
0.143481 -0.16584 -0.16584
0.117965 -0.150937 -0.150937
0.122705 -0.1631 -0.1631
0.105932 -0.1734 -0.1734
0.113733 -0.200095 -0.200095
0.159983 -0.205181 -0.205181
0.149002 -0.17848 -0.17848
0.109841 -0.186511 -0.186511
0.136817 -0.202438 -0.202438
0.154502 -0.191594 -0.191594
0.127427 -0.175739 -0.175739
0.132131 -0.188852 -0.188852
0.113733 -0.200095 -0.200095
0.12147 -0.228676 -0.228676
0.170883 -0.233771 -0.233771
0.159983 -0.205181 -0.205181
0.117609 -0.21415 -0.21415
0.146136 -0.231025 -0.231025
0.165443 -0.219241 -0.219241
0.136817 -0.202438 -0.202438
0.141486 -0.216496 -0.216496
0.12147 -0.228676 -0.228676
0.129142 -0.259133 -0.259133
0.181701 -0.264239 -0.264239
0.170883 -0.233771 -0.233771
0.125314 -0.243671 -0.243671
0.155381 -0.261488 -0.261488
0.176303 -0.248771 -0.248771
0.146136 -0.231025 -0.231025
0.150768 -0.246022 -0.246022
0.129142 -0.259133 -0.259133
0.136748 -0.291455 -0.291455
0.192436 -0.296574 -0.296574
0.181701 -0.264239 -0.264239
0.132953 -0.275061 -0.275061
0.164552 -0.293818 -0.293818
0.187079 -0.280174 -0.280174
0.155381 -0.261488 -0.261488
0.159976 -0.27742 -0.27742
0.136748 -0.291455 -0.291455
0.144287 -0.325631 -0.325631
0.203086 -0.330766 -0.330766
0.192436 -0.296574 -0.296574
0.140526 -0.308312 -0.308312
0.173646 -0.328003 -0.328003
0.197772 -0.313439 -0.313439
0.164552 -0.293818 -0.293818
0.169109 -0.310679 -0.310679
0.144287 -0.325631 -0.325631
0.151757 -0.361652 -0.361652
0.21365 -0.366804 -0.366804
0.203086 -0.330766 -0.330766
0.14803 -0.343412 -0.343412
0.182664 -0.364034 -0.364034
0.208379 -0.348555 -0.348555
0.173646 -0.328003 -0.328003
0.178165 -0.345788 -0.345788
0.151757 -0.361652 -0.361652
0.159157 -0.399507 -0.399507
0.224127 -0.404678 -0.404678
0.21365 -0.366804 -0.366804
0.155466 -0.380351 -0.380351
0.191602 -0.401899 -0.401899
0.2189 -0.385512 -0.385512
0.182664 -0.364034 -0.364034
0.187143 -0.382738 -0.382738
0.159157 -0.399507 -0.399507
0.166487 -0.439186 -0.439186
0.234516 -0.444377 -0.444377
0.224127 -0.404678 -0.404678
0.162831 -0.419119 -0.419119
0.200462 -0.441589 -0.441589
0.229332 -0.4243 -0.4243
0.191602 -0.401899 -0.401899
0.196042 -0.421517 -0.421517
0.166487 -0.439186 -0.439186
0.173744 -0.480677 -0.480677
0.244815 -0.485892 -0.485892
0.234516 -0.444377 -0.444377
0.170124 -0.459705 -0.459705
0.20924 -0.483093 -0.483093
0.239677 -0.464908 -0.464908
0.200462 -0.441589 -0.441589
0.204861 -0.462115 -0.462115
0.173744 -0.480677 -0.480677
0.180928 -0.523971 -0.523971
0.255024 -0.52921 -0.52921
0.244815 -0.485892 -0.485892
0.177345 -0.502099 -0.502099
0.217936 -0.5264 -0.5264
0.249931 -0.507326 -0.507326
0.20924 -0.483093 -0.483093
0.213599 -0.504522 -0.504522
0.180928 -0.523971 -0.523971
0.188038 -0.569057 -0.569057
0.265141 -0.574323 -0.574323
0.255024 -0.52921 -0.52921
0.184492 -0.54629 -0.54629
0.22655 -0.571501 -0.571501
0.260094 -0.551543 -0.551543
0.217936 -0.5264 -0.5264
0.222254 -0.548727 -0.548727
0.188038 -0.569057 -0.569057
0.195073 -0.615925 -0.615925
0.275165 -0.62122 -0.62122
0.265141 -0.574323 -0.574323
0.191565 -0.592269 -0.592269
0.23508 -0.618384 -0.618384
0.270164 -0.597549 -0.597549
0.22655 -0.571501 -0.571501
0.230825 -0.59472 -0.59472
0.195073 -0.615925 -0.615925
0.202031 -0.664564 -0.664564
0.285095 -0.669889 -0.669889
0.275165 -0.62122 -0.62122
0.198561 -0.640024 -0.640024
0.243524 -0.667039 -0.667039
0.280142 -0.645333 -0.645333
0.23508 -0.618384 -0.618384
0.239313 -0.642491 -0.642491
0.202031 -0.664564 -0.664564
0.208911 -0.714965 -0.714965
0.294931 -0.720321 -0.720321
0.285095 -0.669889 -0.669889
0.205481 -0.689545 -0.689545
0.251882 -0.717457 -0.717457
0.290025 -0.694886 -0.694886
0.243524 -0.667039 -0.667039
0.247714 -0.692028 -0.692028
0.208911 -0.714965 -0.714965
0.215714 -0.767115 -0.767115
0.304671 -0.772506 -0.772506
0.294931 -0.720321 -0.720321
0.212322 -0.740822 -0.740822
0.260154 -0.769625 -0.769625
0.299813 -0.746195 -0.746195
0.251882 -0.717457 -0.717457
0.256029 -0.743323 -0.743323
0.215714 -0.767115 -0.767115
0.222437 -0.821007 -0.821007
0.314314 -0.826432 -0.826432
0.304671 -0.772506 -0.772506
0.219085 -0.793844 -0.793844
0.268337 -0.823535 -0.823535
0.309505 -0.799252 -0.799252
0.260154 -0.769625 -0.769625
0.264256 -0.796363 -0.796363
0.222437 -0.821007 -0.821007
0.229079 -0.876627 -0.876627
0.32386 -0.88209 -0.88209
0.314314 -0.826432 -0.826432
0.225768 -0.848601 -0.848601
0.276431 -0.879176 -0.879176
0.319099 -0.854045 -0.854045
0.268337 -0.823535 -0.823535
0.272395 -0.85114 -0.85114
0.229079 -0.876627 -0.876627
0.23564 -0.933968 -0.933968
0.333307 -0.939468 -0.939468
0.32386 -0.88209 -0.88209
0.23237 -0.905083 -0.905083
0.284435 -0.936536 -0.936536
0.328596 -0.910565 -0.910565
0.276431 -0.879176 -0.879176
0.280444 -0.907641 -0.907641
0.23564 -0.933968 -0.933968
0.242119 -0.993017 -0.993017
0.342654 -0.998558 -0.998558
0.333307 -0.939468 -0.939468
0.23889 -0.963279 -0.963279
0.292348 -0.995606 -0.995606
0.337993 -0.9688 -0.9688
0.284435 -0.936536 -0.936536
0.288403 -0.965858 -0.965858
0.242119 -0.993017 -0.993017
0.248515 -1.05376 -1.05376
0.3519 -1.05935 -1.05935
0.342654 -0.998558 -0.998558
0.245327 -1.02318 -1.02318
0.300169 -1.05638 -1.05638
0.34729 -1.02874 -1.02874
0.292348 -0.995606 -0.995606
0.29627 -1.02578 -1.02578
0.248515 -1.05376 -1.05376
0.254827 -1.1162 -1.1162
0.361045 -1.12183 -1.12183
0.3519 -1.05935 -1.05935
0.251681 -1.08477 -1.08477
0.307898 -1.11883 -1.11883
0.356486 -1.09038 -1.09038
0.300169 -1.05638 -1.05638
0.304045 -1.08739 -1.08739
0.254827 -1.1162 -1.1162
0.261053 -1.18031 -1.18031
0.370088 -1.18598 -1.18598
0.361045 -1.12183 -1.12183
0.257951 -1.14805 -1.14805
0.315533 -1.18297 -1.18297
0.36558 -1.1537 -1.1537
0.307898 -1.11883 -1.11883
0.311727 -1.15069 -1.15069
0.261053 -1.18031 -1.18031
0.267194 -1.2461 -1.2461
0.379028 -1.25181 -1.25181
0.370088 -1.18598 -1.18598
0.264135 -1.213 -1.213
0.323073 -1.24878 -1.24878
0.374571 -1.21869 -1.21869
0.315533 -1.18297 -1.18297
0.319315 -1.21567 -1.21567
0.267194 -1.2461 -1.2461
0.273249 -1.31353 -1.31353
0.387864 -1.3193 -1.3193
0.379028 -1.25181 -1.25181
0.270233 -1.27961 -1.27961
0.330518 -1.31624 -1.31624
0.383459 -1.28535 -1.28535
0.323073 -1.24878 -1.24878
0.326808 -1.2823 -1.2823
0.273249 -1.31353 -1.31353
0.279216 -1.38262 -1.38262
0.396595 -1.38843 -1.38843
0.387864 -1.3193 -1.3193
0.276243 -1.34787 -1.34787
0.337868 -1.38535 -1.38535
0.392243 -1.35366 -1.35366
0.330518 -1.31624 -1.31624
0.334205 -1.35059 -1.35059
0.279216 -1.38262 -1.38262
0.285095 -1.45334 -1.45334
0.405221 -1.4592 -1.4592
0.396595 -1.38843 -1.38843
0.282167 -1.41777 -1.41777
0.34512 -1.4561 -1.4561
0.400921 -1.42361 -1.42361
0.337868 -1.38535 -1.38535
0.341506 -1.42052 -1.42052
0.285095 -1.45334 -1.45334
0.290885 -1.52569 -1.52569
0.41374 -1.5316 -1.5316
0.405221 -1.4592 -1.4592
0.288001 -1.48931 -1.48931
0.352275 -1.52847 -1.52847
0.409494 -1.4952 -1.4952
0.34512 -1.4561 -1.4561
0.34871 -1.49208 -1.49208
0.290885 -1.52569 -1.52569
0.296585 -1.59965 -1.59965
0.422152 -1.60561 -1.60561
0.41374 -1.5316 -1.5316
0.293747 -1.56247 -1.56247
0.359331 -1.60246 -1.60246
0.41796 -1.5684 -1.5684
0.352275 -1.52847 -1.52847
0.355815 -1.56526 -1.56526
0.296585 -1.59965 -1.59965
0.302196 -1.67521 -1.67521
0.430457 -1.68123 -1.68123
0.422152 -1.60561 -1.60561
0.299402 -1.63723 -1.63723
0.366289 -1.67805 -1.67805
0.426318 -1.64322 -1.64322
0.359331 -1.60246 -1.60246
0.362822 -1.64006 -1.64006
0.302196 -1.67521 -1.67521
0.307715 -1.75238 -1.75238
0.438653 -1.75845 -1.75845
0.430457 -1.68123 -1.68123
0.304966 -1.7136 -1.7136
0.373146 -1.75524 -1.75524
0.434569 -1.71964 -1.71964
0.366289 -1.67805 -1.67805
0.36973 -1.71645 -1.71645
0.307715 -1.75238 -1.75238
0.313142 -1.83112 -1.83112
0.44674 -1.83725 -1.83725
0.438653 -1.75845 -1.75845
0.31044 -1.79155 -1.79155
0.379904 -1.83402 -1.83402
0.44271 -1.79765 -1.79765
0.373146 -1.75524 -1.75524
0.376538 -1.79443 -1.79443
0.313142 -1.83112 -1.83112
0.318477 -1.91144 -1.91144
0.454718 -1.91762 -1.91762
0.44674 -1.83725 -1.83725
0.315821 -1.87108 -1.87108
0.38656 -1.91437 -1.91437
0.450743 -1.87724 -1.87724
0.379904 -1.83402 -1.83402
0.383244 -1.87399 -1.87399
0.318477 -1.91144 -1.91144
0.323719 -1.99332 -1.99332
0.462584 -1.99957 -1.99957
0.454718 -1.91762 -1.91762
0.321109 -1.95219 -1.95219
0.393114 -1.99628 -1.99628
0.458665 -1.9584 -1.9584
0.38656 -1.91437 -1.91437
0.38985 -1.95513 -1.95513
0.323719 -1.99332 -1.99332
0.328867 -2.07676 -2.07676
0.47034 -2.08306 -2.08306
0.462584 -1.99957 -1.99957
0.326304 -2.03485 -2.03485
0.399566 -2.07974 -2.07974
0.466476 -2.04112 -2.04112
0.393114 -1.99628 -1.99628
0.396353 -2.03782 -2.03782
0.328867 -2.07676 -2.07676
0.333921 -2.16174 -2.16174
0.477984 -2.1681 -2.1681
0.47034 -2.08306 -2.08306
0.331405 -2.11906 -2.11906
0.405915 -2.16475 -2.16475
0.474176 -2.12539 -2.12539
0.399566 -2.07974 -2.07974
0.402754 -2.12206 -2.12206
0.333921 -2.16174 -2.16174
0.33888 -2.24825 -2.24825
0.485516 -2.25467 -2.25467
0.477984 -2.1681 -2.1681
0.336412 -2.2048 -2.2048
0.412161 -2.2513 -2.2513
0.481764 -2.21119 -2.21119
0.405915 -2.16475 -2.16475
0.409051 -2.20783 -2.20783
0.33888 -2.24825 -2.24825
0.343743 -2.33628 -2.33628
0.492936 -2.34276 -2.34276
0.485516 -2.25467 -2.25467
0.341323 -2.29207 -2.29207
0.418302 -2.33936 -2.33936
0.48924 -2.29853 -2.29853
0.412161 -2.2513 -2.2513
0.415245 -2.29514 -2.29514
0.343743 -2.33628 -2.33628
0.348511 -2.42582 -2.42582
0.500241 -2.43237 -2.43237
0.492936 -2.34276 -2.34276
0.346139 -2.38086 -2.38086
0.424339 -2.42894 -2.42894
0.496603 -2.38738 -2.38738
0.418302 -2.33936 -2.33936
0.421334 -2.38396 -2.38396
0.348511 -2.42582 -2.42582
0.353182 -2.51687 -2.51687
0.507433 -2.52348 -2.52348
0.500241 -2.43237 -2.43237
0.350858 -2.47116 -2.47116
0.430271 -2.52001 -2.52001
0.503852 -2.47774 -2.47774
0.424339 -2.42894 -2.42894
0.427318 -2.47429 -2.47429
0.353182 -2.51687 -2.51687
0.357756 -2.6094 -2.6094
0.514511 -2.61608 -2.61608
0.507433 -2.52348 -2.52348
0.355481 -2.56295 -2.56295
0.436097 -2.61258 -2.61258
0.510986 -2.56959 -2.56959
0.430271 -2.52001 -2.52001
0.433197 -2.56611 -2.56611
0.357756 -2.6094 -2.6094
0.362232 -2.70342 -2.70342
0.521474 -2.71016 -2.71016
0.514511 -2.61608 -2.61608
0.360006 -2.65623 -2.65623
0.441816 -2.70663 -2.70663
0.518007 -2.66293 -2.66293
0.436097 -2.61258 -2.61258
0.43897 -2.65942 -2.65942
0.362232 -2.70342 -2.70342
0.366611 -2.79891 -2.79891
0.528321 -2.80571 -2.80571
0.521474 -2.71016 -2.71016
0.364434 -2.75098 -2.75098
0.447429 -2.80215 -2.80215
0.524912 -2.75775 -2.75775
0.441816 -2.70663 -2.70663
0.444636 -2.75421 -2.75421
0.366611 -2.79891 -2.79891
0.370891 -2.89585 -2.89585
0.535052 -2.90272 -2.90272
0.528321 -2.80571 -2.80571
0.368763 -2.8472 -2.8472
0.452935 -2.89913 -2.89913
0.531701 -2.85404 -2.85404
0.447429 -2.80215 -2.80215
0.450196 -2.85046 -2.85046
0.370891 -2.89585 -2.89585
0.375072 -2.99424 -2.99424
0.541668 -3.00118 -3.00118
0.535052 -2.90272 -2.90272
0.372994 -2.94487 -2.94487
0.458333 -2.99756 -2.99756
0.538375 -2.95177 -2.95177
0.452935 -2.89913 -2.89913
0.455648 -2.94816 -2.94816
0.375072 -2.99424 -2.99424
0.379154 -3.09408 -3.09408
0.548166 -3.10109 -3.10109
0.541668 -3.00118 -3.00118
0.377126 -3.04398 -3.04398
0.463624 -3.09743 -3.09743
0.544932 -3.05096 -3.05096
0.458333 -2.99756 -2.99756
0.460992 -3.04731 -3.04731
0.379154 -3.09408 -3.09408
0.383137 -3.19534 -3.19534
0.554548 -3.20242 -3.20242
0.548166 -3.10109 -3.10109
0.381158 -3.14453 -3.14453
0.468806 -3.19872 -3.19872
0.551372 -3.15157 -3.15157
0.463624 -3.09743 -3.09743
0.466228 -3.1479 -3.1479
0.383137 -3.19534 -3.19534
0.387019 -3.29802 -3.29802
0.560812 -3.30516 -3.30516
0.554548 -3.20242 -3.20242
0.38509 -3.2465 -3.2465
0.473879 -3.30144 -3.30144
0.557694 -3.25361 -3.25361
0.468806 -3.19872 -3.19872
0.471356 -3.24991 -3.24991
0.387019 -3.29802 -3.29802
0.3908 -3.4021 -3.4021
0.566958 -3.40932 -3.40932
0.560812 -3.30516 -3.30516
0.388922 -3.34988 -3.34988
0.478843 -3.40556 -3.40556
0.5639 -3.35707 -3.35707
0.473879 -3.30144 -3.30144
0.476374 -3.35333 -3.35333
0.3908 -3.4021 -3.4021
0.394481 -3.50759 -3.50759
0.572986 -3.51488 -3.51488
0.566958 -3.40932 -3.40932
0.392653 -3.45467 -3.45467
0.483697 -3.51108 -3.51108
0.569987 -3.46192 -3.46192
0.478843 -3.40556 -3.40556
0.481284 -3.45815 -3.45815
0.394481 -3.50759 -3.50759
0.398061 -3.61446 -3.61446
0.578896 -3.62182 -3.62182
0.572986 -3.51488 -3.51488
0.396284 -3.56085 -3.56085
0.488442 -3.61799 -3.61799
0.575956 -3.56817 -3.56817
0.483697 -3.51108 -3.51108
0.486083 -3.56436 -3.56436
0.398061 -3.61446 -3.61446
0.401539 -3.7227 -3.7227
0.584686 -3.73014 -3.73014
0.578896 -3.62182 -3.62182
0.399813 -3.66841 -3.66841
0.493076 -3.72627 -3.72627
0.581806 -3.67581 -3.67581
0.488442 -3.61799 -3.61799
0.490773 -3.67196 -3.67196
0.401539 -3.7227 -3.7227
0.404915 -3.83232 -3.83232
0.590358 -3.83982 -3.83982
0.584686 -3.73014 -3.73014
0.40324 -3.77734 -3.77734
0.4976 -3.83592 -3.83592
0.587537 -3.78481 -3.78481
0.493076 -3.72627 -3.72627
0.495352 -3.78093 -3.78093
0.404915 -3.83232 -3.83232
0.40819 -3.94329 -3.94329
0.59591 -3.95086 -3.95086
0.590358 -3.83982 -3.83982
0.406565 -3.88763 -3.88763
0.502013 -3.94693 -3.94693
0.593149 -3.89517 -3.89517
0.4976 -3.83592 -3.83592
0.499821 -3.89126 -3.89126
0.40819 -3.94329 -3.94329
0.411362 -4.0556 -4.0556
0.601342 -4.06325 -4.06325
0.59591 -3.95086 -3.95086
0.409789 -3.99927 -3.99927
0.506316 -4.05928 -4.05928
0.598641 -4.00689 -4.00689
0.502013 -3.94693 -3.94693
0.504179 -4.00294 -4.00294
0.411362 -4.0556 -4.0556
0.414431 -4.16925 -4.16925
0.606655 -4.17697 -4.17697
0.601342 -4.06325 -4.06325
0.412909 -4.11226 -4.11226
0.510507 -4.17297 -4.17297
0.604013 -4.11994 -4.11994
0.506316 -4.05928 -4.05928
0.508425 -4.11596 -4.11596
0.414431 -4.16925 -4.16925
0.417398 -4.28422 -4.28422
0.611847 -4.29202 -4.29202
0.606655 -4.17697 -4.17697
0.415928 -4.22657 -4.22657
0.514586 -4.28798 -4.28798
0.609266 -4.23433 -4.23433
0.510507 -4.17297 -4.17297
0.51256 -4.23031 -4.23031
0.417398 -4.28422 -4.28422
0.420262 -4.40051 -4.40051
0.616919 -4.40838 -4.40838
0.611847 -4.29202 -4.29202
0.418843 -4.3422 -4.3422
0.518554 -4.4043 -4.4043
0.614398 -4.35004 -4.35004
0.514586 -4.28798 -4.28798
0.516584 -4.34598 -4.34598
0.420262 -4.40051 -4.40051
0.423022 -4.5181 -4.5181
0.62187 -4.52605 -4.52605
0.616919 -4.40838 -4.40838
0.421655 -4.45914 -4.45914
0.52241 -4.52193 -4.52193
0.61941 -4.46705 -4.46705
0.518554 -4.4043 -4.4043
0.520496 -4.46296 -4.46296
0.423022 -4.5181 -4.5181
0.425679 -4.63698 -4.63698
0.626701 -4.64501 -4.64501
0.62187 -4.52605 -4.52605
0.424363 -4.57738 -4.57738
0.526154 -4.64086 -4.64086
0.624301 -4.58537 -4.58537
0.52241 -4.52193 -4.52193
0.524296 -4.58123 -4.58123
0.425679 -4.63698 -4.63698
0.428232 -4.75715 -4.75715
0.63141 -4.76525 -4.76525
0.626701 -4.64501 -4.64501
0.426968 -4.69691 -4.69691
0.529785 -4.76106 -4.76106
0.629071 -4.70497 -4.70497
0.526154 -4.64086 -4.64086
0.527983 -4.7008 -4.7008
0.428232 -4.75715 -4.75715
0.430682 -4.87859 -4.87859
0.635999 -4.88677 -4.88677
0.63141 -4.76525 -4.76525
0.42947 -4.81771 -4.81771
0.533304 -4.88254 -4.88254
0.63372 -4.82585 -4.82585
0.529785 -4.76106 -4.76106
0.531559 -4.82164 -4.82164
0.430682 -4.87859 -4.87859
0.433027 -5.00129 -5.00129
0.640466 -5.00954 -5.00954
0.635999 -4.88677 -4.88677
0.431868 -4.93979 -4.93979
0.53671 -5.00528 -5.00528
0.638247 -4.948 -4.948
0.533304 -4.88254 -4.88254
0.535021 -4.94376 -4.94376
0.433027 -5.00129 -5.00129
0.435269 -5.12525 -5.12525
0.644812 -5.13358 -5.13358
0.640466 -5.00954 -5.00954
0.434161 -5.06312 -5.06312
0.540004 -5.12928 -5.12928
0.642654 -5.0714 -5.0714
0.53671 -5.00528 -5.00528
0.538371 -5.06713 -5.06713
0.435269 -5.12525 -5.12525
0.437407 -5.25045 -5.25045
0.649036 -5.25885 -5.25885
0.644812 -5.13358 -5.13358
0.436351 -5.18769 -5.18769
0.543185 -5.25451 -5.25451
0.646939 -5.19606 -5.19606
0.540004 -5.12928 -5.12928
0.541609 -5.19174 -5.19174
0.437407 -5.25045 -5.25045
0.43944 -5.37687 -5.37687
0.653139 -5.38535 -5.38535
0.649036 -5.25885 -5.25885
0.438436 -5.31351 -5.31351
0.546253 -5.38098 -5.38098
0.651103 -5.32195 -5.32195
0.543185 -5.25451 -5.25451
0.544733 -5.31759 -5.31759
0.43944 -5.37687 -5.37687
0.441369 -5.50452 -5.50452
0.65712 -5.51308 -5.51308
0.653139 -5.38535 -5.38535
0.440417 -5.44055 -5.44055
0.549208 -5.50867 -5.50867
0.655144 -5.44906 -5.44906
0.546253 -5.38098 -5.38098
0.547745 -5.44467 -5.44467
0.441369 -5.50452 -5.50452
0.443193 -5.63338 -5.63338
0.660979 -5.64201 -5.64201
0.65712 -5.51308 -5.51308
0.442294 -5.5688 -5.5688
0.55205 -5.63757 -5.63757
0.659065 -5.57739 -5.57739
0.549208 -5.50867 -5.50867
0.550643 -5.57297 -5.57297
0.443193 -5.63338 -5.63338
0.444913 -5.76344 -5.76344
0.664717 -5.77215 -5.77215
0.660979 -5.64201 -5.64201
0.444066 -5.69826 -5.69826
0.554779 -5.76766 -5.76766
0.662863 -5.70693 -5.70693
0.55205 -5.63757 -5.63757
0.553429 -5.70247 -5.70247
0.444913 -5.76344 -5.76344
0.446529 -5.89469 -5.89469
0.668332 -5.90347 -5.90347
0.664717 -5.77215 -5.77215
0.445734 -5.82891 -5.82891
0.557395 -5.89895 -5.89895
0.66654 -5.83766 -5.83766
0.554779 -5.76766 -5.76766
0.556101 -5.83316 -5.83316
0.446529 -5.89469 -5.89469
0.44804 -6.02712 -6.02712
0.671826 -6.03598 -6.03598
0.668332 -5.90347 -5.90347
0.447298 -5.96075 -5.96075
0.559897 -6.03142 -6.03142
0.670095 -5.96958 -5.96958
0.557395 -5.89895 -5.89895
0.55866 -5.96504 -5.96504
0.44804 -6.02712 -6.02712
0.449447 -6.16071 -6.16071
0.675198 -6.16965 -6.16965
0.671826 -6.03598 -6.03598
0.448757 -6.09377 -6.09377
0.562287 -6.16506 -6.16506
0.673528 -6.10267 -6.10267
0.559897 -6.03142 -6.03142
0.561106 -6.09809 -6.09809
0.449447 -6.16071 -6.16071
0.450749 -6.29547 -6.29547
0.678449 -6.30448 -6.30448
0.675198 -6.16965 -6.16965
0.450111 -6.22795 -6.22795
0.564563 -6.29985 -6.29985
0.676839 -6.23692 -6.23692
0.562287 -6.16506 -6.16506
0.563439 -6.23231 -6.23231
0.450749 -6.29547 -6.29547
0.451947 -6.43137 -6.43137
0.681577 -6.44047 -6.44047
0.678449 -6.30448 -6.30448
0.451361 -6.36328 -6.36328
0.566726 -6.4358 -6.4358
0.680028 -6.37233 -6.37233
0.564563 -6.29985 -6.29985
0.565659 -6.36768 -6.36768
0.451947 -6.43137 -6.43137
0.45304 -6.56841 -6.56841
0.684584 -6.57758 -6.57758
0.681577 -6.44047 -6.44047
0.452507 -6.49975 -6.49975
0.568776 -6.57288 -6.57288
0.683096 -6.50888 -6.50888
0.566726 -6.4358 -6.4358
0.567765 -6.50419 -6.50419
0.45304 -6.56841 -6.56841
0.454029 -6.70658 -6.70658
0.687469 -6.71583 -6.71583
0.684584 -6.57758 -6.57758
0.453548 -6.63736 -6.63736
0.570713 -6.71109 -6.71109
0.686041 -6.64657 -6.64657
0.568776 -6.57288 -6.57288
0.569759 -6.64184 -6.64184
0.454029 -6.70658 -6.70658
0.454914 -6.84587 -6.84587
0.690232 -6.85519 -6.85519
0.687469 -6.71583 -6.71583
0.454485 -6.77609 -6.77609
0.572537 -6.85041 -6.85041
0.688865 -6.78537 -6.78537
0.570713 -6.71109 -6.71109
0.571639 -6.78061 -6.78061
0.454914 -6.84587 -6.84587
0.455694 -6.98627 -6.98627
0.692874 -6.99566 -6.99566
0.690232 -6.85519 -6.85519
0.455317 -6.91593 -6.91593
0.574248 -6.99085 -6.99085
0.691568 -6.92529 -6.92529
0.572537 -6.85041 -6.85041
0.573406 -6.92049 -6.92049
0.455694 -6.98627 -6.98627
0.456371 -7.12776 -7.12776
0.695394 -7.13723 -7.13723
0.692874 -6.99566 -6.99566
0.456045 -7.05688 -7.05688
0.575846 -7.13238 -7.13238
0.694149 -7.06631 -7.06631
0.574248 -6.99085 -6.99085
0.575061 -7.06147 -7.06147
0.456371 -7.12776 -7.12776
0.456943 -7.27033 -7.27033
0.697793 -7.27988 -7.27988
0.695394 -7.13723 -7.13723
0.45667 -7.19891 -7.19891
0.577332 -7.27499 -7.27499
0.696608 -7.20842 -7.20842
0.575846 -7.13238 -7.13238
0.576603 -7.20355 -7.20355
0.456943 -7.27033 -7.27033
0.457411 -7.41399 -7.41399
0.70007 -7.42361 -7.42361
0.697793 -7.27988 -7.27988
0.45719 -7.34203 -7.34203
0.578704 -7.41868 -7.41868
0.698947 -7.35162 -7.35162
0.577332 -7.27499 -7.27499
0.578032 -7.3467 -7.3467
0.457411 -7.41399 -7.41399
0.457775 -7.55871 -7.55871
0.702227 -7.56841 -7.56841
0.70007 -7.42361 -7.42361
0.457606 -7.48621 -7.48621
0.579965 -7.56344 -7.56344
0.701163 -7.49588 -7.49588
0.578704 -7.41868 -7.41868
0.579349 -7.49093 -7.49093
0.457775 -7.55871 -7.55871
0.458036 -7.70448 -7.70448
0.704262 -7.71426 -7.71426
0.702227 -7.56841 -7.56841
0.457919 -7.63146 -7.63146
0.581113 -7.70925 -7.70925
0.703259 -7.6412 -7.6412
0.579965 -7.56344 -7.56344
0.580553 -7.63622 -7.63622
0.458036 -7.70448 -7.70448
0.458194 -7.8513 -7.8513
0.706177 -7.86115 -7.86115
0.704262 -7.71426 -7.71426
0.458128 -7.77776 -7.77776
0.582149 -7.85611 -7.85611
0.705234 -7.78757 -7.78757
0.581113 -7.70925 -7.70925
0.581645 -7.78255 -7.78255
0.458194 -7.8513 -7.8513
0.458248 -7.99915 -7.99915
0.70797 -8.00908 -8.00908
0.706177 -7.86115 -7.86115
0.458233 -7.9251 -7.9251
0.583073 -8.004 -8.004
0.707089 -7.93499 -7.93499
0.582149 -7.85611 -7.85611
0.582625 -7.92993 -7.92993
0.458248 -7.99915 -7.99915
0.458198 -8.14803 -8.14803
0.709644 -8.15803 -8.15803
0.70797 -8.00908 -8.00908
0.458236 -8.07346 -8.07346
0.583885 -8.15292 -8.15292
0.708822 -8.08343 -8.08343
0.583073 -8.004 -8.004
0.583493 -8.07833 -8.07833
0.458198 -8.14803 -8.14803
0.458046 -8.29792 -8.29792
0.711197 -8.308 -8.308
0.709644 -8.15803 -8.15803
0.458135 -8.22285 -8.22285
0.584585 -8.30285 -8.30285
0.710435 -8.23289 -8.23289
0.583885 -8.15292 -8.15292
0.584249 -8.22776 -8.22776
0.458046 -8.29792 -8.29792
0.457791 -8.44882 -8.44882
0.71263 -8.45897 -8.45897
0.711197 -8.308 -8.308
0.457932 -8.37324 -8.37324
0.585174 -8.45378 -8.45378
0.711928 -8.38336 -8.38336
0.584585 -8.30285 -8.30285
0.584894 -8.37819 -8.37819
0.457791 -8.44882 -8.44882
0.457434 -8.6007 -8.6007
0.713943 -8.61093 -8.61093
0.71263 -8.45897 -8.45897
0.457625 -8.52464 -8.52464
0.585652 -8.60571 -8.60571
0.713302 -8.53482 -8.53482
0.585174 -8.45378 -8.45378
0.585427 -8.52962 -8.52962
0.457434 -8.6007 -8.6007
0.456974 -8.75357 -8.75357
0.715137 -8.76387 -8.76387
0.713943 -8.61093 -8.61093
0.457217 -8.67702 -8.67702
0.586019 -8.75862 -8.75862
0.714555 -8.68728 -8.68728
0.585652 -8.60571 -8.60571
0.585849 -8.68204 -8.68204
0.456974 -8.75357 -8.75357
0.456412 -8.90742 -8.90742
0.716211 -8.91779 -8.91779
0.715137 -8.76387 -8.76387
0.456706 -8.83038 -8.83038
0.586275 -8.9125 -8.9125
0.715689 -8.84071 -8.84071
0.586019 -8.75862 -8.75862
0.586161 -8.83544 -8.83544
0.456412 -8.90742 -8.90742
0.455748 -9.06222 -9.06222
0.717166 -9.07267 -9.07267
0.716211 -8.91779 -8.91779
0.456093 -8.9847 -8.9847
0.586421 -9.06734 -9.06734
0.716703 -8.99511 -8.99511
0.586275 -8.9125 -8.9125
0.586362 -8.9898 -8.9898
0.455748 -9.06222 -9.06222
0.454983 -9.21798 -9.21798
0.718002 -9.2285 -9.2285
0.717166 -9.07267 -9.07267
0.455379 -9.13998 -9.13998
0.586456 -9.22314 -9.22314
0.717599 -9.15046 -9.15046
0.586421 -9.06734 -9.06734
0.586452 -9.14512 -9.14512
0.454983 -9.21798 -9.21798
0.454117 -9.37468 -9.37468
0.718719 -9.38527 -9.38527
0.718002 -9.2285 -9.2285
0.454563 -9.29621 -9.29621
0.586382 -9.37987 -9.37987
0.718375 -9.30676 -9.30676
0.586456 -9.22314 -9.22314
0.586433 -9.30139 -9.30139
0.454117 -9.37468 -9.37468
0.453149 -9.53231 -9.53231
0.719318 -9.54297 -9.54297
0.718719 -9.38527 -9.38527
0.453646 -9.45338 -9.45338
0.586197 -9.53754 -9.53754
0.719034 -9.464 -9.464
0.586382 -9.37987 -9.37987
0.586303 -9.45859 -9.45859
0.453149 -9.53231 -9.53231
0.452081 -9.69086 -9.69086
0.7198 -9.70159 -9.70159
0.719318 -9.54297 -9.54297
0.452628 -9.61147 -9.61147
0.585904 -9.69613 -9.69613
0.719574 -9.62216 -9.62216
0.586197 -9.53754 -9.53754
0.586064 -9.61672 -9.61672
0.452081 -9.69086 -9.69086
0.450913 -9.85033 -9.85033
0.720163 -9.86112 -9.86112
0.7198 -9.70159 -9.70159
0.451509 -9.77048 -9.77048
0.585501 -9.85563 -9.85563
0.719996 -9.78124 -9.78124
0.585904 -9.69613 -9.69613
0.585716 -9.77576 -9.77576
0.450913 -9.85033 -9.85033
0.449644 -10.0107 -10.0107
0.720409 -10.0216 -10.0216
0.720163 -9.86112 -9.86112
0.450291 -9.9304 -9.9304
0.58499 -10.016 -10.016
0.720301 -9.94123 -9.94123
0.585501 -9.85563 -9.85563
0.585259 -9.93571 -9.93571
0.449644 -10.0107 -10.0107
0.448276 -10.1719 -10.1719
0.720538 -10.1829 -10.1829
0.720409 -10.0216 -10.0216
0.448972 -10.0912 -10.0912
0.58437 -10.1773 -10.1773
0.720488 -10.1021 -10.1021
0.58499 -10.016 -10.016
0.584694 -10.0966 -10.0966
0.448276 -10.1719 -10.1719
0.446808 -10.3341 -10.3341
0.720551 -10.3451 -10.3451
0.720538 -10.1829 -10.1829
0.447554 -10.2529 -10.2529
0.583643 -10.3395 -10.3395
0.720559 -10.2639 -10.2639
0.58437 -10.1773 -10.1773
0.58402 -10.2583 -10.2583
0.446808 -10.3341 -10.3341
0.445241 -10.4971 -10.4971
0.720447 -10.5081 -10.5081
0.720551 -10.3451 -10.3451
0.446037 -10.4155 -10.4155
0.582807 -10.5025 -10.5025
0.720513 -10.4265 -10.4265
0.583643 -10.3395 -10.3395
0.583238 -10.4209 -10.4209
0.445241 -10.4971 -10.4971
0.443576 -10.6609 -10.6609
0.720227 -10.6721 -10.6721
0.720447 -10.5081 -10.5081
0.444421 -10.5789 -10.5789
0.581865 -10.6664 -10.6664
0.720351 -10.59 -10.59
0.582807 -10.5025 -10.5025
0.582349 -10.5844 -10.5844
0.443576 -10.6609 -10.6609
0.441812 -10.8256 -10.8256
0.719891 -10.8368 -10.8368
0.720227 -10.6721 -10.6721
0.442706 -10.7432 -10.7432
0.580815 -10.8312 -10.8312
0.720073 -10.7544 -10.7544
0.581865 -10.6664 -10.6664
0.581353 -10.7487 -10.7487
0.441812 -10.8256 -10.8256
0.439951 -10.9912 -10.9912
0.71944 -11.0025 -11.0025
0.719891 -10.8368 -10.8368
0.440894 -10.9083 -10.9083
0.579659 -10.9967 -10.9967
0.71968 -10.9195 -10.9195
0.580815 -10.8312 -10.8312
0.58025 -10.9138 -10.9138
0.439951 -10.9912 -10.9912
0.437991 -11.1576 -11.1576
0.718875 -11.1689 -11.1689
0.71944 -11.0025 -11.0025
0.438983 -11.0743 -11.0743
0.578396 -11.1631 -11.1631
0.719172 -11.0856 -11.0856
0.579659 -10.9967 -10.9967
0.579041 -11.0798 -11.0798
0.437991 -11.1576 -11.1576
0.435935 -11.3248 -11.3248
0.718195 -11.3362 -11.3362
0.718875 -11.1689 -11.1689
0.436976 -11.2411 -11.2411
0.577028 -11.3304 -11.3304
0.718549 -11.2524 -11.2524
0.578396 -11.1631 -11.1631
0.577725 -11.2467 -11.2467
0.435935 -11.3248 -11.3248
0.433782 -11.4928 -11.4928
0.717401 -11.5042 -11.5042
0.718195 -11.3362 -11.3362
0.434871 -11.4087 -11.4087
0.575555 -11.4984 -11.4984
0.717812 -11.4201 -11.4201
0.577028 -11.3304 -11.3304
0.576305 -11.4143 -11.4143
0.433782 -11.4928 -11.4928
0.431533 -11.6616 -11.6616
0.716493 -11.6731 -11.6731
0.717401 -11.5042 -11.5042
0.43267 -11.5771 -11.5771
0.573976 -11.6672 -11.6672
0.716961 -11.5886 -11.5886
0.575555 -11.4984 -11.4984
0.574779 -11.5827 -11.5827
0.431533 -11.6616 -11.6616
0.429188 -11.8311 -11.8311
0.715473 -11.8427 -11.8427
0.716493 -11.6731 -11.6731
0.430373 -11.7463 -11.7463
0.572293 -11.8369 -11.8369
0.715997 -11.7578 -11.7578
0.573976 -11.6672 -11.6672
0.573148 -11.7519 -11.7519
0.429188 -11.8311 -11.8311
0.426748 -12.0015 -12.0015
0.714339 -12.0132 -12.0132
0.715473 -11.8427 -11.8427
0.42798 -11.9162 -11.9162
0.570507 -12.0072 -12.0072
0.71492 -11.9278 -11.9278
0.572293 -11.8369 -11.8369
0.571413 -11.922 -11.922
0.426748 -12.0015 -12.0015
0.424213 -12.1726 -12.1726
0.713093 -12.1843 -12.1843
0.714339 -12.0132 -12.0132
0.425492 -12.087 -12.087
0.568616 -12.1784 -12.1784
0.71373 -12.0987 -12.0987
0.570507 -12.0072 -12.0072
0.569574 -12.0927 -12.0927
0.424213 -12.1726 -12.1726
0.421583 -12.3445 -12.3445
0.711736 -12.3563 -12.3563
0.713093 -12.1843 -12.1843
0.42291 -12.2585 -12.2585
0.566622 -12.3503 -12.3503
0.712429 -12.2702 -12.2702
0.568616 -12.1784 -12.1784
0.567632 -12.2643 -12.2643
0.421583 -12.3445 -12.3445
0.418859 -12.5171 -12.5171
0.710267 -12.529 -12.529
0.711736 -12.3563 -12.3563
0.420233 -12.4307 -12.4307
0.564526 -12.523 -12.523
0.711016 -12.4425 -12.4425
0.566622 -12.3503 -12.3503
0.565587 -12.4366 -12.4366
0.418859 -12.5171 -12.5171
0.416042 -12.6905 -12.6905
0.708688 -12.7024 -12.7024
0.710267 -12.529 -12.529
0.417462 -12.6037 -12.6037
0.562328 -12.6964 -12.6964
0.709491 -12.6156 -12.6156
0.564526 -12.523 -12.523
0.56344 -12.6096 -12.6096
0.416042 -12.6905 -12.6905
0.413132 -12.8646 -12.8646
0.706998 -12.8765 -12.8765
0.708688 -12.7024 -12.7024
0.414599 -12.7775 -12.7775
0.560028 -12.8705 -12.8705
0.707857 -12.7894 -12.7894
0.562328 -12.6964 -12.6964
0.56119 -12.7833 -12.7833
0.413132 -12.8646 -12.8646
0.410129 -13.0394 -13.0394
0.705198 -13.0514 -13.0514
0.706998 -12.8765 -12.8765
0.411642 -12.9519 -12.9519
0.557627 -13.0453 -13.0453
0.706112 -12.9639 -12.9639
0.560028 -12.8705 -12.8705
0.55884 -12.9578 -12.9578
0.410129 -13.0394 -13.0394
0.407034 -13.2149 -13.2149
0.70329 -13.227 -13.227
0.705198 -13.0514 -13.0514
0.408593 -13.1271 -13.1271
0.555125 -13.2209 -13.2209
0.704258 -13.1391 -13.1391
0.557627 -13.0453 -13.0453
0.556388 -13.133 -13.133
0.407034 -13.2149 -13.2149
0.403848 -13.3911 -13.3911
0.701272 -13.4032 -13.4032
0.70329 -13.227 -13.227
0.405453 -13.3029 -13.3029
0.552523 -13.3971 -13.3971
0.702294 -13.315 -13.315
0.555125 -13.2209 -13.2209
0.553836 -13.3089 -13.3089
0.403848 -13.3911 -13.3911
0.400571 -13.568 -13.568
0.699146 -13.5802 -13.5802
0.701272 -13.4032 -13.4032
0.402221 -13.4795 -13.4795
0.549821 -13.574 -13.574
0.700222 -13.4916 -13.4916
0.552523 -13.3971 -13.3971
0.551184 -13.4855 -13.4855
0.400571 -13.568 -13.568
0.397203 -13.7456 -13.7456
0.696912 -13.7578 -13.7578
0.699146 -13.5802 -13.5802
0.398898 -13.6567 -13.6567
0.54702 -13.7516 -13.7516
0.698042 -13.6689 -13.6689
0.549821 -13.574 -13.574
0.548433 -13.6627 -13.6627
0.397203 -13.7456 -13.7456
0.393746 -13.9238 -13.9238
0.694571 -13.9361 -13.9361
0.696912 -13.7578 -13.7578
0.395486 -13.8346 -13.8346
0.544121 -13.9299 -13.9299
0.695755 -13.8468 -13.8468
0.54702 -13.7516 -13.7516
0.545583 -13.8406 -13.8406
0.393746 -13.9238 -13.9238
0.390199 -14.1027 -14.1027
0.692123 -14.115 -14.115
0.694571 -13.9361 -13.9361
0.391983 -14.0131 -14.0131
0.541123 -14.1088 -14.1088
0.693361 -14.0254 -14.0254
0.544121 -13.9299 -13.9299
0.542634 -14.0192 -14.0192
0.390199 -14.1027 -14.1027
0.386563 -14.2822 -14.2822
0.68957 -14.2946 -14.2946
0.692123 -14.115 -14.115
0.388392 -14.1923 -14.1923
0.538029 -14.2883 -14.2883
0.69086 -14.2047 -14.2047
0.541123 -14.1088 -14.1088
0.539588 -14.1984 -14.1984
0.386563 -14.2822 -14.2822
0.382839 -14.4623 -14.4623
0.686911 -14.4748 -14.4748
0.68957 -14.2946 -14.2946
0.384712 -14.3722 -14.3722
0.534837 -14.4685 -14.4685
0.688253 -14.3846 -14.3846
0.538029 -14.2883 -14.2883
0.536445 -14.3783 -14.3783
0.382839 -14.4623 -14.4623
0.379028 -14.6431 -14.6431
0.684146 -14.6556 -14.6556
0.686911 -14.4748 -14.4748
0.380944 -14.5526 -14.5526
0.531549 -14.6493 -14.6493
0.685542 -14.5651 -14.5651
0.534837 -14.4685 -14.4685
0.533205 -14.5588 -14.5588
0.379028 -14.6431 -14.6431
0.375129 -14.8245 -14.8245
0.681278 -14.837 -14.837
0.684146 -14.6556 -14.6556
0.377089 -14.7337 -14.7337
0.528166 -14.8307 -14.8307
0.682725 -14.7462 -14.7462
0.531549 -14.6493 -14.6493
0.529869 -14.7399 -14.7399
0.375129 -14.8245 -14.8245
0.371144 -15.0065 -15.0065
0.678306 -15.019 -15.019
0.681278 -14.837 -14.837
0.373147 -14.9154 -14.9154
0.524687 -15.0127 -15.0127
0.679805 -14.928 -14.928
0.528166 -14.8307 -14.8307
0.526438 -14.9216 -14.9216
0.371144 -15.0065 -15.0065
0.367073 -15.1891 -15.1891
0.67523 -15.2017 -15.2017
0.678306 -15.019 -15.019
0.369119 -15.0977 -15.0977
0.521114 -15.1953 -15.1953
0.676781 -15.1103 -15.1103
0.524687 -15.0127 -15.0127
0.522912 -15.1039 -15.1039
0.367073 -15.1891 -15.1891
0.362917 -15.3722 -15.3722
0.672052 -15.3849 -15.3849
0.67523 -15.2017 -15.2017
0.365005 -15.2806 -15.2806
0.517446 -15.3785 -15.3785
0.673654 -15.2932 -15.2932
0.521114 -15.1953 -15.1953
0.519292 -15.2868 -15.2868
0.362917 -15.3722 -15.3722
0.358676 -15.556 -15.556
0.668772 -15.5686 -15.5686
0.672052 -15.3849 -15.3849
0.360807 -15.464 -15.464
0.513686 -15.5622 -15.5622
0.670425 -15.4767 -15.4767
0.517446 -15.3785 -15.3785
0.515578 -15.4703 -15.4703
0.358676 -15.556 -15.556
0.35435 -15.7402 -15.7402
0.665391 -15.753 -15.753
0.668772 -15.5686 -15.5686
0.356523 -15.648 -15.648
0.509832 -15.7466 -15.7466
0.667094 -15.6607 -15.6607
0.513686 -15.5622 -15.5622
0.511771 -15.6543 -15.6543
0.35435 -15.7402 -15.7402
0.349942 -15.9251 -15.9251
0.661909 -15.9379 -15.9379
0.665391 -15.753 -15.753
0.352157 -15.8326 -15.8326
0.505887 -15.9314 -15.9314
0.663662 -15.8454 -15.8454
0.509832 -15.7466 -15.7466
0.507871 -15.8389 -15.8389
0.349942 -15.9251 -15.9251
0.345451 -16.1105 -16.1105
0.658327 -16.1233 -16.1233
0.661909 -15.9379 -15.9379
0.347707 -16.0177 -16.0177
0.50185 -16.1168 -16.1168
0.66013 -16.0305 -16.0305
0.505887 -15.9314 -15.9314
0.50388 -16.024 -16.024
0.345451 -16.1105 -16.1105
0.340877 -16.2964 -16.2964
0.654645 -16.3092 -16.3092
0.658327 -16.1233 -16.1233
0.343174 -16.2034 -16.2034
0.497723 -16.3027 -16.3027
0.656498 -16.2162 -16.2162
0.50185 -16.1168 -16.1168
0.499798 -16.2097 -16.2097
0.340877 -16.2964 -16.2964
0.336222 -16.4828 -16.4828
0.650864 -16.4957 -16.4957
0.654645 -16.3092 -16.3092
0.33856 -16.3895 -16.3895
0.493505 -16.4892 -16.4892
0.652767 -16.4024 -16.4024
0.497723 -16.3027 -16.3027
0.495625 -16.3959 -16.3959
0.336222 -16.4828 -16.4828
0.331486 -16.6697 -16.6697
0.646986 -16.6827 -16.6827
0.650864 -16.4957 -16.4957
0.333864 -16.5762 -16.5762
0.489198 -16.6762 -16.6762
0.648937 -16.5891 -16.5891
0.493505 -16.4892 -16.4892
0.491362 -16.5826 -16.5826
0.331486 -16.6697 -16.6697
0.32667 -16.8572 -16.8572
0.64301 -16.8701 -16.8701
0.646986 -16.6827 -16.6827
0.329088 -16.7634 -16.7634
0.484801 -16.8636 -16.8636
0.64501 -16.7764 -16.7764
0.489198 -16.6762 -16.6762
0.487011 -16.7698 -16.7698
0.32667 -16.8572 -16.8572
0.321775 -17.0451 -17.0451
0.638937 -17.0581 -17.0581
0.64301 -16.8701 -16.8701
0.324232 -16.9511 -16.9511
0.480317 -17.0516 -17.0516
0.640985 -16.9641 -16.9641
0.484801 -16.8636 -16.8636
0.48257 -16.9575 -16.9575
0.321775 -17.0451 -17.0451
0.3168 -17.2335 -17.2335
0.634767 -17.2465 -17.2465
0.638937 -17.0581 -17.0581
0.319297 -17.1393 -17.1393
0.475745 -17.24 -17.24
0.636864 -17.1523 -17.1523
0.480317 -17.0516 -17.0516
0.478042 -17.1457 -17.1457
0.3168 -17.2335 -17.2335
0.311747 -17.4224 -17.4224
0.630503 -17.4355 -17.4355
0.634767 -17.2465 -17.2465
0.314283 -17.3279 -17.3279
0.471086 -17.4289 -17.4289
0.632647 -17.3409 -17.3409
0.475745 -17.24 -17.24
0.473426 -17.3344 -17.3344
0.311747 -17.4224 -17.4224
0.306617 -17.6117 -17.6117
0.626143 -17.6248 -17.6248
0.630503 -17.4355 -17.4355
0.309192 -17.517 -17.517
0.466341 -17.6182 -17.6182
0.628335 -17.5301 -17.5301
0.471086 -17.4289 -17.4289
0.468724 -17.5235 -17.5235
0.306617 -17.6117 -17.6117
0.30141 -17.8015 -17.8015
0.62169 -17.8146 -17.8146
0.626143 -17.6248 -17.6248
0.304023 -17.7066 -17.7066
0.461511 -17.808 -17.808
0.623928 -17.7197 -17.7197
0.466341 -17.6182 -17.6182
0.463937 -17.7131 -17.7131
0.30141 -17.8015 -17.8015
0.296126 -17.9917 -17.9917
0.617142 -18.0049 -18.0049
0.62169 -17.8146 -17.8146
0.298777 -17.8966 -17.8966
0.456595 -17.9982 -17.9982
0.619428 -17.9097 -17.9097
0.461511 -17.808 -17.808
0.459064 -17.9031 -17.9031
0.296126 -17.9917 -17.9917
0.290767 -18.1824 -18.1824
0.612503 -18.1955 -18.1955
0.617142 -18.0049 -18.0049
0.293456 -18.087 -18.087
0.451596 -18.1889 -18.1889
0.614834 -18.1001 -18.1001
0.456595 -17.9982 -17.9982
0.454106 -18.0935 -18.0935
0.290767 -18.1824 -18.1824
0.285334 -18.3734 -18.3734
0.607771 -18.3866 -18.3866
0.612503 -18.1955 -18.1955
0.28806 -18.2778 -18.2778
0.446513 -18.38 -18.38
0.610148 -18.291 -18.291
0.451596 -18.1889 -18.1889
0.449065 -18.2844 -18.2844
0.285334 -18.3734 -18.3734
0.279826 -18.5649 -18.5649
0.602947 -18.5781 -18.5781
0.607771 -18.3866 -18.3866
0.282589 -18.4691 -18.4691
0.441347 -18.5714 -18.5714
0.60537 -18.4823 -18.4823
0.446513 -18.38 -18.38
0.44394 -18.4757 -18.4757
0.279826 -18.5649 -18.5649
0.274245 -18.7567 -18.7567
0.598033 -18.77 -18.77
0.602947 -18.5781 -18.5781
0.277045 -18.6608 -18.6608
0.4361 -18.7633 -18.7633
0.600502 -18.674 -18.674
0.441347 -18.5714 -18.5714
0.438734 -18.6673 -18.6673
0.274245 -18.7567 -18.7567
0.268591 -18.949 -18.949
0.59303 -18.9623 -18.9623
0.598033 -18.77 -18.77
0.271427 -18.8528 -18.8528
0.430771 -18.9556 -18.9556
0.595543 -18.8661 -18.8661
0.4361 -18.7633 -18.7633
0.433445 -18.8594 -18.8594
0.268591 -18.949 -18.949
0.262865 -19.1416 -19.1416
0.587936 -19.1549 -19.1549
0.59303 -18.9623 -18.9623
0.265737 -19.0453 -19.0453
0.425361 -19.1482 -19.1482
0.590494 -19.0585 -19.0585
0.430771 -18.9556 -18.9556
0.428076 -19.0519 -19.0519
0.262865 -19.1416 -19.1416
0.257069 -19.3346 -19.3346
0.582755 -19.3479 -19.3479
0.587936 -19.1549 -19.1549
0.259976 -19.2381 -19.2381
0.419872 -19.3412 -19.3412
0.585357 -19.2514 -19.2514
0.425361 -19.1482 -19.1482
0.422627 -19.2447 -19.2447
0.257069 -19.3346 -19.3346
0.251201 -19.5279 -19.5279
0.577485 -19.5413 -19.5413
0.582755 -19.3479 -19.3479
0.254144 -19.4312 -19.4312
0.414304 -19.5346 -19.5346
0.580131 -19.4446 -19.4446
0.419872 -19.3412 -19.3412
0.417098 -19.4378 -19.4378
0.251201 -19.5279 -19.5279
0.245264 -19.7216 -19.7216
0.572129 -19.735 -19.735
0.577485 -19.5413 -19.5413
0.248241 -19.6247 -19.6247
0.408657 -19.7283 -19.7283
0.574818 -19.6381 -19.6381
0.414304 -19.5346 -19.5346
0.41149 -19.6314 -19.6314
0.245264 -19.7216 -19.7216
0.239258 -19.9156 -19.9156
0.566686 -19.929 -19.929
0.572129 -19.735 -19.735
0.242269 -19.8186 -19.8186
0.402932 -19.9223 -19.9223
0.569418 -19.832 -19.832
0.408657 -19.7283 -19.7283
0.405804 -19.8252 -19.8252
0.239258 -19.9156 -19.9156
0.233183 -20.11 -20.11
0.561158 -20.1234 -20.1234
0.566686 -19.929 -19.929
0.236229 -20.0128 -20.0128
0.397131 -20.1167 -20.1167
0.563933 -20.0262 -20.0262
0.402932 -19.9223 -19.9223
0.400041 -20.0194 -20.0194
0.233183 -20.11 -20.11
0.227041 -20.3047 -20.3047
0.555545 -20.3181 -20.3181
0.561158 -20.1234 -20.1234
0.230121 -20.2073 -20.2073
0.391253 -20.3113 -20.3113
0.558362 -20.2207 -20.2207
0.397131 -20.1167 -20.1167
0.394202 -20.2139 -20.2139
0.227041 -20.3047 -20.3047
0.220833 -20.4996 -20.4996
0.549848 -20.513 -20.513
0.555545 -20.3181 -20.3181
0.223945 -20.4021 -20.4021
0.3853 -20.5063 -20.5063
0.552707 -20.4155 -20.4155
0.391253 -20.3113 -20.3113
0.388286 -20.4088 -20.4088
0.220833 -20.4996 -20.4996
0.214558 -20.6949 -20.6949
0.544068 -20.7083 -20.7083
0.549848 -20.513 -20.513
0.217704 -20.5972 -20.5972
0.379273 -20.7016 -20.7016
0.546968 -20.6106 -20.6106
0.3853 -20.5063 -20.5063
0.382296 -20.6039 -20.6039
0.214558 -20.6949 -20.6949
0.208218 -20.8904 -20.8904
0.538205 -20.9039 -20.9039
0.544068 -20.7083 -20.7083
0.211396 -20.7926 -20.7926
0.373171 -20.8971 -20.8971
0.541147 -20.8061 -20.8061
0.379273 -20.7016 -20.7016
0.376231 -20.7993 -20.7993
0.208218 -20.8904 -20.8904
0.201813 -21.0862 -21.0862
0.53226 -21.0997 -21.0997
0.538205 -20.9039 -20.9039
0.205024 -20.9883 -20.9883
0.366996 -21.0929 -21.0929
0.535243 -21.0017 -21.0017
0.373171 -20.8971 -20.8971
0.370093 -20.995 -20.995
0.201813 -21.0862 -21.0862
0.195345 -21.2823 -21.2823
0.526234 -21.2958 -21.2958
0.53226 -21.0997 -21.0997
0.198587 -21.1842 -21.1842
0.360749 -21.289 -21.289
0.529257 -21.1977 -21.1977
0.366996 -21.0929 -21.0929
0.363882 -21.1909 -21.1909
0.195345 -21.2823 -21.2823
0.188814 -21.4786 -21.4786
0.520128 -21.4921 -21.4921
0.526234 -21.2958 -21.2958
0.192087 -21.3804 -21.3804
0.354431 -21.4853 -21.4853
0.523191 -21.3939 -21.3939
0.360749 -21.289 -21.289
0.357599 -21.3871 -21.3871
0.188814 -21.4786 -21.4786
0.18222 -21.6752 -21.6752
0.513943 -21.6887 -21.6887
0.520128 -21.4921 -21.4921
0.185525 -21.5769 -21.5769
0.348041 -21.6819 -21.6819
0.517045 -21.5904 -21.5904
0.354431 -21.4853 -21.4853
0.351245 -21.5836 -21.5836
0.18222 -21.6752 -21.6752
0.175565 -21.872 -21.872
0.507679 -21.8855 -21.8855
0.513943 -21.6887 -21.6887
0.1789 -21.7736 -21.7736
0.341581 -21.8787 -21.8787
0.51082 -21.7871 -21.7871
0.348041 -21.6819 -21.6819
0.34482 -21.7803 -21.7803
0.175565 -21.872 -21.872
0.16885 -22.069 -22.069
0.501336 -22.0825 -22.0825
0.507679 -21.8855 -21.8855
0.172215 -21.9705 -21.9705
0.335052 -22.0758 -22.0758
0.504517 -21.984 -21.984
0.341581 -21.8787 -21.8787
0.338325 -21.9772 -21.9772
0.16885 -22.069 -22.069
0.162074 -22.2663 -22.2663
0.494917 -22.2798 -22.2798
0.501336 -22.0825 -22.0825
0.165469 -22.1676 -22.1676
0.328455 -22.273 -22.273
0.498136 -22.1811 -22.1811
0.335052 -22.0758 -22.0758
0.331762 -22.1744 -22.1744
0.162074 -22.2663 -22.2663
0.155239 -22.4637 -22.4637
0.488421 -22.4772 -22.4772
0.494917 -22.2798 -22.2798
0.158664 -22.365 -22.365
0.321789 -22.4704 -22.4704
0.491679 -22.3785 -22.3785
0.328455 -22.273 -22.273
0.32513 -22.3717 -22.3717
0.155239 -22.4637 -22.4637
0.148346 -22.6614 -22.6614
0.48185 -22.6748 -22.6748
0.488421 -22.4772 -22.4772
0.1518 -22.5625 -22.5625
0.315057 -22.6681 -22.6681
0.485145 -22.576 -22.576
0.321789 -22.4704 -22.4704
0.318432 -22.5692 -22.5692
0.148346 -22.6614 -22.6614
0.141396 -22.8592 -22.8592
0.475204 -22.8726 -22.8726
0.48185 -22.6748 -22.6748
0.144878 -22.7602 -22.7602
0.308259 -22.8659 -22.8659
0.478536 -22.7737 -22.7737
0.315057 -22.6681 -22.6681
0.311666 -22.767 -22.767
0.141396 -22.8592 -22.8592
0.134388 -23.0571 -23.0571
0.468483 -23.0706 -23.0706
0.475204 -22.8726 -22.8726
0.137899 -22.9581 -22.9581
0.301395 -23.0639 -23.0639
0.471853 -22.9716 -22.9716
0.308259 -22.8659 -22.8659
0.304835 -22.9648 -22.9648
0.134388 -23.0571 -23.0571
0.127325 -23.2553 -23.2553
0.46169 -23.2688 -23.2688
0.468483 -23.0706 -23.0706
0.130864 -23.1562 -23.1562
0.294466 -23.262 -23.262
0.465096 -23.1697 -23.1697
0.301395 -23.0639 -23.0639
0.297939 -23.1629 -23.1629
0.127325 -23.2553 -23.2553
0.120207 -23.4536 -23.4536
0.454824 -23.467 -23.467
0.46169 -23.2688 -23.2688
0.123773 -23.3544 -23.3544
0.287474 -23.4603 -23.4603
0.458266 -23.3679 -23.3679
0.294466 -23.262 -23.262
0.290978 -23.3611 -23.3611
0.120207 -23.4536 -23.4536
0.113034 -23.652 -23.652
0.447886 -23.6655 -23.6655
0.454824 -23.467 -23.467
0.116627 -23.5528 -23.5528
0.280419 -23.6587 -23.6587
0.451364 -23.5662 -23.5662
0.287474 -23.4603 -23.4603
0.283954 -23.5595 -23.5595
0.113034 -23.652 -23.652
0.105808 -23.8506 -23.8506
0.440878 -23.864 -23.864
0.447886 -23.6655 -23.6655
0.109427 -23.7513 -23.7513
0.273301 -23.8573 -23.8573
0.444391 -23.7647 -23.7647
0.280419 -23.6587 -23.6587
0.276868 -23.758 -23.758
0.105808 -23.8506 -23.8506
0.0985284 -24.0493 -24.0493
0.433799 -24.0627 -24.0627
0.440878 -23.864 -23.864
0.102174 -23.9499 -23.9499
0.266122 -24.056 -24.056
0.437347 -23.9633 -23.9633
0.273301 -23.8573 -23.8573
0.269719 -23.9566 -23.9566
0.0985284 -24.0493 -24.0493
0.0911973 -24.248 -24.248
0.426652 -24.2615 -24.2615
0.433799 -24.0627 -24.0627
0.0948693 -24.1486 -24.1486
0.258883 -24.2547 -24.2547
0.430234 -24.1621 -24.1621
0.266122 -24.056 -24.056
0.26251 -24.1553 -24.1553
0.0911973 -24.248 -24.248
0.0838151 -24.4469 -24.4469
0.419436 -24.4603 -24.4603
0.426652 -24.2615 -24.2615
0.0875126 -24.3475 -24.3475
0.251585 -24.4536 -24.4536
0.423052 -24.3609 -24.3609
0.258883 -24.2547 -24.2547
0.255241 -24.3542 -24.3542
0.0838151 -24.4469 -24.4469
0.0763826 -24.6459 -24.6459
0.412155 -24.6593 -24.6593
0.419436 -24.4603 -24.4603
0.0801051 -24.5464 -24.5464
0.244228 -24.6526 -24.6526
0.415804 -24.5598 -24.5598
0.251585 -24.4536 -24.4536
0.247914 -24.5531 -24.5531
0.0763826 -24.6459 -24.6459
0.0689004 -24.845 -24.845
0.404808 -24.8583 -24.8583
0.412155 -24.6593 -24.6593
0.0726477 -24.7454 -24.7454
0.236815 -24.8516 -24.8516
0.408489 -24.7588 -24.7588
0.244228 -24.6526 -24.6526
0.240529 -24.7521 -24.7521
0.0689004 -24.845 -24.845
0.061369 -25.0441 -25.0441
0.397401 -25.0574 -25.0574
0.404808 -24.8583 -24.8583
0.0651409 -24.9445 -24.9445
0.229347 -25.0507 -25.0507
0.401112 -24.9579 -24.9579
0.236815 -24.8516 -24.8516
0.233088 -24.9512 -24.9512
0.061369 -25.0441 -25.0441
0.0537878 -25.2433 -25.2433
0.389938 -25.2566 -25.2566
0.397401 -25.0574 -25.0574
0.0575846 -25.1437 -25.1437
0.221827 -25.2499 -25.2499
0.393676 -25.157 -25.157
0.229347 -25.0507 -25.0507
0.225594 -25.1503 -25.1503
0.0537878 -25.2433 -25.2433
0.0461557 -25.4425 -25.4425
0.382425 -25.4558 -25.4558
0.389938 -25.2566 -25.2566
0.0499785 -25.3429 -25.3429
0.214258 -25.4491 -25.4491
0.386187 -25.3562 -25.3562
0.221827 -25.2499 -25.2499
0.218049 -25.3495 -25.3495
0.0461557 -25.4425 -25.4425
0.0384669 -25.6418 -25.6418
0.374879 -25.6551 -25.6551
0.382425 -25.4558 -25.4558
0.0423186 -25.5421 -25.5421
0.206642 -25.6484 -25.6484
0.378656 -25.5555 -25.5555
0.214258 -25.4491 -25.4491
0.210456 -25.5488 -25.5488
0.0384669 -25.6418 -25.6418
0.0307157 -25.8411 -25.8411
0.367323 -25.8545 -25.8545
0.374879 -25.6551 -25.6551
0.0346001 -25.7415 -25.7415
0.198971 -25.8478 -25.8478
0.3711 -25.7548 -25.7548
0.206642 -25.6484 -25.6484
0.202814 -25.7481 -25.7481
0.0307157 -25.8411 -25.8411
0.0229002 -26.0406 -26.0406
0.359809 -26.054 -26.054
0.367323 -25.8545 -25.8545
0.0268131 -25.9409 -25.9409
0.191224 -26.0473 -26.0473
0.363555 -25.9542 -25.9542
0.198971 -25.8478 -25.8478
0.195113 -25.9475 -25.9475
0.0229002 -26.0406 -26.0406
0.0151115 -26.2402 -26.2402
0.352276 -26.2544 -26.2544
0.359809 -26.054 -26.054
0.0189906 -26.1404 -26.1404
0.183387 -26.2472 -26.2472
0.356078 -26.154 -26.154
0.191224 -26.0473 -26.0473
0.187299 -26.1472 -26.1472
      </DataArray> 
      <DataArray type="Float64" NumberOfComponents="4" Name="CauchyStress" format="ascii">
-13778.5 -4158.17 0 -3244
-8891.91 168.561 0 144.366
-6662.74 -724.497 0 -358.849
-6295.6 -1899.43 0 -246.18
-9882.79 202.485 0 -439.354
-8290.51 -511.721 0 -462.086
-6540.02 -1365 0 -420.836
-7389.32 -2230.19 0 -792.774
-8189.28 -1123.42 0 -736.304
-8891.91 168.561 0 144.366
-8816.66 96.1314 0 57.2228
-6759.74 -219.863 0 -160.72
-6662.74 -724.497 0 -358.849
-8826.48 -33.0213 0 71.9124
-7977.39 -76.8165 0 -62.1377
-6754.9 -374.527 0 -253.148
-8290.51 -511.721 0 -462.086
-8077.62 -184.811 0 -176.708
-8816.66 96.1314 0 57.2228
-8982.1 -32.2566 0 41.2367
-6673.93 -45.8688 0 -46.8641
-6759.74 -219.863 0 -160.72
-8911.92 61.8756 0 60.0182
-7873.66 -5.98363 0 13.1707
-6708.14 -112.095 0 -86.5435
-7977.39 -76.8165 0 -62.1377
-7920.9 -31.2326 0 -19.373
-8982.1 -32.2566 0 41.2367
-9021.27 9.00069 0 27.4957
-6615.81 -9.0977 0 -18.5984
-6673.93 -45.8688 0 -46.8641
-9004.34 -29.5014 0 22.5481
-7825.81 2.92333 0 28.1436
-6648.14 -18.891 0 -28.5432
-7873.66 -5.98363 0 13.1707
-7840.47 3.55093 0 28.8709
-9021.27 9.00069 0 27.4957
-9053.11 -10.8383 0 37.8369
-6557.75 4.47828 0 -13.3831
-6615.81 -9.0977 0 -18.5984
-9044.21 6.1643 0 36.5425
-7803.59 1.87605 0 22.8104
-6582.05 -0.314323 0 -13.606
-7825.81 2.92333 0 28.1436
-7817.05 1.48699 0 23.8756
-9053.11 -10.8383 0 37.8369
-9038.99 1.18846 0 42.0158
-6517.67 1.78901 0 -17.305
-6557.75 4.47828 0 -13.3831
-9046.93 -7.9477 0 37.6353
-7775.88 -0.0745852 0 18.6182
-6538.35 3.84233 0 -15.5873
-7803.59 1.87605 0 22.8104
-7788.93 1.49669 0 21.24
-9038.99 1.18846 0 42.0158
-9017.5 -2.68403 0 50.1906
-6478.81 -0.73145 0 -19.7169
-6517.67 1.78901 0 -17.305
-9030.87 0.810023 0 47.1447
-7746.31 -2.18402 0 16.6246
-6497.05 0.580138 0 -18.5344
-7775.88 -0.0745852 0 18.6182
-7762.3 -1.47669 0 16.8791
-9017.5 -2.68403 0 50.1906
-8980.43 -0.0551367 0 56.393
-6444.19 -4.05565 0 -20.7631
-6478.81 -0.73145 0 -19.7169
-8999.46 -1.9838 0 52.7677
-7711.64 -3.33791 0 17.3647
-6461.72 -2.50852 0 -20.6207
-7746.31 -2.18402 0 16.6246
-7729.06 -2.70936 0 16.825
-8980.43 -0.0551367 0 56.393
-8939.74 -0.870726 0 63.3337
-6409.52 -6.01182 0 -19.5617
-6444.19 -4.05565 0 -20.7631
-8960.84 -0.130108 0 60.1344
-7674.8 -4.20945 0 20.0705
-6426.61 -5.13358 0 -20.3303
-7711.64 -3.33791 0 17.3647
-7693.66 -3.88188 0 18.4667
-8939.74 -0.870726 0 63.3337
-8894.68 -0.41824 0 69.7091
-6375.57 -7.36448 0 -17.1178
-6409.52 -6.01182 0 -19.5617
-8917.39 -0.765994 0 66.4123
-7635.87 -4.61281 0 23.9395
-6392.62 -6.78651 0 -18.5052
-7674.8 -4.20945 0 20.0705
-7655.41 -4.4171 0 21.9068
-8894.68 -0.41824 0 69.7091
-8848.46 -0.658593 0 76.1244
-6341.48 -8.04423 0 -13.7215
-6375.57 -7.36448 0 -17.1178
-8871.74 -0.467553 0 72.9927
-7596.07 -4.87574 0 28.5289
-6358.49 -7.7575 0 -15.4919
-7635.87 -4.61281 0 23.9395
-7616.11 -4.7758 0 26.1664
-8848.46 -0.658593 0 76.1244
-8801.23 -0.675031 0 82.3309
-6307.46 -8.39145 0 -9.87511
-6341.48 -8.04423 0 -13.7215
-8824.89 -0.690299 0 79.2149
-7555.63 -4.98461 0 33.4362
-6324.49 -8.25668 0 -11.8459
-7596.07 -4.87574 0 28.5289
-7575.88 -4.93422 0 30.9572
-8801.23 -0.675031 0 82.3309
-8753.75 -0.82315 0 88.4487
-6273.36 -8.5051 0 -5.77664
-6307.46 -8.39145 0 -9.87511
-8777.52 -0.733902 0 85.4175
-7514.95 -5.0489 0 38.4913
-6290.4 -8.46658 0 -7.84169
-7555.63 -4.98461 0 33.4362
-7535.33 -5.02482 0 35.955
-8753.75 -0.82315 0 88.4487
-8706.11 -0.940353 0 94.4401
-6239.25 -8.50861 0 -1.60309
-6273.36 -8.5051 0 -5.77664
-8729.94 -0.885732 0 91.4526
-7474.11 -5.07598 0 43.5594
-6256.31 -8.518 0 -3.69488
-7514.95 -5.0489 0 38.4913
-7494.54 -5.063 0 41.0279
-8706.11 -0.940353 0 94.4401
-8658.44 -1.08382 0 100.326
-6205.11 -8.45076 0 2.57433
-6239.25 -8.50861 0 -1.60309
-8682.28 -1.00853 0 97.3993
-7433.23 -5.09599 0 48.5899
-6222.18 -8.48408 0 0.489545
-7474.11 -5.07598 0 43.5594
-7453.68 -5.0873 0 46.0822
-8658.44 -1.08382 0 100.326
-8610.77 -1.22851 0 106.103
-6170.97 -8.36911 0 6.70635
-6205.11 -8.45076 0 2.57433
-8634.6 -1.1563 0 103.227
-7392.32 -5.11301 0 53.5479
-6188.05 -8.41196 0 4.64729
-7433.23 -5.09599 0 48.5899
-7412.77 -5.10389 0 51.079
-8610.77 -1.22851 0 106.103
-8563.1 -1.38174 0 111.775
-6136.82 -8.27888 0 10.775
-6170.97 -8.36911 0 6.70635
-8586.93 -1.3039 0 108.953
-7351.4 -5.13384 0 58.4224
-6153.9 -8.32424 0 8.74956
-7392.32 -5.11301 0 53.5479
-7371.86 -5.12305 0 55.9962
-8563.1 -1.38174 0 111.775
-8515.44 -1.54059 0 117.343
-6102.67 -8.18933 0 14.7702
-6136.82 -8.27888 0 10.775
-8539.27 -1.46059 0 114.572
-7310.48 -5.15949 0 63.2071
-6119.74 -8.2338 0 12.782
-7351.4 -5.13384 0 58.4224
-7330.94 -5.14587 0 60.8261
-8515.44 -1.54059 0 117.343
-8467.79 -1.70534 0 122.807
-6068.51 -8.10377 0 18.6896
-6102.67 -8.18933 0 14.7702
-8491.61 -1.62219 0 120.088
-7269.56 -5.19098 0 67.9013
-6085.59 -8.1459 0 16.7395
-7310.48 -5.15949 0 63.2071
-7290.02 -5.17455 0 65.5655
-8467.79 -1.70534 0 122.807
-8420.13 -1.87581 0 128.168
-6034.34 -8.02369 0 22.5327
-6068.51 -8.10377 0 18.6896
-8443.96 -1.78991 0 125.501
-7228.64 -5.22823 0 72.505
-6051.42 -8.06303 0 20.6207
-7269.56 -5.19098 0 67.9013
-7249.1 -5.20887 0 70.2144
-8420.13 -1.87581 0 128.168
-8372.48 -2.05163 0 133.427
-6000.18 -7.94931 0 26.3004
-6034.34 -8.02369 0 22.5327
-8396.31 -1.96306 0 130.811
-7187.72 -5.2711 0 77.0193
-6017.26 -7.98579 0 24.4259
-7228.64 -5.22823 0 72.505
-7208.18 -5.24899 0 74.7733
-8372.48 -2.05163 0 133.427
-8324.81 -2.2327 0 138.584
-5966.01 -7.88045 0 29.9935
-6000.18 -7.94931 0 26.3004
-8348.65 -2.14153 0 136.018
-7146.79 -5.3193 0 81.4451
-5983.09 -7.91421 0 28.1562
-7187.72 -5.2711 0 77.0193
-7167.26 -5.29455 0 79.2432
-8324.81 -2.2327 0 138.584
-8277.15 -2.41868 0 143.64
-5931.83 -7.8168 0 33.613
-5966.01 -7.88045 0 29.9935
-8300.98 -2.32509 0 141.125
-7105.86 -5.37255 0 85.7833
-5948.92 -7.848 0 31.8124
-7146.79 -5.3193 0 81.4451
-7126.33 -5.34532 0 83.6251
-8277.15 -2.41868 0 143.64
-8229.47 -2.60939 0 148.595
-5897.65 -7.75801 0 37.1599
-5931.83 -7.8168 0 33.613
-8253.31 -2.51347 0 146.13
-7064.92 -5.43055 0 90.0347
-5914.74 -7.78682 0 35.3955
-7105.86 -5.37255 0 85.7833
-7085.39 -5.40097 0 87.9198
-8229.47 -2.60939 0 148.595
-8181.79 -2.80454 0 153.449
-5863.47 -7.70378 0 40.6347
-5897.65 -7.75801 0 37.1599
-8205.63 -2.70643 0 151.035
-7023.98 -5.49306 0 94.1999
-5880.56 -7.73035 0 38.9063
-7064.92 -5.43055 0 90.0347
-7044.45 -5.46126 0 92.128
-8181.79 -2.80454 0 153.449
-8134.11 -3.0039 0 158.205
-5829.29 -7.65382 0 44.0382
-5863.47 -7.70378 0 40.6347
-8157.95 -2.90371 0 155.84
-6983.04 -5.55982 0 98.2797
-5846.38 -7.67828 0 42.3454
-7023.98 -5.49306 0 94.1999
-7003.51 -5.52592 0 96.2504
-8134.11 -3.0039 0 158.205
-8086.41 -3.2072 0 162.861
-5795.1 -7.60789 0 47.3708
-5829.29 -7.65382 0 44.0382
-8110.26 -3.10507 0 160.545
-6942.08 -5.63059 0 102.274
-5812.19 -7.63037 0 45.7133
-6983.04 -5.55982 0 98.2797
-6962.56 -5.59471 0 100.288
-8086.41 -3.2072 0 162.861
-8038.72 -3.4142 0 167.419
-5760.91 -7.56578 0 50.633
-5795.1 -7.60789 0 47.3708
-8062.57 -3.31025 0 165.152
-6901.13 -5.70516 0 106.185
-5778 -7.58637 0 49.0106
-6942.08 -5.63059 0 102.274
-6921.61 -5.66741 0 104.24
-8038.72 -3.4142 0 167.419
-7991.01 -3.62466 0 171.879
-5726.71 -7.52729 0 53.8252
-5760.91 -7.56578 0 50.633
-8014.86 -3.51901 0 169.661
-6860.17 -5.7833 0 110.011
-5743.81 -7.54609 0 52.2378
-6901.13 -5.70516 0 106.185
-6880.65 -5.74379 0 108.108
-7991.01 -3.62466 0 171.879
-7943.3 -3.83833 0 176.241
-5692.51 -7.49222 0 56.948
-5726.71 -7.52729 0 53.8252
-7967.16 -3.73111 0 174.072
-6819.21 -5.86481 0 113.754
-5709.61 -7.50934 0 55.3953
-6860.17 -5.7833 0 110.011
-6839.69 -5.82364 0 111.893
-7943.3 -3.83833 0 176.241
-7895.59 -4.05498 0 180.507
-5658.31 -7.46041 0 60.0016
-5692.51 -7.49222 0 56.948
-7919.45 -3.9463 0 178.386
-6778.24 -5.94948 0 117.414
-5675.41 -7.47592 0 58.4834
-6819.21 -5.86481 0 113.754
-6798.72 -5.90676 0 115.595
-7895.59 -4.05498 0 180.507
-7847.87 -4.27437 0 184.677
-5624.11 -7.43169 0 62.9865
-5658.31 -7.46041 0 60.0016
-7871.73 -4.16434 0 182.604
-6737.27 -6.03711 0 120.992
-5641.21 -7.44567 0 61.5026
-6778.24 -5.94948 0 117.414
-6757.75 -5.99294 0 119.214
-7847.87 -4.27437 0 184.677
-7800.15 -4.49627 0 188.751
-5589.9 -7.40588 0 65.9031
-5624.11 -7.43169 0 62.9865
-7824.01 -4.38502 0 186.726
-6696.29 -6.1275 0 124.488
-5607 -7.41843 0 64.4533
-6737.27 -6.03711 0 120.992
-6716.78 -6.08197 0 122.75
-7800.15 -4.49627 0 188.751
-7752.42 -4.72046 0 192.73
-5555.69 -7.38283 0 68.7519
-5589.9 -7.40588 0 65.9031
-7776.28 -4.60809 0 190.752
-6655.31 -6.22047 0 127.902
-5572.8 -7.39402 0 67.336
-6696.29 -6.1275 0 124.488
-6675.8 -6.17368 0 126.205
-7752.42 -4.72046 0 192.73
-7704.69 -4.94671 0 196.615
-5521.48 -7.36238 0 71.5332
-5555.69 -7.38283 0 68.7519
-7728.55 -4.83334 0 194.684
-6614.33 -6.31581 0 131.236
-5538.59 -7.37229 0 70.1509
-6655.31 -6.22047 0 127.902
-6634.82 -6.26786 0 129.579
-7704.69 -4.94671 0 196.615
-7656.95 -5.17481 0 200.406
-5487.27 -7.34438 0 74.2474
-5521.48 -7.36238 0 71.5332
-7680.82 -5.06054 0 198.522
-6573.35 -6.41335 0 134.488
-5504.38 -7.35309 0 72.8986
-6614.33 -6.31581 0 131.236
-6593.84 -6.36432 0 132.872
-7656.95 -5.17481 0 200.406
-7609.21 -5.40454 0 204.103
-5453.06 -7.32867 0 76.895
-5487.27 -7.34438 0 74.2474
-7633.08 -5.28948 0 202.266
-6532.36 -6.5129 0 137.661
-5470.16 -7.33625 0 75.5795
-6573.35 -6.41335 0 134.488
-6552.86 -6.46288 0 136.085
-7609.21 -5.40454 0 204.103
-7561.47 -5.63569 0 207.708
-5418.84 -7.3151 0 79.4763
-5453.06 -7.32867 0 76.895
-7585.34 -5.51995 0 205.917
-6491.38 -6.61427 0 140.755
-5435.95 -7.32163 0 78.1939
-6532.36 -6.5129 0 137.661
-6511.87 -6.56337 0 139.218
-7561.47 -5.63569 0 207.708
-7513.73 -5.86805 0 211.221
-5384.62 -7.30353 0 81.9918
-5418.84 -7.3151 0 79.4763
-7537.6 -5.75173 0 209.476
-6450.39 -6.7173 0 143.769
-5401.73 -7.30907 0 80.7422
-6491.38 -6.61427 0 140.755
-6470.88 -6.66559 0 142.272
-7513.73 -5.86805 0 211.221
-7465.98 -6.10143 0 214.643
-5350.41 -7.2938 0 84.4419
-5384.62 -7.30353 0 81.9918
-7489.86 -5.98462 0 212.943
-6409.39 -6.8218 0 146.705
-5367.52 -7.29844 0 83.225
-6450.39 -6.7173 0 143.769
-6429.89 -6.76937 0 145.247
-7465.98 -6.10143 0 214.643
-7418.23 -6.33561 0 217.973
-5316.19 -7.28578 0 86.8269
-5350.41 -7.2938 0 84.4419
-7442.11 -6.21843 0 216.319
-6368.4 -6.92761 0 149.563
-5333.3 -7.28959 0 85.6425
-6409.39 -6.8218 0 146.705
-6388.9 -6.87455 0 148.144
-7418.23 -6.33561 0 217.973
-7370.48 -6.57041 0 221.213
-5281.97 -7.27933 0 89.1474
-5316.19 -7.28578 0 86.8269
-7394.36 -6.45295 0 219.604
-6327.4 -7.03456 0 152.344
-5299.08 -7.28237 0 87.9952
-6368.4 -6.92761 0 149.563
-6347.9 -6.98095 0 150.963
-7370.48 -6.57041 0 221.213
-7322.73 -6.80564 0 224.364
-5247.75 -7.27431 0 91.4038
-5281.97 -7.27933 0 89.1474
-7346.6 -6.68799 0 222.8
-6286.41 -7.14248 0 155.048
-5264.86 -7.27665 0 90.2836
-6327.4 -7.03456 0 152.344
-6306.91 -7.0884 0 153.705
-7322.73 -6.80564 0 224.364
-7274.97 -7.0411 0 227.425
-5213.52 -7.27059 0 93.5963
-5247.75 -7.27431 0 91.4038
-7298.85 -6.92335 0 225.905
-6245.41 -7.25121 0 157.675
-5230.63 -7.2723 0 92.508
-6286.41 -7.14248 0 155.048
-6265.91 -7.19675 0 156.371
-7274.97 -7.0411 0 227.425
-7227.21 -7.27661 0 230.397
-5179.3 -7.26803 0 95.7255
-5213.52 -7.27059 0 93.5963
-7251.09 -7.15886 0 228.922
-6204.41 -7.3606 0 160.226
-5196.41 -7.26917 0 94.6688
-6245.41 -7.25121 0 157.675
-6224.91 -7.30583 0 158.96
-7227.21 -7.27661 0 230.397
-7179.45 -7.51199 0 233.282
-5145.08 -7.2665 0 97.7918
-5179.3 -7.26803 0 95.7255
-7203.33 -7.39433 0 231.85
-6163.41 -7.47048 0 162.701
-5162.19 -7.26715 0 96.7665
-6204.41 -7.3606 0 160.226
-6183.91 -7.41549 0 161.473
-7179.45 -7.51199 0 233.282
-7131.69 -7.74707 0 236.079
-5110.86 -7.26588 0 99.7956
-5145.08 -7.2665 0 97.7918
-7155.57 -7.62958 0 234.691
-6122.41 -7.58071 0 165.102
-5127.97 -7.26609 0 98.8015
-6163.41 -7.47048 0 162.701
-6142.91 -7.52556 0 163.911
-7131.69 -7.74707 0 236.079
-7083.93 -7.98165 0 238.789
-5076.63 -7.26605 0 101.737
-5110.86 -7.26588 0 99.7956
-7107.81 -7.86443 0 237.445
-6081.41 -7.69114 0 167.428
-5093.74 -7.26588 0 100.774
-6122.41 -7.58071 0 165.102
-6101.91 -7.63591 0 166.274
-7083.93 -7.98165 0 238.789
-7036.17 -8.21559 0 241.413
-5042.41 -7.26687 0 103.617
-5076.63 -7.26605 0 101.737
-7060.05 -8.09871 0 240.112
-6040.4 -7.80161 0 169.68
-5059.52 -7.26638 0 102.685
-6081.41 -7.69114 0 167.428
-6060.91 -7.74638 0 168.564
-7036.17 -8.21559 0 241.413
-6988.4 -8.44871 0 243.951
-5008.19 -7.26824 0 105.436
-5042.41 -7.26687 0 103.617
-7012.28 -8.33226 0 242.693
-5999.4 -7.912 0 171.859
-5025.3 -7.26749 0 104.534
-6040.4 -7.80161 0 169.68
-6019.9 -7.85683 0 170.779
-6988.4 -8.44871 0 243.951
-6940.64 -8.68084 0 246.404
-4973.96 -7.27002 0 107.194
-5008.19 -7.26824 0 105.436
-6964.52 -8.5649 0 245.188
-5958.4 -8.02215 0 173.965
-4991.08 -7.26908 0 106.323
-5999.4 -7.912 0 171.859
-5978.9 -7.96711 0 172.921
-6940.64 -8.68084 0 246.404
-6892.87 -8.91182 0 248.773
-4939.74 -7.27212 0 108.891
-4973.96 -7.27002 0 107.194
-6916.76 -8.79648 0 247.599
-5917.4 -8.13193 0 175.998
-4956.85 -7.27104 0 108.05
-5958.4 -8.02215 0 173.965
-5937.9 -8.07709 0 174.99
-6892.87 -8.91182 0 248.773
-6845.11 -9.14151 0 251.057
-4905.52 -7.27442 0 110.529
-4939.74 -7.27212 0 108.891
-6868.99 -9.02684 0 249.925
-5876.4 -8.2412 0 177.959
-4922.63 -7.27325 0 109.718
-5917.4 -8.13193 0 175.998
-5896.9 -8.18663 0 176.988
-6845.11 -9.14151 0 251.057
-6797.34 -9.36974 0 253.258
-4871.3 -7.2768 0 112.107
-4905.52 -7.27442 0 110.529
-6821.23 -9.25582 0 252.168
-5835.39 -8.34984 0 179.849
-4888.41 -7.27561 0 111.325
-5876.4 -8.2412 0 177.959
-5855.89 -8.29561 0 178.913
-6797.34 -9.36974 0 253.258
-6749.58 -9.59637 0 255.377
-4837.08 -7.27916 0 113.625
-4871.3 -7.2768 0 112.107
-6773.46 -9.48327 0 254.328
-5794.39 -8.45771 0 181.668
-4854.19 -7.27799 0 112.873
-5835.39 -8.34984 0 179.849
-5814.89 -8.40388 0 180.767
-6749.58 -9.59637 0 255.377
-6701.81 -9.82125 0 257.413
-4802.86 -7.2814 0 115.085
-4837.08 -7.27916 0 113.625
-6725.7 -9.70904 0 256.405
-5753.39 -8.56469 0 183.416
-4819.97 -7.28031 0 114.363
-5794.39 -8.45771 0 181.668
-5773.89 -8.51132 0 182.551
-6701.81 -9.82125 0 257.413
-6654.05 -10.0442 0 259.368
-4768.64 -7.28341 0 116.487
-4802.86 -7.2814 0 115.085
-6677.93 -9.93299 0 258.401
-5712.39 -8.67065 0 185.094
-4785.75 -7.28244 0 115.793
-5753.39 -8.56469 0 183.416
-5732.89 -8.61781 0 184.264
-6654.05 -10.0442 0 259.368
-6606.29 -10.2652 0 261.241
-4734.42 -7.2851 0 117.83
-4768.64 -7.28341 0 116.487
-6630.17 -10.155 0 260.315
-5671.39 -8.77549 0 186.703
-4751.53 -7.2843 0 117.166
-5712.39 -8.67065 0 185.094
-5691.89 -8.72322 0 185.907
-6606.29 -10.2652 0 261.241
-6558.52 -10.484 0 263.035
-4700.21 -7.28636 0 119.117
-4734.42 -7.2851 0 117.83
-6582.4 -10.3749 0 262.148
-5630.39 -8.87907 0 188.243
-4717.32 -7.28579 0 118.481
-5671.39 -8.77549 0 186.703
-5650.89 -8.82744 0 187.481
-6558.52 -10.484 0 263.035
-6510.76 -10.7004 0 264.748
-4665.99 -7.2871 0 120.346
-4700.21 -7.28636 0 119.117
-6534.64 -10.5925 0 263.901
-5589.4 -8.98128 0 189.714
-4683.1 -7.2868 0 119.738
-5630.39 -8.87907 0 188.243
-5609.9 -8.93035 0 188.987
-6510.76 -10.7004 0 264.748
-6463 -10.9145 0 266.382
-4631.78 -7.28722 0 121.518
-4665.99 -7.2871 0 120.346
-6486.88 -10.8078 0 265.575
-5548.4 -9.08202 0 191.117
-4648.89 -7.28724 0 120.939
-5589.4 -8.98128 0 189.714
-5568.9 -9.03184 0 190.424
-6463 -10.9145 0 266.382
-6415.24 -11.126 0 267.937
-4597.57 -7.28665 0 122.634
-4631.78 -7.28722 0 121.518
-6439.12 -11.0205 0 267.169
-5507.41 -9.18117 0 192.453
-4614.67 -7.28703 0 122.083
-5548.4 -9.08202 0 191.117
-5527.9 -9.1318 0 191.794
-6415.24 -11.126 0 267.937
-6367.48 -11.3347 0 269.414
-4563.36 -7.28527 0 123.694
-4597.57 -7.28665 0 122.634
-6391.36 -11.2307 0 268.685
-5466.41 -9.27863 0 193.722
-4580.46 -7.28606 0 123.171
-5507.41 -9.18117 0 192.453
-5486.91 -9.23011 0 193.096
-6367.48 -11.3347 0 269.414
-6319.72 -11.5407 0 270.814
-4529.15 -7.28302 0 124.699
-4563.36 -7.28527 0 123.694
-6343.6 -11.4381 0 270.124
-5425.42 -9.37429 0 194.924
-4546.25 -7.28426 0 124.204
-5466.41 -9.27863 0 193.722
-5445.92 -9.32669 0 194.331
-6319.72 -11.5407 0 270.814
-6271.96 -11.7438 0 272.137
-4494.94 -7.27981 0 125.649
-4529.15 -7.28302 0 124.699
-6295.84 -11.6426 0 271.485
-5384.43 -9.46805 0 196.061
-4512.05 -7.28154 0 125.181
-5425.42 -9.37429 0 194.924
-5404.93 -9.42141 0 195.501
-6271.96 -11.7438 0 272.137
-6224.21 -11.9438 0 273.383
-4460.74 -7.27555 0 126.544
-4494.94 -7.27981 0 125.649
-6248.08 -11.8442 0 272.769
-5343.44 -9.55983 0 197.132
-4477.84 -7.27782 0 126.103
-5384.43 -9.46805 0 196.061
-5363.94 -9.51419 0 196.604
-6224.21 -11.9438 0 273.383
-6176.45 -12.1407 0 274.554
-4426.53 -7.27017 0 127.385
-4460.74 -7.27555 0 126.544
-6200.33 -12.0427 0 273.978
-5302.46 -9.64951 0 198.137
-4443.63 -7.27301 0 126.971
-5343.44 -9.55983 0 197.132
-5322.95 -9.60493 0 197.643
-6176.45 -12.1407 0 274.554
-6128.7 -12.3343 0 275.649
-4392.33 -7.26358 0 128.172
-4426.53 -7.27017 0 127.385
-6152.58 -12.2379 0 275.111
-5261.47 -9.737 0 199.079
-4409.43 -7.26703 0 127.785
-5302.46 -9.64951 0 198.137
-5281.97 -9.69353 0 198.616
-6128.7 -12.3343 0 275.649
-6080.95 -12.5246 0 276.67
-4358.13 -7.25572 0 128.906
-4392.33 -7.26358 0 128.172
-6104.83 -12.4299 0 276.169
-5220.49 -9.82223 0 199.956
-4375.23 -7.25982 0 128.546
-5261.47 -9.737 0 199.079
-5240.98 -9.77991 0 199.526
-6080.95 -12.5246 0 276.67
-6033.2 -12.7114 0 277.617
-4323.94 -7.24651 0 129.587
-4358.13 -7.25572 0 128.906
-6057.08 -12.6184 0 277.153
-5179.51 -9.90509 0 200.77
-4341.03 -7.25129 0 129.254
-5220.49 -9.82223 0 199.956
-5200 -9.86396 0 200.371
-6033.2 -12.7114 0 277.617
-5985.46 -12.8946 0 278.49
-4289.74 -7.23588 0 130.216
-4323.94 -7.24651 0 129.587
-6009.33 -12.8035 0 278.063
-5138.53 -9.98551 0 201.521
-4306.84 -7.24138 0 129.908
-5179.51 -9.90509 0 200.77
-5159.02 -9.94561 0 201.154
-5985.46 -12.8946 0 278.49
-5937.72 -13.0742 0 279.291
-4255.55 -7.22376 0 130.792
-4289.74 -7.23588 0 130.216
-5961.59 -12.9849 0 278.9
-5097.56 -10.0634 0 202.21
-4272.64 -7.23001 0 130.511
-5138.53 -9.98551 0 201.521
-5118.04 -10.0248 0 201.873
-5937.72 -13.0742 0 279.291
-5889.97 -13.25 0 280.019
-4221.36 -7.21008 0 131.317
-4255.55 -7.22376 0 130.792
-5913.84 -13.1626 0 279.664
-5056.58 -10.1387 0 202.837
-4238.45 -7.21712 0 131.061
-5097.56 -10.0634 0 202.21
-5077.07 -10.1014 0 202.531
-5889.97 -13.25 0 280.019
-5842.23 -13.422 0 280.676
-4187.17 -7.19478 0 131.791
-4221.36 -7.21008 0 131.317
-5866.1 -13.3365 0 280.356
-5015.61 -10.2113 0 203.402
-4204.26 -7.20263 0 131.56
-5056.58 -10.1387 0 202.837
-5036.1 -10.1753 0 203.127
-5842.23 -13.422 0 280.676
-5794.5 -13.5901 0 281.261
-4152.98 -7.1778 0 132.214
-4187.17 -7.19478 0 131.791
-5818.37 -13.5066 0 280.977
-4974.64 -10.2811 0 203.906
-4170.08 -7.1865 0 132.009
-5015.61 -10.2113 0 203.402
-4995.13 -10.2466 0 203.661
-5794.5 -13.5901 0 281.261
-5746.76 -13.7541 0 281.776
-4118.8 -7.15907 0 132.586
-4152.98 -7.1778 0 132.214
-5770.63 -13.6726 0 281.527
-4933.68 -10.3481 0 204.35
-4135.89 -7.16865 0 132.406
-4974.64 -10.2811 0 203.906
-4954.16 -10.315 0 204.135
-5746.76 -13.7541 0 281.776
-5699.03 -13.9141 0 282.221
-4084.62 -7.13854 0 132.908
-4118.8 -7.15907 0 132.586
-5722.9 -13.8346 0 282.007
-4892.72 -10.4122 0 204.733
-4101.71 -7.14903 0 132.753
-4933.68 -10.3481 0 204.35
-4913.2 -10.3805 0 204.549
-5699.03 -13.9141 0 282.221
-5651.31 -14.0698 0 282.597
-4050.44 -7.11615 0 133.181
-4084.62 -7.13854 0 132.908
-5675.17 -13.9925 0 282.418
-4851.76 -10.4734 0 205.058
-4067.53 -7.12758 0 133.051
-4892.72 -10.4122 0 204.733
-4872.24 -10.4432 0 204.903
-5651.31 -14.0698 0 282.597
-5603.58 -14.2214 0 282.904
-4016.27 -7.09185 0 133.405
-4050.44 -7.11615 0 133.181
-5627.44 -14.1461 0 282.759
-4810.8 -10.5315 0 205.323
-4033.36 -7.10424 0 133.299
-4851.76 -10.4734 0 205.058
-4831.28 -10.5028 0 205.197
-5603.58 -14.2214 0 282.904
-5555.86 -14.3686 0 283.143
-3982.1 -7.06558 0 133.579
-4016.27 -7.09185 0 133.405
-5579.72 -14.2955 0 283.032
-4769.84 -10.5865 0 205.53
-3999.18 -7.07897 0 133.498
-4810.8 -10.5315 0 205.323
-4790.32 -10.5594 0 205.434
-5555.86 -14.3686 0 283.143
-5508.14 -14.5114 0 283.314
-3947.93 -7.0373 0 133.706
-3982.1 -7.06558 0 133.579
-5532 -14.4405 0 283.237
-4728.89 -10.6383 0 205.679
-3965.01 -7.0517 0 133.649
-4769.84 -10.5865 0 205.53
-4749.37 -10.6128 0 205.611
-5508.14 -14.5114 0 283.314
-5460.42 -14.6497 0 283.418
-3913.76 -7.00696 0 133.785
-3947.93 -7.0373 0 133.706
-5484.28 -14.5811 0 283.374
-4687.94 -10.6869 0 205.77
-3930.84 -7.02239 0 133.751
-4728.89 -10.6383 0 205.679
-4708.42 -10.663 0 205.731
-5460.42 -14.6497 0 283.418
-5412.71 -14.7835 0 283.456
-3879.6 -6.9745 0 133.816
-3913.76 -7.00696 0 133.785
-5436.56 -14.7172 0 283.445
-4647 -10.7323 0 205.804
-3896.68 -6.991 0 133.806
-4687.94 -10.6869 0 205.77
-4667.47 -10.71 0 205.794
-5412.71 -14.7835 0 283.456
-5365 -14.9128 0 283.428
-3845.44 -6.93989 0 133.8
-3879.6 -6.9745 0 133.816
-5388.85 -14.8487 0 283.45
-4606.06 -10.7743 0 205.782
-3862.52 -6.95747 0 133.814
-4647 -10.7323 0 205.804
-4626.53 -10.7537 0 205.8
-5365 -14.9128 0 283.428
-5317.29 -15.0374 0 283.335
-3811.28 -6.90308 0 133.737
-3845.44 -6.93989 0 133.8
-5341.14 -14.9757 0 283.389
-4565.12 -10.813 0 205.704
-3828.36 -6.92176 0 133.774
-4606.06 -10.7743 0 205.782
-4585.59 -10.7941 0 205.75
-5317.29 -15.0374 0 283.335
-5269.59 -15.1572 0 283.177
-3777.13 -6.86403 0 133.628
-3811.28 -6.90308 0 133.737
-5293.44 -15.0979 0 283.264
-4524.18 -10.8482 0 205.571
-3794.2 -6.88384 0 133.688
-4565.12 -10.813 0 205.704
-4544.65 -10.831 0 205.645
-5269.59 -15.1572 0 283.177
-5221.88 -15.2724 0 282.955
-3742.97 -6.82271 0 133.474
-3777.13 -6.86403 0 133.628
-5245.73 -15.2154 0 283.074
-4483.25 -10.88 0 205.383
-3760.05 -6.84366 0 133.557
-4524.18 -10.8482 0 205.571
-4503.71 -10.8645 0 205.484
-5221.88 -15.2724 0 282.955
-5174.19 -15.3827 0 282.669
-3708.83 -6.77907 0 133.274
-3742.97 -6.82271 0 133.474
-5198.04 -15.3281 0 282.82
-4442.32 -10.9082 0 205.14
-3725.9 -6.80118 0 133.379
-4483.25 -10.88 0 205.383
-4462.78 -10.8945 0 205.268
-5174.19 -15.3827 0 282.669
-5126.49 -15.4881 0 282.321
-3674.68 -6.73308 0 133.029
-3708.83 -6.77907 0 133.274
-5150.34 -15.436 0 282.503
-4401.39 -10.9329 0 204.843
-3691.75 -6.75637 0 133.157
-4442.32 -10.9082 0 205.14
-4421.86 -10.921 0 204.998
-5126.49 -15.4881 0 282.321
-5078.8 -15.5887 0 281.91
-3640.54 -6.68471 0 132.739
-3674.68 -6.73308 0 133.029
-5102.65 -15.539 0 282.123
-4360.47 -10.954 0 204.493
-3657.61 -6.7092 0 132.889
-4401.39 -10.9329 0 204.843
-4380.93 -10.9439 0 204.675
-5078.8 -15.5887 0 281.91
-5031.12 -15.6843 0 281.437
-3606.4 -6.63393 0 132.405
-3640.54 -6.68471 0 132.739
-5054.96 -15.6371 0 281.681
-4319.55 -10.9714 0 204.09
-3623.47 -6.65962 0 132.578
-4360.47 -10.954 0 204.493
-4340.01 -10.9631 0 204.298
-5031.12 -15.6843 0 281.437
-4983.43 -15.7749 0 280.904
-3572.27 -6.5807 0 132.028
-3606.4 -6.63393 0 132.405
-5007.27 -15.7302 0 281.178
-4278.64 -10.9852 0 203.634
-3589.33 -6.60762 0 132.222
-4319.55 -10.9714 0 204.09
-4299.09 -10.9788 0 203.868
-4983.43 -15.7749 0 280.904
-4935.75 -15.8605 0 280.309
-3538.13 -6.525 0 131.607
-3572.27 -6.5807 0 132.028
-4959.59 -15.8183 0 280.614
-4237.72 -10.9953 0 203.127
-3555.2 -6.55316 0 131.823
-4278.64 -10.9852 0 203.634
-4258.18 -10.9907 0 203.387
-4935.75 -15.8605 0 280.309
-4888.08 -15.941 0 279.655
-3504 -6.4668 0 131.143
-3538.13 -6.525 0 131.607
-4911.91 -15.9014 0 279.99
-4196.81 -11.0016 0 202.568
-3521.07 -6.49621 0 131.38
-4237.72 -10.9953 0 203.127
-4217.27 -10.9989 0 202.853
-4888.08 -15.941 0 279.655
-4840.4 -16.0164 0 278.942
-3469.88 -6.40607 0 130.637
-3504 -6.4668 0 131.143
-4864.24 -15.9793 0 279.306
-4155.91 -11.0042 0 201.958
-3486.94 -6.43675 0 130.895
-4196.81 -11.0016 0 202.568
-4176.36 -11.0033 0 202.269
-4840.4 -16.0164 0 278.942
-4792.74 -16.0867 0 278.169
-3435.76 -6.3428 0 130.089
-3469.88 -6.40607 0 130.637
-4816.57 -16.0522 0 278.563
-4115.01 -11.0029 0 201.297
-3452.82 -6.37476 0 130.368
-4155.91 -11.0042 0 201.958
-4135.46 -11.004 0 201.634
-4792.74 -16.0867 0 278.169
-4745.07 -16.1518 0 277.338
-3401.64 -6.27697 0 129.499
-3435.76 -6.3428 0 130.089
-4768.9 -16.1199 0 277.761
-4074.11 -10.9979 0 200.587
-3418.7 -6.31021 0 129.799
-4115.01 -11.0029 0 201.297
-4094.56 -11.0009 0 200.948
-4745.07 -16.1518 0 277.338
-4697.41 -16.2117 0 276.45
-3367.52 -6.20855 0 128.868
-3401.64 -6.27697 0 129.499
-4721.24 -16.1824 0 276.901
-4033.22 -10.989 0 199.827
-3384.58 -6.24308 0 129.188
-4074.11 -10.9979 0 200.587
-4053.66 -10.9939 0 200.213
-4697.41 -16.2117 0 276.45
-4649.75 -16.2664 0 275.504
-3333.41 -6.13752 0 128.196
-3367.52 -6.20855 0 128.868
-4673.58 -16.2397 0 275.984
-3992.32 -10.9763 0 199.018
-3350.47 -6.17336 0 128.537
-4033.22 -10.989 0 199.827
-4012.77 -10.9831 0 199.429
-4649.75 -16.2664 0 275.504
-4602.1 -16.3159 0 274.502
-3299.3 -6.06388 0 127.483
-3333.41 -6.13752 0 128.196
-4625.92 -16.2918 0 275.01
-3951.44 -10.9596 0 198.161
-3316.36 -6.10103 0 127.845
-3992.32 -10.9763 0 199.018
-3971.88 -10.9684 0 198.596
-4602.1 -16.3159 0 274.502
-4554.45 -16.3601 0 273.445
-3265.2 -5.9876 0 126.731
-3299.3 -6.06388 0 127.483
-4578.27 -16.3387 0 273.98
-3910.55 -10.9391 0 197.256
-3282.25 -6.02607 0 127.112
-3951.44 -10.9596 0 198.161
-3931 -10.9499 0 197.714
-4554.45 -16.3601 0 273.445
-4506.8 -16.3991 0 272.331
-3231.1 -5.90867 0 125.939
-3265.2 -5.9876 0 126.731
-4530.62 -16.3803 0 272.895
-3869.67 -10.9147 0 196.303
-3248.15 -5.94847 0 126.34
-3910.55 -10.9391 0 197.256
-3890.11 -10.9274 0 196.785
-4506.8 -16.3991 0 272.331
-4459.16 -16.4327 0 271.163
-3197 -5.82709 0 125.108
-3231.1 -5.90867 0 125.939
-4482.98 -16.4166 0 271.754
-3828.8 -10.8863 0 195.303
-3214.05 -5.86821 0 125.528
-3869.67 -10.9147 0 196.303
-3849.24 -10.901 0 195.809
-4459.16 -16.4327 0 271.163
-4411.52 -16.4611 0 269.941
-3162.9 -5.74283 0 124.238
-3197 -5.82709 0 125.108
-4435.34 -16.4476 0 270.559
-3787.93 -10.854 0 194.257
-3179.95 -5.78529 0 124.678
-3828.8 -10.8863 0 195.303
-3808.36 -10.8707 0 194.786
-4411.52 -16.4611 0 269.941
-4363.89 -16.4841 0 268.665
-3128.81 -5.65591 0 123.33
-3162.9 -5.74283 0 124.238
-4387.7 -16.4733 0 269.31
-3747.06 -10.8178 0 193.165
-3145.86 -5.6997 0 123.789
-3787.93 -10.854 0 194.257
-3767.49 -10.8364 0 193.717
-4363.89 -16.4841 0 268.665
-4316.25 -16.5018 0 267.337
-3094.72 -5.56629 0 122.384
-3128.81 -5.65591 0 123.33
-4340.07 -16.4937 0 268.008
-3706.19 -10.7775 0 192.028
-3111.77 -5.61144 0 122.862
-3747.06 -10.8178 0 193.165
-3726.62 -10.7981 0 192.602
-4316.25 -16.5018 0 267.337
-4268.63 -16.5142 0 265.955
-3060.64 -5.474 0 121.4
-3094.72 -5.56629 0 122.384
-4292.44 -16.5087 0 266.653
-3665.33 -10.7334 0 190.845
-3077.68 -5.52048 0 121.897
-3706.19 -10.7775 0 192.028
-3685.76 -10.7559 0 191.442
-4268.63 -16.5142 0 265.955
-4221 -16.5213 0 264.522
-3026.56 -5.37901 0 120.38
-3060.64 -5.474 0 121.4
-4244.81 -16.5184 0 265.245
-3624.47 -10.6852 0 189.618
-3043.6 -5.42684 0 120.895
-3665.33 -10.7334 0 190.845
-3644.9 -10.7098 0 190.237
-4221 -16.5213 0 264.522
-4173.38 -16.523 0 263.038
-2992.48 -5.28132 0 119.322
-3026.56 -5.37901 0 120.38
-4197.19 -16.5228 0 263.787
-3583.62 -10.6331 0 188.347
-3009.52 -5.3305 0 119.856
-3624.47 -10.6852 0 189.618
-3604.05 -10.6597 0 188.988
-4173.38 -16.523 0 263.038
-4125.77 -16.5194 0 261.503
-2958.41 -5.18095 0 118.229
-2992.48 -5.28132 0 119.322
-4149.58 -16.5219 0 262.277
-3542.77 -10.577 0 187.033
-2975.44 -5.23147 0 118.78
-3583.62 -10.6331 0 188.347
-3563.19 -10.6056 0 187.696
-4125.77 -16.5194 0 261.503
-4078.16 -16.5105 0 259.918
-2924.34 -5.07788 0 117.099
-2958.41 -5.18095 0 118.229
-4101.96 -16.5156 0 260.717
-3501.92 -10.517 0 185.676
-2941.37 -5.12975 0 117.669
-3542.77 -10.577 0 187.033
-3522.35 -10.5475 0 186.36
-4078.16 -16.5105 0 259.918
-4030.55 -16.4962 0 258.283
-2890.27 -4.97212 0 115.935
-2924.34 -5.07788 0 117.099
-4054.35 -16.504 0 259.107
-3461.08 -10.453 0 184.276
-2907.3 -5.02534 0 116.521
-3501.92 -10.517 0 185.676
-3481.5 -10.4855 0 184.981
-4030.55 -16.4962 0 258.283
-3982.94 -16.4766 0 256.6
-2856.21 -4.86368 0 114.735
-2890.27 -4.97212 0 115.935
-4006.75 -16.487 0 257.448
-3420.24 -10.385 0 182.834
-2873.24 -4.91824 0 115.339
-3461.08 -10.453 0 184.276
-3440.66 -10.4195 0 183.56
-3982.94 -16.4766 0 256.6
-3935.34 -16.4516 0 254.868
-2822.14 -4.75255 0 113.5
-2856.21 -4.86368 0 114.735
-3959.14 -16.4648 0 255.74
-3379.41 -10.3131 0 181.351
-2839.17 -4.80845 0 114.122
-3420.24 -10.385 0 182.834
-3399.82 -10.3496 0 182.098
-3935.34 -16.4516 0 254.868
-3887.75 -16.4214 0 253.088
-2788.09 -4.63875 0 112.232
-2822.14 -4.75255 0 113.5
-3911.55 -16.4372 0 253.984
-3338.57 -10.2372 0 179.826
-2805.12 -4.69599 0 112.87
-3379.41 -10.3131 0 181.351
-3358.99 -10.2757 0 180.594
-3887.75 -16.4214 0 253.088
-3840.15 -16.3859 0 251.261
-2754.03 -4.52229 0 110.929
-2788.09 -4.63875 0 112.232
-3863.95 -16.4043 0 252.181
-3297.75 -10.1574 0 178.262
-2771.06 -4.58085 0 111.585
-3338.57 -10.2372 0 179.826
-3318.16 -10.1978 0 179.049
-3840.15 -16.3859 0 251.261
-3792.57 -16.345 0 249.388
-2719.98 -4.40317 0 109.594
-2754.03 -4.52229 0 110.929
-3816.36 -16.3661 0 250.33
-3256.92 -10.0737 0 176.657
-2737.01 -4.46306 0 110.266
-3297.75 -10.1574 0 178.262
-3277.33 -10.1161 0 177.464
-3792.57 -16.345 0 249.388
-3744.98 -16.2989 0 247.468
-2685.94 -4.2814 0 108.225
-2719.98 -4.40317 0 109.594
-3768.77 -16.3227 0 248.434
-3216.1 -9.98606 0 175.013
-2702.96 -4.34262 0 108.913
-3256.92 -10.0737 0 176.657
-3236.51 -10.0304 0 175.84
-3744.98 -16.2989 0 247.468
-3697.4 -16.2476 0 245.503
-2651.89 -4.157 0 106.824
-2685.94 -4.2814 0 108.225
-3721.19 -16.2739 0 246.491
-3175.28 -9.89453 0 173.329
-2668.92 -4.21953 0 107.528
-3216.1 -9.98606 0 175.013
-3195.69 -9.94078 0 174.176
-3697.4 -16.2476 0 245.503
-3649.82 -16.191 0 243.493
-2617.85 -4.02998 0 105.39
-2651.89 -4.157 0 106.824
-3673.61 -16.22 0 244.504
-3134.47 -9.79911 0 171.608
-2634.87 -4.09382 0 106.111
-3175.28 -9.89453 0 173.329
-3154.88 -9.8473 0 172.473
-3649.82 -16.191 0 243.493
-3602.24 -16.1292 0 241.439
-2583.82 -3.90035 0 103.925
-2617.85 -4.02998 0 105.39
-3626.03 -16.1608 0 242.471
-3093.66 -9.69983 0 169.848
-2600.84 -3.96549 0 104.662
-3134.47 -9.79911 0 171.608
-3114.06 -9.74995 0 170.732
-3602.24 -16.1292 0 241.439
-3554.67 -16.0623 0 239.341
-2549.78 -3.76814 0 102.429
-2583.82 -3.90035 0 103.925
-3578.46 -16.0964 0 240.395
-3052.85 -9.59671 0 168.051
-2566.8 -3.83457 0 103.181
-3093.66 -9.69983 0 169.848
-3073.25 -9.64875 0 168.954
-3554.67 -16.0623 0 239.341
-3507.11 -15.9901 0 237.199
-2515.75 -3.63335 0 100.902
-2549.78 -3.76814 0 102.429
-3530.89 -16.0268 0 238.275
-3012.05 -9.48977 0 166.216
-2532.77 -3.70107 0 101.669
-3052.85 -9.59671 0 168.051
-3032.45 -9.54372 0 167.138
-3507.11 -15.9901 0 237.199
-3459.54 -15.9128 0 235.016
-2481.73 -3.49601 0 99.3443
-2515.75 -3.63335 0 100.902
-3483.32 -15.9521 0 236.113
-2971.25 -9.37902 0 164.345
-2498.74 -3.565 0 100.127
-3012.05 -9.48977 0 166.216
-2991.65 -9.43487 0 165.285
-3459.54 -15.9128 0 235.016
-3411.98 -15.8305 0 232.79
-2447.7 -3.35614 0 97.7566
-2481.73 -3.49601 0 99.3443
-3435.76 -15.8723 0 233.908
-2930.45 -9.2645 0 162.439
-2464.71 -3.42639 0 98.5542
-2971.25 -9.37902 0 164.345
-2950.85 -9.32223 0 163.396
-3411.98 -15.8305 0 232.79
-3364.43 -15.743 0 230.523
-2413.68 -3.21375 0 96.1393
-2447.7 -3.35614 0 97.7566
-3388.2 -15.7873 0 231.661
-2889.66 -9.14623 0 160.496
-2430.69 -3.28525 0 96.9516
-2930.45 -9.2645 0 162.439
-2910.06 -9.20583 0 161.472
-3364.43 -15.743 0 230.523
-3316.87 -15.6504 0 228.215
-2379.66 -3.06887 0 94.4928
-2413.68 -3.21375 0 96.1393
-3340.65 -15.6973 0 229.374
-2848.87 -9.02423 0 158.519
-2396.67 -3.14162 0 95.3197
-2889.66 -9.14623 0 160.496
-2869.26 -9.08569 0 159.512
-3316.87 -15.6504 0 228.215
-3269.32 -15.5529 0 225.866
-2345.65 -2.92152 0 92.8174
-2379.66 -3.06887 0 94.4928
-3293.1 -15.6023 0 227.046
-2808.08 -8.89854 0 156.507
-2362.66 -2.9955 0 93.6587
-2848.87 -9.02423 0 158.519
-2828.48 -8.96184 0 157.517
-3269.32 -15.5529 0 225.866
-3221.77 -15.4504 0 223.478
-2311.64 -2.77173 0 91.1137
-2345.65 -2.92152 0 92.8174
-3245.55 -15.5023 0 224.677
-2767.3 -8.76918 0 154.461
-2328.64 -2.84693 0 91.9691
-2808.08 -8.89854 0 156.507
-2787.69 -8.83431 0 155.488
-3221.77 -15.4504 0 223.478
-3174.23 -15.3429 0 221.051
-2277.63 -2.61953 0 89.382
-2311.64 -2.77173 0 91.1137
-3198 -15.3972 0 222.27
-2726.52 -8.63618 0 152.381
-2294.63 -2.69593 0 90.2513
-2767.3 -8.76918 0 154.461
-2746.91 -8.70313 0 153.425
-3174.23 -15.3429 0 221.051
-3126.69 -15.2305 0 218.586
-2243.63 -2.46493 0 87.6227
-2277.63 -2.61953 0 89.382
-3150.46 -15.2873 0 219.823
-2685.74 -8.49958 0 150.269
-2260.63 -2.54253 0 88.5058
-2726.52 -8.63618 0 152.381
-2706.13 -8.56833 0 151.329
-3126.69 -15.2305 0 218.586
-3079.15 -15.1132 0 216.082
-2209.62 -2.30797 0 85.8362
-2243.63 -2.46493 0 87.6227
-3102.92 -15.1725 0 217.339
-2644.97 -8.3594 0 148.124
-2226.62 -2.38674 0 86.7328
-2685.74 -8.49958 0 150.269
-2665.36 -8.42993 0 149.2
-3079.15 -15.1132 0 216.082
-3031.62 -14.9912 0 213.541
-2175.62 -2.14868 0 84.023
-2209.62 -2.30797 0 85.8362
-3055.39 -15.0528 0 214.816
-2604.2 -8.2157 0 145.946
-2192.62 -2.22862 0 84.933
-2644.97 -8.3594 0 148.124
-2624.58 -8.28799 0 147.039
-3031.62 -14.9912 0 213.541
-2984.09 -14.8643 0 210.963
-2141.63 -1.98708 0 82.1835
-2175.62 -2.14868 0 84.023
-3007.85 -14.9283 0 212.257
-2563.43 -8.06849 0 143.737
-2158.63 -2.06817 0 83.1065
-2604.2 -8.2157 0 145.946
-2583.81 -8.14253 0 144.846
-2984.09 -14.8643 0 210.963
-2936.56 -14.7327 0 208.349
-2107.63 -1.82321 0 80.318
-2141.63 -1.98708 0 82.1835
-2960.32 -14.7991 0 209.661
-2522.67 -7.91782 0 141.498
-2124.63 -1.90543 0 81.254
-2563.43 -8.06849 0 143.737
-2543.05 -7.99358 0 142.621
-2936.56 -14.7327 0 208.349
-2889.04 -14.5963 0 205.7
-2073.64 -1.65711 0 78.4271
-2107.63 -1.82321 0 80.318
-2912.8 -14.6651 0 207.029
-2481.91 -7.76373 0 139.227
-2090.64 -1.74044 0 79.3757
-2522.67 -7.91782 0 141.498
-2502.29 -7.8412 0 140.366
-2889.04 -14.5963 0 205.7
-2841.51 -14.4554 0 203.015
-2039.66 -1.48879 0 76.511
-2073.64 -1.65711 0 78.4271
-2865.27 -14.5264 0 204.362
-2441.15 -7.60625 0 136.926
-2056.65 -1.57322 0 77.4721
-2481.91 -7.76373 0 139.227
-2461.53 -7.68541 0 138.081
-2841.51 -14.4554 0 203.015
-2793.99 -14.3098 0 200.296
-2005.67 -1.3183 0 74.5702
-2039.66 -1.48879 0 76.511
-2817.75 -14.3831 0 201.659
-2400.39 -7.44543 0 134.596
-2022.66 -1.40382 0 75.5436
-2441.15 -7.60625 0 136.926
-2420.77 -7.52626 0 135.765
-2793.99 -14.3098 0 200.296
-2746.48 -14.1596 0 197.542
-1971.69 -1.14568 0 72.6051
-2005.67 -1.3183 0 74.5702
-2770.24 -14.2353 0 198.923
-2359.64 -7.28131 0 132.237
-1988.68 -1.23225 0 73.5907
-2400.39 -7.44543 0 134.596
-2380.01 -7.36378 0 133.42
-2746.48 -14.1596 0 197.542
-2698.96 -14.005 0 194.756
-1937.71 -0.97095 0 70.6162
-1971.69 -1.14568 0 72.6051
-2722.72 -14.0829 0 196.153
-2318.89 -7.11394 0 129.849
-1954.7 -1.05857 0 71.6136
-2359.64 -7.28131 0 132.237
-2339.26 -7.19803 0 131.047
-2698.96 -14.005 0 194.756
-2651.45 -13.8459 0 191.936
-1903.73 -0.794159 0 68.6038
-1937.71 -0.97095 0 70.6162
-2675.21 -13.926 0 193.35
-2278.14 -6.94335 0 127.433
-1920.72 -0.88281 0 69.6129
-2318.89 -7.11394 0 129.849
-2298.51 -7.02904 0 128.645
-2651.45 -13.8459 0 191.936
-2603.94 -13.6824 0 189.085
-1869.76 -0.615342 0 66.5684
-1903.73 -0.794159 0 68.6038
-2627.7 -13.7647 0 190.515
-2237.4 -6.7696 0 124.989
-1886.75 -0.705001 0 67.5889
-2278.14 -6.94335 0 127.433
-2257.77 -6.85687 0 126.215
-2603.94 -13.6824 0 189.085
-2556.44 -13.5146 0 186.202
-1835.79 -0.434538 0 64.5103
-1869.76 -0.615342 0 66.5684
-2580.19 -13.5991 0 187.647
-2196.65 -6.59272 0 122.519
-1852.77 -0.525186 0 65.5421
-2237.4 -6.7696 0 124.989
-2217.02 -6.68155 0 123.757
-2556.44 -13.5146 0 186.202
-2508.94 -13.3425 0 183.287
-1801.82 -0.251787 0 62.43
-1835.79 -0.434538 0 64.5103
-2532.69 -13.4291 0 184.748
-2155.91 -6.41278 0 120.021
-1818.8 -0.343403 0 63.4729
-2196.65 -6.59272 0 122.519
-2176.28 -6.50313 0 121.273
-2508.94 -13.3425 0 183.287
-2461.43 -13.1661 0 180.343
-1767.85 -0.0671303 0 60.3279
-1801.82 -0.251787 0 62.43
-2485.18 -13.2548 0 181.819
-2115.18 -6.22981 0 117.498
-1784.83 -0.159694 0 61.3816
-2155.91 -6.41278 0 120.021
-2135.55 -6.32167 0 118.763
-2461.43 -13.1661 0 180.343
-2413.94 -12.9856 0 177.368
-1733.89 0.119391 0 58.2043
-1767.85 -0.0671303 0 60.3279
-2437.68 -13.0764 0 178.859
-2074.44 -6.04388 0 114.948
-1750.87 0.0259 0 59.2687
-2115.18 -6.22981 0 117.498
-2094.81 -6.13721 0 116.226
-2413.94 -12.9856 0 177.368
-2366.44 -12.801 0 174.364
-1699.92 0.307734 0 56.0598
-1733.89 0.119391 0 58.2043
-2390.19 -12.8938 0 175.87
-2033.71 -5.85502 0 112.374
-1716.9 0.213338 0 57.1347
-2074.44 -6.04388 0 114.948
-2054.08 -5.94981 0 113.664
-2366.44 -12.801 0 174.364
-2318.94 -12.6123 0 171.331
-1665.96 0.497856 0 53.8947
-1699.92 0.307734 0 56.0598
-2342.69 -12.7071 0 172.851
-1992.98 -5.66329 0 109.775
-1682.94 0.402576 0 54.9798
-2033.71 -5.85502 0 112.374
-2013.34 -5.75951 0 111.078
-2318.94 -12.6123 0 171.331
-2271.45 -12.4196 0 168.271
-1632.01 0.689711 0 51.7094
-1665.96 0.497856 0 53.8947
-2295.2 -12.5164 0 169.804
-1952.25 -5.46875 0 107.152
-1648.98 0.59357 0 52.8045
-1992.98 -5.66329 0 109.775
-1972.62 -5.56637 0 108.466
-2271.45 -12.4196 0 168.271
-2223.96 -12.223 0 165.182
-1598.05 0.883256 0 49.5043
-1632.01 0.689711 0 51.7094
-2247.71 -12.3218 0 166.73
-1911.53 -5.27144 0 104.505
-1615.03 0.786275 0 50.6093
-1952.25 -5.46875 0 107.152
-1931.89 -5.37044 0 105.831
-2223.96 -12.223 0 165.182
-2176.47 -12.0225 0 162.066
-1564.1 1.07844 0 47.2799
-1598.05 0.883256 0 49.5043
-2200.22 -12.1232 0 163.628
-1870.8 -5.07143 0 101.835
-1581.07 0.980647 0 48.3945
-1911.53 -5.27144 0 104.505
-1891.16 -5.17177 0 103.172
-2176.47 -12.0225 0 162.066
-2128.99 -11.8182 0 158.924
-1530.14 1.27523 0 45.0365
-1564.1 1.07844 0 47.2799
-2152.73 -11.9208 0 160.499
-1830.08 -4.86877 0 99.1417
-1547.12 1.17664 0 46.1605
-1870.8 -5.07143 0 101.835
-1850.44 -4.97043 0 100.491
-2128.99 -11.8182 0 158.924
-2081.5 -11.6102 0 155.757
-1496.2 1.47356 0 42.7746
-1530.14 1.27523 0 45.0365
-2105.25 -11.7147 0 157.344
-1789.36 -4.66351 0 96.4266
-1513.17 1.3742 0 43.9078
-1830.08 -4.86877 0 99.1417
-1809.72 -4.76646 0 97.7869
-2081.5 -11.6102 0 155.757
-2034.02 -11.3986 0 152.563
-1462.25 1.6734 0 40.4945
-1496.2 1.47356 0 42.7746
-2057.76 -11.5049 0 154.163
-1748.64 -4.45572 0 93.6898
-1479.22 1.57329 0 41.6368
-1789.36 -4.66351 0 96.4266
-1769 -4.55993 0 95.0609
-2034.02 -11.3986 0 152.563
-1986.54 -11.1833 0 149.345
-1428.3 1.87468 0 38.1967
-1462.25 1.6734 0 40.4945
-2010.28 -11.2914 0 150.957
-1707.93 -4.24546 0 90.9317
-1445.27 1.77386 0 39.3478
-1748.64 -4.45572 0 93.6898
-1728.29 -4.3509 0 92.3134
-1986.54 -11.1833 0 149.345
-1939.06 -10.9646 0 146.103
-1394.36 2.07737 0 35.8817
-1428.3 1.87468 0 38.1967
-1962.8 -11.0744 0 147.727
-1667.21 -4.03277 0 88.1529
-1411.33 1.97585 0 37.0413
-1707.93 -4.24546 0 90.9317
-1687.57 -4.13941 0 89.5449
-1939.06 -10.9646 0 146.103
-1891.58 -10.7423 0 142.837
-1360.42 2.28141 0 33.5497
-1394.36 2.07737 0 35.8817
-1915.32 -10.8539 0 144.473
-1626.5 -3.81773 0 85.3539
-1377.39 2.17922 0 34.7178
-1667.21 -4.03277 0 88.1529
-1646.86 -3.92554 0 86.7559
-1891.58 -10.7423 0 142.837
-1844.1 -10.5167 0 139.549
-1326.48 2.48675 0 31.2012
-1360.42 2.28141 0 33.5497
-1867.84 -10.6299 0 141.196
-1585.79 -3.6004 0 82.5351
-1343.45 2.38392 0 32.3775
-1626.5 -3.81773 0 85.3539
-1606.14 -3.70935 0 83.9469
-1844.1 -10.5167 0 139.549
-1796.63 -10.2878 0 136.237
-1292.54 2.69334 0 28.8366
-1326.48 2.48675 0 31.2012
-1820.37 -10.4027 0 137.896
-1545.08 -3.38083 0 79.697
-1309.51 2.58989 0 30.0209
-1585.79 -3.6004 0 82.5351
-1565.43 -3.49089 0 81.1184
-1796.63 -10.2878 0 136.237
-1749.16 -10.0556 0 132.904
-1258.6 2.90113 0 26.4564
-1292.54 2.69334 0 28.8366
-1772.89 -10.1721 0 134.574
-1504.37 -3.15909 0 76.8402
-1275.57 2.79709 0 27.6484
-1545.08 -3.38083 0 79.697
-1524.73 -3.27022 0 78.2709
-1749.16 -10.0556 0 132.904
-1701.68 -9.8203 0 129.55
-1224.66 3.11006 0 24.0609
-1258.6 2.90113 0 26.4564
-1725.42 -9.93835 0 131.23
-1463.67 -2.93524 0 73.965
-1241.63 3.00546 0 25.2605
-1504.37 -3.15909 0 76.8402
-1484.02 -3.04742 0 75.4049
-1701.68 -9.8203 0 129.55
-1654.21 -9.58189 0 126.175
-1190.73 3.32008 0 21.6505
-1224.66 3.11006 0 24.0609
-1677.95 -9.70147 0 127.865
-1422.96 -2.70935 0 71.0721
-1207.7 3.21494 0 22.8575
-1463.67 -2.93524 0 73.965
-1443.31 -2.82254 0 72.5208
-1654.21 -9.58189 0 126.175
-1606.74 -9.34046 0 122.779
-1156.8 3.53114 0 19.2257
-1190.73 3.32008 0 21.6505
-1630.47 -9.46154 0 124.48
-1382.26 -2.48148 0 68.1618
-1173.76 3.42548 0 20.4399
-1422.96 -2.70935 0 71.0721
-1402.61 -2.59566 0 69.6191
-1606.74 -9.34046 0 122.779
-1559.27 -9.0961 0 119.364
-1122.87 3.74317 0 16.7868
-1156.8 3.53114 0 19.2257
-1583 -9.21864 0 121.074
-1341.55 -2.2517 0 65.2348
-1139.83 3.63704 0 18.008
-1382.26 -2.48148 0 68.1618
-1361.91 -2.36683 0 66.7004
-1559.27 -9.0961 0 119.364
-1511.8 -8.84888 0 115.93
-1088.94 3.95613 0 14.3344
-1122.87 3.74317 0 16.7868
-1535.53 -8.97284 0 117.65
-1300.85 -2.02008 0 62.2914
-1105.9 3.84954 0 15.5623
-1341.55 -2.2517 0 65.2348
-1321.2 -2.13612 0 63.7651
-1511.8 -8.84888 0 115.93
-1464.33 -8.59888 0 112.478
-1055.01 4.16995 0 11.8687
-1088.94 3.95613 0 14.3344
-1488.06 -8.72422 0 114.207
-1260.15 -1.78668 0 59.3322
-1071.97 4.06293 0 13.1031
-1300.85 -2.02008 0 62.2914
-1280.5 -1.9036 0 60.8137
-1464.33 -8.59888 0 112.478
-1416.86 -8.34618 0 109.008
-1021.08 4.38457 0 9.39017
-1055.01 4.16995 0 11.8687
-1440.6 -8.47287 0 110.745
-1219.45 -1.55158 0 56.3576
-1038.04 4.27716 0 10.631
-1260.15 -1.78668 0 59.3322
-1239.8 -1.66934 0 57.8468
-1416.86 -8.34618 0 109.008
-1369.39 -8.09086 0 105.52
-987.153 4.59994 0 6.89929
-1021.08 4.38457 0 9.39017
-1393.13 -8.21885 0 107.266
-1178.75 -1.31483 0 53.3682
-1004.12 4.49217 0 8.14625
-1219.45 -1.55158 0 56.3576
-1199.1 -1.4334 0 54.8647
-1369.39 -8.09086 0 105.52
-1321.93 -7.833 0 102.016
-953.228 4.81599 0 4.39645
-987.153 4.59994 0 6.89929
-1345.66 -7.96225 0 103.77
-1138.05 -1.07652 0 50.3645
-970.191 4.70789 0 5.64934
-1178.75 -1.31483 0 53.3682
-1158.4 -1.19587 0 51.8681
-1321.93 -7.833 0 102.016
-1274.46 -7.57268 0 98.4954
-919.303 5.03266 0 1.88207
-953.228 4.81599 0 4.39645
-1298.19 -7.70315 0 100.258
-1097.36 -0.836717 0 47.3469
-936.265 4.92426 0 3.14068
-1138.05 -1.07652 0 50.3645
-1117.71 -0.956802 0 48.8574
-1274.46 -7.57268 0 98.4954
-1226.99 -7.30999 0 94.9593
-885.38 5.2499 0 -0.643424
-919.303 5.03266 0 1.88207
-1250.73 -7.44163 0 96.7293
-1056.66 -0.595489 0 44.316
-902.341 5.14121 0 0.620689
-1097.36 -0.836717 0 47.3469
-1077.01 -0.716277 0 45.8331
-1226.99 -7.30999 0 94.9593
-1179.53 -7.04499 0 91.4083
-851.457 5.46763 0 -3.17962
-885.38 5.2499 0 -0.643424
-1203.26 -7.17777 0 93.1856
-1015.96 -0.352911 0 41.2722
-868.418 5.3587 0 -1.91021
-1056.66 -0.595489 0 44.316
-1036.31 -0.474365 0 42.7957
-1179.53 -7.04499 0 91.4083
-1132.06 -6.77779 0 87.8428
-817.535 5.6858 0 -5.72609
-851.457 5.46763 0 -3.17962
-1155.79 -6.91166 0 89.6273
-975.269 -0.109053 0 38.2161
-834.496 5.57666 0 -4.4516
-1015.96 -0.352911 0 41.2722
-995.617 -0.231138 0 39.7457
-1132.06 -6.77779 0 87.8428
-1084.6 -6.50846 0 84.2634
-783.613 5.90438 0 -8.28243
-817.535 5.6858 0 -5.72609
-1108.33 -6.64339 0 86.0548
-934.574 0.136017 0 35.1482
-800.574 5.79504 0 -7.00305
-975.269 -0.109053 0 38.2161
-954.921 0.0133342 0 36.6836
-1084.6 -6.50846 0 84.2634
-1037.13 -6.23708 0 80.6708
-749.693 6.12334 0 -10.8483
-783.613 5.90438 0 -8.28243
-1060.86 -6.37302 0 82.4688
-893.88 0.382238 0 32.0688
-766.653 6.01381 0 -9.56418
-934.574 0.136017 0 35.1482
-914.227 0.258987 0 33.6099
-1037.13 -6.23708 0 80.6708
-989.665 -5.96376 0 77.0655
-715.773 6.34268 0 -13.4232
-749.693 6.12334 0 -10.8483
-1013.4 -6.10066 0 78.8697
-853.186 0.62956 0 28.9786
-732.733 6.23296 0 -12.1346
-893.88 0.382238 0 32.0688
-873.533 0.505764 0 30.5251
-989.665 -5.96376 0 77.0655
-942.2 -5.68856 0 73.4481
-681.853 6.56245 0 -16.0071
-715.773 6.34268 0 -13.4232
-965.932 -5.82639 0 75.2583
-812.492 0.87795 0 25.8778
-698.813 6.45251 0 -14.714
-853.186 0.62956 0 28.9786
-832.839 0.753624 0 27.4295
-942.2 -5.68856 0 73.4481
-894.735 -5.41161 0 69.8191
-647.935 6.78272 0 -18.5996
-681.853 6.56245 0 -16.0071
-918.467 -5.5503 0 71.635
-771.799 1.1274 0 22.7669
-664.894 6.67252 0 -17.3022
-812.492 0.87795 0 25.8778
-792.146 1.00254 0 24.3236
-894.735 -5.41161 0 69.8191
-847.269 -5.13297 0 66.1791
-614.016 7.00358 0 -21.2007
-647.935 6.78272 0 -18.5996
-871.002 -5.2725 0 68.0005
-731.105 1.3779 0 19.646
-630.975 6.89307 0 -19.899
-771.799 1.1274 0 22.7669
-751.452 1.25252 0 21.2077
-847.269 -5.13297 0 66.1791
-799.801 -4.85277 0 62.5286
-580.097 7.22504 0 -23.8103
-614.016 7.00358 0 -21.2007
-823.535 -4.99304 0 64.3551
-690.41 1.62948 0 16.5154
-597.057 7.11425 0 -22.5044
-731.105 1.3779 0 19.646
-710.758 1.50355 0 18.0819
-799.801 -4.85277 0 62.5286
-752.33 -4.57115 0 58.8679
-546.179 7.44687 0 -26.4284
-580.097 7.22504 0 -23.8103
-776.066 -4.71219 0 60.6995
-649.714 1.88203 0 13.3752
-563.138 7.33594 0 -25.1183
-690.41 1.62948 0 16.5154
-670.062 1.75566 0 14.9465
-752.33 -4.57115 0 58.8679
-704.853 -4.28793 0 55.1976
-512.26 7.66791 0 -29.0543
-546.179 7.44687 0 -26.4284
-728.593 -4.42958 0 57.0338
-609.016 2.13537 0 10.226
-529.219 7.55764 0 -27.7405
-649.714 1.88203 0 13.3752
-629.365 2.0086 0 11.8017
-704.853 -4.28793 0 55.1976
-657.371 -4.00413 0 51.5175
-478.339 7.88567 0 -31.6864
-512.26 7.66791 0 -29.0543
-681.113 -4.14653 0 53.359
-568.315 2.38836 0 7.06912
-495.3 7.77744 0 -30.3697
-609.016 2.13537 0 10.226
-588.665 2.26206 0 8.64832
-657.371 -4.00413 0 51.5175
-609.878 -3.71675 0 47.8291
-444.418 8.09313 0 -34.3185
-478.339 7.88567 0 -31.6864
-633.626 -3.85992 0 49.6739
-527.613 2.63943 0 3.90928
-461.379 7.99142 0 -33.0031
-568.315 2.38836 0 7.06912
-547.965 2.51417 0 5.48928
-609.878 -3.71675 0 47.8291
-562.393 -3.43322 0 44.1303
-410.491 8.27901 0 -36.9409
-444.418 8.09313 0 -34.3185
-586.133 -3.57707 0 45.982
-486.92 2.88262 0 0.755
-427.456 8.18984 0 -35.6317
-527.613 2.63943 0 3.90928
-507.264 2.76279 0 2.33027
-562.393 -3.43322 0 44.1303
-514.915 -3.13252 0 40.4293
-376.562 8.41429 0 -39.5248
-410.491 8.27901 0 -36.9409
-538.653 -3.27957 0 42.2778
-446.246 3.11057 0 -2.37112
-393.525 8.35551 0 -38.2407
-486.92 2.88262 0 0.755
-466.581 2.99844 0 -0.812806
-514.915 -3.13252 0 40.4293
-467.558 -2.86049 0 36.7146
-342.601 8.46462 0 -42.0331
-376.562 8.41429 0 -39.5248
-491.212 -3.00686 0 38.5776
-405.646 3.30013 0 -5.43048
-359.59 8.45382 0 -40.7911
-446.246 3.11057 0 -2.37112
-425.929 3.2138 0 -3.91478
-467.558 -2.86049 0 36.7146
-420.348 -2.49673 0 33.0309
-308.628 8.33265 0 -44.3643
-342.601 8.46462 0 -42.0331
-443.932 -2.66068 0 34.8591
-365.161 3.42534 0 -8.34295
-325.609 8.42749 0 -43.2315
-405.646 3.30013 0 -5.43048
-385.391 3.36847 0 -6.90767
-420.348 -2.49673 0 33.0309
-373.813 -2.29186 0 29.3208
-274.493 7.96122 0 -46.4255
-308.628 8.33265 0 -44.3643
-396.955 -2.44644 0 31.1946
-325.002 3.41374 0 -10.9702
-291.604 8.18819 0 -45.4333
-365.161 3.42534 0 -8.34295
-345.013 3.45344 0 -9.71581
-373.813 -2.29186 0 29.3208
-328.018 -1.62333 0 25.7905
-240.259 7.07524 0 -47.9461
-274.493 7.96122 0 -46.4255
-350.809 -1.86318 0 27.4896
-285.255 3.19085 0 -13.1046
-257.362 7.58563 0 -47.2833
-325.002 3.41374 0 -10.9702
-305.097 3.3088 0 -12.0934
-328.018 -1.62333 0 25.7905
-284.961 -1.7447 0 22.1712
-205.227 5.81531 0 -48.8605
-240.259 7.07524 0 -47.9461
-306.02 -1.94468 0 24.0627
-246.581 2.57312 0 -14.3278
-222.943 6.52365 0 -48.4695
-285.255 3.19085 0 -13.1046
-265.679 3.00608 0 -13.9231
-284.961 -1.7447 0 22.1712
-244.618 0.334302 0 19.3194
-169.543 3.57878 0 -48.7667
-205.227 5.81531 0 -48.8605
-264.359 -0.220062 0 20.4437
-208.759 1.40871 0 -14.3923
-187.383 4.73833 0 -48.9913
-246.581 2.57312 0 -14.3278
-227.707 1.94005 0 -14.4091
-244.618 0.334302 0 19.3194
-213.379 -1.28578 0 16.1049
-130.303 2.44771 0 -48.6484
-169.543 3.57878 0 -48.7667
-227.653 -1.73875 0 18.1086
-173.489 -0.605277 0 -12.314
-150.75 2.93827 0 -48.5737
-208.759 1.40871 0 -14.3923
-190.43 0.813199 0 -13.9641
-213.379 -1.28578 0 16.1049
-191.412 5.91128 0 16.8103
-88.0712 2.64836 0 -49.9507
-130.303 2.44771 0 -48.6484
-200.41 5.03918 0 14.7562
-136.748 -3.15282 0 -10.0126
-109.298 1.57837 0 -48.9806
-173.489 -0.605277 0 -12.314
-156.225 -2.40824 0 -10.4654
-191.412 5.91128 0 16.8103
-203.695 -8.95809 0 22.2872
-36.0271 21.5701 0 -62.0508
-88.0712 2.64836 0 -49.9507
-193.308 -6.40322 0 19.7011
-96.8734 -2.13906 0 -10.01
-64.1827 9.12102 0 -53.6383
-136.748 -3.15282 0 -10.0126
-116.483 -2.76572 0 -10.4592
-203.695 -8.95809 0 22.2872
-277.014 -41.3823 0 71.1383
1.95511 95.305 0 -92.919
-36.0271 21.5701 0 -62.0508
-223.587 5.92367 0 32.4738
-9.67654 54.3693 0 -54.048
-13.041 41.5875 0 -74.4169
-96.8734 -2.13906 0 -10.01
-66.5474 7.95673 0 -19.679
-277.014 -41.3823 0 71.1383
-48.9146 475.737 0 -231.878
-10.2522 349.589 0 -71.6049
1.95511 95.305 0 -92.919
-289.818 -80.5163 0 37.8652
18.9767 447.451 0 -126.962
6.33374 203.07 0 -101.755
-9.67654 54.3693 0 -54.048
25.8579 162.966 0 -96.8259
-6295.6 -1899.43 0 -246.18
-6662.74 -724.497 0 -358.849
-3956.98 -699.024 0 -6.78914
-3646.42 -1097.28 0 336.003
-6540.02 -1365 0 -420.836
-5227.83 -802.199 0 -146.508
-3857.48 -884.765 0 128.692
-5164.03 -1556.53 0 56.98
-5109.28 -1111.52 0 -43.9733
-6662.74 -724.497 0 -358.849
-6759.74 -219.863 0 -160.72
-4030.7 -312.324 0 -111.027
-3956.98 -699.024 0 -6.78914
-6754.9 -374.527 0 -253.148
-5412.26 -318.775 0 -167.593
-3989.84 -491.407 0 -74.5707
-5227.83 -802.199 0 -146.508
-5370.92 -542.147 0 -191.885
-6759.74 -219.863 0 -160.72
-6673.93 -45.8688 0 -46.8641
-4068.07 -118.39 0 -128.458
-4030.7 -312.324 0 -111.027
-6708.14 -112.095 0 -86.5435
-5398.13 -99.9429 0 -105.201
-4066.71 -195.555 0 -128.097
-5412.26 -318.775 0 -167.593
-5408.7 -177.242 0 -128.22
-6673.93 -45.8688 0 -46.8641
-6615.81 -9.0977 0 -18.5984
-4036.81 -29.2505 0 -115.156
-4068.07 -118.39 0 -128.458
-6648.14 -18.891 0 -28.5432
-5346.48 -16.8266 0 -73.1011
-4050.96 -63.0549 0 -121.144
-5398.13 -99.9429 0 -105.201
-5375.93 -49.0926 0 -88.0565
-6615.81 -9.0977 0 -18.5984
-6557.75 4.47828 0 -13.3831
-4000.58 -3.90302 0 -105.444
-4036.81 -29.2505 0 -115.156
-6582.05 -0.314323 0 -13.606
-5291.42 2.70178 0 -60.8155
-4021.68 -12.2607 0 -110.313
-5346.48 -16.8266 0 -73.1011
-5316.54 -1.66219 0 -63.9619
-6557.75 4.47828 0 -13.3831
-6517.67 1.78901 0 -17.305
-3958.96 1.93962 0 -98.1039
-4000.58 -3.90302 0 -105.444
-6538.35 3.84233 0 -15.5873
-5245.72 4.86384 0 -58.0582
-3977.75 0.861576 0 -101.038
-5291.42 2.70178 0 -60.8155
-5268.1 4.51318 0 -59.4315
-6517.67 1.78901 0 -17.305
-6478.81 -0.73145 0 -19.7169
-3925.44 -1.56028 0 -94.0161
-3958.96 1.93962 0 -98.1039
-6497.05 0.580138 0 -18.5344
-5206.61 0.349495 0 -57.6321
-3942.24 0.528012 0 -95.9987
-5245.72 4.86384 0 -58.0582
-5225.13 3.12203 0 -57.501
-6478.81 -0.73145 0 -19.7169
-6444.19 -4.05565 0 -20.7631
-3895.23 -5.52558 0 -90.6908
-3925.44 -1.56028 0 -94.0161
-6461.72 -2.50852 0 -20.6207
-5172.68 -3.87237 0 -57.1062
-3909.39 -3.50132 0 -92.1932
-5206.61 0.349495 0 -57.6321
-5189.28 -1.98438 0 -57.5901
-6444.19 -4.05565 0 -20.7631
-6409.52 -6.01182 0 -19.5617
-3869.57 -9.12176 0 -87.9808
-3895.23 -5.52558 0 -90.6908
-6426.61 -5.13358 0 -20.3303
-5141.7 -7.27169 0 -55.7404
-3882.22 -7.50038 0 -89.3452
-5172.68 -3.87237 0 -57.1062
-5156.86 -5.6731 0 -56.4812
-6409.52 -6.01182 0 -19.5617
-6375.57 -7.36448 0 -17.1178
-3845.88 -11.3475 0 -85.3049
-3869.57 -9.12176 0 -87.9808
-6392.62 -6.78651 0 -18.5052
-5112.5 -9.33528 0 -53.5555
-3857.4 -10.3582 0 -86.6205
-5141.7 -7.27169 0 -55.7404
-5126.97 -8.46809 0 -54.7643
-6375.57 -7.36448 0 -17.1178
-6341.48 -8.04423 0 -13.7215
-3823.83 -12.6808 0 -82.6933
-3845.88 -11.3475 0 -85.3049
-6358.49 -7.7575 0 -15.4919
-5084.24 -10.5335 0 -50.8027
-3834.77 -12.1294 0 -84.0069
-5112.5 -9.33528 0 -53.5555
-5098.28 -10.0183 0 -52.2244
-6341.48 -8.04423 0 -13.7215
-6307.46 -8.39145 0 -9.87511
-3802.47 -13.2849 0 -80.0663
-3823.83 -12.6808 0 -82.6933
-6324.49 -8.25668 0 -11.8459
-5056.47 -11.0915 0 -47.6985
-3813.05 -13.0465 0 -81.3757
-5084.24 -10.5335 0 -50.8027
-5070.32 -10.8783 0 -49.2876
-6307.46 -8.39145 0 -9.87511
-6273.36 -8.5051 0 -5.77664
-3781.57 -13.4852 0 -77.4613
-3802.47 -13.2849 0 -80.0663
-6290.4 -8.46658 0 -7.84169
-5028.94 -11.2928 0 -44.4219
-3791.99 -13.4282 0 -78.7631
-5056.47 -11.0915 0 -47.6985
-5042.69 -11.2245 0 -46.0716
-6273.36 -8.5051 0 -5.77664
-6239.25 -8.50861 0 -1.60309
-3760.85 -13.4324 0 -74.8785
-3781.57 -13.4852 0 -77.4613
-6256.31 -8.518 0 -3.69488
-5001.51 -11.2824 0 -41.0777
-3771.19 -13.4799 0 -76.1652
-5028.94 -11.2928 0 -44.4219
-5015.22 -11.3073 0 -42.7544
-6239.25 -8.50861 0 -1.60309
-6205.11 -8.45076 0 2.57433
-3740.23 -13.2561 0 -72.3344
-3760.85 -13.4324 0 -74.8785
-6222.18 -8.48408 0 0.489545
-4974.12 -11.1681 0 -37.733
-3750.54 -13.3561 0 -73.6017
-5001.51 -11.2824 0 -41.0777
-4987.81 -11.2339 0 -39.4023
-6205.11 -8.45076 0 2.57433
-6170.97 -8.36911 0 6.70635
-3719.64 -13.0158 0 -69.8326
-3740.23 -13.2561 0 -72.3344
-6188.05 -8.41196 0 4.64729
-4946.75 -11.0029 0 -34.4213
-3729.93 -13.1407 0 -71.0777
-4974.12 -11.1681 0 -37.733
-4960.44 -11.0897 0 -36.0718
-6170.97 -8.36911 0 6.70635
-6136.82 -8.27888 0 10.775
-3699.07 -12.7511 0 -67.3776
-3719.64 -13.0158 0 -69.8326
-6153.9 -8.32424 0 8.74956
-4919.38 -10.8187 0 -31.1607
-3709.36 -12.8854 0 -68.5993
-4946.75 -11.0029 0 -34.4213
-4933.06 -10.912 0 -32.7839
-6136.82 -8.27888 0 10.775
-6102.67 -8.18933 0 14.7702
-3678.49 -12.4789 0 -64.9699
-3699.07 -12.7511 0 -67.3776
-6119.74 -8.2338 0 12.782
-4892 -10.6298 0 -27.9584
-3688.78 -12.6152 0 -66.1678
-4919.38 -10.8187 0 -31.1607
-4905.69 -10.7243 0 -29.552
-6102.67 -8.18933 0 14.7702
-6068.51 -8.10377 0 18.6896
-3657.91 -12.2082 0 -62.6097
-3678.49 -12.4789 0 -64.9699
-6085.59 -8.1459 0 16.7395
-4864.62 -10.4433 0 -24.8173
-3668.2 -12.3431 0 -63.7839
-4892 -10.6298 0 -27.9584
-4878.31 -10.536 0 -26.3801
-6068.51 -8.10377 0 18.6896
-6034.34 -8.02369 0 22.5327
-3637.33 -11.9423 0 -60.2961
-3657.91 -12.2082 0 -62.6097
-6051.42 -8.06303 0 20.6207
-4837.24 -10.262 0 -21.7377
-3647.62 -12.0745 0 -61.4471
-4864.62 -10.4433 0 -24.8173
-4850.93 -10.352 0 -23.2699
-6034.34 -8.02369 0 22.5327
-6000.18 -7.94931 0 26.3004
-3616.74 -11.6822 0 -58.0285
-3637.33 -11.9423 0 -60.2961
-6017.26 -7.98579 0 24.4259
-4809.85 -10.0864 0 -18.719
-3627.04 -11.8115 0 -59.1566
-4837.24 -10.262 0 -21.7377
-4823.54 -10.1735 0 -20.2208
-6000.18 -7.94931 0 26.3004
-5966.01 -7.88045 0 29.9935
-3596.15 -11.4279 0 -55.806
-3616.74 -11.6822 0 -58.0285
-5983.09 -7.91421 0 28.1562
-4782.46 -9.91659 0 -15.7603
-3606.45 -11.5543 0 -56.9116
-4809.85 -10.0864 0 -18.719
-4796.15 -10.0008 0 -17.2322
-5966.01 -7.88045 0 29.9935
-5931.83 -7.8168 0 33.613
-3575.55 -11.1789 0 -53.6279
-3596.15 -11.4279 0 -55.806
-5948.92 -7.848 0 31.8124
-4755.06 -9.75212 0 -12.8608
-3585.85 -11.3028 0 -54.7114
-4782.46 -9.91659 0 -15.7603
-4768.76 -9.83371 0 -14.3032
-5931.83 -7.8168 0 33.613
-5897.65 -7.75801 0 37.1599
-3554.96 -10.9348 0 -51.4936
-3575.55 -11.1789 0 -53.6279
-5914.74 -7.78682 0 35.3955
-4727.67 -9.59259 0 -10.0196
-3565.26 -11.0563 0 -52.5553
-4755.06 -9.75212 0 -12.8608
-4741.36 -9.67177 0 -11.4329
-5897.65 -7.75801 0 37.1599
-5863.47 -7.70378 0 40.6347
-3534.36 -10.6952 0 -49.4027
-3554.96 -10.9348 0 -51.4936
-5880.56 -7.73035 0 38.9063
-4700.26 -9.43761 0 -7.23611
-3544.66 -10.8145 0 -50.4428
-4727.67 -9.59259 0 -10.0196
-4713.97 -9.51455 0 -8.62066
-5863.47 -7.70378 0 40.6347
-5829.29 -7.65382 0 44.0382
-3513.76 -10.4596 0 -47.3546
-3534.36 -10.6952 0 -49.4027
-5846.38 -7.67828 0 42.3454
-4672.86 -9.28687 0 -4.50985
-3524.06 -10.5769 0 -48.3733
-4700.26 -9.43761 0 -7.23611
-4686.56 -9.36173 0 -5.86586
-5829.29 -7.65382 0 44.0382
-5795.1 -7.60789 0 47.3708
-3493.16 -10.2279 0 -45.3491
-3513.76 -10.4596 0 -47.3546
-5812.19 -7.63037 0 45.7133
-4645.46 -9.14009 0 -1.84033
-3503.46 -10.3433 0 -46.3466
-4672.86 -9.28687 0 -4.50985
-4659.16 -9.213 0 -3.16802
-5795.1 -7.60789 0 47.3708
-5760.91 -7.56578 0 50.633
-3472.55 -9.99971 0 -43.3859
-3493.16 -10.2279 0 -45.3491
-5778 -7.58637 0 49.0106
-4618.05 -8.99708 0 0.772861
-3482.86 -10.1133 0 -44.3622
-4645.46 -9.14009 0 -1.84033
-4631.75 -9.06813 0 -0.526716
-5760.91 -7.56578 0 50.633
-5726.71 -7.52729 0 53.8252
-3451.95 -9.77498 0 -41.4646
-3472.55 -9.99971 0 -43.3859
-5743.81 -7.54609 0 52.2378
-4590.64 -8.85762 0 3.33009
-3462.25 -9.88693 0 -42.42
-4618.05 -8.99708 0 0.772861
-4604.34 -8.92691 0 2.05845
-5726.71 -7.52729 0 53.8252
-5692.51 -7.49222 0 56.948
-3431.34 -9.55354 0 -39.585
-3451.95 -9.77498 0 -41.4646
-5709.61 -7.50934 0 55.3953
-4563.22 -8.72158 0 5.83169
-3441.65 -9.66386 0 -40.5196
-4590.64 -8.85762 0 3.33009
-4576.93 -8.78919 0 4.58782
-5692.51 -7.49222 0 56.948
-5658.31 -7.46041 0 60.0016
-3410.74 -9.33527 0 -37.7468
-3431.34 -9.55354 0 -39.585
-5675.41 -7.47592 0 58.4834
-4535.81 -8.58878 0 8.27802
-3421.04 -9.44402 0 -38.6607
-4563.22 -8.72158 0 5.83169
-4549.52 -8.65478 0 7.06175
-5658.31 -7.46041 0 60.0016
-5624.11 -7.43169 0 62.9865
-3390.13 -9.12004 0 -35.9498
-3410.74 -9.33527 0 -37.7468
-5641.21 -7.44567 0 61.5026
-4508.39 -8.45911 0 10.6694
-3400.43 -9.22728 0 -36.8432
-4535.81 -8.58878 0 8.27802
-4522.1 -8.52356 0 9.48056
-5624.11 -7.43169 0 62.9865
-5589.9 -7.40588 0 65.9031
-3369.52 -8.90776 0 -34.1938
-3390.13 -9.12004 0 -35.9498
-5607 -7.41843 0 64.4533
-4480.98 -8.33241 0 13.0061
-3379.82 -9.01354 0 -35.0667
-4508.39 -8.45911 0 10.6694
-4494.69 -8.39539 0 11.8446
-5589.9 -7.40588 0 65.9031
-5555.69 -7.38283 0 68.7519
-3348.91 -8.69834 0 -32.4785
-3369.52 -8.90776 0 -34.1938
-5572.8 -7.39402 0 67.336
-4453.56 -8.20856 0 15.2886
-3359.21 -8.8027 0 -33.3311
-4480.98 -8.33241 0 13.0061
-4467.27 -8.27014 0 14.1541
-5555.69 -7.38283 0 68.7519
-5521.48 -7.36238 0 71.5332
-3328.3 -8.49167 0 -30.8037
-3348.91 -8.69834 0 -32.4785
-5538.59 -7.37229 0 70.1509
-4426.14 -8.08744 0 17.517
-3338.6 -8.59466 0 -31.636
-4453.56 -8.20856 0 15.2886
-4439.85 -8.14767 0 16.4095
-5521.48 -7.36238 0 71.5332
-5487.27 -7.34438 0 74.2474
-3307.69 -8.28766 0 -29.169
-3328.3 -8.49167 0 -30.8037
-5504.38 -7.35309 0 72.8986
-4398.72 -7.96892 0 19.6918
-3317.99 -8.38934 0 -29.9813
-4426.14 -8.08744 0 17.517
-4412.43 -8.02786 0 18.6111
-5487.27 -7.34438 0 74.2474
-5453.06 -7.32867 0 76.895
-3287.08 -8.08624 0 -27.5744
-3307.69 -8.28766 0 -29.169
-5470.16 -7.33625 0 75.5795
-4371.29 -7.85289 0 21.8133
-3297.38 -8.18663 0 -28.3667
-4398.72 -7.96892 0 19.6918
-4385.01 -7.9106 0 20.7592
-5453.06 -7.32867 0 76.895
-5418.84 -7.3151 0 79.4763
-3266.46 -7.8873 0 -26.0195
-3287.08 -8.08624 0 -27.5744
-5435.95 -7.32163 0 78.1939
-4343.87 -7.73921 0 23.8818
-3276.77 -7.98646 0 -26.792
-4371.29 -7.85289 0 21.8133
-4357.58 -7.79576 0 22.8542
-5418.84 -7.3151 0 79.4763
-5384.62 -7.30353 0 81.9918
-3245.85 -7.69076 0 -24.5041
-3266.46 -7.8873 0 -26.0195
-5401.73 -7.30907 0 80.7422
-4316.45 -7.62778 0 25.8976
-3256.16 -7.78873 0 -25.2569
-4343.87 -7.73921 0 23.8818
-4330.16 -7.68322 0 24.8963
-5384.62 -7.30353 0 81.9918
-5350.41 -7.2938 0 84.4419
-3225.24 -7.49653 0 -23.0279
-3245.85 -7.69076 0 -24.5041
-5367.52 -7.29844 0 83.225
-4289.02 -7.51848 0 27.8611
-3235.54 -7.59336 0 -23.7611
-4316.45 -7.62778 0 25.8976
-4302.73 -7.57287 0 26.8859
-5350.41 -7.2938 0 84.4419
-5316.19 -7.28578 0 86.8269
-3204.63 -7.30454 0 -21.5908
-3225.24 -7.49653 0 -23.0279
-5333.3 -7.28959 0 85.6425
-4261.6 -7.41119 0 29.7726
-3214.93 -7.40026 0 -22.3045
-4289.02 -7.51848 0 27.8611
-4275.31 -7.46459 0 28.8233
-5316.19 -7.28578 0 86.8269
-5281.97 -7.27933 0 89.1474
-3184.01 -7.11469 0 -20.1923
-3204.63 -7.30454 0 -21.5908
-5299.08 -7.28237 0 87.9952
-4234.17 -7.3058 0 31.6324
-3194.32 -7.20935 0 -20.8867
-4261.6 -7.41119 0 29.7726
-4247.88 -7.35827 0 30.7089
-5281.97 -7.27933 0 89.1474
-5247.75 -7.27431 0 91.4038
-3163.4 -6.9269 0 -18.8324
-3184.01 -7.11469 0 -20.1923
-5264.86 -7.27665 0 90.2836
-4206.74 -7.20221 0 33.4408
-3173.71 -7.02054 0 -19.5076
-4234.17 -7.3058 0 31.6324
-4220.46 -7.25379 0 32.543
-5247.75 -7.27431 0 91.4038
-5213.52 -7.27059 0 93.5963
-3142.79 -6.7411 0 -17.5107
-3163.4 -6.9269 0 -18.8324
-5230.63 -7.2723 0 92.508
-4179.32 -7.10031 0 35.1983
-3153.09 -6.83376 0 -18.1668
-4206.74 -7.20221 0 33.4408
-4193.03 -7.15106 0 34.3259
-5213.52 -7.27059 0 93.5963
-5179.3 -7.26803 0 95.7255
-3122.17 -6.5572 0 -16.2271
-3142.79 -6.7411 0 -17.5107
-5196.41 -7.26917 0 94.6688
-4151.89 -6.99999 0 36.905
-3132.48 -6.64892 0 -16.8642
-4179.32 -7.10031 0 35.1983
-4165.6 -7.04996 0 36.0579
-5179.3 -7.26803 0 95.7255
-5145.08 -7.2665 0 97.7918
-3101.56 -6.37513 0 -14.9812
-3122.17 -6.5572 0 -16.2271
-5162.19 -7.26715 0 96.7665
-4124.46 -6.90114 0 38.5614
-3111.87 -6.46594 0 -15.5994
-4151.89 -6.99999 0 36.905
-4138.18 -6.95038 0 37.7395
-5145.08 -7.2665 0 97.7918
-5110.86 -7.26588 0 99.7956
-3080.95 -6.1948 0 -13.7728
-3101.56 -6.37513 0 -14.9812
-5127.97 -7.26609 0 98.8015
-4097.04 -6.80367 0 40.1678
-3091.26 -6.28475 0 -14.3723
-4124.46 -6.90114 0 38.5614
-4110.75 -6.85224 0 39.3708
-5110.86 -7.26588 0 99.7956
-5076.63 -7.26605 0 101.737
-3060.34 -6.01616 0 -12.6016
-3080.95 -6.1948 0 -13.7728
-5093.74 -7.26588 0 100.774
-4069.61 -6.70747 0 41.7245
-3070.64 -6.10527 0 -13.1826
-4097.04 -6.80367 0 40.1678
-4083.32 -6.75542 0 40.9523
-5076.63 -7.26605 0 101.737
-5042.41 -7.26687 0 103.617
-3039.73 -5.83911 0 -11.4675
-3060.34 -6.01616 0 -12.6016
-5059.52 -7.26638 0 102.685
-4042.18 -6.61245 0 43.2318
-3050.03 -5.92744 0 -12.03
-4069.61 -6.70747 0 41.7245
-4055.9 -6.65982 0 42.4843
-5042.41 -7.26687 0 103.617
-5008.19 -7.26824 0 105.436
-3019.12 -5.66359 0 -10.3702
-3039.73 -5.83911 0 -11.4675
-5025.3 -7.26749 0 104.534
-4014.76 -6.51852 0 44.6901
-3029.42 -5.75116 0 -10.9143
-4042.18 -6.61245 0 43.2318
-4028.47 -6.56535 0 43.9671
-5008.19 -7.26824 0 105.436
-4973.96 -7.27002 0 107.194
-2998.51 -5.48953 0 -9.30931
-3019.12 -5.66359 0 -10.3702
-4991.08 -7.26908 0 106.323
-3987.33 -6.42557 0 46.0998
-3008.81 -5.57638 0 -9.83518
-4014.76 -6.51852 0 44.6901
-4001.05 -6.47192 0 45.401
-4973.96 -7.27002 0 107.194
-4939.74 -7.27212 0 108.891
-2977.9 -5.31687 0 -8.28472
-2998.51 -5.48953 0 -9.30931
-4956.85 -7.27104 0 108.05
-3959.91 -6.33352 0 47.461
-2988.2 -5.40303 0 -8.7925
-3987.33 -6.42557 0 46.0998
-3973.62 -6.37943 0 46.7864
-4939.74 -7.27212 0 108.891
-4905.52 -7.27442 0 110.529
-2957.29 -5.14552 0 -7.29615
-2977.9 -5.31687 0 -8.28472
-4922.63 -7.27325 0 109.718
-3932.49 -6.24227 0 48.7743
-2967.6 -5.23103 0 -7.78595
-3959.91 -6.33352 0 47.461
-3946.2 -6.2878 0 48.1236
-4905.52 -7.27442 0 110.529
-4871.3 -7.2768 0 112.107
-2936.68 -4.97544 0 -6.34335
-2957.29 -5.14552 0 -7.29615
-4888.41 -7.27561 0 111.325
-3905.06 -6.15174 0 50.0398
-2946.99 -5.06033 0 -6.81529
-3932.49 -6.24227 0 48.7743
-3918.77 -6.19692 0 49.413
-4871.3 -7.2768 0 112.107
-4837.08 -7.27916 0 113.625
-2916.08 -4.80655 0 -5.42606
-2936.68 -4.97544 0 -6.34335
-4854.19 -7.27799 0 112.873
-3877.64 -6.06185 0 51.258
-2926.38 -4.89085 0 -5.88028
-3905.06 -6.15174 0 50.0398
-3891.35 -6.10672 0 50.6548
-4837.08 -7.27916 0 113.625
-4802.86 -7.2814 0 115.085
-2895.47 -4.63878 0 -4.54403
-2916.08 -4.80655 0 -5.42606
-4819.97 -7.28031 0 114.363
-3850.22 -5.97251 0 52.4292
-2905.78 -4.72253 0 -4.98065
-3877.64 -6.06185 0 51.258
-3863.93 -6.01712 0 51.8495
-4802.86 -7.2814 0 115.085
-4768.64 -7.28341 0 116.487
-2874.87 -4.47209 0 -3.69703
-2895.47 -4.63878 0 -4.54403
-4785.75 -7.28244 0 115.793
-3822.8 -5.88363 0 53.5537
-2885.17 -4.5553 0 -4.11617
-3850.22 -5.97251 0 52.4292
-3836.51 -5.92802 0 52.9973
-4768.64 -7.28341 0 116.487
-4734.42 -7.2851 0 117.83
-2854.27 -4.3064 0 -2.88479
-2874.87 -4.47209 0 -3.69703
-4751.53 -7.2843 0 117.166
-3795.38 -5.79514 0 54.6319
-2864.57 -4.38912 0 -3.28658
-3822.8 -5.88363 0 53.5537
-3809.09 -5.83934 0 54.0986
-4734.42 -7.2851 0 117.83
-4700.21 -7.28636 0 119.117
-2833.66 -4.14166 0 -2.10707
-2854.27 -4.3064 0 -2.88479
-4717.32 -7.28579 0 118.481
-3767.97 -5.70696 0 55.664
-2843.97 -4.22392 0 -2.49163
-3795.38 -5.79514 0 54.6319
-3781.67 -5.75102 0 55.1537
-4700.21 -7.28636 0 119.117
-4665.99 -7.2871 0 120.346
-2813.06 -3.97782 0 -1.36362
-2833.66 -4.14166 0 -2.10707
-4683.1 -7.2868 0 119.738
-3740.55 -5.61901 0 56.6504
-2823.36 -4.05963 0 -1.73108
-3767.97 -5.70696 0 55.664
-3754.26 -5.66296 0 56.1629
-4665.99 -7.2871 0 120.346
-4631.78 -7.28722 0 121.518
-2792.46 -3.81481 0 -0.654188
-2813.06 -3.97782 0 -1.36362
-4648.89 -7.28724 0 120.939
-3713.13 -5.53122 0 57.5915
-2802.76 -3.89621 0 -1.00467
-3740.55 -5.61901 0 56.6504
-3726.84 -5.5751 0 57.1266
-4631.78 -7.28722 0 121.518
-4597.57 -7.28665 0 122.634
-2771.87 -3.65258 0 0.021475
-2792.46 -3.81481 0 -0.654188
-4614.67 -7.28703 0 122.083
-3685.72 -5.44352 0 58.4875
-2782.17 -3.7336 0 -0.312151
-3713.13 -5.53122 0 57.5915
-3699.43 -5.48736 0 58.0451
-4597.57 -7.28665 0 122.634
-4563.36 -7.28527 0 123.694
-2751.27 -3.49108 0 0.663619
-2771.87 -3.65258 0 0.021475
-4580.46 -7.28606 0 123.171
-3658.31 -5.35583 0 59.3389
-2761.57 -3.57174 0 0.346721
-3685.72 -5.44352 0 58.4875
-3672.02 -5.39967 0 58.9188
-4563.36 -7.28527 0 123.694
-4529.15 -7.28302 0 124.699
-2730.68 -3.33025 0 1.27249
-2751.27 -3.49108 0 0.663619
-4546.25 -7.28426 0 124.204
-3630.9 -5.26808 0 60.1459
-2740.97 -3.41058 0 0.9722
-3658.31 -5.35583 0 59.3389
-3644.6 -5.31196 0 59.7479
-4529.15 -7.28302 0 124.699
-4494.94 -7.27981 0 125.649
-2710.08 -3.17006 0 1.84835
-2730.68 -3.33025 0 1.27249
-4512.05 -7.28154 0 125.181
-3603.49 -5.18021 0 60.9089
-2720.38 -3.25008 0 1.56453
-3630.9 -5.26808 0 60.1459
-3617.2 -5.22417 0 60.5329
-4494.94 -7.27981 0 125.649
-4460.74 -7.27555 0 126.544
-2689.49 -3.01043 0 2.39143
-2710.08 -3.17006 0 1.84835
-4477.84 -7.27782 0 126.103
-3576.09 -5.09215 0 61.6282
-2699.79 -3.09017 0 2.12397
-3603.49 -5.18021 0 60.9089
-3589.79 -5.13621 0 61.274
-4460.74 -7.27555 0 126.544
-4426.53 -7.27017 0 127.385
-2668.9 -2.85134 0 2.902
-2689.49 -3.01043 0 2.39143
-4443.63 -7.27301 0 126.971
-3548.68 -5.00385 0 62.3042
-2679.2 -2.93082 0 2.65077
-3576.09 -5.09215 0 61.6282
-3562.38 -5.04804 0 61.9716
-4426.53 -7.27017 0 127.385
-4392.33 -7.26358 0 128.172
-2648.31 -2.69273 0 3.3803
-2668.9 -2.85134 0 2.902
-4409.43 -7.26703 0 127.785
-3521.28 -4.91522 0 62.9371
-2658.61 -2.77197 0 3.14517
-3548.68 -5.00385 0 62.3042
-3534.98 -4.95958 0 62.626
-4392.33 -7.26358 0 128.172
-4358.13 -7.25572 0 128.906
-2627.73 -2.53455 0 3.82657
-2648.31 -2.69273 0 3.3803
-4375.23 -7.25982 0 128.546
-3493.88 -4.82623 0 63.5274
-2638.02 -2.61359 0 3.60742
-3521.28 -4.91522 0 62.9371
-3507.58 -4.87078 0 63.2375
-4358.13 -7.25572 0 128.906
-4323.94 -7.24651 0 129.587
-2607.14 -2.37677 0 4.24108
-2627.73 -2.53455 0 3.82657
-4341.03 -7.25129 0 129.254
-3466.48 -4.7368 0 64.0753
-2617.43 -2.45561 0 4.03778
-3493.88 -4.82623 0 63.5274
-3480.18 -4.78157 0 63.8066
-4323.94 -7.24651 0 129.587
-4289.74 -7.23588 0 130.216
-2586.56 -2.21933 0 4.62406
-2607.14 -2.37677 0 4.24108
-4306.84 -7.24138 0 129.908
-3439.08 -4.64688 0 64.5811
-2596.85 -2.29801 0 4.4365
-3466.48 -4.7368 0 64.0753
-3452.78 -4.69191 0 64.3334
-4289.74 -7.23588 0 130.216
-4255.55 -7.22376 0 130.792
-2565.98 -2.06221 0 4.97578
-2586.56 -2.21933 0 4.62406
-4272.64 -7.23001 0 130.511
-3411.69 -4.55642 0 65.0454
-2576.27 -2.14074 0 4.80382
-3439.08 -4.64688 0 64.5811
-3425.38 -4.60172 0 64.8184
-4255.55 -7.22376 0 130.792
-4221.36 -7.21008 0 131.317
-2545.4 -1.90535 0 5.29648
-2565.98 -2.06221 0 4.97578
-4238.45 -7.21712 0 131.061
-3384.3 -4.46536 0 65.4682
-2555.69 -1.98375 0 5.13999
-3411.69 -4.55642 0 65.0454
-3397.99 -4.51097 0 65.2619
-4221.36 -7.21008 0 131.317
-4187.17 -7.19478 0 131.791
-2524.82 -1.74873 0 5.5864
-2545.4 -1.90535 0 5.29648
-4204.26 -7.20263 0 131.56
-3356.91 -4.37366 0 65.8501
-2535.11 -1.82701 0 5.44527
-3384.3 -4.46536 0 65.4682
-3370.6 -4.41959 0 65.6642
-4187.17 -7.19478 0 131.791
-4152.98 -7.1778 0 132.214
-2504.25 -1.59229 0 5.84581
-2524.82 -1.74873 0 5.5864
-4170.08 -7.1865 0 132.009
-3329.52 -4.28125 0 66.1912
-2514.54 -1.67049 0 5.71991
-3356.91 -4.37366 0 65.8501
-3343.21 -4.32754 0 66.0257
-4152.98 -7.1778 0 132.214
-4118.8 -7.15907 0 132.586
-2483.67 -1.43601 0 6.07494
-2504.25 -1.59229 0 5.84581
-4135.89 -7.16865 0 132.406
-3302.13 -4.18809 0 66.492
-2493.96 -1.51414 0 5.96414
-3329.52 -4.28125 0 66.1912
-3315.83 -4.23477 0 66.3467
-4118.8 -7.15907 0 132.586
-4084.62 -7.13854 0 132.908
-2463.1 -1.27985 0 6.27406
-2483.67 -1.43601 0 6.07494
-4101.71 -7.14903 0 132.753
-3274.75 -4.09414 0 66.7528
-2473.39 -1.35792 0 6.17824
-3302.13 -4.18809 0 66.492
-3288.44 -4.14122 0 66.6274
-4084.62 -7.13854 0 132.908
-4050.44 -7.11615 0 133.181
-2442.54 -1.12378 0 6.44341
-2463.1 -1.27985 0 6.27406
-4067.53 -7.12758 0 133.051
-3247.37 -3.99935 0 66.974
-2452.82 -1.20181 0 6.36244
-3274.75 -4.09414 0 66.7528
-3261.06 -4.04686 0 66.8683
-4050.44 -7.11615 0 133.181
-4016.27 -7.09185 0 133.405
-2421.97 -0.967762 0 6.58323
-2442.54 -1.12378 0 6.44341
-4033.36 -7.10424 0 133.299
-3219.99 -3.90368 0 67.1558
-2432.25 -1.04577 0 6.51699
-3247.37 -3.99935 0 66.974
-3233.68 -3.95163 0 67.0698
-4016.27 -7.09185 0 133.405
-3982.1 -7.06558 0 133.579
-2401.4 -0.811765 0 6.69378
-2421.97 -0.967762 0 6.58323
-3999.18 -7.07897 0 133.498
-3192.62 -3.80708 0 67.2985
-2411.69 -0.889763 0 6.64215
-3219.99 -3.90368 0 67.1558
-3206.3 -3.8555 0 67.232
-3982.1 -7.06558 0 133.579
-3947.93 -7.0373 0 133.706
-2380.84 -0.655759 0 6.77532
-2401.4 -0.811765 0 6.69378
-3965.01 -7.0517 0 133.649
-3165.24 -3.70952 0 67.4026
-2391.12 -0.733765 0 6.73816
-3192.62 -3.80708 0 67.2985
-3178.93 -3.75842 0 67.3554
-3947.93 -7.0373 0 133.706
-3913.76 -7.00696 0 133.785
-2360.28 -0.499716 0 6.82808
-2380.84 -0.655759 0 6.77532
-3930.84 -7.02239 0 133.751
-3137.87 -3.61095 0 67.4684
-2370.56 -0.577744 0 6.80528
-3165.24 -3.70952 0 67.4026
-3151.56 -3.66036 0 67.4403
-3913.76 -7.00696 0 133.785
-3879.6 -6.9745 0 133.816
-2339.72 -0.343607 0 6.85232
-2360.28 -0.499716 0 6.82808
-3896.68 -6.991 0 133.806
-3110.51 -3.51134 0 67.4961
-2350 -0.421672 0 6.84375
-3137.87 -3.61095 0 67.4684
-3124.19 -3.56128 0 67.487
-3879.6 -6.9745 0 133.816
-3845.44 -6.93989 0 133.8
-2319.17 -0.187406 0 6.84829
-2339.72 -0.343607 0 6.85232
-3862.52 -6.95747 0 133.814
-3083.14 -3.41065 0 67.4862
-2329.45 -0.26552 0 6.85382
-3110.51 -3.51134 0 67.4961
-3096.82 -3.46113 0 67.4958
-3845.44 -6.93989 0 133.8
-3811.28 -6.90308 0 133.737
-2298.62 -0.0310864 0 6.81624
-2319.17 -0.187406 0 6.84829
-3828.36 -6.92176 0 133.774
-3055.78 -3.30885 0 67.4389
-2308.89 -0.109263 0 6.83575
-3083.14 -3.41065 0 67.4862
-3069.46 -3.35989 0 67.4672
-3811.28 -6.90308 0 133.737
-3777.13 -6.86403 0 133.628
-2278.07 0.125376 0 6.75642
-2298.62 -0.0310864 0 6.81624
-3794.2 -6.88384 0 133.688
-3028.42 -3.20591 0 67.3546
-2288.34 0.0471256 0 6.78978
-3055.78 -3.30885 0 67.4389
-3042.1 -3.25753 0 67.4014
-3777.13 -6.86403 0 133.628
-3742.97 -6.82271 0 133.474
-2257.52 0.282005 0 6.66907
-2278.07 0.125376 0 6.75642
-3760.05 -6.84366 0 133.557
-3001.06 -3.10179 0 67.2337
-2267.79 0.203668 0 6.71617
-3028.42 -3.20591 0 67.3546
-3014.74 -3.154 0 67.2987
-3742.97 -6.82271 0 133.474
-3708.83 -6.77907 0 133.274
-2236.97 0.438823 0 6.55445
-2257.52 0.282005 0 6.66907
-3725.9 -6.80118 0 133.379
-2973.71 -2.99647 0 67.0764
-2247.24 0.360389 0 6.61516
-3001.06 -3.10179 0 67.2337
-2987.39 -3.04928 0 67.1595
-3708.83 -6.77907 0 133.274
-3674.68 -6.73308 0 133.029
-2216.43 0.59585 0 6.41281
-2236.97 0.438823 0 6.55445
-3691.75 -6.75637 0 133.157
-2946.36 -2.88991 0 66.8831
-2226.7 0.517309 0 6.48699
-2973.71 -2.99647 0 67.0764
-2960.03 -2.94334 0 66.9842
-3674.68 -6.73308 0 133.029
-3640.54 -6.68471 0 132.739
-2195.89 0.753108 0 6.2444
-2216.43 0.59585 0 6.41281
-3657.61 -6.7092 0 132.889
-2919.01 -2.78209 0 66.6541
-2206.16 0.674449 0 6.33194
-2946.36 -2.88991 0 66.8831
-2932.68 -2.83616 0 66.773
-3640.54 -6.68471 0 132.739
-3606.4 -6.63393 0 132.405
-2175.35 0.910616 0 6.04946
-2195.89 0.753108 0 6.2444
-3623.47 -6.65962 0 132.578
-2891.67 -2.67299 0 66.3897
-2185.62 0.83183 0 6.15023
-2919.01 -2.78209 0 66.6541
-2905.34 -2.7277 0 66.5263
-3606.4 -6.63393 0 132.405
-3572.27 -6.5807 0 132.028
-2154.81 1.06839 0 5.82825
-2175.35 0.910616 0 6.04946
-3589.33 -6.60762 0 132.222
-2864.32 -2.56257 0 66.0904
-2165.08 0.989468 0 5.94212
-2891.67 -2.67299 0 66.3897
-2877.99 -2.61795 0 66.2444
-3572.27 -6.5807 0 132.028
-3538.13 -6.525 0 131.607
-2134.28 1.22645 0 5.58101
-2154.81 1.06839 0 5.82825
-3555.2 -6.55316 0 131.823
-2836.98 -2.45083 0 65.7564
-2144.54 1.14738 0 5.70787
-2864.32 -2.56257 0 66.0904
-2850.65 -2.50687 0 65.9277
-3538.13 -6.525 0 131.607
-3504 -6.4668 0 131.143
-2113.75 1.38481 0 5.30799
-2134.28 1.22645 0 5.58101
-3521.07 -6.49621 0 131.38
-2809.65 -2.33773 0 65.388
-2124.01 1.30559 0 5.44771
-2836.98 -2.45083 0 65.7564
-2823.32 -2.39445 0 65.5765
-3504 -6.4668 0 131.143
-3469.88 -6.40607 0 130.637
-2093.22 1.54348 0 5.00945
-2113.75 1.38481 0 5.30799
-3486.94 -6.43675 0 130.895
-2782.32 -2.22326 0 64.9857
-2103.48 1.4641 0 5.1619
-2809.65 -2.33773 0 65.388
-2795.98 -2.28067 0 65.1911
-3469.88 -6.40607 0 130.637
-3435.76 -6.3428 0 130.089
-2072.69 1.70248 0 4.68564
-2093.22 1.54348 0 5.00945
-3452.82 -6.37476 0 130.368
-2754.98 -2.1074 0 64.5496
-2082.96 1.62294 0 4.85069
-2782.32 -2.22326 0 64.9857
-2768.65 -2.16551 0 64.7719
-3435.76 -6.3428 0 130.089
-3401.64 -6.27697 0 129.499
-2052.17 1.86183 0 4.33679
-2072.69 1.70248 0 4.68564
-3418.7 -6.31021 0 129.799
-2727.66 -1.99013 0 64.0803
-2062.43 1.78211 0 4.51433
-2754.98 -2.1074 0 64.5496
-2741.32 -2.04894 0 64.3191
-3401.64 -6.27697 0 129.499
-3367.52 -6.20855 0 128.868
-2031.65 2.02153 0 3.96317
-2052.17 1.86183 0 4.33679
-3384.58 -6.24308 0 129.188
-2700.33 -1.87144 0 63.5779
-2041.91 1.94163 0 4.15306
-2727.66 -1.99013 0 64.0803
-2714 -1.93096 0 63.8332
-3367.52 -6.20855 0 128.868
-3333.41 -6.13752 0 128.196
-2011.13 2.18159 0 3.56501
-2031.65 2.02153 0 3.96317
-3350.47 -6.17336 0 128.537
-2673.01 -1.75131 0 63.0428
-2021.39 2.10151 0 3.76714
-2700.33 -1.87144 0 63.5779
-2686.67 -1.81155 0 63.3144
-3333.41 -6.13752 0 128.196
-3299.3 -6.06388 0 127.483
-1990.61 2.34202 0 3.14258
-2011.13 2.18159 0 3.56501
-3316.36 -6.10103 0 127.845
-2645.69 -1.62973 0 62.4754
-2000.87 2.26176 0 3.35682
-2673.01 -1.75131 0 63.0428
-2659.35 -1.6907 0 62.7631
-3299.3 -6.06388 0 127.483
-3265.2 -5.9876 0 126.731
-1970.1 2.50284 0 2.69611
-1990.61 2.34202 0 3.14258
-3282.25 -6.02607 0 127.112
-2618.38 -1.50668 0 61.8759
-1980.36 2.42239 0 2.92233
-2645.69 -1.62973 0 62.4754
-2632.04 -1.56839 0 62.1796
-3265.2 -5.9876 0 126.731
-3231.1 -5.90867 0 125.939
-1949.59 2.66405 0 2.22586
-1970.1 2.50284 0 2.69611
-3248.15 -5.94847 0 126.34
-2591.07 -1.38217 0 61.2448
-1959.84 2.5834 0 2.46394
-2618.38 -1.50668 0 61.8759
-2604.72 -1.44461 0 61.5643
-3231.1 -5.90867 0 125.939
-3197 -5.82709 0 125.108
-1929.08 2.82566 0 1.73208
-1949.59 2.66405 0 2.22586
-3214.05 -5.86821 0 125.528
-2563.76 -1.25617 0 60.5824
-1939.34 2.74481 0 1.9819
-2591.07 -1.38217 0 61.2448
-2577.41 -1.31936 0 60.9175
-3197 -5.82709 0 125.108
-3162.9 -5.74283 0 124.238
-1908.58 2.98767 0 1.21501
-1929.08 2.82566 0 1.73208
-3179.95 -5.78529 0 124.678
-2536.45 -1.12868 0 59.8889
-1918.83 2.90662 0 1.47644
-2563.76 -1.25617 0 60.5824
-2550.1 -1.19261 0 60.2395
-3162.9 -5.74283 0 124.238
-3128.81 -5.65591 0 123.33
-1888.07 3.15009 0 0.674901
-1908.58 2.98767 0 1.21501
-3145.86 -5.6997 0 123.789
-2509.15 -0.999701 0 59.1647
-1898.32 3.06883 0 0.947819
-2536.45 -1.12868 0 59.8889
-2522.8 -1.06438 0 59.5306
-3128.81 -5.65591 0 123.33
-3094.72 -5.56629 0 122.384
-1867.57 3.31292 0 0.112007
-1888.07 3.15009 0 0.674901
-3111.77 -5.61144 0 122.862
-2481.85 -0.869217 0 58.4102
-1877.82 3.23146 0 0.396287
-2509.15 -0.999701 0 59.1647
-2495.5 -0.934647 0 58.7912
-3094.72 -5.56629 0 122.384
-3060.64 -5.474 0 121.4
-1847.07 3.47617 0 -0.473427
-1867.57 3.31292 0 0.112007
-3077.68 -5.52048 0 121.897
-2454.55 -0.737228 0 57.6257
-1857.32 3.3945 0 -0.177908
-2481.85 -0.869217 0 58.4102
-2468.2 -0.803411 0 58.0217
-3060.64 -5.474 0 121.4
-3026.56 -5.37901 0 120.38
-1826.58 3.63984 0 -1.08115
-1847.07 3.47617 0 -0.473427
-3043.6 -5.42684 0 120.895
-2427.26 -0.603731 0 56.8114
-1836.83 3.55795 0 -0.774519
-2454.55 -0.737228 0 57.6257
-2440.91 -0.670668 0 57.2222
-3026.56 -5.37901 0 120.38
-2992.48 -5.28132 0 119.322
-1806.09 3.80392 0 -1.71092
-1826.58 3.63984 0 -1.08115
-3009.52 -5.3305 0 119.856
-2399.97 -0.468723 0 55.9678
-1816.33 3.72183 0 -1.3933
-2427.26 -0.603731 0 56.8114
-2413.61 -0.536416 0 56.3933
-2992.48 -5.28132 0 119.322
-2958.41 -5.18095 0 118.229
-1785.6 3.96843 0 -2.36248
-1806.09 3.80392 0 -1.71092
-2975.44 -5.23147 0 118.78
-2372.68 -0.332206 0 55.0952
-1795.84 3.88612 0 -2.03399
-2399.97 -0.468723 0 55.9678
-2386.33 -0.400653 0 55.5352
-2958.41 -5.18095 0 118.229
-2924.34 -5.07788 0 117.099
-1765.11 4.13335 0 -3.03559
-1785.6 3.96843 0 -2.36248
-2941.37 -5.12975 0 117.669
-2345.4 -0.194179 0 54.1939
-1775.35 4.05084 0 -2.69636
-2372.68 -0.332206 0 55.0952
-2359.04 -0.263381 0 54.6482
-2924.34 -5.07788 0 117.099
-2890.27 -4.97212 0 115.935
-1744.62 4.29869 0 -3.73
-1765.11 4.13335 0 -3.03559
-2907.3 -5.02534 0 116.521
-2318.12 -0.0546443 0 53.2643
-1754.87 4.21597 0 -3.38015
-2345.4 -0.194179 0 54.1939
-2331.76 -0.1246 0 53.7326
-2890.27 -4.97212 0 115.935
-2856.21 -4.86368 0 114.735
-1724.14 4.46445 0 -4.44546
-1744.62 4.29869 0 -3.73
-2873.24 -4.91824 0 115.339
-2290.84 0.0863948 0 52.3066
-1734.38 4.38152 0 -4.08511
-2318.12 -0.0546443 0 53.2643
-2304.48 0.0156874 0 52.7889
-2856.21 -4.86368 0 114.735
-2822.14 -4.75255 0 113.5
-1703.66 4.63062 0 -5.18171
-1724.14 4.46445 0 -4.44546
-2839.17 -4.80845 0 114.122
-2263.56 0.228934 0 51.3212
-1713.9 4.54749 0 -4.811
-2290.84 0.0863948 0 52.3066
-2277.2 0.157477 0 51.8173
-2822.14 -4.75255 0 113.5
-2788.09 -4.63875 0 112.232
-1683.19 4.7972 0 -5.93853
-1703.66 4.63062 0 -5.18171
-2805.12 -4.69599 0 112.87
-2236.29 0.372969 0 50.3084
-1693.42 4.71386 0 -5.55757
-2263.56 0.228934 0 51.3212
-2249.93 0.300765 0 50.8182
-2788.09 -4.63875 0 112.232
-2754.03 -4.52229 0 110.929
-1662.71 4.96419 0 -6.71564
-1683.19 4.7972 0 -5.93853
-2771.06 -4.58085 0 111.585
-2209.02 0.518493 0 49.2686
-1672.95 4.88064 0 -6.32456
-2236.29 0.372969 0 50.3084
-2222.66 0.445545 0 49.7918
-2754.03 -4.52229 0 110.929
-2719.98 -4.40317 0 109.594
-1642.24 5.13157 0 -7.51282
-1662.71 4.96419 0 -6.71564
-2737.01 -4.46306 0 110.266
-2181.76 0.665498 0 48.2021
-1652.47 5.04783 0 -7.11174
-2209.02 0.518493 0 49.2686
-2195.39 0.591811 0 48.7386
-2719.98 -4.40317 0 109.594
-2685.94 -4.2814 0 108.225
-1621.77 5.29934 0 -8.32981
-1642.24 5.13157 0 -7.51282
-2702.96 -4.34262 0 108.913
-2154.49 0.813975 0 47.1092
-1632 5.21541 0 -7.91885
-2181.76 0.665498 0 48.2021
-2168.12 0.739553 0 47.6589
-2685.94 -4.2814 0 108.225
-2651.89 -4.157 0 106.824
-1601.3 5.4675 0 -9.16635
-1621.77 5.29934 0 -8.32981
-2668.92 -4.21953 0 107.528
-2127.23 0.963916 0 45.9902
-1611.54 5.38338 0 -8.74565
-2154.49 0.813975 0 47.1092
-2140.86 0.888763 0 46.5529
-2651.89 -4.157 0 106.824
-2617.85 -4.02998 0 105.39
-1580.84 5.63604 0 -10.0222
-1601.3 5.4675 0 -9.16635
-2634.87 -4.09382 0 106.111
-2099.98 1.11531 0 44.8456
-1591.07 5.55173 0 -9.59189
-2127.23 0.963916 0 45.9902
-2113.6 1.03943 0 45.4211
-2617.85 -4.02998 0 105.39
-2583.82 -3.90035 0 103.925
-1560.38 5.80495 0 -10.8971
-1580.84 5.63604 0 -10.0222
-2600.84 -3.96549 0 104.662
-2072.72 1.26814 0 43.6755
-1570.61 5.72045 0 -10.4573
-2099.98 1.11531 0 44.8456
-2086.35 1.19155 0 44.2637
-2583.82 -3.90035 0 103.925
-2549.78 -3.76814 0 102.429
-1539.92 5.97421 0 -11.7909
-1560.38 5.80495 0 -10.8971
-2566.8 -3.83457 0 103.181
-2045.47 1.42241 0 42.4805
-1550.15 5.88954 0 -11.3417
-2072.72 1.26814 0 43.6755
-2059.1 1.3451 0 43.0811
-2549.78 -3.76814 0 102.429
-2515.75 -3.63335 0 100.902
-1519.46 6.14383 0 -12.7032
-1539.92 5.97421 0 -11.7909
-2532.77 -3.70107 0 101.669
-2018.22 1.57808 0 41.2606
-1529.69 6.05898 0 -12.2448
-2045.47 1.42241 0 42.4805
-2031.85 1.50007 0 41.8736
-2515.75 -3.63335 0 100.902
-2481.73 -3.49601 0 99.3443
-1499 6.31378 0 -13.6339
-1519.46 6.14383 0 -12.7032
-2498.74 -3.565 0 100.127
-1990.98 1.73516 0 40.0164
-1509.23 6.22876 0 -13.1663
-2018.22 1.57808 0 41.2606
-2004.6 1.65645 0 40.6416
-2481.73 -3.49601 0 99.3443
-2447.7 -3.35614 0 97.7566
-1478.55 6.48406 0 -14.5826
-1499 6.31378 0 -13.6339
-2464.71 -3.42639 0 98.5542
-1963.74 1.89362 0 38.7481
-1488.78 6.39888 0 -14.106
-1990.98 1.73516 0 40.0164
-1977.36 1.81421 0 39.3853
-2447.7 -3.35614 0 97.7566
-2413.68 -3.21375 0 96.1393
-1458.1 6.65465 0 -15.5492
-1478.55 6.48406 0 -14.5826
-2430.69 -3.28525 0 96.9516
-1936.5 2.05344 0 37.4561
-1468.33 6.56932 0 -15.0637
-1963.74 1.89362 0 38.7481
-1950.12 1.97336 0 38.1051
-2413.68 -3.21375 0 96.1393
-2379.66 -3.06887 0 94.4928
-1437.66 6.82555 0 -16.5333
-1458.1 6.65465 0 -15.5492
-2396.67 -3.14162 0 95.3197
-1909.26 2.21462 0 36.1407
-1447.88 6.74006 0 -16.039
-1936.5 2.05344 0 37.4561
-1922.88 2.13386 0 36.8013
-2379.66 -3.06887 0 94.4928
-2345.65 -2.92152 0 92.8174
-1417.21 6.99673 0 -17.5348
-1437.66 6.82555 0 -16.5333
-2362.66 -2.9955 0 93.6587
-1882.03 2.37713 0 34.8022
-1427.43 6.9111 0 -17.0319
-1909.26 2.21462 0 36.1407
-1895.64 2.29571 0 35.4743
-2345.65 -2.92152 0 92.8174
-2311.64 -2.77173 0 91.1137
-1396.77 7.16818 0 -18.5533
-1417.21 6.99673 0 -17.5348
-2328.64 -2.84693 0 91.9691
-1854.8 2.54094 0 33.441
-1406.99 7.08242 0 -18.0419
-1882.03 2.37713 0 34.8022
-1868.41 2.45887 0 34.1244
-2311.64 -2.77173 0 91.1137
-2277.63 -2.61953 0 89.382
-1376.33 7.33989 0 -19.5888
-1396.77 7.16818 0 -18.5533
-2294.63 -2.69593 0 90.2513
-1827.57 2.70605 0 32.0573
-1386.55 7.254 0 -19.069
-1854.8 2.54094 0 33.441
-1841.18 2.62334 0 32.7519
-2277.63 -2.61953 0 89.382
-2243.63 -2.46493 0 87.6227
-1355.89 7.51184 0 -20.6408
-1376.33 7.33989 0 -19.5888
-2260.63 -2.54253 0 88.5058
-1800.34 2.87243 0 30.6516
-1366.11 7.42584 0 -20.1127
-1827.57 2.70605 0 32.0573
-1813.95 2.78908 0 31.3572
-2243.63 -2.46493 0 87.6227
-2209.62 -2.30797 0 85.8362
-1335.46 7.68402 0 -21.7091
-1355.89 7.51184 0 -20.6408
-2226.62 -2.38674 0 86.7328
-1773.12 3.04006 0 29.2241
-1345.67 7.5979 0 -21.1729
-1800.34 2.87243 0 30.6516
-1786.73 2.95609 0 29.9406
-2209.62 -2.30797 0 85.8362
-2175.62 -2.14868 0 84.023
-1315.02 7.8564 0 -22.7936
-1335.46 7.68402 0 -21.7091
-2192.62 -2.22862 0 84.933
-1745.9 3.2089 0 27.7752
-1325.24 7.77018 0 -22.2494
-1773.12 3.04006 0 29.2241
-1759.51 3.12433 0 28.5023
-2175.62 -2.14868 0 84.023
-2141.63 -1.98708 0 82.1835
-1294.59 8.02897 0 -23.8939
-1315.02 7.8564 0 -22.7936
-2158.63 -2.06817 0 83.1065
-1718.68 3.37895 0 26.3052
-1304.81 7.94266 0 -23.3418
-1745.9 3.2089 0 27.7752
-1732.29 3.29378 0 27.0428
-2141.63 -1.98708 0 82.1835
-2107.63 -1.82321 0 80.318
-1274.16 8.20171 0 -25.0098
-1294.59 8.02897 0 -23.8939
-2124.63 -1.90543 0 81.254
-1691.47 3.55018 0 24.8144
-1284.38 8.11532 0 -24.4499
-1718.68 3.37895 0 26.3052
-1705.07 3.46442 0 25.5623
-2107.63 -1.82321 0 80.318
-2073.64 -1.65711 0 78.4271
-1253.74 8.37461 0 -26.1411
-1274.16 8.20171 0 -25.0098
-2090.64 -1.74044 0 79.3757
-1664.25 3.72255 0 23.3031
-1263.95 8.28814 0 -25.5736
-1691.47 3.55018 0 24.8144
-1677.86 3.63622 0 24.0613
-2073.64 -1.65711 0 78.4271
-2039.66 -1.48879 0 76.511
-1233.31 8.54764 0 -27.2875
-1253.74 8.37461 0 -26.1411
-2056.65 -1.57322 0 77.4721
-1637.04 3.89605 0 21.7718
-1243.52 8.46111 0 -26.7124
-1664.25 3.72255 0 23.3031
-1650.65 3.80916 0 22.54
-2039.66 -1.48879 0 76.511
-2005.67 -1.3183 0 74.5702
-1212.89 8.72077 0 -28.4488
-1233.31 8.54764 0 -27.2875
-2022.66 -1.40382 0 75.5436
-1609.84 4.07064 0 20.2207
-1223.1 8.63419 0 -27.8663
-1637.04 3.89605 0 21.7718
-1623.44 3.98321 0 20.9987
-2005.67 -1.3183 0 74.5702
-1971.69 -1.14568 0 72.6051
-1192.47 8.894 0 -29.6247
-1212.89 8.72077 0 -28.4488
-1988.68 -1.23225 0 73.5907
-1582.63 4.2463 0 18.6501
-1202.68 8.80738 0 -29.0349
-1609.84 4.07064 0 20.2207
-1596.23 4.15834 0 19.4378
-1971.69 -1.14568 0 72.6051
-1937.71 -0.97095 0 70.6162
-1172.05 9.0673 0 -30.815
-1192.47 8.894 0 -29.6247
-1954.7 -1.05857 0 71.6136
-1555.43 4.423 0 17.0604
-1182.26 8.98064 0 -30.2181
-1582.63 4.2463 0 18.6501
-1569.03 4.33452 0 17.8576
-1937.71 -0.97095 0 70.6162
-1903.73 -0.794159 0 68.6038
-1151.64 9.24064 0 -32.0194
-1172.05 9.0673 0 -30.815
-1920.72 -0.88281 0 69.6129
-1528.23 4.60071 0 15.4519
-1161.84 9.15397 0 -31.4154
-1555.43 4.423 0 17.0604
-1541.83 4.51173 0 16.2585
-1903.73 -0.794159 0 68.6038
-1869.76 -0.615342 0 66.5684
-1131.22 9.41401 0 -33.2377
-1151.64 9.24064 0 -32.0194
-1886.75 -0.705001 0 67.5889
-1501.03 4.77939 0 13.8249
-1141.43 9.32732 0 -32.6268
-1528.23 4.60071 0 15.4519
-1514.63 4.68993 0 14.6407
-1869.76 -0.615342 0 66.5684
-1835.79 -0.434538 0 64.5103
-1110.81 9.58738 0 -34.4696
-1131.22 9.41401 0 -33.2377
-1852.77 -0.525186 0 65.5421
-1473.84 4.95903 0 12.1798
-1121.02 9.50069 0 -33.852
-1501.03 4.77939 0 13.8249
-1487.44 4.8691 0 13.0046
-1835.79 -0.434538 0 64.5103
-1801.82 -0.251787 0 62.43
-1090.4 9.76072 0 -35.7149
-1110.81 9.58738 0 -34.4696
-1818.8 -0.343403 0 63.4729
-1446.65 5.13958 0 10.5169
-1100.61 9.67405 0 -35.0906
-1473.84 4.95903 0 12.1798
-1460.24 5.04919 0 11.3506
-1801.82 -0.251787 0 62.43
-1767.85 -0.0671303 0 60.3279
-1069.99 9.93402 0 -36.9734
-1090.4 9.76072 0 -35.7149
-1784.83 -0.159694 0 61.3816
-1419.46 5.32101 0 8.83648
-1080.2 9.84738 0 -36.3426
-1446.65 5.13958 0 10.5169
-1433.05 5.23019 0 9.67885
-1767.85 -0.0671303 0 60.3279
-1733.89 0.119391 0 58.2043
-1049.59 10.1072 0 -38.2448
-1069.99 9.93402 0 -36.9734
-1750.87 0.0259 0 59.2687
-1392.27 5.50329 0 7.13892
-1059.79 10.0206 0 -37.6075
-1419.46 5.32101 0 8.83648
-1405.86 5.41205 0 7.98983
-1733.89 0.119391 0 58.2043
-1699.92 0.307734 0 56.0598
-1029.18 10.2804 0 -39.5288
-1049.59 10.1072 0 -38.2448
-1716.9 0.213338 0 57.1347
-1365.08 5.68639 0 5.42453
-1039.39 10.1938 0 -38.8852
-1392.27 5.50329 0 7.13892
-1378.67 5.59474 0 6.28381
-1699.92 0.307734 0 56.0598
-1665.96 0.497856 0 53.8947
-1008.78 10.4534 0 -40.8253
-1029.18 10.2804 0 -39.5288
-1682.94 0.402576 0 54.9798
-1337.9 5.87026 0 3.69364
-1018.98 10.3669 0 -40.1755
-1365.08 5.68639 0 5.42453
-1351.49 5.77823 0 4.56112
-1665.96 0.497856 0 53.8947
-1632.01 0.689711 0 51.7094
-988.383 10.6262 0 -42.1339
-1008.78 10.4534 0 -40.8253
-1648.98 0.59357 0 52.8045
-1310.72 6.05489 0 1.94657
-998.583 10.5398 0 -41.4781
-1337.9 5.87026 0 3.69364
-1324.31 5.96249 0 2.82211
-1632.01 0.689711 0 51.7094
-1598.05 0.883256 0 49.5043
-967.985 10.7989 0 -43.4544
-988.383 10.6262 0 -42.1339
-1615.03 0.786275 0 50.6093
-1283.54 6.24022 0 0.183664
-978.184 10.7126 0 -42.7927
-1310.72 6.05489 0 1.94657
-1297.12 6.14747 0 1.06708
-1598.05 0.883256 0 49.5043
-1564.1 1.07844 0 47.2799
-947.588 10.9714 0 -44.7866
-967.985 10.7989 0 -43.4544
-1581.07 0.980647 0 48.3945
-1256.36 6.42623 0 -1.59476
-957.786 10.8852 0 -44.1191
-1283.54 6.24022 0 0.183664
-1269.95 6.33314 0 -0.70363
-1564.1 1.07844 0 47.2799
-1530.14 1.27523 0 45.0365
-927.194 11.1436 0 -46.1303
-947.588 10.9714 0 -44.7866
-1547.12 1.17664 0 46.1605
-1229.18 6.61287 0 -3.38838
-937.391 11.0575 0 -45.457
-1256.36 6.42623 0 -1.59476
-1242.77 6.51947 0 -2.48969
-1530.14 1.27523 0 45.0365
-1496.2 1.47356 0 42.7746
-906.801 11.3156 0 -47.4851
-927.194 11.1436 0 -46.1303
-1513.17 1.3742 0 43.9078
-1202.01 6.8001 0 -5.19686
-916.997 11.2296 0 -46.8063
-1229.18 6.61287 0 -3.38838
-1215.59 6.70641 0 -4.29078
-1496.2 1.47356 0 42.7746
-1462.25 1.6734 0 40.4945
-886.41 11.4873 0 -48.8508
-906.801 11.3156 0 -47.4851
-1479.22 1.57329 0 41.6368
-1174.84 6.9879 0 -7.01987
-896.605 11.4015 0 -48.1666
-1202.01 6.8001 0 -5.19686
-1188.42 6.89393 0 -6.10657
-1462.25 1.6734 0 40.4945
-1428.3 1.87468 0 38.1967
-866.02 11.6586 0 -50.2273
-886.41 11.4873 0 -48.8508
-1445.27 1.77386 0 39.3478
-1147.67 7.17622 0 -8.85709
-876.215 11.573 0 -49.5377
-1174.84 6.9879 0 -7.01987
-1161.25 7.082 0 -7.93672
-1428.3 1.87468 0 38.1967
-1394.36 2.07737 0 35.8817
-845.632 11.8296 0 -51.6142
-866.02 11.6586 0 -50.2273
-1411.33 1.97585 0 37.0413
-1120.5 7.36502 0 -10.7082
-855.826 11.7442 0 -50.9194
-1147.67 7.17622 0 -8.85709
-1134.08 7.27056 0 -9.78093
-1394.36 2.07737 0 35.8817
-1360.42 2.28141 0 33.5497
-825.246 12.0003 0 -53.0113
-845.632 11.8296 0 -51.6142
-1377.39 2.17922 0 34.7178
-1093.33 7.55425 0 -12.5728
-835.439 11.915 0 -52.3115
-1120.5 7.36502 0 -10.7082
-1106.91 7.45958 0 -11.6388
-1360.42 2.28141 0 33.5497
-1326.48 2.48675 0 31.2012
-804.861 12.1705 0 -54.4183
-825.246 12.0003 0 -53.0113
-1343.45 2.38392 0 32.3775
-1066.17 7.74389 0 -14.4507
-815.053 12.0855 0 -53.7136
-1093.33 7.55425 0 -12.5728
-1079.75 7.64902 0 -13.5102
-1326.48 2.48675 0 31.2012
-1292.54 2.69334 0 28.8366
-784.478 12.3403 0 -55.8351
-804.861 12.1705 0 -54.4183
-1309.51 2.58989 0 30.0209
-1039 7.93389 0 -16.3415
-794.669 12.2555 0 -55.1255
-1066.17 7.74389 0 -14.4507
-1052.58 7.83885 0 -15.3945
-1292.54 2.69334 0 28.8366
-1258.6 2.90113 0 26.4564
-764.096 12.5096 0 -57.2613
-784.478 12.3403 0 -55.8351
-1275.57 2.79709 0 27.6484
-1011.84 8.1242 0 -18.2449
-774.287 12.425 0 -56.547
-1039 7.93389 0 -16.3415
-1025.42 8.029 0 -17.2916
-1258.6 2.90113 0 26.4564
-1224.66 3.11006 0 24.0609
-743.716 12.6784 0 -58.6968
-764.096 12.5096 0 -57.2613
-1241.63 3.00546 0 25.2605
-984.681 8.31478 0 -20.1604
-753.906 12.5941 0 -57.9779
-1011.84 8.1242 0 -18.2449
-998.261 8.21946 0 -19.2011
-1224.66 3.11006 0 24.0609
-1190.73 3.32008 0 21.6505
-723.337 12.8467 0 -60.1412
-743.716 12.6784 0 -58.6968
-1207.7 3.21494 0 22.8575
-957.522 8.50559 0 -22.088
-733.526 12.7626 0 -59.4179
-984.681 8.31478 0 -20.1604
-971.101 8.41016 0 -21.1227
-1190.73 3.32008 0 21.6505
-1156.8 3.53114 0 19.2257
-702.959 13.0144 0 -61.5943
-723.337 12.8467 0 -60.1412
-1173.76 3.42548 0 20.4399
-930.365 8.69659 0 -24.0271
-713.148 12.9306 0 -60.8667
-957.522 8.50559 0 -22.088
-943.944 8.60107 0 -23.0561
-1156.8 3.53114 0 19.2257
-1122.87 3.74317 0 16.7868
-682.583 13.1815 0 -63.056
-702.959 13.0144 0 -61.5943
-1139.83 3.63704 0 18.008
-903.209 8.88773 0 -25.9774
-692.771 13.098 0 -62.3241
-930.365 8.69659 0 -24.0271
-916.787 8.79214 0 -25.0009
-1122.87 3.74317 0 16.7868
-1088.94 3.95613 0 14.3344
-662.208 13.3479 0 -64.5259
-682.583 13.1815 0 -63.056
-1105.9 3.84954 0 15.5623
-876.055 9.07895 0 -27.9387
-672.395 13.2648 0 -63.7899
-903.209 8.88773 0 -25.9774
-889.632 8.98333 0 -26.9567
-1088.94 3.95613 0 14.3344
-1055.01 4.16995 0 11.8687
-641.834 13.5137 0 -66.0037
-662.208 13.3479 0 -64.5259
-1071.97 4.06293 0 13.1031
-848.902 9.27023 0 -29.9106
-652.021 13.4309 0 -65.2638
-876.055 9.07895 0 -27.9387
-862.478 9.17459 0 -28.9233
-1055.01 4.16995 0 11.8687
-1021.08 4.38457 0 9.39017
-621.462 13.6787 0 -67.4893
-641.834 13.5137 0 -66.0037
-1038.04 4.27716 0 10.631
-821.75 9.46149 0 -31.8927
-631.648 13.5963 0 -66.7456
-848.902 9.27023 0 -29.9106
-835.325 9.36586 0 -30.9004
-1021.08 4.38457 0 9.39017
-987.153 4.59994 0 6.89929
-601.09 13.843 0 -68.9824
-621.462 13.6787 0 -67.4893
-1004.12 4.49217 0 8.14625
-794.599 9.6527 0 -33.8848
-611.276 13.761 0 -68.2349
-821.75 9.46149 0 -31.8927
-808.174 9.55711 0 -32.8876
-987.153 4.59994 0 6.89929
-953.228 4.81599 0 4.39645
-580.72 14.0065 0 -70.4827
-601.09 13.843 0 -68.9824
-970.191 4.70789 0 5.64934
-767.449 9.8438 0 -35.8865
-590.905 13.9249 0 -69.7316
-794.599 9.6527 0 -33.8848
-781.024 9.74827 0 -34.8845
-953.228 4.81599 0 4.39645
-919.303 5.03266 0 1.88207
-560.351 14.1691 0 -71.9899
-580.72 14.0065 0 -70.4827
-936.265 4.92426 0 3.14068
-740.301 10.0347 0 -37.8974
-570.535 14.0879 0 -71.2354
-767.449 9.8438 0 -35.8865
-753.875 9.93929 0 -36.8908
-919.303 5.03266 0 1.88207
-885.38 5.2499 0 -0.643424
-539.983 14.3308 0 -73.5039
-560.351 14.1691 0 -71.9899
-902.341 5.14121 0 0.620689
-713.153 10.2255 0 -39.9173
-550.167 14.2501 0 -72.7461
-740.301 10.0347 0 -37.8974
-726.727 10.1301 0 -38.9062
-885.38 5.2499 0 -0.643424
-851.457 5.46763 0 -3.17962
-519.615 14.4916 0 -75.0243
-539.983 14.3308 0 -73.5039
-868.418 5.3587 0 -1.91021
-686.006 10.4159 0 -41.9457
-529.799 14.4114 0 -74.2633
-713.153 10.2255 0 -39.9173
-699.58 10.3207 0 -40.9304
-851.457 5.46763 0 -3.17962
-817.535 5.6858 0 -5.72609
-499.249 14.6515 0 -76.551
-519.615 14.4916 0 -75.0243
-834.496 5.57666 0 -4.4516
-658.861 10.6061 0 -43.9823
-509.432 14.5717 0 -75.7869
-686.006 10.4159 0 -41.9457
-672.433 10.5111 0 -42.963
-817.535 5.6858 0 -5.72609
-783.613 5.90438 0 -8.28243
-478.883 14.8105 0 -78.0836
-499.249 14.6515 0 -76.551
-800.574 5.79504 0 -7.00305
-631.716 10.796 0 -46.0268
-489.066 14.7311 0 -77.3165
-658.861 10.6061 0 -43.9823
-645.288 10.7011 0 -45.0036
-783.613 5.90438 0 -8.28243
-749.693 6.12334 0 -10.8483
-458.519 14.9685 0 -79.6219
-478.883 14.8105 0 -78.0836
-766.653 6.01381 0 -9.56418
-604.572 10.9855 0 -48.079
-468.701 14.8896 0 -78.852
-631.716 10.796 0 -46.0268
-618.144 10.8908 0 -47.052
-749.693 6.12334 0 -10.8483
-715.773 6.34268 0 -13.4232
-438.155 15.1259 0 -81.1657
-458.519 14.9685 0 -79.6219
-732.733 6.23296 0 -12.1346
-577.428 11.1749 0 -50.1385
-448.337 15.0473 0 -80.3931
-604.572 10.9855 0 -48.079
-591 11.0802 0 -49.1078
-715.773 6.34268 0 -13.4232
-681.853 6.56245 0 -16.0071
-417.792 15.2826 0 -82.7149
-438.155 15.1259 0 -81.1657
-698.813 6.45251 0 -14.714
-550.286 11.3641 0 -52.2051
-427.973 15.2043 0 -81.9396
-577.428 11.1749 0 -50.1385
-563.857 11.2695 0 -51.1709
-681.853 6.56245 0 -16.0071
-647.935 6.78272 0 -18.5996
-397.429 15.4391 0 -84.2694
-417.792 15.2826 0 -82.7149
-664.894 6.67252 0 -17.3022
-523.144 11.5535 0 -54.2788
-407.61 15.3609 0 -83.4915
-550.286 11.3641 0 -52.2051
-536.715 11.4588 0 -53.2411
-647.935 6.78272 0 -18.5996
-614.016 7.00358 0 -21.2007
-377.068 15.5956 0 -85.8293
-397.429 15.4391 0 -84.2694
-630.975 6.89307 0 -19.899
-496.003 11.743 0 -56.3595
-387.249 15.5173 0 -85.0487
-523.144 11.5535 0 -54.2788
-509.574 11.6482 0 -55.3183
-614.016 7.00358 0 -21.2007
-580.097 7.22504 0 -23.8103
-356.708 15.7523 0 -87.3947
-377.068 15.5956 0 -85.8293
-597.057 7.11425 0 -22.5044
-468.863 11.933 0 -58.4474
-366.888 15.6739 0 -86.6113
-496.003 11.743 0 -56.3595
-482.433 11.838 0 -57.4026
-580.097 7.22504 0 -23.8103
-546.179 7.44687 0 -26.4284
-336.35 15.9088 0 -88.9662
-356.708 15.7523 0 -87.3947
-563.138 7.33594 0 -25.1183
-441.724 12.1228 0 -60.5424
-346.529 15.8307 0 -88.1797
-468.863 11.933 0 -58.4474
-455.293 12.0279 0 -59.494
-546.179 7.44687 0 -26.4284
-512.26 7.66791 0 -29.0543
-315.992 16.0637 0 -90.5447
-336.35 15.9088 0 -88.9662
-529.219 7.55764 0 -27.7405
-414.584 12.3109 0 -62.6445
-326.171 15.9867 0 -89.7545
-441.724 12.1228 0 -60.5424
-428.154 12.2173 0 -61.5927
-512.26 7.66791 0 -29.0543
-478.339 7.88567 0 -31.6864
-295.631 16.212 0 -92.1314
-315.992 16.0637 0 -90.5447
-495.3 7.77744 0 -30.3697
-387.443 12.4926 0 -64.7527
-305.812 16.1393 0 -91.337
-414.584 12.3109 0 -62.6445
-401.014 12.4029 0 -63.6979
-478.339 7.88567 0 -31.6864
-444.418 8.09313 0 -34.3185
-275.259 16.3443 0 -93.7292
-295.631 16.212 0 -92.1314
-461.379 7.99142 0 -33.0031
-360.295 12.6588 0 -66.8641
-285.448 16.2811 0 -92.9286
-387.443 12.4926 0 -64.7527
-373.87 12.5789 0 -65.8085
-444.418 8.09313 0 -34.3185
-410.491 8.27901 0 -36.9409
-254.863 16.4376 0 -95.3407
-275.259 16.3443 0 -93.7292
-427.456 8.18984 0 -35.6317
-333.127 12.7883 0 -68.9717
-265.065 16.3981 0 -94.5332
-360.295 12.6588 0 -66.8641
-346.714 12.7295 0 -67.9187
-410.491 8.27901 0 -36.9409
-376.562 8.41429 0 -39.5248
-234.395 16.4589 0 -96.9754
-254.863 16.4376 0 -95.3407
-393.525 8.35551 0 -38.2407
-305.916 12.8468 0 -71.0618
-244.643 16.4605 0 -96.154
-333.127 12.7883 0 -68.9717
-319.529 12.8312 0 -70.0211
-376.562 8.41429 0 -39.5248
-342.601 8.46462 0 -42.0331
-213.804 16.3331 0 -98.6399
-234.395 16.4589 0 -96.9754
-359.59 8.45382 0 -40.7911
-278.606 12.7637 0 -73.1091
-224.116 16.4206 0 -97.8043
-305.916 12.8468 0 -71.0618
-292.278 12.8258 0 -72.0912
-342.601 8.46462 0 -42.0331
-308.628 8.33265 0 -44.3643
-192.912 15.9861 0 -100.369
-213.804 16.3331 0 -98.6399
-325.609 8.42749 0 -43.2315
-251.102 12.4509 0 -75.0711
-203.415 16.1944 0 -99.4918
-278.606 12.7637 0 -73.1091
-264.884 12.6512 0 -74.1084
-308.628 8.33265 0 -44.3643
-274.493 7.96122 0 -46.4255
-171.576 15.2447 0 -102.184
-192.912 15.9861 0 -100.369
-291.604 8.18819 0 -45.4333
-223.206 11.7328 0 -76.8962
-182.298 15.6741 0 -101.268
-251.102 12.4509 0 -75.0711
-237.225 12.1395 0 -75.9964
-274.493 7.96122 0 -46.4255
-240.259 7.07524 0 -47.9461
-149.269 14.1056 0 -104.224
-171.576 15.2447 0 -102.184
-257.362 7.58563 0 -47.2833
-194.629 10.5115 0 -78.52
-160.608 14.7275 0 -103.157
-223.206 11.7328 0 -76.8962
-209.012 11.2252 0 -77.7553
-240.259 7.07524 0 -47.9461
-205.227 5.81531 0 -48.8605
-125.814 12.4305 0 -106.569
-149.269 14.1056 0 -104.224
-222.943 6.52365 0 -48.4695
-164.746 8.5757 0 -80.0016
-137.655 13.3107 0 -105.364
-194.629 10.5115 0 -78.52
-179.932 9.56503 0 -79.2328
-205.227 5.81531 0 -48.8605
-169.543 3.57878 0 -48.7667
-100.13 11.2648 0 -109.734
-125.814 12.4305 0 -106.569
-187.383 4.73833 0 -48.9913
-132.967 6.53805 0 -81.5532
-113.408 11.7065 0 -107.98
-164.746 8.5757 0 -80.0016
-149.069 7.63845 0 -80.8166
-169.543 3.57878 0 -48.7667
-130.303 2.44771 0 -48.6484
-73.2101 11.8738 0 -113.862
-100.13 11.2648 0 -109.734
-150.75 2.93827 0 -48.5737
-97.7311 5.55588 0 -84.338
-86.5992 11.063 0 -111.708
-132.967 6.53805 0 -81.5532
-116.063 5.44072 0 -82.524
-130.303 2.44771 0 -48.6484
-88.0712 2.64836 0 -49.9507
-44.9727 21.1067 0 -119.588
-73.2101 11.8738 0 -113.862
-109.298 1.57837 0 -48.9806
-59.615 12.2832 0 -90.2271
-59.4762 14.9105 0 -116.44
-97.7311 5.55588 0 -84.338
-78.6617 7.71627 0 -87.0119
-88.0712 2.64836 0 -49.9507
-36.0271 21.5701 0 -62.0508
-23.7427 47.3631 0 -122.094
-44.9727 21.1067 0 -119.588
-64.1827 9.12102 0 -53.6383
-19.8449 41.2952 0 -102.713
-32.4452 30.7894 0 -121.92
-59.615 12.2832 0 -90.2271
-40.4845 21.154 0 -94.88
-36.0271 21.5701 0 -62.0508
1.95511 95.305 0 -92.919
-9.52573 109.71 0 -107.452
-23.7427 47.3631 0 -122.094
-13.041 41.5875 0 -74.4169
-6.53167 123.499 0 -105.949
-16.383 74.6513 0 -118.409
-19.8449 41.2952 0 -102.713
-5.64529 75.8147 0 -108.936
1.95511 95.305 0 -92.919
-10.2522 349.589 0 -71.6049
0.439351 173.531 0 -47.9932
-9.52573 109.71 0 -107.452
6.33374 203.07 0 -101.755
-12.7756 246.607 0 -38.372
-3.2326 146.379 0 -84.6353
-6.53167 123.499 0 -105.949
-11.2621 184.761 0 -84.9673
-3646.42 -1097.28 0 336.003
-3956.98 -699.024 0 -6.78914
-1295.03 -228.26 0 174.428
-1327.63 -398.054 0 523.951
-3857.48 -884.765 0 128.692
-2626.62 -463.323 0 104.88
-1272.95 -314.578 0 330.679
-2434.33 -731.322 0 479.158
-2571.21 -617.738 0 238.594
-3956.98 -699.024 0 -6.78914
-4030.7 -312.324 0 -111.027
-1363.14 -144.344 0 -33.9139
-1295.03 -228.26 0 174.428
-3989.84 -491.407 0 -74.5707
-2687.96 -247.819 0 -60.9478
-1347.76 -181.626 0 51.8288
-2626.62 -463.323 0 104.88
-2654.27 -338.497 0 14.8988
-4030.7 -312.324 0 -111.027
-4068.07 -118.39 0 -128.458
-1367.47 -67.6431 0 -127.643
-1363.14 -144.344 0 -33.9139
-4066.71 -195.555 0 -128.097
-2719.64 -107.643 0 -130.863
-1360.51 -101.978 0 -90.5516
-2687.96 -247.819 0 -60.9478
-2712.69 -170.868 0 -109.681
-4068.07 -118.39 0 -128.458
-4036.81 -29.2505 0 -115.156
-1371.01 -32.2887 0 -160.387
-1367.47 -67.6431 0 -127.643
-4050.96 -63.0549 0 -121.144
-2710.84 -39.0224 0 -144.736
-1375.19 -46.8577 0 -149.747
-2719.64 -107.643 0 -130.863
-2717.37 -65.2539 0 -139.801
-4036.81 -29.2505 0 -115.156
-4000.58 -3.90302 0 -105.444
-1356.27 -14.1904 0 -163.007
-1371.01 -32.2887 0 -160.387
-4021.68 -12.2607 0 -110.313
-2686.01 -10.4052 0 -140.443
-1361.87 -20.7426 0 -163.567
-2710.84 -39.0224 0 -144.736
-2699.88 -21.3746 0 -144.454
-4000.58 -3.90302 0 -105.444
-3958.96 1.93962 0 -98.1039
-1343.93 -11.2205 0 -156.126
-1356.27 -14.1904 0 -163.007
-3977.75 0.861576 0 -101.038
-2657.67 -4.17725 0 -132.369
-1351.43 -11.9326 0 -160.172
-2686.01 -10.4052 0 -140.443
-2671.36 -5.36163 0 -135.971
-3958.96 1.93962 0 -98.1039
-3925.44 -1.56028 0 -94.0161
-1329.55 -11.3315 0 -147.516
-1343.93 -11.2205 0 -156.126
-3942.24 0.528012 0 -95.9987
-2632.16 -5.26116 0 -124.988
-1335.8 -10.8547 0 -151.662
-2657.67 -4.17725 0 -132.369
-2644.53 -4.32391 0 -128.706
-3925.44 -1.56028 0 -94.0161
-3895.23 -5.52558 0 -90.6908
-1318.53 -13.376 0 -140.495
-1329.55 -11.3315 0 -147.516
-3909.39 -3.50132 0 -92.1932
-2610.3 -8.60744 0 -119.258
-1324.17 -12.3897 0 -143.779
-2632.16 -5.26116 0 -124.988
-2620.72 -6.8239 0 -121.803
-3895.23 -5.52558 0 -90.6908
-3869.57 -9.12176 0 -87.9808
-1308.4 -14.7897 0 -135.352
-1318.53 -13.376 0 -140.495
-3882.22 -7.50038 0 -89.3452
-2591.57 -11.439 0 -114.94
-1313.08 -14.1103 0 -137.676
-2610.3 -8.60744 0 -119.258
-2600.62 -10.1532 0 -116.998
-3869.57 -9.12176 0 -87.9808
-3845.88 -11.3475 0 -85.3049
-1299.94 -15.8353 0 -131.837
-1308.4 -14.7897 0 -135.352
-3857.4 -10.3582 0 -86.6205
-2574.97 -13.4201 0 -111.659
-1304.14 -15.4035 0 -133.431
-2591.57 -11.439 0 -114.94
-2583.05 -12.5352 0 -113.171
-3845.88 -11.3475 0 -85.3049
-3823.83 -12.6808 0 -82.6933
-1292.05 -16.2646 0 -129.413
-1299.94 -15.8353 0 -131.837
-3834.77 -12.1294 0 -84.0069
-2559.71 -14.5135 0 -109.026
-1295.87 -16.0971 0 -130.512
-2574.97 -13.4201 0 -111.659
-2567.22 -14.0663 0 -110.291
-3823.83 -12.6808 0 -82.6933
-3802.47 -13.2849 0 -80.0663
-1284.73 -16.3667 0 -127.691
-1292.05 -16.2646 0 -129.413
-3813.05 -13.0465 0 -81.3757
-2545.21 -15.0069 0 -106.801
-1288.37 -16.3586 0 -128.487
-2559.71 -14.5135 0 -109.026
-2552.39 -14.8202 0 -107.87
-3802.47 -13.2849 0 -80.0663
-3781.57 -13.4852 0 -77.4613
-1277.6 -16.2107 0 -126.375
-1284.73 -16.3667 0 -127.691
-3791.99 -13.4282 0 -78.7631
-2531.11 -15.1016 0 -104.811
-1281.14 -16.3088 0 -126.994
-2545.21 -15.0069 0 -106.801
-2538.13 -15.0932 0 -105.786
-3781.57 -13.4852 0 -77.4613
-3760.85 -13.4324 0 -74.8785
-1270.63 -15.9307 0 -125.293
-1277.6 -16.2107 0 -126.375
-3771.19 -13.4799 0 -76.1652
-2517.22 -14.9724 0 -102.967
-1274.11 -16.0842 0 -125.813
-2531.11 -15.1016 0 -104.811
-2524.15 -15.0575 0 -103.874
-3760.85 -13.4324 0 -74.8785
-3740.23 -13.2561 0 -72.3344
-1263.69 -15.5761 0 -124.34
-1270.63 -15.9307 0 -125.293
-3750.54 -13.3561 0 -73.6017
-2503.42 -14.7206 0 -101.211
-1267.15 -15.7587 0 -124.805
-2517.22 -14.9724 0 -102.967
-2510.31 -14.8574 0 -102.081
-3740.23 -13.2561 0 -72.3344
-3719.64 -13.0158 0 -69.8326
-1256.77 -15.1927 0 -123.458
-1263.69 -15.5761 0 -124.34
-3729.93 -13.1407 0 -71.0777
-2489.65 -14.4111 0 -99.5163
-1260.23 -15.3871 0 -123.893
-2503.42 -14.7206 0 -101.211
-2496.53 -14.5705 0 -100.357
-3719.64 -13.0158 0 -69.8326
-3699.07 -12.7511 0 -67.3776
-1249.86 -14.7979 0 -122.619
-1256.77 -15.1927 0 -123.458
-3709.36 -12.8854 0 -68.5993
-2475.9 -14.0772 0 -97.867
-1253.32 -14.9957 0 -123.035
-2489.65 -14.4111 0 -99.5163
-2482.77 -14.2458 0 -98.6867
-3699.07 -12.7511 0 -67.3776
-3678.49 -12.4789 0 -64.9699
-1242.95 -14.4034 0 -121.807
-1249.86 -14.7979 0 -122.619
-3688.78 -12.6152 0 -66.1678
-2462.14 -13.737 0 -96.2557
-1246.4 -14.6004 0 -122.21
-2475.9 -14.0772 0 -97.867
-2469.02 -13.9072 0 -97.0568
-3678.49 -12.4789 0 -64.9699
-3657.91 -12.2082 0 -62.6097
-1236.03 -14.013 0 -121.014
-1242.95 -14.4034 0 -121.807
-3668.2 -12.3431 0 -63.7839
-2448.38 -13.3984 0 -94.6783
-1239.49 -14.2075 0 -121.408
-2462.14 -13.737 0 -96.2557
-2455.26 -13.5672 0 -95.4629
-3657.91 -12.2082 0 -62.6097
-3637.33 -11.9423 0 -60.2961
-1229.1 -13.6285 0 -120.239
-1236.03 -14.013 0 -121.014
-3647.62 -12.0745 0 -61.4471
-2434.62 -13.0647 0 -93.1329
-1232.56 -13.82 0 -120.625
-2448.38 -13.3984 0 -94.6783
-2441.5 -13.2308 0 -93.9017
-3637.33 -11.9423 0 -60.2961
-3616.74 -11.6822 0 -58.0285
-1222.18 -13.2499 0 -119.479
-1229.1 -13.6285 0 -120.239
-3627.04 -11.8115 0 -59.1566
-2420.85 -12.7368 0 -91.6182
-1225.64 -13.4385 0 -119.857
-2434.62 -13.0647 0 -93.1329
-2427.73 -12.9001 0 -92.3718
-3616.74 -11.6822 0 -58.0285
-3596.15 -11.4279 0 -55.806
-1215.25 -12.8767 0 -118.733
-1222.18 -13.2499 0 -119.479
-3606.45 -11.5543 0 -56.9116
-2407.08 -12.4146 0 -90.1335
-1218.71 -13.0627 0 -119.104
-2420.85 -12.7368 0 -91.6182
-2413.96 -12.5751 0 -90.8722
-3596.15 -11.4279 0 -55.806
-3575.55 -11.1789 0 -53.6279
-1208.32 -12.5082 0 -118.002
-1215.25 -12.8767 0 -118.733
-3585.85 -11.3028 0 -54.7114
-2393.31 -12.0976 0 -88.6784
-1211.78 -12.6919 0 -118.366
-2407.08 -12.4146 0 -90.1335
-2400.19 -12.2555 0 -89.4023
-3575.55 -11.1789 0 -53.6279
-3554.96 -10.9348 0 -51.4936
-1201.39 -12.144 0 -117.286
-1208.32 -12.5082 0 -118.002
-3565.26 -11.0563 0 -52.5553
-2379.53 -11.7852 0 -87.2523
-1204.85 -12.3256 0 -117.642
-2393.31 -12.0976 0 -88.6784
-2386.42 -11.9409 0 -87.9617
-3554.96 -10.9348 0 -51.4936
-3534.36 -10.6952 0 -49.4027
-1194.45 -11.7834 0 -116.583
-1201.39 -12.144 0 -117.286
-3544.66 -10.8145 0 -50.4428
-2365.76 -11.477 0 -85.855
-1197.92 -11.9632 0 -116.933
-2379.53 -11.7852 0 -87.2523
-2372.64 -11.6306 0 -86.5501
-3534.36 -10.6952 0 -49.4027
-3513.76 -10.4596 0 -47.3546
-1187.52 -11.4263 0 -115.895
-1194.45 -11.7834 0 -116.583
-3524.06 -10.5769 0 -48.3733
-2351.98 -11.1727 0 -84.4862
-1190.99 -11.6045 0 -116.237
-2365.76 -11.477 0 -85.855
-2358.87 -11.3244 0 -85.1671
-3513.76 -10.4596 0 -47.3546
-3493.16 -10.2279 0 -45.3491
-1180.59 -11.0723 0 -115.22
-1187.52 -11.4263 0 -115.895
-3503.46 -10.3433 0 -46.3466
-2338.2 -10.8718 0 -83.1458
-1184.06 -11.2489 0 -115.556
-2351.98 -11.1727 0 -84.4862
-2345.09 -11.0218 0 -83.8125
-3493.16 -10.2279 0 -45.3491
-3472.55 -9.99971 0 -43.3859
-1173.66 -10.7213 0 -114.56
-1180.59 -11.0723 0 -115.22
-3482.86 -10.1133 0 -44.3622
-2324.42 -10.5743 0 -81.8335
-1177.12 -10.8965 0 -114.889
-2338.2 -10.8718 0 -83.1458
-2331.31 -10.7227 0 -82.4861
-3472.55 -9.99971 0 -43.3859
-3451.95 -9.77498 0 -41.4646
-1166.73 -10.3731 0 -113.914
-1173.66 -10.7213 0 -114.56
-3462.25 -9.88693 0 -42.42
-2310.65 -10.28 0 -80.5491
-1170.19 -10.5469 0 -114.235
-2324.42 -10.5743 0 -81.8335
-2317.54 -10.4268 0 -81.1878
-3451.95 -9.77498 0 -41.4646
-3431.34 -9.55354 0 -39.585
-1159.79 -10.0277 0 -113.281
-1166.73 -10.3731 0 -113.914
-3441.65 -9.66386 0 -40.5196
-2296.87 -9.98881 0 -79.2924
-1163.26 -10.2001 0 -113.596
-2310.65 -10.28 0 -80.5491
-2303.76 -10.134 0 -79.9173
-3431.34 -9.55354 0 -39.585
-3410.74 -9.33527 0 -37.7468
-1152.86 -9.685 0 -112.662
-1159.79 -10.0277 0 -113.281
-3421.04 -9.44402 0 -38.6607
-2283.09 -9.70055 0 -78.0633
-1156.33 -9.85603 0 -112.97
-2296.87 -9.98881 0 -79.2924
-2289.98 -9.84431 0 -78.6744
-3410.74 -9.33527 0 -37.7468
-3390.13 -9.12004 0 -35.9498
-1145.93 -9.34492 0 -112.057
-1152.86 -9.685 0 -112.662
-3400.43 -9.22728 0 -36.8432
-2269.31 -9.41519 0 -76.8616
-1149.4 -9.51463 0 -112.358
-2283.09 -9.70055 0 -78.0633
-2276.2 -9.55751 0 -77.4591
-3390.13 -9.12004 0 -35.9498
-3369.52 -8.90776 0 -34.1938
-1139 -9.00744 0 -111.465
-1145.93 -9.34492 0 -112.057
-3379.82 -9.01354 0 -35.0667
-2255.53 -9.13265 0 -75.6872
-1142.46 -9.17586 0 -111.759
-2269.31 -9.41519 0 -76.8616
-2262.42 -9.27357 0 -76.271
-3369.52 -8.90776 0 -34.1938
-3348.91 -8.69834 0 -32.4785
-1132.07 -8.67253 0 -110.886
-1139 -9.00744 0 -111.465
-3359.21 -8.8027 0 -33.3311
-2241.75 -8.85287 0 -74.5399
-1135.53 -8.83967 0 -111.174
-2255.53 -9.13265 0 -75.6872
-2248.64 -8.99242 0 -75.1102
-3348.91 -8.69834 0 -32.4785
-3328.3 -8.49167 0 -30.8037
-1125.13 -8.34016 0 -110.321
-1132.07 -8.67253 0 -110.886
-3338.6 -8.59466 0 -31.636
-2227.96 -8.57578 0 -73.4196
-1128.6 -8.50603 0 -110.602
-2241.75 -8.85287 0 -74.5399
-2234.85 -8.71399 0 -73.9764
-3328.3 -8.49167 0 -30.8037
-3307.69 -8.28766 0 -29.169
-1118.2 -8.01031 0 -109.77
-1125.13 -8.34016 0 -110.321
-3317.99 -8.38934 0 -29.9813
-2214.18 -8.30133 0 -72.326
-1121.67 -8.17492 0 -110.044
-2227.96 -8.57578 0 -73.4196
-2221.07 -8.43823 0 -72.8694
-3307.69 -8.28766 0 -29.169
-3287.08 -8.08624 0 -27.5744
-1111.27 -7.68294 0 -109.231
-1118.2 -8.01031 0 -109.77
-3297.38 -8.18663 0 -28.3667
-2200.4 -8.02946 0 -71.259
-1114.74 -7.84632 0 -109.499
-2214.18 -8.30133 0 -72.326
-2207.29 -8.16507 0 -71.7892
-3287.08 -8.08624 0 -27.5744
-3266.46 -7.8873 0 -26.0195
-1104.34 -7.35803 0 -108.706
-1111.27 -7.68294 0 -109.231
-3276.77 -7.98646 0 -26.792
-2186.62 -7.7601 0 -70.2185
-1107.81 -7.52018 0 -108.967
-2200.4 -8.02946 0 -71.259
-2193.51 -7.89447 0 -70.7355
-3266.46 -7.8873 0 -26.0195
-3245.85 -7.69076 0 -24.5041
-1097.41 -7.03555 0 -108.194
-1104.34 -7.35803 0 -108.706
-3256.16 -7.78873 0 -25.2569
-2172.84 -7.49321 0 -69.2043
-1100.88 -7.19649 0 -108.448
-2186.62 -7.7601 0 -70.2185
-2179.73 -7.62635 0 -69.7081
-3245.85 -7.69076 0 -24.5041
-3225.24 -7.49653 0 -23.0279
-1090.48 -6.71548 0 -107.695
-1097.41 -7.03555 0 -108.194
-3235.54 -7.59336 0 -23.7611
-2159.06 -7.22873 0 -68.2162
-1093.94 -6.87522 0 -107.943
-2172.84 -7.49321 0 -69.2043
-2165.95 -7.36067 0 -68.707
-3225.24 -7.49653 0 -23.0279
-3204.63 -7.30454 0 -21.5908
-1083.55 -6.39778 0 -107.208
-1090.48 -6.71548 0 -107.695
-3214.93 -7.40026 0 -22.3045
-2145.28 -6.96659 0 -67.2541
-1087.01 -6.55633 0 -107.45
-2159.06 -7.22873 0 -68.2162
-2152.17 -7.09737 0 -67.7319
-3204.63 -7.30454 0 -21.5908
-3184.01 -7.11469 0 -20.1923
-1076.62 -6.08243 0 -106.735
-1083.55 -6.39778 0 -107.208
-3194.32 -7.20935 0 -20.8867
-2131.5 -6.70675 0 -66.3177
-1080.08 -6.23981 0 -106.97
-2145.28 -6.96659 0 -67.2541
-2138.39 -6.83639 0 -66.7827
-3184.01 -7.11469 0 -20.1923
-3163.4 -6.9269 0 -18.8324
-1069.69 -5.7694 0 -106.274
-1076.62 -6.08243 0 -106.735
-3173.71 -7.02054 0 -19.5076
-2117.72 -6.44915 0 -65.4071
-1073.15 -5.92562 0 -106.503
-2131.5 -6.70675 0 -66.3177
-2124.61 -6.57768 0 -65.8592
-3163.4 -6.9269 0 -18.8324
-3142.79 -6.7411 0 -17.5107
-1062.76 -5.45867 0 -105.826
-1069.69 -5.7694 0 -106.274
-3153.09 -6.83376 0 -18.1668
-2103.94 -6.19374 0 -64.5219
-1066.23 -5.61375 0 -106.049
-2117.72 -6.44915 0 -65.4071
-2110.83 -6.32118 0 -64.9613
-3142.79 -6.7411 0 -17.5107
-3122.17 -6.5572 0 -16.2271
-1055.83 -5.15021 0 -105.391
-1062.76 -5.45867 0 -105.826
-3132.48 -6.64892 0 -16.8642
-2090.16 -5.94046 0 -63.662
-1059.3 -5.30415 0 -105.607
-2103.94 -6.19374 0 -64.5219
-2097.05 -6.06683 0 -64.0887
-3122.17 -6.5572 0 -16.2271
-3101.56 -6.37513 0 -14.9812
-1048.9 -4.84399 0 -104.968
-1055.83 -5.15021 0 -105.391
-3111.87 -6.46594 0 -15.5994
-2076.38 -5.68926 0 -62.8272
-1052.37 -4.99682 0 -105.178
-2090.16 -5.94046 0 -63.662
-2083.27 -5.8146 0 -63.2414
-3101.56 -6.37513 0 -14.9812
-3080.95 -6.1948 0 -13.7728
-1041.98 -4.53999 0 -104.558
-1048.9 -4.84399 0 -104.968
-3091.26 -6.28475 0 -14.3723
-2062.6 -5.44009 0 -62.0174
-1045.44 -4.69171 0 -104.761
-2076.38 -5.68926 0 -62.8272
-2069.49 -5.56442 0 -62.4192
-3080.95 -6.1948 0 -13.7728
-3060.34 -6.01616 0 -12.6016
-1035.05 -4.23818 0 -104.159
-1041.98 -4.53999 0 -104.558
-3070.64 -6.10527 0 -13.1826
-2048.82 -5.1929 0 -61.2325
-1038.51 -4.38881 0 -104.357
-2062.6 -5.44009 0 -62.0174
-2055.71 -5.31625 0 -61.6219
-3060.34 -6.01616 0 -12.6016
-3039.73 -5.83911 0 -11.4675
-1028.12 -3.93854 0 -103.774
-1035.05 -4.23818 0 -104.159
-3050.03 -5.92744 0 -12.03
-2035.04 -4.94765 0 -60.4722
-1031.59 -4.08809 0 -103.965
-2048.82 -5.1929 0 -61.2325
-2041.93 -5.07004 0 -60.8493
-3039.73 -5.83911 0 -11.4675
-3019.12 -5.66359 0 -10.3702
-1021.2 -3.64105 0 -103.4
-1028.12 -3.93854 0 -103.774
-3029.42 -5.75116 0 -10.9143
-2021.26 -4.70428 0 -59.7364
-1024.66 -3.78953 0 -103.585
-2035.04 -4.94765 0 -60.4722
-2028.15 -4.82573 0 -60.1012
-3019.12 -5.66359 0 -10.3702
-2998.51 -5.48953 0 -9.30931
-1014.27 -3.34568 0 -103.038
-1021.2 -3.64105 0 -103.4
-3008.81 -5.57638 0 -9.83518
-2007.49 -4.46274 0 -59.0249
-1017.73 -3.4931 0 -103.218
-2021.26 -4.70428 0 -59.7364
-2014.38 -4.58328 0 -59.3776
-2998.51 -5.48953 0 -9.30931
-2977.9 -5.31687 0 -8.28472
-1007.35 -3.05241 0 -102.689
-1014.27 -3.34568 0 -103.038
-2988.2 -5.40303 0 -8.7925
-1993.71 -4.223 0 -58.3375
-1010.81 -3.19879 0 -102.862
-2007.49 -4.46274 0 -59.0249
-2000.6 -4.34265 0 -58.6782
-2977.9 -5.31687 0 -8.28472
-2957.29 -5.14552 0 -7.29615
-1000.42 -2.76121 0 -102.352
-1007.35 -3.05241 0 -102.689
-2967.6 -5.23103 0 -7.78595
-1979.94 -3.98501 0 -57.6742
-1003.88 -2.90655 0 -102.519
-1993.71 -4.223 0 -58.3375
-1986.82 -4.10379 0 -58.0029
-2957.29 -5.14552 0 -7.29615
-2936.68 -4.97544 0 -6.34335
-993.498 -2.47207 0 -102.026
-1000.42 -2.76121 0 -102.352
-2946.99 -5.06033 0 -6.81529
-1966.16 -3.74871 0 -57.0347
-996.96 -2.61639 0 -102.187
-1979.94 -3.98501 0 -57.6742
-1973.05 -3.86665 0 -57.3514
-2936.68 -4.97544 0 -6.34335
-2916.08 -4.80655 0 -5.42606
-986.576 -2.18496 0 -101.712
-993.498 -2.47207 0 -102.026
-2926.38 -4.89085 0 -5.88028
-1952.39 -3.51408 0 -56.4188
-990.037 -2.32827 0 -101.867
-1966.16 -3.74871 0 -57.0347
-1959.28 -3.63119 0 -56.7238
-2916.08 -4.80655 0 -5.42606
-2895.47 -4.63878 0 -4.54403
-979.654 -1.89986 0 -101.41
-986.576 -2.18496 0 -101.712
-2905.78 -4.72253 0 -4.98065
-1938.62 -3.28107 0 -55.8264
-983.114 -2.04216 0 -101.559
-1952.39 -3.51408 0 -56.4188
-1945.5 -3.39737 0 -56.1197
-2895.47 -4.63878 0 -4.54403
-2874.87 -4.47209 0 -3.69703
-972.732 -1.61676 0 -101.119
-979.654 -1.89986 0 -101.41
-2885.17 -4.5553 0 -4.11617
-1924.85 -3.04963 0 -55.2574
-976.193 -1.75806 0 -101.263
-1938.62 -3.28107 0 -55.8264
-1931.73 -3.16515 0 -55.539
-2874.87 -4.47209 0 -3.69703
-2854.27 -4.3064 0 -2.88479
-965.812 -1.33562 0 -100.84
-972.732 -1.61676 0 -101.119
-2864.57 -4.38912 0 -3.28658
-1911.08 -2.81972 0 -54.7115
-969.272 -1.47594 0 -100.978
-1924.85 -3.04963 0 -55.2574
-1917.96 -2.93448 0 -54.9816
-2854.27 -4.3064 0 -2.88479
-2833.66 -4.14166 0 -2.10707
-958.892 -1.05643 0 -100.573
-965.812 -1.33562 0 -100.84
-2843.97 -4.22392 0 -2.49163
-1897.31 -2.59131 0 -54.1887
-962.352 -1.19578 0 -100.705
-1911.08 -2.81972 0 -54.7115
-1904.19 -2.70533 0 -54.4472
-2833.66 -4.14166 0 -2.10707
-2813.06 -3.97782 0 -1.36362
-951.973 -0.779178 0 -100.317
-958.892 -1.05643 0 -100.573
-2823.36 -4.05963 0 -1.73108
-1883.54 -2.36436 0 -53.6886
-955.432 -0.917565 0 -100.443
-1897.31 -2.59131 0 -54.1887
-1890.42 -2.47766 0 -53.9358
-2813.06 -3.97782 0 -1.36362
-2792.46 -3.81481 0 -0.654188
-945.054 -0.503836 0 -100.072
-951.973 -0.779178 0 -100.317
-2802.76 -3.89621 0 -1.00467
-1869.77 -2.13884 0 -53.2113
-948.513 -0.641269 0 -100.193
-1883.54 -2.36436 0 -53.6886
-1876.65 -2.25143 0 -53.4471
-2792.46 -3.81481 0 -0.654188
-2771.87 -3.65258 0 0.021475
-938.137 -0.230387 0 -99.8383
-945.054 -0.503836 0 -100.072
-2782.17 -3.7336 0 -0.312151
-1856.01 -1.91469 0 -52.7564
-941.596 -0.366876 0 -99.9537
-1869.77 -2.13884 0 -53.2113
-1862.89 -2.02659 0 -52.981
-2771.87 -3.65258 0 0.021475
-2751.27 -3.49108 0 0.663619
-931.22 0.0411845 0 -99.6159
-938.137 -0.230387 0 -99.8383
-2761.57 -3.57174 0 0.346721
-1842.24 -1.6919 0 -52.3239
-934.679 -0.094368 0 -99.7257
-1856.01 -1.91469 0 -52.7564
-1849.12 -1.80313 0 -52.5374
-2751.27 -3.49108 0 0.663619
-2730.68 -3.33025 0 1.27249
-924.305 0.310897 0 -99.4045
-931.22 0.0411845 0 -99.6159
-2740.97 -3.41058 0 0.9722
-1828.48 -1.47042 0 -51.9135
-927.763 0.176272 0 -99.5088
-1842.24 -1.6919 0 -52.3239
-1835.36 -1.58099 0 -52.1159
-2730.68 -3.33025 0 1.27249
-2710.08 -3.17006 0 1.84835
-917.39 0.578768 0 -99.2041
-924.305 0.310897 0 -99.4045
-2720.38 -3.25008 0 1.56453
-1814.72 -1.25022 0 -51.5252
-920.847 0.445062 0 -99.3029
-1828.48 -1.47042 0 -51.9135
-1821.6 -1.36016 0 -51.7166
-2710.08 -3.17006 0 1.84835
-2689.49 -3.01043 0 2.39143
-910.476 0.844814 0 -99.0146
-917.39 0.578768 0 -99.2041
-2699.79 -3.09017 0 2.12397
-1800.96 -1.03126 0 -51.1587
-913.933 0.712018 0 -99.108
-1814.72 -1.25022 0 -51.5252
-1807.84 -1.14059 0 -51.3392
-2689.49 -3.01043 0 2.39143
-2668.9 -2.85134 0 2.902
-903.563 1.10905 0 -98.8359
-910.476 0.844814 0 -99.0146
-2679.2 -2.93082 0 2.65077
-1787.2 -0.813525 0 -50.8139
-907.02 0.977158 0 -98.9239
-1800.96 -1.03126 0 -51.1587
-1794.08 -0.922244 0 -50.9836
-2668.9 -2.85134 0 2.902
-2648.31 -2.69273 0 3.3803
-896.651 1.37149 0 -98.6679
-903.563 1.10905 0 -98.8359
-2658.61 -2.77197 0 3.14517
-1773.44 -0.596972 0 -50.4905
-900.107 1.2405 0 -98.7506
-1787.2 -0.813525 0 -50.8139
-1780.32 -0.705102 0 -50.6495
-2648.31 -2.69273 0 3.3803
-2627.73 -2.53455 0 3.82657
-889.74 1.63216 0 -98.5107
-896.651 1.37149 0 -98.6679
-2638.02 -2.61359 0 3.60742
-1759.68 -0.381573 0 -50.1886
-893.196 1.50205 0 -98.588
-1773.44 -0.596972 0 -50.4905
-1766.56 -0.48913 0 -50.3369
-2627.73 -2.53455 0 3.82657
-2607.14 -2.37677 0 4.24108
-882.83 1.89106 0 -98.3639
-889.74 1.63216 0 -98.5107
-2617.43 -2.45561 0 4.03778
-1745.93 -0.167298 0 -49.9078
-886.285 1.76183 0 -98.436
-1759.68 -0.381573 0 -50.1886
-1752.8 -0.274296 0 -50.0455
-2607.14 -2.37677 0 4.24108
-2586.56 -2.21933 0 4.62406
-875.921 2.14821 0 -98.2277
-882.83 1.89106 0 -98.3639
-2596.85 -2.29801 0 4.4365
-1732.17 0.0458811 0 -49.648
-879.375 2.01985 0 -98.2945
-1745.93 -0.167298 0 -49.9078
-1739.05 -0.060573 0 -49.7752
-2586.56 -2.21933 0 4.62406
-2565.98 -2.06221 0 4.97578
-869.013 2.40363 0 -98.1019
-875.921 2.14821 0 -98.2277
-2576.27 -2.14074 0 4.80382
-1718.42 0.257992 0 -49.409
-872.467 2.27614 0 -98.1635
-1732.17 0.0458811 0 -49.648
-1725.3 0.152068 0 -49.5259
-2565.98 -2.06221 0 4.97578
-2545.4 -1.90535 0 5.29648
-862.106 2.65732 0 -97.9864
-869.013 2.40363 0 -98.1019
-2555.69 -1.98375 0 5.13999
-1704.67 0.469061 0 -49.1908
-865.559 2.53069 0 -98.0428
-1718.42 0.257992 0 -49.409
-1711.55 0.363655 0 -49.2973
-2545.4 -1.90535 0 5.29648
-2524.82 -1.74873 0 5.5864
-855.2 2.90931 0 -97.8811
-862.106 2.65732 0 -97.9864
-2535.11 -1.82701 0 5.44527
-1690.92 0.679114 0 -48.993
-858.653 2.78353 0 -97.9325
-1704.67 0.469061 0 -49.1908
-1697.8 0.574213 0 -49.0893
-2524.82 -1.74873 0 5.5864
-2504.25 -1.59229 0 5.84581
-848.295 3.1596 0 -97.7861
-855.2 2.90931 0 -97.8811
-2514.54 -1.67049 0 5.71991
-1677.17 0.888178 0 -48.8156
-851.747 3.03467 0 -97.8323
-1690.92 0.679114 0 -48.993
-1684.05 0.783768 0 -48.9018
-2504.25 -1.59229 0 5.84581
-2483.67 -1.43601 0 6.07494
-841.391 3.40821 0 -97.7011
-848.295 3.1596 0 -97.7861
-2493.96 -1.51414 0 5.96414
-1663.43 1.09628 0 -48.6584
-844.843 3.28412 0 -97.7423
-1677.17 0.888178 0 -48.8156
-1670.3 0.992346 0 -48.7345
-2483.67 -1.43601 0 6.07494
-2463.1 -1.27985 0 6.27406
-834.488 3.65515 0 -97.6261
-841.391 3.40821 0 -97.7011
-2473.39 -1.35792 0 6.17824
-1649.68 1.30343 0 -48.5212
-837.939 3.53189 0 -97.6623
-1663.43 1.09628 0 -48.6584
-1656.56 1.19997 0 -48.5873
-2463.1 -1.27985 0 6.27406
-2442.54 -1.12378 0 6.44341
-827.586 3.90043 0 -97.561
-834.488 3.65515 0 -97.6261
-2452.82 -1.20181 0 6.36244
-1635.94 1.50967 0 -48.4039
-831.037 3.778 0 -97.5923
-1649.68 1.30343 0 -48.5212
-1642.81 1.40666 0 -48.4601
-2442.54 -1.12378 0 6.44341
-2421.97 -0.967762 0 6.58323
-820.686 4.14406 0 -97.5058
-827.586 3.90043 0 -97.561
-2432.25 -1.04577 0 6.51699
-1622.2 1.715 0 -48.3062
-824.136 4.02245 0 -97.5322
-1635.94 1.50967 0 -48.4039
-1629.07 1.61245 0 -48.3526
-2421.97 -0.967762 0 6.58323
-2401.4 -0.811765 0 6.69378
-813.786 4.38605 0 -97.4603
-820.686 4.14406 0 -97.5058
-2411.69 -0.889763 0 6.64215
-1608.46 1.91947 0 -48.2281
-817.236 4.26526 0 -97.4818
-1622.2 1.715 0 -48.3062
-1615.33 1.81734 0 -48.2647
-2401.4 -0.811765 0 6.69378
-2380.84 -0.655759 0 6.77532
-806.887 4.62641 0 -97.4245
-813.786 4.38605 0 -97.4603
-2391.12 -0.733765 0 6.73816
-1594.72 2.12307 0 -48.1693
-810.337 4.50644 0 -97.4412
-1608.46 1.91947 0 -48.2281
-1601.59 2.02138 0 -48.1963
-2380.84 -0.655759 0 6.77532
-2360.28 -0.499716 0 6.82808
-799.99 4.86516 0 -97.3984
-806.887 4.62641 0 -97.4245
-2370.56 -0.577744 0 6.80528
-1580.99 2.32584 0 -48.1297
-803.439 4.74599 0 -97.4103
-1594.72 2.12307 0 -48.1693
-1587.86 2.22456 0 -48.1471
-2360.28 -0.499716 0 6.82808
-2339.72 -0.343607 0 6.85232
-793.094 5.1023 0 -97.3817
-799.99 4.86516 0 -97.3984
-2350 -0.421672 0 6.84375
-1567.25 2.52779 0 -48.1091
-796.542 4.98393 0 -97.3888
-1580.99 2.32584 0 -48.1297
-1574.12 2.42692 0 -48.1171
-2339.72 -0.343607 0 6.85232
-2319.17 -0.187406 0 6.84829
-786.199 5.33784 0 -97.3744
-793.094 5.1023 0 -97.3817
-2329.45 -0.26552 0 6.85382
-1553.52 2.72895 0 -48.1074
-789.646 5.22027 0 -97.3769
-1567.25 2.52779 0 -48.1091
-1560.39 2.62847 0 -48.1059
-2319.17 -0.187406 0 6.84829
-2298.62 -0.0310864 0 6.81624
-779.305 5.57179 0 -97.3765
-786.199 5.33784 0 -97.3744
-2308.89 -0.109263 0 6.83575
-1539.79 2.92932 0 -48.1244
-782.752 5.45501 0 -97.3743
-1553.52 2.72895 0 -48.1074
-1546.66 2.82923 0 -48.1136
-2298.62 -0.0310864 0 6.81624
-2278.07 0.125376 0 6.75642
-772.412 5.80416 0 -97.3879
-779.305 5.57179 0 -97.3765
-2288.34 0.0471256 0 6.78978
-1526.06 3.12892 0 -48.1599
-775.858 5.68817 0 -97.3811
-1539.79 2.92932 0 -48.1244
-1532.93 3.02921 0 -48.1398
-2278.07 0.125376 0 6.75642
-2257.52 0.282005 0 6.66907
-765.52 6.03495 0 -97.4085
-772.412 5.80416 0 -97.3879
-2267.79 0.203668 0 6.71617
-1512.34 3.32777 0 -48.2138
-768.966 5.91975 0 -97.3971
-1526.06 3.12892 0 -48.1599
-1519.2 3.22844 0 -48.1845
-2257.52 0.282005 0 6.66907
-2236.97 0.438823 0 6.55445
-758.63 6.26418 0 -97.4382
-765.52 6.03495 0 -97.4085
-2247.24 0.360389 0 6.61516
-1498.61 3.52589 0 -48.2858
-762.075 6.14976 0 -97.4222
-1512.34 3.32777 0 -48.2138
-1505.47 3.42692 0 -48.2475
-2236.97 0.438823 0 6.55445
-2216.43 0.59585 0 6.41281
-751.741 6.49186 0 -97.4769
-758.63 6.26418 0 -97.4382
-2226.7 0.517309 0 6.48699
-1484.89 3.72329 0 -48.3759
-755.185 6.37821 0 -97.4564
-1498.61 3.52589 0 -48.2858
-1491.75 3.62468 0 -48.3286
-2216.43 0.59585 0 6.41281
-2195.89 0.753108 0 6.2444
-744.853 6.71797 0 -97.5245
-751.741 6.49186 0 -97.4769
-2206.16 0.674449 0 6.33194
-1471.17 3.91998 0 -48.4839
-748.296 6.60511 0 -97.4996
-1484.89 3.72329 0 -48.3759
-1478.03 3.82173 0 -48.4277
-2195.89 0.753108 0 6.2444
-2175.35 0.910616 0 6.04946
-737.966 6.94255 0 -97.581
-744.853 6.71797 0 -97.5245
-2185.62 0.83183 0 6.15023
-1457.45 4.11598 0 -48.6095
-741.409 6.83046 0 -97.5517
-1471.17 3.91998 0 -48.4839
-1464.31 4.01807 0 -48.5445
-2175.35 0.910616 0 6.04946
-2154.81 1.06839 0 5.82825
-731.08 7.16559 0 -97.6463
-737.966 6.94255 0 -97.581
-2165.08 0.989468 0 5.94212
-1443.73 4.3113 0 -48.7527
-734.523 7.05426 0 -97.6126
-1457.45 4.11598 0 -48.6095
-1450.59 4.21372 0 -48.6789
-2154.81 1.06839 0 5.82825
-2134.28 1.22645 0 5.58101
-724.195 7.38709 0 -97.7203
-731.08 7.16559 0 -97.6463
-2144.54 1.14738 0 5.70787
-1430.02 4.50594 0 -48.9132
-727.638 7.27653 0 -97.6822
-1443.73 4.3113 0 -48.7527
-1436.87 4.4087 0 -48.8308
-2134.28 1.22645 0 5.58101
-2113.75 1.38481 0 5.30799
-717.312 7.60707 0 -97.8029
-724.195 7.38709 0 -97.7203
-2124.01 1.30559 0 5.44771
-1416.3 4.69993 0 -49.091
-720.754 7.49727 0 -97.7606
-1430.02 4.50594 0 -48.9132
-1423.16 4.60302 0 -49
-2113.75 1.38481 0 5.30799
-2093.22 1.54348 0 5.00945
-710.43 7.82552 0 -97.8941
-717.312 7.60707 0 -97.8029
-2103.48 1.4641 0 5.1619
-1402.59 4.89326 0 -49.2858
-713.871 7.71649 0 -97.8475
-1416.3 4.69993 0 -49.091
-1409.45 4.79668 0 -49.1863
-2093.22 1.54348 0 5.00945
-2072.69 1.70248 0 4.68564
-703.549 8.04246 0 -97.9937
-710.43 7.82552 0 -97.8941
-2082.96 1.62294 0 4.85069
-1388.88 5.08596 0 -49.4974
-706.989 7.93418 0 -97.9428
-1402.59 4.89326 0 -49.2858
-1395.74 4.98969 0 -49.3895
-2072.69 1.70248 0 4.68564
-2052.17 1.86183 0 4.33679
-696.67 8.25789 0 -98.1017
-703.549 8.04246 0 -97.9937
-2062.43 1.78211 0 4.51433
-1375.17 5.27802 0 -49.7258
-700.109 8.15036 0 -98.0466
-1388.88 5.08596 0 -49.4974
-1382.03 5.18207 0 -49.6095
-2052.17 1.86183 0 4.33679
-2031.65 2.02153 0 3.96317
-689.791 8.47181 0 -98.2179
-696.67 8.25789 0 -98.1017
-2041.91 1.94163 0 4.15306
-1361.47 5.46946 0 -49.9707
-693.23 8.36503 0 -98.1588
-1375.17 5.27802 0 -49.7258
-1368.32 5.37382 0 -49.8462
-2031.65 2.02153 0 3.96317
-2011.13 2.18159 0 3.56501
-682.914 8.68422 0 -98.3424
-689.791 8.47181 0 -98.2179
-2021.39 2.10151 0 3.76714
-1347.76 5.66028 0 -50.2319
-686.352 8.5782 0 -98.2792
-1361.47 5.46946 0 -49.9707
-1354.61 5.56495 0 -50.0993
-2011.13 2.18159 0 3.56501
-1990.61 2.34202 0 3.14258
-676.038 8.89513 0 -98.475
-682.914 8.68422 0 -98.3424
-2000.87 2.26176 0 3.35682
-1334.06 5.85049 0 -50.5094
-679.476 8.78986 0 -98.4077
-1347.76 5.66028 0 -50.2319
-1340.91 5.75546 0 -50.3687
-1990.61 2.34202 0 3.14258
-1970.1 2.50284 0 2.69611
-669.163 9.10455 0 -98.6157
-676.038 8.89513 0 -98.475
-1980.36 2.42239 0 2.92233
-1320.36 6.0401 0 -50.8029
-672.601 9.00003 0 -98.5444
-1334.06 5.85049 0 -50.5094
-1327.21 5.94537 0 -50.6542
-1970.1 2.50284 0 2.69611
-1949.59 2.66405 0 2.22586
-662.29 9.31247 0 -98.7643
-669.163 9.10455 0 -98.6157
-1959.84 2.5834 0 2.46394
-1306.66 6.22911 0 -51.1124
-665.726 9.20869 0 -98.689
-1320.36 6.0401 0 -50.8029
-1313.51 6.13468 0 -50.9557
-1949.59 2.66405 0 2.22586
-1929.08 2.82566 0 1.73208
-655.418 9.51889 0 -98.9208
-662.29 9.31247 0 -98.7643
-1939.34 2.74481 0 1.9819
-1292.97 6.41753 0 -51.4375
-658.854 9.41587 0 -98.8416
-1306.66 6.22911 0 -51.1124
-1299.82 6.3234 0 -51.273
-1929.08 2.82566 0 1.73208
-1908.58 2.98767 0 1.21501
-648.547 9.72383 0 -99.0851
-655.418 9.51889 0 -98.9208
-1918.83 2.90662 0 1.47644
-1279.27 6.60536 0 -51.7781
-651.982 9.62155 0 -99.002
-1292.97 6.41753 0 -51.4375
-1286.12 6.51152 0 -51.6059
-1908.58 2.98767 0 1.21501
-1888.07 3.15009 0 0.674901
-641.677 9.92728 0 -99.2572
-648.547 9.72383 0 -99.0851
-1898.32 3.06883 0 0.947819
-1265.58 6.7926 0 -52.1342
-645.112 9.82574 0 -99.1702
-1279.27 6.60536 0 -51.7781
-1272.43 6.69905 0 -51.9542
-1888.07 3.15009 0 0.674901
-1867.57 3.31292 0 0.112007
-634.808 10.1292 0 -99.4369
-641.677 9.92728 0 -99.2572
-1877.82 3.23146 0 0.396287
-1251.89 6.97926 0 -52.5054
-638.242 10.0284 0 -99.3461
-1265.58 6.7926 0 -52.1342
-1258.74 6.886 0 -52.3179
-1867.57 3.31292 0 0.112007
-1847.07 3.47617 0 -0.473427
-627.941 10.3297 0 -99.6241
-634.808 10.1292 0 -99.4369
-1857.32 3.3945 0 -0.177908
-1238.2 7.16533 0 -52.8917
-631.375 10.2297 0 -99.5295
-1251.89 6.97926 0 -52.5054
-1245.05 7.07237 0 -52.6967
-1847.07 3.47617 0 -0.473427
-1826.58 3.63984 0 -1.08115
-621.075 10.5287 0 -99.8188
-627.941 10.3297 0 -99.6241
-1836.83 3.55795 0 -0.774519
-1224.52 7.35083 0 -53.293
-624.508 10.4294 0 -99.7205
-1238.2 7.16533 0 -52.8917
-1231.36 7.25815 0 -53.0905
-1826.58 3.63984 0 -1.08115
-1806.09 3.80392 0 -1.71092
-614.21 10.7262 0 -100.021
-621.075 10.5287 0 -99.8188
-1816.33 3.72183 0 -1.3933
-1210.83 7.53575 0 -53.7089
-617.642 10.6277 0 -99.9189
-1224.52 7.35083 0 -53.293
-1217.68 7.44336 0 -53.4991
-1806.09 3.80392 0 -1.71092
-1785.6 3.96843 0 -2.36248
-607.347 10.9223 0 -100.23
-614.21 10.7262 0 -100.021
-1795.84 3.88612 0 -2.03399
-1197.15 7.72009 0 -54.1394
-610.778 10.8244 0 -100.125
-1210.83 7.53575 0 -53.7089
-1203.99 7.62799 0 -53.9223
-1785.6 3.96843 0 -2.36248
-1765.11 4.13335 0 -3.03559
-600.484 11.1168 0 -100.447
-607.347 10.9223 0 -100.23
-1775.35 4.05084 0 -2.69636
-1183.47 7.90385 0 -54.5842
-603.915 11.0197 0 -100.338
-1197.15 7.72009 0 -54.1394
-1190.31 7.81204 0 -54.36
-1765.11 4.13335 0 -3.03559
-1744.62 4.29869 0 -3.73
-593.623 11.3099 0 -100.671
-600.484 11.1168 0 -100.447
-1754.87 4.21597 0 -3.38015
-1169.79 8.08704 0 -55.0433
-597.054 11.2135 0 -100.558
-1183.47 7.90385 0 -54.5842
-1176.63 7.99552 0 -54.812
-1744.62 4.29869 0 -3.73
-1724.14 4.46445 0 -4.44546
-586.763 11.5014 0 -100.902
-593.623 11.3099 0 -100.671
-1734.38 4.38152 0 -4.08511
-1156.12 8.26964 0 -55.5165
-590.193 11.4058 0 -100.785
-1169.79 8.08704 0 -55.0433
-1162.95 8.17841 0 -55.2782
-1724.14 4.46445 0 -4.44546
-1703.66 4.63062 0 -5.18171
-579.905 11.6915 0 -101.14
-586.763 11.5014 0 -100.902
-1713.9 4.54749 0 -4.811
-1142.44 8.45166 0 -56.0036
-583.334 11.5967 0 -101.02
-1156.12 8.26964 0 -55.5165
-1149.28 8.36072 0 -55.7583
-1703.66 4.63062 0 -5.18171
-1683.19 4.7972 0 -5.93853
-573.048 11.8801 0 -101.384
-579.905 11.6915 0 -101.14
-1693.42 4.71386 0 -5.55757
-1128.77 8.6331 0 -56.5044
-576.476 11.786 0 -101.261
-1142.44 8.45166 0 -56.0036
-1135.61 8.54245 0 -56.2523
-1683.19 4.7972 0 -5.93853
-1662.71 4.96419 0 -6.71564
-566.191 12.0673 0 -101.636
-573.048 11.8801 0 -101.384
-1672.95 4.88064 0 -6.32456
-1115.1 8.81395 0 -57.0187
-569.619 11.9739 0 -101.509
-1128.77 8.6331 0 -56.5044
-1121.94 8.7236 0 -56.7599
-1662.71 4.96419 0 -6.71564
-1642.24 5.13157 0 -7.51282
-559.336 12.2529 0 -101.894
-566.191 12.0673 0 -101.636
-1652.47 5.04783 0 -7.11174
-1101.43 8.9942 0 -57.5465
-562.764 12.1603 0 -101.764
-1115.1 8.81395 0 -57.0187
-1108.27 8.90415 0 -57.2809
-1642.24 5.13157 0 -7.51282
-1621.77 5.29934 0 -8.32981
-552.483 12.4371 0 -102.159
-559.336 12.2529 0 -101.894
-1632 5.21541 0 -7.91885
-1087.77 9.17387 0 -58.0875
-555.909 12.3452 0 -102.026
-1101.43 8.9942 0 -57.5465
-1094.6 9.08411 0 -57.8153
-1621.77 5.29934 0 -8.32981
-1601.3 5.4675 0 -9.16635
-545.63 12.6197 0 -102.431
-552.483 12.4371 0 -102.159
-1611.54 5.38338 0 -8.74565
-1074.1 9.35293 0 -58.6416
-549.056 12.5286 0 -102.294
-1087.77 9.17387 0 -58.0875
-1080.93 9.26347 0 -58.3629
-1601.3 5.4675 0 -9.16635
-1580.84 5.63604 0 -10.0222
-538.779 12.8009 0 -102.709
-545.63 12.6197 0 -102.431
-1591.07 5.55173 0 -9.59189
-1060.44 9.53139 0 -59.2086
-542.205 12.7105 0 -102.569
-1074.1 9.35293 0 -58.6416
-1067.27 9.44224 0 -58.9235
-1580.84 5.63604 0 -10.0222
-1560.38 5.80495 0 -10.8971
-531.929 12.9805 0 -102.994
-538.779 12.8009 0 -102.709
-1570.61 5.72045 0 -10.4573
-1046.78 9.70924 0 -59.7883
-535.354 12.8909 0 -102.85
-1060.44 9.53139 0 -59.2086
-1053.61 9.62039 0 -59.4969
-1560.38 5.80495 0 -10.8971
-1539.92 5.97421 0 -11.7909
-525.08 13.1587 0 -103.284
-531.929 12.9805 0 -102.994
-1550.15 5.88954 0 -11.3417
-1033.12 9.88647 0 -60.3806
-528.504 13.0698 0 -103.138
-1046.78 9.70924 0 -59.7883
-1039.95 9.79793 0 -60.0829
-1539.92 5.97421 0 -11.7909
-1519.46 6.14383 0 -12.7032
-518.233 13.3353 0 -103.581
-525.08 13.1587 0 -103.284
-1529.69 6.05898 0 -12.2448
-1019.46 10.0631 0 -60.9854
-521.656 13.2472 0 -103.432
-1033.12 9.88647 0 -60.3806
-1026.29 9.97485 0 -60.6815
-1519.46 6.14383 0 -12.7032
-1499 6.31378 0 -13.6339
-511.386 13.5105 0 -103.885
-518.233 13.3353 0 -103.581
-1509.23 6.22876 0 -13.1663
-1005.81 10.2391 0 -61.6024
-514.809 13.4231 0 -103.732
-1019.46 10.0631 0 -60.9854
-1012.63 10.1511 0 -61.2923
-1499 6.31378 0 -13.6339
-1478.55 6.48406 0 -14.5826
-504.541 13.6841 0 -104.194
-511.386 13.5105 0 -103.885
-1488.78 6.39888 0 -14.106
-992.154 10.4144 0 -62.2314
-507.963 13.5975 0 -104.039
-1005.81 10.2391 0 -61.6024
-998.98 10.3268 0 -61.9154
-1478.55 6.48406 0 -14.5826
-1458.1 6.65465 0 -15.5492
-497.697 13.8563 0 -104.51
-504.541 13.6841 0 -104.194
-1468.33 6.56932 0 -15.0637
-978.503 10.5891 0 -62.8724
-501.119 13.7704 0 -104.351
-992.154 10.4144 0 -62.2314
-985.328 10.5018 0 -62.5505
-1458.1 6.65465 0 -15.5492
-1437.66 6.82555 0 -16.5333
-490.854 14.0269 0 -104.831
-497.697 13.8563 0 -104.51
-1447.88 6.74006 0 -16.039
-964.854 10.7631 0 -63.5252
-494.275 13.9418 0 -104.669
-978.503 10.5891 0 -62.8724
-971.678 10.6762 0 -63.1974
-1437.66 6.82555 0 -16.5333
-1417.21 6.99673 0 -17.5348
-484.012 14.196 0 -105.158
-490.854 14.0269 0 -104.831
-1427.43 6.9111 0 -17.0319
-951.206 10.9365 0 -64.1896
-487.433 14.1116 0 -104.994
-964.854 10.7631 0 -63.5252
-958.03 10.8499 0 -63.8559
-1417.21 6.99673 0 -17.5348
-1396.77 7.16818 0 -18.5533
-477.172 14.3635 0 -105.491
-484.012 14.196 0 -105.158
-1406.99 7.08242 0 -18.0419
-937.561 11.1092 0 -64.8653
-480.592 14.2799 0 -105.324
-951.206 10.9365 0 -64.1896
-944.383 11.0229 0 -64.526
-1396.77 7.16818 0 -18.5533
-1376.33 7.33989 0 -19.5888
-470.333 14.5295 0 -105.83
-477.172 14.3635 0 -105.491
-1386.55 7.254 0 -19.069
-923.917 11.2812 0 -65.5524
-473.752 14.4467 0 -105.66
-937.561 11.1092 0 -64.8653
-930.738 11.1953 0 -65.2075
-1376.33 7.33989 0 -19.5888
-1355.89 7.51184 0 -20.6408
-463.495 14.694 0 -106.174
-470.333 14.5295 0 -105.83
-1366.11 7.42584 0 -20.1127
-910.275 11.4525 0 -66.2506
-466.913 14.612 0 -106.001
-923.917 11.2812 0 -65.5524
-917.096 11.367 0 -65.9001
-1355.89 7.51184 0 -20.6408
-1335.46 7.68402 0 -21.7091
-456.657 14.857 0 -106.524
-463.495 14.694 0 -106.174
-1345.67 7.5979 0 -21.1729
-896.635 11.6231 0 -66.9596
-460.076 14.7757 0 -106.348
-910.275 11.4525 0 -66.2506
-903.454 11.5379 0 -66.6037
-1335.46 7.68402 0 -21.7091
-1315.02 7.8564 0 -22.7936
-449.822 15.0184 0 -106.879
-456.657 14.857 0 -106.524
-1325.24 7.77018 0 -22.2494
-882.996 11.793 0 -67.6795
-453.239 14.9379 0 -106.701
-896.635 11.6231 0 -66.9596
-889.815 11.7082 0 -67.3182
-1315.02 7.8564 0 -22.7936
-1294.59 8.02897 0 -23.8939
-442.987 15.1782 0 -107.239
-449.822 15.0184 0 -106.879
-1304.81 7.94266 0 -23.3418
-869.359 11.9622 0 -68.41
-446.404 15.0985 0 -107.059
-882.996 11.793 0 -67.6795
-876.178 11.8777 0 -68.0434
-1294.59 8.02897 0 -23.8939
-1274.16 8.20171 0 -25.0098
-436.153 15.3365 0 -107.605
-442.987 15.1782 0 -107.239
-1284.38 8.11532 0 -24.4499
-855.725 12.1306 0 -69.1509
-439.57 15.2576 0 -107.422
-869.359 11.9622 0 -68.41
-862.542 12.0465 0 -68.7792
-1274.16 8.20171 0 -25.0098
-1253.74 8.37461 0 -26.1411
-429.321 15.4932 0 -107.976
-436.153 15.3365 0 -107.605
-1263.95 8.28814 0 -25.5736
-842.091 12.2983 0 -69.9021
-432.737 15.4151 0 -107.79
-855.725 12.1306 0 -69.1509
-848.908 12.2146 0 -69.5253
-1253.74 8.37461 0 -26.1411
-1233.31 8.54764 0 -27.2875
-422.49 15.6484 0 -108.353
-429.321 15.4932 0 -107.976
-1243.52 8.46111 0 -26.7124
-828.46 12.4652 0 -70.6635
-425.905 15.571 0 -108.164
-842.091 12.2983 0 -69.9021
-835.275 12.3819 0 -70.2816
-1233.31 8.54764 0 -27.2875
-1212.89 8.72077 0 -28.4488
-415.659 15.802 0 -108.734
-422.49 15.6484 0 -108.353
-1223.1 8.63419 0 -27.8663
-814.83 12.6314 0 -71.4348
-419.074 15.7254 0 -108.543
-828.46 12.4652 0 -70.6635
-821.645 12.5484 0 -71.0479
-1212.89 8.72077 0 -28.4488
-1192.47 8.894 0 -29.6247
-408.83 15.954 0 -109.12
-415.659 15.802 0 -108.734
-1202.68 8.80738 0 -29.0349
-801.202 12.7967 0 -72.2158
-412.245 15.8782 0 -108.926
-814.83 12.6314 0 -71.4348
-808.016 12.7141 0 -71.8241
-1192.47 8.894 0 -29.6247
-1172.05 9.0673 0 -30.815
-402.002 16.1043 0 -109.511
-408.83 15.954 0 -109.12
-1182.26 8.98064 0 -30.2181
-787.576 12.9612 0 -73.0066
-405.416 16.0293 0 -109.315
-801.202 12.7967 0 -72.2158
-794.389 12.8791 0 -72.61
-1172.05 9.0673 0 -30.815
-1151.64 9.24064 0 -32.0194
-395.175 16.2531 0 -109.907
-402.002 16.1043 0 -109.511
-1161.84 9.15397 0 -31.4154
-773.951 13.1249 0 -73.8067
-398.588 16.1789 0 -109.708
-787.576 12.9612 0 -73.0066
-780.763 13.0432 0 -73.4055
-1151.64 9.24064 0 -32.0194
-1131.22 9.41401 0 -33.2377
-388.349 16.4003 0 -110.307
-395.175 16.2531 0 -109.907
-1141.43 9.32732 0 -32.6268
-760.328 13.2878 0 -74.6162
-391.762 16.3269 0 -110.107
-773.951 13.1249 0 -73.8067
-767.139 13.2065 0 -74.2103
-1131.22 9.41401 0 -33.2377
-1110.81 9.58738 0 -34.4696
-381.524 16.5459 0 -110.713
-388.349 16.4003 0 -110.307
-1121.02 9.50069 0 -33.852
-746.706 13.4498 0 -75.4348
-384.937 16.4733 0 -110.509
-760.328 13.2878 0 -74.6162
-753.517 13.3689 0 -75.0244
-1110.81 9.58738 0 -34.4696
-1090.4 9.76072 0 -35.7149
-374.701 16.6898 0 -111.122
-381.524 16.5459 0 -110.713
-1100.61 9.67405 0 -35.0906
-733.086 13.6109 0 -76.2624
-378.112 16.6181 0 -110.917
-746.706 13.4498 0 -75.4348
-739.896 13.5305 0 -75.8475
-1090.4 9.76072 0 -35.7149
-1069.99 9.93402 0 -36.9734
-367.878 16.8322 0 -111.537
-374.701 16.6898 0 -111.122
-1080.2 9.84738 0 -36.3426
-719.468 13.7712 0 -77.0988
-371.289 16.7612 0 -111.329
-733.086 13.6109 0 -76.2624
-726.277 13.6912 0 -76.6795
-1069.99 9.93402 0 -36.9734
-1049.59 10.1072 0 -38.2448
-361.056 16.9728 0 -111.955
-367.878 16.8322 0 -111.537
-1059.79 10.0206 0 -37.6075
-705.851 13.9305 0 -77.9438
-364.467 16.9027 0 -111.745
-719.468 13.7712 0 -77.0988
-712.659 13.851 0 -77.5202
-1049.59 10.1072 0 -38.2448
-1029.18 10.2804 0 -39.5288
-354.235 17.1119 0 -112.378
-361.056 16.9728 0 -111.955
-1039.39 10.1938 0 -38.8852
-692.236 14.089 0 -78.7974
-357.646 17.0426 0 -112.166
-705.851 13.9305 0 -77.9438
-699.043 14.0099 0 -78.3695
-1029.18 10.2804 0 -39.5288
-1008.78 10.4534 0 -40.8253
-347.416 17.2493 0 -112.805
-354.235 17.1119 0 -112.378
-1018.98 10.3669 0 -40.1755
-678.622 14.2465 0 -79.6592
-350.825 17.1808 0 -112.591
-692.236 14.089 0 -78.7974
-685.429 14.1679 0 -79.2272
-1008.78 10.4534 0 -40.8253
-988.383 10.6262 0 -42.1339
-340.597 17.385 0 -113.237
-347.416 17.2493 0 -112.805
-998.583 10.5398 0 -41.4781
-665.01 14.403 0 -80.5292
-344.006 17.3173 0 -113.02
-678.622 14.2465 0 -79.6592
-671.816 14.3249 0 -80.0932
-988.383 10.6262 0 -42.1339
-967.985 10.7989 0 -43.4544
-333.779 17.519 0 -113.672
-340.597 17.385 0 -113.237
-978.184 10.7126 0 -42.7927
-651.399 14.5586 0 -81.4072
-337.188 17.4522 0 -113.454
-665.01 14.403 0 -80.5292
-658.204 14.4809 0 -80.9672
-967.985 10.7989 0 -43.4544
-947.588 10.9714 0 -44.7866
-326.963 17.6514 0 -114.111
-333.779 17.519 0 -113.672
-957.786 10.8852 0 -44.1191
-637.79 14.7132 0 -82.293
-330.371 17.5854 0 -113.891
-651.399 14.5586 0 -81.4072
-644.594 14.636 0 -81.8491
-947.588 10.9714 0 -44.7866
-927.194 11.1436 0 -46.1303
-320.147 17.7821 0 -114.554
-326.963 17.6514 0 -114.111
-937.391 11.0575 0 -45.457
-624.182 14.8668 0 -83.1865
-323.555 17.7169 0 -114.332
-637.79 14.7132 0 -82.293
-630.986 14.7901 0 -82.7388
-927.194 11.1436 0 -46.1303
-906.801 11.3156 0 -47.4851
-313.332 17.911 0 -115.002
-320.147 17.7821 0 -114.554
-916.997 11.2296 0 -46.8063
-610.575 15.0193 0 -84.0875
-316.739 17.8468 0 -114.778
-624.182 14.8668 0 -83.1865
-617.379 14.9432 0 -83.6361
-906.801 11.3156 0 -47.4851
-886.41 11.4873 0 -48.8508
-306.518 18.0383 0 -115.452
-313.332 17.911 0 -115.002
-896.605 11.4015 0 -48.1666
-596.97 15.1708 0 -84.9958
-309.925 17.9749 0 -115.226
-610.575 15.0193 0 -84.0875
-603.773 15.0952 0 -84.5408
-886.41 11.4873 0 -48.8508
-866.02 11.6586 0 -50.2273
-299.705 18.1638 0 -115.907
-306.518 18.0383 0 -115.452
-876.215 11.573 0 -49.5377
-583.367 15.3213 0 -85.9113
-303.112 18.1013 0 -115.679
-596.97 15.1708 0 -84.9958
-590.168 15.2462 0 -85.4527
-866.02 11.6586 0 -50.2273
-845.632 11.8296 0 -51.6142
-292.893 18.2877 0 -116.365
-299.705 18.1638 0 -115.907
-855.826 11.7442 0 -50.9194
-569.764 15.4706 0 -86.8339
-296.299 18.226 0 -116.135
-583.367 15.3213 0 -85.9113
-576.565 15.3961 0 -86.3717
-845.632 11.8296 0 -51.6142
-825.246 12.0003 0 -53.0113
-286.082 18.4097 0 -116.826
-292.893 18.2877 0 -116.365
-835.439 11.915 0 -52.3115
-556.163 15.6189 0 -87.7632
-289.488 18.3489 0 -116.595
-569.764 15.4706 0 -86.8339
-562.963 15.5449 0 -87.2977
-825.246 12.0003 0 -53.0113
-804.861 12.1705 0 -54.4183
-279.272 18.5301 0 -117.291
-286.082 18.4097 0 -116.826
-815.053 12.0855 0 -53.7136
-542.563 15.766 0 -88.6993
-282.677 18.4701 0 -117.058
-556.163 15.6189 0 -87.7632
-549.363 15.6926 0 -88.2304
-804.861 12.1705 0 -54.4183
-784.478 12.3403 0 -55.8351
-272.463 18.6486 0 -117.76
-279.272 18.5301 0 -117.291
-794.669 12.2555 0 -55.1255
-528.965 15.912 0 -89.6419
-275.868 18.5896 0 -117.525
-542.563 15.766 0 -88.6993
-535.764 15.8391 0 -89.1698
-784.478 12.3403 0 -55.8351
-764.096 12.5096 0 -57.2613
-265.655 18.7654 0 -118.231
-272.463 18.6486 0 -117.76
-774.287 12.425 0 -56.547
-515.367 16.0568 0 -90.5908
-269.059 18.7073 0 -117.995
-528.965 15.912 0 -89.6419
-522.166 15.9845 0 -90.1155
-764.096 12.5096 0 -57.2613
-743.716 12.6784 0 -58.6968
-258.847 18.8805 0 -118.706
-265.655 18.7654 0 -118.231
-753.906 12.5941 0 -57.9779
-501.771 16.2004 0 -91.5459
-262.251 18.8232 0 -118.468
-515.367 16.0568 0 -90.5908
-508.569 16.1288 0 -91.0676
-743.716 12.6784 0 -58.6968
-723.337 12.8467 0 -60.1412
-252.04 18.9937 0 -119.184
-258.847 18.8805 0 -118.706
-733.526 12.7626 0 -59.4179
-488.176 16.3428 0 -92.5071
-255.444 18.9373 0 -118.944
-501.771 16.2004 0 -91.5459
-494.973 16.2718 0 -92.0258
-723.337 12.8467 0 -60.1412
-702.959 13.0144 0 -61.5943
-245.235 19.1051 0 -119.664
-252.04 18.9937 0 -119.184
-713.148 12.9306 0 -60.8667
-474.582 16.484 0 -93.4741
-248.637 19.0496 0 -119.424
-488.176 16.3428 0 -92.5071
-481.379 16.4136 0 -92.9899
-702.959 13.0144 0 -61.5943
-682.583 13.1815 0 -63.056
-238.43 19.2147 0 -120.148
-245.235 19.1051 0 -119.664
-692.771 13.098 0 -62.3241
-460.99 16.6239 0 -94.4469
-241.832 19.1601 0 -119.906
-474.582 16.484 0 -93.4741
-467.786 16.5541 0 -93.9598
-682.583 13.1815 0 -63.056
-662.208 13.3479 0 -64.5259
-231.625 19.3225 0 -120.635
-238.43 19.2147 0 -120.148
-672.395 13.2648 0 -63.7899
-447.398 16.7625 0 -95.4252
-235.027 19.2688 0 -120.391
-460.99 16.6239 0 -94.4469
-454.194 16.6934 0 -94.9353
-662.208 13.3479 0 -64.5259
-641.834 13.5137 0 -66.0037
-224.822 19.4284 0 -121.124
-231.625 19.3225 0 -120.635
-652.021 13.4309 0 -65.2638
-433.808 16.8998 0 -96.4088
-228.224 19.3756 0 -120.879
-447.398 16.7625 0 -95.4252
-440.603 16.8313 0 -95.9163
-641.834 13.5137 0 -66.0037
-621.462 13.6787 0 -67.4893
-218.019 19.5324 0 -121.616
-224.822 19.4284 0 -121.124
-631.648 13.5963 0 -66.7456
-420.218 17.0358 0 -97.3977
-221.421 19.4806 0 -121.37
-433.808 16.8998 0 -96.4088
-427.013 16.968 0 -96.9026
-621.462 13.6787 0 -67.4893
-601.09 13.843 0 -68.9824
-211.217 19.6345 0 -122.111
-218.019 19.5324 0 -121.616
-611.276 13.761 0 -68.2349
-406.63 17.1704 0 -98.3916
-214.618 19.5837 0 -121.863
-420.218 17.0358 0 -97.3977
-413.424 17.1033 0 -97.894
-601.09 13.843 0 -68.9824
-580.72 14.0065 0 -70.4827
-204.416 19.7348 0 -122.608
-211.217 19.6345 0 -122.111
-590.905 13.9249 0 -69.7316
-393.042 17.3035 0 -99.3904
-207.817 19.6849 0 -122.359
-406.63 17.1704 0 -98.3916
-399.836 17.2371 0 -98.8904
-580.72 14.0065 0 -70.4827
-560.351 14.1691 0 -71.9899
-197.616 19.833 0 -123.107
-204.416 19.7348 0 -122.608
-570.535 14.0879 0 -71.2354
-379.456 17.4353 0 -100.394
-201.016 19.7841 0 -122.857
-393.042 17.3035 0 -99.3904
-386.249 17.3696 0 -99.8915
-560.351 14.1691 0 -71.9899
-539.983 14.3308 0 -73.5039
-190.816 19.9294 0 -123.609
-197.616 19.833 0 -123.107
-550.167 14.2501 0 -72.7461
-365.87 17.5655 0 -101.402
-194.216 19.8814 0 -123.358
-379.456 17.4353 0 -100.394
-372.663 17.5006 0 -100.897
-539.983 14.3308 0 -73.5039
-519.615 14.4916 0 -75.0243
-184.016 20.0237 0 -124.113
-190.816 19.9294 0 -123.609
-529.799 14.4114 0 -74.2633
-352.285 17.6943 0 -102.414
-187.416 19.9768 0 -123.861
-365.87 17.5655 0 -101.402
-359.077 17.6301 0 -101.907
-519.615 14.4916 0 -75.0243
-499.249 14.6515 0 -76.551
-177.218 20.1161 0 -124.62
-184.016 20.0237 0 -124.113
-509.432 14.5717 0 -75.7869
-338.701 17.8216 0 -103.431
-180.617 20.0702 0 -124.366
-352.285 17.6943 0 -102.414
-345.493 17.7581 0 -102.922
-499.249 14.6515 0 -76.551
-478.883 14.8105 0 -78.0836
-170.419 20.2066 0 -125.128
-177.218 20.1161 0 -124.62
-489.066 14.7311 0 -77.3165
-325.118 17.9474 0 -104.451
-173.819 20.1616 0 -124.874
-338.701 17.8216 0 -103.431
-331.909 17.8847 0 -103.94
-478.883 14.8105 0 -78.0836
-458.519 14.9685 0 -79.6219
-163.622 20.2953 0 -125.639
-170.419 20.2066 0 -125.128
-468.701 14.8896 0 -78.852
-311.535 18.0718 0 -105.476
-167.021 20.2512 0 -125.383
-325.118 17.9474 0 -104.451
-318.326 18.0098 0 -104.963
-458.519 14.9685 0 -79.6219
-438.155 15.1259 0 -81.1657
-156.824 20.3824 0 -126.151
-163.622 20.2953 0 -125.639
-448.337 15.0473 0 -80.3931
-297.953 18.1951 0 -106.504
-160.223 20.3391 0 -125.894
-311.535 18.0718 0 -105.476
-304.744 18.1336 0 -105.989
-438.155 15.1259 0 -81.1657
-417.792 15.2826 0 -82.7149
-150.028 20.4682 0 -126.665
-156.824 20.3824 0 -126.151
-427.973 15.2043 0 -81.9396
-284.372 18.3174 0 -107.535
-153.426 20.4254 0 -126.407
-297.953 18.1951 0 -106.504
-291.162 18.2563 0 -107.019
-417.792 15.2826 0 -82.7149
-397.429 15.4391 0 -84.2694
-143.232 20.553 0 -127.18
-150.028 20.4682 0 -126.665
-407.61 15.3609 0 -83.4915
-270.791 18.439 0 -108.57
-146.629 20.5107 0 -126.922
-284.372 18.3174 0 -107.535
-277.581 18.3782 0 -108.052
-397.429 15.4391 0 -84.2694
-377.068 15.5956 0 -85.8293
-136.436 20.6377 0 -127.698
-143.232 20.553 0 -127.18
-387.249 15.5173 0 -85.0487
-257.212 18.5606 0 -109.609
-139.834 20.5953 0 -127.439
-270.791 18.439 0 -108.57
-264.002 18.4998 0 -109.089
-377.068 15.5956 0 -85.8293
-356.708 15.7523 0 -87.3947
-129.643 20.7228 0 -128.217
-136.436 20.6377 0 -127.698
-366.888 15.6739 0 -86.6113
-243.635 18.6824 0 -110.652
-133.039 20.6801 0 -127.957
-257.212 18.5606 0 -109.609
-250.423 18.6214 0 -110.13
-356.708 15.7523 0 -87.3947
-336.35 15.9088 0 -88.9662
-122.852 20.8093 0 -128.739
-129.643 20.7228 0 -128.217
-346.529 15.8307 0 -88.1797
-230.059 18.8045 0 -111.699
-126.247 20.7658 0 -128.478
-243.635 18.6824 0 -110.652
-236.847 18.7434 0 -111.175
-336.35 15.9088 0 -88.9662
-315.992 16.0637 0 -90.5447
-116.064 20.8977 0 -129.268
-122.852 20.8093 0 -128.739
-326.171 15.9867 0 -89.7545
-216.485 18.9259 0 -112.753
-119.457 20.8533 0 -129.003
-230.059 18.8045 0 -111.699
-223.272 18.8654 0 -112.225
-315.992 16.0637 0 -90.5447
-295.631 16.212 0 -92.1314
-109.278 20.9884 0 -129.807
-116.064 20.8977 0 -129.268
-305.812 16.1393 0 -91.337
-202.91 19.0434 0 -113.818
-112.671 20.9428 0 -129.535
-216.485 18.9259 0 -112.753
-209.698 18.9856 0 -113.284
-295.631 16.212 0 -92.1314
-275.259 16.3443 0 -93.7292
-102.496 21.0783 0 -130.369
-109.278 20.9884 0 -129.807
-285.448 16.2811 0 -92.9286
-189.329 19.1487 0 -114.902
-105.886 21.0338 0 -130.084
-202.91 19.0434 0 -113.818
-196.121 19.0983 0 -114.357
-275.259 16.3443 0 -93.7292
-254.863 16.4376 0 -95.3407
-95.7085 21.1644 0 -130.978
-102.496 21.0783 0 -130.369
-265.065 16.3981 0 -94.5332
-175.727 19.2262 0 -116.02
-99.1048 21.1223 0 -130.666
-189.329 19.1487 0 -114.902
-182.532 19.1929 0 -115.456
-254.863 16.4376 0 -95.3407
-234.395 16.4589 0 -96.9754
-88.9142 21.2301 0 -131.673
-95.7085 21.1644 0 -130.978
-244.643 16.4605 0 -96.154
-162.074 19.244 0 -117.2
-92.3106 21.2012 0 -131.311
-175.727 19.2262 0 -116.02
-168.91 19.2447 0 -116.599
-234.395 16.4589 0 -96.9754
-213.804 16.3331 0 -98.6399
-82.0649 21.2667 0 -132.531
-88.9142 21.2301 0 -131.673
-224.116 16.4206 0 -97.8043
-148.309 19.1563 0 -118.493
-85.5035 21.2534 0 -132.074
-162.074 19.244 0 -117.2
-155.211 19.2193 0 -117.83
-213.804 16.3331 0 -98.6399
-192.912 15.9861 0 -100.369
-75.1569 21.2227 0 -133.668
-82.0649 21.2667 0 -132.531
-203.415 16.1944 0 -99.4918
-134.322 18.883 0 -119.983
-78.6121 21.2576 0 -133.056
-148.309 19.1563 0 -118.493
-141.353 19.0449 0 -119.203
-192.912 15.9861 0 -100.369
-171.576 15.2447 0 -102.184
-68.0218 21.1148 0 -135.273
-75.1569 21.2227 0 -133.668
-182.298 15.6741 0 -101.268
-119.929 18.361 0 -121.802
-71.643 21.1775 0 -134.395
-134.322 18.883 0 -119.983
-127.188 18.6652 0 -120.849
-171.576 15.2447 0 -102.184
-149.269 14.1056 0 -104.224
-60.7015 20.8477 0 -137.554
-68.0218 21.1148 0 -135.273
-160.608 14.7275 0 -103.157
-104.847 17.5199 0 -124.141
-64.3584 20.9979 0 -136.318
-119.929 18.361 0 -121.802
-112.5 17.9609 0 -122.875
-149.269 14.1056 0 -104.224
-125.814 12.4305 0 -106.569
-52.7639 20.7148 0 -140.742
-60.7015 20.8477 0 -137.554
-137.655 13.3107 0 -105.364
-88.763 16.6088 0 -127.212
-56.885 20.7482 0 -139.015
-104.847 17.5199 0 -124.141
-96.9425 17.0743 0 -125.603
-125.814 12.4305 0 -106.569
-100.13 11.2648 0 -109.734
-44.6736 20.7594 0 -144.659
-52.7639 20.7148 0 -140.742
-113.408 11.7065 0 -107.98
-71.3794 16.2191 0 -131.167
-48.6253 20.6576 0 -142.654
-88.763 16.6088 0 -127.212
-80.277 16.1912 0 -129.013
-100.13 11.2648 0 -109.734
-73.2101 11.8738 0 -113.862
-35.7437 22.6543 0 -148.402
-44.6736 20.7594 0 -144.659
-86.5992 11.063 0 -111.708
-53.1964 18.6222 0 -135.592
-40.4962 21.3855 0 -146.632
-71.3794 16.2191 0 -131.167
-62.2839 16.9762 0 -133.492
-73.2101 11.8738 0 -113.862
-44.9727 21.1067 0 -119.588
-28.0782 26.9698 0 -148.714
-35.7437 22.6543 0 -148.402
-59.4762 14.9105 0 -116.44
-35.6692 27.0751 0 -138.515
-31.3699 24.3332 0 -149.34
-53.1964 18.6222 0 -135.592
-44.3302 21.5409 0 -137.251
-44.9727 21.1067 0 -119.588
-23.7427 47.3631 0 -122.094
-19.647 37.0461 0 -139.897
-28.0782 26.9698 0 -148.714
-32.4452 30.7894 0 -121.92
-23.1245 46.7864 0 -133.113
-24.4664 31.5071 0 -145.839
-35.6692 27.0751 0 -138.515
-28.1758 35.833 0 -137.905
-23.7427 47.3631 0 -122.094
-9.52573 109.71 0 -107.452
-14.3946 45.1546 0 -113.046
-19.647 37.0461 0 -139.897
-16.383 74.6513 0 -118.409
-13.2516 75.7404 0 -107.995
-15.7419 41.6461 0 -129.387
-23.1245 46.7864 0 -133.113
-18.7435 59.8622 0 -123.131
-9.52573 109.71 0 -107.452
0.439351 173.531 0 -47.9932
-9.41216 54.0379 0 -62.5909
-14.3946 45.1546 0 -113.046
-3.2326 146.379 0 -84.6353
-2.83418 109.599 0 -59.1147
-13.0526 49.0949 0 -90.8421
-13.2516 75.7404 0 -107.995
-7.42192 93.6431 0 -87.0805
-1327.63 -398.054 0 523.951
-1295.03 -228.26 0 174.428
1252.15 205.393 0 171.642
1282.14 384.899 0 521.362
-1272.95 -314.578 0 330.679
-22.7742 -11.6938 0 196.184
1228.97 295.738 0 328.493
-24.3097 -6.553 0 533.51
-23.2872 -9.80528 0 369.045
-1295.03 -228.26 0 174.428
-1363.14 -144.344 0 -33.9139
1321.55 116.741 0 -38.8095
1252.15 205.393 0 171.642
-1347.76 -181.626 0 51.8288
-22.2592 -14.067 0 -25.3672
1305.65 155.972 0 47.9843
-22.7742 -11.6938 0 196.184
-22.5448 -13.0357 0 59.7782
-1363.14 -144.344 0 -33.9139
-1367.47 -67.6431 0 -127.643
1326.62 37.3403 0 -134.835
1321.55 116.741 0 -38.8095
-1360.51 -101.978 0 -90.5516
-21.9547 -15.5997 0 -128.051
1319.29 72.8967 0 -96.569
-22.2592 -14.067 0 -25.3672
-22.0426 -14.9103 0 -83.723
-1367.47 -67.6431 0 -127.643
-1371.01 -32.2887 0 -160.387
1330.86 -0.195601 0 -169.73
1326.62 37.3403 0 -134.835
-1375.19 -46.8577 0 -149.747
-21.7058 -16.64 0 -167.727
1334.7 15.421 0 -158.055
-21.9547 -15.5997 0 -128.051
-21.8717 -16.1599 0 -155.311
-1371.01 -32.2887 0 -160.387
-1356.27 -14.1904 0 -163.007
1316.72 -20.0309 0 -174.265
1330.86 -0.195601 0 -169.73
-1361.87 -20.7426 0 -163.567
-21.4121 -17.4782 0 -174.505
1322.03 -12.6762 0 -173.891
-21.7058 -16.64 0 -167.727
-21.539 -17.0868 0 -172.782
-1356.27 -14.1904 0 -163.007
-1343.93 -11.2205 0 -156.126
1304.8 -24.1901 0 -169.135
1316.72 -20.0309 0 -174.265
-1351.43 -11.9326 0 -160.172
-21.1776 -18.0387 0 -168.642
1312.11 -22.9561 0 -172.318
-21.4121 -17.4782 0 -174.505
-21.2946 -17.7932 0 -172.724
-1343.93 -11.2205 0 -156.126
-1329.55 -11.3315 0 -147.516
1290.62 -24.6778 0 -162.25
1304.8 -24.1901 0 -169.135
-1335.8 -10.8547 0 -151.662
-21.0316 -18.3453 0 -160.338
1296.79 -24.9275 0 -165.53
-21.1776 -18.0387 0 -168.642
-21.0868 -18.225 0 -164.213
-1329.55 -11.3315 0 -147.516
-1318.53 -13.376 0 -140.495
1279.65 -22.719 0 -156.977
1290.62 -24.6778 0 -162.25
-1324.17 -12.3897 0 -143.779
-20.9731 -18.3936 0 -153.319
1285.28 -23.7193 0 -159.382
-21.0316 -18.3453 0 -160.338
-20.9961 -18.3983 0 -156.673
-1318.53 -13.376 0 -140.495
-1308.4 -14.7897 0 -135.352
1269.48 -20.9986 0 -153.618
1279.65 -22.719 0 -156.977
-1313.08 -14.1103 0 -137.676
-20.9725 -18.2497 0 -148.434
1274.19 -21.8732 0 -155.046
-20.9731 -18.3936 0 -153.319
-20.9661 -18.3426 0 -150.559
-1308.4 -14.7897 0 -135.352
-1299.94 -15.8353 0 -131.837
1260.92 -19.3758 0 -151.912
1269.48 -20.9986 0 -153.618
-1304.14 -15.4035 0 -133.431
-21.0003 -17.9633 0 -145.357
1265.18 -20.1232 0 -152.6
-20.9725 -18.2497 0 -148.434
-20.9853 -18.1208 0 -146.726
-1299.94 -15.8353 0 -131.837
-1292.05 -16.2646 0 -129.413
1252.95 -18.2005 0 -151.301
1260.92 -19.3758 0 -151.912
-1295.87 -16.0971 0 -130.512
-21.034 -17.5891 0 -143.568
1256.81 -18.7572 0 -151.494
-21.0003 -17.9633 0 -145.357
-21.0172 -17.7847 0 -144.321
-1292.05 -16.2646 0 -129.413
-1284.73 -16.3667 0 -127.691
1245.56 -17.2579 0 -151.38
1252.95 -18.2005 0 -151.301
-1288.37 -16.3586 0 -128.487
-21.0592 -17.1634 0 -142.581
1249.23 -17.6945 0 -151.278
-21.034 -17.5891 0 -143.568
-21.0485 -17.3808 0 -143.004
-1284.73 -16.3667 0 -127.691
-1277.6 -16.2107 0 -126.375
1238.4 -16.5295 0 -151.842
1245.56 -17.2579 0 -151.38
-1281.14 -16.3088 0 -126.994
-21.0695 -16.7137 0 -142.069
1241.94 -16.8769 0 -151.576
-21.0592 -17.1634 0 -142.581
-21.0664 -16.9404 0 -142.279
-1277.6 -16.2107 0 -126.375
-1270.63 -15.9307 0 -125.293
1231.42 -15.9122 0 -152.509
1238.4 -16.5295 0 -151.842
-1274.11 -16.0842 0 -125.813
-21.0627 -16.2561 0 -141.816
1234.9 -16.2076 0 -152.159
-21.0695 -16.7137 0 -142.069
-21.0682 -16.4852 0 -141.921
-1270.63 -15.9307 0 -125.293
-1263.69 -15.5761 0 -124.34
1224.51 -15.374 0 -153.269
1231.42 -15.9122 0 -152.509
-1267.15 -15.7587 0 -124.805
-21.0402 -15.8003 0 -141.697
1227.95 -15.6365 0 -152.881
-21.0627 -16.2561 0 -141.816
-21.0533 -16.0276 0 -141.744
-1263.69 -15.5761 0 -124.34
-1256.77 -15.1927 0 -123.458
1217.65 -14.8779 0 -154.067
1224.51 -15.374 0 -153.269
-1260.23 -15.3871 0 -123.893
-21.0044 -15.351 0 -141.645
1221.08 -15.1214 0 -153.666
-21.0402 -15.8003 0 -141.697
-21.0238 -15.5747 0 -141.666
-1256.77 -15.1927 0 -123.458
-1249.86 -14.7979 0 -122.619
1210.81 -14.4097 0 -154.871
1217.65 -14.8779 0 -154.067
-1253.32 -14.9957 0 -123.035
-20.9582 -14.9099 0 -141.623
1214.23 -14.6413 0 -154.469
-21.0044 -15.351 0 -141.645
-20.9824 -15.1294 0 -141.632
-1249.86 -14.7979 0 -122.619
-1242.95 -14.4034 0 -121.807
1203.98 -13.9575 0 -155.668
1210.81 -14.4097 0 -154.871
-1246.4 -14.6004 0 -122.21
-20.9044 -14.4773 0 -141.614
1207.4 -14.1819 0 -155.271
-20.9582 -14.9099 0 -141.623
-20.9321 -14.6926 0 -141.618
-1242.95 -14.4034 0 -121.807
-1236.03 -14.013 0 -121.014
1197.16 -13.5162 0 -156.453
1203.98 -13.9575 0 -155.668
-1239.49 -14.2075 0 -121.408
-20.8452 -14.0524 0 -141.609
1200.57 -13.7358 0 -156.062
-20.9044 -14.4773 0 -141.614
-20.8753 -14.264 0 -141.611
-1236.03 -14.013 0 -121.014
-1229.1 -13.6285 0 -120.239
1190.34 -13.0822 0 -157.221
1197.16 -13.5162 0 -156.453
-1232.56 -13.82 0 -120.625
-20.7825 -13.6344 0 -141.605
1193.75 -13.2984 0 -156.839
-20.8452 -14.0524 0 -141.609
-20.8142 -13.8426 0 -141.607
-1229.1 -13.6285 0 -120.239
-1222.18 -13.2499 0 -119.479
1183.53 -12.6534 0 -157.974
1190.34 -13.0822 0 -157.221
-1225.64 -13.4385 0 -119.857
-20.7176 -13.2221 0 -141.6
1186.94 -12.8672 0 -157.599
-20.7825 -13.6344 0 -141.605
-20.7502 -13.4276 0 -141.602
-1222.18 -13.2499 0 -119.479
-1215.25 -12.8767 0 -118.733
1176.71 -12.2287 0 -158.71
1183.53 -12.6534 0 -157.974
-1218.71 -13.0627 0 -119.104
-20.6515 -12.8146 0 -141.595
1180.12 -12.4406 0 -158.344
-20.7176 -13.2221 0 -141.6
-20.6846 -13.0178 0 -141.598
-1215.25 -12.8767 0 -118.733
-1208.32 -12.5082 0 -118.002
1169.89 -11.8072 0 -159.431
1176.71 -12.2287 0 -158.71
-1211.78 -12.6919 0 -118.366
-20.5848 -12.4113 0 -141.59
1173.3 -12.0176 0 -159.072
-20.6515 -12.8146 0 -141.595
-20.6182 -12.6125 0 -141.593
-1208.32 -12.5082 0 -118.002
-1201.39 -12.144 0 -117.286
1163.07 -11.3883 0 -160.137
1169.89 -11.8072 0 -159.431
-1204.85 -12.3256 0 -117.642
-20.518 -12.0116 0 -141.584
1166.48 -11.5974 0 -159.786
-20.5848 -12.4113 0 -141.59
-20.5514 -12.211 0 -141.587
-1201.39 -12.144 0 -117.286
-1194.45 -11.7834 0 -116.583
1156.25 -10.9718 0 -160.827
1163.07 -11.3883 0 -160.137
-1197.92 -11.9632 0 -116.933
-20.4514 -11.6149 0 -141.577
1159.66 -11.1798 0 -160.484
-20.518 -12.0116 0 -141.584
-20.4847 -11.8129 0 -141.58
-1194.45 -11.7834 0 -116.583
-1187.52 -11.4263 0 -115.895
1149.43 -10.5574 0 -161.503
1156.25 -10.9718 0 -160.827
-1190.99 -11.6045 0 -116.237
-20.3851 -11.2211 0 -141.57
1152.84 -10.7643 0 -161.167
-20.4514 -11.6149 0 -141.577
-20.4182 -11.4177 0 -141.574
-1187.52 -11.4263 0 -115.895
-1180.59 -11.0723 0 -115.22
1142.61 -10.1449 0 -162.165
1149.43 -10.5574 0 -161.503
-1184.06 -11.2489 0 -115.556
-20.3192 -10.8299 0 -141.563
1146.02 -10.3509 0 -161.836
-20.3851 -11.2211 0 -141.57
-20.3521 -11.0252 0 -141.567
-1180.59 -11.0723 0 -115.22
-1173.66 -10.7213 0 -114.56
1135.79 -9.7343 0 -162.812
1142.61 -10.1449 0 -162.165
-1177.12 -10.8965 0 -114.889
-20.2538 -10.4412 0 -141.556
1139.2 -9.93937 0 -162.49
-20.3192 -10.8299 0 -141.563
-20.2865 -10.6353 0 -141.56
-1173.66 -10.7213 0 -114.56
-1166.73 -10.3731 0 -113.914
1128.97 -9.32553 0 -163.445
1135.79 -9.7343 0 -162.812
-1170.19 -10.5469 0 -114.235
-20.1888 -10.0549 0 -141.549
1132.38 -9.52969 0 -163.13
-20.2538 -10.4412 0 -141.556
-20.2212 -10.2478 0 -141.552
-1166.73 -10.3731 0 -113.914
-1159.79 -10.0277 0 -113.281
1122.14 -8.91859 0 -164.063
1128.97 -9.32553 0 -163.445
-1163.26 -10.2001 0 -113.596
-20.1242 -9.6709 0 -141.541
1125.56 -9.12183 0 -163.756
-20.1888 -10.0549 0 -141.549
-20.1564 -9.86261 0 -141.545
-1159.79 -10.0277 0 -113.281
-1152.86 -9.685 0 -112.662
1115.32 -8.51349 0 -164.667
1122.14 -8.91859 0 -164.063
-1156.33 -9.85603 0 -112.97
-20.06 -9.28923 0 -141.533
1118.73 -8.71581 0 -164.367
-20.1242 -9.6709 0 -141.541
-20.0921 -9.47978 0 -141.537
-1152.86 -9.685 0 -112.662
-1145.93 -9.34492 0 -112.057
1108.5 -8.11024 0 -165.258
1115.32 -8.51349 0 -164.667
-1149.4 -9.51463 0 -112.358
-19.9963 -8.90984 0 -141.525
1111.91 -8.31163 0 -164.964
-20.06 -9.28923 0 -141.533
-20.0281 -9.09925 0 -141.529
-1145.93 -9.34492 0 -112.057
-1139 -9.00744 0 -111.465
1101.67 -7.70887 0 -165.834
1108.5 -8.11024 0 -165.258
-1142.46 -9.17586 0 -111.759
-19.933 -8.53275 0 -141.517
1105.08 -7.90932 0 -165.548
-19.9963 -8.90984 0 -141.525
-19.9646 -8.72101 0 -141.521
-1139 -9.00744 0 -111.465
-1132.07 -8.67253 0 -110.886
1094.84 -7.30943 0 -166.397
1101.67 -7.70887 0 -165.834
-1135.53 -8.83967 0 -111.174
-19.8701 -8.15796 0 -141.508
1098.26 -7.50891 0 -166.117
-19.933 -8.53275 0 -141.517
-19.9015 -8.34507 0 -141.513
-1132.07 -8.67253 0 -110.886
-1125.13 -8.34016 0 -110.321
1088.02 -6.91194 0 -166.946
1094.84 -7.30943 0 -166.397
-1128.6 -8.50603 0 -110.602
-19.8076 -7.78545 0 -141.5
1091.43 -7.11044 0 -166.673
-19.8701 -8.15796 0 -141.508
-19.8388 -7.97142 0 -141.504
-1125.13 -8.34016 0 -110.321
-1118.2 -8.01031 0 -109.77
1081.19 -6.51643 0 -167.481
1088.02 -6.91194 0 -166.946
-1121.67 -8.17492 0 -110.044
-19.7454 -7.41524 0 -141.491
1084.6 -6.71393 0 -167.215
-19.8076 -7.78545 0 -141.5
-19.7764 -7.60006 0 -141.495
-1118.2 -8.01031 0 -109.77
-1111.27 -7.68294 0 -109.231
1074.36 -6.12295 0 -168.002
1081.19 -6.51643 0 -167.481
-1114.74 -7.84632 0 -109.499
-19.6836 -7.04734 0 -141.482
1077.78 -6.31944 0 -167.743
-19.7454 -7.41524 0 -141.491
-19.7145 -7.231 0 -141.487
-1111.27 -7.68294 0 -109.231
-1104.34 -7.35803 0 -108.706
1067.54 -5.73152 0 -168.51
1074.36 -6.12295 0 -168.002
-1107.81 -7.52018 0 -108.967
-19.6223 -6.68173 0 -141.473
1070.95 -5.92698 0 -168.258
-19.6836 -7.04734 0 -141.482
-19.6529 -6.86425 0 -141.478
-1104.34 -7.35803 0 -108.706
-1097.41 -7.03555 0 -108.194
1060.71 -5.34218 0 -169.005
1067.54 -5.73152 0 -168.51
-1100.88 -7.19649 0 -108.448
-19.5612 -6.31843 0 -141.464
1064.12 -5.53659 0 -168.759
-19.6223 -6.68173 0 -141.473
-19.5917 -6.49979 0 -141.468
-1097.41 -7.03555 0 -108.194
-1090.48 -6.71548 0 -107.695
1053.88 -4.95496 0 -169.486
1060.71 -5.34218 0 -169.005
-1093.94 -6.87522 0 -107.943
-19.5006 -5.95744 0 -141.454
1057.29 -5.1483 0 -169.247
-19.5612 -6.31843 0 -141.464
-19.5309 -6.13765 0 -141.459
-1090.48 -6.71548 0 -107.695
-1083.55 -6.39778 0 -107.208
1047.05 -4.56988 0 -169.954
1053.88 -4.95496 0 -169.486
-1087.01 -6.55633 0 -107.45
-19.4403 -5.59876 0 -141.445
1050.46 -4.76215 0 -169.722
-19.5006 -5.95744 0 -141.454
-19.4704 -5.77781 0 -141.45
-1083.55 -6.39778 0 -107.208
-1076.62 -6.08243 0 -106.735
1040.22 -4.18698 0 -170.409
1047.05 -4.56988 0 -169.954
-1080.08 -6.23981 0 -106.97
-19.3804 -5.24239 0 -141.435
1043.64 -4.37816 0 -170.183
-19.4403 -5.59876 0 -141.445
-19.4103 -5.42029 0 -141.44
-1076.62 -6.08243 0 -106.735
-1069.69 -5.7694 0 -106.274
1033.39 -3.80629 0 -170.851
1040.22 -4.18698 0 -170.409
-1073.15 -5.92562 0 -106.503
-19.3209 -4.88833 0 -141.425
1036.81 -3.99636 0 -170.632
-19.3804 -5.24239 0 -141.435
-19.3506 -5.06507 0 -141.43
-1069.69 -5.7694 0 -106.274
-1062.76 -5.45867 0 -105.826
1026.56 -3.42783 0 -171.28
1033.39 -3.80629 0 -170.851
-1066.23 -5.61375 0 -106.049
-19.2617 -4.53658 0 -141.415
1029.98 -3.61678 0 -171.067
-19.3209 -4.88833 0 -141.425
-19.2912 -4.71217 0 -141.42
-1062.76 -5.45867 0 -105.826
-1055.83 -5.15021 0 -105.391
1019.73 -3.05163 0 -171.696
1026.56 -3.42783 0 -171.28
-1059.3 -5.30415 0 -105.607
-19.2029 -4.18714 0 -141.405
1023.15 -3.23945 0 -171.49
-19.2617 -4.53658 0 -141.415
-19.2323 -4.36157 0 -141.41
-1055.83 -5.15021 0 -105.391
-1048.9 -4.84399 0 -104.968
1012.9 -2.67772 0 -172.099
1019.73 -3.05163 0 -171.696
-1052.37 -4.99682 0 -105.178
-19.1445 -3.84002 0 -141.395
1016.32 -2.86439 0 -171.899
-19.2029 -4.18714 0 -141.405
-19.1737 -4.01329 0 -141.4
-1048.9 -4.84399 0 -104.968
-1041.98 -4.53999 0 -104.558
1006.07 -2.30611 0 -172.49
1012.9 -2.67772 0 -172.099
-1045.44 -4.69171 0 -104.761
-19.0864 -3.49521 0 -141.385
1009.49 -2.49162 0 -172.296
-19.1445 -3.84002 0 -141.395
-19.1154 -3.66732 0 -141.39
-1041.98 -4.53999 0 -104.558
-1035.05 -4.23818 0 -104.159
999.243 -1.93685 0 -172.868
1006.07 -2.30611 0 -172.49
-1038.51 -4.38881 0 -104.357
-19.0288 -3.1527 0 -141.374
1002.66 -2.12119 0 -172.68
-19.0864 -3.49521 0 -141.385
-19.0576 -3.32367 0 -141.379
-1035.05 -4.23818 0 -104.159
-1028.12 -3.93854 0 -103.774
992.413 -1.56994 0 -173.233
999.243 -1.93685 0 -172.868
-1031.59 -4.08809 0 -103.965
-18.9714 -2.81252 0 -141.363
995.828 -1.7531 0 -173.052
-19.0288 -3.1527 0 -141.374
-19.0001 -2.98232 0 -141.369
-1028.12 -3.93854 0 -103.774
-1021.2 -3.64105 0 -103.4
985.583 -1.20542 0 -173.586
992.413 -1.56994 0 -173.233
-1024.66 -3.78953 0 -103.585
-18.9145 -2.47464 0 -141.353
988.998 -1.38738 0 -173.411
-18.9714 -2.81252 0 -141.363
-18.9429 -2.64329 0 -141.358
-1021.2 -3.64105 0 -103.4
-1014.27 -3.34568 0 -103.038
978.753 -0.843314 0 -173.927
985.583 -1.20542 0 -173.586
-1017.73 -3.4931 0 -103.218
-18.8579 -2.13907 0 -141.342
982.168 -1.02407 0 -173.758
-18.9145 -2.47464 0 -141.353
-18.8862 -2.30657 0 -141.347
-1014.27 -3.34568 0 -103.038
-1007.35 -3.05241 0 -102.689
971.923 -0.483635 0 -174.255
978.753 -0.843314 0 -173.927
-1010.81 -3.19879 0 -102.862
-18.8017 -1.80582 0 -141.331
975.338 -0.663169 0 -174.092
-18.8579 -2.13907 0 -141.342
-18.8298 -1.97216 0 -141.336
-1007.35 -3.05241 0 -102.689
-1000.42 -2.76121 0 -102.352
965.092 -0.12641 0 -174.571
971.923 -0.483635 0 -174.255
-1003.88 -2.90655 0 -102.519
-18.7459 -1.47488 0 -141.32
968.508 -0.304714 0 -174.415
-18.8017 -1.80582 0 -141.331
-18.7738 -1.64006 0 -141.325
-1000.42 -2.76121 0 -102.352
-993.498 -2.47207 0 -102.026
958.262 0.228339 0 -174.875
965.092 -0.12641 0 -174.571
-996.96 -2.61639 0 -102.187
-18.6904 -1.14625 0 -141.309
961.677 0.0512753 0 -174.725
-18.7459 -1.47488 0 -141.32
-18.7181 -1.31028 0 -141.314
-993.498 -2.47207 0 -102.026
-986.576 -2.18496 0 -101.712
951.432 0.58059 0 -175.167
958.262 0.228339 0 -174.875
-990.037 -2.32827 0 -101.867
-18.6353 -0.819936 0 -141.298
954.847 0.404778 0 -175.023
-18.6904 -1.14625 0 -141.309
-18.6628 -0.982805 0 -141.303
-986.576 -2.18496 0 -101.712
-979.654 -1.89986 0 -101.41
944.602 0.930324 0 -175.448
951.432 0.58059 0 -175.167
-983.114 -2.04216 0 -101.559
-18.5806 -0.495931 0 -141.286
948.017 0.755773 0 -175.309
-18.6353 -0.819936 0 -141.298
-18.6079 -0.657644 0 -141.292
-979.654 -1.89986 0 -101.41
-972.732 -1.61676 0 -101.119
937.773 1.27752 0 -175.716
944.602 0.930324 0 -175.448
-976.193 -1.75806 0 -101.263
-18.5263 -0.174237 0 -141.275
941.187 1.10424 0 -175.583
-18.5806 -0.495931 0 -141.286
-18.5534 -0.334795 0 -141.281
-972.732 -1.61676 0 -101.119
-965.812 -1.33562 0 -100.84
930.943 1.62215 0 -175.973
937.773 1.27752 0 -175.716
-969.272 -1.47594 0 -100.978
-18.4723 0.145146 0 -141.263
934.358 1.45016 0 -175.846
-18.5263 -0.174237 0 -141.275
-18.4992 -0.0142566 0 -141.269
-965.812 -1.33562 0 -100.84
-958.892 -1.05643 0 -100.573
924.113 1.96421 0 -176.218
930.943 1.62215 0 -175.973
-962.352 -1.19578 0 -100.705
-18.4187 0.462217 0 -141.252
927.528 1.79351 0 -176.096
-18.4723 0.145146 0 -141.263
-18.4455 0.30397 0 -141.258
-958.892 -1.05643 0 -100.573
-951.973 -0.779178 0 -100.317
917.284 2.30367 0 -176.451
924.113 1.96421 0 -176.218
-955.432 -0.917565 0 -100.443
-18.3655 0.776977 0 -141.24
920.699 2.13427 0 -176.336
-18.4187 0.462217 0 -141.252
-18.392 0.619886 0 -141.246
-951.973 -0.779178 0 -100.317
-945.054 -0.503836 0 -100.072
910.455 2.64052 0 -176.673
917.284 2.30367 0 -176.451
-948.513 -0.641269 0 -100.193
-18.3126 1.08943 0 -141.228
913.869 2.47242 0 -176.563
-18.3655 0.776977 0 -141.24
-18.339 0.933491 0 -141.234
-945.054 -0.503836 0 -100.072
-938.137 -0.230387 0 -99.8383
903.626 2.97473 0 -176.884
910.455 2.64052 0 -176.673
-941.596 -0.366876 0 -99.9537
-18.2601 1.39957 0 -141.217
907.04 2.80796 0 -176.78
-18.3126 1.08943 0 -141.228
-18.2863 1.24478 0 -141.223
-938.137 -0.230387 0 -99.8383
-931.22 0.0411845 0 -99.6159
896.797 3.30629 0 -177.083
903.626 2.97473 0 -176.884
-934.679 -0.094368 0 -99.7257
-18.208 1.70739 0 -141.205
900.212 3.14084 0 -176.985
-18.2601 1.39957 0 -141.217
-18.234 1.55377 0 -141.211
-931.22 0.0411845 0 -99.6159
-924.305 0.310897 0 -99.4045
889.969 3.63519 0 -177.271
896.797 3.30629 0 -177.083
-927.763 0.176272 0 -99.5088
-18.1563 2.01291 0 -141.193
893.383 3.47107 0 -177.178
-18.208 1.70739 0 -141.205
-18.1821 1.86044 0 -141.199
-924.305 0.310897 0 -99.4045
-917.39 0.578768 0 -99.2041
883.141 3.96139 0 -177.448
889.969 3.63519 0 -177.271
-920.847 0.445062 0 -99.3029
-18.1049 2.31612 0 -141.181
886.555 3.79863 0 -177.361
-18.1563 2.01291 0 -141.193
-18.1305 2.1648 0 -141.187
-917.39 0.578768 0 -99.2041
-910.476 0.844814 0 -99.0146
876.313 4.2849 0 -177.614
883.141 3.96139 0 -177.448
-913.933 0.712018 0 -99.108
-18.0539 2.61702 0 -141.169
879.727 4.12349 0 -177.532
-18.1049 2.31612 0 -141.181
-18.0794 2.46686 0 -141.175
-910.476 0.844814 0 -99.0146
-903.563 1.10905 0 -98.8359
869.485 4.60569 0 -177.769
876.313 4.2849 0 -177.614
-907.02 0.977158 0 -98.9239
-18.0033 2.9156 0 -141.157
872.899 4.44564 0 -177.693
-18.0539 2.61702 0 -141.169
-18.0285 2.7666 0 -141.163
-903.563 1.10905 0 -98.8359
-896.651 1.37149 0 -98.6679
862.658 4.92375 0 -177.913
869.485 4.60569 0 -177.769
-900.107 1.2405 0 -98.7506
-17.953 3.21188 0 -141.145
866.071 4.76506 0 -177.842
-18.0033 2.9156 0 -141.157
-17.9781 3.06403 0 -141.151
-896.651 1.37149 0 -98.6679
-889.74 1.63216 0 -98.5107
855.831 5.23906 0 -178.047
862.658 4.92375 0 -177.913
-893.196 1.50205 0 -98.588
-17.9032 3.50585 0 -141.132
859.244 5.08175 0 -177.981
-17.953 3.21188 0 -141.145
-17.928 3.35916 0 -141.139
-889.74 1.63216 0 -98.5107
-882.83 1.89106 0 -98.3639
849.004 5.55161 0 -178.169
855.831 5.23906 0 -178.047
-886.285 1.76183 0 -98.436
-17.8537 3.79751 0 -141.12
852.417 5.39568 0 -178.109
-17.9032 3.50585 0 -141.132
-17.8784 3.65197 0 -141.126
-882.83 1.89106 0 -98.3639
-875.921 2.14821 0 -98.2277
842.178 5.86139 0 -178.281
849.004 5.55161 0 -178.169
-879.375 2.01985 0 -98.2945
-17.8045 4.08687 0 -141.108
845.591 5.70685 0 -178.227
-17.8537 3.79751 0 -141.12
-17.829 3.94248 0 -141.114
-875.921 2.14821 0 -98.2277
-869.013 2.40363 0 -98.1019
835.352 6.16837 0 -178.383
842.178 5.86139 0 -178.281
-872.467 2.27614 0 -98.1635
-17.7558 4.37391 0 -141.096
838.765 6.01523 0 -178.334
-17.8045 4.08687 0 -141.108
-17.7801 4.23068 0 -141.102
-869.013 2.40363 0 -98.1019
-862.106 2.65732 0 -97.9864
828.527 6.47256 0 -178.474
835.352 6.16837 0 -178.383
-865.559 2.53069 0 -98.0428
-17.7074 4.65864 0 -141.083
831.939 6.32082 0 -178.43
-17.7558 4.37391 0 -141.096
-17.7315 4.51656 0 -141.089
-862.106 2.65732 0 -97.9864
-855.2 2.90931 0 -97.8811
821.701 6.77393 0 -178.555
828.527 6.47256 0 -178.474
-858.653 2.78353 0 -97.9325
-17.6594 4.94107 0 -141.071
825.114 6.6236 0 -178.516
-17.7074 4.65864 0 -141.083
-17.6833 4.80015 0 -141.077
-855.2 2.90931 0 -97.8811
-848.295 3.1596 0 -97.7861
814.877 7.07248 0 -178.626
821.701 6.77393 0 -178.555
-851.747 3.03467 0 -97.8323
-17.6118 5.22119 0 -141.059
818.289 6.92356 0 -178.592
-17.6594 4.94107 0 -141.071
-17.6355 5.08142 0 -141.065
-848.295 3.1596 0 -97.7861
-841.391 3.40821 0 -97.7011
808.053 7.36818 0 -178.687
814.877 7.07248 0 -178.626
-844.843 3.28412 0 -97.7423
-17.5645 5.499 0 -141.046
811.465 7.22068 0 -178.658
-17.6118 5.22119 0 -141.059
-17.5881 5.36039 0 -141.052
-841.391 3.40821 0 -97.7011
-834.488 3.65515 0 -97.6261
801.229 7.66104 0 -178.737
808.053 7.36818 0 -178.687
-837.939 3.53189 0 -97.6623
-17.5176 5.77451 0 -141.034
804.641 7.51497 0 -178.713
-17.5645 5.499 0 -141.046
-17.541 5.63704 0 -141.04
-834.488 3.65515 0 -97.6261
-827.586 3.90043 0 -97.561
794.405 7.95104 0 -178.778
801.229 7.66104 0 -178.737
-831.037 3.778 0 -97.5923
-17.4711 6.04771 0 -141.021
797.817 7.8064 0 -178.759
-17.5176 5.77451 0 -141.034
-17.4943 5.9114 0 -141.027
-827.586 3.90043 0 -97.561
-820.686 4.14406 0 -97.5058
787.582 8.23816 0 -178.808
794.405 7.95104 0 -178.778
-824.136 4.02245 0 -97.5322
-17.425 6.3186 0 -141.009
790.994 8.09496 0 -178.794
-17.4711 6.04771 0 -141.021
-17.448 6.18344 0 -141.015
-820.686 4.14406 0 -97.5058
-813.786 4.38605 0 -97.4603
780.76 8.52241 0 -178.829
787.582 8.23816 0 -178.808
-817.236 4.26526 0 -97.4818
-17.3792 6.58718 0 -140.996
784.171 8.38064 0 -178.82
-17.425 6.3186 0 -141.009
-17.4021 6.45318 0 -141.003
-813.786 4.38605 0 -97.4603
-806.887 4.62641 0 -97.4245
773.938 8.80376 0 -178.84
780.76 8.52241 0 -178.829
-810.337 4.50644 0 -97.4412
-17.3338 6.85347 0 -140.984
777.349 8.66345 0 -178.836
-17.3792 6.58718 0 -140.996
-17.3565 6.72061 0 -140.99
-806.887 4.62641 0 -97.4245
-799.99 4.86516 0 -97.3984
767.117 9.08221 0 -178.842
773.938 8.80376 0 -178.84
-803.439 4.74599 0 -97.4103
-17.2888 7.11744 0 -140.971
770.527 8.94335 0 -178.842
-17.3338 6.85347 0 -140.984
-17.3113 6.98574 0 -140.978
-799.99 4.86516 0 -97.3984
-793.094 5.1023 0 -97.3817
760.296 9.35776 0 -178.834
767.117 9.08221 0 -178.842
-796.542 4.98393 0 -97.3888
-17.2442 7.37911 0 -140.959
763.706 9.22035 0 -178.839
-17.2888 7.11744 0 -140.971
-17.2665 7.24856 0 -140.965
-793.094 5.1023 0 -97.3817
-786.199 5.33784 0 -97.3744
753.475 9.63038 0 -178.817
760.296 9.35776 0 -178.834
-789.646 5.22027 0 -97.3769
-17.2 7.63847 0 -140.946
756.885 9.49444 0 -178.826
-17.2442 7.37911 0 -140.959
-17.222 7.50908 0 -140.953
-786.199 5.33784 0 -97.3744
-779.305 5.57179 0 -97.3765
746.655 9.90009 0 -178.79
753.475 9.63038 0 -178.817
-782.752 5.45501 0 -97.3743
-17.1561 7.89553 0 -140.934
750.065 9.7656 0 -178.804
-17.2 7.63847 0 -140.946
-17.178 7.76729 0 -140.94
-779.305 5.57179 0 -97.3765
-772.412 5.80416 0 -97.3879
739.836 10.1669 0 -178.754
746.655 9.90009 0 -178.79
-775.858 5.68817 0 -97.3811
-17.1126 8.15029 0 -140.921
743.246 10.0338 0 -178.773
-17.1561 7.89553 0 -140.934
-17.1343 8.0232 0 -140.928
-772.412 5.80416 0 -97.3879
-765.52 6.03495 0 -97.4085
733.017 10.4307 0 -178.709
739.836 10.1669 0 -178.754
-768.966 5.91975 0 -97.3971
-17.0695 8.40274 0 -140.909
736.426 10.2991 0 -178.732
-17.1126 8.15029 0 -140.921
-17.091 8.27681 0 -140.915
-765.52 6.03495 0 -97.4085
-758.63 6.26418 0 -97.4382
726.199 10.6916 0 -178.654
733.017 10.4307 0 -178.709
-762.075 6.14976 0 -97.4222
-17.0267 8.65289 0 -140.896
729.608 10.5615 0 -178.683
-17.0695 8.40274 0 -140.909
-17.0481 8.52811 0 -140.903
-758.63 6.26418 0 -97.4382
-751.741 6.49186 0 -97.4769
719.381 10.9495 0 -178.591
726.199 10.6916 0 -178.654
-755.185 6.37821 0 -97.4564
-16.9844 8.90074 0 -140.884
722.79 10.8209 0 -178.624
-17.0267 8.65289 0 -140.896
-17.0055 8.7771 0 -140.89
-751.741 6.49186 0 -97.4769
-744.853 6.71797 0 -97.5245
712.564 11.2044 0 -178.519
719.381 10.9495 0 -178.591
-748.296 6.60511 0 -97.4996
-16.9424 9.14628 0 -140.871
715.972 11.0773 0 -178.556
-16.9844 8.90074 0 -140.884
-16.9633 9.0238 0 -140.878
-744.853 6.71797 0 -97.5245
-737.966 6.94255 0 -97.581
705.747 11.4564 0 -178.438
712.564 11.2044 0 -178.519
-741.409 6.83046 0 -97.5517
-16.9008 9.38952 0 -140.859
709.155 11.3308 0 -178.479
-16.9424 9.14628 0 -140.871
-16.9216 9.26819 0 -140.865
-737.966 6.94255 0 -97.581
-731.08 7.16559 0 -97.6463
698.931 11.7055 0 -178.348
705.747 11.4564 0 -178.438
-734.523 7.05426 0 -97.6126
-16.8596 9.63046 0 -140.847
702.339 11.5813 0 -178.394
-16.9008 9.38952 0 -140.859
-16.8801 9.51028 0 -140.853
-731.08 7.16559 0 -97.6463
-724.195 7.38709 0 -97.7203
692.116 11.9515 0 -178.249
698.931 11.7055 0 -178.348
-727.638 7.27653 0 -97.6822
-16.8187 9.8691 0 -140.834
695.523 11.8289 0 -178.3
-16.8596 9.63046 0 -140.847
-16.8391 9.75007 0 -140.841
-724.195 7.38709 0 -97.7203
-717.312 7.60707 0 -97.8029
685.301 12.1946 0 -178.142
692.116 11.9515 0 -178.249
-720.754 7.49727 0 -97.7606
-16.7783 10.1054 0 -140.822
688.708 12.0734 0 -178.197
-16.8187 9.8691 0 -140.834
-16.7984 9.98756 0 -140.828
-717.312 7.60707 0 -97.8029
-710.43 7.82552 0 -97.8941
678.486 12.4347 0 -178.027
685.301 12.1946 0 -178.142
-713.871 7.71649 0 -97.8475
-16.7382 10.3395 0 -140.81
681.893 12.315 0 -178.086
-16.7783 10.1054 0 -140.822
-16.7582 10.2227 0 -140.816
-710.43 7.82552 0 -97.8941
-703.549 8.04246 0 -97.9937
671.672 12.6717 0 -177.903
678.486 12.4347 0 -178.027
-706.989 7.93418 0 -97.9428
-16.6985 10.5712 0 -140.797
675.079 12.5536 0 -177.966
-16.7382 10.3395 0 -140.81
-16.7183 10.4556 0 -140.804
-703.549 8.04246 0 -97.9937
-696.67 8.25789 0 -98.1017
664.859 12.9058 0 -177.771
671.672 12.6717 0 -177.903
-700.109 8.15036 0 -98.0466
-16.6591 10.8006 0 -140.785
668.266 12.7892 0 -177.838
-16.6985 10.5712 0 -140.797
-16.6788 10.6862 0 -140.791
-696.67 8.25789 0 -98.1017
-689.791 8.47181 0 -98.2179
658.047 13.1369 0 -177.63
664.859 12.9058 0 -177.771
-693.23 8.36503 0 -98.1588
-16.6202 11.0278 0 -140.773
661.453 13.0218 0 -177.701
-16.6591 10.8006 0 -140.785
-16.6396 10.9145 0 -140.779
-689.791 8.47181 0 -98.2179
-682.914 8.68422 0 -98.3424
651.234 13.365 0 -177.482
658.047 13.1369 0 -177.63
-686.352 8.5782 0 -98.2792
-16.5816 11.2526 0 -140.761
654.64 13.2513 0 -177.557
-16.6202 11.0278 0 -140.773
-16.6009 11.1405 0 -140.767
-682.914 8.68422 0 -98.3424
-676.038 8.89513 0 -98.475
644.423 13.5901 0 -177.325
651.234 13.365 0 -177.482
-679.476 8.78986 0 -98.4077
-16.5434 11.4752 0 -140.749
647.829 13.4779 0 -177.404
-16.5816 11.2526 0 -140.761
-16.5625 11.3642 0 -140.755
-676.038 8.89513 0 -98.475
-669.163 9.10455 0 -98.6157
637.612 13.8122 0 -177.16
644.423 13.5901 0 -177.325
-672.601 9.00003 0 -98.5444
-16.5056 11.6954 0 -140.737
641.018 13.7015 0 -177.244
-16.5434 11.4752 0 -140.749
-16.5245 11.5856 0 -140.743
-669.163 9.10455 0 -98.6157
-662.29 9.31247 0 -98.7643
630.802 14.0313 0 -176.988
637.612 13.8122 0 -177.16
-665.726 9.20869 0 -98.689
-16.4682 11.9133 0 -140.725
634.207 13.9221 0 -177.075
-16.5056 11.6954 0 -140.737
-16.4869 11.8046 0 -140.731
-662.29 9.31247 0 -98.7643
-655.418 9.51889 0 -98.9208
623.992 14.2473 0 -176.808
630.802 14.0313 0 -176.988
-658.854 9.41587 0 -98.8416
-16.4312 12.129 0 -140.713
627.397 14.1397 0 -176.899
-16.4682 11.9133 0 -140.725
-16.4496 12.0214 0 -140.719
-655.418 9.51889 0 -98.9208
-648.547 9.72383 0 -99.0851
617.183 14.4604 0 -176.62
623.992 14.2473 0 -176.808
-651.982 9.62155 0 -99.002
-16.3945 12.3423 0 -140.701
620.588 14.3542 0 -176.715
-16.4312 12.129 0 -140.713
-16.4128 12.2359 0 -140.707
-648.547 9.72383 0 -99.0851
-641.677 9.92728 0 -99.2572
610.375 14.6704 0 -176.424
617.183 14.4604 0 -176.62
-645.112 9.82574 0 -99.1702
-16.3582 12.5534 0 -140.689
613.779 14.5658 0 -176.523
-16.3945 12.3423 0 -140.701
-16.3763 12.4481 0 -140.695
-641.677 9.92728 0 -99.2572
-634.808 10.1292 0 -99.4369
603.567 14.8774 0 -176.221
610.375 14.6704 0 -176.424
-638.242 10.0284 0 -99.3461
-16.3223 12.7621 0 -140.677
606.971 14.7743 0 -176.323
-16.3582 12.5534 0 -140.689
-16.3402 12.658 0 -140.683
-634.808 10.1292 0 -99.4369
-627.941 10.3297 0 -99.6241
596.76 15.0815 0 -176.01
603.567 14.8774 0 -176.221
-631.375 10.2297 0 -99.5295
-16.2868 12.9686 0 -140.665
600.163 14.9798 0 -176.117
-16.3223 12.7621 0 -140.677
-16.3045 12.8656 0 -140.671
-627.941 10.3297 0 -99.6241
-621.075 10.5287 0 -99.8188
589.953 15.2825 0 -175.792
596.76 15.0815 0 -176.01
-624.508 10.4294 0 -99.7205
-16.2517 13.1727 0 -140.654
593.356 15.1823 0 -175.902
-16.2868 12.9686 0 -140.665
-16.2692 13.0709 0 -140.659
-621.075 10.5287 0 -99.8188
-614.21 10.7262 0 -100.021
583.147 15.4804 0 -175.567
589.953 15.2825 0 -175.792
-617.642 10.6277 0 -99.9189
-16.217 13.3746 0 -140.642
586.55 15.3818 0 -175.681
-16.2517 13.1727 0 -140.654
-16.2343 13.274 0 -140.648
-614.21 10.7262 0 -100.021
-607.347 10.9223 0 -100.23
576.341 15.6754 0 -175.335
583.147 15.4804 0 -175.567
-610.778 10.8244 0 -100.125
-16.1826 13.5742 0 -140.63
579.744 15.5783 0 -175.452
-16.217 13.3746 0 -140.642
-16.1997 13.4747 0 -140.636
-607.347 10.9223 0 -100.23
-600.484 11.1168 0 -100.447
569.536 15.8674 0 -175.095
576.341 15.6754 0 -175.335
-603.915 11.0197 0 -100.338
-16.1486 13.7714 0 -140.619
572.939 15.7718 0 -175.216
-16.1826 13.5742 0 -140.63
-16.1656 13.6731 0 -140.625
-600.484 11.1168 0 -100.447
-593.623 11.3099 0 -100.671
562.732 16.0563 0 -174.849
569.536 15.8674 0 -175.095
-597.054 11.2135 0 -100.558
-16.115 13.9664 0 -140.608
566.134 15.9622 0 -174.973
-16.1486 13.7714 0 -140.619
-16.1318 13.8692 0 -140.613
-593.623 11.3099 0 -100.671
-586.763 11.5014 0 -100.902
555.928 16.2422 0 -174.595
562.732 16.0563 0 -174.849
-590.193 11.4058 0 -100.785
-16.0818 14.1591 0 -140.596
559.33 16.1496 0 -174.723
-16.115 13.9664 0 -140.608
-16.0984 14.0631 0 -140.602
-586.763 11.5014 0 -100.902
-579.905 11.6915 0 -101.14
549.125 16.4252 0 -174.335
555.928 16.2422 0 -174.595
-583.334 11.5967 0 -101.02
-16.049 14.3495 0 -140.585
552.527 16.3341 0 -174.466
-16.0818 14.1591 0 -140.596
-16.0654 14.2546 0 -140.591
-579.905 11.6915 0 -101.14
-573.048 11.8801 0 -101.384
542.323 16.6051 0 -174.068
549.125 16.4252 0 -174.335
-576.476 11.786 0 -101.261
-16.0165 14.5376 0 -140.574
545.724 16.5155 0 -174.202
-16.049 14.3495 0 -140.585
-16.0327 14.4438 0 -140.579
-573.048 11.8801 0 -101.384
-566.191 12.0673 0 -101.636
535.521 16.782 0 -173.794
542.323 16.6051 0 -174.068
-569.619 11.9739 0 -101.509
-15.9845 14.7234 0 -140.563
538.922 16.6939 0 -173.932
-16.0165 14.5376 0 -140.574
-16.0005 14.6308 0 -140.568
-566.191 12.0673 0 -101.636
-559.336 12.2529 0 -101.894
528.72 16.9559 0 -173.514
535.521 16.782 0 -173.794
-562.764 12.1603 0 -101.764
-15.9528 14.9069 0 -140.552
532.12 16.8693 0 -173.655
-15.9845 14.7234 0 -140.563
-15.9686 14.8155 0 -140.557
-559.336 12.2529 0 -101.894
-552.483 12.4371 0 -102.159
521.919 17.1268 0 -173.227
528.72 16.9559 0 -173.514
-555.909 12.3452 0 -102.026
-15.9215 15.0882 0 -140.541
525.319 17.0417 0 -173.371
-15.9528 14.9069 0 -140.552
-15.9371 14.9978 0 -140.546
-552.483 12.4371 0 -102.159
-545.63 12.6197 0 -102.431
515.119 17.2947 0 -172.934
521.919 17.1268 0 -173.227
-549.056 12.5286 0 -102.294
-15.8906 15.2671 0 -140.53
518.519 17.2111 0 -173.081
-15.9215 15.0882 0 -140.541
-15.906 15.1779 0 -140.535
-545.63 12.6197 0 -102.431
-538.779 12.8009 0 -102.709
508.319 17.4596 0 -172.635
515.119 17.2947 0 -172.934
-542.205 12.7105 0 -102.569
-15.8601 15.4437 0 -140.519
511.719 17.3775 0 -172.785
-15.8906 15.2671 0 -140.53
-15.8753 15.3557 0 -140.525
-538.779 12.8009 0 -102.709
-531.929 12.9805 0 -102.994
501.52 17.6215 0 -172.329
508.319 17.4596 0 -172.635
-535.354 12.8909 0 -102.85
-15.83 15.6181 0 -140.508
504.919 17.541 0 -172.482
-15.8601 15.4437 0 -140.519
-15.845 15.5312 0 -140.514
-531.929 12.9805 0 -102.994
-525.08 13.1587 0 -103.284
494.721 17.7805 0 -172.017
501.52 17.6215 0 -172.329
-528.504 13.0698 0 -103.138
-15.8003 15.7901 0 -140.498
498.121 17.7014 0 -172.174
-15.83 15.6181 0 -140.508
-15.8151 15.7044 0 -140.503
-525.08 13.1587 0 -103.284
-518.233 13.3353 0 -103.581
487.923 17.9364 0 -171.699
494.721 17.7805 0 -172.017
-521.656 13.2472 0 -103.432
-15.7709 15.9599 0 -140.487
491.322 17.8588 0 -171.859
-15.8003 15.7901 0 -140.498
-15.7855 15.8753 0 -140.493
-518.233 13.3353 0 -103.581
-511.386 13.5105 0 -103.885
481.126 18.0894 0 -171.375
487.923 17.9364 0 -171.699
-514.809 13.4231 0 -103.732
-15.7419 16.1274 0 -140.477
484.525 18.0133 0 -171.538
-15.7709 15.9599 0 -140.487
-15.7564 16.0439 0 -140.482
-511.386 13.5105 0 -103.885
-504.541 13.6841 0 -104.194
474.329 18.2394 0 -171.045
481.126 18.0894 0 -171.375
-507.963 13.5975 0 -104.039
-15.7134 16.2926 0 -140.467
477.727 18.1648 0 -171.211
-15.7419 16.1274 0 -140.477
-15.7276 16.2103 0 -140.472
-504.541 13.6841 0 -104.194
-497.697 13.8563 0 -104.51
467.533 18.3864 0 -170.709
474.329 18.2394 0 -171.045
-501.119 13.7704 0 -104.351
-15.6852 16.4555 0 -140.457
470.931 18.3133 0 -170.878
-15.7134 16.2926 0 -140.467
-15.6992 16.3743 0 -140.462
-497.697 13.8563 0 -104.51
-490.854 14.0269 0 -104.831
460.737 18.5305 0 -170.368
467.533 18.3864 0 -170.709
-494.275 13.9418 0 -104.669
-15.6574 16.6161 0 -140.446
464.135 18.4588 0 -170.539
-15.6852 16.4555 0 -140.457
-15.6712 16.5361 0 -140.451
-490.854 14.0269 0 -104.831
-484.012 14.196 0 -105.158
453.942 18.6716 0 -170.021
460.737 18.5305 0 -170.368
-487.433 14.1116 0 -104.994
-15.63 16.7744 0 -140.436
457.339 18.6014 0 -170.195
-15.6574 16.6161 0 -140.446
-15.6436 16.6956 0 -140.441
-484.012 14.196 0 -105.158
-477.172 14.3635 0 -105.491
447.147 18.8097 0 -169.668
453.942 18.6716 0 -170.021
-480.592 14.2799 0 -105.324
-15.6029 16.9305 0 -140.427
450.544 18.741 0 -169.845
-15.63 16.7744 0 -140.436
-15.6164 16.8528 0 -140.431
-477.172 14.3635 0 -105.491
-470.333 14.5295 0 -105.83
440.353 18.9449 0 -169.31
447.147 18.8097 0 -169.668
-473.752 14.4467 0 -105.66
-15.5763 17.0842 0 -140.417
443.75 18.8777 0 -169.49
-15.6029 16.9305 0 -140.427
-15.5896 17.0076 0 -140.422
-470.333 14.5295 0 -105.83
-463.495 14.694 0 -106.174
433.559 19.0772 0 -168.946
440.353 18.9449 0 -169.31
-466.913 14.612 0 -106.001
-15.5501 17.2357 0 -140.407
436.956 19.0114 0 -169.129
-15.5763 17.0842 0 -140.417
-15.5631 17.1603 0 -140.412
-463.495 14.694 0 -106.174
-456.657 14.857 0 -106.524
426.766 19.2065 0 -168.577
433.559 19.0772 0 -168.946
-460.076 14.7757 0 -106.348
-15.5242 17.3849 0 -140.398
430.162 19.1422 0 -168.762
-15.5501 17.2357 0 -140.407
-15.5371 17.3106 0 -140.402
-456.657 14.857 0 -106.524
-449.822 15.0184 0 -106.879
419.973 19.3329 0 -168.203
426.766 19.2065 0 -168.577
-453.239 14.9379 0 -106.701
-15.4987 17.5318 0 -140.388
423.369 19.2701 0 -168.391
-15.5242 17.3849 0 -140.398
-15.5114 17.4586 0 -140.393
-449.822 15.0184 0 -106.879
-442.987 15.1782 0 -107.239
413.181 19.4564 0 -167.824
419.973 19.3329 0 -168.203
-446.404 15.0985 0 -107.059
-15.4737 17.6764 0 -140.379
416.577 19.395 0 -168.014
-15.4987 17.5318 0 -140.388
-15.4861 17.6044 0 -140.383
-442.987 15.1782 0 -107.239
-436.153 15.3365 0 -107.605
406.389 19.5769 0 -167.44
413.181 19.4564 0 -167.824
-439.57 15.2576 0 -107.422
-15.449 17.8187 0 -140.369
409.785 19.517 0 -167.633
-15.4737 17.6764 0 -140.379
-15.4613 17.7478 0 -140.374
-436.153 15.3365 0 -107.605
-429.321 15.4932 0 -107.976
399.597 19.6945 0 -167.051
406.389 19.5769 0 -167.44
-432.737 15.4151 0 -107.79
-15.4247 17.9588 0 -140.36
402.993 19.6361 0 -167.246
-15.449 17.8187 0 -140.369
-15.4368 17.889 0 -140.365
-429.321 15.4932 0 -107.976
-422.49 15.6484 0 -108.353
392.807 19.8093 0 -166.656
399.597 19.6945 0 -167.051
-425.905 15.571 0 -108.164
-15.4008 18.0965 0 -140.351
396.202 19.7523 0 -166.854
-15.4247 17.9588 0 -140.36
-15.4127 18.0279 0 -140.356
-422.49 15.6484 0 -108.353
-415.659 15.802 0 -108.734
386.016 19.9211 0 -166.258
392.807 19.8093 0 -166.656
-419.074 15.7254 0 -108.543
-15.3772 18.232 0 -140.343
389.411 19.8655 0 -166.458
-15.4008 18.0965 0 -140.351
-15.3889 18.1645 0 -140.347
-415.659 15.802 0 -108.734
-408.83 15.954 0 -109.12
379.226 20.03 0 -165.854
386.016 19.9211 0 -166.258
-412.245 15.8782 0 -108.926
-15.3541 18.3652 0 -140.334
382.621 19.9759 0 -166.056
-15.3772 18.232 0 -140.343
-15.3656 18.2989 0 -140.338
-408.83 15.954 0 -109.12
-402.002 16.1043 0 -109.511
372.437 20.1361 0 -165.446
379.226 20.03 0 -165.854
-405.416 16.0293 0 -109.315
-15.3314 18.4961 0 -140.325
375.831 20.0834 0 -165.65
-15.3541 18.3652 0 -140.334
-15.3427 18.4309 0 -140.329
-402.002 16.1043 0 -109.511
-395.175 16.2531 0 -109.907
365.647 20.2393 0 -165.033
372.437 20.1361 0 -165.446
-398.588 16.1789 0 -109.708
-15.309 18.6247 0 -140.317
369.042 20.188 0 -165.24
-15.3314 18.4961 0 -140.325
-15.3202 18.5607 0 -140.321
-395.175 16.2531 0 -109.907
-388.349 16.4003 0 -110.307
358.859 20.3396 0 -164.615
365.647 20.2393 0 -165.033
-391.762 16.3269 0 -110.107
-15.2871 18.751 0 -140.308
362.253 20.2898 0 -164.825
-15.309 18.6247 0 -140.317
-15.298 18.6881 0 -140.312
-388.349 16.4003 0 -110.307
-381.524 16.5459 0 -110.713
352.07 20.4371 0 -164.194
358.859 20.3396 0 -164.615
-384.937 16.4733 0 -110.509
-15.2655 18.8751 0 -140.3
355.464 20.3887 0 -164.405
-15.2871 18.751 0 -140.308
-15.2762 18.8133 0 -140.304
-381.524 16.5459 0 -110.713
-374.701 16.6898 0 -111.122
345.282 20.5317 0 -163.768
352.07 20.4371 0 -164.194
-378.112 16.6181 0 -110.917
-15.2443 18.9968 0 -140.292
348.676 20.4847 0 -163.981
-15.2655 18.8751 0 -140.3
-15.2549 18.9362 0 -140.296
-374.701 16.6898 0 -111.122
-367.878 16.8322 0 -111.537
338.495 20.6234 0 -163.338
345.282 20.5317 0 -163.768
-371.289 16.7612 0 -111.329
-15.2236 19.1163 0 -140.284
341.889 20.5779 0 -163.553
-15.2443 18.9968 0 -140.292
-15.2339 19.0569 0 -140.288
-367.878 16.8322 0 -111.537
-361.056 16.9728 0 -111.955
331.708 20.7124 0 -162.903
338.495 20.6234 0 -163.338
-364.467 16.9027 0 -111.745
-15.2032 19.2335 0 -140.276
335.101 20.6683 0 -163.121
-15.2236 19.1163 0 -140.284
-15.2133 19.1752 0 -140.28
-361.056 16.9728 0 -111.955
-354.235 17.1119 0 -112.378
324.921 20.7985 0 -162.465
331.708 20.7124 0 -162.903
-357.646 17.0426 0 -112.166
-15.1832 19.3485 0 -140.268
328.314 20.7558 0 -162.685
-15.2032 19.2335 0 -140.276
-15.1931 19.2913 0 -140.272
-354.235 17.1119 0 -112.378
-347.416 17.2493 0 -112.805
318.134 20.8818 0 -162.022
324.921 20.7985 0 -162.465
-350.825 17.1808 0 -112.591
-15.1636 19.4611 0 -140.261
321.527 20.8405 0 -162.244
-15.1832 19.3485 0 -140.268
-15.1733 19.4051 0 -140.264
-347.416 17.2493 0 -112.805
-340.597 17.385 0 -113.237
311.348 20.9623 0 -161.576
318.134 20.8818 0 -162.022
-344.006 17.3173 0 -113.02
-15.1444 19.5715 0 -140.253
314.741 20.9224 0 -161.8
-15.1636 19.4611 0 -140.261
-15.1539 19.5166 0 -140.257
-340.597 17.385 0 -113.237
-333.779 17.519 0 -113.672
304.562 21.04 0 -161.126
311.348 20.9623 0 -161.576
-337.188 17.4522 0 -113.454
-15.1256 19.6796 0 -140.246
307.955 21.0015 0 -161.352
-15.1444 19.5715 0 -140.253
-15.1349 19.6258 0 -140.249
-333.779 17.519 0 -113.672
-326.963 17.6514 0 -114.111
297.777 21.1149 0 -160.673
304.562 21.04 0 -161.126
-330.371 17.5854 0 -113.891
-15.1071 19.7854 0 -140.239
301.169 21.0778 0 -160.9
-15.1256 19.6796 0 -140.246
-15.1163 19.7328 0 -140.242
-326.963 17.6514 0 -114.111
-320.147 17.7821 0 -114.554
290.992 21.1871 0 -160.215
297.777 21.1149 0 -160.673
-323.555 17.7169 0 -114.332
-15.0891 19.8889 0 -140.232
294.384 21.1513 0 -160.444
-15.1071 19.7854 0 -140.239
-15.0981 19.8374 0 -140.235
-320.147 17.7821 0 -114.554
-313.332 17.911 0 -115.002
284.207 21.2564 0 -159.754
290.992 21.1871 0 -160.215
-316.739 17.8468 0 -114.778
-15.0715 19.9901 0 -140.225
287.599 21.2221 0 -159.985
-15.0891 19.8889 0 -140.232
-15.0802 19.9398 0 -140.228
-313.332 17.911 0 -115.002
-306.518 18.0383 0 -115.452
277.422 21.3231 0 -159.29
284.207 21.2564 0 -159.754
-309.925 17.9749 0 -115.226
-15.0542 20.0891 0 -140.218
280.814 21.2901 0 -159.523
-15.0715 19.9901 0 -140.225
-15.0628 20.0399 0 -140.221
-306.518 18.0383 0 -115.452
-299.705 18.1638 0 -115.907
270.638 21.3869 0 -158.822
277.422 21.3231 0 -159.29
-303.112 18.1013 0 -115.679
-15.0374 20.1858 0 -140.211
274.03 21.3553 0 -159.056
-15.0542 20.0891 0 -140.218
-15.0458 20.1377 0 -140.214
-299.705 18.1638 0 -115.907
-292.893 18.2877 0 -116.365
263.854 21.4481 0 -158.351
270.638 21.3869 0 -158.822
-296.299 18.226 0 -116.135
-15.0209 20.2802 0 -140.205
267.246 21.4178 0 -158.587
-15.0374 20.1858 0 -140.211
-15.0291 20.2333 0 -140.208
-292.893 18.2877 0 -116.365
-286.082 18.4097 0 -116.826
257.07 21.5065 0 -157.877
263.854 21.4481 0 -158.351
-289.488 18.3489 0 -116.595
-15.0049 20.3723 0 -140.198
260.462 21.4776 0 -158.114
-15.0209 20.2802 0 -140.205
-15.0129 20.3265 0 -140.201
-286.082 18.4097 0 -116.826
-279.272 18.5301 0 -117.291
250.286 21.5622 0 -157.399
257.07 21.5065 0 -157.877
-282.677 18.4701 0 -117.058
-14.9892 20.4622 0 -140.192
253.678 21.5347 0 -157.639
-15.0049 20.3723 0 -140.198
-14.997 20.4175 0 -140.195
-279.272 18.5301 0 -117.291
-272.463 18.6486 0 -117.76
243.503 21.6152 0 -156.919
250.286 21.5622 0 -157.399
-275.868 18.5896 0 -117.525
-14.9739 20.5498 0 -140.186
246.894 21.589 0 -157.16
-14.9892 20.4622 0 -140.192
-14.9815 20.5063 0 -140.189
-272.463 18.6486 0 -117.76
-265.655 18.7654 0 -118.231
236.72 21.6655 0 -156.436
243.503 21.6152 0 -156.919
-269.059 18.7073 0 -117.995
-14.9591 20.635 0 -140.18
240.111 21.6406 0 -156.678
-14.9739 20.5498 0 -140.186
-14.9665 20.5927 0 -140.183
-265.655 18.7654 0 -118.231
-258.847 18.8805 0 -118.706
229.937 21.7131 0 -155.949
236.72 21.6655 0 -156.436
-262.251 18.8232 0 -118.468
-14.9446 20.7181 0 -140.174
233.328 21.6896 0 -156.193
-14.9591 20.635 0 -140.18
-14.9518 20.6768 0 -140.177
-258.847 18.8805 0 -118.706
-252.04 18.9937 0 -119.184
223.154 21.758 0 -155.46
229.937 21.7131 0 -155.949
-255.444 18.9373 0 -118.944
-14.9305 20.7988 0 -140.169
226.545 21.7359 0 -155.705
-14.9446 20.7181 0 -140.174
-14.9375 20.7587 0 -140.171
-252.04 18.9937 0 -119.184
-245.235 19.1051 0 -119.664
216.371 21.8003 0 -154.969
223.154 21.758 0 -155.46
-248.637 19.0496 0 -119.424
-14.9168 20.8772 0 -140.163
219.762 21.7795 0 -155.215
-14.9305 20.7988 0 -140.169
-14.9236 20.8383 0 -140.166
-245.235 19.1051 0 -119.664
-238.43 19.2147 0 -120.148
209.589 21.8399 0 -154.474
216.371 21.8003 0 -154.969
-241.832 19.1601 0 -119.906
-14.9035 20.9534 0 -140.158
212.98 21.8204 0 -154.722
-14.9168 20.8772 0 -140.163
-14.9101 20.9156 0 -140.161
-238.43 19.2147 0 -120.148
-231.625 19.3225 0 -120.635
202.806 21.8768 0 -153.977
209.589 21.8399 0 -154.474
-235.027 19.2688 0 -120.391
-14.8906 21.0273 0 -140.153
206.197 21.8587 0 -154.226
-14.9035 20.9534 0 -140.158
-14.897 20.9906 0 -140.155
-231.625 19.3225 0 -120.635
-224.822 19.4284 0 -121.124
196.024 21.9112 0 -153.478
202.806 21.8768 0 -153.977
-228.224 19.3756 0 -120.879
-14.8781 21.0988 0 -140.148
199.415 21.8943 0 -153.728
-14.8906 21.0273 0 -140.153
-14.8843 21.0633 0 -140.15
-224.822 19.4284 0 -121.124
-218.019 19.5324 0 -121.616
189.242 21.9428 0 -152.976
196.024 21.9112 0 -153.478
-221.421 19.4806 0 -121.37
-14.8659 21.1681 0 -140.143
192.633 21.9273 0 -153.227
-14.8781 21.0988 0 -140.148
-14.872 21.1338 0 -140.145
-218.019 19.5324 0 -121.616
-211.217 19.6345 0 -122.111
182.46 21.9718 0 -152.472
189.242 21.9428 0 -152.976
-214.618 19.5837 0 -121.863
-14.8542 21.2351 0 -140.138
185.851 21.9577 0 -152.724
-14.8659 21.1681 0 -140.143
-14.86 21.2019 0 -140.14
-211.217 19.6345 0 -122.111
-204.416 19.7348 0 -122.608
175.678 21.9982 0 -151.966
182.46 21.9718 0 -152.472
-207.817 19.6849 0 -122.359
-14.8427 21.2997 0 -140.134
179.069 21.9854 0 -152.219
-14.8542 21.2351 0 -140.138
-14.8484 21.2677 0 -140.136
-204.416 19.7348 0 -122.608
-197.616 19.833 0 -123.107
168.897 22.022 0 -151.457
175.678 21.9982 0 -151.966
-201.016 19.7841 0 -122.857
-14.8316 21.362 0 -140.129
172.287 22.0104 0 -151.712
-14.8427 21.2997 0 -140.134
-14.8371 21.3311 0 -140.131
-197.616 19.833 0 -123.107
-190.816 19.9294 0 -123.609
162.115 22.0431 0 -150.947
168.897 22.022 0 -151.457
-194.216 19.8814 0 -123.358
-14.8208 21.4219 0 -140.125
165.506 22.0329 0 -151.202
-14.8316 21.362 0 -140.129
-14.8261 21.3922 0 -140.127
-190.816 19.9294 0 -123.609
-184.016 20.0237 0 -124.113
155.334 22.0616 0 -150.435
162.115 22.0431 0 -150.947
-187.416 19.9768 0 -123.861
-14.8102 21.4795 0 -140.121
158.724 22.0527 0 -150.691
-14.8208 21.4219 0 -140.125
-14.8155 21.451 0 -140.123
-184.016 20.0237 0 -124.113
-177.218 20.1161 0 -124.62
148.553 22.0775 0 -149.921
155.334 22.0616 0 -150.435
-180.617 20.0702 0 -124.366
-14.7998 21.5348 0 -140.117
151.943 22.0699 0 -150.178
-14.8102 21.4795 0 -140.121
-14.805 21.5074 0 -140.119
-177.218 20.1161 0 -124.62
-170.419 20.2066 0 -125.128
141.772 22.0909 0 -149.405
148.553 22.0775 0 -149.921
-173.819 20.1616 0 -124.874
-14.7897 21.5878 0 -140.113
145.162 22.0845 0 -149.663
-14.7998 21.5348 0 -140.117
-14.7947 21.5616 0 -140.115
-170.419 20.2066 0 -125.128
-163.622 20.2953 0 -125.639
134.991 22.1018 0 -148.887
141.772 22.0909 0 -149.405
-167.021 20.2512 0 -125.383
-14.7796 21.6387 0 -140.109
138.381 22.0966 0 -149.146
-14.7897 21.5878 0 -140.113
-14.7846 21.6135 0 -140.111
-163.622 20.2953 0 -125.639
-156.824 20.3824 0 -126.151
128.211 22.1104 0 -148.368
134.991 22.1018 0 -148.887
-160.223 20.3391 0 -125.894
-14.7697 21.6875 0 -140.106
131.601 22.1064 0 -148.627
-14.7796 21.6387 0 -140.109
-14.7746 21.6633 0 -140.108
-156.824 20.3824 0 -126.151
-150.028 20.4682 0 -126.665
121.431 22.1171 0 -147.846
128.211 22.1104 0 -148.368
-153.426 20.4254 0 -126.407
-14.7599 21.7348 0 -140.102
124.821 22.114 0 -148.107
-14.7697 21.6875 0 -140.106
-14.7648 21.7113 0 -140.104
-150.028 20.4682 0 -126.665
-143.232 20.553 0 -127.18
114.651 22.1223 0 -147.323
121.431 22.1171 0 -147.846
-146.629 20.5107 0 -126.922
-14.7504 21.7808 0 -140.098
118.041 22.1199 0 -147.585
-14.7599 21.7348 0 -140.102
-14.7551 21.7579 0 -140.1
-143.232 20.553 0 -127.18
-136.436 20.6377 0 -127.698
107.872 22.1269 0 -146.798
114.651 22.1223 0 -147.323
-139.834 20.5953 0 -127.439
-14.7415 21.8265 0 -140.094
111.262 22.1246 0 -147.061
-14.7504 21.7808 0 -140.098
-14.7459 21.8036 0 -140.096
-136.436 20.6377 0 -127.698
-129.643 20.7228 0 -128.217
101.092 22.1322 0 -146.271
107.872 22.1269 0 -146.798
-133.039 20.6801 0 -127.957
-14.7339 21.8729 0 -140.09
104.482 22.1293 0 -146.535
-14.7415 21.8265 0 -140.094
-14.7375 21.8495 0 -140.092
-129.643 20.7228 0 -128.217
-122.852 20.8093 0 -128.739
94.3096 22.1405 0 -145.741
101.092 22.1322 0 -146.271
-126.247 20.7658 0 -128.478
-14.7287 21.9217 0 -140.087
97.7012 22.1358 0 -146.006
-14.7339 21.8729 0 -140.09
-14.7309 21.8968 0 -140.088
-122.852 20.8093 0 -128.739
-116.064 20.8977 0 -129.268
87.5232 22.1561 0 -145.211
94.3096 22.1405 0 -145.741
-119.457 20.8533 0 -129.003
-14.7278 21.9755 0 -140.087
90.917 22.147 0 -145.476
-14.7287 21.9217 0 -140.087
-14.7276 21.9478 0 -140.086
-116.064 20.8977 0 -129.268
-109.278 20.9884 0 -129.807
80.7255 22.1851 0 -144.683
87.5232 22.1561 0 -145.211
-112.671 20.9428 0 -129.535
-14.7347 22.0378 0 -140.095
84.1265 22.1684 0 -144.947
-14.7278 21.9755 0 -140.087
-14.73 22.0053 0 -140.09
-109.278 20.9884 0 -129.807
-102.496 21.0783 0 -130.369
73.9085 22.2401 0 -144.165
80.7255 22.1851 0 -144.683
-105.886 21.0338 0 -130.084
-14.7548 22.1139 0 -140.124
77.3196 22.2083 0 -144.422
-14.7347 22.0378 0 -140.095
-14.7427 22.0738 0 -140.106
-102.496 21.0783 0 -130.369
-95.7085 21.1644 0 -130.978
67.0461 22.3377 0 -143.673
73.9085 22.2401 0 -144.165
-99.1048 21.1223 0 -130.666
-14.7971 22.2112 0 -140.197
70.4859 22.282 0 -143.915
-14.7548 22.1139 0 -140.124
-14.7724 22.1593 0 -140.152
-95.7085 21.1644 0 -130.978
-88.9142 21.2301 0 -131.673
60.1135 22.5132 0 -143.239
67.0461 22.3377 0 -143.673
-92.3106 21.2012 0 -131.311
-14.8755 22.3404 0 -140.356
63.5888 22.4128 0 -143.446
-14.7971 22.2112 0 -140.197
-14.8308 22.2711 0 -140.263
-88.9142 21.2301 0 -131.673
-82.0649 21.2667 0 -132.531
53.0234 22.8026 0 -142.921
60.1135 22.5132 0 -143.239
-85.5035 21.2534 0 -132.074
-15.0115 22.5168 0 -140.681
56.5983 22.6402 0 -143.06
-14.8755 22.3404 0 -140.356
-14.9343 22.4213 0 -140.49
-82.0649 21.2667 0 -132.531
-75.1569 21.2227 0 -133.668
45.7179 23.2918 0 -142.815
53.0234 22.8026 0 -142.921
-78.6121 21.2576 0 -133.056
-15.2362 22.76 0 -141.298
49.3955 23.0171 0 -142.833
-15.0115 22.5168 0 -140.681
-15.1111 22.6292 0 -140.947
-75.1569 21.2227 0 -133.668
-68.0218 21.1148 0 -135.273
37.9497 24.0089 0 -143.079
45.7179 23.2918 0 -142.815
-71.643 21.1775 0 -134.395
-15.5915 23.0946 0 -142.393
41.9232 23.6178 0 -142.889
-15.2362 22.76 0 -141.298
-15.3929 22.9133 0 -141.762
-68.0218 21.1148 0 -135.273
-60.7015 20.8477 0 -137.554
29.6759 25.0827 0 -143.907
37.9497 24.0089 0 -143.079
-64.3584 20.9979 0 -136.318
-16.1238 23.5379 0 -144.199
33.8547 24.5037 0 -143.408
-15.5915 23.0946 0 -142.393
-15.8354 23.3042 0 -143.208
-60.7015 20.8477 0 -137.554
-52.7639 20.7148 0 -140.742
20.3799 26.2235 0 -145.52
29.6759 25.0827 0 -143.907
-56.885 20.7482 0 -139.015
-16.8655 24.0837 0 -146.89
25.2367 25.6623 0 -144.603
-16.1238 23.5379 0 -144.199
-16.4615 23.7962 0 -145.395
-52.7639 20.7148 0 -140.742
-44.6736 20.7594 0 -144.659
10.5813 27.2306 0 -147.87
20.3799 26.2235 0 -145.52
-48.6253 20.6576 0 -142.654
-17.7715 24.6298 0 -150.288
15.4193 26.8217 0 -146.615
-16.8655 24.0837 0 -146.89
-17.3156 24.3763 0 -148.595
-44.6736 20.7594 0 -144.659
-35.7437 22.6543 0 -148.402
-0.103275 25.9768 0 -150.339
10.5813 27.2306 0 -147.87
-40.4962 21.3855 0 -146.632
-18.6126 24.8893 0 -153.197
5.5019 27.0193 0 -149.172
-17.7715 24.6298 0 -150.288
-18.2044 24.8086 0 -151.822
-35.7437 22.6543 0 -148.402
-28.0782 26.9698 0 -148.714
-8.48683 20.6765 0 -150.335
-0.103275 25.9768 0 -150.339
-31.3699 24.3332 0 -149.34
-18.7909 24.2123 0 -152.455
-5.07399 24.1248 0 -150.889
-18.6126 24.8893 0 -153.197
-18.8729 24.751 0 -153.769
-28.0782 26.9698 0 -148.714
-19.647 37.0461 0 -139.897
-14.69 5.95724 0 -142.699
-8.48683 20.6765 0 -150.335
-24.4664 31.5071 0 -145.839
-17.3846 21.653 0 -142.741
-11.505 14.4233 0 -147.961
-18.7909 24.2123 0 -152.455
-18.2912 23.1798 0 -148.76
-19.647 37.0461 0 -139.897
-14.3946 45.1546 0 -113.046
-11.7099 -13.2224 0 -118.312
-14.69 5.95724 0 -142.699
-15.7419 41.6461 0 -129.387
-13.2122 16.0887 0 -117.269
-15.4392 -3.22558 0 -133.139
-17.3846 21.653 0 -142.741
-15.8259 19.4153 0 -133.034
-14.3946 45.1546 0 -113.046
-9.41216 54.0379 0 -62.5909
-0.536097 -40.6348 0 -70.472
-11.7099 -13.2224 0 -118.312
-13.0526 49.0949 0 -90.8421
-4.10638 6.85326 0 -64.6409
-6.01784 -25.5275 0 -97.6811
-13.2122 16.0887 0 -117.269
-9.37013 11.6508 0 -94.4613
1282.14 384.899 0 521.362
1252.15 205.393 0 171.642
3936.7 679.829 0 -16.9497
3620.96 1083.01 0 330.08
1228.97 295.738 0 328.493
2592.17 441.875 0 98.56
3835.17 866.75 0 120.72
2396.63 718.01 0 475.343
2535.21 599.795 0 233.672
1252.15 205.393 0 171.642
1321.55 116.741 0 -38.8095
4013.21 291.569 0 -127.292
3936.7 679.829 0 -16.9497
1305.65 155.972 0 47.9843
2655.25 222.422 0 -71.0303
3970.87 471.518 0 -87.4524
2592.17 441.875 0 98.56
2620.96 314.719 0 6.89667
1321.55 116.741 0 -38.8095
1326.62 37.3403 0 -134.835
4052.84 94.4853 0 -151.183
4013.21 291.569 0 -127.292
1319.29 72.8967 0 -96.569
2688.17 79.7969 0 -145.523
4050.51 173.36 0 -147.755
2655.25 222.422 0 -71.0303
2680.47 144.187 0 -122.062
1326.62 37.3403 0 -134.835
1330.86 -0.195601 0 -169.73
4022.79 2.42347 0 -143.45
4052.84 94.4853 0 -151.183
1334.7 15.421 0 -158.055
2680.45 8.73271 0 -163.519
4036.46 37.586 0 -146.729
2688.17 79.7969 0 -145.523
2686.56 36.168 0 -156.602
1330.86 -0.195601 0 -169.73
1316.72 -20.0309 0 -174.265
3986.89 -25.0173 0 -138.854
4022.79 2.42347 0 -143.45
1322.03 -12.6762 0 -173.891
2656.22 -21.7487 0 -162.891
4007.91 -15.7268 0 -141.194
2680.45 8.73271 0 -163.519
2669.81 -9.93426 0 -165.11
1316.72 -20.0309 0 -174.265
1304.8 -24.1901 0 -169.135
3945.12 -31.9893 0 -136.614
3986.89 -25.0173 0 -138.854
1312.11 -22.9561 0 -172.318
2628.11 -29.2178 0 -158.266
3964.02 -30.4587 0 -136.98
2656.22 -21.7487 0 -162.891
2641.75 -27.4978 0 -160.153
1304.8 -24.1901 0 -169.135
1290.62 -24.6778 0 -162.25
3911.25 -28.907 0 -137.764
3945.12 -31.9893 0 -136.614
1296.79 -24.9275 0 -165.53
2602.59 -28.6733 0 -154.341
3928.23 -30.8587 0 -137.109
2628.11 -29.2178 0 -158.266
2614.98 -29.4187 0 -156.322
1290.62 -24.6778 0 -162.25
1279.65 -22.719 0 -156.977
3880.67 -24.8615 0 -139.826
3911.25 -28.907 0 -137.764
1285.28 -23.7193 0 -159.382
2580.59 -25.3647 0 -152.139
3895.01 -26.9773 0 -138.617
2602.59 -28.6733 0 -154.341
2591.1 -27.1843 0 -152.91
1279.65 -22.719 0 -156.977
1269.48 -20.9986 0 -153.618
3854.66 -20.871 0 -142.597
3880.67 -24.8615 0 -139.826
1274.19 -21.8732 0 -155.046
2561.68 -22.1877 0 -151.423
3867.48 -22.719 0 -141.213
2580.59 -25.3647 0 -152.139
2570.82 -23.6847 0 -151.672
1269.48 -20.9986 0 -153.618
1260.92 -19.3758 0 -151.912
3830.69 -18.0643 0 -145.432
3854.66 -20.871 0 -142.597
1265.18 -20.1232 0 -152.6
2544.91 -19.6261 0 -151.781
3842.34 -19.3618 0 -143.992
2561.68 -22.1877 0 -151.423
2553.07 -20.8245 0 -151.471
1260.92 -19.3758 0 -151.912
1252.95 -18.2005 0 -151.301
3808.41 -16.0474 0 -148.307
3830.69 -18.0643 0 -145.432
1256.81 -18.7572 0 -151.494
2529.49 -17.8053 0 -152.788
3819.46 -16.9493 0 -146.883
2544.91 -19.6261 0 -151.781
2537.08 -18.6296 0 -152.235
1252.95 -18.2005 0 -151.301
1245.56 -17.2579 0 -151.38
3786.87 -14.711 0 -151.104
3808.41 -16.0474 0 -148.307
1249.23 -17.6945 0 -151.278
2514.88 -16.5097 0 -154.171
3797.54 -15.3194 0 -149.711
2529.49 -17.8053 0 -152.788
2522.11 -17.1039 0 -153.441
1245.56 -17.2579 0 -151.38
1238.4 -16.5295 0 -151.842
3765.83 -13.7609 0 -153.836
3786.87 -14.711 0 -151.104
1241.94 -16.8769 0 -151.576
2500.71 -15.5791 0 -155.739
3776.32 -14.1935 0 -152.481
2514.88 -16.5097 0 -154.171
2507.75 -16.0077 0 -154.942
1238.4 -16.5295 0 -151.842
1231.42 -15.9122 0 -152.509
3745 -13.0646 0 -156.491
3765.83 -13.7609 0 -153.836
1234.9 -16.2076 0 -152.159
2486.77 -14.8658 0 -157.389
3755.39 -13.391 0 -155.172
2500.71 -15.5791 0 -155.739
2493.72 -15.2018 0 -156.557
1231.42 -15.9122 0 -152.509
1224.51 -15.374 0 -153.269
3724.28 -12.5012 0 -159.08
3745 -13.0646 0 -156.491
1227.95 -15.6365 0 -152.881
2472.95 -14.2817 0 -159.059
3734.63 -12.7695 0 -157.794
2486.77 -14.8658 0 -157.389
2479.85 -14.5615 0 -158.224
1224.51 -15.374 0 -153.269
1217.65 -14.8779 0 -154.067
3703.61 -12.0148 0 -161.605
3724.28 -12.5012 0 -159.08
1221.08 -15.1214 0 -153.666
2459.19 -13.7691 0 -160.72
3713.94 -12.2515 0 -160.35
2472.95 -14.2817 0 -159.059
2466.06 -14.0188 0 -159.892
1217.65 -14.8779 0 -154.067
1210.81 -14.4097 0 -154.871
3682.97 -11.5665 0 -164.074
3703.61 -12.0148 0 -161.605
1214.23 -14.6413 0 -154.469
2445.45 -13.2962 0 -162.356
3693.29 -11.787 0 -162.846
2459.19 -13.7691 0 -160.72
2452.32 -13.5289 0 -161.542
1210.81 -14.4097 0 -154.871
1203.98 -13.9575 0 -155.668
3662.32 -11.1386 0 -166.488
3682.97 -11.5665 0 -164.074
1207.4 -14.1819 0 -155.271
2431.72 -12.8448 0 -163.963
3672.64 -11.3509 0 -165.288
2445.45 -13.2962 0 -162.356
2438.59 -13.0685 0 -163.163
1203.98 -13.9575 0 -155.668
1197.16 -13.5162 0 -156.453
3641.68 -10.7205 0 -168.852
3662.32 -11.1386 0 -166.488
1200.57 -13.7358 0 -156.062
2418 -12.4054 0 -165.537
3652 -10.9287 0 -167.677
2431.72 -12.8448 0 -163.963
2424.86 -12.624 0 -164.754
1197.16 -13.5162 0 -156.453
1190.34 -13.0822 0 -157.221
3621.04 -10.3075 0 -171.168
3641.68 -10.7205 0 -168.852
1193.75 -13.2984 0 -156.839
2404.28 -11.973 0 -167.079
3631.36 -10.5136 0 -170.016
2418 -12.4054 0 -165.537
2411.14 -12.1886 0 -166.312
1190.34 -13.0822 0 -157.221
1183.53 -12.6534 0 -157.974
3600.39 -9.89691 0 -173.436
3621.04 -10.3075 0 -171.168
1186.94 -12.8672 0 -157.599
2390.56 -11.5449 0 -168.589
3610.71 -10.102 0 -172.308
2404.28 -11.973 0 -167.079
2397.42 -11.7585 0 -167.838
1183.53 -12.6534 0 -157.974
1176.71 -12.2287 0 -158.71
3579.74 -9.48761 0 -175.658
3600.39 -9.89691 0 -173.436
1180.12 -12.4406 0 -158.344
2376.84 -11.1196 0 -170.068
3590.06 -9.69215 0 -174.553
2390.56 -11.5449 0 -168.589
2383.7 -11.3319 0 -169.332
1176.71 -12.2287 0 -158.71
1169.89 -11.8072 0 -159.431
3559.09 -9.07901 0 -177.835
3579.74 -9.48761 0 -175.658
1173.3 -12.0176 0 -159.072
2363.12 -10.6963 0 -171.516
3569.41 -9.28324 0 -176.753
2376.84 -11.1196 0 -170.068
2369.98 -10.9077 0 -170.796
1169.89 -11.8072 0 -159.431
1163.07 -11.3883 0 -160.137
3538.44 -8.67085 0 -179.968
3559.09 -9.07901 0 -177.835
1166.48 -11.5974 0 -159.786
2349.39 -10.2747 0 -172.935
3548.76 -8.87488 0 -178.907
2363.12 -10.6963 0 -171.516
2356.25 -10.4853 0 -172.229
1163.07 -11.3883 0 -160.137
1156.25 -10.9718 0 -160.827
3517.78 -8.263 0 -182.057
3538.44 -8.67085 0 -179.968
1159.66 -11.1798 0 -160.484
2335.66 -9.85444 0 -174.324
3528.11 -8.46689 0 -181.018
2349.39 -10.2747 0 -172.935
2342.53 -10.0644 0 -173.633
1156.25 -10.9718 0 -160.827
1149.43 -10.5574 0 -161.503
3497.12 -7.85545 0 -184.102
3517.78 -8.263 0 -182.057
1152.84 -10.7643 0 -161.167
2321.94 -9.43544 0 -175.684
3507.45 -8.05919 0 -183.085
2335.66 -9.85444 0 -174.324
2328.8 -9.64479 0 -175.008
1149.43 -10.5574 0 -161.503
1142.61 -10.1449 0 -162.165
3476.47 -7.44821 0 -186.104
3497.12 -7.85545 0 -184.102
1146.02 -10.3509 0 -161.836
2308.21 -9.01762 0 -177.015
3486.8 -7.65179 0 -185.109
2321.94 -9.43544 0 -175.684
2315.07 -9.22638 0 -176.353
1142.61 -10.1449 0 -162.165
1135.79 -9.7343 0 -162.812
3455.81 -7.04132 0 -188.064
3476.47 -7.44821 0 -186.104
1139.2 -9.93937 0 -162.49
2294.48 -8.60097 0 -178.318
3466.14 -7.24472 0 -187.089
2308.21 -9.01762 0 -177.015
2301.34 -8.80915 0 -177.67
1135.79 -9.7343 0 -162.812
1128.97 -9.32553 0 -163.445
3435.15 -6.63486 0 -189.98
3455.81 -7.04132 0 -188.064
1132.38 -9.52969 0 -163.13
2280.75 -8.18549 0 -179.592
3445.48 -6.83804 0 -189.027
2294.48 -8.60097 0 -178.318
2287.61 -8.39308 0 -178.958
1128.97 -9.32553 0 -163.445
1122.14 -8.91859 0 -164.063
3414.49 -6.22891 0 -191.855
3435.15 -6.63486 0 -189.98
1125.56 -9.12183 0 -163.756
2267.01 -7.77123 0 -180.838
3424.82 -6.43182 0 -190.923
2280.75 -8.18549 0 -179.592
2273.88 -7.9782 0 -180.218
1122.14 -8.91859 0 -164.063
1115.32 -8.51349 0 -164.667
3393.82 -5.82356 0 -193.687
3414.49 -6.22891 0 -191.855
1118.73 -8.71581 0 -164.367
2253.28 -7.35823 0 -182.055
3404.16 -6.02615 0 -192.776
2267.01 -7.77123 0 -180.838
2260.15 -7.56456 0 -181.45
1115.32 -8.51349 0 -164.667
1108.5 -8.11024 0 -165.258
3373.16 -5.4189 0 -195.478
3393.82 -5.82356 0 -193.687
1111.91 -8.31163 0 -164.964
2239.55 -6.94655 0 -183.245
3383.49 -5.62114 0 -194.588
2253.28 -7.35823 0 -182.055
2246.41 -7.15222 0 -182.654
1108.5 -8.11024 0 -165.258
1101.67 -7.70887 0 -165.834
3352.5 -5.01504 0 -197.227
3373.16 -5.4189 0 -195.478
1105.08 -7.90932 0 -165.548
2225.81 -6.53626 0 -184.407
3362.83 -5.21686 0 -196.358
2239.55 -6.94655 0 -183.245
2232.68 -6.74123 0 -183.83
1101.67 -7.70887 0 -165.834
1094.84 -7.30943 0 -166.397
3331.84 -4.61207 0 -198.935
3352.5 -5.01504 0 -197.227
1098.26 -7.50891 0 -166.117
2212.08 -6.12742 0 -185.542
3342.17 -4.81343 0 -198.086
2225.81 -6.53626 0 -184.407
2218.95 -6.33165 0 -184.978
1094.84 -7.30943 0 -166.397
1088.02 -6.91194 0 -166.946
3311.17 -4.21009 0 -200.602
3331.84 -4.61207 0 -198.935
1091.43 -7.11044 0 -166.673
2198.34 -5.7201 0 -186.649
3321.5 -4.41095 0 -199.774
2212.08 -6.12742 0 -185.542
2205.21 -5.92357 0 -186.099
1088.02 -6.91194 0 -166.946
1081.19 -6.51643 0 -167.481
3290.51 -3.80919 0 -202.228
3311.17 -4.21009 0 -200.602
1084.6 -6.71393 0 -167.215
2184.61 -5.31437 0 -187.73
3300.84 -4.0095 0 -201.42
2198.34 -5.7201 0 -186.649
2191.48 -5.51703 0 -187.193
1081.19 -6.51643 0 -167.481
1074.36 -6.12295 0 -168.002
3269.84 -3.40948 0 -203.814
3290.51 -3.80919 0 -202.228
1077.78 -6.31944 0 -167.743
2170.87 -4.91028 0 -188.783
3280.17 -3.60918 0 -203.026
2184.61 -5.31437 0 -187.73
2177.74 -5.11211 0 -188.259
1074.36 -6.12295 0 -168.002
1067.54 -5.73152 0 -168.51
3249.18 -3.01104 0 -205.36
3269.84 -3.40948 0 -203.814
1070.95 -5.92698 0 -168.258
2157.13 -4.5079 0 -189.809
3259.51 -3.2101 0 -204.592
2170.87 -4.91028 0 -188.783
2164 -4.70887 0 -189.299
1067.54 -5.73152 0 -168.51
1060.71 -5.34218 0 -169.005
3228.51 -2.61397 0 -206.865
3249.18 -3.01104 0 -205.36
1064.12 -5.53659 0 -168.759
2143.4 -4.1073 0 -190.808
3238.85 -2.81233 0 -206.117
2157.13 -4.5079 0 -189.809
2150.27 -4.30738 0 -190.312
1060.71 -5.34218 0 -169.005
1053.88 -4.95496 0 -169.486
3207.85 -2.21836 0 -208.331
3228.51 -2.61397 0 -206.865
1057.29 -5.1483 0 -169.247
2129.66 -3.70854 0 -191.781
3218.18 -2.41598 0 -207.603
2143.4 -4.1073 0 -190.808
2136.53 -3.90769 0 -191.298
1053.88 -4.95496 0 -169.486
1047.05 -4.56988 0 -169.954
3187.19 -1.82429 0 -209.757
3207.85 -2.21836 0 -208.331
1050.46 -4.76215 0 -169.722
2115.92 -3.31166 0 -192.728
3197.52 -2.02112 0 -209.049
2129.66 -3.70854 0 -191.781
2122.79 -3.50986 0 -192.258
1047.05 -4.56988 0 -169.954
1040.22 -4.18698 0 -170.409
3166.52 -1.43184 0 -211.145
3187.19 -1.82429 0 -209.757
1043.64 -4.37816 0 -170.183
2102.19 -2.91674 0 -193.649
3176.85 -1.62786 0 -210.456
2115.92 -3.31166 0 -192.728
2109.06 -3.11395 0 -193.192
1040.22 -4.18698 0 -170.409
1033.39 -3.80629 0 -170.851
3145.86 -1.04111 0 -212.493
3166.52 -1.43184 0 -211.145
1036.81 -3.99636 0 -170.632
2088.45 -2.52382 0 -194.543
3156.19 -1.23626 0 -211.824
2102.19 -2.91674 0 -193.649
2095.32 -2.72002 0 -194.099
1033.39 -3.80629 0 -170.851
1026.56 -3.42783 0 -171.28
3125.19 -0.65217 0 -213.802
3145.86 -1.04111 0 -212.493
1029.98 -3.61678 0 -171.067
2074.71 -2.13296 0 -195.412
3135.53 -0.84641 0 -213.152
2088.45 -2.52382 0 -194.543
2081.58 -2.32813 0 -194.981
1026.56 -3.42783 0 -171.28
1019.73 -3.05163 0 -171.696
3104.53 -0.265103 0 -215.073
3125.19 -0.65217 0 -213.802
1023.15 -3.23945 0 -171.49
2060.98 -1.74421 0 -196.255
3114.86 -0.458397 0 -214.443
2074.71 -2.13296 0 -195.412
2067.85 -1.93832 0 -195.837
1019.73 -3.05163 0 -171.696
1012.9 -2.67772 0 -172.099
3083.87 0.120012 0 -216.306
3104.53 -0.265103 0 -215.073
1016.32 -2.86439 0 -171.899
2047.24 -1.35763 0 -197.073
3094.2 -0.0722967 0 -215.695
2060.98 -1.74421 0 -196.255
2054.11 -1.55065 0 -196.667
1012.9 -2.67772 0 -172.099
1006.07 -2.30611 0 -172.49
3063.21 0.503099 0 -217.501
3083.87 0.120012 0 -216.306
1009.49 -2.49162 0 -172.296
2033.5 -0.973271 0 -197.865
3073.54 0.311814 0 -216.909
2047.24 -1.35763 0 -197.073
2040.37 -1.16517 0 -197.472
1006.07 -2.30611 0 -172.49
999.243 -1.93685 0 -172.868
3042.55 0.884083 0 -218.659
3063.21 0.503099 0 -217.501
1002.66 -2.12119 0 -172.68
2019.77 -0.591176 0 -198.632
3052.88 0.693859 0 -218.085
2033.5 -0.973271 0 -197.865
2026.64 -0.781937 0 -198.252
999.243 -1.93685 0 -172.868
992.413 -1.56994 0 -173.233
3021.89 1.26289 0 -219.779
3042.55 0.884083 0 -218.659
995.828 -1.7531 0 -173.052
2006.03 -0.211397 0 -199.374
3032.22 1.07376 0 -219.223
2019.77 -0.591176 0 -198.632
2012.9 -0.400994 0 -199.006
992.413 -1.56994 0 -173.233
985.583 -1.20542 0 -173.586
3001.23 1.63945 0 -220.861
3021.89 1.26289 0 -219.779
988.998 -1.38738 0 -173.411
1992.3 0.166017 0 -200.092
3011.56 1.45145 0 -220.325
2006.03 -0.211397 0 -199.374
1999.17 -0.0223915 0 -199.736
985.583 -1.20542 0 -173.586
978.753 -0.843314 0 -173.927
2980.57 2.01369 0 -221.907
3001.23 1.63945 0 -220.861
982.168 -1.02407 0 -173.758
1978.56 0.541021 0 -200.785
2990.9 1.82686 0 -221.389
1992.3 0.166017 0 -200.092
1985.43 0.353824 0 -200.441
978.753 -0.843314 0 -173.927
971.923 -0.483635 0 -174.255
2959.92 2.38554 0 -222.917
2980.57 2.01369 0 -221.907
975.338 -0.663169 0 -174.092
1964.83 0.913567 0 -201.453
2970.25 2.19992 0 -222.417
1978.56 0.541021 0 -200.785
1971.7 0.727604 0 -201.122
971.923 -0.483635 0 -174.255
965.092 -0.12641 0 -174.571
2939.26 2.75493 0 -223.89
2959.92 2.38554 0 -222.917
968.508 -0.304714 0 -174.415
1951.09 1.28361 0 -202.097
2949.59 2.57055 0 -223.408
1964.83 0.913567 0 -201.453
1957.96 1.09891 0 -201.778
965.092 -0.12641 0 -174.571
958.262 0.228339 0 -174.875
2918.61 3.1218 0 -224.827
2939.26 2.75493 0 -223.89
961.677 0.0512753 0 -174.725
1937.36 1.65111 0 -202.717
2928.94 2.93869 0 -224.363
1951.09 1.28361 0 -202.097
1944.23 1.46768 0 -202.41
958.262 0.228339 0 -174.875
951.432 0.58059 0 -175.167
2897.96 3.48609 0 -225.728
2918.61 3.1218 0 -224.827
954.847 0.404778 0 -175.023
1923.63 2.01602 0 -203.313
2908.28 3.30427 0 -225.281
1937.36 1.65111 0 -202.717
1930.5 1.83389 0 -203.018
951.432 0.58059 0 -175.167
944.602 0.930324 0 -175.448
2877.31 3.84773 0 -226.593
2897.96 3.48609 0 -225.728
948.017 0.755773 0 -175.309
1909.9 2.3783 0 -203.886
2887.63 3.66724 0 -226.165
1923.63 2.01602 0 -203.313
1916.76 2.19749 0 -203.603
944.602 0.930324 0 -175.448
937.773 1.27752 0 -175.716
2856.66 4.20665 0 -227.423
2877.31 3.84773 0 -226.593
941.187 1.10424 0 -175.583
1896.17 2.7379 0 -204.435
2866.98 4.02753 0 -227.012
1909.9 2.3783 0 -203.886
1903.03 2.55844 0 -204.163
937.773 1.27752 0 -175.716
930.943 1.62215 0 -175.973
2836.01 4.56281 0 -228.218
2856.66 4.20665 0 -227.423
934.358 1.45016 0 -175.846
1882.44 3.0948 0 -204.96
2846.33 4.38508 0 -227.825
1896.17 2.7379 0 -204.435
1889.3 2.91669 0 -204.7
930.943 1.62215 0 -175.973
924.113 1.96421 0 -176.218
2815.36 4.91613 0 -228.978
2836.01 4.56281 0 -228.218
927.528 1.79351 0 -176.096
1868.71 3.44894 0 -205.462
2825.68 4.73982 0 -228.603
1882.44 3.0948 0 -204.96
1875.57 3.27222 0 -205.214
924.113 1.96421 0 -176.218
917.284 2.30367 0 -176.451
2794.72 5.26657 0 -229.704
2815.36 4.91613 0 -228.978
920.699 2.13427 0 -176.336
1854.98 3.8003 0 -205.941
2805.04 5.09171 0 -229.345
1868.71 3.44894 0 -205.462
1861.84 3.62497 0 -205.705
917.284 2.30367 0 -176.451
910.455 2.64052 0 -176.673
2774.07 5.61406 0 -230.395
2794.72 5.26657 0 -229.704
913.869 2.47242 0 -176.563
1841.25 4.14882 0 -206.398
2784.39 5.44068 0 -230.054
1854.98 3.8003 0 -205.941
1848.11 3.97492 0 -206.172
910.455 2.64052 0 -176.673
903.626 2.97473 0 -176.884
2753.43 5.95855 0 -231.053
2774.07 5.61406 0 -230.395
907.04 2.80796 0 -176.78
1827.52 4.49449 0 -206.831
2763.75 5.78668 0 -230.728
1841.25 4.14882 0 -206.398
1834.39 4.32202 0 -206.617
903.626 2.97473 0 -176.884
896.797 3.30629 0 -177.083
2732.79 6.3 0 -231.676
2753.43 5.95855 0 -231.053
900.212 3.14084 0 -176.985
1813.8 4.83726 0 -207.243
2743.11 6.12966 0 -231.369
1827.52 4.49449 0 -206.831
1820.66 4.66624 0 -207.04
896.797 3.30629 0 -177.083
889.969 3.63519 0 -177.271
2712.15 6.63834 0 -232.266
2732.79 6.3 0 -231.676
893.383 3.47107 0 -177.178
1800.07 5.17709 0 -207.631
2722.47 6.46956 0 -231.975
1813.8 4.83726 0 -207.243
1806.93 5.00754 0 -207.44
889.969 3.63519 0 -177.271
883.141 3.96139 0 -177.448
2691.52 6.97353 0 -232.823
2712.15 6.63834 0 -232.266
886.555 3.79863 0 -177.361
1786.35 5.51396 0 -207.998
2701.84 6.80633 0 -232.549
1800.07 5.17709 0 -207.631
1793.21 5.3459 0 -207.817
883.141 3.96139 0 -177.448
876.313 4.2849 0 -177.614
2670.88 7.30552 0 -233.347
2691.52 6.97353 0 -232.823
879.727 4.12349 0 -177.532
1772.62 5.84783 0 -208.342
2681.2 7.13993 0 -233.089
1786.35 5.51396 0 -207.998
1779.49 5.68127 0 -208.173
876.313 4.2849 0 -177.614
869.485 4.60569 0 -177.769
2650.25 7.63425 0 -233.838
2670.88 7.30552 0 -233.347
872.899 4.44564 0 -177.693
1758.9 6.17867 0 -208.665
2660.57 7.47029 0 -233.597
1772.62 5.84783 0 -208.342
1765.76 6.01363 0 -208.506
869.485 4.60569 0 -177.769
862.658 4.92375 0 -177.913
2629.62 7.95969 0 -234.297
2650.25 7.63425 0 -233.838
866.071 4.76506 0 -177.842
1745.18 6.50645 0 -208.966
2639.94 7.79739 0 -234.071
1758.9 6.17867 0 -208.665
1752.04 6.34295 0 -208.818
862.658 4.92375 0 -177.913
855.831 5.23906 0 -178.047
2608.99 8.28179 0 -234.723
2629.62 7.95969 0 -234.297
859.244 5.08175 0 -177.981
1731.46 6.83114 0 -209.246
2619.31 8.12116 0 -234.514
1745.18 6.50645 0 -208.966
1738.32 6.66919 0 -209.109
855.831 5.23906 0 -178.047
849.004 5.55161 0 -178.169
2588.37 8.60051 0 -235.117
2608.99 8.28179 0 -234.723
852.417 5.39568 0 -178.109
1717.74 7.15271 0 -209.504
2598.68 8.44158 0 -234.924
1731.46 6.83114 0 -209.246
1724.6 6.99232 0 -209.378
849.004 5.55161 0 -178.169
842.178 5.86139 0 -178.281
2567.75 8.9158 0 -235.48
2588.37 8.60051 0 -235.117
845.591 5.70685 0 -178.227
1704.03 7.47113 0 -209.741
2578.06 8.75859 0 -235.303
1717.74 7.15271 0 -209.504
1710.89 7.31232 0 -209.625
842.178 5.86139 0 -178.281
835.352 6.16837 0 -178.383
2547.12 9.22762 0 -235.811
2567.75 8.9158 0 -235.48
838.765 6.01523 0 -178.334
1690.31 7.78638 0 -209.957
2557.44 9.07215 0 -235.649
1704.03 7.47113 0 -209.741
1697.17 7.62916 0 -209.852
835.352 6.16837 0 -178.383
828.527 6.47256 0 -178.474
2526.51 9.53593 0 -236.111
2547.12 9.22762 0 -235.811
831.939 6.32082 0 -178.43
1676.6 8.09843 0 -210.153
2536.82 9.38222 0 -235.965
1690.31 7.78638 0 -209.957
1683.45 7.9428 0 -210.058
828.527 6.47256 0 -178.474
821.701 6.77393 0 -178.555
2505.89 9.8407 0 -236.38
2526.51 9.53593 0 -236.111
825.114 6.6236 0 -178.516
1662.88 8.40724 0 -210.327
2516.2 9.68876 0 -236.25
1676.6 8.09843 0 -210.153
1669.74 8.25324 0 -210.243
821.701 6.77393 0 -178.555
814.877 7.07248 0 -178.626
2485.28 10.1419 0 -236.619
2505.89 9.8407 0 -236.38
818.289 6.92356 0 -178.592
1649.17 8.71281 0 -210.482
2495.58 9.99174 0 -236.503
1662.88 8.40724 0 -210.327
1656.03 8.56044 0 -210.407
814.877 7.07248 0 -178.626
808.053 7.36818 0 -178.687
2464.66 10.4394 0 -236.827
2485.28 10.1419 0 -236.619
811.465 7.22068 0 -178.658
1635.46 9.0151 0 -210.616
2474.97 10.2911 0 -236.727
1649.17 8.71281 0 -210.482
1642.32 8.86437 0 -210.551
808.053 7.36818 0 -178.687
801.229 7.66104 0 -178.737
2444.05 10.7334 0 -237.005
2464.66 10.4394 0 -236.827
804.641 7.51497 0 -178.713
1621.75 9.31409 0 -210.73
2454.36 10.5869 0 -236.919
1635.46 9.0151 0 -210.616
1628.61 9.16501 0 -210.675
801.229 7.66104 0 -178.737
794.405 7.95104 0 -178.778
2423.45 11.0236 0 -237.153
2444.05 10.7334 0 -237.005
797.817 7.8064 0 -178.759
1608.04 9.60977 0 -210.824
2433.75 10.8789 0 -237.082
1621.75 9.31409 0 -210.73
1614.9 9.46235 0 -210.779
794.405 7.95104 0 -178.778
787.582 8.23816 0 -178.808
2402.84 11.3101 0 -237.271
2423.45 11.0236 0 -237.153
790.994 8.09496 0 -178.794
1594.34 9.9021 0 -210.898
2413.15 11.1673 0 -237.215
1608.04 9.60977 0 -210.824
1601.19 9.75635 0 -210.863
787.582 8.23816 0 -178.808
780.76 8.52241 0 -178.829
2382.24 11.5928 0 -237.36
2402.84 11.3101 0 -237.271
784.171 8.38064 0 -178.82
1580.63 10.1911 0 -210.953
2392.54 11.4519 0 -237.319
1594.34 9.9021 0 -210.898
1587.49 10.047 0 -210.928
780.76 8.52241 0 -178.829
773.938 8.80376 0 -178.84
2361.64 11.8718 0 -237.42
2382.24 11.5928 0 -237.36
777.349 8.66345 0 -178.836
1566.93 10.4766 0 -210.988
2371.94 11.7328 0 -237.393
1580.63 10.1911 0 -210.953
1573.78 10.3343 0 -210.973
773.938 8.80376 0 -178.84
767.117 9.08221 0 -178.842
2341.05 12.147 0 -237.451
2361.64 11.8718 0 -237.42
770.527 8.94335 0 -178.842
1553.23 10.7588 0 -211.004
2351.34 12.0099 0 -237.439
1566.93 10.4766 0 -210.988
1560.08 10.6182 0 -210.998
767.117 9.08221 0 -178.842
760.296 9.35776 0 -178.834
2320.45 12.4183 0 -237.453
2341.05 12.147 0 -237.451
763.706 9.22035 0 -178.839
1539.53 11.0376 0 -211.001
2330.75 12.2831 0 -237.455
1553.23 10.7588 0 -211.004
1546.38 10.8986 0 -211.005
760.296 9.35776 0 -178.834
753.475 9.63038 0 -178.817
2299.86 12.6858 0 -237.427
2320.45 12.4183 0 -237.453
756.885 9.49444 0 -178.826
1525.83 11.3129 0 -210.979
2310.16 12.5525 0 -237.443
1539.53 11.0376 0 -211.001
1532.68 11.1757 0 -210.992
753.475 9.63038 0 -178.817
746.655 9.90009 0 -178.79
2279.27 12.9493 0 -237.373
2299.86 12.6858 0 -237.427
750.065 9.7656 0 -178.804
1512.13 11.5848 0 -210.938
2289.57 12.818 0 -237.403
1525.83 11.3129 0 -210.979
1518.98 11.4493 0 -210.961
746.655 9.90009 0 -178.79
739.836 10.1669 0 -178.754
2258.69 13.209 0 -237.291
2279.27 12.9493 0 -237.373
743.246 10.0338 0 -178.773
1498.43 11.8532 0 -210.879
2268.98 13.0797 0 -237.335
1512.13 11.5848 0 -210.938
1505.28 11.7194 0 -210.911
739.836 10.1669 0 -178.754
733.017 10.4307 0 -178.709
2238.1 13.4647 0 -237.181
2258.69 13.209 0 -237.291
736.426 10.2991 0 -178.732
1484.74 12.1181 0 -210.801
2248.39 13.3373 0 -237.239
1498.43 11.8532 0 -210.879
1491.59 11.9861 0 -210.842
733.017 10.4307 0 -178.709
726.199 10.6916 0 -178.654
2217.52 13.7165 0 -237.044
2238.1 13.4647 0 -237.181
729.608 10.5615 0 -178.683
1471.05 12.3795 0 -210.706
2227.81 13.5911 0 -237.116
1484.74 12.1181 0 -210.801
1477.89 12.2493 0 -210.756
726.199 10.6916 0 -178.654
719.381 10.9495 0 -178.591
2196.94 13.9643 0 -236.88
2217.52 13.7165 0 -237.044
722.79 10.8209 0 -178.624
1457.36 12.6374 0 -210.592
2207.23 13.8409 0 -236.966
1471.05 12.3795 0 -210.706
1464.2 12.5089 0 -210.651
719.381 10.9495 0 -178.591
712.564 11.2044 0 -178.519
2176.37 14.2081 0 -236.689
2196.94 13.9643 0 -236.88
715.972 11.0773 0 -178.556
1443.67 12.8918 0 -210.46
2186.66 14.0867 0 -236.788
1457.36 12.6374 0 -210.592
1450.51 12.7651 0 -210.528
712.564 11.2044 0 -178.519
705.747 11.4564 0 -178.438
2155.8 14.4478 0 -236.472
2176.37 14.2081 0 -236.689
709.155 11.3308 0 -178.479
1429.98 13.1427 0 -210.311
2166.08 14.3285 0 -236.584
1443.67 12.8918 0 -210.46
1436.82 13.0177 0 -210.388
705.747 11.4564 0 -178.438
698.931 11.7055 0 -178.348
2135.23 14.6836 0 -236.228
2155.8 14.4478 0 -236.472
702.339 11.5813 0 -178.394
1416.29 13.3899 0 -210.144
2145.51 14.5662 0 -236.354
1429.98 13.1427 0 -210.311
1423.14 13.2667 0 -210.229
698.931 11.7055 0 -178.348
692.116 11.9515 0 -178.249
2114.66 14.9153 0 -235.959
2135.23 14.6836 0 -236.228
695.523 11.8289 0 -178.3
1402.61 13.6337 0 -209.959
2124.94 14.7999 0 -236.097
1416.29 13.3899 0 -210.144
1409.45 13.5123 0 -210.054
692.116 11.9515 0 -178.249
685.301 12.1946 0 -178.142
2094.1 15.1429 0 -235.663
2114.66 14.9153 0 -235.959
688.708 12.0734 0 -178.197
1388.93 13.8738 0 -209.758
2104.38 15.0296 0 -235.814
1402.61 13.6337 0 -209.959
1395.77 13.7542 0 -209.861
685.301 12.1946 0 -178.142
678.486 12.4347 0 -178.027
2073.54 15.3665 0 -235.342
2094.1 15.1429 0 -235.663
681.893 12.315 0 -178.086
1375.24 14.1104 0 -209.54
2083.82 15.2552 0 -235.506
1388.93 13.8738 0 -209.758
1382.08 13.9926 0 -209.651
678.486 12.4347 0 -178.027
671.672 12.6717 0 -177.903
2052.98 15.5859 0 -234.996
2073.54 15.3665 0 -235.342
675.079 12.5536 0 -177.966
1361.56 14.3434 0 -209.304
2063.26 15.4767 0 -235.172
1375.24 14.1104 0 -209.54
1368.4 14.2274 0 -209.424
671.672 12.6717 0 -177.903
664.859 12.9058 0 -177.771
2032.42 15.8013 0 -234.625
2052.98 15.5859 0 -234.996
668.266 12.7892 0 -177.838
1347.89 14.5728 0 -209.052
2042.7 15.6941 0 -234.813
1361.56 14.3434 0 -209.304
1354.72 14.4586 0 -209.18
664.859 12.9058 0 -177.771
658.047 13.1369 0 -177.63
2011.87 16.0125 0 -234.228
2032.42 15.8013 0 -234.625
661.453 13.0218 0 -177.701
1334.21 14.7986 0 -208.784
2022.15 15.9074 0 -234.43
1347.89 14.5728 0 -209.052
1341.05 14.6862 0 -208.92
658.047 13.1369 0 -177.63
651.234 13.365 0 -177.482
1991.32 16.2196 0 -233.808
2011.87 16.0125 0 -234.228
654.64 13.2513 0 -177.557
1320.54 15.0208 0 -208.499
2001.6 16.1166 0 -234.021
1334.21 14.7986 0 -208.784
1327.37 14.9102 0 -208.643
651.234 13.365 0 -177.482
644.423 13.5901 0 -177.325
1970.78 16.4226 0 -233.363
1991.32 16.2196 0 -233.808
647.829 13.4779 0 -177.404
1306.86 15.2394 0 -208.198
1981.05 16.3216 0 -233.588
1320.54 15.0208 0 -208.499
1313.7 15.1305 0 -208.351
644.423 13.5901 0 -177.325
637.612 13.8122 0 -177.16
1950.23 16.6215 0 -232.894
1970.78 16.4226 0 -233.363
641.018 13.7015 0 -177.244
1293.19 15.4543 0 -207.881
1960.5 16.5226 0 -233.132
1306.86 15.2394 0 -208.198
1300.03 15.3473 0 -208.042
637.612 13.8122 0 -177.16
630.802 14.0313 0 -176.988
1929.69 16.8161 0 -232.402
1950.23 16.6215 0 -232.894
634.207 13.9221 0 -177.075
1279.52 15.6656 0 -207.549
1939.96 16.7193 0 -232.651
1293.19 15.4543 0 -207.881
1286.36 15.5604 0 -207.717
630.802 14.0313 0 -176.988
623.992 14.2473 0 -176.808
1909.15 17.0067 0 -231.885
1929.69 16.8161 0 -232.402
627.397 14.1397 0 -176.899
1265.85 15.8733 0 -207.2
1919.42 16.9119 0 -232.146
1279.52 15.6656 0 -207.549
1272.69 15.7699 0 -207.376
623.992 14.2473 0 -176.808
617.183 14.4604 0 -176.62
1888.62 17.1931 0 -231.346
1909.15 17.0067 0 -231.885
620.588 14.3542 0 -176.715
1252.19 16.0774 0 -206.836
1898.89 17.1004 0 -231.619
1265.85 15.8733 0 -207.2
1259.02 15.9758 0 -207.02
617.183 14.4604 0 -176.62
610.375 14.6704 0 -176.424
1868.09 17.3753 0 -230.784
1888.62 17.1931 0 -231.346
613.779 14.5658 0 -176.523
1238.52 16.2778 0 -206.457
1878.35 17.2847 0 -231.068
1252.19 16.0774 0 -206.836
1245.35 16.1781 0 -206.649
610.375 14.6704 0 -176.424
603.567 14.8774 0 -176.221
1847.56 17.5533 0 -230.199
1868.09 17.3753 0 -230.784
606.971 14.7743 0 -176.323
1224.86 16.4746 0 -206.063
1857.82 17.4648 0 -230.494
1238.52 16.2778 0 -206.457
1231.69 16.3767 0 -206.262
603.567 14.8774 0 -176.221
596.76 15.0815 0 -176.01
1827.03 17.7272 0 -229.591
1847.56 17.5533 0 -230.199
600.163 14.9798 0 -176.117
1211.2 16.6677 0 -205.654
1837.3 17.6408 0 -229.898
1224.86 16.4746 0 -206.063
1218.03 16.5716 0 -205.86
596.76 15.0815 0 -176.01
589.953 15.2825 0 -175.792
1806.51 17.8969 0 -228.961
1827.03 17.7272 0 -229.591
593.356 15.1823 0 -175.902
1197.54 16.8573 0 -205.23
1816.77 17.8125 0 -229.279
1211.2 16.6677 0 -205.654
1204.37 16.763 0 -205.444
589.953 15.2825 0 -175.792
583.147 15.4804 0 -175.567
1785.99 18.0624 0 -228.31
1806.51 17.8969 0 -228.961
586.55 15.3818 0 -175.681
1183.88 17.0431 0 -204.791
1796.25 17.9802 0 -228.638
1197.54 16.8573 0 -205.23
1190.71 16.9506 0 -205.013
583.147 15.4804 0 -175.567
576.341 15.6754 0 -175.335
1765.47 18.2237 0 -227.636
1785.99 18.0624 0 -228.31
579.744 15.5783 0 -175.452
1170.23 17.2254 0 -204.338
1775.73 18.1436 0 -227.976
1183.88 17.0431 0 -204.791
1177.05 17.1347 0 -204.567
576.341 15.6754 0 -175.335
569.536 15.8674 0 -175.095
1744.96 18.3809 0 -226.941
1765.47 18.2237 0 -227.636
572.939 15.7718 0 -175.216
1156.57 17.4039 0 -203.871
1755.22 18.3029 0 -227.292
1170.23 17.2254 0 -204.338
1163.4 17.3151 0 -204.106
569.536 15.8674 0 -175.095
562.732 16.0563 0 -174.849
1724.45 18.5339 0 -226.225
1744.96 18.3809 0 -226.941
566.134 15.9622 0 -174.973
1142.92 17.5789 0 -203.39
1734.7 18.458 0 -226.586
1156.57 17.4039 0 -203.871
1149.75 17.4919 0 -203.632
562.732 16.0563 0 -174.849
555.928 16.2422 0 -174.595
1703.94 18.6828 0 -225.488
1724.45 18.5339 0 -226.225
559.33 16.1496 0 -174.723
1129.27 17.7502 0 -202.894
1714.19 18.6089 0 -225.859
1142.92 17.5789 0 -203.39
1136.09 17.665 0 -203.144
555.928 16.2422 0 -174.595
549.125 16.4252 0 -174.335
1683.43 18.8275 0 -224.731
1703.94 18.6828 0 -225.488
552.527 16.3341 0 -174.466
1115.62 17.9179 0 -202.385
1693.69 18.7556 0 -225.112
1129.27 17.7502 0 -202.894
1122.44 17.8345 0 -202.641
549.125 16.4252 0 -174.335
542.323 16.6051 0 -174.068
1662.93 18.968 0 -223.952
1683.43 18.8275 0 -224.731
545.724 16.5155 0 -174.202
1101.97 18.082 0 -201.862
1673.18 18.8983 0 -224.344
1115.62 17.9179 0 -202.385
1108.8 18.0004 0 -202.126
542.323 16.6051 0 -174.068
535.521 16.782 0 -173.794
1642.43 19.1044 0 -223.154
1662.93 18.968 0 -223.952
538.922 16.6939 0 -173.932
1088.33 18.2424 0 -201.326
1652.68 19.0367 0 -223.556
1101.97 18.082 0 -201.862
1095.15 18.1626 0 -201.596
535.521 16.782 0 -173.794
528.72 16.9559 0 -173.514
1621.93 19.2366 0 -222.336
1642.43 19.1044 0 -223.154
532.12 16.8693 0 -173.655
1074.68 18.3992 0 -200.777
1632.18 19.171 0 -222.747
1088.33 18.2424 0 -201.326
1081.5 18.3212 0 -201.053
528.72 16.9559 0 -173.514
521.919 17.1268 0 -173.227
1601.44 19.3647 0 -221.498
1621.93 19.2366 0 -222.336
525.319 17.0417 0 -173.371
1061.04 18.5524 0 -200.214
1611.69 19.3012 0 -221.919
1074.68 18.3992 0 -200.777
1067.86 18.4762 0 -200.497
521.919 17.1268 0 -173.227
515.119 17.2947 0 -172.934
1580.95 19.4886 0 -220.64
1601.44 19.3647 0 -221.498
518.519 17.2111 0 -173.081
1047.4 18.702 0 -199.639
1591.19 19.4272 0 -221.072
1061.04 18.5524 0 -200.214
1054.22 18.6276 0 -199.928
515.119 17.2947 0 -172.934
508.319 17.4596 0 -172.635
1560.46 19.6085 0 -219.764
1580.95 19.4886 0 -220.64
511.719 17.3775 0 -172.785
1033.76 18.848 0 -199.051
1570.7 19.5491 0 -220.205
1047.4 18.702 0 -199.639
1040.58 18.7754 0 -199.347
508.319 17.4596 0 -172.635
501.52 17.6215 0 -172.329
1539.98 19.7242 0 -218.868
1560.46 19.6085 0 -219.764
504.919 17.541 0 -172.482
1020.12 18.9903 0 -198.45
1550.22 19.6669 0 -219.318
1033.76 18.848 0 -199.051
1026.94 18.9196 0 -198.752
501.52 17.6215 0 -172.329
494.721 17.7805 0 -172.017
1519.49 19.8358 0 -217.954
1539.98 19.7242 0 -218.868
498.121 17.7014 0 -172.174
1006.49 19.1291 0 -197.837
1529.73 19.7805 0 -218.414
1020.12 18.9903 0 -198.45
1013.3 19.0602 0 -198.145
494.721 17.7805 0 -172.017
487.923 17.9364 0 -171.699
1499.01 19.9434 0 -217.022
1519.49 19.8358 0 -217.954
491.322 17.8588 0 -171.859
992.851 19.2643 0 -197.212
1509.25 19.8901 0 -217.49
1006.49 19.1291 0 -197.837
999.668 19.1972 0 -197.526
487.923 17.9364 0 -171.699
481.126 18.0894 0 -171.375
1478.54 20.0468 0 -216.071
1499.01 19.9434 0 -217.022
484.525 18.0133 0 -171.538
979.218 19.3959 0 -196.574
1488.77 19.9956 0 -216.548
992.851 19.2643 0 -197.212
986.034 19.3306 0 -196.894
481.126 18.0894 0 -171.375
474.329 18.2394 0 -171.045
1458.06 20.1462 0 -215.102
1478.54 20.0468 0 -216.071
477.727 18.1648 0 -171.211
965.587 19.524 0 -195.925
1468.3 20.097 0 -215.589
979.218 19.3959 0 -196.574
972.402 19.4604 0 -196.251
474.329 18.2394 0 -171.045
467.533 18.3864 0 -170.709
1437.59 20.2415 0 -214.116
1458.06 20.1462 0 -215.102
470.931 18.3133 0 -170.878
951.957 19.6485 0 -195.264
1447.83 20.1944 0 -214.611
965.587 19.524 0 -195.925
958.772 19.5867 0 -195.596
467.533 18.3864 0 -170.709
460.737 18.5305 0 -170.368
1417.12 20.3328 0 -213.112
1437.59 20.2415 0 -214.116
464.135 18.4588 0 -170.539
938.329 19.7695 0 -194.591
1427.36 20.2877 0 -213.616
951.957 19.6485 0 -195.264
945.143 19.7094 0 -194.929
460.737 18.5305 0 -170.368
453.942 18.6716 0 -170.021
1396.66 20.4201 0 -212.091
1417.12 20.3328 0 -213.112
457.339 18.6014 0 -170.195
924.703 19.8869 0 -193.907
1406.89 20.3769 0 -212.604
938.329 19.7695 0 -194.591
931.516 19.8286 0 -194.25
453.942 18.6716 0 -170.021
447.147 18.8097 0 -169.668
1376.19 20.5033 0 -211.053
1396.66 20.4201 0 -212.091
450.544 18.741 0 -169.845
911.078 20.0008 0 -193.211
1386.42 20.4622 0 -211.574
924.703 19.8869 0 -193.907
917.89 19.9442 0 -193.561
447.147 18.8097 0 -169.668
440.353 18.9449 0 -169.31
1355.73 20.5826 0 -209.999
1376.19 20.5033 0 -211.053
443.75 18.8777 0 -169.49
897.455 20.1111 0 -192.505
1365.96 20.5434 0 -210.528
911.078 20.0008 0 -193.211
904.266 20.0564 0 -192.86
440.353 18.9449 0 -169.31
433.559 19.0772 0 -168.946
1335.27 20.6579 0 -208.928
1355.73 20.5826 0 -209.999
436.956 19.0114 0 -169.129
883.833 20.218 0 -191.788
1345.5 20.6207 0 -209.465
897.455 20.1111 0 -192.505
890.644 20.165 0 -192.148
433.559 19.0772 0 -168.946
426.766 19.2065 0 -168.577
1314.82 20.7292 0 -207.841
1335.27 20.6579 0 -208.928
430.162 19.1422 0 -168.762
870.213 20.3213 0 -191.06
1325.05 20.694 0 -208.386
883.833 20.218 0 -191.788
877.023 20.2701 0 -191.425
426.766 19.2065 0 -168.577
419.973 19.3329 0 -168.203
1294.36 20.7966 0 -206.738
1314.82 20.7292 0 -207.841
423.369 19.2701 0 -168.391
856.594 20.4212 0 -190.321
1304.59 20.7634 0 -207.291
870.213 20.3213 0 -191.06
863.403 20.3717 0 -190.692
419.973 19.3329 0 -168.203
413.181 19.4564 0 -167.824
1273.91 20.86 0 -205.619
1294.36 20.7966 0 -206.738
416.577 19.395 0 -168.014
842.976 20.5176 0 -189.572
1284.14 20.8288 0 -206.18
856.594 20.4212 0 -190.321
849.785 20.4698 0 -189.948
413.181 19.4564 0 -167.824
406.389 19.5769 0 -167.44
1253.47 20.9196 0 -204.485
1273.91 20.86 0 -205.619
409.785 19.517 0 -167.633
829.36 20.6106 0 -188.813
1263.69 20.8903 0 -205.054
842.976 20.5176 0 -189.572
836.168 20.5645 0 -189.194
406.389 19.5769 0 -167.44
399.597 19.6945 0 -167.051
1233.02 20.9752 0 -203.336
1253.47 20.9196 0 -204.485
402.993 19.6361 0 -167.246
815.746 20.7001 0 -188.044
1243.24 20.9479 0 -203.912
829.36 20.6106 0 -188.813
822.553 20.6558 0 -188.429
399.597 19.6945 0 -167.051
392.807 19.8093 0 -166.656
1212.58 21.027 0 -202.172
1233.02 20.9752 0 -203.336
396.202 19.7523 0 -166.854
802.133 20.7861 0 -187.264
1222.8 21.0016 0 -202.756
815.746 20.7001 0 -188.044
808.939 20.7435 0 -187.655
392.807 19.8093 0 -166.656
386.016 19.9211 0 -166.258
1192.14 21.075 0 -200.993
1212.58 21.027 0 -202.172
389.411 19.8655 0 -166.458
788.521 20.8688 0 -186.476
1202.36 21.0515 0 -201.584
802.133 20.7861 0 -187.264
795.327 20.8279 0 -186.871
386.016 19.9211 0 -166.258
379.226 20.03 0 -165.854
1171.7 21.1191 0 -199.8
1192.14 21.075 0 -200.993
382.621 19.9759 0 -166.056
774.911 20.9481 0 -185.677
1181.92 21.0975 0 -200.398
788.521 20.8688 0 -186.476
781.716 20.9089 0 -186.077
379.226 20.03 0 -165.854
372.437 20.1361 0 -165.446
1151.27 21.1595 0 -198.593
1171.7 21.1191 0 -199.8
375.831 20.0834 0 -165.65
761.302 21.0239 0 -184.869
1161.48 21.1398 0 -199.198
774.911 20.9481 0 -185.677
768.106 20.9864 0 -185.274
372.437 20.1361 0 -165.446
365.647 20.2393 0 -165.033
1130.83 21.196 0 -197.372
1151.27 21.1595 0 -198.593
369.042 20.188 0 -165.24
747.695 21.0964 0 -184.052
1141.05 21.1782 0 -197.984
761.302 21.0239 0 -184.869
754.498 21.0606 0 -184.462
365.647 20.2393 0 -165.033
358.859 20.3396 0 -164.615
1110.4 21.2288 0 -196.137
1130.83 21.196 0 -197.372
362.253 20.2898 0 -164.825
734.088 21.1656 0 -183.226
1120.62 21.2129 0 -196.756
747.695 21.0964 0 -184.052
740.891 21.1314 0 -183.64
358.859 20.3396 0 -164.615
352.07 20.4371 0 -164.194
1089.98 21.2579 0 -194.888
1110.4 21.2288 0 -196.137
355.464 20.3887 0 -164.405
720.484 21.2314 0 -182.391
1100.19 21.2438 0 -195.514
734.088 21.1656 0 -183.226
727.286 21.1989 0 -182.81
352.07 20.4371 0 -164.194
345.282 20.5317 0 -163.768
1069.55 21.2833 0 -193.627
1089.98 21.2579 0 -194.888
348.676 20.4847 0 -163.981
706.88 21.2939 0 -181.547
1079.76 21.2711 0 -194.259
720.484 21.2314 0 -182.391
713.682 21.263 0 -181.97
345.282 20.5317 0 -163.768
338.495 20.6234 0 -163.338
1049.13 21.305 0 -192.353
1069.55 21.2833 0 -193.627
341.889 20.5779 0 -163.553
693.278 21.353 0 -180.695
1059.34 21.2946 0 -192.991
706.88 21.2939 0 -181.547
700.079 21.3239 0 -181.122
338.495 20.6234 0 -163.338
331.708 20.7124 0 -162.903
1028.71 21.323 0 -191.066
1049.13 21.305 0 -192.353
335.101 20.6683 0 -163.121
679.677 21.4089 0 -179.834
1038.92 21.3145 0 -191.711
693.278 21.353 0 -180.695
686.477 21.3814 0 -180.265
331.708 20.7124 0 -162.903
324.921 20.7985 0 -162.465
1008.29 21.3375 0 -189.766
1028.71 21.323 0 -191.066
328.314 20.7558 0 -162.685
666.077 21.4615 0 -178.965
1018.5 21.3307 0 -190.418
679.677 21.4089 0 -179.834
672.877 21.4356 0 -179.401
324.921 20.7985 0 -162.465
318.134 20.8818 0 -162.022
987.869 21.3483 0 -188.455
1008.29 21.3375 0 -189.766
321.527 20.8405 0 -162.244
652.478 21.5109 0 -178.088
998.078 21.3433 0 -189.112
666.077 21.4615 0 -178.965
659.277 21.4866 0 -178.528
318.134 20.8818 0 -162.022
311.348 20.9623 0 -161.576
967.455 21.3555 0 -187.131
987.869 21.3483 0 -188.455
314.741 20.9224 0 -161.8
638.881 21.557 0 -177.203
977.662 21.3523 0 -187.795
652.478 21.5109 0 -178.088
645.679 21.5344 0 -177.647
311.348 20.9623 0 -161.576
304.562 21.04 0 -161.126
947.042 21.3592 0 -185.796
967.455 21.3555 0 -187.131
307.955 21.0015 0 -161.352
625.285 21.5999 0 -176.311
957.248 21.3578 0 -186.465
638.881 21.557 0 -177.203
632.083 21.5789 0 -176.758
304.562 21.04 0 -161.126
297.777 21.1149 0 -160.673
926.632 21.3594 0 -184.45
947.042 21.3592 0 -185.796
301.169 21.0778 0 -160.9
611.69 21.6396 0 -175.41
936.837 21.3598 0 -185.124
625.285 21.5999 0 -176.311
618.487 21.6202 0 -175.861
297.777 21.1149 0 -160.673
290.992 21.1871 0 -160.215
906.224 21.3561 0 -183.092
926.632 21.3594 0 -184.45
294.384 21.1513 0 -160.444
598.096 21.6762 0 -174.503
916.428 21.3582 0 -183.772
611.69 21.6396 0 -175.41
604.892 21.6583 0 -174.958
290.992 21.1871 0 -160.215
284.207 21.2564 0 -159.754
885.818 21.3493 0 -181.723
906.224 21.3561 0 -183.092
287.599 21.2221 0 -159.985
584.503 21.7095 0 -173.588
896.021 21.3531 0 -182.409
598.096 21.6762 0 -174.503
591.299 21.6932 0 -174.046
284.207 21.2564 0 -159.754
277.422 21.3231 0 -159.29
865.413 21.3391 0 -180.344
885.818 21.3493 0 -181.723
280.814 21.2901 0 -159.523
570.911 21.7397 0 -172.666
875.615 21.3447 0 -181.035
584.503 21.7095 0 -173.588
577.707 21.725 0 -173.128
277.422 21.3231 0 -159.29
270.638 21.3869 0 -158.822
845.011 21.3255 0 -178.954
865.413 21.3391 0 -180.344
274.03 21.3553 0 -159.056
557.32 21.7669 0 -171.737
855.212 21.3328 0 -179.651
570.911 21.7397 0 -172.666
564.115 21.7537 0 -172.203
270.638 21.3869 0 -158.822
263.854 21.4481 0 -158.351
824.611 21.3086 0 -177.554
845.011 21.3255 0 -178.954
267.246 21.4178 0 -158.587
543.731 21.7909 0 -170.802
834.811 21.3175 0 -178.256
557.32 21.7669 0 -171.737
550.525 21.7792 0 -171.27
263.854 21.4481 0 -158.351
257.07 21.5065 0 -157.877
804.212 21.2882 0 -176.145
824.611 21.3086 0 -177.554
260.462 21.4776 0 -158.114
530.142 21.8118 0 -169.86
814.411 21.2988 0 -176.851
543.731 21.7909 0 -170.802
536.936 21.8017 0 -170.332
257.07 21.5065 0 -157.877
250.286 21.5622 0 -157.399
783.816 21.2646 0 -174.725
804.212 21.2882 0 -176.145
253.678 21.5347 0 -157.639
516.554 21.8297 0 -168.911
794.014 21.2768 0 -175.436
530.142 21.8118 0 -169.86
523.348 21.8211 0 -169.386
250.286 21.5622 0 -157.399
243.503 21.6152 0 -156.919
763.421 21.2377 0 -173.296
783.816 21.2646 0 -174.725
246.894 21.589 0 -157.16
502.967 21.8445 0 -167.957
773.618 21.2516 0 -174.012
516.554 21.8297 0 -168.911
509.761 21.8375 0 -168.435
243.503 21.6152 0 -156.919
236.72 21.6655 0 -156.436
743.028 21.2076 0 -171.858
763.421 21.2377 0 -173.296
240.111 21.6406 0 -156.678
489.382 21.8563 0 -166.996
753.224 21.2231 0 -172.578
502.967 21.8445 0 -167.957
496.174 21.8508 0 -167.477
236.72 21.6655 0 -156.436
229.937 21.7131 0 -155.949
722.637 21.1742 0 -170.411
743.028 21.2076 0 -171.858
233.328 21.6896 0 -156.193
475.797 21.8651 0 -166.029
732.832 21.1913 0 -171.136
489.382 21.8563 0 -166.996
482.589 21.8611 0 -166.513
229.937 21.7131 0 -155.949
223.154 21.758 0 -155.46
702.247 21.1377 0 -168.956
722.637 21.1742 0 -170.411
226.545 21.7359 0 -155.705
462.213 21.871 0 -165.057
712.442 21.1563 0 -169.684
475.797 21.8651 0 -166.029
469.005 21.8684 0 -165.544
223.154 21.758 0 -155.46
216.371 21.8003 0 -154.969
681.859 21.098 0 -167.491
702.247 21.1377 0 -168.956
219.762 21.7795 0 -155.215
448.629 21.8738 0 -164.079
692.053 21.1182 0 -168.224
462.213 21.871 0 -165.057
455.421 21.8728 0 -164.568
216.371 21.8003 0 -154.969
209.589 21.8399 0 -154.474
661.473 21.0552 0 -166.019
681.859 21.098 0 -167.491
212.98 21.8204 0 -154.722
435.047 21.8738 0 -163.095
671.666 21.0769 0 -166.756
448.629 21.8738 0 -164.079
441.838 21.8742 0 -163.588
209.589 21.8399 0 -154.474
202.806 21.8768 0 -153.977
641.088 21.0092 0 -164.539
661.473 21.0552 0 -166.019
206.197 21.8587 0 -154.226
421.466 21.8708 0 -162.107
651.28 21.0326 0 -165.28
435.047 21.8738 0 -163.095
428.256 21.8727 0 -162.601
202.806 21.8768 0 -153.977
196.024 21.9112 0 -153.478
620.705 20.9603 0 -163.051
641.088 21.0092 0 -164.539
199.415 21.8943 0 -153.728
407.885 21.865 0 -161.113
630.897 20.9851 0 -163.796
421.466 21.8708 0 -162.107
414.675 21.8683 0 -161.61
196.024 21.9112 0 -153.478
189.242 21.9428 0 -152.976
600.324 20.9083 0 -161.555
620.705 20.9603 0 -163.051
192.633 21.9273 0 -153.227
394.305 21.8562 0 -160.114
610.514 20.9347 0 -162.304
407.885 21.865 0 -161.113
401.095 21.8609 0 -160.614
189.242 21.9428 0 -152.976
182.46 21.9718 0 -152.472
579.943 20.8533 0 -160.053
600.324 20.9083 0 -161.555
185.851 21.9577 0 -152.724
380.726 21.8446 0 -159.111
590.133 20.8811 0 -160.805
394.305 21.8562 0 -160.114
387.515 21.8507 0 -159.613
182.46 21.9718 0 -152.472
175.678 21.9982 0 -151.966
559.565 20.7953 0 -158.543
579.943 20.8533 0 -160.053
179.069 21.9854 0 -152.219
367.147 21.8301 0 -158.103
569.754 20.8247 0 -159.299
380.726 21.8446 0 -159.111
373.936 21.8377 0 -158.607
175.678 21.9982 0 -151.966
168.897 22.022 0 -151.457
539.187 20.7344 0 -157.027
559.565 20.7953 0 -158.543
172.287 22.0104 0 -151.712
353.569 21.8128 0 -157.091
549.376 20.7652 0 -157.786
367.147 21.8301 0 -158.103
360.358 21.8218 0 -157.597
168.897 22.022 0 -151.457
162.115 22.0431 0 -150.947
518.811 20.6705 0 -155.505
539.187 20.7344 0 -157.027
165.506 22.0329 0 -151.202
339.992 21.7926 0 -156.074
528.999 20.7028 0 -156.267
353.569 21.8128 0 -157.091
346.781 21.8031 0 -156.583
162.115 22.0431 0 -150.947
155.334 22.0616 0 -150.435
498.437 20.6038 0 -153.976
518.811 20.6705 0 -155.505
158.724 22.0527 0 -150.691
326.416 21.7697 0 -155.054
508.624 20.6375 0 -154.741
339.992 21.7926 0 -156.074
333.204 21.7815 0 -155.564
155.334 22.0616 0 -150.435
148.553 22.0775 0 -149.921
478.063 20.5343 0 -152.442
498.437 20.6038 0 -153.976
151.943 22.0699 0 -150.178
312.84 21.744 0 -154.029
488.25 20.5694 0 -153.21
326.416 21.7697 0 -155.054
319.628 21.7572 0 -154.542
148.553 22.0775 0 -149.921
141.772 22.0909 0 -149.405
457.691 20.4619 0 -150.902
478.063 20.5343 0 -152.442
145.162 22.0845 0 -149.663
299.265 21.7155 0 -153.001
467.877 20.4984 0 -151.672
312.84 21.744 0 -154.029
306.053 21.7301 0 -153.516
141.772 22.0909 0 -149.405
134.991 22.1018 0 -148.887
437.321 20.3868 0 -149.356
457.691 20.4619 0 -150.902
138.381 22.0966 0 -149.146
285.691 21.6845 0 -151.97
447.506 20.4247 0 -150.13
299.265 21.7155 0 -153.001
292.478 21.7003 0 -152.486
134.991 22.1018 0 -148.887
128.211 22.1104 0 -148.368
416.952 20.3091 0 -147.805
437.321 20.3868 0 -149.356
131.601 22.1064 0 -148.627
272.118 21.6509 0 -150.935
427.136 20.3483 0 -148.581
285.691 21.6845 0 -151.97
278.904 21.668 0 -151.453
128.211 22.1104 0 -148.368
121.431 22.1171 0 -147.846
396.584 20.229 0 -146.25
416.952 20.3091 0 -147.805
124.821 22.114 0 -148.107
258.545 21.6151 0 -149.896
406.768 20.2694 0 -147.028
272.118 21.6509 0 -150.935
265.332 21.6333 0 -150.416
121.431 22.1171 0 -147.846
114.651 22.1223 0 -147.323
376.218 20.1469 0 -144.689
396.584 20.229 0 -146.25
118.041 22.1199 0 -147.585
244.974 21.5776 0 -148.854
386.401 20.1882 0 -145.47
258.545 21.6151 0 -149.896
251.76 21.5965 0 -149.375
114.651 22.1223 0 -147.323
107.872 22.1269 0 -146.798
355.854 20.0633 0 -143.122
376.218 20.1469 0 -144.689
111.262 22.1246 0 -147.061
231.404 21.539 0 -147.808
366.036 20.1052 0 -143.906
244.974 21.5776 0 -148.854
238.189 21.5583 0 -148.331
107.872 22.1269 0 -146.798
101.092 22.1322 0 -146.271
335.492 19.9794 0 -141.55
355.854 20.0633 0 -143.122
104.482 22.1293 0 -146.535
217.834 21.5009 0 -146.757
345.673 20.0213 0 -142.337
231.404 21.539 0 -147.808
224.619 21.5198 0 -147.283
101.092 22.1322 0 -146.271
94.3096 22.1405 0 -145.741
315.131 19.8976 0 -139.971
335.492 19.9794 0 -141.55
97.7012 22.1358 0 -146.006
204.263 21.4659 0 -145.702
325.311 19.938 0 -140.761
217.834 21.5009 0 -146.757
211.049 21.4828 0 -146.231
94.3096 22.1405 0 -145.741
87.5232 22.1561 0 -145.211
294.77 19.8218 0 -138.382
315.131 19.8976 0 -139.971
90.917 22.147 0 -145.476
190.69 21.4387 0 -144.642
304.951 19.8585 0 -139.178
204.263 21.4659 0 -145.702
197.477 21.4509 0 -145.173
87.5232 22.1561 0 -145.211
80.7255 22.1851 0 -144.683
274.406 19.7603 0 -136.78
294.77 19.8218 0 -138.382
84.1265 22.1684 0 -144.947
177.108 21.4277 0 -143.576
284.588 19.7885 0 -137.583
190.69 21.4387 0 -144.642
183.9 21.4303 0 -144.11
80.7255 22.1851 0 -144.683
73.9085 22.2401 0 -144.165
254.027 19.7264 0 -135.16
274.406 19.7603 0 -136.78
77.3196 22.2083 0 -144.422
163.504 21.4484 0 -142.505
264.219 19.7386 0 -135.973
177.108 21.4277 0 -143.576
170.31 21.4328 0 -143.041
73.9085 22.2401 0 -144.165
67.0461 22.3377 0 -143.673
233.618 19.7475 0 -133.512
254.027 19.7264 0 -135.16
70.4859 22.282 0 -143.915
149.855 21.5261 0 -141.433
243.826 19.7276 0 -134.34
163.504 21.4484 0 -142.505
156.687 21.4776 0 -141.969
67.0461 22.3377 0 -143.673
60.1135 22.5132 0 -143.239
213.127 19.8616 0 -131.822
233.618 19.7475 0 -133.512
63.5888 22.4128 0 -143.446
136.113 21.7056 0 -140.371
223.388 19.7892 0 -132.673
149.855 21.5261 0 -141.433
143 21.5998 0 -140.899
60.1135 22.5132 0 -143.239
53.0234 22.8026 0 -142.921
192.497 20.1466 0 -130.068
213.127 19.8616 0 -131.822
56.5983 22.6402 0 -143.06
122.193 22.0498 0 -139.342
202.83 19.9767 0 -130.955
136.113 21.7056 0 -140.371
129.181 21.8504 0 -139.852
53.0234 22.8026 0 -142.921
45.7179 23.2918 0 -142.815
171.536 20.6828 0 -128.234
192.497 20.1466 0 -130.068
49.3955 23.0171 0 -142.833
107.944 22.6621 0 -138.388
182.08 20.3753 0 -129.161
122.193 22.0498 0 -139.342
115.123 22.3177 0 -138.847
45.7179 23.2918 0 -142.815
37.9497 24.0089 0 -143.079
150.089 21.64 0 -126.281
171.536 20.6828 0 -128.234
41.9232 23.6178 0 -142.889
93.1303 23.6317 0 -137.594
160.873 21.1007 0 -127.276
107.944 22.6621 0 -138.388
100.622 23.0904 0 -137.973
37.9497 24.0089 0 -143.079
29.6759 25.0827 0 -143.907
127.57 23.0408 0 -124.266
150.089 21.64 0 -126.281
33.8547 24.5037 0 -143.408
77.3887 25.0637 0 -137.095
139.034 22.2789 0 -125.273
93.1303 23.6317 0 -137.594
85.4136 24.3031 0 -137.278
29.6759 25.0827 0 -143.907
20.3799 26.2235 0 -145.52
103.753 25.021 0 -122.23
127.57 23.0408 0 -124.266
25.2367 25.6623 0 -144.603
60.3163 26.7202 0 -137.109
115.795 23.9858 0 -123.246
77.3887 25.0637 0 -137.095
69.0255 25.8713 0 -137.055
20.3799 26.2235 0 -145.52
10.5813 27.2306 0 -147.87
77.3297 26.6414 0 -120.725
103.753 25.021 0 -122.23
15.4193 26.8217 0 -146.615
41.5271 27.9902 0 -137.894
91.0505 25.9379 0 -121.351
60.3163 26.7202 0 -137.109
51.2082 27.5491 0 -137.318
10.5813 27.2306 0 -147.87
-0.103275 25.9768 0 -150.339
49.1332 26.6576 0 -120.351
77.3297 26.6414 0 -120.725
5.5019 27.0193 0 -149.172
21.5855 26.3616 0 -139.609
63.2335 27.1424 0 -120.335
41.5271 27.9902 0 -137.894
31.5422 27.6924 0 -138.759
-0.103275 25.9768 0 -150.339
-8.48683 20.6765 0 -150.335
18.611 18.3418 0 -122.996
49.1332 26.6576 0 -120.351
-5.07399 24.1248 0 -150.889
2.46319 17.8299 0 -141.275
34.4277 24.0313 0 -121.153
21.5855 26.3616 0 -139.609
11.9186 23.5297 0 -140.354
-8.48683 20.6765 0 -150.335
-14.69 5.95724 0 -142.699
-4.72066 -8.27521 0 -126.909
18.611 18.3418 0 -122.996
-11.505 14.4233 0 -147.961
-9.37583 -5.12629 0 -137.989
4.84241 8.85616 0 -125.052
2.46319 17.8299 0 -141.275
-5.3237 8.18192 0 -141.211
-14.69 5.95724 0 -142.699
-11.7099 -13.2224 0 -118.312
-16.8263 -77.4575 0 -121.566
-4.72066 -8.27521 0 -126.909
-15.4392 -3.22558 0 -133.139
-12.5002 -44.2912 0 -117.916
-12.0561 -37.5773 0 -127.081
-9.37583 -5.12629 0 -137.989
-11.1743 -22.4236 0 -130.295
-11.7099 -13.2224 0 -118.312
-0.536097 -40.6348 0 -70.472
-11.1322 -164.864 0 -74.0741
-16.8263 -77.4575 0 -121.566
-6.01784 -25.5275 0 -97.6811
-9.84208 -97.8338 0 -75.4095
-17.4999 -123.427 0 -105.033
-12.5002 -44.2912 0 -117.916
-12.5767 -70.2587 0 -100.16
3620.96 1083.01 0 330.08
3936.7 679.829 0 -16.9497
6692.31 719.005 0 -382.274
6317.83 1884.72 0 -261.549
3835.17 866.75 0 120.72
5227.46 787.576 0 -161.161
6564.38 1356.2 0 -438.917
5159.41 1540.61 0 45.4479
5106.69 1095.65 0 -55.3854
3936.7 679.829 0 -16.9497
4013.21 291.569 0 -127.292
6796.02 210.252 0 -192.863
6692.31 719.005 0 -382.274
3970.87 471.518 0 -87.4524
5417.14 303.614 0 -191.429
6789.08 368.162 0 -281.754
5227.46 787.576 0 -161.161
5373 527.722 0 -211.323
4013.21 291.569 0 -127.292
4052.84 94.4853 0 -151.183
6711.58 31.9068 0 -85.357
6796.02 210.252 0 -192.863
4050.51 173.36 0 -147.755
5406.22 80.8903 0 -136.237
6745.45 99.9748 0 -121.759
5417.14 303.614 0 -191.429
5415.75 160.342 0 -155.867
4052.84 94.4853 0 -151.183
4022.79 2.42347 0 -143.45
6652.56 -7.8498 0 -64.2101
6711.58 31.9068 0 -85.357
4036.46 37.586 0 -146.729
5355.25 -5.41617 0 -110.566
6685.49 3.27173 0 -70.477
5406.22 80.8903 0 -136.237
5384.5 28.2602 0 -122.322
4022.79 2.42347 0 -143.45
3986.89 -25.0173 0 -138.854
6593.25 -22.7365 0 -67.1758
6652.56 -7.8498 0 -64.2101
4007.91 -15.7268 0 -141.194
5299.79 -27.0231 0 -104.74
6618.15 -17.4597 0 -63.1771
5355.25 -5.41617 0 -110.566
5325.22 -21.761 0 -104.619
3986.89 -25.0173 0 -138.854
3945.12 -31.9893 0 -136.614
6552.09 -20.555 0 -79.9927
6593.25 -22.7365 0 -67.1758
3964.02 -30.4587 0 -136.98
5253.38 -30.073 0 -108.832
6573.29 -22.4225 0 -73.7684
5299.79 -27.0231 0 -104.74
5276.1 -29.3974 0 -106.732
3945.12 -31.9893 0 -136.614
3911.25 -28.907 0 -137.764
6512.44 -18.0207 0 -91.6755
6552.09 -20.555 0 -79.9927
3928.23 -30.8587 0 -137.109
5213.57 -25.8069 0 -115.553
6531.03 -19.3901 0 -85.8246
5253.38 -30.073 0 -108.832
5232.43 -28.5188 0 -111.818
3911.25 -28.907 0 -137.764
3880.67 -24.8615 0 -139.826
6477.24 -14.431 0 -102.139
6512.44 -18.0207 0 -91.6755
3895.01 -26.9773 0 -138.617
5179.07 -21.383 0 -122.377
6495.04 -16.1291 0 -97.2816
5213.57 -25.8069 0 -115.553
5195.93 -23.4127 0 -119.169
3880.67 -24.8615 0 -139.826
3854.66 -20.871 0 -142.597
6442.13 -12.0872 0 -110.356
6477.24 -14.431 0 -102.139
3867.48 -22.719 0 -141.213
5147.63 -17.5664 0 -128.436
6459.43 -13.1708 0 -106.421
5179.07 -21.383 0 -122.377
5163 -19.3935 0 -125.461
3854.66 -20.871 0 -142.597
3830.69 -18.0643 0 -145.432
6407.84 -10.2926 0 -117.244
6442.13 -12.0872 0 -110.356
3842.34 -19.3618 0 -143.992
5118.08 -14.9561 0 -133.668
6425.05 -11.0943 0 -113.98
5147.63 -17.5664 0 -128.436
5132.71 -16.1073 0 -131.174
3830.69 -18.0643 0 -145.432
3808.41 -16.0474 0 -148.307
6373.42 -9.1555 0 -123.044
6407.84 -10.2926 0 -117.244
3819.46 -16.9493 0 -146.883
5089.53 -13.1589 0 -138.261
6390.59 -9.67215 0 -120.235
5118.08 -14.9561 0 -133.668
5103.71 -13.9777 0 -136.022
3808.41 -16.0474 0 -148.307
3786.87 -14.711 0 -151.104
6339.08 -8.34932 0 -128.232
6373.42 -9.1555 0 -123.044
3797.54 -15.3194 0 -149.711
5061.52 -11.9788 0 -142.396
6356.28 -8.71281 0 -125.707
5089.53 -13.1589 0 -138.261
5075.49 -12.5043 0 -140.381
3786.87 -14.711 0 -151.104
3765.83 -13.7609 0 -153.836
6304.66 -7.78352 0 -132.997
6339.08 -8.34932 0 -128.232
3776.32 -14.1935 0 -152.481
5033.76 -11.1542 0 -146.228
6321.87 -8.04724 0 -130.652
5061.52 -11.9788 0 -142.396
5047.62 -11.5337 0 -144.34
3765.83 -13.7609 0 -153.836
3745 -13.0646 0 -156.491
6270.21 -7.33612 0 -137.511
6304.66 -7.78352 0 -132.997
3755.39 -13.391 0 -155.172
5006.12 -10.5478 0 -149.855
6287.44 -7.5475 0 -135.281
5033.76 -11.1542 0 -146.228
5019.93 -10.8301 0 -148.064
3745 -13.0646 0 -156.491
3724.28 -12.5012 0 -159.08
6235.71 -6.95894 0 -141.848
6270.21 -7.33612 0 -137.511
3734.63 -12.7695 0 -157.794
4978.52 -10.0561 0 -153.341
6252.96 -7.14211 0 -139.697
5006.12 -10.5478 0 -149.855
4992.32 -10.2919 0 -151.613
3724.28 -12.5012 0 -159.08
3703.61 -12.0148 0 -161.605
6201.2 -6.61351 0 -146.06
6235.71 -6.95894 0 -141.848
3713.94 -12.2515 0 -160.35
4950.94 -9.62673 0 -156.721
6218.46 -6.78324 0 -143.968
4978.52 -10.0561 0 -153.341
4964.73 -9.83583 0 -155.043
3703.61 -12.0148 0 -161.605
3682.97 -11.5665 0 -164.074
6166.67 -6.28372 0 -150.171
6201.2 -6.61351 0 -146.06
3693.29 -11.787 0 -162.846
4923.37 -9.22734 0 -160.015
6183.93 -6.44756 0 -148.127
4950.94 -9.62673 0 -156.721
4937.16 -9.42453 0 -158.378
3682.97 -11.5665 0 -164.074
3662.32 -11.1386 0 -166.488
6132.12 -5.95928 0 -154.193
6166.67 -6.28372 0 -150.171
3672.64 -11.3509 0 -165.288
4895.79 -8.84241 0 -163.236
6149.4 -6.12111 0 -152.193
4923.37 -9.22734 0 -160.015
4909.58 -9.03367 0 -161.634
3662.32 -11.1386 0 -166.488
3641.68 -10.7205 0 -168.852
6097.57 -5.63601 0 -158.134
6132.12 -5.95928 0 -154.193
3652 -10.9287 0 -167.677
4868.2 -8.46347 0 -166.389
6114.84 -5.79771 0 -156.174
4895.79 -8.84241 0 -163.236
4881.99 -8.6525 0 -164.82
3641.68 -10.7205 0 -168.852
3621.04 -10.3075 0 -171.168
6063.01 -5.31166 0 -161.997
6097.57 -5.63601 0 -158.134
3631.36 -10.5136 0 -170.016
4840.61 -8.0867 0 -169.478
6080.29 -5.47403 0 -160.075
4868.2 -8.46347 0 -166.389
4854.4 -8.27495 0 -167.941
3621.04 -10.3075 0 -171.168
3600.39 -9.89691 0 -173.436
6028.44 -4.98541 0 -165.784
6063.01 -5.31166 0 -161.997
3610.71 -10.102 0 -172.308
4813.01 -7.71024 0 -172.505
6045.72 -5.1488 0 -163.9
4840.61 -8.0867 0 -169.478
4826.81 -7.8985 0 -170.999
3600.39 -9.89691 0 -173.436
3579.74 -9.48761 0 -175.658
5993.87 -4.65697 0 -169.497
6028.44 -4.98541 0 -165.784
3590.06 -9.69215 0 -174.553
4785.42 -7.33332 0 -175.471
6011.16 -4.82147 0 -167.65
4813.01 -7.71024 0 -172.505
4799.22 -7.52186 0 -173.996
3579.74 -9.48761 0 -175.658
3559.09 -9.07901 0 -177.835
5959.3 -4.3263 0 -173.135
5993.87 -4.65697 0 -169.497
3569.41 -9.28324 0 -176.753
4757.82 -6.95564 0 -178.379
5976.59 -4.49191 0 -171.325
4785.42 -7.33332 0 -175.471
4771.62 -7.14458 0 -176.932
3559.09 -9.07901 0 -177.835
3538.44 -8.67085 0 -179.968
5924.73 -3.9935 0 -176.7
5959.3 -4.3263 0 -173.135
3548.76 -8.87488 0 -178.907
4730.21 -6.57711 0 -181.227
5942.01 -4.16016 0 -174.927
4757.82 -6.95564 0 -178.379
4744.01 -6.76648 0 -179.81
3538.44 -8.67085 0 -179.968
3517.78 -8.263 0 -182.057
5890.15 -3.6587 0 -180.193
5924.73 -3.9935 0 -176.7
3528.11 -8.46689 0 -181.018
4702.61 -6.19777 0 -184.017
5907.44 -3.82634 0 -178.456
4730.21 -6.57711 0 -181.227
4716.41 -6.38754 0 -182.629
3517.78 -8.263 0 -182.057
3497.12 -7.85545 0 -184.102
5855.57 -3.32205 0 -183.613
5890.15 -3.6587 0 -180.193
3507.45 -8.05919 0 -183.085
4675 -5.81767 0 -186.748
5872.86 -3.4906 0 -181.912
4702.61 -6.19777 0 -184.017
4688.81 -6.00781 0 -185.39
3497.12 -7.85545 0 -184.102
3476.47 -7.44821 0 -186.104
5820.99 -2.98372 0 -186.961
5855.57 -3.32205 0 -183.613
3486.8 -7.65179 0 -185.109
4647.39 -5.43693 0 -189.423
5838.28 -3.15309 0 -185.296
4675 -5.81767 0 -186.748
4661.2 -5.62738 0 -188.093
3476.47 -7.44821 0 -186.104
3455.81 -7.04132 0 -188.064
5786.42 -2.64387 0 -190.238
5820.99 -2.98372 0 -186.961
3466.14 -7.24472 0 -187.089
4619.79 -5.05564 0 -192.04
5803.7 -2.81397 0 -188.609
4647.39 -5.43693 0 -189.423
4633.59 -5.24634 0 -190.739
3455.81 -7.04132 0 -188.064
3435.15 -6.63486 0 -189.98
5751.83 -2.30267 0 -193.445
5786.42 -2.64387 0 -190.238
3445.48 -6.83804 0 -189.027
4592.18 -4.67394 0 -194.601
5769.13 -2.47343 0 -191.85
4619.79 -5.05564 0 -192.04
4605.98 -4.86483 0 -193.328
3435.15 -6.63486 0 -189.98
3414.49 -6.22891 0 -191.855
5717.25 -1.96029 0 -196.58
5751.83 -2.30267 0 -193.445
3424.82 -6.43182 0 -190.923
4564.57 -4.29195 0 -197.106
5734.54 -2.13162 0 -195.021
4592.18 -4.67394 0 -194.601
4578.37 -4.48297 0 -195.861
3414.49 -6.22891 0 -191.855
3393.82 -5.82356 0 -193.687
5682.67 -1.61691 0 -199.646
5717.25 -1.96029 0 -196.58
3404.16 -6.02615 0 -192.776
4536.95 -3.90979 0 -199.554
5699.96 -1.78872 0 -198.122
4564.57 -4.29195 0 -197.106
4550.76 -4.10088 0 -198.337
3393.82 -5.82356 0 -193.687
3373.16 -5.4189 0 -195.478
5648.09 -1.27268 0 -202.643
5682.67 -1.61691 0 -199.646
3383.49 -5.62114 0 -194.588
4509.34 -3.52762 0 -201.947
5665.38 -1.44489 0 -201.153
4536.95 -3.90979 0 -199.554
4523.15 -3.7187 0 -200.758
3373.16 -5.4189 0 -195.478
3352.5 -5.01504 0 -197.227
5613.51 -0.927778 0 -205.57
5648.09 -1.27268 0 -202.643
3362.83 -5.21686 0 -196.358
4481.73 -3.14554 0 -204.284
5630.8 -1.1003 0 -204.115
4509.34 -3.52762 0 -201.947
4495.54 -3.33656 0 -203.123
3352.5 -5.01504 0 -197.227
3331.84 -4.61207 0 -198.935
5578.93 -0.582364 0 -208.428
5613.51 -0.927778 0 -205.57
3342.17 -4.81343 0 -198.086
4454.12 -2.76371 0 -206.567
5596.22 -0.755125 0 -207.007
4481.73 -3.14554 0 -204.284
4467.92 -2.95459 0 -205.433
3331.84 -4.61207 0 -198.935
3311.17 -4.21009 0 -200.602
5544.35 -0.2366 0 -211.218
5578.93 -0.582364 0 -208.428
3321.5 -4.41095 0 -199.774
4426.51 -2.38225 0 -208.795
5561.64 -0.409516 0 -209.831
4454.12 -2.76371 0 -206.567
4440.31 -2.57292 0 -207.688
3311.17 -4.21009 0 -200.602
3290.51 -3.80919 0 -202.228
5509.77 0.109355 0 -213.94
5544.35 -0.2366 0 -211.218
3300.84 -4.0095 0 -201.42
4398.89 -2.00128 0 -210.968
5527.06 -0.063637 0 -212.587
4426.51 -2.38225 0 -208.795
4412.7 -2.19169 0 -209.888
3290.51 -3.80919 0 -202.228
3269.84 -3.40948 0 -203.814
5475.19 0.455345 0 -216.595
5509.77 0.109355 0 -213.94
3280.17 -3.60918 0 -203.026
4371.28 -1.62093 0 -213.088
5492.48 0.282355 0 -215.276
4398.89 -2.00128 0 -210.968
4385.09 -1.81102 0 -212.035
3269.84 -3.40948 0 -203.814
3249.18 -3.01104 0 -205.36
5440.61 0.801218 0 -219.182
5475.19 0.455345 0 -216.595
3259.51 -3.2101 0 -204.592
4343.67 -1.24132 0 -215.154
5457.9 0.628306 0 -217.897
4371.28 -1.62093 0 -213.088
4357.47 -1.43102 0 -214.128
3249.18 -3.01104 0 -205.36
3228.51 -2.61397 0 -206.865
5406.03 1.14682 0 -221.703
5440.61 0.801218 0 -219.182
3238.85 -2.81233 0 -206.117
4316.06 -0.86258 0 -217.167
5423.32 0.974064 0 -220.451
4343.67 -1.24132 0 -215.154
4329.86 -1.05183 0 -216.167
3228.51 -2.61397 0 -206.865
3207.85 -2.21836 0 -208.331
5371.45 1.49202 0 -224.158
5406.03 1.14682 0 -221.703
3218.18 -2.41598 0 -207.603
4288.44 -0.484821 0 -219.126
5388.74 1.31948 0 -222.939
4316.06 -0.86258 0 -217.167
4302.25 -0.67357 0 -218.153
3207.85 -2.21836 0 -208.331
3187.19 -1.82429 0 -209.757
5336.88 1.83665 0 -226.547
5371.45 1.49202 0 -224.158
3197.52 -2.02112 0 -209.049
4260.83 -0.108161 0 -221.033
5354.16 1.66441 0 -225.361
4288.44 -0.484821 0 -219.126
4274.64 -0.296346 0 -220.086
3187.19 -1.82429 0 -209.757
3166.52 -1.43184 0 -211.145
5302.3 2.18058 0 -228.871
5336.88 1.83665 0 -226.547
3176.85 -1.62786 0 -210.456
4233.22 0.267289 0 -222.888
5319.59 2.00871 0 -227.717
4260.83 -0.108161 0 -221.033
4247.03 0.0797225 0 -221.967
3166.52 -1.43184 0 -211.145
3145.86 -1.04111 0 -212.493
5267.73 2.52368 0 -231.129
5302.3 2.18058 0 -228.871
3156.19 -1.23626 0 -211.824
4205.62 0.641416 0 -224.691
5285.01 2.35224 0 -230.008
4233.22 0.267289 0 -222.888
4219.42 0.454524 0 -223.796
3145.86 -1.04111 0 -212.493
3125.19 -0.65217 0 -213.802
5233.16 2.8658 0 -233.324
5267.73 2.52368 0 -231.129
3135.53 -0.84641 0 -213.152
4178.01 1.01411 0 -226.442
5250.44 2.69487 0 -232.235
4205.62 0.641416 0 -224.691
4191.81 0.827949 0 -225.573
3125.19 -0.65217 0 -213.802
3104.53 -0.265103 0 -215.073
5198.59 3.20681 0 -235.454
5233.16 2.8658 0 -233.324
3114.86 -0.458397 0 -214.443
4150.4 1.38527 0 -228.143
5215.87 3.03645 0 -234.397
4178.01 1.01411 0 -226.442
4164.2 1.19989 0 -227.299
3104.53 -0.265103 0 -215.073
3083.87 0.120012 0 -216.306
5164.02 3.54659 0 -237.521
5198.59 3.20681 0 -235.454
3094.2 -0.0722967 0 -215.695
4122.8 1.75479 0 -229.792
5181.3 3.37686 0 -236.495
4150.4 1.38527 0 -228.143
4136.6 1.57024 0 -228.974
3083.87 0.120012 0 -216.306
3063.21 0.503099 0 -217.501
5129.45 3.885 0 -239.524
5164.02 3.54659 0 -237.521
3073.54 0.311814 0 -216.909
4095.19 2.12256 0 -231.391
5146.73 3.71597 0 -238.53
4122.8 1.75479 0 -229.792
4108.99 1.9389 0 -230.597
3063.21 0.503099 0 -217.501
3042.55 0.884083 0 -218.659
5094.89 4.22191 0 -241.465
5129.45 3.885 0 -239.524
3052.88 0.693859 0 -218.085
4067.59 2.48848 0 -232.939
5112.17 4.05365 0 -240.502
4095.19 2.12256 0 -231.391
4081.39 2.30576 0 -232.171
3042.55 0.884083 0 -218.659
3021.89 1.26289 0 -219.779
5060.33 4.55721 0 -243.343
5094.89 4.22191 0 -241.465
3032.22 1.07376 0 -219.223
4039.99 2.85247 0 -234.438
5077.61 4.38977 0 -242.412
4067.59 2.48848 0 -232.939
4053.79 2.67072 0 -233.695
3021.89 1.26289 0 -219.779
3001.23 1.63945 0 -220.861
5025.77 4.89078 0 -245.159
5060.33 4.55721 0 -243.343
3011.56 1.45145 0 -220.325
4012.39 3.21441 0 -235.887
5043.05 4.72422 0 -244.259
4039.99 2.85247 0 -234.438
4026.19 3.0337 0 -235.168
3001.23 1.63945 0 -220.861
2980.57 2.01369 0 -221.907
4991.21 5.2225 0 -246.914
5025.77 4.89078 0 -245.159
2990.9 1.82686 0 -221.389
3984.79 3.57422 0 -237.287
5008.49 5.05688 0 -246.045
4012.39 3.21441 0 -235.887
3998.59 3.39459 0 -236.593
2980.57 2.01369 0 -221.907
2959.92 2.38554 0 -222.917
4956.66 5.55225 0 -248.608
4991.21 5.2225 0 -246.914
2970.25 2.19992 0 -222.417
3957.19 3.93181 0 -238.638
4973.94 5.38763 0 -247.769
3984.79 3.57422 0 -237.287
3970.99 3.7533 0 -237.968
2959.92 2.38554 0 -222.917
2939.26 2.75493 0 -223.89
4922.11 5.87991 0 -250.242
4956.66 5.55225 0 -248.608
2949.59 2.57055 0 -223.408
3929.6 4.28708 0 -239.941
4939.38 5.71635 0 -249.433
3957.19 3.93181 0 -238.638
3943.4 4.10974 0 -239.295
2939.26 2.75493 0 -223.89
2918.61 3.1218 0 -224.827
4887.56 6.20539 0 -251.815
4922.11 5.87991 0 -250.242
2928.94 2.93869 0 -224.363
3902.01 4.63994 0 -241.195
4904.83 6.04293 0 -251.036
3929.6 4.28708 0 -239.941
3915.8 4.46382 0 -240.574
2918.61 3.1218 0 -224.827
2897.96 3.48609 0 -225.728
4853.02 6.52857 0 -253.328
4887.56 6.20539 0 -251.815
2908.28 3.30427 0 -225.281
3874.42 4.99032 0 -242.402
4870.29 6.36727 0 -252.579
3902.01 4.63994 0 -241.195
3888.21 4.81545 0 -241.804
2897.96 3.48609 0 -225.728
2877.31 3.84773 0 -226.593
4818.47 6.84934 0 -254.782
4853.02 6.52857 0 -253.328
2887.63 3.66724 0 -226.165
3846.83 5.33812 0 -243.561
4835.74 6.68926 0 -254.063
3874.42 4.99032 0 -242.402
3860.62 5.16455 0 -242.987
2877.31 3.84773 0 -226.593
2856.66 4.20665 0 -227.423
4783.94 7.16761 0 -256.177
4818.47 6.84934 0 -254.782
2866.98 4.02753 0 -227.012
3819.24 5.68327 0 -244.673
4801.2 7.00879 0 -255.487
3846.83 5.33812 0 -243.561
3833.04 5.51103 0 -244.123
2856.66 4.20665 0 -227.423
2836.01 4.56281 0 -228.218
4749.4 7.48327 0 -257.514
4783.94 7.16761 0 -256.177
2846.33 4.38508 0 -227.825
3791.66 6.02568 0 -245.739
4766.67 7.32577 0 -256.853
3819.24 5.68327 0 -244.673
3805.45 5.85482 0 -245.212
2836.01 4.56281 0 -228.218
2815.36 4.91613 0 -228.978
4714.87 7.79622 0 -258.793
4749.4 7.48327 0 -257.514
2825.68 4.73982 0 -228.603
3764.08 6.36528 0 -246.758
4732.13 7.64009 0 -258.161
3791.66 6.02568 0 -245.739
3777.87 6.19584 0 -246.254
2815.36 4.91613 0 -228.978
2794.72 5.26657 0 -229.704
4680.34 8.10638 0 -260.014
4714.87 7.79622 0 -258.793
2805.04 5.09171 0 -229.345
3736.5 6.70198 0 -247.731
4697.61 7.95166 0 -259.41
3764.08 6.36528 0 -246.758
3750.29 6.53399 0 -247.25
2794.72 5.26657 0 -229.704
2774.07 5.61406 0 -230.395
4645.82 8.41363 0 -261.178
4680.34 8.10638 0 -260.014
2784.39 5.44068 0 -230.054
3708.93 7.03572 0 -248.658
4663.08 8.26037 0 -260.603
3736.5 6.70198 0 -247.731
3722.72 6.86922 0 -248.2
2774.07 5.61406 0 -230.395
2753.43 5.95855 0 -231.053
4611.3 8.71791 0 -262.285
4645.82 8.41363 0 -261.178
2763.75 5.78668 0 -230.728
3681.36 7.36642 0 -249.54
4628.56 8.56615 0 -261.738
3708.93 7.03572 0 -248.658
3695.14 7.20145 0 -249.104
2753.43 5.95855 0 -231.053
2732.79 6.3 0 -231.676
4576.78 9.0191 0 -263.336
4611.3 8.71791 0 -262.285
2743.11 6.12966 0 -231.369
3653.79 7.69401 0 -250.376
4594.04 8.86889 0 -262.817
3681.36 7.36642 0 -249.54
3667.57 7.5306 0 -249.964
2732.79 6.3 0 -231.676
2712.15 6.63834 0 -232.266
4542.27 9.31714 0 -264.33
4576.78 9.0191 0 -263.336
2722.47 6.46956 0 -231.975
3626.22 8.01842 0 -251.169
4559.52 9.16852 0 -263.84
3653.79 7.69401 0 -250.376
3640 7.85661 0 -250.778
2712.15 6.63834 0 -232.266
2691.52 6.97353 0 -232.823
4507.76 9.61193 0 -265.27
4542.27 9.31714 0 -264.33
2701.84 6.80633 0 -232.549
3598.65 8.33958 0 -251.916
4525.01 9.46495 0 -264.807
3626.22 8.01842 0 -251.169
3612.44 8.17941 0 -251.548
2691.52 6.97353 0 -232.823
2670.88 7.30552 0 -233.347
4473.26 9.9034 0 -266.154
4507.76 9.61193 0 -265.27
2681.2 7.13993 0 -233.089
3571.09 8.65743 0 -252.62
4490.51 9.75809 0 -265.719
3598.65 8.33958 0 -251.916
3584.87 8.49892 0 -252.274
2670.88 7.30552 0 -233.347
2650.25 7.63425 0 -233.838
4438.76 10.1915 0 -266.984
4473.26 9.9034 0 -266.154
2660.57 7.47029 0 -233.597
3543.54 8.97191 0 -253.28
4456.01 10.0479 0 -266.576
3571.09 8.65743 0 -252.62
3557.31 8.8151 0 -252.956
2650.25 7.63425 0 -233.838
2629.62 7.95969 0 -234.297
4404.26 10.476 0 -267.76
4438.76 10.1915 0 -266.984
2639.94 7.79739 0 -234.071
3515.98 9.28295 0 -253.897
4421.51 10.3342 0 -267.379
3543.54 8.97191 0 -253.28
3529.76 9.12786 0 -253.594
2629.62 7.95969 0 -234.297
2608.99 8.28179 0 -234.723
4369.77 10.757 0 -268.482
4404.26 10.476 0 -267.76
2619.31 8.12116 0 -234.514
3488.43 9.59049 0 -254.471
4387.01 10.617 0 -268.128
3515.98 9.28295 0 -253.897
3502.2 9.43716 0 -254.189
2608.99 8.28179 0 -234.723
2588.37 8.60051 0 -235.117
4335.28 11.0344 0 -269.15
4369.77 10.757 0 -268.482
2598.68 8.44158 0 -234.924
3460.88 9.89448 0 -255.002
4352.52 10.8962 0 -268.823
3488.43 9.59049 0 -254.471
3474.65 9.74293 0 -254.742
2588.37 8.60051 0 -235.117
2567.75 8.9158 0 -235.48
4300.8 11.3081 0 -269.766
4335.28 11.0344 0 -269.15
2578.06 8.75859 0 -235.303
3433.34 10.1949 0 -255.491
4318.04 11.1717 0 -269.465
3460.88 9.89448 0 -255.002
3447.11 10.0451 0 -255.252
2567.75 8.9158 0 -235.48
2547.12 9.22762 0 -235.811
4266.32 11.578 0 -270.33
4300.8 11.3081 0 -269.766
2557.44 9.07215 0 -235.649
3405.79 10.4916 0 -255.938
4283.56 11.4435 0 -270.054
3433.34 10.1949 0 -255.491
3419.56 10.3437 0 -255.719
2547.12 9.22762 0 -235.811
2526.51 9.53593 0 -236.111
4231.85 11.8441 0 -270.841
4266.32 11.578 0 -270.33
2536.82 9.38222 0 -235.965
3378.26 10.7845 0 -256.343
4249.08 11.7115 0 -270.592
3405.79 10.4916 0 -255.938
3392.02 10.6385 0 -256.145
2526.51 9.53593 0 -236.111
2505.89 9.8407 0 -236.38
4197.38 12.1062 0 -271.301
4231.85 11.8441 0 -270.841
2516.2 9.68876 0 -236.25
3350.72 11.0738 0 -256.707
4214.61 11.9756 0 -271.077
3378.26 10.7845 0 -256.343
3364.49 10.9296 0 -256.53
2505.89 9.8407 0 -236.38
2485.28 10.1419 0 -236.619
4162.92 12.3644 0 -271.709
4197.38 12.1062 0 -271.301
2495.58 9.99174 0 -236.503
3323.19 11.3592 0 -257.03
4180.15 12.2358 0 -271.511
3350.72 11.0738 0 -256.707
3336.95 11.2169 0 -256.874
2485.28 10.1419 0 -236.619
2464.66 10.4394 0 -236.827
4128.46 12.6186 0 -272.067
4162.92 12.3644 0 -271.709
2474.97 10.2911 0 -236.727
3295.66 11.6407 0 -257.313
4145.69 12.492 0 -271.894
3323.19 11.3592 0 -257.03
3309.43 11.5004 0 -257.176
2464.66 10.4394 0 -236.827
2444.05 10.7334 0 -237.005
4094 12.8687 0 -272.374
4128.46 12.6186 0 -272.067
2454.36 10.5869 0 -236.919
3268.14 11.9183 0 -257.555
4111.23 12.7442 0 -272.227
3295.66 11.6407 0 -257.313
3281.9 11.78 0 -257.439
2444.05 10.7334 0 -237.005
2423.45 11.0236 0 -237.153
4059.56 13.1146 0 -272.632
4094 12.8687 0 -272.374
2433.75 10.8789 0 -237.082
3240.62 12.1919 0 -257.758
4076.78 12.9922 0 -272.509
3268.14 11.9183 0 -257.555
3254.38 12.0556 0 -257.661
2423.45 11.0236 0 -237.153
2402.84 11.3101 0 -237.271
4025.11 13.3564 0 -272.84
4059.56 13.1146 0 -272.632
2413.15 11.1673 0 -237.215
3213.1 12.4616 0 -257.921
4042.33 13.2361 0 -272.742
3240.62 12.1919 0 -257.758
3226.86 12.3273 0 -257.844
2402.84 11.3101 0 -237.271
2382.24 11.5928 0 -237.36
3990.67 13.5939 0 -272.999
4025.11 13.3564 0 -272.84
2392.54 11.4519 0 -237.319
3185.59 12.7272 0 -258.044
4007.89 13.4757 0 -272.926
3213.1 12.4616 0 -257.921
3199.34 12.5949 0 -257.987
2382.24 11.5928 0 -237.36
2361.64 11.8718 0 -237.42
3956.24 13.8271 0 -273.11
3990.67 13.5939 0 -272.999
2371.94 11.7328 0 -237.393
3158.08 12.9887 0 -258.129
3973.46 13.7111 0 -273.061
3185.59 12.7272 0 -258.044
3171.83 12.8585 0 -258.092
2361.64 11.8718 0 -237.42
2341.05 12.147 0 -237.451
3921.81 14.056 0 -273.172
3956.24 13.8271 0 -273.11
2351.34 12.0099 0 -237.439
3130.57 13.2461 0 -258.175
3939.02 13.9421 0 -273.147
3158.08 12.9887 0 -258.129
3144.32 13.1179 0 -258.157
2341.05 12.147 0 -237.451
2320.45 12.4183 0 -237.453
3887.39 14.2805 0 -273.187
3921.81 14.056 0 -273.172
2330.75 12.2831 0 -237.455
3103.07 13.4993 0 -258.184
3904.6 14.1688 0 -273.185
3130.57 13.2461 0 -258.175
3116.82 13.3732 0 -258.184
2320.45 12.4183 0 -237.453
2299.86 12.6858 0 -237.427
3852.97 14.5005 0 -273.154
3887.39 14.2805 0 -273.187
2310.16 12.5525 0 -237.443
3075.57 13.7484 0 -258.154
3870.18 14.3911 0 -273.176
3103.07 13.4993 0 -258.184
3089.32 13.6244 0 -258.174
2299.86 12.6858 0 -237.427
2279.27 12.9493 0 -237.373
3818.56 14.7161 0 -273.075
3852.97 14.5005 0 -273.154
2289.57 12.818 0 -237.403
3048.08 13.9932 0 -258.087
3835.76 14.6089 0 -273.12
3075.57 13.7484 0 -258.154
3061.83 13.8713 0 -258.125
2279.27 12.9493 0 -237.373
2258.69 13.209 0 -237.291
3784.15 14.9271 0 -272.949
3818.56 14.7161 0 -273.075
2268.98 13.0797 0 -237.335
3020.59 14.2337 0 -257.983
3801.35 14.8222 0 -273.017
3048.08 13.9932 0 -258.087
3034.33 14.114 0 -258.039
2258.69 13.209 0 -237.291
2238.1 13.4647 0 -237.181
3749.75 15.1336 0 -272.777
3784.15 14.9271 0 -272.949
2248.39 13.3373 0 -237.239
2993.1 14.47 0 -257.842
3766.95 15.031 0 -272.868
3020.59 14.2337 0 -257.983
3006.85 14.3524 0 -257.917
2238.1 13.4647 0 -237.181
2217.52 13.7165 0 -237.044
3715.35 15.3355 0 -272.559
3749.75 15.1336 0 -272.777
2227.81 13.5911 0 -237.116
2965.62 14.7019 0 -257.664
3732.55 15.2352 0 -272.673
2993.1 14.47 0 -257.842
2979.36 14.5865 0 -257.757
2217.52 13.7165 0 -237.044
2196.94 13.9643 0 -236.88
3680.96 15.5328 0 -272.296
3715.35 15.3355 0 -272.559
2207.23 13.8409 0 -236.966
2938.15 14.9295 0 -257.45
3698.16 15.4348 0 -272.433
2965.62 14.7019 0 -257.664
2951.88 14.8162 0 -257.562
2196.94 13.9643 0 -236.88
2176.37 14.2081 0 -236.689
3646.58 15.7254 0 -271.989
3680.96 15.5328 0 -272.296
2186.66 14.0867 0 -236.788
2910.67 15.1527 0 -257.201
3663.77 15.6297 0 -272.148
2938.15 14.9295 0 -257.45
2924.41 15.0416 0 -257.33
2176.37 14.2081 0 -236.689
2155.8 14.4478 0 -236.472
3612.2 15.9134 0 -271.637
3646.58 15.7254 0 -271.989
2166.08 14.3285 0 -236.584
2883.2 15.3715 0 -256.916
3629.39 15.82 0 -271.818
2910.67 15.1527 0 -257.201
2896.94 15.2626 0 -257.063
2155.8 14.4478 0 -236.472
2135.23 14.6836 0 -236.228
3577.82 16.0966 0 -271.241
3612.2 15.9134 0 -271.637
2145.51 14.5662 0 -236.354
2855.74 15.5859 0 -256.596
3595.01 16.0055 0 -271.444
2883.2 15.3715 0 -256.916
2869.47 15.4792 0 -256.761
2135.23 14.6836 0 -236.228
2114.66 14.9153 0 -235.959
3543.45 16.275 0 -270.802
3577.82 16.0966 0 -271.241
2124.94 14.7999 0 -236.097
2828.28 15.7958 0 -256.241
3560.64 16.1864 0 -271.027
2855.74 15.5859 0 -256.596
2842.01 15.6914 0 -256.423
2114.66 14.9153 0 -235.959
2094.1 15.1429 0 -235.663
3509.09 16.4487 0 -270.319
3543.45 16.275 0 -270.802
2104.38 15.0296 0 -235.814
2800.82 16.0013 0 -255.852
3526.27 16.3625 0 -270.566
2828.28 15.7958 0 -256.241
2814.55 15.8991 0 -256.051
2094.1 15.1429 0 -235.663
2073.54 15.3665 0 -235.342
3474.73 16.6176 0 -269.795
3509.09 16.4487 0 -270.319
2083.82 15.2552 0 -235.506
2773.37 16.2023 0 -255.429
3491.91 16.5338 0 -270.062
2800.82 16.0013 0 -255.852
2787.09 16.1023 0 -255.645
2073.54 15.3665 0 -235.342
2052.98 15.5859 0 -234.996
3440.38 16.7817 0 -269.227
3474.73 16.6176 0 -269.795
2063.26 15.4767 0 -235.172
2745.92 16.3987 0 -254.972
3457.56 16.7002 0 -269.516
2773.37 16.2023 0 -255.429
2759.64 16.3011 0 -255.205
2052.98 15.5859 0 -234.996
2032.42 15.8013 0 -234.625
3406.04 16.9409 0 -268.619
3440.38 16.7817 0 -269.227
2042.7 15.6941 0 -234.813
2718.47 16.5907 0 -254.482
3423.21 16.8619 0 -268.928
2745.92 16.3987 0 -254.972
2732.19 16.4953 0 -254.731
2032.42 15.8013 0 -234.625
2011.87 16.0125 0 -234.228
3371.7 17.0953 0 -267.968
3406.04 16.9409 0 -268.619
2022.15 15.9074 0 -234.43
2691.03 16.7781 0 -253.959
3388.87 17.0187 0 -268.299
2718.47 16.5907 0 -254.482
2704.75 16.685 0 -254.224
2011.87 16.0125 0 -234.228
1991.32 16.2196 0 -233.808
3337.36 17.2448 0 -267.277
3371.7 17.0953 0 -267.968
2001.6 16.1166 0 -234.021
2663.6 16.961 0 -253.402
3354.53 17.1706 0 -267.628
2691.03 16.7781 0 -253.959
2677.31 16.8702 0 -253.685
1991.32 16.2196 0 -233.808
1970.78 16.4226 0 -233.363
3303.03 17.3894 0 -266.546
3337.36 17.2448 0 -267.277
1981.05 16.3216 0 -233.588
2636.17 17.1394 0 -252.814
3320.2 17.3177 0 -266.917
2663.6 16.961 0 -253.402
2649.88 17.0508 0 -253.112
1970.78 16.4226 0 -233.363
1950.23 16.6215 0 -232.894
3268.71 17.5291 0 -265.774
3303.03 17.3894 0 -266.546
1960.5 16.5226 0 -233.132
2608.74 17.3131 0 -252.194
3285.87 17.4598 0 -266.165
2636.17 17.1394 0 -252.814
2622.45 17.2268 0 -252.508
1950.23 16.6215 0 -232.894
1929.69 16.8161 0 -232.402
3234.39 17.6638 0 -264.963
3268.71 17.5291 0 -265.774
1939.96 16.7193 0 -232.651
2581.31 17.4823 0 -251.541
3251.55 17.5971 0 -265.373
2608.74 17.3131 0 -252.194
2595.03 17.3983 0 -251.871
1929.69 16.8161 0 -232.402
1909.15 17.0067 0 -231.885
3200.08 17.7937 0 -264.112
3234.39 17.6638 0 -264.963
1919.42 16.9119 0 -232.146
2553.9 17.6469 0 -250.858
3217.24 17.7294 0 -264.542
2581.31 17.4823 0 -251.541
2567.6 17.5651 0 -251.203
1909.15 17.0067 0 -231.885
1888.62 17.1931 0 -231.346
3165.77 17.9186 0 -263.223
3200.08 17.7937 0 -264.112
1898.89 17.1004 0 -231.619
2526.48 17.8069 0 -250.143
3182.93 17.8568 0 -263.672
2553.9 17.6469 0 -250.858
2540.19 17.7274 0 -250.504
1888.62 17.1931 0 -231.346
1868.09 17.3753 0 -230.784
3131.47 18.0386 0 -262.295
3165.77 17.9186 0 -263.223
1878.35 17.2847 0 -231.068
2499.07 17.9623 0 -249.398
3148.62 17.9792 0 -262.764
2526.48 17.8069 0 -250.143
2512.78 17.8851 0 -249.775
1868.09 17.3753 0 -230.784
1847.56 17.5533 0 -230.199
3097.18 18.1536 0 -261.33
3131.47 18.0386 0 -262.295
1857.82 17.4648 0 -230.494
2471.66 18.113 0 -248.623
3114.33 18.0967 0 -261.817
2499.07 17.9623 0 -249.398
2485.37 18.0382 0 -249.014
1847.56 17.5533 0 -230.199
1827.03 17.7272 0 -229.591
3062.89 18.2637 0 -260.326
3097.18 18.1536 0 -261.33
1837.3 17.6408 0 -229.898
2444.26 18.2592 0 -247.817
3080.03 18.2093 0 -260.833
2471.66 18.113 0 -248.623
2457.96 18.1867 0 -248.224
1827.03 17.7272 0 -229.591
1806.51 17.8969 0 -228.961
3028.61 18.3688 0 -259.286
3062.89 18.2637 0 -260.326
1816.77 17.8125 0 -229.279
2416.87 18.4008 0 -246.982
3045.75 18.3169 0 -259.811
2444.26 18.2592 0 -247.817
2430.56 18.3306 0 -247.403
1806.51 17.8969 0 -228.961
1785.99 18.0624 0 -228.31
2994.33 18.469 0 -258.209
3028.61 18.3688 0 -259.286
1796.25 17.9802 0 -228.638
2389.47 18.5377 0 -246.117
3011.47 18.4195 0 -258.752
2416.87 18.4008 0 -246.982
2403.17 18.4698 0 -246.553
1785.99 18.0624 0 -228.31
1765.47 18.2237 0 -227.636
2960.06 18.5642 0 -257.096
2994.33 18.469 0 -258.209
1775.73 18.1436 0 -227.976
2362.08 18.6701 0 -245.224
2977.19 18.5172 0 -257.657
2389.47 18.5377 0 -246.117
2375.78 18.6045 0 -245.674
1765.47 18.2237 0 -227.636
1744.96 18.3809 0 -226.941
2925.79 18.6544 0 -255.947
2960.06 18.5642 0 -257.096
1755.22 18.3029 0 -227.292
2334.7 18.7978 0 -244.302
2942.93 18.6099 0 -256.526
2362.08 18.6701 0 -245.224
2348.39 18.7345 0 -244.766
1744.96 18.3809 0 -226.941
1724.45 18.5339 0 -226.225
2891.53 18.7397 0 -254.762
2925.79 18.6544 0 -255.947
1734.7 18.458 0 -226.586
2307.32 18.9209 0 -243.351
2908.66 18.6977 0 -255.359
2334.7 18.7978 0 -244.302
2321.01 18.8599 0 -243.83
1724.45 18.5339 0 -226.225
1703.94 18.6828 0 -225.488
2857.28 18.8201 0 -253.543
2891.53 18.7397 0 -254.762
1714.19 18.6089 0 -225.859
2279.94 19.0395 0 -242.373
2874.41 18.7805 0 -254.157
2307.32 18.9209 0 -243.351
2293.63 18.9808 0 -242.865
1703.94 18.6828 0 -225.488
1683.43 18.8275 0 -224.731
2823.03 18.8955 0 -252.289
2857.28 18.8201 0 -253.543
1693.69 18.7556 0 -225.112
2252.57 19.1534 0 -241.367
2840.15 18.8584 0 -252.92
2279.94 19.0395 0 -242.373
2266.25 19.097 0 -241.873
1683.43 18.8275 0 -224.731
1662.93 18.968 0 -223.952
2788.79 18.9659 0 -251.001
2823.03 18.8955 0 -252.289
1673.18 18.8983 0 -224.344
2225.2 19.2627 0 -240.333
2805.91 18.9313 0 -251.649
2252.57 19.1534 0 -241.367
2238.89 19.2086 0 -240.853
1662.93 18.968 0 -223.952
1642.43 19.1044 0 -223.154
2754.55 19.0315 0 -249.679
2788.79 18.9659 0 -251.001
1652.68 19.0367 0 -223.556
2197.84 19.3674 0 -239.273
2771.67 18.9993 0 -250.344
2225.2 19.2627 0 -240.333
2211.52 19.3156 0 -239.807
1642.43 19.1044 0 -223.154
1621.93 19.2366 0 -222.336
2720.32 19.0921 0 -248.324
2754.55 19.0315 0 -249.679
1632.18 19.171 0 -222.747
2170.48 19.4676 0 -238.186
2737.43 19.0624 0 -249.005
2197.84 19.3674 0 -239.273
2184.16 19.4181 0 -238.733
1621.93 19.2366 0 -222.336
1601.44 19.3647 0 -221.498
2686.09 19.1478 0 -246.936
2720.32 19.0921 0 -248.324
1611.69 19.3012 0 -221.919
2143.12 19.5632 0 -237.073
2703.2 19.1206 0 -247.634
2170.48 19.4676 0 -238.186
2156.8 19.516 0 -237.633
1601.44 19.3647 0 -221.498
1580.95 19.4886 0 -220.64
2651.87 19.1987 0 -245.515
2686.09 19.1478 0 -246.936
1591.19 19.4272 0 -221.072
2115.77 19.6543 0 -235.934
2668.98 19.1738 0 -246.229
2143.12 19.5632 0 -237.073
2129.45 19.6093 0 -236.507
1580.95 19.4886 0 -220.64
1560.46 19.6085 0 -219.764
2617.66 19.2446 0 -244.062
2651.87 19.1987 0 -245.515
1570.7 19.5491 0 -220.205
2088.43 19.7407 0 -234.769
2634.76 19.2222 0 -244.793
2115.77 19.6543 0 -235.934
2102.1 19.6981 0 -235.355
1560.46 19.6085 0 -219.764
1539.98 19.7242 0 -218.868
2583.45 19.2857 0 -242.578
2617.66 19.2446 0 -244.062
1550.22 19.6669 0 -219.318
2061.08 19.8227 0 -233.579
2600.55 19.2658 0 -243.324
2088.43 19.7407 0 -234.769
2074.75 19.7823 0 -234.177
1539.98 19.7242 0 -218.868
1519.49 19.8358 0 -217.954
2549.24 19.322 0 -241.063
2583.45 19.2857 0 -242.578
1529.73 19.7805 0 -218.414
2033.75 19.9001 0 -232.364
2566.35 19.3044 0 -241.824
2061.08 19.8227 0 -233.579
2047.41 19.862 0 -232.975
1519.49 19.8358 0 -217.954
1499.01 19.9434 0 -217.022
2515.05 19.3534 0 -239.517
2549.24 19.322 0 -241.063
1509.25 19.8901 0 -217.49
2006.41 19.9731 0 -231.125
2532.14 19.3383 0 -240.294
2033.75 19.9001 0 -232.364
2020.08 19.9372 0 -231.747
1499.01 19.9434 0 -217.022
1478.54 20.0468 0 -216.071
2480.85 19.38 0 -237.94
2515.05 19.3534 0 -239.517
1488.77 19.9956 0 -216.548
1979.08 20.0415 0 -229.861
2497.95 19.3673 0 -238.732
2006.41 19.9731 0 -231.125
1992.75 20.0079 0 -230.496
1478.54 20.0468 0 -216.071
1458.06 20.1462 0 -215.102
2446.67 19.4018 0 -236.334
2480.85 19.38 0 -237.94
1468.3 20.097 0 -215.589
1951.75 20.1055 0 -228.573
2463.76 19.3915 0 -237.141
1979.08 20.0415 0 -229.861
1965.42 20.0741 0 -229.22
1458.06 20.1462 0 -215.102
1437.59 20.2415 0 -214.116
2412.49 19.4189 0 -234.698
2446.67 19.4018 0 -236.334
1447.83 20.1944 0 -214.611
1924.43 20.165 0 -227.262
2429.58 19.411 0 -235.519
1951.75 20.1055 0 -228.573
1938.09 20.1358 0 -227.92
1437.59 20.2415 0 -214.116
1417.12 20.3328 0 -213.112
2378.31 19.4312 0 -233.032
2412.49 19.4189 0 -234.698
1427.36 20.2877 0 -213.616
1897.11 20.2201 0 -225.927
2395.4 19.4256 0 -233.869
1924.43 20.165 0 -227.262
1910.77 20.1931 0 -226.597
1417.12 20.3328 0 -213.112
1396.66 20.4201 0 -212.091
2344.14 19.4388 0 -231.339
2378.31 19.4312 0 -233.032
1406.89 20.3769 0 -212.604
1869.8 20.2707 0 -224.57
2361.22 19.4356 0 -232.189
1897.11 20.2201 0 -225.927
1883.46 20.246 0 -225.251
1396.66 20.4201 0 -212.091
1376.19 20.5033 0 -211.053
2309.97 19.4417 0 -229.617
2344.14 19.4388 0 -231.339
1386.42 20.4622 0 -211.574
1842.49 20.317 0 -223.19
2327.06 19.4409 0 -230.481
1869.8 20.2707 0 -224.57
1856.14 20.2944 0 -223.882
1376.19 20.5033 0 -211.053
1355.73 20.5826 0 -209.999
2275.81 19.44 0 -227.867
2309.97 19.4417 0 -229.617
1365.96 20.5434 0 -210.528
1815.18 20.3589 0 -221.787
2292.89 19.4414 0 -228.745
1842.49 20.317 0 -223.19
1828.84 20.3385 0 -222.491
1355.73 20.5826 0 -209.999
1335.27 20.6579 0 -208.928
2241.66 19.4336 0 -226.089
2275.81 19.44 0 -227.867
1345.5 20.6207 0 -209.465
1787.88 20.3964 0 -220.363
2258.74 19.4374 0 -226.981
1815.18 20.3589 0 -221.787
1801.53 20.3782 0 -221.078
1335.27 20.6579 0 -208.928
1314.82 20.7292 0 -207.841
2207.51 19.4226 0 -224.285
2241.66 19.4336 0 -226.089
1325.05 20.694 0 -208.386
1760.58 20.4296 0 -218.917
2224.58 19.4287 0 -225.19
1787.88 20.3964 0 -220.363
1774.23 20.4136 0 -219.643
1314.82 20.7292 0 -207.841
1294.36 20.7966 0 -206.738
2173.36 19.407 0 -222.454
2207.51 19.4226 0 -224.285
1304.59 20.7634 0 -207.291
1733.29 20.4585 0 -217.45
2190.44 19.4154 0 -223.373
1760.58 20.4296 0 -218.917
1746.93 20.4446 0 -218.186
1294.36 20.7966 0 -206.738
1273.91 20.86 0 -205.619
2139.23 19.3869 0 -220.597
2173.36 19.407 0 -222.454
1284.14 20.8288 0 -206.18
1706 20.4831 0 -215.962
2156.29 19.3975 0 -221.528
1733.29 20.4585 0 -217.45
1719.64 20.4713 0 -216.708
1273.91 20.86 0 -205.619
1253.47 20.9196 0 -204.485
2105.09 19.3622 0 -218.714
2139.23 19.3869 0 -220.597
1263.69 20.8903 0 -205.054
1678.71 20.5035 0 -214.453
2122.16 19.3751 0 -219.658
1706 20.4831 0 -215.962
1692.35 20.4938 0 -215.21
1253.47 20.9196 0 -204.485
1233.02 20.9752 0 -203.336
2070.96 19.3331 0 -216.805
2105.09 19.3622 0 -218.714
1243.24 20.9479 0 -203.912
1651.43 20.5196 0 -212.924
2088.03 19.3482 0 -217.763
1678.71 20.5035 0 -214.453
1665.07 20.512 0 -213.691
1233.02 20.9752 0 -203.336
1212.58 21.027 0 -202.172
2036.84 19.2995 0 -214.872
2070.96 19.3331 0 -216.805
1222.8 21.0016 0 -202.756
1624.15 20.5315 0 -211.376
2053.9 19.3168 0 -215.842
1651.43 20.5196 0 -212.924
1637.79 20.5261 0 -212.152
1212.58 21.027 0 -202.172
1192.14 21.075 0 -200.993
2002.72 19.2615 0 -212.914
2036.84 19.2995 0 -214.872
1202.36 21.0515 0 -201.584
1596.87 20.5392 0 -209.807
2019.78 19.281 0 -213.896
1624.15 20.5315 0 -211.376
1610.51 20.5359 0 -210.594
1192.14 21.075 0 -200.993
1171.7 21.1191 0 -199.8
1968.61 19.2191 0 -210.933
2002.72 19.2615 0 -212.914
1181.92 21.0975 0 -200.398
1569.6 20.5428 0 -208.22
1985.66 19.2408 0 -211.927
1596.87 20.5392 0 -209.807
1583.24 20.5415 0 -209.016
1171.7 21.1191 0 -199.8
1151.27 21.1595 0 -198.593
1934.5 19.1724 0 -208.927
1968.61 19.2191 0 -210.933
1161.48 21.1398 0 -199.198
1542.33 20.5423 0 -206.613
1951.55 19.1963 0 -209.933
1569.6 20.5428 0 -208.22
1555.96 20.5431 0 -207.419
1151.27 21.1595 0 -198.593
1130.83 21.196 0 -197.372
1900.39 19.1214 0 -206.898
1934.5 19.1724 0 -208.927
1141.05 21.1782 0 -197.984
1515.07 20.5377 0 -204.988
1917.45 19.1474 0 -207.916
1542.33 20.5423 0 -206.613
1528.7 20.5405 0 -205.803
1130.83 21.196 0 -197.372
1110.4 21.2288 0 -196.137
1866.29 19.0661 0 -204.847
1900.39 19.1214 0 -206.898
1120.62 21.2129 0 -196.756
1487.8 20.529 0 -203.345
1883.34 19.0942 0 -205.875
1515.07 20.5377 0 -204.988
1501.44 20.5338 0 -204.169
1110.4 21.2288 0 -196.137
1089.98 21.2579 0 -194.888
1832.2 19.0065 0 -202.773
1866.29 19.0661 0 -204.847
1100.19 21.2438 0 -195.514
1460.55 20.5163 0 -201.683
1849.25 19.0368 0 -203.812
1487.8 20.529 0 -203.345
1474.18 20.5232 0 -202.516
1089.98 21.2579 0 -194.888
1069.55 21.2833 0 -193.627
1798.11 18.9428 0 -200.677
1832.2 19.0065 0 -202.773
1079.76 21.2711 0 -194.259
1433.29 20.4996 0 -200.004
1815.16 18.9752 0 -201.727
1460.55 20.5163 0 -201.683
1446.92 20.5085 0 -200.846
1069.55 21.2833 0 -193.627
1049.13 21.305 0 -192.353
1764.03 18.875 0 -198.559
1798.11 18.9428 0 -200.677
1059.34 21.2946 0 -192.991
1406.04 20.479 0 -198.308
1781.07 18.9094 0 -199.62
1433.29 20.4996 0 -200.004
1419.67 20.4898 0 -199.159
1049.13 21.305 0 -192.353
1028.71 21.323 0 -191.066
1729.95 18.803 0 -196.42
1764.03 18.875 0 -198.559
1038.92 21.3145 0 -191.711
1378.79 20.4544 0 -196.595
1746.99 18.8395 0 -197.492
1406.04 20.479 0 -198.308
1392.42 20.4672 0 -197.454
1028.71 21.323 0 -191.066
1008.29 21.3375 0 -189.766
1695.87 18.727 0 -194.26
1729.95 18.803 0 -196.42
1018.5 21.3307 0 -190.418
1351.55 20.426 0 -194.866
1712.91 18.7655 0 -195.343
1378.79 20.4544 0 -196.595
1365.17 20.4407 0 -195.732
1008.29 21.3375 0 -189.766
987.869 21.3483 0 -188.455
1661.8 18.647 0 -192.08
1695.87 18.727 0 -194.26
998.078 21.3433 0 -189.112
1324.31 20.3936 0 -193.12
1678.83 18.6875 0 -193.173
1351.55 20.426 0 -194.866
1337.93 20.4103 0 -193.995
987.869 21.3483 0 -188.455
967.455 21.3555 0 -187.131
1627.73 18.563 0 -189.88
1661.8 18.647 0 -192.08
977.662 21.3523 0 -187.795
1297.07 20.3575 0 -191.358
1644.77 18.6055 0 -190.983
1324.31 20.3936 0 -193.12
1310.69 20.3761 0 -192.241
967.455 21.3555 0 -187.131
947.042 21.3592 0 -185.796
1593.67 18.4751 0 -187.661
1627.73 18.563 0 -189.88
957.248 21.3578 0 -186.465
1269.84 20.3176 0 -189.58
1610.7 18.5195 0 -188.773
1297.07 20.3575 0 -191.358
1283.45 20.338 0 -190.471
947.042 21.3592 0 -185.796
926.632 21.3594 0 -184.45
1559.61 18.3833 0 -185.422
1593.67 18.4751 0 -187.661
936.837 21.3598 0 -185.124
1242.61 20.274 0 -187.788
1576.64 18.4297 0 -186.544
1269.84 20.3176 0 -189.58
1256.22 20.2962 0 -188.686
926.632 21.3594 0 -184.45
906.224 21.3561 0 -183.092
1525.56 18.2877 0 -183.165
1559.61 18.3833 0 -185.422
916.428 21.3582 0 -183.772
1215.38 20.2266 0 -185.98
1542.59 18.336 0 -184.296
1242.61 20.274 0 -187.788
1228.99 20.2507 0 -186.886
906.224 21.3561 0 -183.092
885.818 21.3493 0 -181.723
1491.51 18.1883 0 -180.889
1525.56 18.2877 0 -183.165
896.021 21.3531 0 -182.409
1188.15 20.1756 0 -184.158
1508.53 18.2384 0 -182.029
1215.38 20.2266 0 -185.98
1201.76 20.2015 0 -185.071
885.818 21.3493 0 -181.723
865.413 21.3391 0 -180.344
1457.46 18.0851 0 -178.596
1491.51 18.1883 0 -180.889
875.615 21.3447 0 -181.035
1160.93 20.1209 0 -182.321
1474.49 18.1372 0 -179.745
1188.15 20.1756 0 -184.158
1174.54 20.1487 0 -183.241
865.413 21.3391 0 -180.344
845.011 21.3255 0 -178.954
1423.42 17.9783 0 -176.285
1457.46 18.0851 0 -178.596
855.212 21.3328 0 -179.651
1133.71 20.0627 0 -180.471
1440.44 18.0322 0 -177.442
1160.93 20.1209 0 -182.321
1147.32 20.0922 0 -181.398
845.011 21.3255 0 -178.954
824.611 21.3086 0 -177.554
1389.39 17.8678 0 -173.957
1423.42 17.9783 0 -176.285
834.811 21.3175 0 -178.256
1106.5 20.0009 0 -178.607
1406.4 17.9235 0 -175.123
1133.71 20.0627 0 -180.471
1120.1 20.0322 0 -179.541
824.611 21.3086 0 -177.554
804.212 21.2882 0 -176.145
1355.35 17.7538 0 -171.612
1389.39 17.8678 0 -173.957
814.411 21.2988 0 -176.851
1079.28 19.9356 0 -176.73
1372.37 17.8113 0 -172.787
1106.5 20.0009 0 -178.607
1092.89 19.9686 0 -177.67
804.212 21.2882 0 -176.145
783.816 21.2646 0 -174.725
1321.33 17.6362 0 -169.251
1355.35 17.7538 0 -171.612
794.014 21.2768 0 -175.436
1052.07 19.8668 0 -174.839
1338.34 17.6955 0 -170.434
1079.28 19.9356 0 -176.73
1065.68 19.9016 0 -175.786
783.816 21.2646 0 -174.725
763.421 21.2377 0 -173.296
1287.3 17.5152 0 -166.875
1321.33 17.6362 0 -169.251
773.618 21.2516 0 -174.012
1024.86 19.7946 0 -172.936
1304.31 17.5761 0 -168.065
1052.07 19.8668 0 -174.839
1038.47 19.8311 0 -173.889
763.421 21.2377 0 -173.296
743.028 21.2076 0 -171.858
1253.28 17.3907 0 -164.483
1287.3 17.5152 0 -166.875
753.224 21.2231 0 -172.578
997.66 19.719 0 -171.021
1270.29 17.4534 0 -165.68
1024.86 19.7946 0 -172.936
1011.26 19.7572 0 -171.98
743.028 21.2076 0 -171.858
722.637 21.1742 0 -170.411
1219.26 17.2629 0 -162.075
1253.28 17.3907 0 -164.483
732.832 21.1913 0 -171.136
970.458 19.6401 0 -169.094
1236.27 17.3272 0 -163.281
997.66 19.719 0 -171.021
984.059 19.68 0 -170.059
722.637 21.1742 0 -170.411
702.247 21.1377 0 -168.956
1185.25 17.1317 0 -159.654
1219.26 17.2629 0 -162.075
712.442 21.1563 0 -169.684
943.259 19.5579 0 -167.155
1202.25 17.1977 0 -160.866
970.458 19.6401 0 -169.094
956.858 19.5994 0 -168.126
702.247 21.1377 0 -168.956
681.859 21.098 0 -167.491
1151.24 16.9973 0 -157.218
1185.25 17.1317 0 -159.654
692.053 21.1182 0 -168.224
916.062 19.4724 0 -165.205
1168.24 17.0649 0 -158.438
943.259 19.5579 0 -167.155
929.66 19.5155 0 -166.182
681.859 21.098 0 -167.491
661.473 21.0552 0 -166.019
1117.23 16.8596 0 -154.768
1151.24 16.9973 0 -157.218
671.666 21.0769 0 -166.756
888.867 19.3837 0 -163.244
1134.23 16.9288 0 -155.995
916.062 19.4724 0 -165.205
902.464 19.4285 0 -164.226
661.473 21.0552 0 -166.019
641.088 21.0092 0 -164.539
1083.23 16.7188 0 -152.305
1117.23 16.8596 0 -154.768
651.28 21.0326 0 -165.28
861.676 19.2919 0 -161.272
1100.23 16.7896 0 -153.539
888.867 19.3837 0 -163.244
875.271 19.3382 0 -162.259
641.088 21.0092 0 -164.539
620.705 20.9603 0 -163.051
1049.23 16.5749 0 -149.83
1083.23 16.7188 0 -152.305
630.897 20.9851 0 -163.796
834.486 19.1969 0 -159.29
1066.23 16.6473 0 -151.069
861.676 19.2919 0 -161.272
848.081 19.2448 0 -160.283
620.705 20.9603 0 -163.051
600.324 20.9083 0 -161.555
1015.23 16.428 0 -147.341
1049.23 16.5749 0 -149.83
610.514 20.9347 0 -162.304
807.299 19.0988 0 -157.298
1032.23 16.5018 0 -148.587
834.486 19.1969 0 -159.29
820.892 19.1482 0 -158.296
600.324 20.9083 0 -161.555
579.943 20.8533 0 -160.053
981.241 16.2781 0 -144.841
1015.23 16.428 0 -147.341
590.133 20.8811 0 -160.805
780.114 18.9977 0 -155.297
998.237 16.3534 0 -146.092
807.299 19.0988 0 -157.298
793.707 19.0487 0 -156.299
579.943 20.8533 0 -160.053
559.565 20.7953 0 -158.543
947.251 16.1252 0 -142.329
981.241 16.2781 0 -144.841
569.754 20.8247 0 -159.299
752.932 18.8936 0 -153.286
964.246 16.202 0 -143.586
780.114 18.9977 0 -155.297
766.523 18.9461 0 -154.292
559.565 20.7953 0 -158.543
539.187 20.7344 0 -157.027
913.265 15.9695 0 -139.805
947.251 16.1252 0 -142.329
549.376 20.7652 0 -157.786
725.752 18.7866 0 -151.266
930.258 16.0477 0 -141.068
752.932 18.8936 0 -153.286
739.342 18.8405 0 -152.277
539.187 20.7344 0 -157.027
518.811 20.6705 0 -155.505
879.281 15.8109 0 -137.271
913.265 15.9695 0 -139.805
528.999 20.7028 0 -156.267
698.574 18.6766 0 -149.238
896.273 15.8906 0 -138.54
725.752 18.7866 0 -151.266
712.163 18.732 0 -150.253
518.811 20.6705 0 -155.505
498.437 20.6038 0 -153.976
845.301 15.6496 0 -134.727
879.281 15.8109 0 -137.271
508.624 20.6375 0 -154.741
671.398 18.5638 0 -147.201
862.291 15.7306 0 -136
698.574 18.6766 0 -149.238
684.985 18.6205 0 -148.22
498.437 20.6038 0 -153.976
478.063 20.5343 0 -152.442
811.323 15.4856 0 -132.172
845.301 15.6496 0 -134.727
488.25 20.5694 0 -153.21
644.224 18.4481 0 -145.156
828.312 15.5679 0 -133.451
671.398 18.5638 0 -147.201
657.81 18.5063 0 -146.18
478.063 20.5343 0 -152.442
457.691 20.4619 0 -150.902
777.348 15.319 0 -129.608
811.323 15.4856 0 -132.172
467.877 20.4984 0 -151.672
617.052 18.3297 0 -143.104
794.335 15.4026 0 -130.891
644.224 18.4481 0 -145.156
630.637 18.3892 0 -144.131
457.691 20.4619 0 -150.902
437.321 20.3868 0 -149.356
743.376 15.1497 0 -127.035
777.348 15.319 0 -129.608
447.506 20.4247 0 -150.13
589.882 18.2085 0 -141.045
760.362 15.2347 0 -128.323
617.052 18.3297 0 -143.104
603.466 18.2694 0 -142.076
437.321 20.3868 0 -149.356
416.952 20.3091 0 -147.805
709.406 14.978 0 -124.453
743.376 15.1497 0 -127.035
427.136 20.3483 0 -148.581
562.714 18.0848 0 -138.979
726.391 15.0642 0 -125.745
589.882 18.2085 0 -141.045
576.297 18.147 0 -140.013
416.952 20.3091 0 -147.805
396.584 20.229 0 -146.25
675.439 14.8039 0 -121.863
709.406 14.978 0 -124.453
406.768 20.2694 0 -147.028
535.548 17.9586 0 -136.906
692.422 14.8913 0 -123.159
562.714 18.0848 0 -138.979
549.131 18.022 0 -137.943
396.584 20.229 0 -146.25
376.218 20.1469 0 -144.689
641.475 14.6276 0 -119.265
675.439 14.8039 0 -121.863
386.401 20.1882 0 -145.47
508.384 17.8301 0 -134.826
658.457 14.716 0 -120.565
535.548 17.9586 0 -136.906
521.966 17.8946 0 -135.867
376.218 20.1469 0 -144.689
355.854 20.0633 0 -143.122
607.514 14.4492 0 -116.659
641.475 14.6276 0 -119.265
366.036 20.1052 0 -143.906
481.223 17.6998 0 -132.74
624.494 14.5386 0 -117.963
508.384 17.8301 0 -134.826
494.803 17.7651 0 -133.784
355.854 20.0633 0 -143.122
335.492 19.9794 0 -141.55
573.556 14.2692 0 -114.045
607.514 14.4492 0 -116.659
345.673 20.0213 0 -142.337
454.065 17.5684 0 -130.647
590.534 14.3593 0 -115.353
481.223 17.6998 0 -132.74
467.644 17.6341 0 -131.694
335.492 19.9794 0 -141.55
315.131 19.8976 0 -139.971
539.603 14.0883 0 -111.422
573.556 14.2692 0 -114.045
325.311 19.938 0 -140.761
426.911 17.4376 0 -128.545
556.579 14.1788 0 -112.735
454.065 17.5684 0 -130.647
440.487 17.5028 0 -129.597
315.131 19.8976 0 -139.971
294.77 19.8218 0 -138.382
505.658 13.9082 0 -108.787
539.603 14.0883 0 -111.422
304.951 19.8585 0 -139.178
399.761 17.3103 0 -126.431
522.629 13.998 0 -110.106
426.911 17.4376 0 -128.545
413.335 17.3732 0 -127.49
294.77 19.8218 0 -138.382
274.406 19.7603 0 -136.78
471.723 13.7316 0 -106.137
505.658 13.9082 0 -108.787
284.588 19.7885 0 -137.583
372.615 17.1925 0 -124.301
488.689 13.8193 0 -107.465
399.761 17.3103 0 -126.431
386.187 17.2497 0 -125.368
274.406 19.7603 0 -136.78
254.027 19.7264 0 -135.16
437.806 13.5646 0 -103.46
471.723 13.7316 0 -106.137
264.219 19.7386 0 -135.973
345.471 17.0945 0 -122.143
454.761 13.6463 0 -104.803
372.615 17.1925 0 -124.301
359.042 17.1398 0 -123.226
254.027 19.7264 0 -135.16
233.618 19.7475 0 -133.512
403.912 13.4159 0 -100.738
437.806 13.5646 0 -103.46
243.826 19.7276 0 -134.34
318.322 17.0372 0 -119.94
420.856 13.4871 0 -102.106
345.471 17.0945 0 -122.143
331.898 17.0594 0 -121.048
233.618 19.7475 0 -133.512
213.127 19.8616 0 -131.822
370.066 13.3064 0 -97.934
403.912 13.4159 0 -100.738
223.388 19.7892 0 -132.673
291.153 17.0516 0 -117.659
386.98 13.3546 0 -99.3501
318.322 17.0372 0 -119.94
304.741 17.0313 0 -118.813
213.127 19.8616 0 -131.822
192.497 20.1466 0 -130.068
336.261 13.2582 0 -94.9927
370.066 13.3064 0 -97.934
202.83 19.9767 0 -130.955
263.921 17.2007 0 -115.246
353.162 13.2718 0 -96.485
291.153 17.0516 0 -117.659
277.55 17.1069 0 -116.472
192.497 20.1466 0 -130.068
171.536 20.6828 0 -128.234
302.568 13.3367 0 -91.7937
336.261 13.2582 0 -94.9927
182.08 20.3753 0 -129.161
236.551 17.5555 0 -112.621
319.39 13.2789 0 -93.4364
263.921 17.2007 0 -115.246
250.256 17.3397 0 -113.972
171.536 20.6828 0 -128.234
150.089 21.64 0 -126.281
268.882 13.5643 0 -88.2053
302.568 13.3367 0 -91.7937
160.873 21.1007 0 -127.276
208.864 18.2697 0 -109.665
285.745 13.4225 0 -90.0586
236.551 17.5555 0 -112.621
222.77 17.8706 0 -111.184
150.089 21.64 0 -126.281
127.57 23.0408 0 -124.266
235.376 14.1314 0 -83.9221
268.882 13.5643 0 -88.2053
139.034 22.2789 0 -125.273
180.594 19.4058 0 -106.248
252.071 13.8116 0 -86.1768
208.864 18.2697 0 -109.665
194.803 18.7517 0 -108.043
127.57 23.0408 0 -124.266
103.753 25.021 0 -122.23
201.372 14.8561 0 -78.7889
235.376 14.1314 0 -83.9221
115.795 23.9858 0 -123.246
151.083 21.177 0 -102.304
218.538 14.441 0 -81.4736
180.594 19.4058 0 -106.248
166.094 20.2688 0 -104.299
103.753 25.021 0 -122.23
77.3297 26.6414 0 -120.725
167.149 16.2269 0 -72.338
201.372 14.8561 0 -78.7889
91.0505 25.9379 0 -121.351
119.624 23.0129 0 -98.0681
184.192 15.5562 0 -75.7525
151.083 21.177 0 -102.304
135.556 22.0309 0 -100.274
77.3297 26.6414 0 -120.725
49.1332 26.6576 0 -120.351
129.374 16.4028 0 -65.403
167.149 16.2269 0 -72.338
63.2335 27.1424 0 -120.335
84.139 24.0956 0 -94.6687
149.135 16.3639 0 -68.8702
119.624 23.0129 0 -98.0681
102.777 24.0462 0 -95.9672
49.1332 26.6576 0 -120.351
18.611 18.3418 0 -122.996
87.984 15.677 0 -59.5318
129.374 16.4028 0 -65.403
34.4277 24.0313 0 -121.153
44.2841 18.3673 0 -95.2135
108.949 16.9034 0 -62.0217
84.139 24.0956 0 -94.6687
64.3627 22.3523 0 -94.4524
18.611 18.3418 0 -122.996
-4.72066 -8.27521 0 -126.909
32.354 -0.53228 0 -65.6506
87.984 15.677 0 -59.5318
4.84241 8.85616 0 -125.052
-0.622937 -7.79306 0 -105.903
63.2238 9.85329 0 -60.1454
44.2841 18.3673 0 -95.2135
23.3741 10.491 0 -98.1519
-4.72066 -8.27521 0 -126.909
-16.8263 -77.4575 0 -121.566
-17.7185 -65.2468 0 -101.952
32.354 -0.53228 0 -65.6506
-12.0561 -37.5773 0 -127.081
-18.1464 -90.5723 0 -121.282
4.93534 -17.0677 0 -77.2278
-0.622937 -7.79306 0 -105.903
-18.1673 -40.9954 0 -115.649
-16.8263 -77.4575 0 -121.566
-11.1322 -164.864 0 -74.0741
-6.17744 -328.901 0 -126.467
-17.7185 -65.2468 0 -101.952
-17.4999 -123.427 0 -105.033
7.64597 -238.599 0 -77.5694
-28.0805 -170.735 0 -128.031
-18.1464 -90.5723 0 -121.282
-8.42918 -160.21 0 -112.28
6317.83 1884.72 0 -261.549
6692.31 719.005 0 -382.274
9018.84 -166.264 0 108.118
13976 4168.94 0 -3360.28
6564.38 1356.2 0 -438.917
8365.61 513.116 0 -497.939
10036.8 -183.603 0 -491.94
7438.85 2218.38 0 -811.02
8256.38 1123.2 0 -768.006
6692.31 719.005 0 -382.274
6796.02 210.252 0 -192.863
8922.5 -95.6874 0 21.1669
9018.84 -166.264 0 108.118
6789.08 368.162 0 -281.754
8052.3 72.8761 0 -99.9043
8936.99 29.035 0 38.7485
8365.61 513.116 0 -497.939
8154.01 184.15 0 -212.969
6796.02 210.252 0 -192.863
6711.58 31.9068 0 -85.357
9084.02 30.5778 0 -5.00269
8922.5 -95.6874 0 21.1669
6745.45 99.9748 0 -121.759
7944.57 -1.96618 0 -30.6574
9015.87 -61.541 0 19.3401
8052.3 72.8761 0 -99.9043
7993.59 24.8487 0 -59.7195
6711.58 31.9068 0 -85.357
6652.56 -7.8498 0 -64.2101
9123.15 -8.69604 0 -32.0737
9084.02 30.5778 0 -5.00269
6685.49 3.27173 0 -70.477
7894.06 -12.71 0 -24.5714
9105.77 28.5087 0 -30.1396
7944.57 -1.96618 0 -30.6574
7909.89 -12.6133 0 -19.0955
6652.56 -7.8498 0 -64.2101
6593.25 -22.7365 0 -67.1758
9155.39 10.54 0 -35.4522
9123.15 -8.69604 0 -32.0737
6618.15 -17.4597 0 -63.1771
7870.44 -12.2323 0 -40.5381
9146.38 -5.98759 0 -29.9166
7894.06 -12.71 0 -24.5714
7884.47 -11.6572 0 -34.0386
6593.25 -22.7365 0 -67.1758
6552.09 -20.555 0 -79.9927
9142.06 -1.02758 0 -45.1141
9155.39 10.54 0 -35.4522
6573.29 -22.4225 0 -73.7684
7841.98 -10.3745 0 -55.9933
9149.56 7.83527 0 -42.55
7870.44 -12.2323 0 -40.5381
7855.35 -11.9374 0 -47.682
6552.09 -20.555 0 -79.9927
6512.44 -18.0207 0 -91.6755
9121.08 2.65081 0 -50.6291
9142.06 -1.02758 0 -45.1141
6531.03 -19.3901 0 -85.8246
7812.02 -8.12332 0 -69.5138
9134.25 -0.721861 0 -46.8763
7841.98 -10.3745 0 -55.9933
7828.17 -8.91863 0 -63.492
6512.44 -18.0207 0 -91.6755
6477.24 -14.431 0 -102.139
9084.36 0.122484 0 -57.8859
9121.08 2.65081 0 -50.6291
6495.04 -16.1291 0 -97.2816
7777.08 -6.73445 0 -80.2724
9103.24 1.99546 0 -54.8007
7812.02 -8.12332 0 -69.5138
7794.63 -7.48642 0 -75.0697
6477.24 -14.431 0 -102.139
6442.13 -12.0872 0 -110.356
9043.72 0.88255 0 -64.1609
9084.36 0.122484 0 -57.8859
6459.43 -13.1708 0 -106.421
7740.02 -5.60273 0 -88.9515
9064.83 0.172523 0 -60.791
7777.08 -6.73445 0 -80.2724
7759 -6.06155 0 -84.8854
6442.13 -12.0872 0 -110.356
6407.84 -10.2926 0 -117.244
8998.49 0.449908 0 -70.7463
9043.72 0.88255 0 -64.1609
6425.05 -11.0943 0 -113.98
7700.81 -4.93281 0 -96.2828
9021.31 0.787122 0 -67.5899
7740.02 -5.60273 0 -88.9515
7720.5 -5.26113 0 -92.7384
6407.84 -10.2926 0 -117.244
6373.42 -9.1555 0 -123.044
8951.89 0.67493 0 -77.0541
8998.49 0.449908 0 -70.7463
6390.59 -9.67215 0 -120.235
7660.69 -4.41197 0 -102.696
8975.39 0.491699 0 -73.8559
7700.81 -4.93281 0 -96.2828
7680.89 -4.63984 0 -99.5837
6373.42 -9.1555 0 -123.044
6339.08 -8.34932 0 -128.232
8904.12 0.694914 0 -83.3366
8951.89 0.67493 0 -77.0541
6356.28 -8.71281 0 -125.707
7619.84 -4.05213 0 -108.581
8928.07 0.708198 0 -80.2358
7660.69 -4.41197 0 -102.696
7640.3 -4.22689 0 -105.689
6339.08 -8.34932 0 -128.232
6304.66 -7.78352 0 -132.997
8855.98 0.839369 0 -89.4843
8904.12 0.694914 0 -83.3366
6321.87 -8.04724 0 -130.652
7578.7 -3.7452 0 -114.111
8880.09 0.751872 0 -86.4111
7619.84 -4.05213 0 -108.581
7599.31 -3.88978 0 -111.381
6304.66 -7.78352 0 -132.997
6270.21 -7.33612 0 -137.511
8807.58 0.957772 0 -95.5383
8855.98 0.839369 0 -89.4843
6287.44 -7.5475 0 -135.281
7537.34 -3.48129 0 -119.424
8831.8 0.902404 0 -92.5301
7578.7 -3.7452 0 -114.111
7558.03 -3.61198 0 -116.79
6270.21 -7.33612 0 -137.511
6235.71 -6.95894 0 -141.848
8759.09 1.10123 0 -101.482
8807.58 0.957772 0 -95.5383
6252.96 -7.14211 0 -139.697
7495.9 -3.22947 0 -124.574
8783.34 1.02588 0 -98.521
7537.34 -3.48129 0 -119.424
7516.63 -3.35356 0 -122.016
6235.71 -6.95894 0 -141.848
6201.2 -6.61351 0 -146.06
8710.56 1.24727 0 -107.321
8759.09 1.10123 0 -101.482
6218.46 -6.78324 0 -143.968
7454.4 -2.98435 0 -129.603
8734.83 1.1743 0 -104.416
7495.9 -3.22947 0 -124.574
7475.15 -3.1071 0 -127.103
6201.2 -6.61351 0 -146.06
6166.67 -6.28372 0 -150.171
8662 1.40178 0 -113.054
8710.56 1.24727 0 -107.321
6183.93 -6.44756 0 -148.127
7412.88 -2.73847 0 -134.523
8686.28 1.32326 0 -110.2
7454.4 -2.98435 0 -129.603
7433.64 -2.86146 0 -132.076
6166.67 -6.28372 0 -150.171
6132.12 -5.95928 0 -154.193
8613.43 1.56236 0 -118.681
8662 1.40178 0 -113.054
6149.4 -6.12111 0 -152.193
7371.34 -2.49022 0 -139.347
8637.72 1.48144 0 -115.881
7412.88 -2.73847 0 -134.523
7392.11 -2.61487 0 -136.947
6132.12 -5.95928 0 -154.193
6097.57 -5.63601 0 -158.134
8564.86 1.72891 0 -124.203
8613.43 1.56236 0 -118.681
6114.84 -5.79771 0 -156.174
7329.79 -2.23822 0 -144.076
8589.15 1.64483 0 -121.455
7371.34 -2.49022 0 -139.347
7350.56 -2.36467 0 -141.723
6097.57 -5.63601 0 -158.134
6063.01 -5.31166 0 -161.997
8516.29 1.90136 0 -129.62
8564.86 1.72891 0 -124.203
6080.29 -5.47403 0 -160.075
7288.23 -1.98225 0 -148.715
8540.57 1.81444 0 -126.924
7329.79 -2.23822 0 -144.076
7309.01 -2.11076 0 -146.407
6063.01 -5.31166 0 -161.997
6028.44 -4.98541 0 -165.784
8467.71 2.07923 0 -134.933
8516.29 1.90136 0 -129.62
6045.72 -5.1488 0 -163.9
7246.67 -1.72228 0 -153.264
8492 1.98962 0 -132.289
7288.23 -1.98225 0 -148.715
7267.45 -1.85275 0 -151.001
6028.44 -4.98541 0 -165.784
5993.87 -4.65697 0 -169.497
8419.13 2.26244 0 -140.142
8467.71 2.07923 0 -134.933
6011.16 -4.82147 0 -167.65
7205.11 -1.45845 0 -157.724
8443.42 2.17019 0 -137.55
7246.67 -1.72228 0 -153.264
7225.89 -1.59084 0 -155.505
5993.87 -4.65697 0 -169.497
5959.3 -4.3263 0 -173.135
8370.55 2.45062 0 -145.249
8419.13 2.26244 0 -140.142
5976.59 -4.49191 0 -171.325
7163.54 -1.19096 0 -162.095
8394.84 2.35592 0 -142.708
7205.11 -1.45845 0 -157.724
7184.33 -1.32515 0 -159.921
5959.3 -4.3263 0 -173.135
5924.73 -3.9935 0 -176.7
8321.97 2.64358 0 -150.253
8370.55 2.45062 0 -145.249
5942.01 -4.16016 0 -174.927
7121.98 -0.920023 0 -166.379
8346.26 2.54652 0 -147.764
7163.54 -1.19096 0 -162.095
7142.76 -1.05591 0 -164.248
5924.73 -3.9935 0 -176.7
5890.15 -3.6587 0 -180.193
8273.39 2.84101 0 -155.156
8321.97 2.64358 0 -150.253
5907.44 -3.82634 0 -178.456
7080.41 -0.645854 0 -170.576
8297.68 2.74175 0 -152.717
7121.98 -0.920023 0 -166.379
7101.19 -0.783328 0 -168.488
5890.15 -3.6587 0 -180.193
5855.57 -3.32205 0 -183.613
8224.81 3.04269 0 -159.958
8273.39 2.84101 0 -155.156
5872.86 -3.4906 0 -181.912
7038.84 -0.368673 0 -174.686
8249.1 2.94134 0 -157.569
7080.41 -0.645854 0 -170.576
7059.62 -0.507626 0 -172.642
5855.57 -3.32205 0 -183.613
5820.99 -2.98372 0 -186.961
8176.22 3.24835 0 -164.659
8224.81 3.04269 0 -159.958
5838.28 -3.15309 0 -185.296
6997.27 -0.0886973 0 -178.71
8200.52 3.14504 0 -162.321
7038.84 -0.368673 0 -174.686
7018.05 -0.229021 0 -176.708
5820.99 -2.98372 0 -186.961
5786.42 -2.64387 0 -190.238
8127.64 3.45774 0 -169.26
8176.22 3.24835 0 -164.659
5803.7 -2.81397 0 -188.609
6955.7 0.193859 0 -182.648
8151.93 3.35259 0 -166.972
6997.27 -0.0886973 0 -178.71
6976.48 0.0522715 0 -180.689
5786.42 -2.64387 0 -190.238
5751.83 -2.30267 0 -193.445
8079.06 3.67061 0 -173.761
8127.64 3.45774 0 -169.26
5769.13 -2.47343 0 -191.85
6914.13 0.478785 0 -186.501
8103.35 3.56375 0 -171.523
6955.7 0.193859 0 -182.648
6934.91 0.336039 0 -184.585
5751.83 -2.30267 0 -193.445
5717.25 -1.96029 0 -196.58
8030.48 3.88672 0 -178.165
8079.06 3.67061 0 -173.761
5734.54 -2.13162 0 -195.021
6872.56 0.765871 0 -190.27
8054.77 3.77827 0 -175.975
6914.13 0.478785 0 -186.501
6893.34 0.622071 0 -188.396
5717.25 -1.96029 0 -196.58
5682.67 -1.61691 0 -199.646
7981.89 4.10582 0 -182.469
8030.48 3.88672 0 -178.165
5699.96 -1.78872 0 -198.122
6830.99 1.05491 0 -193.954
8006.19 3.99591 0 -180.329
6872.56 0.765871 0 -190.27
6851.77 0.91016 0 -192.123
5682.67 -1.61691 0 -199.646
5648.09 -1.27268 0 -202.643
7933.31 4.32768 0 -186.677
7981.89 4.10582 0 -182.469
5665.38 -1.44489 0 -201.153
6789.41 1.34571 0 -197.556
7957.6 4.21642 0 -184.585
6830.99 1.05491 0 -193.954
6810.2 1.2001 0 -195.765
5648.09 -1.27268 0 -202.643
5613.51 -0.927778 0 -205.57
7884.73 4.55208 0 -190.787
7933.31 4.32768 0 -186.677
5630.8 -1.1003 0 -204.115
6747.84 1.63805 0 -201.074
7909.02 4.43958 0 -188.744
6789.41 1.34571 0 -197.556
6768.63 1.4917 0 -199.325
5613.51 -0.927778 0 -205.57
5578.93 -0.582364 0 -208.428
7836.15 4.77877 0 -194.801
7884.73 4.55208 0 -190.787
5596.22 -0.755125 0 -207.007
6706.27 1.93176 0 -204.509
7860.44 4.66515 0 -192.806
6747.84 1.63805 0 -201.074
6727.06 1.78475 0 -202.802
5578.93 -0.582364 0 -208.428
5544.35 -0.2366 0 -211.218
7787.58 5.00753 0 -198.72
7836.15 4.77877 0 -194.801
5561.64 -0.409516 0 -209.831
6664.7 2.22662 0 -207.863
7811.86 4.8929 0 -196.773
6706.27 1.93176 0 -204.509
6685.49 2.07906 0 -206.196
5544.35 -0.2366 0 -211.218
5509.77 0.109355 0 -213.94
7739 5.23815 0 -202.543
7787.58 5.00753 0 -198.72
5527.06 -0.063637 0 -212.587
6623.13 2.52246 0 -211.135
7763.29 5.12262 0 -200.643
6664.7 2.22662 0 -207.863
6643.92 2.37443 0 -209.509
5509.77 0.109355 0 -213.94
5475.19 0.455345 0 -216.595
7690.42 5.4704 0 -206.272
7739 5.23815 0 -202.543
5492.48 0.282355 0 -215.276
6581.57 2.81909 0 -214.326
7714.71 5.35409 0 -204.419
6623.13 2.52246 0 -211.135
6602.35 2.67069 0 -212.74
5475.19 0.455345 0 -216.595
5440.61 0.801218 0 -219.182
7641.85 5.70408 0 -209.906
7690.42 5.4704 0 -206.272
5457.9 0.628306 0 -217.897
6540 3.11632 0 -217.436
7666.14 5.58708 0 -208.101
6581.57 2.81909 0 -214.326
6560.78 2.96764 0 -215.891
5440.61 0.801218 0 -219.182
5406.03 1.14682 0 -221.703
7593.28 5.93898 0 -213.448
7641.85 5.70408 0 -209.906
5423.32 0.974064 0 -220.451
6498.44 3.41398 0 -220.467
7617.57 5.82139 0 -211.689
6540 3.11632 0 -217.436
6519.22 3.26511 0 -218.961
5406.03 1.14682 0 -221.703
5371.45 1.49202 0 -224.158
7544.71 6.17488 0 -216.897
7593.28 5.93898 0 -213.448
5388.74 1.31948 0 -222.939
6456.87 3.71189 0 -223.418
7569 6.05681 0 -215.184
6498.44 3.41398 0 -220.467
6477.65 3.56292 0 -221.952
5371.45 1.49202 0 -224.158
5336.88 1.83665 0 -226.547
7496.15 6.41159 0 -220.253
7544.71 6.17488 0 -216.897
5354.16 1.66441 0 -225.361
6415.31 4.00987 0 -226.29
7520.43 6.29314 0 -218.586
6456.87 3.71189 0 -223.418
6436.09 3.86088 0 -224.864
5336.88 1.83665 0 -226.547
5302.3 2.18058 0 -228.871
7447.59 6.6489 0 -223.518
7496.15 6.41159 0 -220.253
5319.59 2.00871 0 -227.717
6373.75 4.30777 0 -229.084
7471.87 6.53018 0 -221.897
6415.31 4.00987 0 -226.29
6394.53 4.15884 0 -227.696
5302.3 2.18058 0 -228.871
5267.73 2.52368 0 -231.129
7399.03 6.88664 0 -226.692
7447.59 6.6489 0 -223.518
5285.01 2.35224 0 -230.008
6332.2 4.6054 0 -231.799
7423.31 6.76773 0 -225.116
6373.75 4.30777 0 -229.084
6352.97 4.45663 0 -230.451
5267.73 2.52368 0 -231.129
5233.16 2.8658 0 -233.324
7350.47 7.1246 0 -229.776
7399.03 6.88664 0 -226.692
5250.44 2.69487 0 -232.235
6290.64 4.90261 0 -234.438
7374.75 7.0056 0 -228.245
6332.2 4.6054 0 -231.799
6311.42 4.75407 0 -233.128
5233.16 2.8658 0 -233.324
5198.59 3.20681 0 -235.454
7301.92 7.36259 0 -232.77
7350.47 7.1246 0 -229.776
5215.87 3.03645 0 -234.397
6249.09 5.19924 0 -236.999
7326.2 7.2436 0 -231.284
6290.64 4.90261 0 -234.438
6269.87 5.051 0 -235.728
5198.59 3.20681 0 -235.454
5164.02 3.54659 0 -237.521
7253.37 7.60044 0 -235.675
7301.92 7.36259 0 -232.77
5181.3 3.37686 0 -236.495
6207.54 5.49512 0 -239.484
7277.65 7.48155 0 -234.233
6249.09 5.19924 0 -236.999
6228.32 5.34728 0 -238.251
5164.02 3.54659 0 -237.521
5129.45 3.885 0 -239.524
7204.83 7.83797 0 -238.491
7253.37 7.60044 0 -235.675
5146.73 3.71597 0 -238.53
6166 5.79012 0 -241.894
7229.1 7.71926 0 -237.094
6207.54 5.49512 0 -239.484
6186.77 5.64274 0 -240.698
5129.45 3.885 0 -239.524
5094.89 4.22191 0 -241.465
7156.29 8.07499 0 -241.219
7204.83 7.83797 0 -238.491
5112.17 4.05365 0 -240.502
6124.45 6.08407 0 -244.228
7180.56 7.95655 0 -239.866
6166 5.79012 0 -241.894
6145.22 5.93723 0 -243.07
5094.89 4.22191 0 -241.465
5060.33 4.55721 0 -243.343
7107.75 8.31134 0 -243.86
7156.29 8.07499 0 -241.219
5077.61 4.38977 0 -242.412
6082.91 6.37683 0 -246.487
7132.02 8.19326 0 -242.55
6124.45 6.08407 0 -244.228
6103.68 6.23061 0 -245.366
5060.33 4.55721 0 -243.343
5025.77 4.89078 0 -245.159
7059.22 8.54686 0 -246.414
7107.75 8.31134 0 -243.86
5043.05 4.72422 0 -244.259
6041.38 6.66826 0 -248.671
7083.48 8.42922 0 -245.148
6082.91 6.37683 0 -246.487
6062.15 6.52272 0 -247.588
5025.77 4.89078 0 -245.159
4991.21 5.2225 0 -246.914
7010.69 8.78136 0 -248.883
7059.22 8.54686 0 -246.414
5008.49 5.05688 0 -246.045
5999.84 6.9582 0 -250.782
7034.95 8.66424 0 -247.659
6041.38 6.66826 0 -248.671
6020.61 6.81342 0 -249.736
4991.21 5.2225 0 -246.914
4956.66 5.55225 0 -248.608
6962.17 9.0147 0 -251.265
7010.69 8.78136 0 -248.883
4973.94 5.38763 0 -247.769
5958.32 7.24654 0 -252.82
6986.43 8.89818 0 -250.084
5999.84 6.9582 0 -250.782
5979.08 7.10258 0 -251.81
4956.66 5.55225 0 -248.608
4922.11 5.87991 0 -250.242
6913.65 9.24671 0 -253.563
6962.17 9.0147 0 -251.265
4939.38 5.71635 0 -249.433
5916.79 7.53312 0 -254.785
6937.91 9.13088 0 -252.425
5958.32 7.24654 0 -252.82
5937.55 7.39005 0 -253.812
4922.11 5.87991 0 -250.242
4887.56 6.20539 0 -251.815
6865.14 9.47723 0 -255.776
6913.65 9.24671 0 -253.563
4904.83 6.04293 0 -251.036
5875.27 7.81782 0 -256.678
6889.4 9.36216 0 -254.68
5916.79 7.53312 0 -254.785
5896.03 7.67571 0 -255.74
4887.56 6.20539 0 -251.815
4853.02 6.52857 0 -253.328
6816.63 9.70613 0 -257.906
6865.14 9.47723 0 -255.776
4870.29 6.36727 0 -252.579
5833.75 8.1005 0 -258.499
6840.89 9.5919 0 -256.851
5875.27 7.81782 0 -256.678
5854.51 7.95942 0 -257.597
4853.02 6.52857 0 -253.328
4818.47 6.84934 0 -254.782
6768.13 9.93325 0 -259.952
6816.63 9.70613 0 -257.906
4835.74 6.68926 0 -254.063
5792.24 8.38105 0 -260.249
6792.38 9.81992 0 -258.939
5833.75 8.1005 0 -258.499
5813 8.24105 0 -259.383
4818.47 6.84934 0 -254.782
4783.94 7.16761 0 -256.177
6719.64 10.1584 0 -261.916
6768.13 9.93325 0 -259.952
4801.2 7.00879 0 -255.487
5750.73 8.65933 0 -261.928
6743.88 10.0461 0 -260.945
5792.24 8.38105 0 -260.249
5771.49 8.52048 0 -261.097
4783.94 7.16761 0 -256.177
4749.4 7.48327 0 -257.514
6671.15 10.3816 0 -263.798
6719.64 10.1584 0 -261.916
4766.67 7.32577 0 -256.853
5709.23 8.93523 0 -263.536
6695.39 10.2703 0 -262.867
5750.73 8.65933 0 -261.928
5729.98 8.79759 0 -262.741
4749.4 7.48327 0 -257.514
4714.87 7.79622 0 -258.793
6622.66 10.6025 0 -265.599
6671.15 10.3816 0 -263.798
4732.13 7.64009 0 -258.161
5667.73 9.20863 0 -265.076
6646.9 10.4923 0 -264.709
5709.23 8.93523 0 -263.536
5688.48 9.07225 0 -264.315
4714.87 7.79622 0 -258.793
4680.34 8.10638 0 -260.014
6574.18 10.8211 0 -267.319
6622.66 10.6025 0 -265.599
4697.61 7.95166 0 -259.41
5626.23 9.47941 0 -266.546
6598.42 10.7121 0 -266.469
5667.73 9.20863 0 -265.076
5646.98 9.34435 0 -265.819
4680.34 8.10638 0 -260.014
4645.82 8.41363 0 -261.178
6525.71 11.0372 0 -268.959
6574.18 10.8211 0 -267.319
4663.08 8.26037 0 -260.603
5584.74 9.74746 0 -267.947
6549.95 10.9295 0 -268.149
5626.23 9.47941 0 -266.546
5605.49 9.61378 0 -267.255
4645.82 8.41363 0 -261.178
4611.3 8.71791 0 -262.285
6477.25 11.2507 0 -270.519
6525.71 11.0372 0 -268.959
4628.56 8.56615 0 -261.738
5543.26 10.0127 0 -269.28
6501.48 11.1443 0 -269.749
5584.74 9.74746 0 -267.947
5564 9.88043 0 -268.622
4611.3 8.71791 0 -262.285
4576.78 9.0191 0 -263.336
6428.79 11.4615 0 -272.001
6477.25 11.2507 0 -270.519
4594.04 8.86889 0 -262.817
5501.78 10.2749 0 -270.546
6453.02 11.3565 0 -271.27
5543.26 10.0127 0 -269.28
5522.52 10.1442 0 -269.922
4576.78 9.0191 0 -263.336
4542.27 9.31714 0 -264.33
6380.33 11.6695 0 -273.404
6428.79 11.4615 0 -272.001
4559.52 9.16852 0 -263.84
5460.31 10.5342 0 -271.745
6404.56 11.5659 0 -272.712
5501.78 10.2749 0 -270.546
5481.04 10.4049 0 -271.154
4542.27 9.31714 0 -264.33
4507.76 9.61193 0 -265.27
6331.89 11.8745 0 -274.729
6380.33 11.6695 0 -273.404
4525.01 9.46495 0 -264.807
5418.84 10.7902 0 -272.877
6356.11 11.7723 0 -274.076
5460.31 10.5342 0 -271.745
5439.57 10.6626 0 -272.319
4507.76 9.61193 0 -265.27
4473.26 9.9034 0 -266.154
6283.45 12.0764 0 -275.978
6331.89 11.8745 0 -274.729
4490.51 9.75809 0 -265.719
5377.37 11.0431 0 -273.943
6307.67 11.9758 0 -275.363
5418.84 10.7902 0 -272.877
5398.1 10.9171 0 -273.418
4473.26 9.9034 0 -266.154
4438.76 10.1915 0 -266.984
6235.02 12.2751 0 -277.15
6283.45 12.0764 0 -275.978
4456.01 10.0479 0 -266.576
5335.92 11.2925 0 -274.943
6259.23 12.1762 0 -276.573
5377.37 11.0431 0 -273.943
5356.64 11.1682 0 -274.451
4438.76 10.1915 0 -266.984
4404.26 10.476 0 -267.76
6186.59 12.4706 0 -278.246
6235.02 12.2751 0 -277.15
4421.51 10.3342 0 -267.379
5294.46 11.5386 0 -275.879
6210.8 12.3733 0 -277.707
5335.92 11.2925 0 -274.943
5315.19 11.416 0 -275.419
4404.26 10.476 0 -267.76
4369.77 10.757 0 -268.482
6138.17 12.6626 0 -279.266
6186.59 12.4706 0 -278.246
4387.01 10.617 0 -268.128
5253.02 11.7811 0 -276.749
6162.38 12.567 0 -278.765
5294.46 11.5386 0 -275.879
5273.74 11.6603 0 -276.322
4369.77 10.757 0 -268.482
4335.28 11.0344 0 -269.15
6089.76 12.8511 0 -280.212
6138.17 12.6626 0 -279.266
4352.52 10.8962 0 -268.823
5211.57 12.02 0 -277.556
6113.97 12.7573 0 -279.749
5253.02 11.7811 0 -276.749
5232.29 11.901 0 -277.161
4335.28 11.0344 0 -269.15
4300.8 11.3081 0 -269.766
6041.36 13.0361 0 -281.084
6089.76 12.8511 0 -280.212
4318.04 11.1717 0 -269.465
5170.14 12.2552 0 -278.3
6065.56 12.9441 0 -280.657
5211.57 12.02 0 -277.556
5190.86 12.1381 0 -277.936
4300.8 11.3081 0 -269.766
4266.32 11.578 0 -270.33
5992.96 13.2173 0 -281.883
6041.36 13.0361 0 -281.084
4283.56 11.4435 0 -270.054
5128.71 12.4866 0 -278.98
6017.16 13.1272 0 -281.492
5170.14 12.2552 0 -278.3
5149.42 12.3714 0 -278.648
4266.32 11.578 0 -270.33
4231.85 11.8441 0 -270.841
5944.58 13.3947 0 -282.608
5992.96 13.2173 0 -281.883
4249.08 11.7115 0 -270.592
5087.29 12.7141 0 -279.598
5968.77 13.3065 0 -282.254
5128.71 12.4866 0 -278.98
5108 12.6009 0 -279.297
4231.85 11.8441 0 -270.841
4197.38 12.1062 0 -271.301
5896.2 13.5683 0 -283.261
5944.58 13.3947 0 -282.608
4214.61 11.9756 0 -271.077
5045.87 12.9378 0 -280.154
5920.39 13.482 0 -282.944
5087.29 12.7141 0 -279.598
5066.58 12.8264 0 -279.884
4197.38 12.1062 0 -271.301
4162.92 12.3644 0 -271.709
5847.82 13.7379 0 -283.843
5896.2 13.5683 0 -283.261
4180.15 12.2358 0 -271.511
5004.46 13.1574 0 -280.649
5872.01 13.6536 0 -283.561
5045.87 12.9378 0 -280.154
5025.16 13.0481 0 -280.409
4162.92 12.3644 0 -271.709
4128.46 12.6186 0 -272.067
5799.46 13.9034 0 -284.353
5847.82 13.7379 0 -283.843
4145.69 12.492 0 -271.894
4963.06 13.3729 0 -281.082
5823.64 13.8212 0 -284.107
5004.46 13.1574 0 -280.649
4983.76 13.2656 0 -280.873
4128.46 12.6186 0 -272.067
4094 12.8687 0 -272.374
5751.1 14.0648 0 -284.793
5799.46 13.9034 0 -284.353
4111.23 12.7442 0 -272.227
4921.66 13.5842 0 -281.456
5775.28 13.9846 0 -284.582
4963.06 13.3729 0 -281.082
4942.36 13.4791 0 -281.277
4094 12.8687 0 -272.374
4059.56 13.1146 0 -272.632
5702.75 14.222 0 -285.163
5751.1 14.0648 0 -284.793
4076.78 12.9922 0 -272.509
4880.27 13.7913 0 -281.769
5726.92 14.1439 0 -284.987
4921.66 13.5842 0 -281.456
4900.96 13.6883 0 -281.62
4059.56 13.1146 0 -272.632
4025.11 13.3564 0 -272.84
5654.41 14.3748 0 -285.464
5702.75 14.222 0 -285.163
4042.33 13.2361 0 -272.742
4838.88 13.9942 0 -282.023
5678.58 14.2989 0 -285.322
4880.27 13.7913 0 -281.769
4859.57 13.8933 0 -281.904
4025.11 13.3564 0 -272.84
3990.67 13.5939 0 -272.999
5606.08 14.5234 0 -285.695
5654.41 14.3748 0 -285.464
4007.89 13.4757 0 -272.926
4797.5 14.1926 0 -282.218
5630.24 14.4497 0 -285.588
4838.88 13.9942 0 -282.023
4818.19 14.094 0 -282.128
3990.67 13.5939 0 -272.999
3956.24 13.8271 0 -273.11
5557.75 14.6674 0 -285.859
5606.08 14.5234 0 -285.695
3973.46 13.7111 0 -273.061
4756.13 14.3867 0 -282.355
5581.91 14.596 0 -285.786
4797.5 14.1926 0 -282.218
4776.82 14.2902 0 -282.294
3956.24 13.8271 0 -273.11
3921.81 14.056 0 -273.172
5509.44 14.807 0 -285.956
5557.75 14.6674 0 -285.859
3939.02 13.9421 0 -273.147
4714.76 14.5763 0 -282.434
5533.59 14.7378 0 -285.916
4756.13 14.3867 0 -282.355
4735.45 14.4821 0 -282.402
3921.81 14.056 0 -273.172
3887.39 14.2805 0 -273.187
5461.13 14.942 0 -285.985
5509.44 14.807 0 -285.956
3904.6 14.1688 0 -273.185
4673.41 14.7614 0 -282.456
5485.28 14.8751 0 -285.979
4714.76 14.5763 0 -282.434
4694.08 14.6694 0 -282.452
3887.39 14.2805 0 -273.187
3852.97 14.5005 0 -273.154
5412.83 15.0724 0 -285.948
5461.13 14.942 0 -285.985
3870.18 14.3911 0 -273.176
4632.05 14.9419 0 -282.421
5436.98 15.0078 0 -285.975
4673.41 14.7614 0 -282.456
4652.73 14.8522 0 -282.446
3852.97 14.5005 0 -273.154
3818.56 14.7161 0 -273.075
5364.54 15.1981 0 -285.846
5412.83 15.0724 0 -285.948
3835.76 14.6089 0 -273.12
4590.71 15.1177 0 -282.33
5388.68 15.1358 0 -285.905
4632.05 14.9419 0 -282.421
4611.38 15.0304 0 -282.382
3818.56 14.7161 0 -273.075
3784.15 14.9271 0 -272.949
5316.25 15.319 0 -285.678
5364.54 15.1981 0 -285.846
3801.35 14.8222 0 -273.017
4549.37 15.2889 0 -282.183
5340.39 15.2592 0 -285.77
4590.71 15.1177 0 -282.33
4570.04 15.2039 0 -282.263
3784.15 14.9271 0 -272.949
3749.75 15.1336 0 -272.777
5267.98 15.4352 0 -285.446
5316.25 15.319 0 -285.678
3766.95 15.031 0 -272.868
4508.04 15.4554 0 -281.98
5292.12 15.3777 0 -285.57
4549.37 15.2889 0 -282.183
4528.7 15.3727 0 -282.088
3749.75 15.1336 0 -272.777
3715.35 15.3355 0 -272.559
5219.71 15.5465 0 -285.15
5267.98 15.4352 0 -285.446
3732.55 15.2352 0 -272.673
4466.72 15.6171 0 -281.723
5243.85 15.4914 0 -285.306
4508.04 15.4554 0 -281.98
4487.38 15.5368 0 -281.858
3715.35 15.3355 0 -272.559
3680.96 15.5328 0 -272.296
5171.46 15.6528 0 -284.791
5219.71 15.5465 0 -285.15
3698.16 15.4348 0 -272.433
4425.4 15.7739 0 -281.412
5195.58 15.6003 0 -284.978
4466.72 15.6171 0 -281.723
4446.06 15.6961 0 -281.574
3680.96 15.5328 0 -272.296
3646.58 15.7254 0 -271.989
5123.21 15.7543 0 -284.369
5171.46 15.6528 0 -284.791
3663.77 15.6297 0 -272.148
4384.09 15.926 0 -281.046
5147.33 15.7042 0 -284.588
4425.4 15.7739 0 -281.412
4404.74 15.8506 0 -281.236
3646.58 15.7254 0 -271.989
3612.2 15.9134 0 -271.637
5074.97 15.8507 0 -283.885
5123.21 15.7543 0 -284.369
3629.39 15.82 0 -271.818
4342.79 16.0731 0 -280.628
5099.09 15.8031 0 -284.134
4384.09 15.926 0 -281.046
4363.44 16.0002 0 -280.844
3612.2 15.9134 0 -271.637
3577.82 16.0966 0 -271.241
5026.74 15.9422 0 -283.339
5074.97 15.8507 0 -283.885
3595.01 16.0055 0 -271.444
4301.49 16.2153 0 -280.157
5050.85 15.8971 0 -283.619
4342.79 16.0731 0 -280.628
4322.14 16.1448 0 -280.399
3577.82 16.0966 0 -271.241
3543.45 16.275 0 -270.802
4978.52 16.0285 0 -282.732
5026.74 15.9422 0 -283.339
3560.64 16.1864 0 -271.027
4260.2 16.3526 0 -279.634
5002.63 15.986 0 -283.043
4301.49 16.2153 0 -280.157
4280.84 16.2846 0 -279.902
3543.45 16.275 0 -270.802
3509.09 16.4487 0 -270.319
4930.3 16.1097 0 -282.065
4978.52 16.0285 0 -282.732
3526.27 16.3625 0 -270.566
4218.92 16.4849 0 -279.059
4954.41 16.0698 0 -282.406
4260.2 16.3526 0 -279.634
4239.56 16.4194 0 -279.353
3509.09 16.4487 0 -270.319
3474.73 16.6176 0 -269.795
4882.1 16.1858 0 -281.339
4930.3 16.1097 0 -282.065
3491.91 16.5338 0 -270.062
4177.64 16.6121 0 -278.433
4906.2 16.1484 0 -281.709
4218.92 16.4849 0 -279.059
4198.28 16.5491 0 -278.752
3474.73 16.6176 0 -269.795
3440.38 16.7817 0 -269.227
4833.9 16.2568 0 -280.553
4882.1 16.1858 0 -281.339
3457.56 16.7002 0 -269.516
4136.38 16.7343 0 -277.756
4858 16.222 0 -280.953
4177.64 16.6121 0 -278.433
4157.01 16.6739 0 -278.101
3440.38 16.7817 0 -269.227
3406.04 16.9409 0 -268.619
4785.72 16.3225 0 -279.708
4833.9 16.2568 0 -280.553
3423.21 16.8619 0 -268.928
4095.12 16.8515 0 -277.029
4809.81 16.2903 0 -280.138
4136.38 16.7343 0 -277.756
4115.75 16.7936 0 -277.399
3406.04 16.9409 0 -268.619
3371.7 17.0953 0 -267.968
4737.54 16.383 0 -278.806
4785.72 16.3225 0 -279.708
3388.87 17.0187 0 -268.299
4053.86 16.9636 0 -276.253
4761.63 16.3534 0 -279.264
4095.12 16.8515 0 -277.029
4074.49 16.9082 0 -276.647
3371.7 17.0953 0 -267.968
3337.36 17.2448 0 -267.277
4689.37 16.4383 0 -277.846
4737.54 16.383 0 -278.806
3354.53 17.1706 0 -267.628
4012.62 17.0705 0 -275.427
4713.46 16.4113 0 -278.333
4053.86 16.9636 0 -276.253
4033.24 17.0177 0 -275.846
3337.36 17.2448 0 -267.277
3303.03 17.3894 0 -266.546
4641.21 16.4882 0 -276.83
4689.37 16.4383 0 -277.846
3320.2 17.3177 0 -266.917
3971.38 17.1723 0 -274.553
4665.29 16.4639 0 -277.345
4012.62 17.0705 0 -275.427
3992 17.1221 0 -274.996
3303.03 17.3894 0 -266.546
3268.71 17.5291 0 -265.774
4593.06 16.5329 0 -275.757
4641.21 16.4882 0 -276.83
3285.87 17.4598 0 -266.165
3930.15 17.269 0 -273.63
4617.14 16.5112 0 -276.301
3971.38 17.1723 0 -274.553
3950.76 17.2213 0 -274.098
3268.71 17.5291 0 -265.774
3234.39 17.6638 0 -264.963
4544.92 16.5723 0 -274.629
4593.06 16.5329 0 -275.757
3251.55 17.5971 0 -265.373
3888.93 17.3605 0 -272.66
4568.99 16.5533 0 -275.2
3930.15 17.269 0 -273.63
3909.54 17.3154 0 -273.151
3234.39 17.6638 0 -264.963
3200.08 17.7937 0 -264.112
4496.79 16.6063 0 -273.446
4544.92 16.5723 0 -274.629
3217.24 17.7294 0 -264.542
3847.71 17.4469 0 -271.643
4520.86 16.59 0 -274.045
3888.93 17.3605 0 -272.66
3868.32 17.4043 0 -272.158
3200.08 17.7937 0 -264.112
3165.77 17.9186 0 -263.223
4448.67 16.6351 0 -272.209
4496.79 16.6063 0 -273.446
3182.93 17.8568 0 -263.672
3806.5 17.528 0 -270.58
4472.73 16.6214 0 -272.834
3847.71 17.4469 0 -271.643
3827.11 17.4881 0 -271.117
3165.77 17.9186 0 -263.223
3131.47 18.0386 0 -262.295
4400.55 16.6584 0 -270.917
4448.67 16.6351 0 -272.209
3148.62 17.9792 0 -262.764
3765.3 17.604 0 -269.47
4424.61 16.6474 0 -271.57
3806.5 17.528 0 -270.58
3785.9 17.5667 0 -270.031
3131.47 18.0386 0 -262.295
3097.18 18.1536 0 -261.33
4352.45 16.6764 0 -269.573
4400.55 16.6584 0 -270.917
3114.33 18.0967 0 -261.817
3724.11 17.6748 0 -268.315
4376.5 16.6681 0 -270.252
3765.3 17.604 0 -269.47
3744.7 17.64 0 -268.898
3097.18 18.1536 0 -261.33
3062.89 18.2637 0 -260.326
4304.35 16.6891 0 -268.176
4352.45 16.6764 0 -269.573
3080.03 18.2093 0 -260.833
3682.92 17.7403 0 -267.114
4328.4 16.6834 0 -268.881
3724.11 17.6748 0 -268.315
3703.51 17.7082 0 -267.72
3062.89 18.2637 0 -260.326
3028.61 18.3688 0 -259.286
4256.27 16.6963 0 -266.727
4304.35 16.6891 0 -268.176
3045.75 18.3169 0 -259.811
3641.74 17.8007 0 -265.869
4280.31 16.6934 0 -267.458
3682.92 17.7403 0 -267.114
3662.33 17.7711 0 -266.497
3028.61 18.3688 0 -259.286
2994.33 18.469 0 -258.209
4208.19 16.6983 0 -265.226
4256.27 16.6963 0 -266.727
3011.47 18.4195 0 -258.752
3600.57 17.8558 0 -264.58
4232.23 16.698 0 -265.983
3641.74 17.8007 0 -265.869
3621.15 17.8289 0 -265.23
2994.33 18.469 0 -258.209
2960.06 18.5642 0 -257.096
4160.12 16.6948 0 -263.675
4208.19 16.6983 0 -265.226
2977.19 18.5172 0 -257.657
3559.4 17.9057 0 -263.248
4184.15 16.6972 0 -264.457
3600.57 17.8558 0 -264.58
3579.98 17.8814 0 -263.92
2960.06 18.5642 0 -257.096
2925.79 18.6544 0 -255.947
4112.06 16.686 0 -262.074
4160.12 16.6948 0 -263.675
2942.93 18.6099 0 -256.526
3518.25 17.9505 0 -261.872
4136.09 16.6911 0 -262.881
3559.4 17.9057 0 -263.248
3538.82 17.9288 0 -262.565
2925.79 18.6544 0 -255.947
2891.53 18.7397 0 -254.762
4064.01 16.6718 0 -260.422
4112.06 16.686 0 -262.074
2908.66 18.6977 0 -255.359
3477.1 17.99 0 -260.454
4088.03 16.6796 0 -261.254
3518.25 17.9505 0 -261.872
3497.67 17.9709 0 -261.169
2891.53 18.7397 0 -254.762
2857.28 18.8201 0 -253.543
4015.97 16.6522 0 -258.722
4064.01 16.6718 0 -260.422
2874.41 18.7805 0 -254.157
3435.95 18.0243 0 -258.994
4039.99 16.6627 0 -259.578
3477.1 17.99 0 -260.454
3456.52 18.0078 0 -259.729
2857.28 18.8201 0 -253.543
2823.03 18.8955 0 -252.289
3967.93 16.6274 0 -256.973
4015.97 16.6522 0 -258.722
2840.15 18.8584 0 -252.92
3394.82 18.0534 0 -257.493
3991.95 16.6405 0 -257.854
3435.95 18.0243 0 -258.994
3415.38 18.0395 0 -258.249
2823.03 18.8955 0 -252.289
2788.79 18.9659 0 -251.001
3919.91 16.5971 0 -255.177
3967.93 16.6274 0 -256.973
2805.91 18.9313 0 -251.649
3353.69 18.0774 0 -255.95
3943.92 16.6129 0 -256.081
3394.82 18.0534 0 -257.493
3374.25 18.0661 0 -256.726
2788.79 18.9659 0 -251.001
2754.55 19.0315 0 -249.679
3871.9 16.5616 0 -253.333
3919.91 16.5971 0 -255.177
2771.67 18.9993 0 -250.344
3312.57 18.0962 0 -254.367
3895.9 16.58 0 -254.261
3353.69 18.0774 0 -255.95
3333.13 18.0874 0 -255.164
2754.55 19.0315 0 -249.679
2720.32 19.0921 0 -248.324
3823.89 16.5207 0 -251.442
3871.9 16.5616 0 -253.333
2737.43 19.0624 0 -249.005
3271.45 18.1098 0 -252.744
3847.89 16.5418 0 -252.393
3312.57 18.0962 0 -254.367
3292.01 18.1036 0 -253.56
2720.32 19.0921 0 -248.324
2686.09 19.1478 0 -246.936
3775.89 16.4745 0 -249.506
3823.89 16.5207 0 -251.442
2703.2 19.1206 0 -247.634
3230.35 18.1182 0 -251.081
3799.89 16.4983 0 -250.48
3271.45 18.1098 0 -252.744
3250.9 18.1147 0 -251.917
2686.09 19.1478 0 -246.936
2651.87 19.1987 0 -245.515
3727.91 16.4231 0 -247.524
3775.89 16.4745 0 -249.506
2668.98 19.1738 0 -246.229
3189.25 18.1216 0 -249.38
3751.9 16.4495 0 -248.52
3230.35 18.1182 0 -251.081
3209.8 18.1206 0 -250.235
2651.87 19.1987 0 -245.515
2617.66 19.2446 0 -244.062
3679.93 16.3664 0 -245.496
3727.91 16.4231 0 -247.524
2634.76 19.2222 0 -244.793
3148.16 18.1198 0 -247.64
3703.92 16.3954 0 -246.516
3189.25 18.1216 0 -249.38
3168.7 18.1213 0 -248.514
2617.66 19.2446 0 -244.062
2583.45 19.2857 0 -242.578
3631.96 16.3045 0 -243.425
3679.93 16.3664 0 -245.496
2600.55 19.2658 0 -243.324
3107.07 18.1129 0 -245.862
3655.94 16.3361 0 -244.466
3148.16 18.1198 0 -247.64
3127.61 18.117 0 -246.755
2583.45 19.2857 0 -242.578
2549.24 19.322 0 -241.063
3584 16.2373 0 -241.31
3631.96 16.3045 0 -243.425
2566.35 19.3044 0 -241.824
3065.99 18.101 0 -244.046
3607.97 16.2716 0 -242.373
3107.07 18.1129 0 -245.862
3086.53 18.1076 0 -244.958
2549.24 19.322 0 -241.063
2515.05 19.3534 0 -239.517
3536.04 16.165 0 -239.152
3584 16.2373 0 -241.31
2532.14 19.3383 0 -240.294
3024.92 18.084 0 -242.194
3560.02 16.2018 0 -240.236
3065.99 18.101 0 -244.046
3045.46 18.0931 0 -243.124
2515.05 19.3534 0 -239.517
2480.85 19.38 0 -237.94
3488.1 16.0875 0 -236.951
3536.04 16.165 0 -239.152
2497.95 19.3673 0 -238.732
2983.86 18.062 0 -240.305
3512.07 16.1269 0 -238.056
3024.92 18.084 0 -242.194
3004.39 18.0736 0 -241.254
2480.85 19.38 0 -237.94
2446.67 19.4018 0 -236.334
3440.16 16.0049 0 -234.708
3488.1 16.0875 0 -236.951
2463.76 19.3915 0 -237.141
2942.8 18.0349 0 -238.38
3464.13 16.0469 0 -235.834
2983.86 18.062 0 -240.305
2963.33 18.0491 0 -239.347
2446.67 19.4018 0 -236.334
2412.49 19.4189 0 -234.698
3392.24 15.9172 0 -232.423
3440.16 16.0049 0 -234.708
2429.58 19.411 0 -235.519
2901.75 18.0029 0 -236.419
3416.2 15.9617 0 -233.571
2942.8 18.0349 0 -238.38
2922.28 18.0195 0 -237.404
2412.49 19.4189 0 -234.698
2378.31 19.4312 0 -233.032
3344.32 15.8244 0 -230.098
3392.24 15.9172 0 -232.423
2395.4 19.4256 0 -233.869
2860.71 17.9659 0 -234.424
3368.28 15.8714 0 -231.266
2901.75 18.0029 0 -236.419
2881.23 17.985 0 -235.426
2378.31 19.4312 0 -233.032
2344.14 19.4388 0 -231.339
3296.41 15.7265 0 -227.733
3344.32 15.8244 0 -230.098
2361.22 19.4356 0 -232.189
2819.67 17.924 0 -232.394
3320.36 15.7761 0 -228.921
2860.71 17.9659 0 -234.424
2840.19 17.9456 0 -233.413
2344.14 19.4388 0 -231.339
2309.97 19.4417 0 -229.617
3248.51 15.6237 0 -225.328
3296.41 15.7265 0 -227.733
2327.06 19.4409 0 -230.481
2778.65 17.8773 0 -230.331
3272.46 15.6758 0 -226.535
2819.67 17.924 0 -232.394
2799.16 17.9013 0 -231.367
2309.97 19.4417 0 -229.617
2275.81 19.44 0 -227.867
3200.62 15.5159 0 -222.884
3248.51 15.6237 0 -225.328
2292.89 19.4414 0 -228.745
2737.62 17.8256 0 -228.233
3224.56 15.5704 0 -224.111
2778.65 17.8773 0 -230.331
2758.13 17.852 0 -229.286
2275.81 19.44 0 -227.867
2241.66 19.4336 0 -226.089
3152.73 15.4032 0 -220.401
3200.62 15.5159 0 -222.884
2258.74 19.4374 0 -226.981
2696.61 17.7691 0 -226.103
3176.67 15.4602 0 -221.647
2737.62 17.8256 0 -228.233
2717.11 17.798 0 -227.172
2241.66 19.4336 0 -226.089
2207.51 19.4226 0 -224.285
3104.86 15.2856 0 -217.881
3152.73 15.4032 0 -220.401
2224.58 19.4287 0 -225.19
2655.6 17.7079 0 -223.941
3128.79 15.345 0 -219.146
2696.61 17.7691 0 -226.103
2676.1 17.7391 0 -225.026
2207.51 19.4226 0 -224.285
2173.36 19.407 0 -222.454
3056.99 15.1631 0 -215.323
3104.86 15.2856 0 -217.881
2190.44 19.4154 0 -223.373
2614.6 17.6418 0 -221.746
3080.92 15.225 0 -216.607
2655.6 17.7079 0 -223.941
2635.1 17.6754 0 -222.847
2173.36 19.407 0 -222.454
2139.23 19.3869 0 -220.597
3009.13 15.0359 0 -212.729
3056.99 15.1631 0 -215.323
2156.29 19.3975 0 -221.528
2573.6 17.5711 0 -219.52
3033.06 15.1001 0 -214.031
2614.6 17.6418 0 -221.746
2594.1 17.607 0 -220.637
2139.23 19.3869 0 -220.597
2105.09 19.3622 0 -218.714
2961.28 14.9039 0 -210.098
3009.13 15.0359 0 -212.729
2122.16 19.3751 0 -219.658
2532.61 17.4956 0 -217.263
2985.2 14.9704 0 -211.418
2573.6 17.5711 0 -219.52
2553.11 17.5339 0 -218.395
2105.09 19.3622 0 -218.714
2070.96 19.3331 0 -216.805
2913.44 14.7671 0 -207.432
2961.28 14.9039 0 -210.098
2088.03 19.3482 0 -217.763
2491.63 17.4155 0 -214.976
2937.36 14.8361 0 -208.77
2532.61 17.4956 0 -217.263
2512.12 17.4562 0 -216.123
2070.96 19.3331 0 -216.805
2036.84 19.2995 0 -214.872
2865.6 14.6257 0 -204.731
2913.44 14.7671 0 -207.432
2053.9 19.3168 0 -215.842
2450.66 17.3309 0 -212.658
2889.52 14.697 0 -206.086
2491.63 17.4155 0 -214.976
2471.14 17.3738 0 -213.821
2036.84 19.2995 0 -214.872
2002.72 19.2615 0 -212.914
2817.78 14.4797 0 -201.996
2865.6 14.6257 0 -204.731
2019.78 19.281 0 -213.896
2409.69 17.2416 0 -210.312
2841.69 14.5533 0 -203.368
2450.66 17.3309 0 -212.658
2430.17 17.2868 0 -211.489
2002.72 19.2615 0 -212.914
1968.61 19.2191 0 -210.933
2769.96 14.3292 0 -199.226
2817.78 14.4797 0 -201.996
1985.66 19.2408 0 -211.927
2368.73 17.1478 0 -207.936
2793.87 14.405 0 -200.615
2409.69 17.2416 0 -210.312
2389.21 17.1953 0 -209.127
1968.61 19.2191 0 -210.933
1934.5 19.1724 0 -208.927
2722.15 14.1741 0 -196.424
2769.96 14.3292 0 -199.226
1951.55 19.1963 0 -209.933
2327.77 17.0496 0 -205.532
2746.05 14.2522 0 -197.829
2368.73 17.1478 0 -207.936
2348.25 17.0993 0 -206.737
1934.5 19.1724 0 -208.927
1900.39 19.1214 0 -206.898
2674.34 14.0145 0 -193.589
2722.15 14.1741 0 -196.424
1917.45 19.1474 0 -207.916
2286.82 16.9469 0 -203.1
2698.24 14.0949 0 -195.01
2327.77 17.0496 0 -205.532
2307.29 16.9988 0 -204.319
1900.39 19.1214 0 -206.898
1866.29 19.0661 0 -204.847
2626.55 13.8506 0 -190.722
2674.34 14.0145 0 -193.589
1883.34 19.0942 0 -205.875
2245.88 16.8399 0 -200.64
2650.45 13.9331 0 -192.159
2286.82 16.9469 0 -203.1
2266.35 16.8939 0 -201.873
1866.29 19.0661 0 -204.847
1832.2 19.0065 0 -202.773
2578.76 13.6823 0 -187.823
2626.55 13.8506 0 -190.722
1849.25 19.0368 0 -203.812
2204.94 16.7285 0 -198.153
2602.66 13.767 0 -189.276
2245.88 16.8399 0 -200.64
2225.41 16.7847 0 -199.4
1832.2 19.0065 0 -202.773
1798.11 18.9428 0 -200.677
2530.98 13.5097 0 -184.893
2578.76 13.6823 0 -187.823
1815.16 18.9752 0 -201.727
2164.01 16.6128 0 -195.64
2554.87 13.5965 0 -186.362
2204.94 16.7285 0 -198.153
2184.47 16.6712 0 -196.9
1798.11 18.9428 0 -200.677
1764.03 18.875 0 -198.559
2483.21 13.3329 0 -181.934
2530.98 13.5097 0 -184.893
1781.07 18.9094 0 -199.62
2123.08 16.4929 0 -193.102
2507.1 13.4218 0 -183.417
2164.01 16.6128 0 -195.64
2143.54 16.5534 0 -194.374
1764.03 18.875 0 -198.559
1729.95 18.803 0 -196.42
2435.45 13.1518 0 -178.944
2483.21 13.3329 0 -181.934
1746.99 18.8395 0 -197.492
2082.16 16.3688 0 -190.537
2459.33 13.2429 0 -180.442
2123.08 16.4929 0 -193.102
2102.62 16.4314 0 -191.822
1729.95 18.803 0 -196.42
1695.87 18.727 0 -194.26
2387.69 12.9667 0 -175.925
2435.45 13.1518 0 -178.944
1712.91 18.7655 0 -195.343
2041.25 16.2405 0 -187.948
2411.57 13.0598 0 -177.438
2082.16 16.3688 0 -190.537
2061.71 16.3052 0 -189.246
1695.87 18.727 0 -194.26
1661.8 18.647 0 -192.08
2339.94 12.7775 0 -172.878
2387.69 12.9667 0 -175.925
1678.83 18.6875 0 -193.173
2000.34 16.1082 0 -185.334
2363.81 12.8726 0 -174.405
2041.25 16.2405 0 -187.948
2020.79 16.1749 0 -186.644
1661.8 18.647 0 -192.08
1627.73 18.563 0 -189.88
2292.2 12.5844 0 -169.803
2339.94 12.7775 0 -172.878
1644.77 18.6055 0 -190.983
1959.44 15.9719 0 -182.696
2316.07 12.6815 0 -171.344
2000.34 16.1082 0 -185.334
1979.89 16.0406 0 -184.018
1627.73 18.563 0 -189.88
1593.67 18.4751 0 -187.661
2244.46 12.3873 0 -166.7
2292.2 12.5844 0 -169.803
1610.7 18.5195 0 -188.773
1918.54 15.8316 0 -180.035
2268.33 12.4863 0 -168.255
1959.44 15.9719 0 -182.696
1938.99 15.9022 0 -181.368
1593.67 18.4751 0 -187.661
1559.61 18.3833 0 -185.422
2196.73 12.1863 0 -163.57
2244.46 12.3873 0 -166.7
1576.64 18.4297 0 -186.544
1877.65 15.6873 0 -177.351
2220.6 12.2873 0 -165.138
1918.54 15.8316 0 -180.035
1898.1 15.7599 0 -178.696
1559.61 18.3833 0 -185.422
1525.56 18.2877 0 -183.165
2149.01 11.9815 0 -160.415
2196.73 12.1863 0 -163.57
1542.59 18.336 0 -184.296
1836.77 15.5392 0 -174.644
2172.87 12.0844 0 -161.996
1877.65 15.6873 0 -177.351
1857.21 15.6138 0 -176
1525.56 18.2877 0 -183.165
1491.51 18.1883 0 -180.889
2101.3 11.7731 0 -157.233
2149.01 11.9815 0 -160.415
1508.53 18.2384 0 -182.029
1795.89 15.3873 0 -171.915
2125.16 11.8778 0 -158.827
1836.77 15.5392 0 -174.644
1816.33 15.4638 0 -173.282
1491.51 18.1883 0 -180.889
1457.46 18.0851 0 -178.596
2053.59 11.5609 0 -154.027
2101.3 11.7731 0 -157.233
1474.49 18.1372 0 -179.745
1755.02 15.2317 0 -169.165
2077.44 11.6674 0 -155.633
1795.89 15.3873 0 -171.915
1775.45 15.31 0 -170.543
1457.46 18.0851 0 -178.596
1423.42 17.9783 0 -176.285
2005.89 11.3452 0 -150.796
2053.59 11.5609 0 -154.027
1440.44 18.0322 0 -177.442
1714.15 15.0724 0 -166.394
2029.74 11.4535 0 -152.414
1755.02 15.2317 0 -169.165
1734.58 15.1525 0 -167.782
1423.42 17.9783 0 -176.285
1389.39 17.8678 0 -173.957
1958.2 11.1259 0 -147.541
2005.89 11.3452 0 -150.796
1406.4 17.9235 0 -175.123
1673.29 14.9094 0 -163.602
1982.04 11.236 0 -149.171
1714.15 15.0724 0 -166.394
1693.72 14.9914 0 -165
1389.39 17.8678 0 -173.957
1355.35 17.7538 0 -171.612
1910.51 10.9032 0 -144.262
1958.2 11.1259 0 -147.541
1372.37 17.8113 0 -172.787
1632.43 14.7429 0 -160.79
1934.35 11.015 0 -145.904
1673.29 14.9094 0 -163.602
1652.86 14.8266 0 -162.199
1355.35 17.7538 0 -171.612
1321.33 17.6362 0 -169.251
1862.83 10.6771 0 -140.961
1910.51 10.9032 0 -144.262
1338.34 17.6955 0 -170.434
1591.58 14.5729 0 -157.959
1886.67 10.7905 0 -142.614
1632.43 14.7429 0 -160.79
1612 14.6583 0 -159.377
1321.33 17.6362 0 -169.251
1287.3 17.5152 0 -166.875
1815.16 10.4477 0 -137.638
1862.83 10.6771 0 -140.961
1304.31 17.5761 0 -168.065
1550.73 14.3995 0 -155.109
1838.99 10.5628 0 -139.302
1591.58 14.5729 0 -157.959
1571.15 14.4866 0 -156.536
1287.3 17.5152 0 -166.875
1253.28 17.3907 0 -164.483
1767.49 10.215 0 -134.293
1815.16 10.4477 0 -137.638
1270.29 17.4534 0 -165.68
1509.89 14.2226 0 -152.24
1791.32 10.3318 0 -135.968
1550.73 14.3995 0 -155.109
1530.31 14.3115 0 -153.677
1253.28 17.3907 0 -164.483
1219.26 17.2629 0 -162.075
1719.83 9.97925 0 -130.927
1767.49 10.215 0 -134.293
1236.27 17.3272 0 -163.281
1469.05 14.0425 0 -149.354
1743.66 10.0975 0 -132.612
1509.89 14.2226 0 -152.24
1489.47 14.133 0 -150.799
1219.26 17.2629 0 -162.075
1185.25 17.1317 0 -159.654
1672.17 9.74037 0 -127.54
1719.83 9.97925 0 -130.927
1202.25 17.1977 0 -160.866
1428.22 13.8591 0 -146.449
1696 9.86019 0 -129.236
1469.05 14.0425 0 -149.354
1448.63 13.9512 0 -147.904
1185.25 17.1317 0 -159.654
1151.24 16.9973 0 -157.218
1624.52 9.49849 0 -124.134
1672.17 9.74037 0 -127.54
1168.24 17.0649 0 -158.438
1387.39 13.6725 0 -143.528
1648.35 9.6198 0 -125.839
1428.22 13.8591 0 -146.449
1407.8 13.7662 0 -144.991
1151.24 16.9973 0 -157.218
1117.23 16.8596 0 -154.768
1576.88 9.25368 0 -120.708
1624.52 9.49849 0 -124.134
1134.23 16.9288 0 -155.995
1346.57 13.4828 0 -140.59
1600.7 9.37645 0 -122.423
1387.39 13.6725 0 -143.528
1366.98 13.5781 0 -142.061
1117.23 16.8596 0 -154.768
1083.23 16.7188 0 -152.305
1529.24 9.00602 0 -117.264
1576.88 9.25368 0 -120.708
1100.23 16.7896 0 -153.539
1305.75 13.2901 0 -137.636
1553.06 9.1302 0 -118.988
1346.57 13.4828 0 -140.59
1326.16 13.3868 0 -139.115
1083.23 16.7188 0 -152.305
1049.23 16.5749 0 -149.83
1481.61 8.75559 0 -113.801
1529.24 9.00602 0 -117.264
1066.23 16.6473 0 -151.069
1264.94 13.0944 0 -134.667
1505.43 8.88115 0 -115.535
1305.75 13.2901 0 -137.636
1285.34 13.1926 0 -136.154
1049.23 16.5749 0 -149.83
1015.23 16.428 0 -147.341
1433.99 8.50247 0 -110.321
1481.61 8.75559 0 -113.801
1032.23 16.5018 0 -148.587
1224.13 12.8958 0 -131.683
1457.8 8.62936 0 -112.063
1264.94 13.0944 0 -134.667
1244.53 12.9954 0 -133.177
1015.23 16.428 0 -147.341
981.241 16.2781 0 -144.841
1386.37 8.24673 0 -106.823
1433.99 8.50247 0 -110.321
998.237 16.3534 0 -146.092
1183.32 12.6943 0 -128.684
1410.18 8.37492 0 -108.574
1224.13 12.8958 0 -131.683
1203.73 12.7954 0 -130.185
981.241 16.2781 0 -144.841
947.251 16.1252 0 -142.329
1338.75 7.98847 0 -103.31
1386.37 8.24673 0 -106.823
964.246 16.202 0 -143.586
1142.52 12.49 0 -125.67
1362.56 8.11791 0 -105.069
1183.32 12.6943 0 -128.684
1162.92 12.5925 0 -127.179
947.251 16.1252 0 -142.329
913.265 15.9695 0 -139.805
1291.14 7.72775 0 -99.7802
1338.75 7.98847 0 -103.31
930.258 16.0477 0 -141.068
1101.73 12.2831 0 -122.644
1314.95 7.85841 0 -101.547
1142.52 12.49 0 -125.67
1122.13 12.3869 0 -124.159
913.265 15.9695 0 -139.805
879.281 15.8109 0 -137.271
1243.54 7.46467 0 -96.2353
1291.14 7.72775 0 -99.7802
896.273 15.8906 0 -138.54
1060.94 12.0735 0 -119.604
1267.34 7.5965 0 -98.0097
1101.73 12.2831 0 -122.644
1081.33 12.1786 0 -121.126
879.281 15.8109 0 -137.271
845.301 15.6496 0 -134.727
1195.94 7.1993 0 -92.6757
1243.54 7.46467 0 -96.2353
862.291 15.7306 0 -136
1020.15 11.8614 0 -116.552
1219.74 7.33227 0 -94.4573
1060.94 12.0735 0 -119.604
1040.54 11.9678 0 -118.08
845.301 15.6496 0 -134.727
811.323 15.4856 0 -132.172
1148.35 6.93173 0 -89.1019
1195.94 7.1993 0 -92.6757
828.312 15.5679 0 -133.451
979.364 11.6467 0 -113.488
1172.14 7.06579 0 -90.8906
1020.15 11.8614 0 -116.552
999.755 11.7543 0 -115.021
811.323 15.4856 0 -132.172
777.348 15.319 0 -129.608
1100.76 6.66205 0 -85.5146
1148.35 6.93173 0 -89.1019
794.335 15.4026 0 -130.891
938.583 11.4297 0 -110.412
1124.55 6.79715 0 -87.3099
979.364 11.6467 0 -113.488
958.973 11.5385 0 -111.951
777.348 15.319 0 -129.608
743.376 15.1497 0 -127.035
1053.17 6.39033 0 -81.9141
1100.76 6.66205 0 -85.5146
760.362 15.2347 0 -128.323
897.806 11.2103 0 -107.325
1076.97 6.52644 0 -83.7159
938.583 11.4297 0 -110.412
918.194 11.3203 0 -108.87
743.376 15.1497 0 -127.035
709.406 14.978 0 -124.453
1005.59 6.11668 0 -78.3012
1053.17 6.39033 0 -81.9141
726.391 15.0642 0 -125.745
857.032 10.9886 0 -104.228
1029.38 6.25374 0 -80.1092
897.806 11.2103 0 -107.325
877.418 11.0997 0 -105.778
709.406 14.978 0 -124.453
675.439 14.8039 0 -121.863
958.016 5.84116 0 -74.6764
1005.59 6.11668 0 -78.3012
692.422 14.8913 0 -123.159
816.261 10.7647 0 -101.12
981.804 5.97915 0 -76.4902
857.032 10.9886 0 -104.228
836.646 10.8769 0 -102.675
675.439 14.8039 0 -121.863
641.475 14.6276 0 -119.265
910.442 5.56389 0 -71.0401
958.016 5.84116 0 -74.6764
658.457 14.716 0 -120.565
775.493 10.5388 0 -98.0035
934.229 5.70274 0 -72.8596
816.261 10.7647 0 -101.12
795.876 10.652 0 -99.5631
641.475 14.6276 0 -119.265
607.514 14.4492 0 -116.659
862.871 5.28495 0 -67.393
910.442 5.56389 0 -71.0401
624.494 14.5386 0 -117.963
734.728 10.3108 0 -94.8774
886.656 5.42463 0 -69.2179
775.493 10.5388 0 -98.0035
755.11 10.425 0 -96.4416
607.514 14.4492 0 -116.659
573.556 14.2692 0 -114.045
815.302 5.00444 0 -63.7357
862.871 5.28495 0 -67.393
590.534 14.3593 0 -115.353
693.966 10.081 0 -91.7423
839.086 5.14487 0 -65.5656
734.728 10.3108 0 -94.8774
714.347 10.1961 0 -93.311
573.556 14.2692 0 -114.045
539.603 14.0883 0 -111.422
767.736 4.72255 0 -60.0688
815.302 5.00444 0 -63.7357
556.579 14.1788 0 -112.735
653.209 9.84947 0 -88.5982
791.519 4.86371 0 -61.9033
693.966 10.081 0 -91.7423
673.587 9.96539 0 -90.1714
539.603 14.0883 0 -111.422
505.658 13.9082 0 -108.787
720.173 4.43901 0 -56.3928
767.736 4.72255 0 -60.0688
522.629 13.998 0 -110.106
612.459 9.61647 0 -85.444
743.954 4.58086 0 -58.232
653.209 9.84947 0 -88.5982
632.833 9.73316 0 -87.0225
505.658 13.9082 0 -108.787
471.723 13.7316 0 -106.137
672.618 4.15515 0 -52.7093
720.173 4.43901 0 -56.3928
488.689 13.8193 0 -107.465
571.722 9.38295 0 -82.2777
696.394 4.29749 0 -54.5516
612.459 9.61647 0 -85.444
592.088 9.49967 0 -83.8626
471.723 13.7316 0 -106.137
437.806 13.5646 0 -103.46
625.076 3.8674 0 -49.0185
672.618 4.15515 0 -52.7093
454.761 13.6463 0 -104.803
531.007 9.14917 0 -79.0931
648.845 4.01095 0 -50.8654
571.722 9.38295 0 -82.2777
551.361 9.26616 0 -80.6882
437.806 13.5646 0 -103.46
403.912 13.4159 0 -100.738
577.576 3.58485 0 -45.3264
625.076 3.8674 0 -49.0185
420.856 13.4871 0 -102.106
490.339 8.91874 0 -75.8803
601.318 3.72774 0 -47.1708
531.007 9.14917 0 -79.0931
510.664 9.0331 0 -77.4914
403.912 13.4159 0 -100.738
370.066 13.3064 0 -97.934
530.142 3.2834 0 -41.6308
577.576 3.58485 0 -45.3264
386.98 13.3546 0 -99.3501
449.75 8.69228 0 -72.6148
553.848 3.4317 0 -43.4818
490.339 8.91874 0 -75.8803
470.033 8.80554 0 -74.2557
370.066 13.3064 0 -97.934
336.261 13.2582 0 -94.9927
482.912 3.01676 0 -37.9574
530.142 3.2834 0 -41.6308
353.162 13.2718 0 -96.485
409.329 8.48154 0 -69.2601
506.491 3.15835 0 -39.7837
449.75 8.69228 0 -72.6148
429.508 8.58286 0 -70.9539
336.261 13.2582 0 -94.9927
302.568 13.3367 0 -91.7937
435.962 2.64934 0 -34.2896
482.912 3.01676 0 -37.9574
319.39 13.2789 0 -93.4364
369.172 8.28867 0 -65.7365
459.394 2.81908 0 -36.1363
409.329 8.48154 0 -69.2601
389.217 8.38632 0 -67.5222
302.568 13.3367 0 -91.7937
268.882 13.5643 0 -88.2053
389.858 2.46632 0 -30.7329
435.962 2.64934 0 -34.2896
285.745 13.4225 0 -90.0586
329.568 8.14534 0 -61.9259
412.766 2.60143 0 -32.4642
369.172 8.28867 0 -65.7365
349.263 8.20043 0 -63.8889
268.882 13.5643 0 -88.2053
235.376 14.1314 0 -83.9221
344.782 1.77689 0 -27.2022
389.858 2.46632 0 -30.7329
252.071 13.8116 0 -86.1768
290.709 8.06518 0 -57.624
367.156 2.045 0 -29.0286
329.568 8.14534 0 -61.9259
310.065 8.11684 0 -59.8308
235.376 14.1314 0 -83.9221
201.372 14.8561 0 -78.7889
302.752 1.97522 0 -24.0833
344.782 1.77689 0 -27.2022
218.538 14.441 0 -81.4736
253.444 8.11104 0 -52.491
323.286 2.10152 0 -25.444
290.709 8.06518 0 -57.624
271.736 8.02285 0 -55.2489
201.372 14.8561 0 -78.7889
167.149 16.2269 0 -72.338
264.062 -0.213238 0 -21.0316
302.752 1.97522 0 -24.0833
184.192 15.5562 0 -75.7525
217.664 8.36274 0 -46.2203
282.8 0.477559 0 -22.8576
253.444 8.11104 0 -52.491
235.547 8.30571 0 -49.4082
167.149 16.2269 0 -72.338
129.374 16.4028 0 -65.403
234.98 1.62827 0 -19.224
264.062 -0.213238 0 -21.0316
149.135 16.3639 0 -68.8702
185.484 8.85605 0 -38.0444
248.274 1.82558 0 -19.3144
217.664 8.36274 0 -46.2203
200.618 8.36827 0 -42.6997
129.374 16.4028 0 -65.403
87.984 15.677 0 -59.5318
217.058 -6.42005 0 -16.5792
234.98 1.62827 0 -19.224
108.949 16.9034 0 -62.0217
152.22 9.82455 0 -29.1939
223.26 -4.64281 0 -19.6822
185.484 8.85605 0 -38.0444
170.174 9.66831 0 -33.0516
87.984 15.677 0 -59.5318
32.354 -0.53228 0 -65.6506
236.674 6.86356 0 -11.1953
217.058 -6.42005 0 -16.5792
63.2238 9.85329 0 -60.1454
115.472 8.12698 0 -22.3847
222.665 5.01106 0 -12.2671
152.22 9.82455 0 -29.1939
133.278 9.17194 0 -26.2076
32.354 -0.53228 0 -65.6506
-17.7185 -65.2468 0 -101.952
337.522 26.0517 0 30.8797
236.674 6.86356 0 -11.1953
4.93534 -17.0677 0 -77.2278
14.6887 -35.8504 0 -59.5814
263.581 -10.7914 0 -6.9354
115.472 8.12698 0 -22.3847
83.1454 0.610593 0 -28.183
-17.7185 -65.2468 0 -101.952
-6.17744 -328.901 0 -126.467
33.0759 -395.803 0 -303.241
337.522 26.0517 0 30.8797
-28.0805 -170.735 0 -128.031
-53.5185 -410.659 0 -190.593
353.181 77.8617 0 4.70201
14.6887 -35.8504 0 -59.5814
-38.4773 -131.687 0 -113.113
      </DataArray> 
      <DataArray type="Float64" NumberOfComponents="4" Name="GreenStrain" format="ascii">
-0.00630923 -1.11022e-16 0.00270396 -0.00214731
-0.00449792 0.00142583 0.00131661 8.34659e-05
-0.00323565 0.000641898 0.00111161 -0.000238531
-0.00287276 0 0.00123118 -0.000161341
-0.00500328 0.00159155 0.00146217 -0.000300858
-0.00408929 0.000994384 0.00132639 -0.000309546
-0.0030768 0.000303725 0.00118846 -0.000277029
-0.00337354 0 0.0014458 -0.000520318
-0.00394508 0.000673639 0.00140205 -0.000486771
-0.00449792 0.00142583 0.00131661 8.34659e-05
-0.00444864 0.00137817 0.00131592 2.53522e-05
-0.00336115 0.00090844 0.00105116 -0.000112754
-0.00323565 0.000641898 0.00111161 -0.000238531
-0.004434 0.00131537 0.00133656 3.5973e-05
-0.00399776 0.00116443 0.00121428 -5.06431e-05
-0.00333518 0.00083047 0.00107345 -0.000171435
-0.00408929 0.000994384 0.00132639 -0.000309546
-0.00403179 0.00112558 0.00124552 -0.000124129
-0.00444864 0.00137817 0.00131592 2.53522e-05
-0.00451278 0.00133931 0.00136006 1.17965e-05
-0.00334444 0.000982423 0.00101229 -4.15622e-05
-0.00336115 0.00090844 0.00105116 -0.000112754
-0.00449164 0.00137558 0.00133545 2.57957e-05
-0.00395629 0.00118419 0.00118805 -4.70518e-06
-0.00335157 0.000954497 0.00102732 -6.58802e-05
-0.00399776 0.00116443 0.00121428 -5.06431e-05
-0.00397623 0.00117867 0.00119895 -2.43135e-05
-0.00451278 0.00133931 0.00136006 1.17965e-05
-0.00453883 0.00136576 0.00135989 -1.44868e-06
-0.00332075 0.000992017 0.00099803 -2.6217e-05
-0.00334444 0.000982423 0.00101229 -4.15622e-05
-0.00452439 0.001344 0.00136302 -2.48387e-06
-0.00393353 0.00118143 0.00117947 1.58025e-06
-0.00333556 0.000992008 0.00100438 -3.11739e-05
-0.00395629 0.00118419 0.00118805 -4.70518e-06
-0.00394103 0.00118396 0.0011816 3.84873e-06
-0.00453883 0.00136576 0.00135989 -1.44868e-06
-0.00455197 0.00136076 0.00136766 9.16389e-07
-0.00329351 0.000989985 0.000987226 -2.59174e-05
-0.00332075 0.000992017 0.00099803 -2.6217e-05
-0.00455005 0.00136787 0.00136379 2.27218e-06
-0.00392212 0.00117751 0.00117626 -5.63778e-06
-0.00330506 0.000991291 0.000991616 -2.44983e-05
-0.00393353 0.00118143 0.00117947 1.58025e-06
-0.00392886 0.00117936 0.00117836 -3.06948e-06
-0.00455197 0.00136076 0.00136766 9.16389e-07
-0.00454668 0.00136463 0.00136374 -8.59309e-07
-0.00327283 0.000982515 0.000981562 -3.15947e-05
-0.00329351 0.000989985 0.000987226 -2.59174e-05
-0.00454928 0.00136126 0.00136629 -1.46356e-06
-0.00390779 0.0011723 0.00117235 -1.21355e-05
-0.0032836 0.000986701 0.000984386 -2.8922e-05
-0.00392212 0.00117751 0.00117626 -5.63778e-06
-0.00391464 0.00117509 0.00117409 -8.53841e-06
-0.00454668 0.00136463 0.00136374 -8.59309e-07
-0.00453527 0.00135949 0.00136105 4.87713e-08
-0.00325278 0.000975313 0.000976059 -3.62652e-05
-0.00327283 0.000982515 0.000981562 -3.15947e-05
-0.00454255 0.00136324 0.00136256 2.63372e-07
-0.00389249 0.00116673 0.00116818 -1.72018e-05
-0.00326221 0.00097876 0.000978622 -3.39448e-05
-0.00390779 0.0011723 0.00117235 -1.21355e-05
-0.00390069 0.00116952 0.0011705 -1.51588e-05
-0.00453527 0.00135949 0.00136105 4.87713e-08
-0.00451697 0.00135523 0.00135503 -2.76404e-07
-0.00323476 0.000968353 0.000971316 -4.00196e-05
-0.00325278 0.000975313 0.000976059 -3.62652e-05
-0.00452627 0.00135712 0.00135821 -4.63749e-07
-0.00387478 0.00116088 0.0011631 -2.04346e-05
-0.00324386 0.000971806 0.000973737 -3.83969e-05
-0.00389249 0.00116673 0.00116818 -1.72018e-05
-0.00388369 0.00116385 0.00116565 -1.89345e-05
-0.00451697 0.00135523 0.00135503 -2.76404e-07
-0.00449632 0.00134871 0.00134898 -3.02016e-08
-0.00321693 0.000962082 0.000966362 -4.22669e-05
-0.00323476 0.000968353 0.000971316 -4.00196e-05
-0.00450708 0.00135225 0.00135207 1.22624e-08
-0.00385604 0.00115486 0.00115765 -2.23311e-05
-0.0032257 0.00096513 0.000968817 -4.12571e-05
-0.00387478 0.00116088 0.0011631 -2.04346e-05
-0.00386562 0.00115788 0.00116046 -2.15546e-05
-0.00449632 0.00134871 0.00134898 -3.02016e-08
-0.00447365 0.00134215 0.00134207 -7.61533e-08
-0.00319957 0.000956233 0.000961429 -4.36612e-05
-0.00321693 0.000962082 0.000966362 -4.22669e-05
-0.00448506 0.0013454 0.00134557 -1.33733e-07
-0.00383632 0.00114876 0.00115181 -2.34054e-05
-0.00320827 0.000959118 0.000963921 -4.30781e-05
-0.00385604 0.00115486 0.00115765 -2.23311e-05
-0.00384621 0.00115182 0.00115474 -2.29399e-05
-0.00447365 0.00134215 0.00134207 -7.61533e-08
-0.00445031 0.00133509 0.00133509 -1.59702e-08
-0.00318224 0.000950708 0.000956373 -4.43867e-05
-0.00319957 0.000956233 0.000961429 -4.36612e-05
-0.00446208 0.00133868 0.0013386 -6.36053e-09
-0.0038162 0.00114262 0.00114582 -2.39476e-05
-0.00319088 0.000953437 0.000958903 -4.40768e-05
-0.00383632 0.00114876 0.00115181 -2.34054e-05
-0.00382632 0.0011457 0.00114884 -2.37287e-05
-0.00445031 0.00133509 0.00133509 -1.59702e-08
-0.00442649 0.00132799 0.00132793 -1.78873e-08
-0.00316502 0.000945369 0.000951279 -4.47707e-05
-0.00318224 0.000950708 0.000956373 -4.43867e-05
-0.00443842 0.00133154 0.00133152 -3.43443e-08
-0.00379578 0.00113646 0.00113971 -2.42198e-05
-0.00317364 0.000948022 0.000953835 -4.46159e-05
-0.0038162 0.00114262 0.00114582 -2.39476e-05
-0.003806 0.00113954 0.00114277 -2.41079e-05
-0.00442649 0.00132799 0.00132793 -1.78873e-08
-0.00440254 0.00132079 0.00132075 -4.61758e-09
-0.0031478 0.000940142 0.000946138 -4.49411e-05
-0.00316502 0.000945369 0.000951279 -4.47707e-05
-0.00441453 0.0013244 0.00132434 -2.20212e-09
-0.00377526 0.0011303 0.00113355 -2.43345e-05
-0.0031564 0.000942745 0.00094871 -4.48723e-05
-0.00379578 0.00113646 0.00113971 -2.42198e-05
-0.00378553 0.00113338 0.00113664 -2.42905e-05
-0.00440254 0.00132079 0.00132075 -4.61758e-09
-0.00437851 0.00131359 0.00131354 -3.13889e-09
-0.0031306 0.000934974 0.000940981 -4.50134e-05
-0.0031478 0.000940142 0.000946138 -4.49411e-05
-0.00439052 0.00131719 0.00131714 -7.29848e-09
-0.00375467 0.00112413 0.00112737 -2.43801e-05
-0.0031392 0.000937553 0.000943562 -4.49867e-05
-0.00377526 0.0011303 0.00113355 -2.43345e-05
-0.00376496 0.00112721 0.00113046 -2.43631e-05
-0.00437851 0.00131359 0.00131354 -3.13889e-09
-0.00435447 0.00130638 0.00130633 -6.6558e-10
-0.00311339 0.000929838 0.00093581 -4.5034e-05
-0.0031306 0.000934974 0.000940981 -4.50134e-05
-0.00436649 0.00130998 0.00130993 1.81887e-11
-0.00373406 0.00111797 0.00112118 -2.43907e-05
-0.00312199 0.000932404 0.000938396 -4.50273e-05
-0.00375467 0.00112413 0.00112737 -2.43801e-05
-0.00374437 0.00112105 0.00112428 -2.43879e-05
-0.00435447 0.00130638 0.00130633 -6.6558e-10
-0.00433043 0.00129917 0.00129911 -7.94498e-11
-0.0030962 0.000924717 0.000930635 -4.50352e-05
-0.00311339 0.000929838 0.00093581 -4.5034e-05
-0.00434245 0.00130277 0.00130272 -9.57254e-10
-0.00371345 0.00111181 0.00111499 -2.43894e-05
-0.0031048 0.000927276 0.000933223 -4.50362e-05
-0.00373406 0.00111797 0.00112118 -2.43907e-05
-0.00372376 0.00111489 0.00111809 -2.43908e-05
-0.00433043 0.00129917 0.00129911 -7.94498e-11
-0.00430641 0.00129196 0.00129191 2.11572e-10
-0.003079 0.000919603 0.000925457 -4.50289e-05
-0.0030962 0.000924717 0.000930635 -4.50352e-05
-0.00431842 0.00129556 0.00129551 4.32994e-10
-0.00369284 0.00110565 0.0011088 -2.43839e-05
-0.0030876 0.000922159 0.000928046 -4.50323e-05
-0.00371345 0.00111181 0.00111499 -2.43894e-05
-0.00370314 0.00110873 0.00111189 -2.43867e-05
-0.00430641 0.00129196 0.00129191 2.11572e-10
-0.00428239 0.00128475 0.0012847 3.12402e-10
-0.00306181 0.000914491 0.000920279 -4.50219e-05
-0.003079 0.000919603 0.000925457 -4.50289e-05
-0.0042944 0.00128835 0.0012883 1.81914e-10
-0.00367223 0.00109949 0.0011026 -2.43787e-05
-0.00307041 0.000917047 0.000922868 -4.50254e-05
-0.00369284 0.00110565 0.0011088 -2.43839e-05
-0.00368254 0.00110257 0.0011057 -2.43811e-05
-0.00428239 0.00128475 0.0012847 3.12402e-10
-0.00425837 0.00127755 0.0012775 2.7037e-10
-0.00304462 0.00090938 0.000915102 -4.50161e-05
-0.00306181 0.000914491 0.000920279 -4.50219e-05
-0.00427038 0.00128115 0.0012811 3.49428e-10
-0.00365163 0.00109334 0.00109641 -2.43746e-05
-0.00305321 0.000911935 0.00091769 -4.50188e-05
-0.00367223 0.00109949 0.0011026 -2.43787e-05
-0.00366193 0.00109642 0.00109951 -2.43764e-05
-0.00425837 0.00127755 0.0012775 2.7037e-10
-0.00423437 0.00127034 0.0012703 2.55185e-10
-0.00302743 0.000904269 0.000909925 -4.5012e-05
-0.00304462 0.00090938 0.000915102 -4.50161e-05
-0.00424637 0.00127395 0.0012739 2.55859e-10
-0.00363103 0.00108718 0.00109022 -2.43718e-05
-0.00303602 0.000906825 0.000912513 -4.50138e-05
-0.00365163 0.00109334 0.00109641 -2.43746e-05
-0.00364133 0.00109026 0.00109331 -2.4373e-05
-0.00423437 0.00127034 0.0012703 2.55185e-10
-0.00421036 0.00126314 0.00126309 2.07273e-10
-0.00301024 0.000899158 0.000904748 -4.50093e-05
-0.00302743 0.000904269 0.000909925 -4.5012e-05
-0.00422237 0.00126674 0.00126669 2.36223e-10
-0.00361043 0.00108103 0.00108403 -2.43701e-05
-0.00301883 0.000901713 0.000907336 -4.50105e-05
-0.00363103 0.00108718 0.00109022 -2.43718e-05
-0.00362073 0.0010841 0.00108712 -2.43709e-05
-0.00421036 0.00126314 0.00126309 2.07273e-10
-0.00418636 0.00125594 0.00125589 1.86317e-10
-0.00299305 0.000894046 0.000899572 -4.50077e-05
-0.00301024 0.000899158 0.000904748 -4.50093e-05
-0.00419836 0.00125954 0.00125949 1.96736e-10
-0.00358983 0.00107487 0.00107784 -2.43692e-05
-0.00300164 0.000896602 0.00090216 -4.50084e-05
-0.00361043 0.00108103 0.00108403 -2.43701e-05
-0.00360013 0.00107795 0.00108093 -2.43696e-05
-0.00418636 0.00125594 0.00125589 1.86317e-10
-0.00416236 0.00124874 0.00124869 1.63032e-10
-0.00297586 0.000888935 0.000894397 -4.50068e-05
-0.00299305 0.000894046 0.000899572 -4.50077e-05
-0.00417436 0.00125234 0.00125229 1.73223e-10
-0.00356923 0.00106872 0.00107165 -2.43688e-05
-0.00298445 0.000891491 0.000896984 -4.50072e-05
-0.00358983 0.00107487 0.00107784 -2.43692e-05
-0.00357953 0.00107179 0.00107474 -2.4369e-05
-0.00416236 0.00124874 0.00124869 1.63032e-10
-0.00413836 0.00124154 0.00124149 1.5213e-10
-0.00295867 0.000883823 0.000889221 -4.50064e-05
-0.00297586 0.000888935 0.000894397 -4.50068e-05
-0.00415036 0.00124514 0.00124509 1.57384e-10
-0.00354864 0.00106256 0.00106546 -2.43686e-05
-0.00296727 0.000886379 0.000891809 -4.50066e-05
-0.00356923 0.00106872 0.00107165 -2.43688e-05
-0.00355894 0.00106564 0.00106856 -2.43687e-05
-0.00413836 0.00124154 0.00124149 1.52134e-10
-0.00411436 0.00123434 0.00123429 1.43147e-10
-0.00294149 0.000878711 0.000884047 -4.50063e-05
-0.00295867 0.000883823 0.000889221 -4.50064e-05
-0.00412636 0.00123794 0.00123789 1.46454e-10
-0.00352804 0.00105641 0.00105927 -2.43686e-05
-0.00295008 0.000881267 0.000886634 -4.50063e-05
-0.00354864 0.00106256 0.00106546 -2.43686e-05
-0.00353834 0.00105948 0.00106237 -2.43686e-05
-0.00411436 0.00123434 0.00123429 1.43147e-10
-0.00409036 0.00122714 0.00122709 1.38818e-10
-0.0029243 0.000873598 0.000878872 -4.50062e-05
-0.00294149 0.000878711 0.000884047 -4.50063e-05
-0.00410236 0.00123074 0.00123069 1.40668e-10
-0.00350745 0.00105025 0.00105308 -2.43687e-05
-0.00293289 0.000876155 0.000881459 -4.50062e-05
-0.00352804 0.00105641 0.00105927 -2.43686e-05
-0.00351775 0.00105333 0.00105618 -2.43686e-05
-0.00409036 0.00122714 0.00122709 1.38822e-10
-0.00406636 0.00121994 0.00121989 1.35725e-10
-0.00290711 0.000868486 0.000873698 -4.50062e-05
-0.0029243 0.000873598 0.000878872 -4.50062e-05
-0.00407836 0.00122354 0.00122349 1.36697e-10
-0.00348686 0.0010441 0.0010469 -2.43687e-05
-0.00291571 0.000871042 0.000876285 -4.50062e-05
-0.00350745 0.00105025 0.00105308 -2.43687e-05
-0.00349715 0.00104717 0.00104999 -2.43687e-05
-0.00406636 0.00121994 0.00121989 1.35725e-10
-0.00404236 0.00121274 0.00121269 1.34131e-10
-0.00288993 0.000863374 0.000868524 -4.50062e-05
-0.00290711 0.000868486 0.000873698 -4.50062e-05
-0.00405436 0.00121634 0.00121629 1.34701e-10
-0.00346626 0.00103794 0.00104071 -2.43688e-05
-0.00289852 0.00086593 0.000871111 -4.50062e-05
-0.00348686 0.0010441 0.0010469 -2.43687e-05
-0.00347656 0.00104102 0.0010438 -2.43688e-05
-0.00404236 0.00121274 0.00121269 1.34134e-10
-0.00401836 0.00120554 0.00120549 1.32994e-10
-0.00287275 0.000858261 0.00086335 -4.50061e-05
-0.00288993 0.000863374 0.000868524 -4.50062e-05
-0.00403036 0.00120914 0.00120909 1.33296e-10
-0.00344567 0.00103179 0.00103452 -2.43688e-05
-0.00288134 0.000860817 0.000865937 -4.50061e-05
-0.00346626 0.00103794 0.00104071 -2.43688e-05
-0.00345597 0.00103487 0.00103761 -2.43688e-05
-0.00401836 0.00120554 0.00120549 1.32994e-10
-0.00399436 0.00119834 0.0011983 1.32255e-10
-0.00285556 0.000853149 0.000858177 -4.5006e-05
-0.00287275 0.000858261 0.00086335 -4.50061e-05
-0.00400636 0.00120194 0.00120189 1.32489e-10
-0.00342508 0.00102563 0.00102833 -2.43689e-05
-0.00286415 0.000855705 0.000860764 -4.50061e-05
-0.00344567 0.00103179 0.00103452 -2.43688e-05
-0.00343537 0.00102871 0.00103143 -2.43689e-05
-0.00399436 0.00119834 0.0011983 1.32253e-10
-0.00397037 0.00119114 0.0011911 1.31606e-10
-0.00283838 0.000848036 0.000853004 -4.50059e-05
-0.00285556 0.000853149 0.000858177 -4.5006e-05
-0.00398236 0.00119474 0.0011947 1.318e-10
-0.00340449 0.00101948 0.00102215 -2.43689e-05
-0.00284697 0.000850592 0.000855591 -4.5006e-05
-0.00342508 0.00102563 0.00102833 -2.43689e-05
-0.00341478 0.00102256 0.00102524 -2.43689e-05
-0.00397037 0.00119114 0.0011911 1.31606e-10
-0.00394637 0.00118394 0.0011839 1.31006e-10
-0.0028212 0.000842923 0.000847831 -4.50058e-05
-0.00283838 0.000848036 0.000853004 -4.50059e-05
-0.00395837 0.00118754 0.0011875 1.31222e-10
-0.00338389 0.00101332 0.00101596 -2.43689e-05
-0.00282979 0.00084548 0.000850418 -4.50059e-05
-0.00340449 0.00101948 0.00102215 -2.43689e-05
-0.00339419 0.0010164 0.00101905 -2.43689e-05
-0.00394637 0.00118394 0.0011839 1.31007e-10
-0.00392237 0.00117674 0.0011767 1.30392e-10
-0.00280402 0.000837811 0.000842659 -4.50056e-05
-0.0028212 0.000842923 0.000847831 -4.50058e-05
-0.00393437 0.00118034 0.0011803 1.30618e-10
-0.0033633 0.00100717 0.00100977 -2.43688e-05
-0.00281261 0.000840367 0.000845245 -4.50057e-05
-0.00338389 0.00101332 0.00101596 -2.43689e-05
-0.0033736 0.00101025 0.00101287 -2.43688e-05
-0.00392237 0.00117674 0.0011767 1.30392e-10
-0.00389838 0.00116955 0.0011695 1.29751e-10
-0.00278683 0.000832698 0.000837487 -4.50054e-05
-0.00280402 0.000837811 0.000842659 -4.50056e-05
-0.00391037 0.00117314 0.0011731 1.30004e-10
-0.00334271 0.00100101 0.00100359 -2.43688e-05
-0.00279542 0.000835254 0.000840073 -4.50055e-05
-0.0033633 0.00100717 0.00100977 -2.43688e-05
-0.00335301 0.00100409 0.00100668 -2.43688e-05
-0.00389838 0.00116955 0.0011695 1.29744e-10
-0.00387438 0.00116235 0.0011623 1.29054e-10
-0.00276965 0.000827585 0.000832315 -4.50052e-05
-0.00278683 0.000832698 0.000837487 -4.50054e-05
-0.00388638 0.00116595 0.0011659 1.29331e-10
-0.00332213 0.00099486 0.000997399 -2.43687e-05
-0.00277824 0.000830141 0.000834901 -4.50053e-05
-0.00334271 0.00100101 0.00100359 -2.43688e-05
-0.00333242 0.000997938 0.00100049 -2.43687e-05
-0.00387438 0.00116235 0.0011623 1.29054e-10
-0.00385039 0.00115515 0.0011551 1.28329e-10
-0.00275247 0.000822472 0.000827144 -4.50049e-05
-0.00276965 0.000827585 0.000832315 -4.50052e-05
-0.00386238 0.00115875 0.0011587 1.28631e-10
-0.00330154 0.000988706 0.000991213 -2.43686e-05
-0.00276106 0.000825028 0.00082973 -4.50051e-05
-0.00332213 0.00099486 0.000997399 -2.43687e-05
-0.00331183 0.000991783 0.000994306 -2.43687e-05
-0.00385039 0.00115515 0.0011551 1.28329e-10
-0.00382639 0.00114795 0.0011479 1.27592e-10
-0.0027353 0.000817359 0.000821973 -4.50047e-05
-0.00275247 0.000822472 0.000827144 -4.50049e-05
-0.00383839 0.00115155 0.0011515 1.27903e-10
-0.00328095 0.000982552 0.000985028 -2.43685e-05
-0.00274388 0.000819916 0.000824558 -4.50048e-05
-0.00330154 0.000988706 0.000991213 -2.43686e-05
-0.00329124 0.000985629 0.00098812 -2.43686e-05
-0.00382639 0.00114795 0.0011479 1.27592e-10
-0.0038024 0.00114075 0.00114071 1.26807e-10
-0.00271812 0.000812246 0.000816802 -4.50044e-05
-0.0027353 0.000817359 0.000821973 -4.50047e-05
-0.0038144 0.00114435 0.00114431 1.27159e-10
-0.00326036 0.000976397 0.000978842 -2.43684e-05
-0.00272671 0.000814803 0.000819387 -4.50045e-05
-0.00328095 0.000982552 0.000985028 -2.43685e-05
-0.00327066 0.000979475 0.000981935 -2.43685e-05
-0.0038024 0.00114075 0.00114071 1.26803e-10
-0.00377841 0.00113355 0.00113351 1.25988e-10
-0.00270094 0.000807133 0.000811631 -4.50041e-05
-0.00271812 0.000812246 0.000816802 -4.50044e-05
-0.0037904 0.00113715 0.00113711 1.26337e-10
-0.00323978 0.000970243 0.000972657 -2.43683e-05
-0.00270953 0.00080969 0.000814217 -4.50042e-05
-0.00326036 0.000976397 0.000978842 -2.43684e-05
-0.00325007 0.00097332 0.000975749 -2.43684e-05
-0.00377841 0.00113355 0.00113351 1.25988e-10
-0.00375441 0.00112636 0.00112631 1.2523e-10
-0.00268376 0.00080202 0.000806461 -4.50038e-05
-0.00270094 0.000807133 0.000811631 -4.50041e-05
-0.00376641 0.00112995 0.00112991 1.2555e-10
-0.00321919 0.000964089 0.000966472 -2.43682e-05
-0.00269235 0.000804577 0.000809046 -4.50039e-05
-0.00323978 0.000970243 0.000972657 -2.43683e-05
-0.00322948 0.000967166 0.000969564 -2.43683e-05
-0.00375441 0.00112636 0.00112631 1.2523e-10
-0.00373042 0.00111916 0.00111911 1.24377e-10
-0.00266659 0.000796907 0.000801291 -4.50034e-05
-0.00268376 0.00080202 0.000806461 -4.50038e-05
-0.00374242 0.00112276 0.00112271 1.24758e-10
-0.00319861 0.000957935 0.000960287 -2.43681e-05
-0.00267517 0.000799464 0.000803876 -4.50036e-05
-0.00321919 0.000964089 0.000966472 -2.43682e-05
-0.0032089 0.000961012 0.000963379 -2.43682e-05
-0.00373042 0.00111916 0.00111911 1.24384e-10
-0.00370643 0.00111196 0.00111192 1.23568e-10
-0.00264941 0.000791794 0.000796122 -4.50031e-05
-0.00266659 0.000796907 0.000801291 -4.50034e-05
-0.00371843 0.00111556 0.00111551 1.23902e-10
-0.00317802 0.000951781 0.000954103 -2.4368e-05
-0.002658 0.00079435 0.000798707 -4.50033e-05
-0.00319861 0.000957935 0.000960287 -2.43681e-05
-0.00318831 0.000954858 0.000957195 -2.4368e-05
-0.00370643 0.00111196 0.00111192 1.23568e-10
-0.00368244 0.00110476 0.00110472 1.2274e-10
-0.00263224 0.000786681 0.000790953 -4.50028e-05
-0.00264941 0.000791794 0.000796122 -4.50031e-05
-0.00369444 0.00110836 0.00110832 1.23114e-10
-0.00315744 0.000945627 0.000947919 -2.43678e-05
-0.00264082 0.000789237 0.000793537 -4.50029e-05
-0.00317802 0.000951781 0.000954103 -2.4368e-05
-0.00316773 0.000948704 0.000951011 -2.43679e-05
-0.00368244 0.00110476 0.00110472 1.22735e-10
-0.00365845 0.00109757 0.00109752 1.21903e-10
-0.00261506 0.000781567 0.000785784 -4.50024e-05
-0.00263224 0.000786681 0.000790953 -4.50028e-05
-0.00367045 0.00110117 0.00110112 1.22255e-10
-0.00313685 0.000939473 0.000941735 -2.43677e-05
-0.00262365 0.000784124 0.000788368 -4.50026e-05
-0.00315744 0.000945627 0.000947919 -2.43678e-05
-0.00314715 0.00094255 0.000944827 -2.43678e-05
-0.00365845 0.00109757 0.00109752 1.21903e-10
-0.00363446 0.00109037 0.00109033 1.21073e-10
-0.00259789 0.000776454 0.000780615 -4.5002e-05
-0.00261506 0.000781567 0.000785784 -4.50024e-05
-0.00364646 0.00109397 0.00109392 1.21447e-10
-0.00311627 0.000933319 0.000935551 -2.43676e-05
-0.00260648 0.000779011 0.000783199 -4.50022e-05
-0.00313685 0.000939473 0.000941735 -2.43677e-05
-0.00312656 0.000936396 0.000938643 -2.43676e-05
-0.00363446 0.00109037 0.00109033 1.21081e-10
-0.00361048 0.00108317 0.00108313 1.20264e-10
-0.00258072 0.000771341 0.000775447 -4.50016e-05
-0.00259789 0.000776454 0.000780615 -4.5002e-05
-0.00362247 0.00108677 0.00108673 1.20605e-10
-0.00309569 0.000927166 0.000929368 -2.43674e-05
-0.0025893 0.000773898 0.000778031 -4.50018e-05
-0.00311627 0.000933319 0.000935551 -2.43676e-05
-0.00310598 0.000930243 0.000932459 -2.43675e-05
-0.00361048 0.00108317 0.00108313 1.20264e-10
-0.00358649 0.00107598 0.00107593 1.19418e-10
-0.00256355 0.000766228 0.000770279 -4.50012e-05
-0.00258072 0.000771341 0.000775447 -4.50016e-05
-0.00359848 0.00107958 0.00107953 1.19809e-10
-0.00307511 0.000921012 0.000923185 -2.43672e-05
-0.00257213 0.000768784 0.000772863 -4.50014e-05
-0.00309569 0.000927166 0.000929368 -2.43674e-05
-0.0030854 0.000924089 0.000926276 -2.43673e-05
-0.00358649 0.00107598 0.00107593 1.19413e-10
-0.0035625 0.00106878 0.00106874 1.18588e-10
-0.00254637 0.000761114 0.000765112 -4.50008e-05
-0.00256355 0.000766228 0.000770279 -4.50012e-05
-0.00357449 0.00107238 0.00107234 1.18917e-10
-0.00305453 0.000914859 0.000917002 -2.43671e-05
-0.00255496 0.000763671 0.000767695 -4.5001e-05
-0.00307511 0.000921012 0.000923185 -2.43672e-05
-0.00306482 0.000917935 0.000920093 -2.43672e-05
-0.0035625 0.00106878 0.00106874 1.18588e-10
-0.00353852 0.00106158 0.00106154 1.17817e-10
-0.0025292 0.000756001 0.000759944 -4.50004e-05
-0.00254637 0.000761114 0.000765112 -4.50008e-05
-0.00355051 0.00106518 0.00106514 1.18192e-10
-0.00303395 0.000908705 0.000910819 -2.43669e-05
-0.00253779 0.000758558 0.000762528 -4.50006e-05
-0.00305453 0.000914859 0.000917002 -2.43671e-05
-0.00304424 0.000911782 0.00091391 -2.4367e-05
-0.00353852 0.00106158 0.00106154 1.17824e-10
-0.00351453 0.00105439 0.00105435 1.16881e-10
-0.00251204 0.000750888 0.000754777 -4.5e-05
-0.0025292 0.000756001 0.000759944 -4.50004e-05
-0.00352652 0.00105799 0.00105794 1.17317e-10
-0.00301337 0.000902552 0.000904637 -2.43667e-05
-0.00252062 0.000753444 0.000757361 -4.50002e-05
-0.00303395 0.000908705 0.000910819 -2.43669e-05
-0.00302366 0.000905628 0.000907728 -2.43668e-05
-0.00351453 0.00105439 0.00105435 1.16881e-10
-0.00349054 0.00104719 0.00104715 1.16111e-10
-0.00249487 0.000745774 0.000749611 -4.49995e-05
-0.00251204 0.000750888 0.000754777 -4.5e-05
-0.00350254 0.00105079 0.00105075 1.16425e-10
-0.00299279 0.000896398 0.000898455 -2.43666e-05
-0.00250345 0.000748331 0.000752194 -4.49998e-05
-0.00301337 0.000902552 0.000904637 -2.43667e-05
-0.00300308 0.000899475 0.000901546 -2.43666e-05
-0.00349054 0.00104719 0.00104715 1.16111e-10
-0.00346656 0.00104 0.00103996 1.15296e-10
-0.0024777 0.000740661 0.000744445 -4.49991e-05
-0.00249487 0.000745774 0.000749611 -4.49995e-05
-0.00347855 0.0010436 0.00104355 1.15695e-10
-0.00297222 0.000890245 0.000892273 -2.43664e-05
-0.00248628 0.000743217 0.000747028 -4.49993e-05
-0.00299279 0.000896398 0.000898455 -2.43666e-05
-0.0029825 0.000893322 0.000895364 -2.43665e-05
-0.00346656 0.00104 0.00103996 1.15298e-10
-0.00344258 0.0010328 0.00103276 1.14458e-10
-0.00246053 0.000735547 0.000739279 -4.49986e-05
-0.0024777 0.000740661 0.000744445 -4.49991e-05
-0.00345457 0.0010364 0.00103636 1.14819e-10
-0.00295164 0.000884092 0.000886092 -2.43662e-05
-0.00246911 0.000738104 0.000741862 -4.49989e-05
-0.00297222 0.000890245 0.000892273 -2.43664e-05
-0.00296193 0.000887169 0.000889183 -2.43663e-05
-0.00344258 0.0010328 0.00103276 1.14474e-10
-0.0034186 0.00102561 0.00102557 1.13641e-10
-0.00244336 0.000730434 0.000734113 -4.49982e-05
-0.00246053 0.000735547 0.000739279 -4.49986e-05
-0.00343059 0.00102921 0.00102916 1.14016e-10
-0.00293106 0.000877939 0.000879911 -2.4366e-05
-0.00245195 0.000732991 0.000736696 -4.49984e-05
-0.00295164 0.000884092 0.000886092 -2.43662e-05
-0.00294135 0.000881016 0.000883001 -2.43661e-05
-0.0034186 0.00102561 0.00102557 1.13641e-10
-0.00339461 0.00101841 0.00101837 1.12821e-10
-0.0024262 0.00072532 0.000728948 -4.49977e-05
-0.00244336 0.000730434 0.000734113 -4.49982e-05
-0.0034066 0.00102201 0.00102197 1.13169e-10
-0.00291049 0.000871786 0.00087373 -2.43658e-05
-0.00243478 0.000727877 0.000731531 -4.49979e-05
-0.00293106 0.000877939 0.000879911 -2.4366e-05
-0.00292078 0.000874863 0.00087682 -2.43659e-05
-0.00339461 0.00101841 0.00101837 1.12821e-10
-0.00337063 0.00101122 0.00101118 1.11985e-10
-0.00240903 0.000720207 0.000723783 -4.49972e-05
-0.0024262 0.00072532 0.000728948 -4.49977e-05
-0.00338262 0.00101482 0.00101477 1.12367e-10
-0.00288992 0.000865633 0.000867549 -2.43656e-05
-0.00241762 0.000722764 0.000726366 -4.49975e-05
-0.00291049 0.000871786 0.00087373 -2.43658e-05
-0.0029002 0.00086871 0.00087064 -2.43657e-05
-0.00337063 0.00101122 0.00101118 1.11993e-10
-0.00334665 0.00100403 0.00100398 1.11167e-10
-0.00239187 0.000715093 0.000718619 -4.49967e-05
-0.00240903 0.000720207 0.000723783 -4.49972e-05
-0.00335864 0.00100762 0.00100758 1.11546e-10
-0.00286934 0.000859481 0.000861369 -2.43654e-05
-0.00240045 0.00071765 0.000721201 -4.4997e-05
-0.00288992 0.000865633 0.000867549 -2.43656e-05
-0.00287963 0.000862557 0.000864459 -2.43655e-05
-0.00334665 0.00100403 0.00100398 1.11167e-10
-0.00332267 0.000996831 0.000996789 1.1034e-10
-0.00237471 0.00070998 0.000713454 -4.49962e-05
-0.00239187 0.000715093 0.000718619 -4.49967e-05
-0.00333466 0.00100043 0.00100039 1.10701e-10
-0.00284877 0.000853328 0.000855189 -2.43652e-05
-0.00238329 0.000712536 0.000716037 -4.49965e-05
-0.00286934 0.000859481 0.000861369 -2.43654e-05
-0.00285906 0.000856404 0.000858279 -2.43653e-05
-0.00332267 0.000996831 0.000996789 1.1034e-10
-0.00329869 0.000989638 0.000989595 1.0953e-10
-0.00235754 0.000704866 0.000708291 -4.49957e-05
-0.00237471 0.00070998 0.000713454 -4.49962e-05
-0.00331068 0.000993234 0.000993192 1.09897e-10
-0.0028282 0.000847175 0.000849009 -2.4365e-05
-0.00236613 0.000707423 0.000710873 -4.4996e-05
-0.00284877 0.000853328 0.000855189 -2.43652e-05
-0.00283848 0.000850252 0.000852099 -2.43651e-05
-0.00329869 0.000989638 0.000989595 1.0953e-10
-0.00327472 0.000982444 0.000982402 1.087e-10
-0.00234038 0.000699752 0.000703127 -4.49952e-05
-0.00235754 0.000704866 0.000708291 -4.49957e-05
-0.0032867 0.000986041 0.000985999 1.09068e-10
-0.00280763 0.000841023 0.00084283 -2.43647e-05
-0.00234896 0.000702309 0.000705709 -4.49955e-05
-0.0028282 0.000847175 0.000849009 -2.4365e-05
-0.00281791 0.000844099 0.00084592 -2.43648e-05
-0.00327472 0.000982444 0.000982402 1.08707e-10
-0.00325074 0.000975251 0.000975209 1.0788e-10
-0.00232322 0.000694639 0.000697964 -4.49947e-05
-0.00234038 0.000699752 0.000703127 -4.49952e-05
-0.00326273 0.000978847 0.000978805 1.08252e-10
-0.00278706 0.00083487 0.000836651 -2.43645e-05
-0.0023318 0.000697196 0.000700546 -4.4995e-05
-0.00280763 0.000841023 0.00084283 -2.43647e-05
-0.00279734 0.000837947 0.00083974 -2.43646e-05
-0.00325074 0.000975251 0.000975209 1.0788e-10
-0.00322676 0.000968058 0.000968016 1.07061e-10
-0.00230606 0.000689525 0.000692801 -4.49942e-05
-0.00232322 0.000694639 0.000697964 -4.49947e-05
-0.00323875 0.000971654 0.000971612 1.07437e-10
-0.00276649 0.000828718 0.000830472 -2.43643e-05
-0.00231464 0.000692082 0.000695383 -4.49945e-05
-0.00278706 0.00083487 0.000836651 -2.43645e-05
-0.00277677 0.000831794 0.000833561 -2.43644e-05
-0.00322676 0.000968058 0.000968016 1.07061e-10
-0.00320279 0.000960865 0.000960823 1.06241e-10
-0.0022889 0.000684411 0.000687639 -4.49937e-05
-0.00230606 0.000689525 0.000692801 -4.49942e-05
-0.00321477 0.000964461 0.000964419 1.06612e-10
-0.00274592 0.000822566 0.000824293 -2.43641e-05
-0.00229748 0.000686968 0.00069022 -4.49939e-05
-0.00276649 0.000828718 0.000830472 -2.43643e-05
-0.0027562 0.000825642 0.000827383 -2.43642e-05
-0.00320279 0.000960865 0.000960823 1.06241e-10
-0.00317881 0.000953672 0.000953631 1.05425e-10
-0.00227174 0.000679298 0.000682477 -4.49931e-05
-0.0022889 0.000684411 0.000687639 -4.49937e-05
-0.0031908 0.000957268 0.000957227 1.05785e-10
-0.00272535 0.000816414 0.000818115 -2.43638e-05
-0.00228032 0.000681855 0.000685058 -4.49934e-05
-0.00274592 0.000822566 0.000824293 -2.43641e-05
-0.00273563 0.00081949 0.000821204 -2.43639e-05
-0.00317881 0.000953672 0.000953631 1.05407e-10
-0.00315484 0.00094648 0.000946438 1.04599e-10
-0.00225459 0.000674184 0.000677315 -4.49926e-05
-0.00227174 0.000679298 0.000682477 -4.49931e-05
-0.00316682 0.000950076 0.000950034 1.04962e-10
-0.00270478 0.000810262 0.000811937 -2.43636e-05
-0.00226316 0.000676741 0.000679896 -4.49929e-05
-0.00272535 0.000816414 0.000818115 -2.43638e-05
-0.00271507 0.000813338 0.000815026 -2.43637e-05
-0.00315484 0.00094648 0.000946438 1.04587e-10
-0.00313086 0.000939287 0.000939246 1.03785e-10
-0.00223743 0.00066907 0.000672153 -4.49921e-05
-0.00225459 0.000674184 0.000677315 -4.49926e-05
-0.00314285 0.000942884 0.000942842 1.04166e-10
-0.00268422 0.00080411 0.00080576 -2.43634e-05
-0.00224601 0.000671627 0.000674734 -4.49923e-05
-0.00270478 0.000810262 0.000811937 -2.43636e-05
-0.0026945 0.000807186 0.000808848 -2.43635e-05
-0.00313086 0.000939287 0.000939246 1.03785e-10
-0.00310689 0.000932096 0.000932054 1.02972e-10
-0.00222027 0.000663957 0.000666992 -4.49915e-05
-0.00223743 0.00066907 0.000672153 -4.49921e-05
-0.00311888 0.000935691 0.00093565 1.03335e-10
-0.00266365 0.000797958 0.000799582 -2.43631e-05
-0.00222885 0.000666513 0.000669573 -4.49918e-05
-0.00268422 0.00080411 0.00080576 -2.43634e-05
-0.00267393 0.000801034 0.000802671 -2.43632e-05
-0.00310689 0.000932096 0.000932054 1.02972e-10
-0.00308292 0.000924904 0.000924863 1.02143e-10
-0.00220312 0.000658843 0.000661832 -4.4991e-05
-0.00222027 0.000663957 0.000666992 -4.49915e-05
-0.0030949 0.0009285 0.000928459 1.02498e-10
-0.00264309 0.000791807 0.000793405 -2.43629e-05
-0.00221169 0.0006614 0.000664412 -4.49912e-05
-0.00266365 0.000797958 0.000799582 -2.43631e-05
-0.00265337 0.000794882 0.000796494 -2.4363e-05
-0.00308292 0.000924904 0.000924863 1.02151e-10
-0.00305895 0.000917712 0.000917671 1.01327e-10
-0.00218596 0.000653729 0.000656671 -4.49904e-05
-0.00220312 0.000658843 0.000661832 -4.4991e-05
-0.00307093 0.000921308 0.000921267 1.01694e-10
-0.00262252 0.000785655 0.000787228 -2.43626e-05
-0.00219454 0.000656286 0.000659251 -4.49907e-05
-0.00264309 0.000791807 0.000793405 -2.43629e-05
-0.0026328 0.000788731 0.000790317 -2.43628e-05
-0.00305895 0.000917712 0.000917671 1.01329e-10
-0.00303498 0.000910521 0.00091048 1.00501e-10
-0.00216881 0.000648615 0.000651511 -4.49899e-05
-0.00218596 0.000653729 0.000656671 -4.49904e-05
-0.00304696 0.000914117 0.000914076 1.00874e-10
-0.00260196 0.000779503 0.000781052 -2.43624e-05
-0.00217738 0.000651172 0.000654091 -4.49901e-05
-0.00262252 0.000785655 0.000787228 -2.43626e-05
-0.00261224 0.000782579 0.00078414 -2.43625e-05
-0.00303498 0.000910521 0.00091048 1.00501e-10
-0.00301101 0.00090333 0.000903289 9.96903e-11
-0.00215165 0.000643501 0.000646351 -4.49893e-05
-0.00216881 0.000648615 0.000651511 -4.49899e-05
-0.00302299 0.000906925 0.000906885 1.00043e-10
-0.0025814 0.000773352 0.000774876 -2.43621e-05
-0.00216023 0.000646058 0.000648931 -4.49896e-05
-0.00260196 0.000779503 0.000781052 -2.43624e-05
-0.00259168 0.000776428 0.000777964 -2.43623e-05
-0.00301101 0.00090333 0.000903289 9.96903e-11
-0.00298704 0.000896139 0.000896099 9.88758e-11
-0.0021345 0.000638388 0.000641192 -4.49887e-05
-0.00215165 0.000643501 0.000646351 -4.49893e-05
-0.00299902 0.000899735 0.000899694 9.92567e-11
-0.00256083 0.000767201 0.0007687 -2.43619e-05
-0.00214308 0.000640945 0.000643772 -4.4989e-05
-0.0025814 0.000773352 0.000774876 -2.43621e-05
-0.00257111 0.000770276 0.000771788 -2.4362e-05
-0.00298704 0.000896139 0.000896099 9.88644e-11
-0.00296307 0.000888949 0.000888908 9.80742e-11
-0.00211735 0.000633274 0.000636033 -4.49882e-05
-0.0021345 0.000638388 0.000641192 -4.49887e-05
-0.00297505 0.000892544 0.000892503 9.84148e-11
-0.00254027 0.00076105 0.000762524 -2.43616e-05
-0.00212593 0.000635831 0.000638613 -4.49884e-05
-0.00256083 0.000767201 0.0007687 -2.43619e-05
-0.00255055 0.000764125 0.000765612 -2.43618e-05
-0.00296307 0.000888949 0.000888908 9.80627e-11
-0.0029391 0.000881758 0.000881718 9.7252e-11
-0.0021002 0.00062816 0.000630875 -4.49876e-05
-0.00211735 0.000633274 0.000636033 -4.49882e-05
-0.00295108 0.000885353 0.000885313 9.76255e-11
-0.00251971 0.000754898 0.000756349 -2.43614e-05
-0.00210878 0.000630717 0.000633454 -4.49879e-05
-0.00254027 0.00076105 0.000762524 -2.43616e-05
-0.00252999 0.000757974 0.000759437 -2.43615e-05
-0.0029391 0.000881758 0.000881718 9.7252e-11
-0.00291513 0.000874568 0.000874528 9.64376e-11
-0.00208305 0.000623046 0.000625716 -4.4987e-05
-0.0021002 0.00062816 0.000630875 -4.49876e-05
-0.00292712 0.000878163 0.000878123 9.68164e-11
-0.00249915 0.000748747 0.000750174 -2.43611e-05
-0.00209163 0.000625603 0.000628295 -4.49873e-05
-0.00251971 0.000754898 0.000756349 -2.43614e-05
-0.00250943 0.000751823 0.000753262 -2.43613e-05
-0.00291513 0.000874568 0.000874528 9.64376e-11
-0.00289117 0.000867378 0.000867338 9.56102e-11
-0.0020659 0.000617932 0.000620558 -4.49864e-05
-0.00208305 0.000623046 0.000625716 -4.4987e-05
-0.00290315 0.000870973 0.000870933 9.59969e-11
-0.0024786 0.000742597 0.000743999 -2.43609e-05
-0.00207448 0.000620489 0.000623137 -4.49867e-05
-0.00249915 0.000748747 0.000750174 -2.43611e-05
-0.00248887 0.000745672 0.000747087 -2.4361e-05
-0.00289117 0.000867378 0.000867338 9.56201e-11
-0.0028672 0.000860189 0.000860149 9.47979e-11
-0.00204875 0.000612818 0.000615401 -4.49859e-05
-0.0020659 0.000617932 0.000620558 -4.49864e-05
-0.00287919 0.000863783 0.000863744 9.51694e-11
-0.00245804 0.000736446 0.000737825 -2.43606e-05
-0.00205733 0.000615375 0.000617979 -4.49861e-05
-0.0024786 0.000742597 0.000743999 -2.43609e-05
-0.00246832 0.000739521 0.000740912 -2.43607e-05
-0.0028672 0.000860189 0.000860149 9.47979e-11
-0.00284324 0.000852999 0.00085296 9.39887e-11
-0.00203161 0.000607705 0.000610244 -4.49853e-05
-0.00204875 0.000612818 0.000615401 -4.49859e-05
-0.00285522 0.000856594 0.000856554 9.43662e-11
-0.00243748 0.000730295 0.000731651 -2.43604e-05
-0.00204018 0.000610261 0.000612822 -4.49856e-05
-0.00245804 0.000736446 0.000737825 -2.43606e-05
-0.00244776 0.00073337 0.000734738 -2.43605e-05
-0.00284324 0.000852999 0.00085296 9.39887e-11
-0.00281927 0.00084581 0.00084577 9.31759e-11
-0.00201446 0.000602591 0.000605087 -4.49847e-05
-0.00203161 0.000607705 0.000610244 -4.49853e-05
-0.00283126 0.000849405 0.000849365 9.35575e-11
-0.00241692 0.000724145 0.000725477 -2.43601e-05
-0.00202303 0.000605148 0.000607665 -4.4985e-05
-0.00243748 0.000730295 0.000731651 -2.43604e-05
-0.0024272 0.00072722 0.000728564 -2.43602e-05
-0.00281927 0.00084581 0.00084577 9.31759e-11
-0.00279531 0.000838621 0.000838582 9.23484e-11
-0.00199731 0.000597477 0.00059993 -4.49841e-05
-0.00201446 0.000602591 0.000605087 -4.49847e-05
-0.00280729 0.000842216 0.000842176 9.27478e-11
-0.00239637 0.000717994 0.000719304 -2.43598e-05
-0.00200589 0.000600034 0.000602508 -4.49844e-05
-0.00241692 0.000724145 0.000725477 -2.43601e-05
-0.00240665 0.000721069 0.00072239 -2.436e-05
-0.00279531 0.000838621 0.000838582 9.23551e-11
-0.00277135 0.000831433 0.000831393 9.15321e-11
-0.00198017 0.000592363 0.000594774 -4.49835e-05
-0.00199731 0.000597477 0.00059993 -4.49841e-05
-0.00278333 0.000835027 0.000834987 9.19321e-11
-0.00237581 0.000711844 0.00071313 -2.43596e-05
-0.00198874 0.00059492 0.000597352 -4.49838e-05
-0.00239637 0.000717994 0.000719304 -2.43598e-05
-0.00238609 0.000714919 0.000716217 -2.43597e-05
-0.00277135 0.000831433 0.000831393 9.15553e-11
-0.00274739 0.000824244 0.000824205 9.07296e-11
-0.00196302 0.000587249 0.000589618 -4.4983e-05
-0.00198017 0.000592363 0.000594774 -4.49835e-05
-0.00275937 0.000827838 0.000827799 9.11097e-11
-0.00235526 0.000705693 0.000706958 -2.43593e-05
-0.0019716 0.000589806 0.000592196 -4.49832e-05
-0.00237581 0.000711844 0.00071313 -2.43596e-05
-0.00236554 0.000708769 0.000710044 -2.43595e-05
-0.00274739 0.000824244 0.000824205 9.07296e-11
-0.00272343 0.000817056 0.000817017 8.99313e-11
-0.00194588 0.000582135 0.000584463 -4.49824e-05
-0.00196302 0.000587249 0.000589618 -4.4983e-05
-0.00273541 0.00082065 0.000820611 9.02933e-11
-0.00233471 0.000699543 0.000700785 -2.43591e-05
-0.00195445 0.000584692 0.00058704 -4.49827e-05
-0.00235526 0.000705693 0.000706958 -2.43593e-05
-0.00234498 0.000702618 0.000703871 -2.43592e-05
-0.00272343 0.000817056 0.000817017 8.99313e-11
-0.00269947 0.000809868 0.000809829 8.91325e-11
-0.00192874 0.000577021 0.000579308 -4.49818e-05
-0.00194588 0.000582135 0.000584463 -4.49824e-05
-0.00271145 0.000813462 0.000813423 8.94924e-11
-0.00231416 0.000693393 0.000694613 -2.43588e-05
-0.00193731 0.000579578 0.000581885 -4.49821e-05
-0.00233471 0.000699543 0.000700785 -2.43591e-05
-0.00232443 0.000696468 0.000697699 -2.43589e-05
-0.00269947 0.000809868 0.000809829 8.91275e-11
-0.00267551 0.00080268 0.000802641 8.83076e-11
-0.0019116 0.000571907 0.000574153 -4.49812e-05
-0.00192874 0.000577021 0.000579308 -4.49818e-05
-0.00268749 0.000806274 0.000806235 8.87016e-11
-0.0022936 0.000687243 0.000688441 -2.43586e-05
-0.00192017 0.000574464 0.00057673 -4.49815e-05
-0.00231416 0.000693393 0.000694613 -2.43588e-05
-0.00230388 0.000690318 0.000691527 -2.43587e-05
-0.00267551 0.00080268 0.000802641 8.83024e-11
-0.00265155 0.000795493 0.000795454 8.75009e-11
-0.00189446 0.000566793 0.000568998 -4.49806e-05
-0.0019116 0.000571907 0.000574153 -4.49812e-05
-0.00266353 0.000799086 0.000799047 8.78698e-11
-0.00227305 0.000681093 0.000682269 -2.43583e-05
-0.00190303 0.00056935 0.000571576 -4.49809e-05
-0.0022936 0.000687243 0.000688441 -2.43586e-05
-0.00228333 0.000684168 0.000685355 -2.43584e-05
-0.00265155 0.000795493 0.000795454 8.75009e-11
-0.00262759 0.000788305 0.000788267 8.67014e-11
-0.00187732 0.000561679 0.000563844 -4.498e-05
-0.00189446 0.000566793 0.000568998 -4.49806e-05
-0.00263957 0.000791899 0.00079186 8.70847e-11
-0.0022525 0.000674944 0.000676098 -2.4358e-05
-0.00188589 0.000564236 0.000566421 -4.49803e-05
-0.00227305 0.000681093 0.000682269 -2.43583e-05
-0.00226278 0.000678018 0.000679183 -2.43582e-05
-0.00262759 0.000788305 0.000788267 8.67014e-11
-0.00260364 0.000781118 0.00078108 8.58781e-11
-0.00186018 0.000556565 0.000558691 -4.49795e-05
-0.00187732 0.000561679 0.000563844 -4.498e-05
-0.00261562 0.000784712 0.000784673 8.62718e-11
-0.00223196 0.000668794 0.000669927 -2.43578e-05
-0.00186875 0.000559122 0.000561267 -4.49798e-05
-0.0022525 0.000674944 0.000676098 -2.4358e-05
-0.00224223 0.000671869 0.000673012 -2.43579e-05
-0.00260364 0.000781118 0.00078108 8.58865e-11
-0.00257968 0.000773931 0.000773893 8.50787e-11
-0.00184304 0.000551451 0.000553537 -4.49789e-05
-0.00186018 0.000556565 0.000558691 -4.49795e-05
-0.00259166 0.000777525 0.000777486 8.54464e-11
-0.00221141 0.000662644 0.000663756 -2.43575e-05
-0.00185161 0.000554008 0.000556114 -4.49792e-05
-0.00223196 0.000668794 0.000669927 -2.43578e-05
-0.00222168 0.000665719 0.000666841 -2.43576e-05
-0.00257968 0.000773931 0.000773893 8.50867e-11
-0.00255573 0.000766745 0.000766706 8.42899e-11
-0.0018259 0.000546337 0.000548384 -4.49783e-05
-0.00184304 0.000551451 0.000553537 -4.49789e-05
-0.0025677 0.000770338 0.0007703 8.46668e-11
-0.00219086 0.000656495 0.000657585 -2.43573e-05
-0.00183447 0.000548894 0.000550961 -4.49786e-05
-0.00221141 0.000662644 0.000663756 -2.43575e-05
-0.00220113 0.00065957 0.000660671 -2.43574e-05
-0.00255573 0.000766745 0.000766706 8.42899e-11
-0.00253177 0.000759558 0.00075952 8.34701e-11
-0.00180876 0.000541223 0.000543232 -4.49777e-05
-0.0018259 0.000546337 0.000548384 -4.49783e-05
-0.00254375 0.000763152 0.000763113 8.38426e-11
-0.00217031 0.000650346 0.000651415 -2.4357e-05
-0.00181733 0.00054378 0.000545808 -4.4978e-05
-0.00219086 0.000656495 0.000657585 -2.43573e-05
-0.00218059 0.00065342 0.0006545 -2.43571e-05
-0.00253177 0.000759558 0.00075952 8.34701e-11
-0.00250782 0.000752372 0.000752334 8.26495e-11
-0.00179163 0.000536109 0.000538079 -4.49772e-05
-0.00180876 0.000541223 0.000543232 -4.49777e-05
-0.0025198 0.000755965 0.000755927 8.30422e-11
-0.00214977 0.000644196 0.000645245 -2.43568e-05
-0.0018002 0.000538666 0.000540655 -4.49774e-05
-0.00217031 0.000650346 0.000651415 -2.4357e-05
-0.00216004 0.000647271 0.00064833 -2.43569e-05
-0.00250782 0.000752372 0.000752334 8.26248e-11
-0.00248387 0.000745186 0.000745148 8.18324e-11
-0.00177449 0.000530995 0.000532927 -4.49766e-05
-0.00179163 0.000536109 0.000538079 -4.49772e-05
-0.00249584 0.000748779 0.000748741 8.22373e-11
-0.00212922 0.000638047 0.000639076 -2.43565e-05
-0.00178306 0.000533552 0.000535503 -4.49769e-05
-0.00214977 0.000644196 0.000645245 -2.43568e-05
-0.0021395 0.000641122 0.00064216 -2.43566e-05
-0.00248387 0.000745186 0.000745148 8.18473e-11
-0.00245991 0.000738001 0.000737963 8.10333e-11
-0.00175736 0.000525881 0.000527776 -4.4976e-05
-0.00177449 0.000530995 0.000532927 -4.49766e-05
-0.00247189 0.000741594 0.000741556 8.14199e-11
-0.00210868 0.000631898 0.000632906 -2.43562e-05
-0.00176592 0.000528438 0.000530351 -4.49763e-05
-0.00212922 0.000638047 0.000639076 -2.43565e-05
-0.00211895 0.000634973 0.000635991 -2.43564e-05
-0.00245991 0.000738001 0.000737963 8.10333e-11
-0.00243596 0.000730815 0.000730778 8.02496e-11
-0.00174022 0.000520767 0.000522624 -4.49755e-05
-0.00175736 0.000525881 0.000527776 -4.4976e-05
-0.00244794 0.000734408 0.00073437 8.06059e-11
-0.00208814 0.000625749 0.000626737 -2.4356e-05
-0.00174879 0.000523324 0.0005252 -4.49757e-05
-0.00210868 0.000631898 0.000632906 -2.43562e-05
-0.00209841 0.000628824 0.000629822 -2.43561e-05
-0.00243596 0.000730815 0.000730778 8.02496e-11
-0.00241201 0.00072363 0.000723593 7.94341e-11
-0.00172309 0.000515653 0.000517474 -4.49749e-05
-0.00174022 0.000520767 0.000522624 -4.49755e-05
-0.00242399 0.000727223 0.000727185 7.98271e-11
-0.00206759 0.0006196 0.000620569 -2.43557e-05
-0.00173166 0.00051821 0.000520049 -4.49752e-05
-0.00208814 0.000625749 0.000626737 -2.4356e-05
-0.00207787 0.000622675 0.000623653 -2.43559e-05
-0.00241201 0.00072363 0.000723593 7.94374e-11
-0.00238806 0.000716445 0.000716408 7.86297e-11
-0.00170596 0.000510538 0.000512323 -4.49743e-05
-0.00172309 0.000515653 0.000517474 -4.49749e-05
-0.00240004 0.000720038 0.00072 7.90226e-11
-0.00204705 0.000613452 0.0006144 -2.43555e-05
-0.00171452 0.000513096 0.000514898 -4.49746e-05
-0.00206759 0.0006196 0.000620569 -2.43557e-05
-0.00205732 0.000616526 0.000617484 -2.43556e-05
-0.00238806 0.000716445 0.000716408 7.86046e-11
-0.00236411 0.00070926 0.000709223 7.78178e-11
-0.00168883 0.000505424 0.000507173 -4.49738e-05
-0.00170596 0.000510538 0.000512323 -4.49743e-05
-0.00237609 0.000712853 0.000712815 7.82011e-11
-0.00202651 0.000607303 0.000608232 -2.43553e-05
-0.00169739 0.000507981 0.000509748 -4.49741e-05
-0.00204705 0.000613452 0.0006144 -2.43555e-05
-0.00203678 0.000610377 0.000611316 -2.43554e-05
-0.00236411 0.00070926 0.000709223 7.78178e-11
-0.00234017 0.000702076 0.000702039 7.70236e-11
-0.0016717 0.00050031 0.000502023 -4.49732e-05
-0.00168883 0.000505424 0.000507173 -4.49738e-05
-0.00235214 0.000705668 0.000705631 7.7392e-11
-0.00200597 0.000601155 0.000602064 -2.4355e-05
-0.00168026 0.000502867 0.000504598 -4.49735e-05
-0.00202651 0.000607303 0.000608232 -2.43553e-05
-0.00201624 0.000604229 0.000605148 -2.43551e-05
-0.00234017 0.000702076 0.000702039 7.70236e-11
-0.00231622 0.000694892 0.000694855 7.62018e-11
-0.00165457 0.000495196 0.000496873 -4.49727e-05
-0.0016717 0.00050031 0.000502023 -4.49732e-05
-0.00232819 0.000698484 0.000698447 7.66071e-11
-0.00198543 0.000595006 0.000595897 -2.43548e-05
-0.00166313 0.000497753 0.000499448 -4.49729e-05
-0.00200597 0.000601155 0.000602064 -2.4355e-05
-0.0019957 0.00059808 0.000598981 -2.43549e-05
-0.00231622 0.000694892 0.000694855 7.62215e-11
-0.00229227 0.000687708 0.000687671 7.54031e-11
-0.00163744 0.000490082 0.000491724 -4.49721e-05
-0.00165457 0.000495196 0.000496873 -4.49727e-05
-0.00230425 0.0006913 0.000691263 7.57902e-11
-0.00196489 0.000588858 0.00058973 -2.43545e-05
-0.001646 0.000492639 0.000494299 -4.49724e-05
-0.00198543 0.000595006 0.000595897 -2.43548e-05
-0.00197516 0.000591932 0.000592813 -2.43547e-05
-0.00229227 0.000687708 0.000687671 7.54032e-11
-0.00226833 0.000680524 0.000680487 7.4611e-11
-0.00162031 0.000484968 0.000486575 -4.49716e-05
-0.00163744 0.000490082 0.000491724 -4.49721e-05
-0.0022803 0.000684116 0.000684079 7.4984e-11
-0.00194436 0.000582709 0.000583563 -2.43543e-05
-0.00162887 0.000487525 0.00048915 -4.49719e-05
-0.00196489 0.000588858 0.00058973 -2.43545e-05
-0.00195462 0.000585784 0.000586646 -2.43544e-05
-0.00226833 0.000680524 0.000680487 7.4611e-11
-0.00224438 0.00067334 0.000673303 7.37941e-11
-0.00160318 0.000479853 0.000481427 -4.4971e-05
-0.00162031 0.000484968 0.000486575 -4.49716e-05
-0.00225635 0.000676932 0.000676895 7.41906e-11
-0.00192382 0.000576561 0.000577396 -2.43541e-05
-0.00161175 0.000482411 0.000484001 -4.49713e-05
-0.00194436 0.000582709 0.000583563 -2.43543e-05
-0.00193409 0.000579635 0.000580479 -2.43542e-05
-0.00224438 0.00067334 0.000673303 7.37941e-11
-0.00222044 0.000666157 0.00066612 7.30119e-11
-0.00158606 0.000474739 0.000476279 -4.49705e-05
-0.00160318 0.000479853 0.000481427 -4.4971e-05
-0.00223241 0.000669748 0.000669712 7.33964e-11
-0.00190328 0.000570413 0.00057123 -2.43538e-05
-0.00159462 0.000477296 0.000478853 -4.49708e-05
-0.00192382 0.000576561 0.000577396 -2.43541e-05
-0.00191355 0.000573487 0.000574313 -2.43539e-05
-0.00222044 0.000666157 0.00066612 7.30115e-11
-0.00219649 0.000658974 0.000658937 7.22314e-11
-0.00156893 0.000469625 0.000471131 -4.497e-05
-0.00158606 0.000474739 0.000476279 -4.49705e-05
-0.00220847 0.000662565 0.000662529 7.2614e-11
-0.00188275 0.000564265 0.000565064 -2.43536e-05
-0.00157749 0.000472182 0.000473705 -4.49703e-05
-0.00190328 0.000570413 0.00057123 -2.43538e-05
-0.00189301 0.000567339 0.000568147 -2.43537e-05
-0.00219649 0.000658974 0.000658937 7.2228e-11
-0.00217255 0.000651791 0.000651754 7.14249e-11
-0.00155181 0.000464511 0.000465984 -4.49695e-05
-0.00156893 0.000469625 0.000471131 -4.497e-05
-0.00218452 0.000655382 0.000655346 7.18116e-11
-0.00186221 0.000558117 0.000558898 -2.43534e-05
-0.00156037 0.000467068 0.000468557 -4.49697e-05
-0.00188275 0.000564265 0.000565064 -2.43536e-05
-0.00187248 0.000561191 0.000561981 -2.43535e-05
-0.00217255 0.000651791 0.000651754 7.14249e-11
-0.00214861 0.000644608 0.000644572 7.06115e-11
-0.00153468 0.000459396 0.000460837 -4.4969e-05
-0.00155181 0.000464511 0.000465984 -4.49695e-05
-0.00216058 0.000648199 0.000648163 7.10076e-11
-0.00184168 0.00055197 0.000552733 -2.43531e-05
-0.00154324 0.000461953 0.00046341 -4.49692e-05
-0.00186221 0.000558117 0.000558898 -2.43534e-05
-0.00185195 0.000555044 0.000555815 -2.43533e-05
-0.00214861 0.000644608 0.000644572 7.06115e-11
-0.00212467 0.000637426 0.00063739 6.97934e-11
-0.00151756 0.000454282 0.00045569 -4.49684e-05
-0.00153468 0.000459396 0.000460837 -4.4969e-05
-0.00213664 0.000641017 0.000640981 7.01837e-11
-0.00182115 0.000545822 0.000546567 -2.43529e-05
-0.00152612 0.000456839 0.000458263 -4.49687e-05
-0.00184168 0.00055197 0.000552733 -2.43531e-05
-0.00183141 0.000548896 0.00054965 -2.4353e-05
-0.00212467 0.000637426 0.00063739 6.9813e-11
-0.00210073 0.000630243 0.000630207 6.90111e-11
-0.00150044 0.000449168 0.000450543 -4.49679e-05
-0.00151756 0.000454282 0.00045569 -4.49684e-05
-0.0021127 0.000633834 0.000633798 6.93774e-11
-0.00180061 0.000539674 0.000540402 -2.43527e-05
-0.001509 0.000451725 0.000453117 -4.49682e-05
-0.00182115 0.000545822 0.000546567 -2.43529e-05
-0.00181088 0.000542748 0.000543485 -2.43528e-05
-0.00210073 0.000630243 0.000630207 6.90108e-11
-0.00207679 0.000623061 0.000623025 6.81966e-11
-0.00148331 0.000444053 0.000445397 -4.49674e-05
-0.00150044 0.000449168 0.000450543 -4.49679e-05
-0.00208876 0.000626652 0.000626616 6.86008e-11
-0.00178008 0.000533527 0.000534238 -2.43525e-05
-0.00149187 0.000446611 0.00044797 -4.49677e-05
-0.00180061 0.000539674 0.000540402 -2.43527e-05
-0.00179035 0.000536601 0.00053732 -2.43526e-05
-0.00207679 0.000623061 0.000623025 6.81966e-11
-0.00205285 0.000615879 0.000615844 6.73953e-11
-0.00146619 0.000438939 0.000440252 -4.49669e-05
-0.00148331 0.000444053 0.000445397 -4.49674e-05
-0.00206482 0.00061947 0.000619435 6.77866e-11
-0.00175955 0.00052738 0.000528074 -2.43523e-05
-0.00147475 0.000441496 0.000442824 -4.49672e-05
-0.00178008 0.000533527 0.000534238 -2.43525e-05
-0.00176982 0.000530453 0.000531156 -2.43524e-05
-0.00205285 0.000615879 0.000615844 6.73953e-11
-0.00202891 0.000608698 0.000608662 6.65978e-11
-0.00144907 0.000433825 0.000435106 -4.49664e-05
-0.00146619 0.000438939 0.000440252 -4.49669e-05
-0.00204088 0.000612289 0.000612253 6.69827e-11
-0.00173902 0.000521232 0.00052191 -2.43521e-05
-0.00145763 0.000436382 0.000437679 -4.49667e-05
-0.00175955 0.00052738 0.000528074 -2.43523e-05
-0.00174929 0.000524306 0.000524992 -2.43522e-05
-0.00202891 0.000608698 0.000608662 6.65973e-11
-0.00200497 0.000601516 0.000601481 6.57977e-11
-0.00143195 0.00042871 0.000429961 -4.4966e-05
-0.00144907 0.000433825 0.000435106 -4.49664e-05
-0.00201694 0.000605107 0.000605072 6.62177e-11
-0.00171849 0.000515085 0.000515746 -2.43519e-05
-0.00144051 0.000431267 0.000432534 -4.49662e-05
-0.00173902 0.000521232 0.00052191 -2.43521e-05
-0.00172876 0.000518159 0.000518828 -2.4352e-05
-0.00200497 0.000601516 0.000601481 6.57906e-11
-0.00198104 0.000594335 0.0005943 6.50181e-11
-0.00141483 0.000423596 0.000424817 -4.49655e-05
-0.00143195 0.00042871 0.000429961 -4.4966e-05
-0.001993 0.000597926 0.000597891 6.53963e-11
-0.00169796 0.000508938 0.000509582 -2.43517e-05
-0.00142339 0.000426153 0.000427389 -4.49657e-05
-0.00171849 0.000515085 0.000515746 -2.43519e-05
-0.00170823 0.000512011 0.000512664 -2.43518e-05
-0.00198104 0.000594335 0.0005943 6.50181e-11
-0.0019571 0.000587154 0.000587119 6.42194e-11
-0.00139772 0.000418481 0.000419672 -4.4965e-05
-0.00141483 0.000423596 0.000424817 -4.49655e-05
-0.00196907 0.000590745 0.00059071 6.46202e-11
-0.00167744 0.000502791 0.000503419 -2.43515e-05
-0.00140628 0.000421038 0.000422244 -4.49653e-05
-0.00169796 0.000508938 0.000509582 -2.43517e-05
-0.0016877 0.000505864 0.000506501 -2.43516e-05
-0.0019571 0.000587154 0.000587119 6.42194e-11
-0.00193316 0.000579974 0.000579939 6.34415e-11
-0.0013806 0.000413367 0.000414528 -4.49646e-05
-0.00139772 0.000418481 0.000419672 -4.4965e-05
-0.00194513 0.000583564 0.000583529 6.38233e-11
-0.00165691 0.000496644 0.000497256 -2.43513e-05
-0.00138916 0.000415924 0.0004171 -4.49648e-05
-0.00167744 0.000502791 0.000503419 -2.43515e-05
-0.00166717 0.000499717 0.000500338 -2.43514e-05
-0.00193316 0.000579974 0.000579939 6.34516e-11
-0.00190923 0.000572793 0.000572758 6.26565e-11
-0.00136348 0.000408252 0.000409384 -4.49641e-05
-0.0013806 0.000413367 0.000414528 -4.49646e-05
-0.0019212 0.000576383 0.000576348 6.30282e-11
-0.00163638 0.000490497 0.000491094 -2.43511e-05
-0.00137204 0.000410809 0.000411956 -4.49643e-05
-0.00165691 0.000496644 0.000497256 -2.43513e-05
-0.00164665 0.00049357 0.000494175 -2.43512e-05
-0.00190923 0.000572793 0.000572758 6.26563e-11
-0.0018853 0.000565613 0.000565578 6.18278e-11
-0.00134637 0.000403138 0.000404241 -4.49637e-05
-0.00136348 0.000408252 0.000409384 -4.49641e-05
-0.00189726 0.000569203 0.000569168 6.22116e-11
-0.00161586 0.00048435 0.000484931 -2.43509e-05
-0.00135492 0.000405695 0.000406813 -4.49639e-05
-0.00163638 0.000490497 0.000491094 -2.43511e-05
-0.00162612 0.000487424 0.000488013 -2.4351e-05
-0.0018853 0.000565613 0.000565578 6.18278e-11
-0.00186136 0.000558433 0.000558398 6.10441e-11
-0.00132925 0.000398023 0.000399098 -4.49632e-05
-0.00134637 0.000403138 0.000404241 -4.49637e-05
-0.00187333 0.000562023 0.000561988 6.1436e-11
-0.00159533 0.000478204 0.000478769 -2.43507e-05
-0.00133781 0.00040058 0.00040167 -4.49634e-05
-0.00161586 0.00048435 0.000484931 -2.43509e-05
-0.00160559 0.000481277 0.00048185 -2.43508e-05
-0.00186136 0.000558433 0.000558398 6.10441e-11
-0.00183743 0.000551253 0.000551218 6.0245e-11
-0.00131214 0.000392908 0.000393955 -4.49628e-05
-0.00132925 0.000398023 0.000399098 -4.49632e-05
-0.0018494 0.000554843 0.000554808 6.0616e-11
-0.00157481 0.000472057 0.000472608 -2.43505e-05
-0.00132069 0.000395466 0.000396527 -4.4963e-05
-0.00159533 0.000478204 0.000478769 -2.43507e-05
-0.00158507 0.00047513 0.000475689 -2.43506e-05
-0.00183743 0.000551253 0.000551218 6.02454e-11
-0.0018135 0.000544073 0.000544039 5.94653e-11
-0.00129502 0.000387794 0.000388813 -4.49624e-05
-0.00131214 0.000392908 0.000393955 -4.49628e-05
-0.00182546 0.000547663 0.000547629 5.98322e-11
-0.00155428 0.00046591 0.000466446 -2.43504e-05
-0.00130358 0.000390351 0.000391384 -4.49626e-05
-0.00157481 0.000472057 0.000472608 -2.43505e-05
-0.00156455 0.000468984 0.000469527 -2.43505e-05
-0.0018135 0.000544073 0.000544039 5.94591e-11
-0.00178957 0.000536894 0.00053686 5.86424e-11
-0.00127791 0.000382679 0.000383671 -4.4962e-05
-0.00129502 0.000387794 0.000388813 -4.49624e-05
-0.00180153 0.000540483 0.000540449 5.90784e-11
-0.00153376 0.000459764 0.000460285 -2.43502e-05
-0.00128647 0.000385236 0.000386242 -4.49622e-05
-0.00155428 0.00046591 0.000466446 -2.43504e-05
-0.00154402 0.000462837 0.000463366 -2.43503e-05
-0.00178957 0.000536894 0.00053686 5.86424e-11
-0.00176564 0.000529714 0.00052968 5.78821e-11
-0.0012608 0.000377564 0.000378529 -4.49615e-05
-0.00127791 0.000382679 0.000383671 -4.4962e-05
-0.0017776 0.000533304 0.00053327 5.82748e-11
-0.00151324 0.000453617 0.000454124 -2.435e-05
-0.00126936 0.000380122 0.0003811 -4.49617e-05
-0.00153376 0.000459764 0.000460285 -2.43502e-05
-0.0015235 0.000456691 0.000457205 -2.43501e-05
-0.00176564 0.000529714 0.00052968 5.78821e-11
-0.00174171 0.000522535 0.000522502 5.70667e-11
-0.00124369 0.00037245 0.000373388 -4.49611e-05
-0.0012608 0.000377564 0.000378529 -4.49615e-05
-0.00175367 0.000526125 0.000526091 5.74582e-11
-0.00149272 0.000447471 0.000447963 -2.43499e-05
-0.00125224 0.000375007 0.000375959 -4.49613e-05
-0.00151324 0.000453617 0.000454124 -2.435e-05
-0.00150298 0.000450544 0.000451044 -2.435e-05
-0.00174171 0.000522535 0.000522502 5.70764e-11
-0.00171778 0.000515356 0.000515323 5.63189e-11
-0.00122658 0.000367335 0.000368247 -4.49608e-05
-0.00124369 0.00037245 0.000373388 -4.49611e-05
-0.00172974 0.000518946 0.000518912 5.66686e-11
-0.0014722 0.000441325 0.000441803 -2.43497e-05
-0.00123513 0.000369892 0.000370818 -4.49609e-05
-0.00149272 0.000447471 0.000447963 -2.43499e-05
-0.00148246 0.000444398 0.000444883 -2.43498e-05
-0.00171778 0.000515356 0.000515323 5.63193e-11
-0.00169385 0.000508178 0.000508144 5.54989e-11
-0.00120947 0.00036222 0.000363106 -4.49604e-05
-0.00122658 0.000367335 0.000368247 -4.49608e-05
-0.00170581 0.000511767 0.000511734 5.59179e-11
-0.00145168 0.000435179 0.000435643 -2.43496e-05
-0.00121802 0.000364778 0.000365677 -4.49606e-05
-0.0014722 0.000441325 0.000441803 -2.43497e-05
-0.00146194 0.000438252 0.000438723 -2.43496e-05
-0.00169385 0.000508178 0.000508144 5.54989e-11
-0.00166992 0.000500999 0.000500966 5.47271e-11
-0.00119236 0.000357105 0.000357966 -4.496e-05
-0.00120947 0.00036222 0.000363106 -4.49604e-05
-0.00168188 0.000504589 0.000504555 5.50842e-11
-0.00143116 0.000429033 0.000429483 -2.43494e-05
-0.00120091 0.000359663 0.000360536 -4.49602e-05
-0.00145168 0.000435179 0.000435643 -2.43496e-05
-0.00144142 0.000432106 0.000432563 -2.43495e-05
-0.00166992 0.000500999 0.000500966 5.47271e-11
-0.00164599 0.000493821 0.000493788 5.39381e-11
-0.00117525 0.00035199 0.000352826 -4.49596e-05
-0.00119236 0.000357105 0.000357966 -4.496e-05
-0.00165796 0.00049741 0.000497377 5.4316e-11
-0.00141064 0.000422887 0.000423324 -2.43493e-05
-0.00118381 0.000354548 0.000355396 -4.49598e-05
-0.00143116 0.000429033 0.000429483 -2.43494e-05
-0.0014209 0.00042596 0.000426403 -2.43493e-05
-0.00164599 0.000493821 0.000493788 5.39383e-11
-0.00162207 0.000486643 0.00048661 5.31426e-11
-0.00115814 0.000346875 0.000347686 -4.49593e-05
-0.00117525 0.00035199 0.000352826 -4.49596e-05
-0.00163403 0.000490232 0.000490199 5.3524e-11
-0.00139012 0.000416741 0.000417164 -2.43491e-05
-0.0011667 0.000349433 0.000350256 -4.49595e-05
-0.00141064 0.000422887 0.000423324 -2.43493e-05
-0.00140038 0.000419814 0.000420244 -2.43492e-05
-0.00162207 0.000486643 0.00048661 5.31394e-11
-0.00159814 0.000479465 0.000479432 5.23442e-11
-0.00114104 0.00034176 0.000342547 -4.49589e-05
-0.00115814 0.000346875 0.000347686 -4.49593e-05
-0.0016101 0.000483054 0.000483021 5.27437e-11
-0.00136961 0.000410595 0.000411005 -2.4349e-05
-0.00114959 0.000344318 0.000345117 -4.49591e-05
-0.00139012 0.000416741 0.000417164 -2.43491e-05
-0.00137987 0.000413668 0.000414085 -2.43491e-05
-0.00159814 0.000479465 0.000479432 5.23442e-11
-0.00157422 0.000472287 0.000472255 5.15534e-11
-0.00112393 0.000336645 0.000337408 -4.49586e-05
-0.00114104 0.00034176 0.000342547 -4.49589e-05
-0.00158618 0.000475876 0.000475843 5.19514e-11
-0.00134909 0.000404449 0.000404847 -2.43489e-05
-0.00113248 0.000339203 0.000339977 -4.49588e-05
-0.00136961 0.000410595 0.000411005 -2.4349e-05
-0.00135935 0.000407522 0.000407926 -2.43489e-05
-0.00157422 0.000472287 0.000472255 5.15534e-11
-0.00155029 0.00046511 0.000465077 5.0777e-11
-0.00110682 0.00033153 0.000332269 -4.49583e-05
-0.00112393 0.000336645 0.000337408 -4.49586e-05
-0.00156225 0.000468699 0.000468666 5.11589e-11
-0.00132858 0.000398303 0.000398688 -2.43488e-05
-0.00111538 0.000334088 0.000334838 -4.49584e-05
-0.00134909 0.000404449 0.000404847 -2.43489e-05
-0.00133883 0.000401376 0.000401767 -2.43488e-05
-0.00155029 0.00046511 0.000465077 5.07836e-11
-0.00152637 0.000457933 0.0004579 4.99637e-11
-0.00108972 0.000326415 0.000327131 -4.49579e-05
-0.00110682 0.00033153 0.000332269 -4.49583e-05
-0.00153833 0.000461521 0.000461489 5.03721e-11
-0.00130806 0.000392158 0.00039253 -2.43486e-05
-0.00109827 0.000328973 0.0003297 -4.49581e-05
-0.00132858 0.000398303 0.000398688 -2.43488e-05
-0.00131832 0.00039523 0.000395609 -2.43487e-05
-0.00152637 0.000457933 0.0004579 4.99637e-11
-0.00150244 0.000450756 0.000450723 4.9207e-11
-0.00107262 0.0003213 0.000321993 -4.49576e-05
-0.00108972 0.000326415 0.000327131 -4.49579e-05
-0.0015144 0.000454344 0.000454312 4.95808e-11
-0.00128755 0.000386012 0.000386372 -2.43485e-05
-0.00108117 0.000323858 0.000324562 -4.49578e-05
-0.00130806 0.000392158 0.00039253 -2.43486e-05
-0.0012978 0.000389085 0.000389451 -2.43486e-05
-0.00150244 0.000450756 0.000450723 4.9207e-11
-0.00147852 0.000443579 0.000443547 4.84224e-11
-0.00105551 0.000316185 0.000316855 -4.49573e-05
-0.00107262 0.0003213 0.000321993 -4.49576e-05
-0.00149048 0.000447167 0.000447135 4.88212e-11
-0.00126703 0.000379867 0.000380214 -2.43484e-05
-0.00106406 0.000318743 0.000319424 -4.49575e-05
-0.00128755 0.000386012 0.000386372 -2.43485e-05
-0.00127729 0.000382939 0.000383293 -2.43485e-05
-0.00147852 0.000443579 0.000443547 4.84224e-11
-0.0014546 0.000436402 0.00043637 4.76331e-11
-0.00103841 0.00031107 0.000311717 -4.49571e-05
-0.00105551 0.000316185 0.000316855 -4.49573e-05
-0.00146656 0.00043999 0.000439958 4.80071e-11
-0.00124652 0.000373721 0.000374057 -2.43483e-05
-0.00104696 0.000313627 0.000314286 -4.49572e-05
-0.00126703 0.000379867 0.000380214 -2.43484e-05
-0.00125678 0.000376794 0.000377135 -2.43484e-05
-0.0014546 0.000436402 0.00043637 4.76327e-11
-0.00143068 0.000429225 0.000429194 4.68136e-11
-0.00102131 0.000305955 0.00030658 -4.49568e-05
-0.00103841 0.00031107 0.000311717 -4.49571e-05
-0.00144264 0.000432814 0.000432782 4.72078e-11
-0.00122601 0.000367576 0.0003679 -2.43482e-05
-0.00102986 0.000308512 0.000309149 -4.49569e-05
-0.00124652 0.000373721 0.000374057 -2.43483e-05
-0.00123626 0.000370648 0.000370978 -2.43483e-05
-0.00143068 0.000429225 0.000429194 4.68604e-11
-0.00140676 0.000422049 0.000422017 4.60474e-11
-0.00100421 0.000300839 0.000301443 -4.49565e-05
-0.00102131 0.000305955 0.00030658 -4.49568e-05
-0.00141872 0.000425637 0.000425606 4.64535e-11
-0.0012055 0.00036143 0.000361743 -2.43481e-05
-0.00101276 0.000303397 0.000304012 -4.49566e-05
-0.00122601 0.000367576 0.0003679 -2.43482e-05
-0.00121575 0.000364503 0.000364821 -2.43482e-05
-0.00140676 0.000422049 0.000422017 4.60474e-11
-0.00138284 0.000414873 0.000414841 4.52831e-11
-0.000987107 0.000295724 0.000296307 -4.49563e-05
-0.00100421 0.000300839 0.000301443 -4.49565e-05
-0.0013948 0.000418461 0.000418429 4.56402e-11
-0.00118499 0.000355285 0.000355586 -2.43481e-05
-0.000995657 0.000298282 0.000298875 -4.49564e-05
-0.0012055 0.00036143 0.000361743 -2.43481e-05
-0.00119524 0.000358358 0.000358664 -2.43481e-05
-0.00138284 0.000414873 0.000414841 4.52831e-11
-0.00135892 0.000407697 0.000407666 4.44744e-11
-0.000970007 0.000290608 0.000291171 -4.4956e-05
-0.000987107 0.000295724 0.000296307 -4.49563e-05
-0.00137088 0.000411285 0.000411253 4.48689e-11
-0.00116448 0.00034914 0.00034943 -2.4348e-05
-0.000978557 0.000293166 0.000293739 -4.49561e-05
-0.00118499 0.000355285 0.000355586 -2.43481e-05
-0.00117473 0.000352212 0.000352508 -2.4348e-05
-0.00135892 0.000407697 0.000407666 4.4494e-11
-0.001335 0.000400521 0.00040049 4.36604e-11
-0.000952908 0.000285493 0.000286035 -4.49558e-05
-0.000970007 0.000290608 0.000291171 -4.4956e-05
-0.00134696 0.000404109 0.000404078 4.40606e-11
-0.00114397 0.000342994 0.000343273 -2.43479e-05
-0.000961457 0.000288051 0.000288603 -4.49559e-05
-0.00116448 0.00034914 0.00034943 -2.4348e-05
-0.00115422 0.000346067 0.000346351 -2.4348e-05
-0.001335 0.000400521 0.00040049 4.366e-11
-0.00131108 0.000393345 0.000393314 4.2913e-11
-0.000935809 0.000280377 0.000280899 -4.49555e-05
-0.000952908 0.000285493 0.000286035 -4.49558e-05
-0.00132304 0.000396933 0.000396902 4.32778e-11
-0.00112346 0.000336849 0.000337118 -2.43479e-05
-0.000944358 0.000282935 0.000283467 -4.49557e-05
-0.00114397 0.000342994 0.000343273 -2.43479e-05
-0.00113371 0.000339922 0.000340195 -2.43479e-05
-0.00131108 0.000393345 0.000393314 4.2913e-11
-0.00128716 0.00038617 0.000386139 4.2144e-11
-0.000918711 0.000275262 0.000275764 -4.49553e-05
-0.000935809 0.000280377 0.000280899 -4.49555e-05
-0.00129912 0.000389758 0.000389727 4.25249e-11
-0.00110295 0.000330704 0.000330962 -2.43478e-05
-0.00092726 0.00027782 0.000278332 -4.49554e-05
-0.00112346 0.000336849 0.000337118 -2.43479e-05
-0.0011132 0.000333777 0.00033404 -2.43478e-05
-0.00128716 0.00038617 0.000386139 4.2144e-11
-0.00126324 0.000378995 0.000378964 4.13558e-11
-0.000901614 0.000270146 0.000270629 -4.49551e-05
-0.000918711 0.000275262 0.000275764 -4.49553e-05
-0.0012752 0.000382582 0.000382552 4.17117e-11
-0.00108244 0.000324559 0.000324806 -2.43477e-05
-0.000910162 0.000272704 0.000273196 -4.49552e-05
-0.00110295 0.000330704 0.000330962 -2.43478e-05
-0.00109269 0.000327632 0.000327884 -2.43478e-05
-0.00126324 0.000378995 0.000378964 4.13558e-11
-0.00123933 0.00037182 0.000371789 4.05292e-11
-0.000884517 0.000265031 0.000265494 -4.49549e-05
-0.000901614 0.000270146 0.000270629 -4.49551e-05
-0.00125129 0.000375407 0.000375377 4.09624e-11
-0.00106193 0.000318414 0.000318651 -2.43477e-05
-0.000893066 0.000267588 0.000268062 -4.4955e-05
-0.00108244 0.000324559 0.000324806 -2.43477e-05
-0.00107219 0.000321487 0.000321729 -2.43477e-05
-0.00123933 0.00037182 0.000371789 4.05625e-11
-0.00121541 0.000364645 0.000364614 3.97946e-11
-0.000867422 0.000259915 0.00026036 -4.49548e-05
-0.000884517 0.000265031 0.000265494 -4.49549e-05
-0.00122737 0.000368232 0.000368202 4.01951e-11
-0.00104143 0.000312269 0.000312496 -2.43476e-05
-0.000875969 0.000262473 0.000262927 -4.49549e-05
-0.00106193 0.000318414 0.000318651 -2.43477e-05
-0.00105168 0.000315342 0.000315574 -2.43477e-05
-0.00121541 0.000364645 0.000364614 3.97946e-11
-0.0011915 0.00035747 0.00035744 3.89982e-11
-0.000850326 0.000254799 0.000255226 -4.49546e-05
-0.000867422 0.000259915 0.00026036 -4.49548e-05
-0.00120345 0.000361057 0.000361027 3.94046e-11
-0.00102092 0.000306124 0.000306342 -2.43476e-05
-0.000858874 0.000257357 0.000257793 -4.49547e-05
-0.00104143 0.000312269 0.000312496 -2.43476e-05
-0.00103117 0.000309197 0.000309419 -2.43476e-05
-0.0011915 0.00035747 0.00035744 3.90181e-11
-0.00116758 0.000350295 0.000350265 3.82161e-11
-0.000833232 0.000249683 0.000250092 -4.49544e-05
-0.000850326 0.000254799 0.000255226 -4.49546e-05
-0.00117954 0.000353882 0.000353852 3.86684e-11
-0.00100042 0.00029998 0.000300187 -2.43476e-05
-0.000841779 0.000252241 0.000252659 -4.49545e-05
-0.00102092 0.000306124 0.000306342 -2.43476e-05
-0.00101067 0.000303052 0.000303264 -2.43476e-05
-0.00116758 0.000350295 0.000350265 3.82161e-11
-0.00114367 0.000343121 0.000343091 3.74712e-11
-0.000816138 0.000244567 0.000244959 -4.49543e-05
-0.000833232 0.000249683 0.000250092 -4.49544e-05
-0.00115562 0.000346708 0.000346678 3.78047e-11
-0.000979912 0.000293835 0.000294033 -2.43476e-05
-0.000824685 0.000247125 0.000247526 -4.49544e-05
-0.00100042 0.00029998 0.000300187 -2.43476e-05
-0.000990164 0.000296907 0.00029711 -2.43476e-05
-0.00114367 0.000343121 0.000343091 3.74712e-11
-0.00111975 0.000335946 0.000335917 3.667e-11
-0.000799044 0.000239451 0.000239826 -4.49542e-05
-0.000816138 0.000244567 0.000244959 -4.49543e-05
-0.00113171 0.000339533 0.000339504 3.70868e-11
-0.000959408 0.00028769 0.000287879 -2.43475e-05
-0.000807591 0.000242009 0.000242392 -4.49542e-05
-0.000979912 0.000293835 0.000294033 -2.43476e-05
-0.00096966 0.000290762 0.000290956 -2.43476e-05
-0.00111975 0.000335946 0.000335917 3.667e-11
-0.00109584 0.000328772 0.000328743 3.58887e-11
-0.000781952 0.000234335 0.000234693 -4.4954e-05
-0.000799044 0.000239451 0.000239826 -4.49542e-05
-0.0011078 0.000332359 0.00033233 3.62651e-11
-0.000938904 0.000281545 0.000281725 -2.43475e-05
-0.000790498 0.000236893 0.000237259 -4.49541e-05
-0.000959408 0.00028769 0.000287879 -2.43475e-05
-0.000949156 0.000284618 0.000284802 -2.43475e-05
-0.00109584 0.000328772 0.000328743 3.58854e-11
-0.00107193 0.000321598 0.000321569 3.51178e-11
-0.00076486 0.000229219 0.00022956 -4.49539e-05
-0.000781952 0.000234335 0.000234693 -4.4954e-05
-0.00108388 0.000325185 0.000325156 3.55109e-11
-0.000918401 0.0002754 0.000275572 -2.43475e-05
-0.000773406 0.000231777 0.000232127 -4.4954e-05
-0.000938904 0.000281545 0.000281725 -2.43475e-05
-0.000928653 0.000278473 0.000278649 -2.43475e-05
-0.00107193 0.000321598 0.000321569 3.51178e-11
-0.00104801 0.000314424 0.000314395 3.43496e-11
-0.000747768 0.000224103 0.000224428 -4.49538e-05
-0.00076486 0.000229219 0.00022956 -4.49539e-05
-0.00105997 0.000318011 0.000317982 3.47024e-11
-0.000897899 0.000269256 0.000269419 -2.43475e-05
-0.000756314 0.000226661 0.000226994 -4.49539e-05
-0.000918401 0.0002754 0.000275572 -2.43475e-05
-0.00090815 0.000272328 0.000272495 -2.43475e-05
-0.00104801 0.000314424 0.000314395 3.43496e-11
-0.0010241 0.000307251 0.000307222 3.35596e-11
-0.000730677 0.000218986 0.000219296 -4.49538e-05
-0.000747768 0.000224103 0.000224428 -4.49538e-05
-0.00103606 0.000310837 0.000310809 3.39255e-11
-0.000877398 0.000263111 0.000263266 -2.43475e-05
-0.000739223 0.000221545 0.000221862 -4.49538e-05
-0.000897899 0.000269256 0.000269419 -2.43475e-05
-0.000887648 0.000266184 0.000266342 -2.43475e-05
-0.0010241 0.000307251 0.000307222 3.35534e-11
-0.00100019 0.000300077 0.000300049 3.2801e-11
-0.000713587 0.00021387 0.000214164 -4.49537e-05
-0.000730677 0.000218986 0.000219296 -4.49538e-05
-0.00101215 0.000303664 0.000303635 3.31465e-11
-0.000856896 0.000256967 0.000257113 -2.43476e-05
-0.000722132 0.000216428 0.00021673 -4.49537e-05
-0.000877398 0.000263111 0.000263266 -2.43475e-05
-0.000867147 0.000260039 0.000260189 -2.43476e-05
-0.00100019 0.000300077 0.000300049 3.28014e-11
-0.00097628 0.000292904 0.000292875 3.20361e-11
-0.000696498 0.000208754 0.000209033 -4.49536e-05
-0.000713587 0.00021387 0.000214164 -4.49537e-05
-0.000988235 0.00029649 0.000296462 3.23738e-11
-0.000836396 0.000250822 0.00025096 -2.43476e-05
-0.000705042 0.000211312 0.000211599 -4.49537e-05
-0.000856896 0.000256967 0.000257113 -2.43476e-05
-0.000846646 0.000253894 0.000254036 -2.43476e-05
-0.00097628 0.000292904 0.000292875 3.20361e-11
-0.000952369 0.000285731 0.000285702 3.12454e-11
-0.000679409 0.000203637 0.000203902 -4.49536e-05
-0.000696498 0.000208754 0.000209033 -4.49536e-05
-0.000964324 0.000289317 0.000289289 3.17033e-11
-0.000815896 0.000244677 0.000244808 -2.43476e-05
-0.000687953 0.000206195 0.000206468 -4.49536e-05
-0.000836396 0.000250822 0.00025096 -2.43476e-05
-0.000826146 0.00024775 0.000247884 -2.43476e-05
-0.000952369 0.000285731 0.000285702 3.12454e-11
-0.000928459 0.000278557 0.000278529 3.04701e-11
-0.00066232 0.000198521 0.000198771 -4.49535e-05
-0.000679409 0.000203637 0.000203902 -4.49536e-05
-0.000940414 0.000282144 0.000282116 3.08632e-11
-0.000795396 0.000238533 0.000238656 -2.43477e-05
-0.000670864 0.000201079 0.000201337 -4.49536e-05
-0.000815896 0.000244677 0.000244808 -2.43476e-05
-0.000805646 0.000241605 0.000241732 -2.43476e-05
-0.000928459 0.000278557 0.000278529 3.04701e-11
-0.00090455 0.000271384 0.000271357 2.96586e-11
-0.000645232 0.000193404 0.000193641 -4.49535e-05
-0.00066232 0.000198521 0.000198771 -4.49535e-05
-0.000916505 0.000274971 0.000274943 3.00994e-11
-0.000774898 0.000232388 0.000232504 -2.43477e-05
-0.000653776 0.000195962 0.000196206 -4.49535e-05
-0.000795396 0.000238533 0.000238656 -2.43477e-05
-0.000785147 0.000235461 0.00023558 -2.43477e-05
-0.00090455 0.000271384 0.000271357 2.96922e-11
-0.000880641 0.000264212 0.000264184 2.88994e-11
-0.000628145 0.000188287 0.000188511 -4.49535e-05
-0.000645232 0.000193404 0.000193641 -4.49535e-05
-0.000892596 0.000267798 0.00026777 2.92704e-11
-0.000754399 0.000226244 0.000226352 -2.43478e-05
-0.000636689 0.000190846 0.000191076 -4.49535e-05
-0.000774898 0.000232388 0.000232504 -2.43477e-05
-0.000764648 0.000229316 0.000229428 -2.43477e-05
-0.000880641 0.000264212 0.000264184 2.88994e-11
-0.000856733 0.000257039 0.000257012 2.81238e-11
-0.000611059 0.00018317 0.000183381 -4.49535e-05
-0.000628145 0.000188287 0.000188511 -4.49535e-05
-0.000868687 0.000260625 0.000260598 2.85395e-11
-0.000733901 0.0002201 0.000220201 -2.43478e-05
-0.000619602 0.000185729 0.000185946 -4.49535e-05
-0.000754399 0.000226244 0.000226352 -2.43478e-05
-0.00074415 0.000223172 0.000223276 -2.43478e-05
-0.000856733 0.000257039 0.000257012 2.81238e-11
-0.000832825 0.000249866 0.000249839 2.73016e-11
-0.000593973 0.000178054 0.000178251 -4.49535e-05
-0.000611059 0.00018317 0.000183381 -4.49535e-05
-0.000844779 0.000253453 0.000253425 2.77185e-11
-0.000713404 0.000213955 0.00021405 -2.43479e-05
-0.000602516 0.000180612 0.000180816 -4.49535e-05
-0.000733901 0.0002201 0.000220201 -2.43478e-05
-0.000723653 0.000217027 0.000217125 -2.43478e-05
-0.000832825 0.000249866 0.000249839 2.72983e-11
-0.000808917 0.000242694 0.000242667 2.64568e-11
-0.000576887 0.000172937 0.000173122 -4.49536e-05
-0.000593973 0.000178054 0.000178251 -4.49535e-05
-0.000820871 0.00024628 0.000246253 2.68715e-11
-0.000692907 0.000207811 0.000207899 -2.4348e-05
-0.00058543 0.000175495 0.000175686 -4.49536e-05
-0.000713404 0.000213955 0.00021405 -2.43479e-05
-0.000703156 0.000210883 0.000210974 -2.43479e-05
-0.000808917 0.000242694 0.000242667 2.64561e-11
-0.00078501 0.000235522 0.000235495 2.56267e-11
-0.000559802 0.00016782 0.000167993 -4.49536e-05
-0.000576887 0.000172937 0.000173122 -4.49536e-05
-0.000796964 0.000239108 0.000239081 2.60624e-11
-0.000672411 0.000201666 0.000201748 -2.4348e-05
-0.000568345 0.000170378 0.000170557 -4.49536e-05
-0.000692907 0.000207811 0.000207899 -2.4348e-05
-0.000682659 0.000204739 0.000204823 -2.4348e-05
-0.00078501 0.000235522 0.000235495 2.56267e-11
-0.000761104 0.00022835 0.000228323 2.46713e-11
-0.000542718 0.000162702 0.000162864 -4.49537e-05
-0.000559802 0.00016782 0.000167993 -4.49536e-05
-0.000773057 0.000231936 0.000231909 2.51695e-11
-0.000651915 0.000195522 0.000195597 -2.43481e-05
-0.00055126 0.000165261 0.000165428 -4.49536e-05
-0.000672411 0.000201666 0.000201748 -2.4348e-05
-0.000662163 0.000198594 0.000198672 -2.43481e-05
-0.000761104 0.00022835 0.000228323 2.46713e-11
-0.000737197 0.000221178 0.000221151 2.37469e-11
-0.000525634 0.000157585 0.000157735 -4.49537e-05
-0.000542718 0.000162702 0.000162864 -4.49537e-05
-0.00074915 0.000224764 0.000224737 2.42221e-11
-0.00063142 0.000189378 0.000189447 -2.43482e-05
-0.000534176 0.000160144 0.000160299 -4.49537e-05
-0.000651915 0.000195522 0.000195597 -2.43481e-05
-0.000641668 0.00019245 0.000192522 -2.43482e-05
-0.000737197 0.000221178 0.000221151 2.37473e-11
-0.000713292 0.000214006 0.00021398 2.27067e-11
-0.000508551 0.000152468 0.000152607 -4.49538e-05
-0.000525634 0.000157585 0.000157735 -4.49537e-05
-0.000725244 0.000217592 0.000217565 2.32649e-11
-0.000610925 0.000183233 0.000183297 -2.43483e-05
-0.000517092 0.000155026 0.000155171 -4.49537e-05
-0.00063142 0.000189378 0.000189447 -2.43482e-05
-0.000621173 0.000186305 0.000186372 -2.43482e-05
-0.000713292 0.000214006 0.00021398 2.27402e-11
-0.000689386 0.000206834 0.000206808 2.15083e-11
-0.000491468 0.00014735 0.000147479 -4.49538e-05
-0.000508551 0.000152468 0.000152607 -4.49538e-05
-0.000701339 0.00021042 0.000210394 2.21054e-11
-0.000590431 0.000177089 0.000177147 -2.43484e-05
-0.000500009 0.000149909 0.000150043 -4.49538e-05
-0.000610925 0.000183233 0.000183297 -2.43483e-05
-0.000600678 0.000180161 0.000180222 -2.43483e-05
-0.000689386 0.000206834 0.000206808 2.15083e-11
-0.000665481 0.000199662 0.000199637 2.0296e-11
-0.000474386 0.000142233 0.000142351 -4.49539e-05
-0.000491468 0.00014735 0.000147479 -4.49538e-05
-0.000677434 0.000203248 0.000203222 2.09067e-11
-0.000569937 0.000170945 0.000170997 -2.43484e-05
-0.000482927 0.000144792 0.000144915 -4.49539e-05
-0.000590431 0.000177089 0.000177147 -2.43484e-05
-0.000580184 0.000174017 0.000174072 -2.43484e-05
-0.000665481 0.000199662 0.000199637 2.0296e-11
-0.000641577 0.000192491 0.000192465 1.89311e-11
-0.000457305 0.000137115 0.000137224 -4.49539e-05
-0.000474386 0.000142233 0.000142351 -4.49539e-05
-0.000653529 0.000196077 0.000196051 1.95643e-11
-0.000549444 0.0001648 0.000164847 -2.43485e-05
-0.000465845 0.000139674 0.000139788 -4.49539e-05
-0.000569937 0.000170945 0.000170997 -2.43484e-05
-0.000559691 0.000167872 0.000167922 -2.43485e-05
-0.000641577 0.000192491 0.000192465 1.89378e-11
-0.000617673 0.00018532 0.000185294 1.75764e-11
-0.000440224 0.000131998 0.000132097 -4.49539e-05
-0.000457305 0.000137115 0.000137224 -4.49539e-05
-0.000629625 0.000188905 0.00018888 1.81691e-11
-0.000528951 0.000158656 0.000158698 -2.43486e-05
-0.000448764 0.000134556 0.00013466 -4.49539e-05
-0.000549444 0.0001648 0.000164847 -2.43485e-05
-0.000539198 0.000161728 0.000161773 -2.43485e-05
-0.000617673 0.00018532 0.000185294 1.75764e-11
-0.000593769 0.000178148 0.000178123 1.6216e-11
-0.000423143 0.00012688 0.00012697 -4.49539e-05
-0.000440224 0.000131998 0.000132097 -4.49539e-05
-0.000605721 0.000181734 0.000181709 1.67953e-11
-0.000508459 0.000152512 0.000152549 -2.43486e-05
-0.000431683 0.000129439 0.000129533 -4.49539e-05
-0.000528951 0.000158656 0.000158698 -2.43486e-05
-0.000518705 0.000155584 0.000155623 -2.43486e-05
-0.000593769 0.000178148 0.000178123 1.6216e-11
-0.000569866 0.000170977 0.000170953 1.54344e-11
-0.000406063 0.000121762 0.000121843 -4.49538e-05
-0.000423143 0.00012688 0.00012697 -4.49539e-05
-0.000581818 0.000174563 0.000174538 1.55608e-11
-0.000487968 0.000146367 0.0001464 -2.43486e-05
-0.000414603 0.000124321 0.000124407 -4.49538e-05
-0.000508459 0.000152512 0.000152549 -2.43486e-05
-0.000498213 0.00014944 0.000149475 -2.43486e-05
-0.000569866 0.000170977 0.000170953 1.54344e-11
-0.000545964 0.000163806 0.000163782 1.5069e-11
-0.000388984 0.000116644 0.000116717 -4.49537e-05
-0.000406063 0.000121762 0.000121843 -4.49538e-05
-0.000557915 0.000167392 0.000167367 1.49723e-11
-0.000467477 0.000140223 0.000140251 -2.43485e-05
-0.000397524 0.000119203 0.00011928 -4.49537e-05
-0.000487968 0.000146367 0.0001464 -2.43486e-05
-0.000477722 0.000143295 0.000143326 -2.43486e-05
-0.000545964 0.000163806 0.000163782 1.5069e-11
-0.000522062 0.000156636 0.000156611 1.72014e-11
-0.000371905 0.000111526 0.000111591 -4.49535e-05
-0.000388984 0.000116644 0.000116717 -4.49537e-05
-0.000534013 0.000160221 0.000160197 1.55377e-11
-0.000446986 0.000134079 0.000134103 -2.43485e-05
-0.000380445 0.000114085 0.000114154 -4.49536e-05
-0.000467477 0.000140223 0.000140251 -2.43485e-05
-0.000457231 0.000137151 0.000137177 -2.43485e-05
-0.000522062 0.000156636 0.000156611 1.72247e-11
-0.000498161 0.000149465 0.000149441 2.0309e-11
-0.000354827 0.000106408 0.000106465 -4.49534e-05
-0.000371905 0.000111526 0.000111591 -4.49535e-05
-0.000510112 0.00015305 0.000153026 1.8001e-11
-0.000426496 0.000127935 0.000127955 -2.43485e-05
-0.000363366 0.000108967 0.000109028 -4.49535e-05
-0.000446986 0.000134079 0.000134103 -2.43485e-05
-0.000436741 0.000131007 0.000131029 -2.43485e-05
-0.000498161 0.000149465 0.000149441 2.0309e-11
-0.000474261 0.000142295 0.000142271 3.0387e-11
-0.00033775 0.00010129 0.00010134 -4.49535e-05
-0.000354827 0.000106408 0.000106465 -4.49534e-05
-0.000486211 0.00014588 0.000145856 2.51736e-11
-0.000406007 0.000121791 0.000121807 -2.43485e-05
-0.000346289 0.000103849 0.000103903 -4.49534e-05
-0.000426496 0.000127935 0.000127955 -2.43485e-05
-0.000416252 0.000124863 0.000124881 -2.43485e-05
-0.000474261 0.000142295 0.000142271 3.0387e-11
-0.00045036 0.000135125 0.000135101 4.09991e-11
-0.000320673 9.61718e-05 9.62147e-05 -4.49537e-05
-0.00033775 0.00010129 0.00010134 -4.49535e-05
-0.00046231 0.00013871 0.000138686 3.30958e-11
-0.000385518 0.000115647 0.000115659 -2.43487e-05
-0.000329211 9.87308e-05 9.87773e-05 -4.49535e-05
-0.000406007 0.000121791 0.000121807 -2.43485e-05
-0.000395763 0.000118719 0.000118733 -2.43485e-05
-0.00045036 0.000135125 0.000135101 4.10059e-11
-0.000426461 0.000127955 0.000127931 6.25462e-11
-0.000303596 9.10539e-05 9.10897e-05 -4.49545e-05
-0.000320673 9.61718e-05 9.62147e-05 -4.49537e-05
-0.000438411 0.00013154 0.000131516 5.82896e-11
-0.00036503 0.000109503 0.000109512 -2.43492e-05
-0.000312135 9.36128e-05 9.36522e-05 -4.4954e-05
-0.000385518 0.000115647 0.000115659 -2.43487e-05
-0.000375274 0.000112575 0.000112585 -2.43489e-05
-0.000426461 0.000127955 0.000127931 6.25465e-11
-0.000402561 0.000120784 0.000120761 7.93839e-11
-0.00028652 8.5936e-05 8.59647e-05 -4.49559e-05
-0.000303596 9.10539e-05 9.10897e-05 -4.49545e-05
-0.000414511 0.000124369 0.000124346 5.80821e-11
-0.000344541 0.000103359 0.000103364 -2.43501e-05
-0.000295058 8.84949e-05 8.85272e-05 -4.49551e-05
-0.00036503 0.000109503 0.000109512 -2.43492e-05
-0.000354786 0.000106431 0.000106438 -2.43496e-05
-0.000402561 0.000120784 0.000120761 7.93839e-11
-0.00037866 0.000113614 0.000113591 7.4163e-11
-0.000269445 8.0818e-05 8.084e-05 -4.49582e-05
-0.00028652 8.5936e-05 8.59647e-05 -4.49559e-05
-0.00039061 0.000117199 0.000117176 1.24546e-10
-0.000324053 9.72144e-05 9.72163e-05 -2.43518e-05
-0.000277983 8.3377e-05 8.34023e-05 -4.49569e-05
-0.000344541 0.000103359 0.000103364 -2.43501e-05
-0.000334297 0.000100287 0.00010029 -2.43509e-05
-0.00037866 0.000113614 0.000113591 7.4163e-11
-0.000354757 0.000106443 0.00010642 6.45235e-11
-0.000252369 7.56994e-05 7.57155e-05 -4.49612e-05
-0.000269445 8.0818e-05 8.084e-05 -4.49582e-05
-0.000366708 0.000110028 0.000110006 -1.32226e-12
-0.000303563 9.10698e-05 9.10685e-05 -2.4354e-05
-0.000260907 7.82588e-05 7.82777e-05 -4.49597e-05
-0.000324053 9.72144e-05 9.72163e-05 -2.43518e-05
-0.000313808 9.41422e-05 9.41425e-05 -2.43528e-05
-0.000354757 0.000106443 0.00010642 6.45232e-11
-0.000330851 9.92704e-05 9.92489e-05 -2.58109e-10
-0.000235292 7.05789e-05 7.05915e-05 -4.49639e-05
-0.000252369 7.56994e-05 7.57155e-05 -4.49612e-05
-0.000342804 0.000102856 0.000102835 1.53199e-10
-0.000283073 8.49245e-05 8.49208e-05 -2.43561e-05
-0.000243831 7.31395e-05 7.31535e-05 -4.49627e-05
-0.000303563 9.10698e-05 9.10685e-05 -2.4354e-05
-0.000293318 8.79973e-05 8.79946e-05 -2.43551e-05
-0.000330851 9.92704e-05 9.92489e-05 -2.58119e-10
-0.000306942 9.20981e-05 9.2076e-05 -3.97177e-10
-0.000218215 6.54538e-05 6.54692e-05 -4.49623e-05
-0.000235292 7.05789e-05 7.05915e-05 -4.49639e-05
-0.000318897 9.56847e-05 9.56626e-05 -7.05827e-10
-0.000262583 7.87783e-05 7.87735e-05 -2.43555e-05
-0.000226754 6.80171e-05 6.803e-05 -4.49641e-05
-0.000283073 8.49245e-05 8.49208e-05 -2.43561e-05
-0.000272828 8.18516e-05 8.18471e-05 -2.43564e-05
-0.000306942 9.20981e-05 9.2076e-05 -3.97177e-10
-0.000283036 8.49243e-05 8.49051e-05 -2.46127e-09
-0.000201134 6.03186e-05 6.03494e-05 -4.49496e-05
-0.000218215 6.54538e-05 6.54692e-05 -4.49623e-05
-0.000294988 8.851e-05 8.84905e-05 -2.87521e-10
-0.000242098 7.26306e-05 7.26291e-05 -2.43472e-05
-0.000209676 6.2888e-05 6.2909e-05 -4.4958e-05
-0.000262583 7.87783e-05 7.87735e-05 -2.43555e-05
-0.000252339 7.57046e-05 7.57006e-05 -2.4353e-05
-0.000283036 8.49243e-05 8.49051e-05 -2.46127e-09
-0.000259138 7.77603e-05 7.77333e-05 -2.68827e-09
-0.000184049 5.51626e-05 5.52372e-05 -4.49064e-05
-0.000201134 6.03186e-05 6.03494e-05 -4.49496e-05
-0.000271087 8.13435e-05 8.13185e-05 -4.47494e-09
-0.000221625 6.64814e-05 6.649e-05 -2.43172e-05
-0.000192591 5.77439e-05 5.77917e-05 -4.49338e-05
-0.000242098 7.26306e-05 7.26291e-05 -2.43472e-05
-0.00023186 6.95561e-05 6.95589e-05 -2.43357e-05
-0.000259138 7.77603e-05 7.77333e-05 -2.68826e-09
-0.000235296 7.05989e-05 7.05844e-05 -1.22675e-08
-0.000166945 4.99681e-05 5.01331e-05 -4.48057e-05
-0.000184049 5.51626e-05 5.52372e-05 -4.49064e-05
-0.000247204 7.41714e-05 7.41566e-05 -2.58064e-09
-0.00020119 6.03313e-05 6.03682e-05 -2.42425e-05
-0.000175503 5.25725e-05 5.26844e-05 -4.48653e-05
-0.000221625 6.64814e-05 6.649e-05 -2.43172e-05
-0.000211399 6.34066e-05 6.34253e-05 -2.42888e-05
-0.000235296 7.05989e-05 7.05844e-05 -1.22675e-08
-0.000211545 6.35081e-05 6.34442e-05 -1.03076e-08
-0.000149828 4.47e-05 4.50549e-05 -4.45787e-05
-0.000166945 4.99681e-05 5.01331e-05 -4.48057e-05
-0.000223411 6.70579e-05 6.70084e-05 -2.0354e-08
-0.00018082 5.41816e-05 5.42736e-05 -2.40729e-05
-0.000158385 4.73442e-05 4.75889e-05 -4.47147e-05
-0.00020119 6.03313e-05 6.03682e-05 -2.42425e-05
-0.000190998 5.72553e-05 5.73181e-05 -2.41712e-05
-0.000211545 6.35081e-05 6.34442e-05 -1.03076e-08
-0.000188103 5.64346e-05 5.64295e-05 -4.81658e-08
-0.000132624 3.93175e-05 3.99883e-05 -4.41555e-05
-0.000149828 4.47e-05 4.50549e-05 -4.45787e-05
-0.000199756 5.9929e-05 5.99258e-05 -8.52292e-09
-0.000160622 4.80412e-05 4.82489e-05 -2.37269e-05
-0.00014125 4.20316e-05 4.2522e-05 -4.43964e-05
-0.00018082 5.41816e-05 5.42736e-05 -2.40729e-05
-0.000170686 5.11121e-05 5.12458e-05 -2.39365e-05
-0.000188103 5.64346e-05 5.64295e-05 -4.81658e-08
-0.000165117 4.97181e-05 4.94569e-05 -2.87976e-08
-0.000115351 3.37209e-05 3.49844e-05 -4.33521e-05
-0.000132624 3.93175e-05 3.99883e-05 -4.41555e-05
-0.000176565 5.31009e-05 5.29131e-05 -8.06285e-08
-0.000140648 4.19067e-05 4.23178e-05 -2.30722e-05
-0.000123981 3.65407e-05 3.74742e-05 -4.38194e-05
-0.000160622 4.80412e-05 4.82489e-05 -2.37269e-05
-0.000150614 4.49668e-05 4.52775e-05 -2.34345e-05
-0.000165117 4.97181e-05 4.94569e-05 -2.87976e-08
-0.000143367 4.30011e-05 4.30139e-05 -1.63166e-07
-9.76911e-05 2.78846e-05 2.99171e-05 -4.2098e-05
-0.000115351 3.37209e-05 3.49844e-05 -4.33521e-05
-0.000153979 4.61699e-05 4.62039e-05 -6.50432e-09
-0.000121243 3.58264e-05 3.66073e-05 -2.18648e-05
-0.000106625 3.0864e-05 3.24689e-05 -4.27819e-05
-0.000140648 4.19067e-05 4.23178e-05 -2.30722e-05
-0.000130824 3.88721e-05 3.94081e-05 -2.25957e-05
-0.000143367 4.30011e-05 4.30139e-05 -1.63166e-07
-0.000123363 3.78499e-05 3.66485e-05 -5.25503e-08
-7.96682e-05 2.15718e-05 2.48984e-05 -4.01123e-05
-9.76911e-05 2.78846e-05 2.99171e-05 -4.2098e-05
-0.000133191 4.05725e-05 3.96938e-05 -3.04505e-07
-0.0001023 2.97177e-05 3.11069e-05 -1.99273e-05
-8.86666e-05 2.47303e-05 2.74013e-05 -4.12215e-05
-0.000121243 3.58264e-05 3.66073e-05 -2.18648e-05
-0.000111778 3.27472e-05 3.38703e-05 -2.0927e-05
-0.000123363 3.78499e-05 3.66485e-05 -5.25503e-08
-0.0001073 3.21574e-05 3.22042e-05 -4.48614e-07
-6.00466e-05 1.52911e-05 1.9181e-05 -3.79849e-05
-7.96682e-05 2.15718e-05 2.48984e-05 -4.01123e-05
-0.00011452 3.42211e-05 3.44138e-05 1.36567e-07
-8.47187e-05 2.37788e-05 2.61171e-05 -1.66993e-05
-7.02701e-05 1.85286e-05 2.2175e-05 -3.90011e-05
-0.0001023 2.97177e-05 3.11069e-05 -1.99273e-05
-9.31632e-05 2.67888e-05 2.84462e-05 -1.86914e-05
-0.0001073 3.21574e-05 3.22042e-05 -4.48614e-07
-9.75252e-05 3.25907e-05 2.78291e-05 7.52373e-07
-3.89918e-05 9.08969e-06 1.28152e-05 -3.66841e-05
-6.00466e-05 1.52911e-05 1.9181e-05 -3.79849e-05
-0.000101653 3.32631e-05 2.93099e-05 -9.78239e-07
-6.63528e-05 1.73835e-05 2.09868e-05 -1.32257e-05
-4.94648e-05 1.1758e-05 1.61601e-05 -3.70862e-05
-8.47187e-05 2.37788e-05 2.61171e-05 -1.66993e-05
-7.60782e-05 2.05512e-05 2.37973e-05 -1.45439e-05
-9.75252e-05 3.25907e-05 2.78291e-05 7.52373e-07
-0.000102005 2.75676e-05 3.19019e-05 4.39395e-06
-1.4706e-05 9.64178e-06 2.17038e-06 -4.27667e-05
-3.89918e-05 9.08969e-06 1.28152e-05 -3.66841e-05
-9.69616e-05 2.70544e-05 2.99602e-05 3.1362e-06
-4.67198e-05 1.20633e-05 1.48528e-05 -1.12489e-05
-2.77112e-05 8.43573e-06 8.2609e-06 -3.81656e-05
-6.63528e-05 1.73835e-05 2.09868e-05 -1.32257e-05
-5.63106e-05 1.45705e-05 1.78886e-05 -1.25022e-05
-0.000102005 2.75676e-05 3.19019e-05 4.39395e-06
-0.000138632 2.71762e-05 4.77668e-05 3.36582e-05
-3.48795e-06 3.75192e-05 -1.45848e-05 -6.43996e-05
-1.4706e-05 9.64178e-06 2.17038e-06 -4.27667e-05
-0.000115086 3.88909e-05 3.2655e-05 9.15646e-06
-7.22974e-06 2.28686e-05 -6.70238e-06 -3.7959e-05
-4.96773e-06 1.49533e-05 -4.27952e-06 -5.05535e-05
-4.67198e-05 1.20633e-05 1.48528e-05 -1.12489e-05
-3.21656e-05 1.16573e-05 8.78929e-06 -1.64279e-05
-0.000138632 2.71762e-05 4.77668e-05 3.36582e-05
-6.99016e-05 0.000219178 -6.39756e-05 -0.0001757
-4.88277e-05 0.000167561 -5.08858e-05 -6.42662e-05
-3.48795e-06 3.75192e-05 -1.45848e-05 -6.43996e-05
-0.000135879 6.2503e-06 5.5555e-05 1.36114e-05
-4.29396e-05 0.000206133 -6.99401e-05 -0.00010333
-1.61478e-05 8.94209e-05 -3.14028e-05 -7.53283e-05
-7.22974e-06 2.28686e-05 -6.70238e-06 -3.7959e-05
-1.09258e-06 6.71682e-05 -2.83181e-05 -6.91398e-05
-0.00287276 0 0.00123118 -0.000161341
-0.00323565 0.000641898 0.00111161 -0.000238531
-0.00187806 0.000246034 0.000699441 -5.96439e-06
-0.00166189 0 0.000712237 0.000219444
-0.0030768 0.000303725 0.00118846 -0.000277029
-0.00250135 0.000386333 0.000906438 -9.80602e-05
-0.00180009 0.000138261 0.00071221 8.33678e-05
-0.00235519 0 0.00100937 3.72879e-05
-0.00239501 0.000214066 0.000934691 -2.97657e-05
-0.00323565 0.000641898 0.00111161 -0.000238531
-0.00336115 0.00090844 0.00105116 -0.000112754
-0.00197329 0.000450051 0.000652815 -7.61954e-05
-0.00187806 0.000246034 0.000699441 -5.96439e-06
-0.00333518 0.00083047 0.00107345 -0.000171435
-0.00266713 0.000655296 0.000862215 -0.000114972
-0.00192583 0.000354585 0.00067339 -5.12395e-05
-0.00250135 0.000386333 0.000906438 -9.80602e-05
-0.00261258 0.000537623 0.000889266 -0.000129264
-0.00336115 0.00090844 0.00105116 -0.000112754
-0.00334444 0.000982423 0.00101229 -4.15622e-05
-0.00202117 0.00055232 0.000629506 -8.98933e-05
-0.00197329 0.000450051 0.000652815 -7.61954e-05
-0.00335157 0.000954497 0.00102732 -6.58802e-05
-0.00269314 0.000762367 0.000827473 -7.71249e-05
-0.00200891 0.000513669 0.000640816 -8.85229e-05
-0.00266713 0.000655296 0.000862215 -0.000114972
-0.00268676 0.000725396 0.000840586 -9.07333e-05
-0.00334444 0.000982423 0.00101229 -4.15622e-05
-0.00332075 0.000992017 0.00099803 -2.6217e-05
-0.00201882 0.00059201 0.000611489 -8.3369e-05
-0.00202117 0.00055232 0.000629506 -8.98933e-05
-0.00333556 0.000992008 0.00100438 -3.11739e-05
-0.00267971 0.00079604 0.000807287 -5.88936e-05
-0.00202087 0.000577315 0.000618668 -8.62108e-05
-0.00269314 0.000762367 0.000827473 -7.71249e-05
-0.00268965 0.000784383 0.000816544 -6.73181e-05
-0.00332075 0.000992017 0.00099803 -2.6217e-05
-0.00329351 0.000989985 0.000987226 -2.59174e-05
-0.00200435 0.000599117 0.000602243 -7.90421e-05
-0.00201882 0.00059201 0.000611489 -8.3369e-05
-0.00330506 0.000991291 0.000991616 -2.44983e-05
-0.00265491 0.000797437 0.000796061 -5.34349e-05
-0.00201373 0.000598165 0.000606671 -8.12361e-05
-0.00267971 0.00079604 0.000807287 -5.88936e-05
-0.00266693 0.00079908 0.000800506 -5.42188e-05
-0.00329351 0.000989985 0.000987226 -2.59174e-05
-0.00327283 0.000982515 0.000981562 -3.15947e-05
-0.00198423 0.00059568 0.000595094 -7.61573e-05
-0.00200435 0.000599117 0.000602243 -7.90421e-05
-0.0032836 0.000986701 0.000984386 -2.8922e-05
-0.00263217 0.000791548 0.000788837 -5.4145e-05
-0.00199356 0.000598017 0.000598089 -7.71243e-05
-0.00265491 0.000797437 0.000796061 -5.34349e-05
-0.00264341 0.000794785 0.000792269 -5.37928e-05
-0.00327283 0.000982515 0.000981562 -3.15947e-05
-0.00325278 0.000975313 0.000976059 -3.62652e-05
-0.00196677 0.000588791 0.000590563 -7.53441e-05
-0.00198423 0.00059568 0.000595094 -7.61573e-05
-0.00326221 0.00097876 0.000978622 -3.39448e-05
-0.00261171 0.000783308 0.000783602 -5.63291e-05
-0.00197557 0.00059241 0.000592784 -7.5718e-05
-0.00263217 0.000791548 0.000788837 -5.4145e-05
-0.0026215 0.00078753 0.000785986 -5.50164e-05
-0.00325278 0.000975313 0.000976059 -3.62652e-05
-0.00323476 0.000968353 0.000971316 -4.00196e-05
-0.0019509 0.000582169 0.0005866 -7.49933e-05
-0.00196677 0.000588791 0.000590563 -7.53441e-05
-0.00324386 0.000971806 0.000973737 -3.83969e-05
-0.00259391 0.000775995 0.000779107 -5.84239e-05
-0.00195837 0.000585359 0.000588432 -7.5066e-05
-0.00261171 0.000783308 0.000783602 -5.63291e-05
-0.00260259 0.000779483 0.000781333 -5.7524e-05
-0.00323476 0.000968353 0.000971316 -4.00196e-05
-0.00321693 0.000962082 0.000966362 -4.22669e-05
-0.00193737 0.000576416 0.000583268 -7.50236e-05
-0.0019509 0.000582169 0.0005866 -7.49933e-05
-0.0032257 0.00096513 0.000968817 -4.12571e-05
-0.00257772 0.000769543 0.000774935 -5.9941e-05
-0.00194402 0.000579177 0.000584933 -7.50179e-05
-0.00259391 0.000775995 0.000779107 -5.84239e-05
-0.00258563 0.000772668 0.000776986 -5.92238e-05
-0.00321693 0.000962082 0.000966362 -4.22669e-05
-0.00319957 0.000956233 0.000961429 -4.36612e-05
-0.00192504 0.000571646 0.000580028 -7.50546e-05
-0.00193737 0.000576416 0.000583268 -7.50236e-05
-0.00320827 0.000959118 0.000963921 -4.30781e-05
-0.00256265 0.000764036 0.000770834 -6.0895e-05
-0.00193103 0.00057392 0.000581617 -7.50267e-05
-0.00257772 0.000769543 0.000774935 -5.9941e-05
-0.00257009 0.000766686 0.000772889 -6.04978e-05
-0.00319957 0.000956233 0.000961429 -4.36612e-05
-0.00318224 0.000950708 0.000956373 -4.43867e-05
-0.00191368 0.000567572 0.000576903 -7.51065e-05
-0.00192504 0.000571646 0.000580028 -7.50546e-05
-0.00319088 0.000953437 0.000958903 -4.40768e-05
-0.00254818 0.000759109 0.000766745 -6.14455e-05
-0.0019193 0.000569539 0.00057847 -7.50887e-05
-0.00256265 0.000764036 0.000770834 -6.0895e-05
-0.00255535 0.000761516 0.000768788 -6.12041e-05
-0.00318224 0.000950708 0.000956373 -4.43867e-05
-0.00316502 0.000945369 0.000951279 -4.47707e-05
-0.00190277 0.000563969 0.000573772 -7.51241e-05
-0.00191368 0.000567572 0.000576903 -7.51065e-05
-0.00317364 0.000948022 0.000953835 -4.46159e-05
-0.00253406 0.000754583 0.000762635 -6.17321e-05
-0.00190817 0.000565724 0.000575333 -7.51156e-05
-0.00254818 0.000759109 0.000766745 -6.14455e-05
-0.00254109 0.000756807 0.000764694 -6.16174e-05
-0.00316502 0.000945369 0.000951279 -4.47707e-05
-0.0031478 0.000940142 0.000946138 -4.49411e-05
-0.00189216 0.000560641 0.000570652 -7.51304e-05
-0.00190277 0.000563969 0.000573772 -7.51241e-05
-0.0031564 0.000942745 0.00094871 -4.48723e-05
-0.00252012 0.000750275 0.000758507 -6.18692e-05
-0.00189745 0.00056228 0.000572215 -7.51302e-05
-0.00253406 0.000754583 0.000762635 -6.17321e-05
-0.00252708 0.000752409 0.000760572 -6.18128e-05
-0.0031478 0.000940142 0.000946138 -4.49411e-05
-0.0031306 0.000934974 0.000940981 -4.50134e-05
-0.00188168 0.000557469 0.000567521 -7.51238e-05
-0.00189216 0.000560641 0.000570652 -7.51304e-05
-0.0031392 0.000937553 0.000943562 -4.49867e-05
-0.00250628 0.000746095 0.000754364 -6.19244e-05
-0.00188691 0.000559041 0.000569086 -7.51275e-05
-0.00252012 0.000750275 0.000758507 -6.18692e-05
-0.00251319 0.000748173 0.000756437 -6.19046e-05
-0.0031306 0.000934974 0.000940981 -4.50134e-05
-0.00311339 0.000929838 0.00093581 -4.5034e-05
-0.00187128 0.000554377 0.000564386 -7.51141e-05
-0.00188168 0.000557469 0.000567521 -7.51238e-05
-0.00312199 0.000932404 0.000938396 -4.50273e-05
-0.00249247 0.000741976 0.000750212 -6.19407e-05
-0.00187648 0.000555916 0.000565955 -7.51194e-05
-0.00250628 0.000746095 0.000754364 -6.19244e-05
-0.00249937 0.00074403 0.000752289 -6.19354e-05
-0.00311339 0.000929838 0.00093581 -4.5034e-05
-0.0030962 0.000924717 0.000930635 -4.50352e-05
-0.0018609 0.000551324 0.000561247 -7.51033e-05
-0.00187128 0.000554377 0.000564386 -7.51141e-05
-0.0031048 0.000927276 0.000933223 -4.50362e-05
-0.00247868 0.000737889 0.000746054 -6.19397e-05
-0.00186609 0.000552847 0.000562817 -7.51085e-05
-0.00249247 0.000741976 0.000750212 -6.19407e-05
-0.00248557 0.00073993 0.000748134 -6.19416e-05
-0.0030962 0.000924717 0.000930635 -4.50352e-05
-0.003079 0.000919603 0.000925457 -4.50289e-05
-0.00185054 0.000548288 0.000558106 -7.5094e-05
-0.0018609 0.000551324 0.000561247 -7.51033e-05
-0.0030876 0.000922159 0.000928046 -4.50323e-05
-0.0024649 0.000733814 0.000741894 -6.19331e-05
-0.00185572 0.000549805 0.000559677 -7.50985e-05
-0.00247868 0.000737889 0.000746054 -6.19397e-05
-0.00247179 0.000735851 0.000743975 -6.19366e-05
-0.003079 0.000919603 0.000925457 -4.50289e-05
-0.00306181 0.000914491 0.000920279 -4.50219e-05
-0.00184017 0.000545258 0.000554964 -7.50865e-05
-0.00185054 0.000548288 0.000558106 -7.5094e-05
-0.00307041 0.000917047 0.000922868 -4.50254e-05
-0.00245112 0.000729745 0.000737733 -6.19258e-05
-0.00184535 0.000546772 0.000556535 -7.509e-05
-0.0024649 0.000733814 0.000741894 -6.19331e-05
-0.00245801 0.000731779 0.000739814 -6.19294e-05
-0.00306181 0.000914491 0.000920279 -4.50219e-05
-0.00304462 0.00090938 0.000915102 -4.50161e-05
-0.00182981 0.000542228 0.000551822 -7.5081e-05
-0.00184017 0.000545258 0.000554964 -7.50865e-05
-0.00305321 0.000911935 0.00091769 -4.50188e-05
-0.00243735 0.000725676 0.000733572 -6.19197e-05
-0.00183499 0.000543743 0.000553393 -7.50835e-05
-0.00245112 0.000729745 0.000737733 -6.19258e-05
-0.00244423 0.00072771 0.000735653 -6.19225e-05
-0.00304462 0.00090938 0.000915102 -4.50161e-05
-0.00302743 0.000904269 0.000909925 -4.5012e-05
-0.00181945 0.000539198 0.00054868 -7.50771e-05
-0.00182981 0.000542228 0.000551822 -7.5081e-05
-0.00303602 0.000906825 0.000912513 -4.50138e-05
-0.00242357 0.000721607 0.000729412 -6.19153e-05
-0.00182463 0.000540714 0.000550251 -7.50789e-05
-0.00243735 0.000725676 0.000733572 -6.19197e-05
-0.00243046 0.000723642 0.000731492 -6.19173e-05
-0.00302743 0.000904269 0.000909925 -4.5012e-05
-0.00301024 0.000899158 0.000904748 -4.50093e-05
-0.00180909 0.000536167 0.000545538 -7.50745e-05
-0.00181945 0.000539198 0.00054868 -7.50771e-05
-0.00301883 0.000901713 0.000907336 -4.50105e-05
-0.00240979 0.000717538 0.000725251 -6.19123e-05
-0.00181427 0.000537683 0.000547109 -7.50756e-05
-0.00242357 0.000721607 0.000729412 -6.19153e-05
-0.00241668 0.000719573 0.000727331 -6.19136e-05
-0.00301024 0.000899158 0.000904748 -4.50093e-05
-0.00299305 0.000894046 0.000899572 -4.50077e-05
-0.00179873 0.000533135 0.000542397 -7.50727e-05
-0.00180909 0.000536167 0.000545538 -7.50745e-05
-0.00300164 0.000896602 0.00090216 -4.50084e-05
-0.00239601 0.000713467 0.000721091 -6.19104e-05
-0.00180391 0.000534651 0.000543967 -7.50735e-05
-0.00240979 0.000717538 0.000725251 -6.19123e-05
-0.0024029 0.000715502 0.000723171 -6.19112e-05
-0.00299305 0.000894046 0.000899572 -4.50077e-05
-0.00297586 0.000888935 0.000894397 -4.50068e-05
-0.00178836 0.000530101 0.000539256 -7.50715e-05
-0.00179873 0.000533135 0.000542397 -7.50727e-05
-0.00298445 0.000891491 0.000896984 -4.50072e-05
-0.00238224 0.000709396 0.000716932 -6.19093e-05
-0.00179355 0.000531618 0.000540826 -7.50721e-05
-0.00239601 0.000713467 0.000721091 -6.19104e-05
-0.00238912 0.000711432 0.000719011 -6.19098e-05
-0.00297586 0.000888935 0.000894397 -4.50068e-05
-0.00295867 0.000883823 0.000889221 -4.50064e-05
-0.001778 0.000527067 0.000536115 -7.50708e-05
-0.00178836 0.000530101 0.000539256 -7.50715e-05
-0.00296727 0.000886379 0.000891809 -4.50066e-05
-0.00236846 0.000705324 0.000712773 -6.19087e-05
-0.00178318 0.000528584 0.000537686 -7.50711e-05
-0.00238224 0.000709396 0.000716932 -6.19093e-05
-0.00237535 0.00070736 0.000714852 -6.19089e-05
-0.00295867 0.000883823 0.000889221 -4.50064e-05
-0.00294149 0.000878711 0.000884047 -4.50063e-05
-0.00176764 0.000524032 0.000532975 -7.50702e-05
-0.001778 0.000527067 0.000536115 -7.50708e-05
-0.00295008 0.000881267 0.000886634 -4.50063e-05
-0.00235469 0.000701252 0.000708614 -6.19083e-05
-0.00177282 0.00052555 0.000534545 -7.50704e-05
-0.00236846 0.000705324 0.000712773 -6.19087e-05
-0.00236157 0.000703288 0.000710693 -6.19084e-05
-0.00294149 0.000878711 0.000884047 -4.50063e-05
-0.0029243 0.000873598 0.000878872 -4.50062e-05
-0.00175728 0.000520997 0.000529836 -7.50697e-05
-0.00176764 0.000524032 0.000532975 -7.50702e-05
-0.00293289 0.000876155 0.000881459 -4.50062e-05
-0.00234091 0.00069718 0.000704456 -6.1908e-05
-0.00176246 0.000522515 0.000531406 -7.50699e-05
-0.00235469 0.000701252 0.000708614 -6.19083e-05
-0.0023478 0.000699216 0.000706535 -6.19081e-05
-0.0029243 0.000873598 0.000878872 -4.50062e-05
-0.00290711 0.000868486 0.000873698 -4.50062e-05
-0.00174692 0.000517961 0.000526697 -7.50692e-05
-0.00175728 0.000520997 0.000529836 -7.50697e-05
-0.00291571 0.000871042 0.000876285 -4.50062e-05
-0.00232714 0.000693107 0.000700298 -6.19078e-05
-0.0017521 0.000519479 0.000528266 -7.50695e-05
-0.00234091 0.00069718 0.000704456 -6.1908e-05
-0.00233402 0.000695143 0.000702377 -6.19079e-05
-0.00290711 0.000868486 0.000873698 -4.50062e-05
-0.00288993 0.000863374 0.000868524 -4.50062e-05
-0.00173656 0.000514925 0.000523558 -7.50688e-05
-0.00174692 0.000517961 0.000526697 -7.50692e-05
-0.00289852 0.00086593 0.000871111 -4.50062e-05
-0.00231336 0.000689034 0.000696141 -6.19076e-05
-0.00174174 0.000516443 0.000525127 -7.5069e-05
-0.00232714 0.000693107 0.000700298 -6.19078e-05
-0.00232025 0.000691071 0.000698219 -6.19077e-05
-0.00288993 0.000863374 0.000868524 -4.50062e-05
-0.00287275 0.000858261 0.00086335 -4.50061e-05
-0.0017262 0.000511889 0.00052042 -7.50683e-05
-0.00173656 0.000514925 0.000523558 -7.50688e-05
-0.00288134 0.000860817 0.000865937 -4.50061e-05
-0.00229959 0.000684961 0.000691984 -6.19074e-05
-0.00173138 0.000513407 0.000521989 -7.50685e-05
-0.00231336 0.000689034 0.000696141 -6.19076e-05
-0.00230648 0.000686998 0.000694062 -6.19075e-05
-0.00287275 0.000858261 0.00086335 -4.50061e-05
-0.00285556 0.000853149 0.000858177 -4.5006e-05
-0.00171584 0.000508853 0.000517282 -7.50677e-05
-0.0017262 0.000511889 0.00052042 -7.50683e-05
-0.00286415 0.000855705 0.000860764 -4.50061e-05
-0.00228582 0.000680888 0.000687827 -6.19071e-05
-0.00172102 0.000510371 0.000518851 -7.5068e-05
-0.00229959 0.000684961 0.000691984 -6.19074e-05
-0.0022927 0.000682925 0.000689905 -6.19072e-05
-0.00285556 0.000853149 0.000858177 -4.5006e-05
-0.00283838 0.000848036 0.000853004 -4.50059e-05
-0.00170549 0.000505816 0.000514144 -7.50672e-05
-0.00171584 0.000508853 0.000517282 -7.50677e-05
-0.00284697 0.000850592 0.000855591 -4.5006e-05
-0.00227205 0.000676815 0.00068367 -6.19068e-05
-0.00171067 0.000507335 0.000515713 -7.50675e-05
-0.00228582 0.000680888 0.000687827 -6.19071e-05
-0.00227893 0.000678852 0.000685749 -6.19069e-05
-0.00283838 0.000848036 0.000853004 -4.50059e-05
-0.0028212 0.000842923 0.000847831 -4.50058e-05
-0.00169513 0.000502779 0.000511007 -7.50665e-05
-0.00170549 0.000505816 0.000514144 -7.50672e-05
-0.00282979 0.00084548 0.000850418 -4.50059e-05
-0.00225828 0.000672742 0.000679514 -6.19064e-05
-0.00170031 0.000504298 0.000512576 -7.50669e-05
-0.00227205 0.000676815 0.00068367 -6.19068e-05
-0.00226516 0.000674778 0.000681592 -6.19066e-05
-0.0028212 0.000842923 0.000847831 -4.50058e-05
-0.00280402 0.000837811 0.000842659 -4.50056e-05
-0.00168477 0.000499742 0.000507871 -7.50659e-05
-0.00169513 0.000502779 0.000511007 -7.50665e-05
-0.00281261 0.000840367 0.000845245 -4.50057e-05
-0.0022445 0.000668668 0.000675359 -6.1906e-05
-0.00168995 0.000501261 0.000509439 -7.50662e-05
-0.00225828 0.000672742 0.000679514 -6.19064e-05
-0.00225139 0.000670705 0.000677436 -6.19062e-05
-0.00280402 0.000837811 0.000842659 -4.50056e-05
-0.00278683 0.000832698 0.000837487 -4.50054e-05
-0.00167442 0.000496705 0.000504734 -7.50652e-05
-0.00168477 0.000499742 0.000507871 -7.50659e-05
-0.00279542 0.000835254 0.000840073 -4.50055e-05
-0.00223074 0.000664594 0.000671203 -6.19056e-05
-0.0016796 0.000498224 0.000506302 -7.50655e-05
-0.0022445 0.000668668 0.000675359 -6.1906e-05
-0.00223762 0.000666631 0.000673281 -6.19058e-05
-0.00278683 0.000832698 0.000837487 -4.50054e-05
-0.00276965 0.000827585 0.000832315 -4.50052e-05
-0.00166406 0.000493668 0.000501598 -7.50644e-05
-0.00167442 0.000496705 0.000504734 -7.50652e-05
-0.00277824 0.000830141 0.000834901 -4.50053e-05
-0.00221697 0.00066052 0.000667048 -6.19052e-05
-0.00166924 0.000495186 0.000503166 -7.50648e-05
-0.00223074 0.000664594 0.000671203 -6.19056e-05
-0.00222385 0.000662557 0.000669126 -6.19054e-05
-0.00276965 0.000827585 0.000832315 -4.50052e-05
-0.00275247 0.000822472 0.000827144 -4.50049e-05
-0.00165371 0.00049063 0.000498463 -7.50637e-05
-0.00166406 0.000493668 0.000501598 -7.50644e-05
-0.00276106 0.000825028 0.00082973 -4.50051e-05
-0.0022032 0.000656447 0.000662894 -6.19047e-05
-0.00165889 0.000492149 0.00050003 -7.50641e-05
-0.00221697 0.00066052 0.000667048 -6.19052e-05
-0.00221008 0.000658484 0.000664971 -6.19049e-05
-0.00275247 0.000822472 0.000827144 -4.50049e-05
-0.0027353 0.000817359 0.000821973 -4.50047e-05
-0.00164336 0.000487592 0.000495328 -7.50629e-05
-0.00165371 0.00049063 0.000498463 -7.50637e-05
-0.00274388 0.000819916 0.000824558 -4.50048e-05
-0.00218943 0.000652372 0.000658739 -6.19042e-05
-0.00164853 0.000489111 0.000496895 -7.50633e-05
-0.0022032 0.000656447 0.000662894 -6.19047e-05
-0.00219631 0.000654409 0.000660817 -6.19044e-05
-0.0027353 0.000817359 0.000821973 -4.50047e-05
-0.00271812 0.000812246 0.000816802 -4.50044e-05
-0.001633 0.000484554 0.000492193 -7.50621e-05
-0.00164336 0.000487592 0.000495328 -7.50629e-05
-0.00272671 0.000814803 0.000819387 -4.50045e-05
-0.00217566 0.000648298 0.000654586 -6.19036e-05
-0.00163818 0.000486073 0.00049376 -7.50625e-05
-0.00218943 0.000652372 0.000658739 -6.19042e-05
-0.00218255 0.000650335 0.000656662 -6.19039e-05
-0.00271812 0.000812246 0.000816802 -4.50044e-05
-0.00270094 0.000807133 0.000811631 -4.50041e-05
-0.00162265 0.000481516 0.000489058 -7.50612e-05
-0.001633 0.000484554 0.000492193 -7.50621e-05
-0.00270953 0.00080969 0.000814217 -4.50042e-05
-0.0021619 0.000644224 0.000650432 -6.19031e-05
-0.00162783 0.000483035 0.000490625 -7.50616e-05
-0.00217566 0.000648298 0.000654586 -6.19036e-05
-0.00216878 0.000646261 0.000652509 -6.19033e-05
-0.00270094 0.000807133 0.000811631 -4.50041e-05
-0.00268376 0.00080202 0.000806461 -4.50038e-05
-0.0016123 0.000478477 0.000485924 -7.50604e-05
-0.00162265 0.000481516 0.000489058 -7.50612e-05
-0.00269235 0.000804577 0.000809046 -4.50039e-05
-0.00214813 0.000640149 0.000646279 -6.19025e-05
-0.00161748 0.000479997 0.000487491 -7.50608e-05
-0.0021619 0.000644224 0.000650432 -6.19031e-05
-0.00215502 0.000642187 0.000648355 -6.19028e-05
-0.00268376 0.00080202 0.000806461 -4.50038e-05
-0.00266659 0.000796907 0.000801291 -4.50034e-05
-0.00160195 0.000475439 0.000482791 -7.50595e-05
-0.0016123 0.000478477 0.000485924 -7.50604e-05
-0.00267517 0.000799464 0.000803876 -4.50036e-05
-0.00213437 0.000636075 0.000642126 -6.19019e-05
-0.00160713 0.000476958 0.000484357 -7.50599e-05
-0.00214813 0.000640149 0.000646279 -6.19025e-05
-0.00214125 0.000638112 0.000644202 -6.19022e-05
-0.00266659 0.000796907 0.000801291 -4.50034e-05
-0.00264941 0.000791794 0.000796122 -4.50031e-05
-0.0015916 0.0004724 0.000479658 -7.50585e-05
-0.00160195 0.000475439 0.000482791 -7.50595e-05
-0.002658 0.00079435 0.000798707 -4.50033e-05
-0.0021206 0.000632 0.000637974 -6.19013e-05
-0.00159678 0.000473919 0.000481224 -7.5059e-05
-0.00213437 0.000636075 0.000642126 -6.19019e-05
-0.00212749 0.000634037 0.00064005 -6.19016e-05
-0.00264941 0.000791794 0.000796122 -4.50031e-05
-0.00263224 0.000786681 0.000790953 -4.50028e-05
-0.00158125 0.000469361 0.000476525 -7.50576e-05
-0.0015916 0.0004724 0.000479658 -7.50585e-05
-0.00264082 0.000789237 0.000793537 -4.50029e-05
-0.00210684 0.000627925 0.000633821 -6.19007e-05
-0.00158643 0.00047088 0.000478091 -7.50581e-05
-0.0021206 0.000632 0.000637974 -6.19013e-05
-0.00211372 0.000629963 0.000635897 -6.1901e-05
-0.00263224 0.000786681 0.000790953 -4.50028e-05
-0.00261506 0.000781567 0.000785784 -4.50024e-05
-0.0015709 0.000466321 0.000473392 -7.50567e-05
-0.00158125 0.000469361 0.000476525 -7.50576e-05
-0.00262365 0.000784124 0.000788368 -4.50026e-05
-0.00209308 0.00062385 0.00062967 -6.19e-05
-0.00157608 0.000467841 0.000474958 -7.50571e-05
-0.00210684 0.000627925 0.000633821 -6.19007e-05
-0.00209996 0.000625888 0.000631746 -6.19003e-05
-0.00261506 0.000781567 0.000785784 -4.50024e-05
-0.00259789 0.000776454 0.000780615 -4.5002e-05
-0.00156056 0.000463282 0.00047026 -7.50557e-05
-0.0015709 0.000466321 0.000473392 -7.50567e-05
-0.00260648 0.000779011 0.000783199 -4.50022e-05
-0.00207932 0.000619775 0.000625518 -6.18994e-05
-0.00156573 0.000464802 0.000471826 -7.50562e-05
-0.00209308 0.00062385 0.00062967 -6.19e-05
-0.0020862 0.000621812 0.000627594 -6.18997e-05
-0.00259789 0.000776454 0.000780615 -4.5002e-05
-0.00258072 0.000771341 0.000775447 -4.50016e-05
-0.00155021 0.000460242 0.000467129 -7.50547e-05
-0.00156056 0.000463282 0.00047026 -7.50557e-05
-0.0025893 0.000773898 0.000778031 -4.50018e-05
-0.00206556 0.0006157 0.000621367 -6.18987e-05
-0.00155538 0.000461762 0.000468694 -7.50552e-05
-0.00207932 0.000619775 0.000625518 -6.18994e-05
-0.00207244 0.000617737 0.000623443 -6.1899e-05
-0.00258072 0.000771341 0.000775447 -4.50016e-05
-0.00256355 0.000766228 0.000770279 -4.50012e-05
-0.00153986 0.000457202 0.000463997 -7.50537e-05
-0.00155021 0.000460242 0.000467129 -7.50547e-05
-0.00257213 0.000768784 0.000772863 -4.50014e-05
-0.0020518 0.000611624 0.000617217 -6.1898e-05
-0.00154504 0.000458722 0.000465563 -7.50542e-05
-0.00206556 0.0006157 0.000621367 -6.18987e-05
-0.00205868 0.000613662 0.000619292 -6.18983e-05
-0.00256355 0.000766228 0.000770279 -4.50012e-05
-0.00254637 0.000761114 0.000765112 -4.50008e-05
-0.00152952 0.000454162 0.000460867 -7.50527e-05
-0.00153986 0.000457202 0.000463997 -7.50537e-05
-0.00255496 0.000763671 0.000767695 -4.5001e-05
-0.00203804 0.000607549 0.000613067 -6.18973e-05
-0.00153469 0.000455682 0.000462432 -7.50532e-05
-0.0020518 0.000611624 0.000617217 -6.1898e-05
-0.00204492 0.000609586 0.000615142 -6.18976e-05
-0.00254637 0.000761114 0.000765112 -4.50008e-05
-0.0025292 0.000756001 0.000759944 -4.50004e-05
-0.00151917 0.000451122 0.000457736 -7.50516e-05
-0.00152952 0.000454162 0.000460867 -7.50527e-05
-0.00253779 0.000758558 0.000762528 -4.50006e-05
-0.00202428 0.000603473 0.000608917 -6.18966e-05
-0.00152435 0.000452642 0.000459301 -7.50521e-05
-0.00203804 0.000607549 0.000613067 -6.18973e-05
-0.00203116 0.000605511 0.000610992 -6.18969e-05
-0.0025292 0.000756001 0.000759944 -4.50004e-05
-0.00251204 0.000750888 0.000754777 -4.5e-05
-0.00150883 0.000448081 0.000454606 -7.50506e-05
-0.00151917 0.000451122 0.000457736 -7.50516e-05
-0.00252062 0.000753444 0.000757361 -4.50002e-05
-0.00201052 0.000599397 0.000604767 -6.18958e-05
-0.001514 0.000449602 0.000456171 -7.50511e-05
-0.00202428 0.000603473 0.000608917 -6.18966e-05
-0.0020174 0.000601435 0.000606842 -6.18962e-05
-0.00251204 0.000750888 0.000754777 -4.5e-05
-0.00249487 0.000745774 0.000749611 -4.49995e-05
-0.00149849 0.00044504 0.000451477 -7.50495e-05
-0.00150883 0.000448081 0.000454606 -7.50506e-05
-0.00250345 0.000748331 0.000752194 -4.49998e-05
-0.00199676 0.000595321 0.000600618 -6.18951e-05
-0.00150366 0.000446561 0.000453041 -7.505e-05
-0.00201052 0.000599397 0.000604767 -6.18958e-05
-0.00200364 0.000597359 0.000602693 -6.18955e-05
-0.00249487 0.000745774 0.000749611 -4.49995e-05
-0.0024777 0.000740661 0.000744445 -4.49991e-05
-0.00148814 0.000442 0.000448347 -7.50484e-05
-0.00149849 0.00044504 0.000451477 -7.50495e-05
-0.00248628 0.000743217 0.000747028 -4.49993e-05
-0.00198301 0.000591245 0.000596469 -6.18943e-05
-0.00149331 0.00044352 0.000449912 -7.50489e-05
-0.00199676 0.000595321 0.000600618 -6.18951e-05
-0.00198989 0.000593283 0.000598544 -6.18947e-05
-0.0024777 0.000740661 0.000744445 -4.49991e-05
-0.00246053 0.000735547 0.000739279 -4.49986e-05
-0.0014778 0.000438958 0.000445219 -7.50473e-05
-0.00148814 0.000442 0.000448347 -7.50484e-05
-0.00246911 0.000738104 0.000741862 -4.49989e-05
-0.00196925 0.000587169 0.000592321 -6.18936e-05
-0.00148297 0.000440479 0.000446783 -7.50478e-05
-0.00198301 0.000591245 0.000596469 -6.18943e-05
-0.00197613 0.000589207 0.000594395 -6.1894e-05
-0.00246053 0.000735547 0.000739279 -4.49986e-05
-0.00244336 0.000730434 0.000734113 -4.49982e-05
-0.00146746 0.000435917 0.00044209 -7.50462e-05
-0.0014778 0.000438958 0.000445219 -7.50473e-05
-0.00245195 0.000732991 0.000736696 -4.49984e-05
-0.0019555 0.000583093 0.000588173 -6.18928e-05
-0.00147263 0.000437438 0.000443654 -7.50467e-05
-0.00196925 0.000587169 0.000592321 -6.18936e-05
-0.00196237 0.000585131 0.000590247 -6.18932e-05
-0.00244336 0.000730434 0.000734113 -4.49982e-05
-0.0024262 0.00072532 0.000728948 -4.49977e-05
-0.00145712 0.000432875 0.000438962 -7.5045e-05
-0.00146746 0.000435917 0.00044209 -7.50462e-05
-0.00243478 0.000727877 0.000731531 -4.49979e-05
-0.00194174 0.000579017 0.000584026 -6.1892e-05
-0.00146229 0.000434396 0.000440526 -7.50456e-05
-0.0019555 0.000583093 0.000588173 -6.18928e-05
-0.00194862 0.000581055 0.000586099 -6.18924e-05
-0.0024262 0.00072532 0.000728948 -4.49977e-05
-0.00240903 0.000720207 0.000723783 -4.49972e-05
-0.00144678 0.000429834 0.000435835 -7.50439e-05
-0.00145712 0.000432875 0.000438962 -7.5045e-05
-0.00241762 0.000722764 0.000726366 -4.49975e-05
-0.00192799 0.00057494 0.000579878 -6.18912e-05
-0.00145195 0.000431355 0.000437398 -7.50445e-05
-0.00194174 0.000579017 0.000584026 -6.1892e-05
-0.00193487 0.000576978 0.000581952 -6.18916e-05
-0.00240903 0.000720207 0.000723783 -4.49972e-05
-0.00239187 0.000715093 0.000718619 -4.49967e-05
-0.00143644 0.000426792 0.000432708 -7.50427e-05
-0.00144678 0.000429834 0.000435835 -7.50439e-05
-0.00240045 0.00071765 0.000721201 -4.4997e-05
-0.00191424 0.000570863 0.000575732 -6.18904e-05
-0.00144161 0.000428313 0.000434271 -7.50433e-05
-0.00192799 0.00057494 0.000579878 -6.18912e-05
-0.00192111 0.000572902 0.000577805 -6.18908e-05
-0.00239187 0.000715093 0.000718619 -4.49967e-05
-0.00237471 0.00070998 0.000713454 -4.49962e-05
-0.0014261 0.00042375 0.000429581 -7.50416e-05
-0.00143644 0.000426792 0.000432708 -7.50427e-05
-0.00238329 0.000712536 0.000716037 -4.49965e-05
-0.00190049 0.000566787 0.000571585 -6.18896e-05
-0.00143127 0.000425271 0.000431144 -7.50421e-05
-0.00191424 0.000570863 0.000575732 -6.18904e-05
-0.00190736 0.000568825 0.000573658 -6.189e-05
-0.00237471 0.00070998 0.000713454 -4.49962e-05
-0.00235754 0.000704866 0.000708291 -4.49957e-05
-0.00141577 0.000420707 0.000426454 -7.50404e-05
-0.0014261 0.00042375 0.000429581 -7.50416e-05
-0.00236613 0.000707423 0.000710873 -4.4996e-05
-0.00188673 0.00056271 0.000567439 -6.18887e-05
-0.00142094 0.000422228 0.000428018 -7.5041e-05
-0.00190049 0.000566787 0.000571585 -6.18896e-05
-0.00189361 0.000564748 0.000569512 -6.18891e-05
-0.00235754 0.000704866 0.000708291 -4.49957e-05
-0.00234038 0.000699752 0.000703127 -4.49952e-05
-0.00140543 0.000417665 0.000423329 -7.50392e-05
-0.00141577 0.000420707 0.000426454 -7.50404e-05
-0.00234896 0.000702309 0.000705709 -4.49955e-05
-0.00187298 0.000558633 0.000563293 -6.18879e-05
-0.0014106 0.000419186 0.000424891 -7.50398e-05
-0.00188673 0.00056271 0.000567439 -6.18887e-05
-0.00187986 0.000560671 0.000565366 -6.18883e-05
-0.00234038 0.000699752 0.000703127 -4.49952e-05
-0.00232322 0.000694639 0.000697964 -4.49947e-05
-0.0013951 0.000414622 0.000420203 -7.5038e-05
-0.00140543 0.000417665 0.000423329 -7.50392e-05
-0.0023318 0.000697196 0.000700546 -4.4995e-05
-0.00185923 0.000554556 0.000559148 -6.1887e-05
-0.00140026 0.000416143 0.000421766 -7.50386e-05
-0.00187298 0.000558633 0.000563293 -6.18879e-05
-0.00186611 0.000556594 0.000561221 -6.18875e-05
-0.00232322 0.000694639 0.000697964 -4.49947e-05
-0.00230606 0.000689525 0.000692801 -4.49942e-05
-0.00138476 0.000411579 0.000417078 -7.50368e-05
-0.0013951 0.000414622 0.000420203 -7.5038e-05
-0.00231464 0.000692082 0.000695383 -4.49945e-05
-0.00184549 0.000550479 0.000555003 -6.18862e-05
-0.00138993 0.0004131 0.00041864 -7.50374e-05
-0.00185923 0.000554556 0.000559148 -6.1887e-05
-0.00185236 0.000552517 0.000557076 -6.18866e-05
-0.00230606 0.000689525 0.000692801 -4.49942e-05
-0.0022889 0.000684411 0.000687639 -4.49937e-05
-0.00137443 0.000408536 0.000413953 -7.50355e-05
-0.00138476 0.000411579 0.000417078 -7.50368e-05
-0.00229748 0.000686968 0.00069022 -4.49939e-05
-0.00183174 0.000546401 0.000550859 -6.18853e-05
-0.00137959 0.000410057 0.000415515 -7.50361e-05
-0.00184549 0.000550479 0.000555003 -6.18862e-05
-0.00183861 0.00054844 0.000552931 -6.18857e-05
-0.0022889 0.000684411 0.000687639 -4.49937e-05
-0.00227174 0.000679298 0.000682477 -4.49931e-05
-0.00136409 0.000405493 0.000410829 -7.50343e-05
-0.00137443 0.000408536 0.000413953 -7.50355e-05
-0.00228032 0.000681855 0.000685058 -4.49934e-05
-0.00181799 0.000542324 0.000546715 -6.18844e-05
-0.00136926 0.000407014 0.000412391 -7.50349e-05
-0.00183174 0.000546401 0.000550859 -6.18853e-05
-0.00182486 0.000544363 0.000548787 -6.18849e-05
-0.00227174 0.000679298 0.000682477 -4.49931e-05
-0.00225459 0.000674184 0.000677315 -4.49926e-05
-0.00135376 0.000402449 0.000407705 -7.50331e-05
-0.00136409 0.000405493 0.000410829 -7.50343e-05
-0.00226316 0.000676741 0.000679896 -4.49929e-05
-0.00180424 0.000538246 0.000542571 -6.18836e-05
-0.00135893 0.000403971 0.000409267 -7.50337e-05
-0.00181799 0.000542324 0.000546715 -6.18844e-05
-0.00181112 0.000540285 0.000544643 -6.1884e-05
-0.00225459 0.000674184 0.000677315 -4.49926e-05
-0.00223743 0.00066907 0.000672153 -4.49921e-05
-0.00134343 0.000399405 0.000404582 -7.50318e-05
-0.00135376 0.000402449 0.000407705 -7.50331e-05
-0.00224601 0.000671627 0.000674734 -4.49923e-05
-0.0017905 0.000534169 0.000538427 -6.18827e-05
-0.00134859 0.000400927 0.000406143 -7.50324e-05
-0.00180424 0.000538246 0.000542571 -6.18836e-05
-0.00179737 0.000536207 0.000540499 -6.18831e-05
-0.00223743 0.00066907 0.000672153 -4.49921e-05
-0.00222027 0.000663957 0.000666992 -4.49915e-05
-0.0013331 0.000396361 0.000401458 -7.50305e-05
-0.00134343 0.000399405 0.000404582 -7.50318e-05
-0.00222885 0.000666513 0.000669573 -4.49918e-05
-0.00177675 0.000530091 0.000534284 -6.18818e-05
-0.00133826 0.000397883 0.00040302 -7.50312e-05
-0.0017905 0.000534169 0.000538427 -6.18827e-05
-0.00178363 0.00053213 0.000536356 -6.18822e-05
-0.00222027 0.000663957 0.000666992 -4.49915e-05
-0.00220312 0.000658843 0.000661832 -4.4991e-05
-0.00132277 0.000393317 0.000398336 -7.50293e-05
-0.0013331 0.000396361 0.000401458 -7.50305e-05
-0.00221169 0.0006614 0.000664412 -4.49912e-05
-0.00176301 0.000526013 0.000530142 -6.18809e-05
-0.00132793 0.000394839 0.000399897 -7.50299e-05
-0.00177675 0.000530091 0.000534284 -6.18818e-05
-0.00176988 0.000528052 0.000532213 -6.18813e-05
-0.00220312 0.000658843 0.000661832 -4.4991e-05
-0.00218596 0.000653729 0.000656671 -4.49904e-05
-0.00131244 0.000390273 0.000395214 -7.5028e-05
-0.00132277 0.000393317 0.000398336 -7.50293e-05
-0.00219454 0.000656286 0.000659251 -4.49907e-05
-0.00174927 0.000521935 0.000526 -6.188e-05
-0.0013176 0.000391795 0.000396775 -7.50286e-05
-0.00176301 0.000526013 0.000530142 -6.18809e-05
-0.00175614 0.000523974 0.000528071 -6.18804e-05
-0.00218596 0.000653729 0.000656671 -4.49904e-05
-0.00216881 0.000648615 0.000651511 -4.49899e-05
-0.00130211 0.000387228 0.000392092 -7.50267e-05
-0.00131244 0.000390273 0.000395214 -7.5028e-05
-0.00217738 0.000651172 0.000654091 -4.49901e-05
-0.00173552 0.000517857 0.000521858 -6.18791e-05
-0.00130727 0.000388751 0.000393653 -7.50274e-05
-0.00174927 0.000521935 0.000526 -6.188e-05
-0.0017424 0.000519896 0.000523929 -6.18795e-05
-0.00216881 0.000648615 0.000651511 -4.49899e-05
-0.00215165 0.000643501 0.000646351 -4.49893e-05
-0.00129178 0.000384184 0.00038897 -7.50255e-05
-0.00130211 0.000387228 0.000392092 -7.50267e-05
-0.00216023 0.000646058 0.000648931 -4.49896e-05
-0.00172178 0.000513779 0.000517716 -6.18781e-05
-0.00129694 0.000385706 0.000390531 -7.50261e-05
-0.00173552 0.000517857 0.000521858 -6.18791e-05
-0.00172865 0.000515818 0.000519787 -6.18786e-05
-0.00215165 0.000643501 0.000646351 -4.49893e-05
-0.0021345 0.000638388 0.000641192 -4.49887e-05
-0.00128145 0.000381139 0.000385849 -7.50242e-05
-0.00129178 0.000384184 0.00038897 -7.50255e-05
-0.00214308 0.000640945 0.000643772 -4.4989e-05
-0.00170804 0.0005097 0.000513575 -6.18772e-05
-0.00128662 0.000382661 0.00038741 -7.50248e-05
-0.00172178 0.000513779 0.000517716 -6.18781e-05
-0.00171491 0.000511739 0.000515646 -6.18777e-05
-0.0021345 0.000638388 0.000641192 -4.49887e-05
-0.00211735 0.000633274 0.000636033 -4.49882e-05
-0.00127113 0.000378094 0.000382729 -7.50229e-05
-0.00128145 0.000381139 0.000385849 -7.50242e-05
-0.00212593 0.000635831 0.000638613 -4.49884e-05
-0.0016943 0.000505622 0.000509435 -6.18763e-05
-0.00127629 0.000379616 0.000384289 -7.50235e-05
-0.00170804 0.0005097 0.000513575 -6.18772e-05
-0.00170117 0.000507661 0.000511505 -6.18768e-05
-0.00211735 0.000633274 0.000636033 -4.49882e-05
-0.0021002 0.00062816 0.000630875 -4.49876e-05
-0.0012608 0.000375048 0.000379609 -7.50216e-05
-0.00127113 0.000378094 0.000382729 -7.50229e-05
-0.00210878 0.000630717 0.000633454 -4.49879e-05
-0.00168056 0.000501543 0.000505294 -6.18754e-05
-0.00126596 0.000376571 0.000381169 -7.50222e-05
-0.0016943 0.000505622 0.000509435 -6.18763e-05
-0.00168743 0.000503582 0.000507364 -6.18758e-05
-0.0021002 0.00062816 0.000630875 -4.49876e-05
-0.00208305 0.000623046 0.000625716 -4.4987e-05
-0.00125048 0.000372003 0.000376489 -7.50203e-05
-0.0012608 0.000375048 0.000379609 -7.50216e-05
-0.00209163 0.000625603 0.000628295 -4.49873e-05
-0.00166683 0.000497465 0.000501155 -6.18744e-05
-0.00125564 0.000373526 0.000378049 -7.50209e-05
-0.00168056 0.000501543 0.000505294 -6.18754e-05
-0.00167369 0.000499504 0.000503224 -6.18749e-05
-0.00208305 0.000623046 0.000625716 -4.4987e-05
-0.0020659 0.000617932 0.000620558 -4.49864e-05
-0.00124015 0.000368957 0.000373369 -7.5019e-05
-0.00125048 0.000372003 0.000376489 -7.50203e-05
-0.00207448 0.000620489 0.000623137 -4.49867e-05
-0.00165309 0.000493386 0.000497015 -6.18735e-05
-0.00124531 0.00037048 0.000374929 -7.50196e-05
-0.00166683 0.000497465 0.000501155 -6.18744e-05
-0.00165996 0.000495425 0.000499085 -6.1874e-05
-0.0020659 0.000617932 0.000620558 -4.49864e-05
-0.00204875 0.000612818 0.000615401 -4.49859e-05
-0.00122983 0.000365911 0.00037025 -7.50177e-05
-0.00124015 0.000368957 0.000373369 -7.5019e-05
-0.00205733 0.000615375 0.000617979 -4.49861e-05
-0.00163935 0.000489307 0.000492876 -6.18726e-05
-0.00123499 0.000367434 0.00037181 -7.50183e-05
-0.00165309 0.000493386 0.000497015 -6.18735e-05
-0.00164622 0.000491346 0.000494945 -6.1873e-05
-0.00204875 0.000612818 0.000615401 -4.49859e-05
-0.00203161 0.000607705 0.000610244 -4.49853e-05
-0.00121951 0.000362865 0.000367132 -7.50163e-05
-0.00122983 0.000365911 0.00037025 -7.50177e-05
-0.00204018 0.000610261 0.000612822 -4.49856e-05
-0.00162561 0.000485228 0.000488737 -6.18716e-05
-0.00122467 0.000364388 0.000368691 -7.5017e-05
-0.00163935 0.000489307 0.000492876 -6.18726e-05
-0.00163248 0.000487267 0.000490807 -6.18721e-05
-0.00203161 0.000607705 0.000610244 -4.49853e-05
-0.00201446 0.000602591 0.000605087 -4.49847e-05
-0.00120918 0.000359819 0.000364014 -7.5015e-05
-0.00121951 0.000362865 0.000367132 -7.50163e-05
-0.00202303 0.000605148 0.000607665 -4.4985e-05
-0.00161188 0.000481149 0.000484599 -6.18707e-05
-0.00121435 0.000361342 0.000365573 -7.50157e-05
-0.00162561 0.000485228 0.000488737 -6.18716e-05
-0.00161875 0.000483188 0.000486668 -6.18712e-05
-0.00201446 0.000602591 0.000605087 -4.49847e-05
-0.00199731 0.000597477 0.00059993 -4.49841e-05
-0.00119886 0.000356773 0.000360896 -7.50137e-05
-0.00120918 0.000359819 0.000364014 -7.5015e-05
-0.00200589 0.000600034 0.000602508 -4.49844e-05
-0.00159815 0.000477069 0.000480461 -6.18697e-05
-0.00120402 0.000358296 0.000362455 -7.50144e-05
-0.00161188 0.000481149 0.000484599 -6.18707e-05
-0.00160501 0.000479109 0.00048253 -6.18702e-05
-0.00199731 0.000597477 0.00059993 -4.49841e-05
-0.00198017 0.000592363 0.000594774 -4.49835e-05
-0.00118854 0.000353726 0.000357779 -7.50124e-05
-0.00119886 0.000356773 0.000360896 -7.50137e-05
-0.00198874 0.00059492 0.000597352 -4.49838e-05
-0.00158441 0.00047299 0.000476323 -6.18688e-05
-0.0011937 0.000355249 0.000359337 -7.50131e-05
-0.00159815 0.000477069 0.000480461 -6.18697e-05
-0.00159128 0.00047503 0.000478392 -6.18693e-05
-0.00198017 0.000592363 0.000594774 -4.49835e-05
-0.00196302 0.000587249 0.000589618 -4.4983e-05
-0.00117822 0.000350679 0.000354662 -7.50111e-05
-0.00118854 0.000353726 0.000357779 -7.50124e-05
-0.0019716 0.000589806 0.000592196 -4.49832e-05
-0.00157068 0.000468911 0.000472186 -6.18679e-05
-0.00118338 0.000352203 0.00035622 -7.50117e-05
-0.00158441 0.00047299 0.000476323 -6.18688e-05
-0.00157754 0.00047095 0.000474255 -6.18683e-05
-0.00196302 0.000587249 0.000589618 -4.4983e-05
-0.00194588 0.000582135 0.000584463 -4.49824e-05
-0.0011679 0.000347632 0.000351546 -7.50098e-05
-0.00117822 0.000350679 0.000354662 -7.50111e-05
-0.00195445 0.000584692 0.00058704 -4.49827e-05
-0.00155695 0.000464831 0.00046805 -6.18669e-05
-0.00117306 0.000349156 0.000353104 -7.50104e-05
-0.00157068 0.000468911 0.000472186 -6.18679e-05
-0.00156381 0.000466871 0.000470118 -6.18674e-05
-0.00194588 0.000582135 0.000584463 -4.49824e-05
-0.00192874 0.000577021 0.000579308 -4.49818e-05
-0.00115759 0.000344585 0.000348429 -7.50085e-05
-0.0011679 0.000347632 0.000351546 -7.50098e-05
-0.00193731 0.000579578 0.000581885 -4.49821e-05
-0.00154322 0.000460751 0.000463913 -6.1866e-05
-0.00116275 0.000346108 0.000349987 -7.50091e-05
-0.00155695 0.000464831 0.00046805 -6.18669e-05
-0.00155008 0.000462791 0.000465981 -6.18664e-05
-0.00192874 0.000577021 0.000579308 -4.49818e-05
-0.0019116 0.000571907 0.000574153 -4.49812e-05
-0.00114727 0.000341537 0.000345314 -7.50071e-05
-0.00115759 0.000344585 0.000348429 -7.50085e-05
-0.00192017 0.000574464 0.00057673 -4.49815e-05
-0.00152949 0.000456672 0.000459777 -6.1865e-05
-0.00115243 0.000343061 0.000346872 -7.50078e-05
-0.00154322 0.000460751 0.000463913 -6.1866e-05
-0.00153635 0.000458712 0.000461845 -6.18655e-05
-0.0019116 0.000571907 0.000574153 -4.49812e-05
-0.00189446 0.000566793 0.000568998 -4.49806e-05
-0.00113695 0.00033849 0.000342199 -7.50058e-05
-0.00114727 0.000341537 0.000345314 -7.50071e-05
-0.00190303 0.00056935 0.000571576 -4.49809e-05
-0.00151576 0.000452592 0.000455642 -6.18641e-05
-0.00114211 0.000340014 0.000343756 -7.50065e-05
-0.00152949 0.000456672 0.000459777 -6.1865e-05
-0.00152262 0.000454632 0.000457709 -6.18646e-05
-0.00189446 0.000566793 0.000568998 -4.49806e-05
-0.00187732 0.000561679 0.000563844 -4.498e-05
-0.00112664 0.000335442 0.000339084 -7.50045e-05
-0.00113695 0.00033849 0.000342199 -7.50058e-05
-0.00188589 0.000564236 0.000566421 -4.49803e-05
-0.00150203 0.000448512 0.000451506 -6.18631e-05
-0.0011318 0.000336966 0.000340641 -7.50052e-05
-0.00151576 0.000452592 0.000455642 -6.18641e-05
-0.00150889 0.000450552 0.000453574 -6.18636e-05
-0.00187732 0.000561679 0.000563844 -4.498e-05
-0.00186018 0.000556565 0.000558691 -4.49795e-05
-0.00111632 0.000332394 0.000335969 -7.50032e-05
-0.00112664 0.000335442 0.000339084 -7.50045e-05
-0.00186875 0.000559122 0.000561267 -4.49798e-05
-0.0014883 0.000444432 0.000447372 -6.18622e-05
-0.00112148 0.000333918 0.000337527 -7.50039e-05
-0.00150203 0.000448512 0.000451506 -6.18631e-05
-0.00149516 0.000446472 0.000449439 -6.18627e-05
-0.00186018 0.000556565 0.000558691 -4.49795e-05
-0.00184304 0.000551451 0.000553537 -4.49789e-05
-0.00110601 0.000329346 0.000332855 -7.50019e-05
-0.00111632 0.000332394 0.000335969 -7.50032e-05
-0.00185161 0.000554008 0.000556114 -4.49792e-05
-0.00147457 0.000440351 0.000443237 -6.18613e-05
-0.00111117 0.00033087 0.000334412 -7.50025e-05
-0.0014883 0.000444432 0.000447372 -6.18622e-05
-0.00148143 0.000442392 0.000445304 -6.18617e-05
-0.00184304 0.000551451 0.000553537 -4.49789e-05
-0.0018259 0.000546337 0.000548384 -4.49783e-05
-0.0010957 0.000326297 0.000329742 -7.50006e-05
-0.00110601 0.000329346 0.000332855 -7.50019e-05
-0.00183447 0.000548894 0.000550961 -4.49786e-05
-0.00146084 0.000436271 0.000439103 -6.18603e-05
-0.00110085 0.000327822 0.000331299 -7.50012e-05
-0.00147457 0.000440351 0.000443237 -6.18613e-05
-0.00146771 0.000438311 0.00044117 -6.18608e-05
-0.0018259 0.000546337 0.000548384 -4.49783e-05
-0.00180876 0.000541223 0.000543232 -4.49777e-05
-0.00108538 0.000323249 0.000326629 -7.49993e-05
-0.0010957 0.000326297 0.000329742 -7.50006e-05
-0.00181733 0.00054378 0.000545808 -4.4978e-05
-0.00144712 0.000432191 0.000434969 -6.18594e-05
-0.00109054 0.000324773 0.000328185 -7.49999e-05
-0.00146084 0.000436271 0.000439103 -6.18603e-05
-0.00145398 0.000434231 0.000437036 -6.18599e-05
-0.00180876 0.000541223 0.000543232 -4.49777e-05
-0.00179163 0.000536109 0.000538079 -4.49772e-05
-0.00107507 0.0003202 0.000323516 -7.4998e-05
-0.00108538 0.000323249 0.000326629 -7.49993e-05
-0.0018002 0.000538666 0.000540655 -4.49774e-05
-0.00143339 0.00042811 0.000430836 -6.18585e-05
-0.00108023 0.000321724 0.000325072 -7.49986e-05
-0.00144712 0.000432191 0.000434969 -6.18594e-05
-0.00144026 0.00043015 0.000432903 -6.18589e-05
-0.00179163 0.000536109 0.000538079 -4.49772e-05
-0.00177449 0.000530995 0.000532927 -4.49766e-05
-0.00106476 0.000317151 0.000320404 -7.49967e-05
-0.00107507 0.0003202 0.000323516 -7.4998e-05
-0.00178306 0.000533552 0.000535503 -4.49769e-05
-0.00141967 0.000424029 0.000426703 -6.18575e-05
-0.00106992 0.000318676 0.00032196 -7.49973e-05
-0.00143339 0.00042811 0.000430836 -6.18585e-05
-0.00142653 0.00042607 0.00042877 -6.1858e-05
-0.00177449 0.000530995 0.000532927 -4.49766e-05
-0.00175736 0.000525881 0.000527776 -4.4976e-05
-0.00105445 0.000314102 0.000317292 -7.49954e-05
-0.00106476 0.000317151 0.000320404 -7.49967e-05
-0.00176592 0.000528438 0.000530351 -4.49763e-05
-0.00140595 0.000419949 0.000422571 -6.18566e-05
-0.0010596 0.000315627 0.000318848 -7.4996e-05
-0.00141967 0.000424029 0.000426703 -6.18575e-05
-0.00141281 0.000421989 0.000424637 -6.18571e-05
-0.00175736 0.000525881 0.000527776 -4.4976e-05
-0.00174022 0.000520767 0.000522624 -4.49755e-05
-0.00104414 0.000311053 0.00031418 -7.49941e-05
-0.00105445 0.000314102 0.000317292 -7.49954e-05
-0.00174879 0.000523324 0.0005252 -4.49757e-05
-0.00139222 0.000415868 0.000418439 -6.18557e-05
-0.00104929 0.000312577 0.000315736 -7.49947e-05
-0.00140595 0.000419949 0.000422571 -6.18566e-05
-0.00139909 0.000417908 0.000420505 -6.18562e-05
-0.00174022 0.000520767 0.000522624 -4.49755e-05
-0.00172309 0.000515653 0.000517474 -4.49749e-05
-0.00103383 0.000308003 0.000311069 -7.49928e-05
-0.00104414 0.000311053 0.00031418 -7.49941e-05
-0.00173166 0.00051821 0.000520049 -4.49752e-05
-0.0013785 0.000411787 0.000414307 -6.18548e-05
-0.00103899 0.000309528 0.000312625 -7.49935e-05
-0.00139222 0.000415868 0.000418439 -6.18557e-05
-0.00138536 0.000413827 0.000416373 -6.18552e-05
-0.00172309 0.000515653 0.000517474 -4.49749e-05
-0.00170596 0.000510538 0.000512323 -4.49743e-05
-0.00102352 0.000304953 0.000307959 -7.49915e-05
-0.00103383 0.000308003 0.000311069 -7.49928e-05
-0.00171452 0.000513096 0.000514898 -4.49746e-05
-0.00136478 0.000407706 0.000410176 -6.18539e-05
-0.00102868 0.000306478 0.000309514 -7.49922e-05
-0.0013785 0.000411787 0.000414307 -6.18548e-05
-0.00137164 0.000409746 0.000412241 -6.18543e-05
-0.00170596 0.000510538 0.000512323 -4.49743e-05
-0.00168883 0.000505424 0.000507173 -4.49738e-05
-0.00101322 0.000301903 0.000304848 -7.49903e-05
-0.00102352 0.000304953 0.000307959 -7.49915e-05
-0.00169739 0.000507981 0.000509748 -4.49741e-05
-0.00135106 0.000403624 0.000406045 -6.1853e-05
-0.00101837 0.000303428 0.000306403 -7.49909e-05
-0.00136478 0.000407706 0.000410176 -6.18539e-05
-0.00135792 0.000405665 0.00040811 -6.18534e-05
-0.00168883 0.000505424 0.000507173 -4.49738e-05
-0.0016717 0.00050031 0.000502023 -4.49732e-05
-0.00100291 0.000298853 0.000301738 -7.4989e-05
-0.00101322 0.000301903 0.000304848 -7.49903e-05
-0.00168026 0.000502867 0.000504598 -4.49735e-05
-0.00133734 0.000399543 0.000401914 -6.18521e-05
-0.00100806 0.000300378 0.000303293 -7.49896e-05
-0.00135106 0.000403624 0.000406045 -6.1853e-05
-0.0013442 0.000401584 0.00040398 -6.18525e-05
-0.0016717 0.00050031 0.000502023 -4.49732e-05
-0.00165457 0.000495196 0.000496873 -4.49727e-05
-0.000992604 0.000295803 0.000298629 -7.49877e-05
-0.00100291 0.000298853 0.000301738 -7.4989e-05
-0.00166313 0.000497753 0.000499448 -4.49729e-05
-0.00132362 0.000395462 0.000397784 -6.18512e-05
-0.000997757 0.000297328 0.000300184 -7.49884e-05
-0.00133734 0.000399543 0.000401914 -6.18521e-05
-0.00133048 0.000397502 0.000399849 -6.18516e-05
-0.00165457 0.000495196 0.000496873 -4.49727e-05
-0.00163744 0.000490082 0.000491724 -4.49721e-05
-0.000982299 0.000292752 0.00029552 -7.49865e-05
-0.000992604 0.000295803 0.000298629 -7.49877e-05
-0.001646 0.000492639 0.000494299 -4.49724e-05
-0.00130991 0.00039138 0.000393654 -6.18503e-05
-0.000987451 0.000294278 0.000297074 -7.49871e-05
-0.00132362 0.000395462 0.000397784 -6.18512e-05
-0.00131677 0.000393421 0.000395719 -6.18507e-05
-0.00163744 0.000490082 0.000491724 -4.49721e-05
-0.00162031 0.000484968 0.000486575 -4.49716e-05
-0.000971995 0.000289702 0.000292411 -7.49852e-05
-0.000982299 0.000292752 0.00029552 -7.49865e-05
-0.00162887 0.000487525 0.00048915 -4.49719e-05
-0.00129619 0.000387298 0.000389525 -6.18494e-05
-0.000977147 0.000291227 0.000293966 -7.49859e-05
-0.00130991 0.00039138 0.000393654 -6.18503e-05
-0.00130305 0.000389339 0.00039159 -6.18498e-05
-0.00162031 0.000484968 0.000486575 -4.49716e-05
-0.00160318 0.000479853 0.000481427 -4.4971e-05
-0.000961691 0.000286651 0.000289303 -7.4984e-05
-0.000971995 0.000289702 0.000292411 -7.49852e-05
-0.00161175 0.000482411 0.000484001 -4.49713e-05
-0.00128247 0.000383216 0.000385396 -6.18485e-05
-0.000966843 0.000288176 0.000290857 -7.49846e-05
-0.00129619 0.000387298 0.000389525 -6.18494e-05
-0.00128933 0.000385257 0.00038746 -6.18489e-05
-0.00160318 0.000479853 0.000481427 -4.4971e-05
-0.00158606 0.000474739 0.000476279 -4.49705e-05
-0.000951389 0.0002836 0.000286195 -7.49828e-05
-0.000961691 0.000286651 0.000289303 -7.4984e-05
-0.00159462 0.000477296 0.000478853 -4.49708e-05
-0.00126876 0.000379135 0.000381267 -6.18476e-05
-0.00095654 0.000285125 0.000287749 -7.49834e-05
-0.00128247 0.000383216 0.000385396 -6.18485e-05
-0.00127562 0.000381175 0.000383332 -6.18481e-05
-0.00158606 0.000474739 0.000476279 -4.49705e-05
-0.00156893 0.000469625 0.000471131 -4.497e-05
-0.000941087 0.000280548 0.000283088 -7.49815e-05
-0.000951389 0.0002836 0.000286195 -7.49828e-05
-0.00157749 0.000472182 0.000473705 -4.49703e-05
-0.00125504 0.000375052 0.000377139 -6.18468e-05
-0.000946238 0.000282074 0.000284642 -7.49822e-05
-0.00126876 0.000379135 0.000381267 -6.18476e-05
-0.0012619 0.000377093 0.000379203 -6.18472e-05
-0.00156893 0.000469625 0.000471131 -4.497e-05
-0.00155181 0.000464511 0.000465984 -4.49695e-05
-0.000930786 0.000277497 0.000279981 -7.49803e-05
-0.000941087 0.000280548 0.000283088 -7.49815e-05
-0.00156037 0.000467068 0.000468557 -4.49697e-05
-0.00124133 0.00037097 0.000373011 -6.18459e-05
-0.000935936 0.000279022 0.000281534 -7.49809e-05
-0.00125504 0.000375052 0.000377139 -6.18468e-05
-0.00124819 0.000373011 0.000375075 -6.18463e-05
-0.00155181 0.000464511 0.000465984 -4.49695e-05
-0.00153468 0.000459396 0.000460837 -4.4969e-05
-0.000920485 0.000274445 0.000276874 -7.49791e-05
-0.000930786 0.000277497 0.000279981 -7.49803e-05
-0.00154324 0.000461953 0.00046341 -4.49692e-05
-0.00122762 0.000366888 0.000368884 -6.1845e-05
-0.000925635 0.000275971 0.000278428 -7.49797e-05
-0.00124133 0.00037097 0.000373011 -6.18459e-05
-0.00123447 0.000368929 0.000370948 -6.18455e-05
-0.00153468 0.000459396 0.000460837 -4.4969e-05
-0.00151756 0.000454282 0.00045569 -4.49684e-05
-0.000910186 0.000271393 0.000273768 -7.49779e-05
-0.000920485 0.000274445 0.000276874 -7.49791e-05
-0.00152612 0.000456839 0.000458263 -4.49687e-05
-0.0012139 0.000362806 0.000364757 -6.18442e-05
-0.000915335 0.000272919 0.000275321 -7.49785e-05
-0.00122762 0.000366888 0.000368884 -6.1845e-05
-0.00122076 0.000364847 0.00036682 -6.18446e-05
-0.00151756 0.000454282 0.00045569 -4.49684e-05
-0.00150044 0.000449168 0.000450543 -4.49679e-05
-0.000899887 0.000268341 0.000270663 -7.49767e-05
-0.000910186 0.000271393 0.000273768 -7.49779e-05
-0.001509 0.000451725 0.000453117 -4.49682e-05
-0.00120019 0.000358723 0.00036063 -6.18434e-05
-0.000905036 0.000269867 0.000272215 -7.49773e-05
-0.0012139 0.000362806 0.000364757 -6.18442e-05
-0.00120705 0.000360764 0.000362693 -6.18438e-05
-0.00150044 0.000449168 0.000450543 -4.49679e-05
-0.00148331 0.000444053 0.000445397 -4.49674e-05
-0.000889589 0.000265289 0.000267557 -7.49756e-05
-0.000899887 0.000268341 0.000270663 -7.49767e-05
-0.00149187 0.000446611 0.00044797 -4.49677e-05
-0.00118648 0.000354641 0.000356504 -6.18425e-05
-0.000894738 0.000266815 0.00026911 -7.49761e-05
-0.00120019 0.000358723 0.00036063 -6.18434e-05
-0.00119334 0.000356682 0.000358567 -6.18429e-05
-0.00148331 0.000444053 0.000445397 -4.49674e-05
-0.00146619 0.000438939 0.000440252 -4.49669e-05
-0.000879291 0.000262236 0.000264452 -7.49744e-05
-0.000889589 0.000265289 0.000267557 -7.49756e-05
-0.00147475 0.000441496 0.000442824 -4.49672e-05
-0.00117277 0.000350558 0.000352378 -6.18417e-05
-0.00088444 0.000263762 0.000266005 -7.4975e-05
-0.00118648 0.000354641 0.000356504 -6.18425e-05
-0.00117963 0.000352599 0.000354441 -6.18421e-05
-0.00146619 0.000438939 0.000440252 -4.49669e-05
-0.00144907 0.000433825 0.000435106 -4.49664e-05
-0.000868995 0.000259183 0.000261348 -7.49732e-05
-0.000879291 0.000262236 0.000264452 -7.49744e-05
-0.00145763 0.000436382 0.000437679 -4.49667e-05
-0.00115906 0.000346475 0.000348252 -6.18409e-05
-0.000874143 0.00026071 0.0002629 -7.49738e-05
-0.00117277 0.000350558 0.000352378 -6.18417e-05
-0.00116592 0.000348516 0.000350315 -6.18413e-05
-0.00144907 0.000433825 0.000435106 -4.49664e-05
-0.00143195 0.00042871 0.000429961 -4.4966e-05
-0.000858699 0.00025613 0.000258244 -7.49721e-05
-0.000868995 0.000259183 0.000261348 -7.49732e-05
-0.00144051 0.000431267 0.000432534 -4.49662e-05
-0.00114536 0.000342392 0.000344127 -6.18401e-05
-0.000863847 0.000257657 0.000259796 -7.49727e-05
-0.00115906 0.000346475 0.000348252 -6.18409e-05
-0.00115221 0.000344433 0.00034619 -6.18405e-05
-0.00143195 0.00042871 0.000429961 -4.4966e-05
-0.00141483 0.000423596 0.000424817 -4.49655e-05
-0.000848404 0.000253077 0.00025514 -7.49709e-05
-0.000858699 0.00025613 0.000258244 -7.49721e-05
-0.00142339 0.000426153 0.000427389 -4.49657e-05
-0.00113165 0.000338309 0.000340002 -6.18393e-05
-0.000853551 0.000254604 0.000256692 -7.49715e-05
-0.00114536 0.000342392 0.000344127 -6.18401e-05
-0.0011385 0.00034035 0.000342065 -6.18397e-05
-0.00141483 0.000423596 0.000424817 -4.49655e-05
-0.00139772 0.000418481 0.000419672 -4.4965e-05
-0.000838109 0.000250024 0.000252037 -7.49698e-05
-0.000848404 0.000253077 0.00025514 -7.49709e-05
-0.00140628 0.000421038 0.000422244 -4.49653e-05
-0.00111794 0.000334226 0.000335878 -6.18385e-05
-0.000843257 0.000251551 0.000253588 -7.49704e-05
-0.00113165 0.000338309 0.000340002 -6.18393e-05
-0.00112479 0.000336267 0.00033794 -6.18389e-05
-0.00139772 0.000418481 0.000419672 -4.4965e-05
-0.0013806 0.000413367 0.000414528 -4.49646e-05
-0.000827816 0.00024697 0.000248934 -7.49687e-05
-0.000838109 0.000250024 0.000252037 -7.49698e-05
-0.00138916 0.000415924 0.0004171 -4.49648e-05
-0.00110423 0.000330142 0.000331754 -6.18377e-05
-0.000832963 0.000248497 0.000250485 -7.49693e-05
-0.00111794 0.000334226 0.000335878 -6.18385e-05
-0.00111109 0.000332184 0.000333816 -6.18381e-05
-0.0013806 0.000413367 0.000414528 -4.49646e-05
-0.00136348 0.000408252 0.000409384 -4.49641e-05
-0.000817523 0.000243917 0.000245831 -7.49676e-05
-0.000827816 0.00024697 0.000248934 -7.49687e-05
-0.00137204 0.000410809 0.000411956 -4.49643e-05
-0.00109053 0.000326059 0.00032763 -6.1837e-05
-0.000822669 0.000245444 0.000247382 -7.49682e-05
-0.00110423 0.000330142 0.000331754 -6.18377e-05
-0.00109738 0.0003281 0.000329692 -6.18373e-05
-0.00136348 0.000408252 0.000409384 -4.49641e-05
-0.00134637 0.000403138 0.000404241 -4.49637e-05
-0.000807231 0.000240863 0.000242729 -7.49665e-05
-0.000817523 0.000243917 0.000245831 -7.49676e-05
-0.00135492 0.000405695 0.000406813 -4.49639e-05
-0.00107682 0.000321975 0.000323507 -6.18362e-05
-0.000812377 0.00024239 0.00024428 -7.49671e-05
-0.00109053 0.000326059 0.00032763 -6.1837e-05
-0.00108368 0.000324017 0.000325569 -6.18366e-05
-0.00134637 0.000403138 0.000404241 -4.49637e-05
-0.00132925 0.000398023 0.000399098 -4.49632e-05
-0.000796939 0.000237809 0.000239627 -7.49654e-05
-0.000807231 0.000240863 0.000242729 -7.49665e-05
-0.00133781 0.00040058 0.00040167 -4.49634e-05
-0.00106312 0.000317891 0.000319384 -6.18355e-05
-0.000802085 0.000239336 0.000241178 -7.4966e-05
-0.00107682 0.000321975 0.000323507 -6.18362e-05
-0.00106997 0.000319933 0.000321446 -6.18358e-05
-0.00132925 0.000398023 0.000399098 -4.49632e-05
-0.00131214 0.000392908 0.000393955 -4.49628e-05
-0.000786649 0.000234754 0.000236526 -7.49644e-05
-0.000796939 0.000237809 0.000239627 -7.49654e-05
-0.00132069 0.000395466 0.000396527 -4.4963e-05
-0.00104942 0.000313808 0.000315262 -6.18347e-05
-0.000791794 0.000236282 0.000238077 -7.49649e-05
-0.00106312 0.000317891 0.000319384 -6.18355e-05
-0.00105627 0.00031585 0.000317323 -6.18351e-05
-0.00131214 0.000392908 0.000393955 -4.49628e-05
-0.00129502 0.000387794 0.000388813 -4.49624e-05
-0.000776359 0.0002317 0.000233425 -7.49633e-05
-0.000786649 0.000234754 0.000236526 -7.49644e-05
-0.00130358 0.000390351 0.000391384 -4.49626e-05
-0.00103572 0.000309724 0.000311139 -6.1834e-05
-0.000781504 0.000233227 0.000234976 -7.49639e-05
-0.00104942 0.000313808 0.000315262 -6.18347e-05
-0.00104257 0.000311766 0.0003132 -6.18344e-05
-0.00129502 0.000387794 0.000388813 -4.49624e-05
-0.00127791 0.000382679 0.000383671 -4.4962e-05
-0.00076607 0.000228645 0.000230325 -7.49623e-05
-0.000776359 0.0002317 0.000233425 -7.49633e-05
-0.00128647 0.000385236 0.000386242 -4.49622e-05
-0.00102201 0.000305639 0.000307018 -6.18333e-05
-0.000771214 0.000230172 0.000231875 -7.49628e-05
-0.00103572 0.000309724 0.000311139 -6.1834e-05
-0.00102886 0.000307682 0.000309079 -6.18336e-05
-0.00127791 0.000382679 0.000383671 -4.4962e-05
-0.0012608 0.000377564 0.000378529 -4.49615e-05
-0.000755781 0.00022559 0.000227225 -7.49613e-05
-0.00076607 0.000228645 0.000230325 -7.49623e-05
-0.00126936 0.000380122 0.0003811 -4.49617e-05
-0.00100831 0.000301555 0.000302896 -6.18326e-05
-0.000760925 0.000227118 0.000228775 -7.49618e-05
-0.00102201 0.000305639 0.000307018 -6.18333e-05
-0.00101516 0.000303597 0.000304957 -6.18329e-05
-0.0012608 0.000377564 0.000378529 -4.49615e-05
-0.00124369 0.00037245 0.000373388 -4.49611e-05
-0.000745493 0.000222535 0.000224125 -7.49603e-05
-0.000755781 0.00022559 0.000227225 -7.49613e-05
-0.00125224 0.000375007 0.000375959 -4.49613e-05
-0.000994613 0.000297471 0.000298775 -6.18319e-05
-0.000750637 0.000224063 0.000225675 -7.49608e-05
-0.00100831 0.000301555 0.000302896 -6.18326e-05
-0.00100146 0.000299513 0.000300836 -6.18322e-05
-0.00124369 0.00037245 0.000373388 -4.49611e-05
-0.00122658 0.000367335 0.000368247 -4.49608e-05
-0.000735206 0.00021948 0.000221026 -7.49593e-05
-0.000745493 0.000222535 0.000224125 -7.49603e-05
-0.00123513 0.000369892 0.000370818 -4.49609e-05
-0.000980914 0.000293386 0.000294655 -6.18312e-05
-0.00074035 0.000221007 0.000222575 -7.49598e-05
-0.000994613 0.000297471 0.000298775 -6.18319e-05
-0.000987763 0.000295429 0.000296715 -6.18315e-05
-0.00122658 0.000367335 0.000368247 -4.49608e-05
-0.00120947 0.00036222 0.000363106 -4.49604e-05
-0.00072492 0.000216424 0.000217927 -7.49583e-05
-0.000735206 0.00021948 0.000221026 -7.49593e-05
-0.00121802 0.000364778 0.000365677 -4.49606e-05
-0.000967215 0.000289302 0.000290534 -6.18305e-05
-0.000730063 0.000217952 0.000219476 -7.49588e-05
-0.000980914 0.000293386 0.000294655 -6.18312e-05
-0.000974064 0.000291344 0.000292594 -6.18309e-05
-0.00120947 0.00036222 0.000363106 -4.49604e-05
-0.00119236 0.000357105 0.000357966 -4.496e-05
-0.000714635 0.000213368 0.000214828 -7.49573e-05
-0.00072492 0.000216424 0.000217927 -7.49583e-05
-0.00120091 0.000359663 0.000360536 -4.49602e-05
-0.000953517 0.000285217 0.000286414 -6.18299e-05
-0.000719777 0.000214896 0.000216378 -7.49578e-05
-0.000967215 0.000289302 0.000290534 -6.18305e-05
-0.000960366 0.000287259 0.000288474 -6.18302e-05
-0.00119236 0.000357105 0.000357966 -4.496e-05
-0.00117525 0.00035199 0.000352826 -4.49596e-05
-0.00070435 0.000210312 0.00021173 -7.49564e-05
-0.000714635 0.000213368 0.000214828 -7.49573e-05
-0.00118381 0.000354548 0.000355396 -4.49598e-05
-0.00093982 0.000281132 0.000282295 -6.18292e-05
-0.000709492 0.00021184 0.000213279 -7.49568e-05
-0.000953517 0.000285217 0.000286414 -6.18299e-05
-0.000946669 0.000283175 0.000284355 -6.18296e-05
-0.00117525 0.00035199 0.000352826 -4.49596e-05
-0.00115814 0.000346875 0.000347686 -4.49593e-05
-0.000694066 0.000207256 0.000208633 -7.49554e-05
-0.00070435 0.000210312 0.00021173 -7.49564e-05
-0.0011667 0.000349433 0.000350256 -4.49595e-05
-0.000926124 0.000277047 0.000278176 -6.18286e-05
-0.000699208 0.000208784 0.000210181 -7.49559e-05
-0.00093982 0.000281132 0.000282295 -6.18292e-05
-0.000932972 0.00027909 0.000280235 -6.18289e-05
-0.00115814 0.000346875 0.000347686 -4.49593e-05
-0.00114104 0.00034176 0.000342547 -4.49589e-05
-0.000683782 0.0002042 0.000205535 -7.49545e-05
-0.000694066 0.000207256 0.000208633 -7.49554e-05
-0.00114959 0.000344318 0.000345117 -4.49591e-05
-0.000912428 0.000272962 0.000274057 -6.1828e-05
-0.000688924 0.000205728 0.000207084 -7.4955e-05
-0.000926124 0.000277047 0.000278176 -6.18286e-05
-0.000919276 0.000275005 0.000276116 -6.18283e-05
-0.00114104 0.00034176 0.000342547 -4.49589e-05
-0.00112393 0.000336645 0.000337408 -4.49586e-05
-0.0006735 0.000201143 0.000202439 -7.49536e-05
-0.000683782 0.0002042 0.000205535 -7.49545e-05
-0.00113248 0.000339203 0.000339977 -4.49588e-05
-0.000898733 0.000268877 0.000269938 -6.18274e-05
-0.000678641 0.000202671 0.000203987 -7.49541e-05
-0.000912428 0.000272962 0.000274057 -6.1828e-05
-0.000905581 0.000270919 0.000271998 -6.18277e-05
-0.00112393 0.000336645 0.000337408 -4.49586e-05
-0.00110682 0.00033153 0.000332269 -4.49583e-05
-0.000663218 0.000198086 0.000199342 -7.49527e-05
-0.0006735 0.000201143 0.000202439 -7.49536e-05
-0.00111538 0.000334088 0.000334838 -4.49584e-05
-0.000885039 0.000264791 0.00026582 -6.18268e-05
-0.000668359 0.000199615 0.00020089 -7.49532e-05
-0.000898733 0.000268877 0.000269938 -6.18274e-05
-0.000891886 0.000266834 0.000267879 -6.18271e-05
-0.00110682 0.00033153 0.000332269 -4.49583e-05
-0.00108972 0.000326415 0.000327131 -4.49579e-05
-0.000652936 0.000195029 0.000196246 -7.49518e-05
-0.000663218 0.000198086 0.000199342 -7.49527e-05
-0.00109827 0.000328973 0.0003297 -4.49581e-05
-0.000871345 0.000260706 0.000261703 -6.18262e-05
-0.000658077 0.000196558 0.000197794 -7.49523e-05
-0.000885039 0.000264791 0.00026582 -6.18268e-05
-0.000878192 0.000262749 0.000263762 -6.18265e-05
-0.00108972 0.000326415 0.000327131 -4.49579e-05
-0.00107262 0.0003213 0.000321993 -4.49576e-05
-0.000642656 0.000191972 0.00019315 -7.4951e-05
-0.000652936 0.000195029 0.000196246 -7.49518e-05
-0.00108117 0.000323858 0.000324562 -4.49578e-05
-0.000857653 0.00025662 0.000257585 -6.18257e-05
-0.000647796 0.000193501 0.000194698 -7.49514e-05
-0.000871345 0.000260706 0.000261703 -6.18262e-05
-0.000864499 0.000258663 0.000259644 -6.18259e-05
-0.00107262 0.0003213 0.000321993 -4.49576e-05
-0.00105551 0.000316185 0.000316855 -4.49573e-05
-0.000632376 0.000188914 0.000190055 -7.49501e-05
-0.000642656 0.000191972 0.00019315 -7.4951e-05
-0.00106406 0.000318743 0.000319424 -4.49575e-05
-0.000843961 0.000252534 0.000253468 -6.18251e-05
-0.000637516 0.000190443 0.000191603 -7.49506e-05
-0.000857653 0.00025662 0.000257585 -6.18257e-05
-0.000850807 0.000254577 0.000255527 -6.18254e-05
-0.00105551 0.000316185 0.000316855 -4.49573e-05
-0.00103841 0.00031107 0.000311717 -4.49571e-05
-0.000622097 0.000185857 0.00018696 -7.49493e-05
-0.000632376 0.000188914 0.000190055 -7.49501e-05
-0.00104696 0.000313627 0.000314286 -4.49572e-05
-0.000830269 0.000248448 0.000249352 -6.18246e-05
-0.000627236 0.000187386 0.000188507 -7.49497e-05
-0.000843961 0.000252534 0.000253468 -6.18251e-05
-0.000837115 0.000250491 0.00025141 -6.18248e-05
-0.00103841 0.00031107 0.000311717 -4.49571e-05
-0.00102131 0.000305955 0.00030658 -4.49568e-05
-0.000611818 0.000182799 0.000183866 -7.49485e-05
-0.000622097 0.000185857 0.00018696 -7.49493e-05
-0.00102986 0.000308512 0.000309149 -4.49569e-05
-0.000816579 0.000244362 0.000245236 -6.1824e-05
-0.000616958 0.000184328 0.000185413 -7.49489e-05
-0.000830269 0.000248448 0.000249352 -6.18246e-05
-0.000823424 0.000246405 0.000247294 -6.18243e-05
-0.00102131 0.000305955 0.00030658 -4.49568e-05
-0.00100421 0.000300839 0.000301443 -4.49565e-05
-0.000601541 0.000179741 0.000180771 -7.49477e-05
-0.000611818 0.000182799 0.000183866 -7.49485e-05
-0.00101276 0.000303397 0.000304012 -4.49566e-05
-0.000802889 0.000240276 0.00024112 -6.18235e-05
-0.000606679 0.00018127 0.000182318 -7.49481e-05
-0.000816579 0.000244362 0.000245236 -6.1824e-05
-0.000809733 0.000242319 0.000243178 -6.18238e-05
-0.00100421 0.000300839 0.000301443 -4.49565e-05
-0.000987107 0.000295724 0.000296307 -4.49563e-05
-0.000591264 0.000176682 0.000177678 -7.4947e-05
-0.000601541 0.000179741 0.000180771 -7.49477e-05
-0.000995657 0.000298282 0.000298875 -4.49564e-05
-0.000789199 0.00023619 0.000237004 -6.1823e-05
-0.000596402 0.000178212 0.000179224 -7.49473e-05
-0.000802889 0.000240276 0.00024112 -6.18235e-05
-0.000796044 0.000238233 0.000239062 -6.18233e-05
-0.000987107 0.000295724 0.000296307 -4.49563e-05
-0.000970007 0.000290608 0.000291171 -4.4956e-05
-0.000580987 0.000173624 0.000174584 -7.49462e-05
-0.000591264 0.000176682 0.000177678 -7.4947e-05
-0.000978557 0.000293166 0.000293739 -4.49561e-05
-0.000775511 0.000232103 0.000232889 -6.18226e-05
-0.000586125 0.000175153 0.000176131 -7.49466e-05
-0.000789199 0.00023619 0.000237004 -6.1823e-05
-0.000782355 0.000234146 0.000234946 -6.18228e-05
-0.000970007 0.000290608 0.000291171 -4.4956e-05
-0.000952908 0.000285493 0.000286035 -4.49558e-05
-0.000570712 0.000170565 0.000171491 -7.49455e-05
-0.000580987 0.000173624 0.000174584 -7.49462e-05
-0.000961457 0.000288051 0.000288603 -4.49559e-05
-0.000761823 0.000228016 0.000228774 -6.18221e-05
-0.000575849 0.000172094 0.000173038 -7.49458e-05
-0.000775511 0.000232103 0.000232889 -6.18226e-05
-0.000768667 0.00023006 0.000230831 -6.18223e-05
-0.000952908 0.000285493 0.000286035 -4.49558e-05
-0.000935809 0.000280377 0.000280899 -4.49555e-05
-0.000560437 0.000167506 0.000168399 -7.49448e-05
-0.000570712 0.000170565 0.000171491 -7.49455e-05
-0.000944358 0.000282935 0.000283467 -4.49557e-05
-0.000748136 0.00022393 0.00022466 -6.18217e-05
-0.000565574 0.000169036 0.000169945 -7.49451e-05
-0.000761823 0.000228016 0.000228774 -6.18221e-05
-0.000754979 0.000225973 0.000226717 -6.18219e-05
-0.000935809 0.000280377 0.000280899 -4.49555e-05
-0.000918711 0.000275262 0.000275764 -4.49553e-05
-0.000550162 0.000164447 0.000165307 -7.49441e-05
-0.000560437 0.000167506 0.000168399 -7.49448e-05
-0.00092726 0.00027782 0.000278332 -4.49554e-05
-0.000734449 0.000219843 0.000220546 -6.18212e-05
-0.000555299 0.000165977 0.000166853 -7.49444e-05
-0.000748136 0.00022393 0.00022466 -6.18217e-05
-0.000741292 0.000221886 0.000222603 -6.18214e-05
-0.000918711 0.000275262 0.000275764 -4.49553e-05
-0.000901614 0.000270146 0.000270629 -4.49551e-05
-0.000539889 0.000161387 0.000162215 -7.49434e-05
-0.000550162 0.000164447 0.000165307 -7.49441e-05
-0.000910162 0.000272704 0.000273196 -4.49552e-05
-0.000720763 0.000215756 0.000216432 -6.18208e-05
-0.000545025 0.000162917 0.000163761 -7.49437e-05
-0.000734449 0.000219843 0.000220546 -6.18212e-05
-0.000727606 0.000217799 0.000218489 -6.1821e-05
-0.000901614 0.000270146 0.000270629 -4.49551e-05
-0.000884517 0.000265031 0.000265494 -4.49549e-05
-0.000529616 0.000158328 0.000159123 -7.49427e-05
-0.000539889 0.000161387 0.000162215 -7.49434e-05
-0.000893066 0.000267588 0.000268062 -4.4955e-05
-0.000707078 0.000211668 0.000212318 -6.18204e-05
-0.000534752 0.000159858 0.000160669 -7.4943e-05
-0.000720763 0.000215756 0.000216432 -6.18208e-05
-0.000713921 0.000213712 0.000214375 -6.18206e-05
-0.000884517 0.000265031 0.000265494 -4.49549e-05
-0.000867422 0.000259915 0.00026036 -4.49548e-05
-0.000519344 0.000155268 0.000156032 -7.49421e-05
-0.000529616 0.000158328 0.000159123 -7.49427e-05
-0.000875969 0.000262473 0.000262927 -4.49549e-05
-0.000693394 0.000207581 0.000208205 -6.182e-05
-0.00052448 0.000156798 0.000157578 -7.49424e-05
-0.000707078 0.000211668 0.000212318 -6.18204e-05
-0.000700236 0.000209625 0.000210262 -6.18202e-05
-0.000867422 0.000259915 0.00026036 -4.49548e-05
-0.000850326 0.000254799 0.000255226 -4.49546e-05
-0.000509072 0.000152208 0.000152942 -7.49415e-05
-0.000519344 0.000155268 0.000156032 -7.49421e-05
-0.000858874 0.000257357 0.000257793 -4.49547e-05
-0.00067971 0.000203493 0.000204093 -6.18196e-05
-0.000514208 0.000153738 0.000154487 -7.49418e-05
-0.000693394 0.000207581 0.000208205 -6.182e-05
-0.000686552 0.000205537 0.000206149 -6.18198e-05
-0.000850326 0.000254799 0.000255226 -4.49546e-05
-0.000833232 0.000249683 0.000250092 -4.49544e-05
-0.000498801 0.000149148 0.000149851 -7.49409e-05
-0.000509072 0.000152208 0.000152942 -7.49415e-05
-0.000841779 0.000252241 0.000252659 -4.49545e-05
-0.000666027 0.000199406 0.00019998 -6.18193e-05
-0.000503936 0.000150678 0.000151397 -7.49412e-05
-0.00067971 0.000203493 0.000204093 -6.18196e-05
-0.000672868 0.00020145 0.000202036 -6.18195e-05
-0.000833232 0.000249683 0.000250092 -4.49544e-05
-0.000816138 0.000244567 0.000244959 -4.49543e-05
-0.000488531 0.000146087 0.000146762 -7.49403e-05
-0.000498801 0.000149148 0.000149851 -7.49409e-05
-0.000824685 0.000247125 0.000247526 -4.49544e-05
-0.000652344 0.000195318 0.000195868 -6.18189e-05
-0.000493666 0.000147617 0.000148307 -7.49406e-05
-0.000666027 0.000199406 0.00019998 -6.18193e-05
-0.000659185 0.000197362 0.000197924 -6.18191e-05
-0.000816138 0.000244567 0.000244959 -4.49543e-05
-0.000799044 0.000239451 0.000239826 -4.49542e-05
-0.000478261 0.000143026 0.000143672 -7.49397e-05
-0.000488531 0.000146087 0.000146762 -7.49403e-05
-0.000807591 0.000242009 0.000242392 -4.49542e-05
-0.000638662 0.00019123 0.000191757 -6.18186e-05
-0.000483396 0.000144557 0.000145217 -7.494e-05
-0.000652344 0.000195318 0.000195868 -6.18189e-05
-0.000645503 0.000193274 0.000193813 -6.18188e-05
-0.000799044 0.000239451 0.000239826 -4.49542e-05
-0.000781952 0.000234335 0.000234693 -4.4954e-05
-0.000467992 0.000139965 0.000140583 -7.49392e-05
-0.000478261 0.000143026 0.000143672 -7.49397e-05
-0.000790498 0.000236893 0.000237259 -4.49541e-05
-0.000624981 0.000187142 0.000187645 -6.18183e-05
-0.000473127 0.000141496 0.000142128 -7.49394e-05
-0.000638662 0.00019123 0.000191757 -6.18186e-05
-0.000631822 0.000189186 0.000189701 -6.18185e-05
-0.000781952 0.000234335 0.000234693 -4.4954e-05
-0.00076486 0.000229219 0.00022956 -4.49539e-05
-0.000457724 0.000136904 0.000137494 -7.49386e-05
-0.000467992 0.000139965 0.000140583 -7.49392e-05
-0.000773406 0.000231777 0.000232127 -4.4954e-05
-0.000611301 0.000183053 0.000183534 -6.1818e-05
-0.000462858 0.000138435 0.000139039 -7.49389e-05
-0.000624981 0.000187142 0.000187645 -6.18183e-05
-0.000618141 0.000185098 0.00018559 -6.18182e-05
-0.00076486 0.000229219 0.00022956 -4.49539e-05
-0.000747768 0.000224103 0.000224428 -4.49538e-05
-0.000447457 0.000133843 0.000134406 -7.49381e-05
-0.000457724 0.000136904 0.000137494 -7.49386e-05
-0.000756314 0.000226661 0.000226994 -4.49539e-05
-0.000597621 0.000178965 0.000179424 -6.18177e-05
-0.00045259 0.000135373 0.00013595 -7.49384e-05
-0.000611301 0.000183053 0.000183534 -6.1818e-05
-0.000604461 0.000181009 0.000181479 -6.18179e-05
-0.000747768 0.000224103 0.000224428 -4.49538e-05
-0.000730677 0.000218986 0.000219296 -4.49538e-05
-0.00043719 0.000130781 0.000131318 -7.49377e-05
-0.000447457 0.000133843 0.000134406 -7.49381e-05
-0.000739223 0.000221545 0.000221862 -4.49538e-05
-0.000583941 0.000174876 0.000175314 -6.18175e-05
-0.000442323 0.000132312 0.000132862 -7.49379e-05
-0.000597621 0.000178965 0.000179424 -6.18177e-05
-0.000590781 0.000176921 0.000177369 -6.18176e-05
-0.000730677 0.000218986 0.000219296 -4.49538e-05
-0.000713587 0.00021387 0.000214164 -4.49537e-05
-0.000426923 0.000127719 0.00012823 -7.49372e-05
-0.00043719 0.000130781 0.000131318 -7.49377e-05
-0.000722132 0.000216428 0.00021673 -4.49537e-05
-0.000570263 0.000170788 0.000171204 -6.18173e-05
-0.000432056 0.00012925 0.000129774 -7.49374e-05
-0.000583941 0.000174876 0.000175314 -6.18175e-05
-0.000577102 0.000172832 0.000173259 -6.18174e-05
-0.000713587 0.00021387 0.000214164 -4.49537e-05
-0.000696498 0.000208754 0.000209033 -4.49536e-05
-0.000416658 0.000124657 0.000125143 -7.49368e-05
-0.000426923 0.000127719 0.00012823 -7.49372e-05
-0.000705042 0.000211312 0.000211599 -4.49537e-05
-0.000556585 0.000166699 0.000167094 -6.1817e-05
-0.00042179 0.000126188 0.000126687 -7.4937e-05
-0.000570263 0.000170788 0.000171204 -6.18173e-05
-0.000563424 0.000168743 0.000169149 -6.18171e-05
-0.000696498 0.000208754 0.000209033 -4.49536e-05
-0.000679409 0.000203637 0.000203902 -4.49536e-05
-0.000406393 0.000121595 0.000122056 -7.49363e-05
-0.000416658 0.000124657 0.000125143 -7.49368e-05
-0.000687953 0.000206195 0.000206468 -4.49536e-05
-0.000542908 0.00016261 0.000162985 -6.18168e-05
-0.000411525 0.000123126 0.0001236 -7.49365e-05
-0.000556585 0.000166699 0.000167094 -6.1817e-05
-0.000549746 0.000164654 0.000165039 -6.18169e-05
-0.000679409 0.000203637 0.000203902 -4.49536e-05
-0.00066232 0.000198521 0.000198771 -4.49535e-05
-0.000396128 0.000118532 0.00011897 -7.49359e-05
-0.000406393 0.000121595 0.000122056 -7.49363e-05
-0.000670864 0.000201079 0.000201337 -4.49536e-05
-0.000529231 0.00015852 0.000158876 -6.18166e-05
-0.000401261 0.000120063 0.000120513 -7.49361e-05
-0.000542908 0.00016261 0.000162985 -6.18168e-05
-0.000536069 0.000160565 0.00016093 -6.18167e-05
-0.00066232 0.000198521 0.000198771 -4.49535e-05
-0.000645232 0.000193404 0.000193641 -4.49535e-05
-0.000385865 0.000115469 0.000115884 -7.49356e-05
-0.000396128 0.000118532 0.00011897 -7.49359e-05
-0.000653776 0.000195962 0.000196206 -4.49535e-05
-0.000515555 0.000154431 0.000154767 -6.18165e-05
-0.000390997 0.000117001 0.000117427 -7.49357e-05
-0.000529231 0.00015852 0.000158876 -6.18166e-05
-0.000522393 0.000156476 0.000156822 -6.18166e-05
-0.000645232 0.000193404 0.000193641 -4.49535e-05
-0.000628145 0.000188287 0.000188511 -4.49535e-05
-0.000375602 0.000112406 0.000112798 -7.49352e-05
-0.000385865 0.000115469 0.000115884 -7.49356e-05
-0.000636689 0.000190846 0.000191076 -4.49535e-05
-0.000501879 0.000150341 0.000150659 -6.18163e-05
-0.000380733 0.000113938 0.000114341 -7.49354e-05
-0.000515555 0.000154431 0.000154767 -6.18165e-05
-0.000508717 0.000152386 0.000152713 -6.18164e-05
-0.000628145 0.000188287 0.000188511 -4.49535e-05
-0.000611059 0.00018317 0.000183381 -4.49535e-05
-0.000365339 0.000109343 0.000109713 -7.49349e-05
-0.000375602 0.000112406 0.000112798 -7.49352e-05
-0.000619602 0.000185729 0.000185946 -4.49535e-05
-0.000488205 0.000146251 0.000146551 -6.18162e-05
-0.00037047 0.000110874 0.000111255 -7.4935e-05
-0.000501879 0.000150341 0.000150659 -6.18163e-05
-0.000495042 0.000148296 0.000148605 -6.18162e-05
-0.000611059 0.00018317 0.000183381 -4.49535e-05
-0.000593973 0.000178054 0.000178251 -4.49535e-05
-0.000355078 0.000106279 0.000106628 -7.49346e-05
-0.000365339 0.000109343 0.000109713 -7.49349e-05
-0.000602516 0.000180612 0.000180816 -4.49535e-05
-0.00047453 0.000142162 0.000142444 -6.18161e-05
-0.000360208 0.000107811 0.00010817 -7.49347e-05
-0.000488205 0.000146251 0.000146551 -6.18162e-05
-0.000481367 0.000144207 0.000144498 -6.18161e-05
-0.000593973 0.000178054 0.000178251 -4.49535e-05
-0.000576887 0.000172937 0.000173122 -4.49536e-05
-0.000344816 0.000103215 0.000103543 -7.49343e-05
-0.000355078 0.000106279 0.000106628 -7.49346e-05
-0.00058543 0.000175495 0.000175686 -4.49536e-05
-0.000460857 0.000138071 0.000138337 -6.1816e-05
-0.000349947 0.000104747 0.000105086 -7.49344e-05
-0.00047453 0.000142162 0.000142444 -6.18161e-05
-0.000467694 0.000140117 0.00014039 -6.1816e-05
-0.000576887 0.000172937 0.000173122 -4.49536e-05
-0.000559802 0.00016782 0.000167993 -4.49536e-05
-0.000334556 0.000100151 0.000100459 -7.4934e-05
-0.000344816 0.000103215 0.000103543 -7.49343e-05
-0.000568345 0.000170378 0.000170557 -4.49536e-05
-0.000447184 0.000133981 0.00013423 -6.18159e-05
-0.000339686 0.000101684 0.000102001 -7.49341e-05
-0.000460857 0.000138071 0.000138337 -6.1816e-05
-0.00045402 0.000136026 0.000136283 -6.18159e-05
-0.000559802 0.00016782 0.000167993 -4.49536e-05
-0.000542718 0.000162702 0.000162864 -4.49537e-05
-0.000324296 9.70872e-05 9.73752e-05 -7.49337e-05
-0.000334556 0.000100151 0.000100459 -7.4934e-05
-0.00055126 0.000165261 0.000165428 -4.49536e-05
-0.000433511 0.000129891 0.000130123 -6.18158e-05
-0.000329426 9.86194e-05 9.89171e-05 -7.49339e-05
-0.000447184 0.000133981 0.00013423 -6.18159e-05
-0.000440348 0.000131936 0.000132176 -6.18158e-05
-0.000542718 0.000162702 0.000162864 -4.49537e-05
-0.000525634 0.000157585 0.000157735 -4.49537e-05
-0.000314037 9.40227e-05 9.42917e-05 -7.49335e-05
-0.000324296 9.70872e-05 9.73752e-05 -7.49337e-05
-0.000534176 0.000160144 0.000160299 -4.49537e-05
-0.00041984 0.0001258 0.000126017 -6.18157e-05
-0.000319166 9.5555e-05 9.58334e-05 -7.49336e-05
-0.000433511 0.000129891 0.000130123 -6.18158e-05
-0.000426675 0.000127845 0.00012807 -6.18158e-05
-0.000525634 0.000157585 0.000157735 -4.49537e-05
-0.000508551 0.000152468 0.000152607 -4.49538e-05
-0.000303778 9.0958e-05 9.12086e-05 -7.49332e-05
-0.000314037 9.40227e-05 9.42917e-05 -7.49335e-05
-0.000517092 0.000155026 0.000155171 -4.49537e-05
-0.000406168 0.000121709 0.000121911 -6.18157e-05
-0.000308907 9.24904e-05 9.27501e-05 -7.49334e-05
-0.00041984 0.0001258 0.000126017 -6.18157e-05
-0.000413004 0.000123755 0.000123964 -6.18157e-05
-0.000508551 0.000152468 0.000152607 -4.49538e-05
-0.000491468 0.00014735 0.000147479 -4.49538e-05
-0.00029352 8.7893e-05 8.81259e-05 -7.4933e-05
-0.000303778 9.0958e-05 9.12086e-05 -7.49332e-05
-0.000500009 0.000149909 0.000150043 -4.49538e-05
-0.000392498 0.000117618 0.000117805 -6.18156e-05
-0.000298649 8.94255e-05 8.96672e-05 -7.49331e-05
-0.000406168 0.000121709 0.000121911 -6.18157e-05
-0.000399333 0.000119664 0.000119858 -6.18157e-05
-0.000491468 0.00014735 0.000147479 -4.49538e-05
-0.000474386 0.000142233 0.000142351 -4.49539e-05
-0.000283263 8.48277e-05 8.50435e-05 -7.49328e-05
-0.00029352 8.7893e-05 8.81259e-05 -7.4933e-05
-0.000482927 0.000144792 0.000144915 -4.49539e-05
-0.000378828 0.000113527 0.0001137 -6.18156e-05
-0.000288391 8.63604e-05 8.65846e-05 -7.49329e-05
-0.000392498 0.000117618 0.000117805 -6.18156e-05
-0.000385663 0.000115573 0.000115753 -6.18156e-05
-0.000474386 0.000142233 0.000142351 -4.49539e-05
-0.000457305 0.000137115 0.000137224 -4.49539e-05
-0.000273006 8.17622e-05 8.19615e-05 -7.49325e-05
-0.000283263 8.48277e-05 8.50435e-05 -7.49328e-05
-0.000465845 0.000139674 0.000139788 -4.49539e-05
-0.000365158 0.000109436 0.000109595 -6.18155e-05
-0.000278134 8.3295e-05 8.35024e-05 -7.49327e-05
-0.000378828 0.000113527 0.0001137 -6.18156e-05
-0.000371993 0.000111482 0.000111648 -6.18155e-05
-0.000457305 0.000137115 0.000137224 -4.49539e-05
-0.000440224 0.000131998 0.000132097 -4.49539e-05
-0.000262749 7.86964e-05 7.88799e-05 -7.49323e-05
-0.000273006 8.17622e-05 8.19615e-05 -7.49325e-05
-0.000448764 0.000134556 0.00013466 -4.49539e-05
-0.00035149 0.000105344 0.000105491 -6.18154e-05
-0.000267877 8.02293e-05 8.04206e-05 -7.49324e-05
-0.000365158 0.000109436 0.000109595 -6.18155e-05
-0.000358324 0.00010739 0.000107543 -6.18154e-05
-0.000440224 0.000131998 0.000132097 -4.49539e-05
-0.000423143 0.00012688 0.00012697 -4.49539e-05
-0.000252494 7.56303e-05 7.57986e-05 -7.4932e-05
-0.000262749 7.86964e-05 7.88799e-05 -7.49323e-05
-0.000431683 0.000129439 0.000129533 -4.49539e-05
-0.000337821 0.000101253 0.000101387 -6.18152e-05
-0.000257621 7.71634e-05 7.73392e-05 -7.49321e-05
-0.00035149 0.000105344 0.000105491 -6.18154e-05
-0.000344655 0.000103299 0.000103439 -6.18153e-05
-0.000423143 0.00012688 0.00012697 -4.49539e-05
-0.000406063 0.000121762 0.000121843 -4.49538e-05
-0.000242239 7.2564e-05 7.27177e-05 -7.49316e-05
-0.000252494 7.56303e-05 7.57986e-05 -7.4932e-05
-0.000414603 0.000124321 0.000124407 -4.49538e-05
-0.000324154 9.71607e-05 9.72827e-05 -6.1815e-05
-0.000247366 7.40972e-05 7.42581e-05 -7.49318e-05
-0.000337821 0.000101253 0.000101387 -6.18152e-05
-0.000330987 9.92067e-05 9.93346e-05 -6.18151e-05
-0.000406063 0.000121762 0.000121843 -4.49538e-05
-0.000388984 0.000116644 0.000116717 -4.49537e-05
-0.000231984 6.94974e-05 6.96371e-05 -7.49313e-05
-0.000242239 7.2564e-05 7.27177e-05 -7.49316e-05
-0.000397524 0.000119203 0.00011928 -4.49537e-05
-0.000310487 9.30687e-05 9.31791e-05 -6.18148e-05
-0.000237111 7.10307e-05 7.11773e-05 -7.49315e-05
-0.000324154 9.71607e-05 9.72827e-05 -6.1815e-05
-0.00031732 9.51147e-05 9.52308e-05 -6.18149e-05
-0.000388984 0.000116644 0.000116717 -4.49537e-05
-0.000371905 0.000111526 0.000111591 -4.49535e-05
-0.00022173 6.64307e-05 6.65569e-05 -7.49309e-05
-0.000231984 6.94974e-05 6.96371e-05 -7.49313e-05
-0.000380445 0.000114085 0.000114154 -4.49536e-05
-0.00029682 8.89765e-05 8.90758e-05 -6.18145e-05
-0.000226857 6.79641e-05 6.80969e-05 -7.49311e-05
-0.000310487 9.30687e-05 9.31791e-05 -6.18148e-05
-0.000303653 9.10226e-05 9.11274e-05 -6.18147e-05
-0.000371905 0.000111526 0.000111591 -4.49535e-05
-0.000354827 0.000106408 0.000106465 -4.49534e-05
-0.000211477 6.33638e-05 6.34769e-05 -7.49305e-05
-0.00022173 6.64307e-05 6.65569e-05 -7.49309e-05
-0.000363366 0.000108967 0.000109028 -4.49535e-05
-0.000283154 8.48842e-05 8.49728e-05 -6.18143e-05
-0.000216603 6.48972e-05 6.50169e-05 -7.49307e-05
-0.00029682 8.89765e-05 8.90758e-05 -6.18145e-05
-0.000289987 8.69303e-05 8.70243e-05 -6.18144e-05
-0.000354827 0.000106408 0.000106465 -4.49534e-05
-0.00033775 0.00010129 0.00010134 -4.49535e-05
-0.000201224 6.02969e-05 6.03973e-05 -7.49303e-05
-0.000211477 6.33638e-05 6.34769e-05 -7.49305e-05
-0.000346289 0.000103849 0.000103903 -4.49534e-05
-0.000269489 8.07919e-05 8.08701e-05 -6.18142e-05
-0.00020635 6.18304e-05 6.19371e-05 -7.49304e-05
-0.000283154 8.48842e-05 8.49728e-05 -6.18143e-05
-0.000276321 8.2838e-05 8.29214e-05 -6.18143e-05
-0.00033775 0.00010129 0.00010134 -4.49535e-05
-0.000320673 9.61718e-05 9.62147e-05 -4.49537e-05
-0.000190972 5.72302e-05 5.73179e-05 -7.49302e-05
-0.000201224 6.02969e-05 6.03973e-05 -7.49303e-05
-0.000329211 9.87308e-05 9.87773e-05 -4.49535e-05
-0.000255824 7.66996e-05 7.67676e-05 -6.18144e-05
-0.000196098 5.87635e-05 5.88576e-05 -7.49302e-05
-0.000269489 8.07919e-05 8.08701e-05 -6.18142e-05
-0.000262656 7.87457e-05 7.88188e-05 -6.18143e-05
-0.000320673 9.61718e-05 9.62147e-05 -4.49537e-05
-0.000303596 9.10539e-05 9.10897e-05 -4.49545e-05
-0.000180721 5.41638e-05 5.42388e-05 -7.49306e-05
-0.000190972 5.72302e-05 5.73179e-05 -7.49302e-05
-0.000312135 9.36128e-05 9.36522e-05 -4.4954e-05
-0.00024216 7.26076e-05 7.26654e-05 -6.18151e-05
-0.000185846 5.56969e-05 5.57783e-05 -7.49303e-05
-0.000255824 7.66996e-05 7.67676e-05 -6.18144e-05
-0.000248992 7.46536e-05 7.47165e-05 -6.18147e-05
-0.000303596 9.10539e-05 9.10897e-05 -4.49545e-05
-0.00028652 8.5936e-05 8.59647e-05 -4.49559e-05
-0.000170471 5.10978e-05 5.11599e-05 -7.49318e-05
-0.000180721 5.41638e-05 5.42388e-05 -7.49306e-05
-0.000295058 8.84949e-05 8.85272e-05 -4.49551e-05
-0.000228497 6.85158e-05 6.85634e-05 -6.18166e-05
-0.000175596 5.26307e-05 5.26993e-05 -7.49311e-05
-0.00024216 7.26076e-05 7.26654e-05 -6.18151e-05
-0.000235329 7.05617e-05 7.06144e-05 -6.18158e-05
-0.00028652 8.5936e-05 8.59647e-05 -4.49559e-05
-0.000269445 8.0818e-05 8.084e-05 -4.49582e-05
-0.000160222 4.8032e-05 4.80814e-05 -7.49342e-05
-0.000170471 5.10978e-05 5.11599e-05 -7.49318e-05
-0.000277983 8.3377e-05 8.34023e-05 -4.49569e-05
-0.000214834 6.4424e-05 6.44617e-05 -6.18191e-05
-0.000165346 4.95649e-05 4.96206e-05 -7.49328e-05
-0.000228497 6.85158e-05 6.85634e-05 -6.18166e-05
-0.000221666 6.64699e-05 6.65125e-05 -6.18177e-05
-0.000269445 8.0818e-05 8.084e-05 -4.49582e-05
-0.000252369 7.56994e-05 7.57155e-05 -4.49612e-05
-0.000149973 4.49654e-05 4.50031e-05 -7.49385e-05
-0.000160222 4.8032e-05 4.80814e-05 -7.49342e-05
-0.000260907 7.82588e-05 7.82777e-05 -4.49597e-05
-0.000201172 6.03312e-05 6.03603e-05 -6.18226e-05
-0.000155097 4.64989e-05 4.65422e-05 -7.49361e-05
-0.000214834 6.4424e-05 6.44617e-05 -6.18191e-05
-0.000208003 6.23778e-05 6.24109e-05 -6.18208e-05
-0.000252369 7.56994e-05 7.57155e-05 -4.49612e-05
-0.000235292 7.05789e-05 7.05915e-05 -4.49639e-05
-0.000139722 4.18951e-05 4.19257e-05 -7.49451e-05
-0.000149973 4.49654e-05 4.50031e-05 -7.49385e-05
-0.000243831 7.31395e-05 7.31534e-05 -4.49627e-05
-0.000187508 5.62351e-05 5.62598e-05 -6.18264e-05
-0.000144847 4.3431e-05 4.34642e-05 -7.49415e-05
-0.000201172 6.03312e-05 6.03603e-05 -6.18226e-05
-0.00019434 5.82838e-05 5.83099e-05 -6.18245e-05
-0.000235292 7.05789e-05 7.05915e-05 -4.49639e-05
-0.000218215 6.54538e-05 6.54692e-05 -4.49623e-05
-0.000129462 3.88147e-05 3.8849e-05 -7.49553e-05
-0.000139722 4.18951e-05 4.19257e-05 -7.49451e-05
-0.000226754 6.80171e-05 6.803e-05 -4.49641e-05
-0.000173839 5.21305e-05 5.21607e-05 -6.18281e-05
-0.000134594 4.03568e-05 4.03873e-05 -7.49497e-05
-0.000187508 5.62351e-05 5.62598e-05 -6.18264e-05
-0.000180674 5.41845e-05 5.42099e-05 -6.18279e-05
-0.000218215 6.54538e-05 6.54692e-05 -4.49623e-05
-0.000201134 6.03186e-05 6.03494e-05 -4.49496e-05
-0.000119185 3.57107e-05 3.57746e-05 -7.4969e-05
-0.000129462 3.88147e-05 3.8849e-05 -7.49553e-05
-0.000209676 6.2888e-05 6.2909e-05 -4.4958e-05
-0.000160156 4.8006e-05 4.80644e-05 -6.18218e-05
-0.000124326 3.72668e-05 3.73112e-05 -7.49618e-05
-0.000173839 5.21305e-05 5.21607e-05 -6.18281e-05
-0.000167 5.00716e-05 5.01121e-05 -6.18262e-05
-0.000201134 6.03186e-05 6.03494e-05 -4.49496e-05
-0.000184049 5.51626e-05 5.52372e-05 -4.49064e-05
-0.000108859 3.25588e-05 3.27002e-05 -7.49884e-05
-0.000119185 3.57107e-05 3.57746e-05 -7.4969e-05
-0.000192591 5.77439e-05 5.77917e-05 -4.49338e-05
-0.000146444 4.38422e-05 4.39722e-05 -6.17958e-05
-0.000114031 3.41433e-05 3.42377e-05 -7.49777e-05
-0.000160156 4.8006e-05 4.80644e-05 -6.18218e-05
-0.000153305 4.59314e-05 4.60173e-05 -6.1813e-05
-0.000184049 5.51626e-05 5.52372e-05 -4.49064e-05
-0.000166945 4.99681e-05 5.01331e-05 -4.48057e-05
-9.84494e-05 2.93137e-05 2.96296e-05 -7.50114e-05
-0.000108859 3.25588e-05 3.27002e-05 -7.49884e-05
-0.000175503 5.25725e-05 5.26844e-05 -4.48653e-05
-0.000132668 3.95989e-05 3.98868e-05 -6.17278e-05
-0.000103666 3.09511e-05 3.11636e-05 -7.5e-05
-0.000146444 4.38422e-05 4.39722e-05 -6.17958e-05
-0.000139567 4.17327e-05 4.1929e-05 -6.17678e-05
-0.000166945 4.99681e-05 5.01331e-05 -4.48057e-05
-0.000149828 4.47e-05 4.50549e-05 -4.45787e-05
-8.78521e-05 2.5909e-05 2.6547e-05 -7.5048e-05
-9.84494e-05 2.93137e-05 2.96296e-05 -7.50114e-05
-0.000158385 4.73442e-05 4.75889e-05 -4.47147e-05
-0.000118772 3.52227e-05 3.58067e-05 -6.15814e-05
-9.31856e-05 2.76383e-05 2.80917e-05 -7.50264e-05
-0.000132668 3.95989e-05 3.98868e-05 -6.17278e-05
-0.000125739 3.7435e-05 3.78446e-05 -6.16704e-05
-0.000149828 4.47e-05 4.50549e-05 -4.45787e-05
-0.000132624 3.93175e-05 3.99883e-05 -4.41555e-05
-7.69694e-05 2.2236e-05 2.34572e-05 -7.50953e-05
-8.78521e-05 2.5909e-05 2.6547e-05 -7.5048e-05
-0.00014125 4.20316e-05 4.2522e-05 -4.43964e-05
-0.000104636 3.06026e-05 3.17287e-05 -6.13047e-05
-8.24471e-05 2.41104e-05 2.50015e-05 -7.50719e-05
-0.000118772 3.52227e-05 3.58067e-05 -6.15814e-05
-0.000111745 3.29452e-05 3.37711e-05 -6.14575e-05
-0.000132624 3.93175e-05 3.99883e-05 -4.41555e-05
-0.000115351 3.37209e-05 3.49844e-05 -4.33521e-05
-6.55249e-05 1.82016e-05 2.02814e-05 -7.52165e-05
-7.69694e-05 2.2236e-05 2.34572e-05 -7.50953e-05
-0.000123981 3.65407e-05 3.74742e-05 -4.38194e-05
-9.01107e-05 2.56546e-05 2.76241e-05 -6.08368e-05
-7.13512e-05 2.02764e-05 2.18892e-05 -7.51378e-05
-0.000104636 3.06026e-05 3.17287e-05 -6.13047e-05
-9.74304e-05 2.81886e-05 2.96751e-05 -6.11113e-05
-0.000115351 3.37209e-05 3.49844e-05 -4.33521e-05
-9.76911e-05 2.78846e-05 2.99171e-05 -4.2098e-05
-5.34021e-05 1.37032e-05 1.70138e-05 -7.54465e-05
-6.55249e-05 1.82016e-05 2.02814e-05 -7.52165e-05
-0.000106625 3.0864e-05 3.24689e-05 -4.27819e-05
-7.48489e-05 2.01767e-05 2.34309e-05 -6.01734e-05
-5.9529e-05 1.59933e-05 1.86581e-05 -7.53187e-05
-9.01107e-05 2.56546e-05 2.76241e-05 -6.08368e-05
-8.2607e-05 2.29648e-05 2.5561e-05 -6.05009e-05
-9.76911e-05 2.78846e-05 2.99171e-05 -4.2098e-05
-7.96682e-05 2.15718e-05 2.48984e-05 -4.01123e-05
-4.01661e-05 9.04942e-06 1.33357e-05 -7.61149e-05
-5.34021e-05 1.37032e-05 1.70138e-05 -7.54465e-05
-8.86666e-05 2.47303e-05 2.74013e-05 -4.12215e-05
-5.86257e-05 1.4365e-05 1.89689e-05 -5.94521e-05
-4.69969e-05 1.13873e-05 1.52613e-05 -7.56857e-05
-7.48489e-05 2.01767e-05 2.34309e-05 -6.01734e-05
-6.68504e-05 1.73382e-05 2.12195e-05 -5.98531e-05
-7.96682e-05 2.15718e-05 2.48984e-05 -4.01123e-05
-6.00466e-05 1.52911e-05 1.9181e-05 -3.79849e-05
-2.64792e-05 4.99806e-06 9.2062e-06 -7.7427e-05
-4.01661e-05 9.04942e-06 1.33357e-05 -7.61149e-05
-7.02701e-05 1.85286e-05 2.2175e-05 -3.90011e-05
-4.07171e-05 8.44689e-06 1.38301e-05 -5.93991e-05
-3.32225e-05 6.77136e-06 1.13362e-05 -7.66836e-05
-5.86257e-05 1.4365e-05 1.89689e-05 -5.94521e-05
-4.99796e-05 1.12523e-05 1.65974e-05 -5.91605e-05
-6.00466e-05 1.52911e-05 1.9181e-05 -3.79849e-05
-3.89918e-05 9.08969e-06 1.28152e-05 -3.66841e-05
-1.32369e-05 4.86972e-06 3.58592e-06 -8.0136e-05
-2.64792e-05 4.99806e-06 9.2062e-06 -7.7427e-05
-4.94648e-05 1.1758e-05 1.61601e-05 -3.70862e-05
-2.21915e-05 5.61676e-06 7.10345e-06 -6.15831e-05
-1.9847e-05 4.23539e-06 6.69069e-06 -7.85382e-05
-4.07171e-05 8.44689e-06 1.38301e-05 -5.93991e-05
-3.13003e-05 6.46083e-06 1.06455e-05 -6.02557e-05
-3.89918e-05 9.08969e-06 1.28152e-05 -3.66841e-05
-1.4706e-05 9.64178e-06 2.17038e-06 -4.27667e-05
-6.28455e-06 1.4537e-05 -3.53675e-06 -8.19978e-05
-1.32369e-05 4.86972e-06 3.58592e-06 -8.0136e-05
-2.77112e-05 8.43573e-06 8.2609e-06 -3.81656e-05
-5.42962e-06 1.29267e-05 -3.21306e-06 -6.90493e-05
-8.1992e-06 7.60524e-06 2.54558e-07 -8.14872e-05
-2.21915e-05 5.61676e-06 7.10345e-06 -6.15831e-05
-1.35236e-05 6.74883e-06 2.90346e-06 -6.40476e-05
-1.4706e-05 9.64178e-06 2.17038e-06 -4.27667e-05
-3.48795e-06 3.75192e-05 -1.45848e-05 -6.43996e-05
-9.82348e-06 4.48744e-05 -1.50218e-05 -7.50404e-05
-6.28455e-06 1.4537e-05 -3.53675e-06 -8.19978e-05
-4.96773e-06 1.49533e-05 -4.27952e-06 -5.05535e-05
-1.04978e-05 5.14225e-05 -1.75391e-05 -7.46258e-05
-6.99273e-06 2.7372e-05 -8.73397e-06 -8.06434e-05
-5.42962e-06 1.29267e-05 -3.21306e-06 -6.90493e-05
-2.79314e-06 2.73401e-05 -1.05201e-05 -7.40756e-05
-3.48795e-06 3.75192e-05 -1.45848e-05 -6.43996e-05
-4.88277e-05 0.000167561 -5.08858e-05 -6.42662e-05
-2.02391e-05 8.11198e-05 -2.60917e-05 -3.96033e-05
-9.82348e-06 4.48744e-05 -1.50218e-05 -7.50404e-05
-1.61478e-05 8.94209e-05 -3.14028e-05 -7.53283e-05
-3.84356e-05 0.00012026 -3.50676e-05 -3.78161e-05
-1.43736e-05 6.44631e-05 -2.14669e-05 -6.19345e-05
-1.04978e-05 5.14225e-05 -1.75391e-05 -7.46258e-05
-2.39203e-05 8.46295e-05 -2.60182e-05 -6.45095e-05
-0.00166189 0 0.000712237 0.000219444
-0.00187806 0.000246034 0.000699441 -5.96439e-06
-0.000613897 8.04576e-05 0.000228617 0.000113085
-0.000604436 -1.11022e-16 0.000259044 0.000341157
-0.00180009 0.000138261 0.00071221 8.33678e-05
-0.00124586 0.000163296 0.000463954 6.74075e-05
-0.000589816 3.38732e-05 0.000238261 0.000215087
-0.00110885 0 0.000475222 0.000312443
-0.00119478 7.7726e-05 0.000478738 0.000155183
-0.00187806 0.000246034 0.000699441 -5.96439e-06
-0.00197329 0.000450051 0.000652815 -7.61954e-05
-0.000660411 0.000132452 0.000226268 -2.32322e-05
-0.000613897 8.04576e-05 0.000228617 0.000113085
-0.00192583 0.000354585 0.00067339 -5.12395e-05
-0.00130888 0.000279998 0.000440951 -4.20855e-05
-0.000647239 0.000111641 0.000229542 3.29367e-05
-0.00124586 0.000163296 0.000463954 6.74075e-05
-0.00127846 0.000229768 0.00044944 8.08046e-06
-0.00197329 0.000450051 0.000652815 -7.61954e-05
-0.00202117 0.00055232 0.000629506 -8.98933e-05
-0.000673792 0.000171104 0.000215438 -8.50027e-05
-0.000660411 0.000132452 0.000226268 -2.32322e-05
-0.00200891 0.000513669 0.000640816 -8.85229e-05
-0.00134562 0.000354495 0.000424767 -8.92097e-05
-0.000665305 0.000153066 0.000219531 -6.04672e-05
-0.00130888 0.000279998 0.000440951 -4.20855e-05
-0.00133273 0.000321998 0.000433171 -7.46252e-05
-0.00202117 0.00055232 0.000629506 -8.98933e-05
-0.00201882 0.00059201 0.000611489 -8.3369e-05
-0.000680612 0.000189026 0.00021068 -0.000107073
-0.000673792 0.000171104 0.000215438 -8.50027e-05
-0.00202087 0.000577315 0.000618668 -8.62108e-05
-0.00135134 0.000387237 0.000413187 -9.97299e-05
-0.00068064 0.000182501 0.000213489 -9.97809e-05
-0.00134562 0.000354495 0.000424767 -8.92097e-05
-0.00135076 0.000375217 0.00041809 -9.57869e-05
-0.00201882 0.00059201 0.000611489 -8.3369e-05
-0.00200435 0.000599117 0.000602243 -7.90421e-05
-0.000675766 0.00019567 0.000205755 -0.000109477
-0.000680612 0.000189026 0.00021068 -0.000107073
-0.00201373 0.000598165 0.000606671 -8.12361e-05
-0.00134305 0.000397653 0.00040517 -9.83163e-05
-0.000677669 0.000193321 0.000207577 -0.000109494
-0.00135134 0.000387237 0.000413187 -9.97299e-05
-0.00134842 0.000394321 0.000408898 -0.000100251
-0.00200435 0.000599117 0.000602243 -7.90421e-05
-0.00198423 0.00059568 0.000595094 -7.61573e-05
-0.000669903 0.000195172 0.000203456 -0.000105654
-0.000675766 0.00019567 0.000205755 -0.000109477
-0.00199356 0.000598017 0.000598089 -7.71243e-05
-0.00132966 0.000396395 0.000399973 -9.43456e-05
-0.000673609 0.000196001 0.000204689 -0.000107968
-0.00134305 0.000397653 0.00040517 -9.83163e-05
-0.00133641 0.000397917 0.000402211 -9.60559e-05
-0.00198423 0.00059568 0.000595094 -7.61573e-05
-0.00196677 0.000588791 0.000590563 -7.53441e-05
-0.000662578 0.000192853 0.00020131 -0.000100671
-0.000669903 0.000195172 0.000203456 -0.000105654
-0.00197557 0.00059241 0.000592784 -7.5718e-05
-0.00131661 0.000391921 0.000396295 -9.07776e-05
-0.000665831 0.00019408 0.000202179 -0.00010306
-0.00132966 0.000396395 0.000399973 -9.43456e-05
-0.001323 0.000394295 0.000398017 -9.2584e-05
-0.00196677 0.000588791 0.000590563 -7.53441e-05
-0.0019509 0.000582169 0.0005866 -7.49933e-05
-0.000656652 0.000190079 0.00019996 -9.6708e-05
-0.000662578 0.000192853 0.00020131 -0.000100671
-0.00195837 0.000585359 0.000588432 -7.5066e-05
-0.00130504 0.000386867 0.000393504 -8.82548e-05
-0.000659674 0.000191468 0.00020066 -9.85444e-05
-0.00131661 0.000391921 0.000396295 -9.07776e-05
-0.00131059 0.000389374 0.000394806 -8.93103e-05
-0.0019509 0.000582169 0.0005866 -7.49933e-05
-0.00193737 0.000576416 0.000583268 -7.50236e-05
-0.000651266 0.000187751 0.000198649 -9.39553e-05
-0.000656652 0.000190079 0.00019996 -9.6708e-05
-0.00194402 0.000579177 0.000584933 -7.50179e-05
-0.00129512 0.000382538 0.000391107 -8.66353e-05
-0.000653765 0.000188845 0.000199251 -9.51711e-05
-0.00130504 0.000386867 0.000393504 -8.82548e-05
-0.00129991 0.000384591 0.000392278 -8.73806e-05
-0.00193737 0.000576416 0.000583268 -7.50236e-05
-0.00192504 0.000571646 0.000580028 -7.50546e-05
-0.000646761 0.000185849 0.000197534 -9.22575e-05
-0.000651266 0.000187751 0.000198649 -9.39553e-05
-0.00193103 0.00057392 0.000581617 -7.50267e-05
-0.0012864 0.000378954 0.000388906 -8.56776e-05
-0.000648988 0.000186751 0.000198101 -9.3001e-05
-0.00129512 0.000382538 0.000391107 -8.66353e-05
-0.00129064 0.000380661 0.000389989 -8.6074e-05
-0.00192504 0.000571646 0.000580028 -7.50546e-05
-0.00191368 0.000567572 0.000576903 -7.51065e-05
-0.000642634 0.000184337 0.000196413 -9.12628e-05
-0.000646761 0.000185849 0.000197534 -9.22575e-05
-0.0019193 0.000569539 0.00057847 -7.50887e-05
-0.00127848 0.00037601 0.000386772 -8.51292e-05
-0.000644629 0.000185052 0.000196962 -9.16872e-05
-0.0012864 0.000378954 0.000388906 -8.56776e-05
-0.00128236 0.000377414 0.000387836 -8.53715e-05
-0.00191368 0.000567572 0.000576903 -7.51065e-05
-0.00190277 0.000563969 0.000573772 -7.51241e-05
-0.000638836 0.000183071 0.000195328 -9.07181e-05
-0.000642634 0.000184337 0.000196413 -9.12628e-05
-0.00190817 0.000565724 0.000575333 -7.51156e-05
-0.00127103 0.000373481 0.000384663 -8.48315e-05
-0.000640721 0.00018368 0.000195874 -9.09493e-05
-0.00127848 0.00037601 0.000386772 -8.51292e-05
-0.00127471 0.000374706 0.000385716 -8.49538e-05
-0.00190277 0.000563969 0.000573772 -7.51241e-05
-0.00189216 0.000560641 0.000570652 -7.51304e-05
-0.000635172 0.00018196 0.000194234 -9.04304e-05
-0.000638836 0.000183071 0.000195328 -9.07181e-05
-0.00189745 0.00056228 0.000572215 -7.51302e-05
-0.00126384 0.000371212 0.000382556 -8.46712e-05
-0.000636985 0.0001825 0.000194779 -9.05502e-05
-0.00127103 0.000373481 0.000384663 -8.48315e-05
-0.00126741 0.000372322 0.000383611 -8.47405e-05
-0.00189216 0.000560641 0.000570652 -7.51304e-05
-0.00188168 0.000557469 0.000567521 -7.51238e-05
-0.0006316 0.000180932 0.000193143 -9.02865e-05
-0.000635172 0.00018196 0.000194234 -9.04304e-05
-0.00188691 0.000559041 0.000569086 -7.51275e-05
-0.00125679 0.000369086 0.000380446 -8.45879e-05
-0.000633382 0.000181439 0.00019369 -9.03461e-05
-0.00126384 0.000371212 0.000382556 -8.46712e-05
-0.00126031 0.000370136 0.000381502 -8.46221e-05
-0.00188168 0.000557469 0.000567521 -7.51238e-05
-0.00187128 0.000554377 0.000564386 -7.51141e-05
-0.000628059 0.000179948 0.000192048 -9.02168e-05
-0.0006316 0.000180932 0.000193143 -9.02865e-05
-0.00187648 0.000555916 0.000565955 -7.51194e-05
-0.00124981 0.000367036 0.000378331 -8.45438e-05
-0.000629825 0.000180436 0.000192595 -9.02451e-05
-0.00125679 0.000369086 0.000380446 -8.45879e-05
-0.00125329 0.000368054 0.000379389 -8.45628e-05
-0.00187128 0.000554377 0.000564386 -7.51141e-05
-0.0018609 0.000551324 0.000561247 -7.51033e-05
-0.000624536 0.000178982 0.000190951 -9.01848e-05
-0.000628059 0.000179948 0.000192048 -9.02168e-05
-0.00186609 0.000552847 0.000562817 -7.51085e-05
-0.00124285 0.000365022 0.000376213 -8.45207e-05
-0.000626297 0.000179464 0.0001915 -9.01977e-05
-0.00124981 0.000367036 0.000378331 -8.45438e-05
-0.00124633 0.000366026 0.000377272 -8.45303e-05
-0.0018609 0.000551324 0.000561247 -7.51033e-05
-0.00185054 0.000548288 0.000558106 -7.5094e-05
-0.000621015 0.000178024 0.000189854 -9.01705e-05
-0.000624536 0.000178982 0.000190951 -9.01848e-05
-0.00185572 0.000549805 0.000559677 -7.50985e-05
-0.00123591 0.000363024 0.000374093 -8.45079e-05
-0.000622775 0.000178503 0.000190403 -9.01762e-05
-0.00124285 0.000365022 0.000376213 -8.45207e-05
-0.00123938 0.000364022 0.000375153 -8.45134e-05
-0.00185054 0.000548288 0.000558106 -7.5094e-05
-0.00184017 0.000545258 0.000554964 -7.50865e-05
-0.000617495 0.000177066 0.000188756 -9.01643e-05
-0.000621015 0.000178024 0.000189854 -9.01705e-05
-0.00184535 0.000546772 0.000556535 -7.509e-05
-0.00122896 0.000361031 0.000371972 -8.45006e-05
-0.000619256 0.000177545 0.000189305 -9.01668e-05
-0.00123591 0.000363024 0.000374093 -8.45079e-05
-0.00123244 0.000362027 0.000373032 -8.45037e-05
-0.00184017 0.000545258 0.000554964 -7.50865e-05
-0.00182981 0.000542228 0.000551822 -7.5081e-05
-0.000613973 0.000176106 0.000187657 -9.01615e-05
-0.000617495 0.000177066 0.000188756 -9.01643e-05
-0.00183499 0.000543743 0.000553393 -7.50835e-05
-0.00122202 0.000359038 0.00036985 -8.44962e-05
-0.000615735 0.000176586 0.000188206 -9.01626e-05
-0.00122896 0.000361031 0.000371972 -8.45006e-05
-0.00122549 0.000360034 0.000370911 -8.44982e-05
-0.00182981 0.000542228 0.000551822 -7.5081e-05
-0.00181945 0.000539198 0.00054868 -7.50771e-05
-0.00061045 0.000175145 0.00018656 -9.016e-05
-0.000613973 0.000176106 0.000187657 -9.01615e-05
-0.00182463 0.000540714 0.000550251 -7.50789e-05
-0.00121508 0.000357044 0.000367729 -8.44934e-05
-0.000612212 0.000175626 0.000187108 -9.01607e-05
-0.00122202 0.000359038 0.00036985 -8.44962e-05
-0.00121855 0.000358041 0.00036879 -8.44946e-05
-0.00181945 0.000539198 0.00054868 -7.50771e-05
-0.00180909 0.000536167 0.000545538 -7.50745e-05
-0.000606926 0.000174181 0.000185462 -9.01591e-05
-0.00061045 0.000175145 0.00018656 -9.016e-05
-0.00181427 0.000537683 0.000547109 -7.50756e-05
-0.00120813 0.000355048 0.000365608 -8.44915e-05
-0.000608688 0.000174663 0.000186011 -9.01595e-05
-0.00121508 0.000357044 0.000367729 -8.44934e-05
-0.00121161 0.000356046 0.000366669 -8.44923e-05
-0.00180909 0.000536167 0.000545538 -7.50745e-05
-0.00179873 0.000533135 0.000542397 -7.50727e-05
-0.000603401 0.000173215 0.000184365 -9.01582e-05
-0.000606926 0.000174181 0.000185462 -9.01591e-05
-0.00180391 0.000534651 0.000543967 -7.50735e-05
-0.00120119 0.00035305 0.000363488 -8.44901e-05
-0.000605163 0.000173698 0.000184914 -9.01586e-05
-0.00120813 0.000355048 0.000365608 -8.44915e-05
-0.00120466 0.000354049 0.000364548 -8.44907e-05
-0.00179873 0.000533135 0.000542397 -7.50727e-05
-0.00178836 0.000530101 0.000539256 -7.50715e-05
-0.000599875 0.000172248 0.000183269 -9.01574e-05
-0.000603401 0.000173215 0.000184365 -9.01582e-05
-0.00179355 0.000531618 0.000540826 -7.50721e-05
-0.00119424 0.000351052 0.000361368 -8.4489e-05
-0.000601638 0.000172732 0.000183817 -9.01578e-05
-0.00120119 0.00035305 0.000363488 -8.44901e-05
-0.00119772 0.000352051 0.000362428 -8.44895e-05
-0.00178836 0.000530101 0.000539256 -7.50715e-05
-0.001778 0.000527067 0.000536115 -7.50708e-05
-0.00059635 0.00017128 0.000182173 -9.01565e-05
-0.000599875 0.000172248 0.000183269 -9.01574e-05
-0.00178318 0.000528584 0.000537686 -7.50711e-05
-0.0011873 0.000349052 0.000359249 -8.44882e-05
-0.000598113 0.000171764 0.000182721 -9.01569e-05
-0.00119424 0.000351052 0.000361368 -8.4489e-05
-0.00119077 0.000350052 0.000360309 -8.44886e-05
-0.001778 0.000527067 0.000536115 -7.50708e-05
-0.00176764 0.000524032 0.000532975 -7.50702e-05
-0.000592825 0.000170311 0.000181078 -9.01556e-05
-0.00059635 0.00017128 0.000182173 -9.01565e-05
-0.00177282 0.00052555 0.000534545 -7.50704e-05
-0.00118035 0.000347052 0.00035713 -8.44874e-05
-0.000594588 0.000170796 0.000181625 -9.0156e-05
-0.0011873 0.000349052 0.000359249 -8.44882e-05
-0.00118383 0.000348052 0.000358189 -8.44878e-05
-0.00176764 0.000524032 0.000532975 -7.50702e-05
-0.00175728 0.000520997 0.000529836 -7.50697e-05
-0.000589301 0.000169342 0.000179983 -9.01546e-05
-0.000592825 0.000170311 0.000181078 -9.01556e-05
-0.00176246 0.000522515 0.000531406 -7.50699e-05
-0.00117341 0.000345051 0.000355012 -8.44867e-05
-0.000591063 0.000169826 0.00018053 -9.01551e-05
-0.00118035 0.000347052 0.00035713 -8.44874e-05
-0.00117688 0.000346051 0.000356071 -8.44871e-05
-0.00175728 0.000520997 0.000529836 -7.50697e-05
-0.00174692 0.000517961 0.000526697 -7.50692e-05
-0.000585777 0.000168372 0.000178888 -9.01536e-05
-0.000589301 0.000169342 0.000179983 -9.01546e-05
-0.0017521 0.000519479 0.000528266 -7.50695e-05
-0.00116647 0.000343049 0.000352894 -8.4486e-05
-0.000587539 0.000168857 0.000179435 -9.01541e-05
-0.00117341 0.000345051 0.000355012 -8.44867e-05
-0.00116994 0.00034405 0.000353953 -8.44863e-05
-0.00174692 0.000517961 0.000526697 -7.50692e-05
-0.00173656 0.000514925 0.000523558 -7.50688e-05
-0.000582254 0.000167401 0.000177794 -9.01526e-05
-0.000585777 0.000168372 0.000178888 -9.01536e-05
-0.00174174 0.000516443 0.000525127 -7.5069e-05
-0.00115952 0.000341047 0.000350776 -8.44852e-05
-0.000584016 0.000167887 0.000178341 -9.01531e-05
-0.00116647 0.000343049 0.000352894 -8.4486e-05
-0.001163 0.000342048 0.000351835 -8.44856e-05
-0.00173656 0.000514925 0.000523558 -7.50688e-05
-0.0017262 0.000511889 0.00052042 -7.50683e-05
-0.000578732 0.000166431 0.000176701 -9.01515e-05
-0.000582254 0.000167401 0.000177794 -9.01526e-05
-0.00173138 0.000513407 0.000521989 -7.50685e-05
-0.00115258 0.000339045 0.000348659 -8.44845e-05
-0.000580493 0.000166916 0.000177247 -9.0152e-05
-0.00115952 0.000341047 0.000350776 -8.44852e-05
-0.00115605 0.000340046 0.000349717 -8.44848e-05
-0.0017262 0.000511889 0.00052042 -7.50683e-05
-0.00171584 0.000508853 0.000517282 -7.50677e-05
-0.00057521 0.00016546 0.000175607 -9.01504e-05
-0.000578732 0.000166431 0.000176701 -9.01515e-05
-0.00172102 0.000510371 0.000518851 -7.5068e-05
-0.00114564 0.000337043 0.000346542 -8.44836e-05
-0.000576971 0.000165945 0.000176154 -9.01509e-05
-0.00115258 0.000339045 0.000348659 -8.44845e-05
-0.00114911 0.000338044 0.000347601 -8.4484e-05
-0.00171584 0.000508853 0.000517282 -7.50677e-05
-0.00170549 0.000505816 0.000514144 -7.50672e-05
-0.000571689 0.000164488 0.000174515 -9.01492e-05
-0.00057521 0.00016546 0.000175607 -9.01504e-05
-0.00171067 0.000507335 0.000515713 -7.50675e-05
-0.0011387 0.00033504 0.000344426 -8.44828e-05
-0.00057345 0.000164974 0.000175061 -9.01498e-05
-0.00114564 0.000337043 0.000346542 -8.44836e-05
-0.00114217 0.000336042 0.000345484 -8.44832e-05
-0.00170549 0.000505816 0.000514144 -7.50672e-05
-0.00169513 0.000502779 0.000511007 -7.50665e-05
-0.000568169 0.000163517 0.000173422 -9.0148e-05
-0.000571689 0.000164488 0.000174515 -9.01492e-05
-0.00170031 0.000504298 0.000512576 -7.50669e-05
-0.00113176 0.000333038 0.00034231 -8.44818e-05
-0.000569929 0.000164003 0.000173968 -9.01486e-05
-0.0011387 0.00033504 0.000344426 -8.44828e-05
-0.00113523 0.000334039 0.000343368 -8.44823e-05
-0.00169513 0.000502779 0.000511007 -7.50665e-05
-0.00168477 0.000499742 0.000507871 -7.50659e-05
-0.000564649 0.000162545 0.00017233 -9.01468e-05
-0.000568169 0.000163517 0.000173422 -9.0148e-05
-0.00168995 0.000501261 0.000509439 -7.50662e-05
-0.00112482 0.000331034 0.000340195 -8.44809e-05
-0.000566409 0.000163031 0.000172876 -9.01474e-05
-0.00113176 0.000333038 0.00034231 -8.44818e-05
-0.00112829 0.000332036 0.000341252 -8.44814e-05
-0.00168477 0.000499742 0.000507871 -7.50659e-05
-0.00167442 0.000496705 0.000504734 -7.50652e-05
-0.00056113 0.000161573 0.000171239 -9.01455e-05
-0.000564649 0.000162545 0.00017233 -9.01468e-05
-0.0016796 0.000498224 0.000506302 -7.50655e-05
-0.00111788 0.000329031 0.000338079 -8.44799e-05
-0.000562889 0.000162059 0.000171785 -9.01461e-05
-0.00112482 0.000331034 0.000340195 -8.44809e-05
-0.00112135 0.000330033 0.000339137 -8.44804e-05
-0.00167442 0.000496705 0.000504734 -7.50652e-05
-0.00166406 0.000493668 0.000501598 -7.50644e-05
-0.000557611 0.0001606 0.000170148 -9.01442e-05
-0.00056113 0.000161573 0.000171239 -9.01455e-05
-0.00166924 0.000495186 0.000503166 -7.50648e-05
-0.00111095 0.000327027 0.000335965 -8.44789e-05
-0.00055937 0.000161086 0.000170693 -9.01448e-05
-0.00111788 0.000329031 0.000338079 -8.44799e-05
-0.00111441 0.000328029 0.000337022 -8.44794e-05
-0.00166406 0.000493668 0.000501598 -7.50644e-05
-0.00165371 0.00049063 0.000498463 -7.50637e-05
-0.000554093 0.000159627 0.000169057 -9.01428e-05
-0.000557611 0.0001606 0.000170148 -9.01442e-05
-0.00165889 0.000492149 0.00050003 -7.50641e-05
-0.00110401 0.000325023 0.000333851 -8.44778e-05
-0.000555852 0.000160114 0.000169602 -9.01435e-05
-0.00111095 0.000327027 0.000335965 -8.44789e-05
-0.00110748 0.000326025 0.000334908 -8.44783e-05
-0.00165371 0.00049063 0.000498463 -7.50637e-05
-0.00164336 0.000487592 0.000495328 -7.50629e-05
-0.000550576 0.000158654 0.000167967 -9.01414e-05
-0.000554093 0.000159627 0.000169057 -9.01428e-05
-0.00164853 0.000489111 0.000496895 -7.50633e-05
-0.00109707 0.000323019 0.000331737 -8.44767e-05
-0.000552335 0.000159141 0.000168512 -9.01421e-05
-0.00110401 0.000325023 0.000333851 -8.44778e-05
-0.00110054 0.000324021 0.000332794 -8.44773e-05
-0.00164336 0.000487592 0.000495328 -7.50629e-05
-0.001633 0.000484554 0.000492193 -7.50621e-05
-0.00054706 0.00015768 0.000166877 -9.014e-05
-0.000550576 0.000158654 0.000167967 -9.01414e-05
-0.00163818 0.000486073 0.00049376 -7.50625e-05
-0.00109014 0.000321015 0.000329623 -8.44756e-05
-0.000548818 0.000158167 0.000167422 -9.01407e-05
-0.00109707 0.000323019 0.000331737 -8.44767e-05
-0.0010936 0.000322017 0.00033068 -8.44762e-05
-0.001633 0.000484554 0.000492193 -7.50621e-05
-0.00162265 0.000481516 0.000489058 -7.50612e-05
-0.000543544 0.000156707 0.000165787 -9.01386e-05
-0.00054706 0.00015768 0.000166877 -9.014e-05
-0.00162783 0.000483035 0.000490625 -7.50616e-05
-0.0010832 0.00031901 0.00032751 -8.44744e-05
-0.000545302 0.000157194 0.000166332 -9.01393e-05
-0.00109014 0.000321015 0.000329623 -8.44756e-05
-0.00108667 0.000320012 0.000328567 -8.4475e-05
-0.00162265 0.000481516 0.000489058 -7.50612e-05
-0.0016123 0.000478477 0.000485924 -7.50604e-05
-0.000540029 0.000155733 0.000164698 -9.01371e-05
-0.000543544 0.000156707 0.000165787 -9.01386e-05
-0.00161748 0.000479997 0.000487491 -7.50608e-05
-0.00107627 0.000317005 0.000325398 -8.44733e-05
-0.000541786 0.00015622 0.000165243 -9.01379e-05
-0.0010832 0.00031901 0.00032751 -8.44744e-05
-0.00107973 0.000318007 0.000326454 -8.44739e-05
-0.0016123 0.000478477 0.000485924 -7.50604e-05
-0.00160195 0.000475439 0.000482791 -7.50595e-05
-0.000536514 0.000154758 0.00016361 -9.01357e-05
-0.000540029 0.000155733 0.000164698 -9.01371e-05
-0.00160713 0.000476958 0.000484357 -7.50599e-05
-0.00106933 0.000315 0.000323285 -8.44721e-05
-0.000538271 0.000155245 0.000164154 -9.01364e-05
-0.00107627 0.000317005 0.000325398 -8.44733e-05
-0.0010728 0.000316002 0.000324341 -8.44727e-05
-0.00160195 0.000475439 0.000482791 -7.50595e-05
-0.0015916 0.0004724 0.000479658 -7.50585e-05
-0.000533 0.000153783 0.000162522 -9.01342e-05
-0.000536514 0.000154758 0.00016361 -9.01357e-05
-0.00159678 0.000473919 0.000481224 -7.5059e-05
-0.0010624 0.000312994 0.000321174 -8.44708e-05
-0.000534757 0.000154271 0.000163066 -9.01349e-05
-0.00106933 0.000315 0.000323285 -8.44721e-05
-0.00106587 0.000313997 0.000322229 -8.44715e-05
-0.0015916 0.0004724 0.000479658 -7.50585e-05
-0.00158125 0.000469361 0.000476525 -7.50576e-05
-0.000529487 0.000152808 0.000161434 -9.01326e-05
-0.000533 0.000153783 0.000162522 -9.01342e-05
-0.00158643 0.00047088 0.000478091 -7.50581e-05
-0.00105547 0.000310988 0.000319062 -8.44696e-05
-0.000531244 0.000153296 0.000161978 -9.01334e-05
-0.0010624 0.000312994 0.000321174 -8.44708e-05
-0.00105893 0.000311991 0.000320118 -8.44702e-05
-0.00158125 0.000469361 0.000476525 -7.50576e-05
-0.0015709 0.000466321 0.000473392 -7.50567e-05
-0.000525975 0.000151833 0.000160346 -9.01311e-05
-0.000529487 0.000152808 0.000161434 -9.01326e-05
-0.00157608 0.000467841 0.000474958 -7.50571e-05
-0.00104854 0.000308982 0.000316951 -8.44683e-05
-0.000527731 0.000152321 0.00016089 -9.01318e-05
-0.00105547 0.000310988 0.000319062 -8.44696e-05
-0.001052 0.000309985 0.000318007 -8.4469e-05
-0.0015709 0.000466321 0.000473392 -7.50567e-05
-0.00156056 0.000463282 0.00047026 -7.50557e-05
-0.000522463 0.000150857 0.000159259 -9.01295e-05
-0.000525975 0.000151833 0.000160346 -9.01311e-05
-0.00156573 0.000464802 0.000471826 -7.50562e-05
-0.0010416 0.000306976 0.000314841 -8.4467e-05
-0.000524219 0.000151345 0.000159803 -9.01303e-05
-0.00104854 0.000308982 0.000316951 -8.44683e-05
-0.00104507 0.000307979 0.000315896 -8.44677e-05
-0.00156056 0.000463282 0.00047026 -7.50557e-05
-0.00155021 0.000460242 0.000467129 -7.50547e-05
-0.000518951 0.000149881 0.000158173 -9.01279e-05
-0.000522463 0.000150857 0.000159259 -9.01295e-05
-0.00155538 0.000461762 0.000468694 -7.50552e-05
-0.00103467 0.000304969 0.000312731 -8.44657e-05
-0.000520707 0.000150369 0.000158716 -9.01287e-05
-0.0010416 0.000306976 0.000314841 -8.4467e-05
-0.00103814 0.000305973 0.000313786 -8.44664e-05
-0.00155021 0.000460242 0.000467129 -7.50547e-05
-0.00153986 0.000457202 0.000463997 -7.50537e-05
-0.000515441 0.000148905 0.000157087 -9.01262e-05
-0.000518951 0.000149881 0.000158173 -9.01279e-05
-0.00154504 0.000458722 0.000465563 -7.50542e-05
-0.00102774 0.000302962 0.000310621 -8.44644e-05
-0.000517196 0.000149393 0.00015763 -9.01271e-05
-0.00103467 0.000304969 0.000312731 -8.44657e-05
-0.00103121 0.000303966 0.000311676 -8.44651e-05
-0.00153986 0.000457202 0.000463997 -7.50537e-05
-0.00152952 0.000454162 0.000460867 -7.50527e-05
-0.000511931 0.000147928 0.000156001 -9.01246e-05
-0.000515441 0.000148905 0.000157087 -9.01262e-05
-0.00153469 0.000455682 0.000462432 -7.50532e-05
-0.00102082 0.000300955 0.000308512 -8.44631e-05
-0.000513686 0.000148417 0.000156544 -9.01254e-05
-0.00102774 0.000302962 0.000310621 -8.44644e-05
-0.00102428 0.000301959 0.000309566 -8.44637e-05
-0.00152952 0.000454162 0.000460867 -7.50527e-05
-0.00151917 0.000451122 0.000457736 -7.50516e-05
-0.000508421 0.000146951 0.000154916 -9.01229e-05
-0.000511931 0.000147928 0.000156001 -9.01246e-05
-0.00152435 0.000452642 0.000459301 -7.50521e-05
-0.00101389 0.000298948 0.000306403 -8.44617e-05
-0.000510176 0.00014744 0.000155458 -9.01238e-05
-0.00102082 0.000300955 0.000308512 -8.44631e-05
-0.00101735 0.000299951 0.000307457 -8.44624e-05
-0.00151917 0.000451122 0.000457736 -7.50516e-05
-0.00150883 0.000448081 0.000454606 -7.50506e-05
-0.000504913 0.000145974 0.000153831 -9.01212e-05
-0.000508421 0.000146951 0.000154916 -9.01229e-05
-0.001514 0.000449602 0.000456171 -7.50511e-05
-0.00100696 0.00029694 0.000304294 -8.44603e-05
-0.000506667 0.000146463 0.000154373 -9.01221e-05
-0.00101389 0.000298948 0.000306403 -8.44617e-05
-0.00101042 0.000297944 0.000305348 -8.4461e-05
-0.00150883 0.000448081 0.000454606 -7.50506e-05
-0.00149849 0.00044504 0.000451477 -7.50495e-05
-0.000501405 0.000144997 0.000152746 -9.01195e-05
-0.000504913 0.000145974 0.000153831 -9.01212e-05
-0.00150366 0.000446561 0.000453041 -7.505e-05
-0.00100003 0.000294932 0.000302186 -8.44589e-05
-0.000503159 0.000145485 0.000153289 -9.01204e-05
-0.00100696 0.00029694 0.000304294 -8.44603e-05
-0.0010035 0.000295936 0.00030324 -8.44596e-05
-0.00149849 0.00044504 0.000451477 -7.50495e-05
-0.00148814 0.000442 0.000448347 -7.50484e-05
-0.000497897 0.000144019 0.000151662 -9.01178e-05
-0.000501405 0.000144997 0.000152746 -9.01195e-05
-0.00149331 0.00044352 0.000449912 -7.50489e-05
-0.000993107 0.000292924 0.000300078 -8.44575e-05
-0.000499651 0.000144508 0.000152204 -9.01187e-05
-0.00100003 0.000294932 0.000302186 -8.44589e-05
-0.00099657 0.000293928 0.000301132 -8.44582e-05
-0.00148814 0.000442 0.000448347 -7.50484e-05
-0.0014778 0.000438958 0.000445219 -7.50473e-05
-0.000494391 0.00014304 0.000150579 -9.01161e-05
-0.000497897 0.000144019 0.000151662 -9.01178e-05
-0.00148297 0.000440479 0.000446783 -7.50478e-05
-0.000986182 0.000290915 0.000297971 -8.4456e-05
-0.000496144 0.00014353 0.00015112 -9.01169e-05
-0.000993107 0.000292924 0.000300078 -8.44575e-05
-0.000989644 0.00029192 0.000299025 -8.44568e-05
-0.0014778 0.000438958 0.000445219 -7.50473e-05
-0.00146746 0.000435917 0.00044209 -7.50462e-05
-0.000490885 0.000142062 0.000149496 -9.01143e-05
-0.000494391 0.00014304 0.000150579 -9.01161e-05
-0.00147263 0.000437438 0.000443654 -7.50467e-05
-0.000979257 0.000288906 0.000295864 -8.44546e-05
-0.000492638 0.000142551 0.000150037 -9.01152e-05
-0.000986182 0.000290915 0.000297971 -8.4456e-05
-0.000982719 0.000289911 0.000296918 -8.44553e-05
-0.00146746 0.000435917 0.00044209 -7.50462e-05
-0.00145712 0.000432875 0.000438962 -7.5045e-05
-0.000487379 0.000141083 0.000148413 -9.01125e-05
-0.000490885 0.000142062 0.000149496 -9.01143e-05
-0.00146229 0.000434396 0.000440526 -7.50456e-05
-0.000972333 0.000286897 0.000293758 -8.44531e-05
-0.000489132 0.000141573 0.000148954 -9.01134e-05
-0.000979257 0.000288906 0.000295864 -8.44546e-05
-0.000975795 0.000287902 0.000294811 -8.44538e-05
-0.00145712 0.000432875 0.000438962 -7.5045e-05
-0.00144678 0.000429834 0.000435835 -7.50439e-05
-0.000483875 0.000140104 0.00014733 -9.01107e-05
-0.000487379 0.000141083 0.000148413 -9.01125e-05
-0.00145195 0.000431355 0.000437398 -7.50445e-05
-0.00096541 0.000284888 0.000291652 -8.44516e-05
-0.000485627 0.000140594 0.000147871 -9.01116e-05
-0.000972333 0.000286897 0.000293758 -8.44531e-05
-0.000968871 0.000285893 0.000292705 -8.44524e-05
-0.00144678 0.000429834 0.000435835 -7.50439e-05
-0.00143644 0.000426792 0.000432708 -7.50427e-05
-0.000480371 0.000139125 0.000146248 -9.01089e-05
-0.000483875 0.000140104 0.00014733 -9.01107e-05
-0.00144161 0.000428313 0.000434271 -7.50433e-05
-0.000958487 0.000282879 0.000289547 -8.44501e-05
-0.000482123 0.000139614 0.000146789 -9.01098e-05
-0.00096541 0.000284888 0.000291652 -8.44516e-05
-0.000961948 0.000283883 0.000290599 -8.44509e-05
-0.00143644 0.000426792 0.000432708 -7.50427e-05
-0.0014261 0.00042375 0.000429581 -7.50416e-05
-0.000476867 0.000138145 0.000145167 -9.01071e-05
-0.000480371 0.000139125 0.000146248 -9.01089e-05
-0.00143127 0.000425271 0.000431144 -7.50421e-05
-0.000951566 0.000280869 0.000287441 -8.44486e-05
-0.000478619 0.000138635 0.000145708 -9.0108e-05
-0.000958487 0.000282879 0.000289547 -8.44501e-05
-0.000955026 0.000281874 0.000288494 -8.44494e-05
-0.0014261 0.00042375 0.000429581 -7.50416e-05
-0.00141577 0.000420707 0.000426454 -7.50404e-05
-0.000473365 0.000137165 0.000144086 -9.01053e-05
-0.000476867 0.000138145 0.000145167 -9.01071e-05
-0.00142094 0.000422228 0.000428018 -7.5041e-05
-0.000944644 0.000278859 0.000285337 -8.44471e-05
-0.000475116 0.000137655 0.000144626 -9.01062e-05
-0.000951566 0.000280869 0.000287441 -8.44486e-05
-0.000948105 0.000279864 0.000286389 -8.44479e-05
-0.00141577 0.000420707 0.000426454 -7.50404e-05
-0.00140543 0.000417665 0.000423329 -7.50392e-05
-0.000469863 0.000136184 0.000143005 -9.01034e-05
-0.000473365 0.000137165 0.000144086 -9.01053e-05
-0.0014106 0.000419186 0.000424891 -7.50398e-05
-0.000937724 0.000276848 0.000283232 -8.44455e-05
-0.000471614 0.000136675 0.000143545 -9.01044e-05
-0.000944644 0.000278859 0.000285337 -8.44471e-05
-0.000941184 0.000277854 0.000284285 -8.44463e-05
-0.00140543 0.000417665 0.000423329 -7.50392e-05
-0.0013951 0.000414622 0.000420203 -7.5038e-05
-0.000466361 0.000135204 0.000141925 -9.01016e-05
-0.000469863 0.000136184 0.000143005 -9.01034e-05
-0.00140026 0.000416143 0.000421766 -7.50386e-05
-0.000930804 0.000274838 0.000281129 -8.4444e-05
-0.000468112 0.000135694 0.000142465 -9.01025e-05
-0.000937724 0.000276848 0.000283232 -8.44455e-05
-0.000934264 0.000275843 0.00028218 -8.44448e-05
-0.0013951 0.000414622 0.000420203 -7.5038e-05
-0.00138476 0.000411579 0.000417078 -7.50368e-05
-0.000462861 0.000134223 0.000140845 -9.00997e-05
-0.000466361 0.000135204 0.000141925 -9.01016e-05
-0.00138993 0.0004131 0.00041864 -7.50374e-05
-0.000923886 0.000272827 0.000279025 -8.44424e-05
-0.000464611 0.000134713 0.000141385 -9.01006e-05
-0.000930804 0.000274838 0.000281129 -8.4444e-05
-0.000927345 0.000273832 0.000280077 -8.44432e-05
-0.00138476 0.000411579 0.000417078 -7.50368e-05
-0.00137443 0.000408536 0.000413953 -7.50355e-05
-0.000459361 0.000133241 0.000139765 -9.00978e-05
-0.000462861 0.000134223 0.000140845 -9.00997e-05
-0.00137959 0.000410057 0.000415515 -7.50361e-05
-0.000916967 0.000270816 0.000276922 -8.44409e-05
-0.000461111 0.000133732 0.000140305 -9.00988e-05
-0.000923886 0.000272827 0.000279025 -8.44424e-05
-0.000920426 0.000271821 0.000277974 -8.44417e-05
-0.00137443 0.000408536 0.000413953 -7.50355e-05
-0.00136409 0.000405493 0.000410829 -7.50343e-05
-0.000455861 0.00013226 0.000138686 -9.00959e-05
-0.000459361 0.000133241 0.000139765 -9.00978e-05
-0.00136926 0.000407014 0.000412391 -7.50349e-05
-0.00091005 0.000268804 0.00027482 -8.44393e-05
-0.000457611 0.00013275 0.000139226 -9.00969e-05
-0.000916967 0.000270816 0.000276922 -8.44409e-05
-0.000913509 0.00026981 0.000275871 -8.44401e-05
-0.00136409 0.000405493 0.000410829 -7.50343e-05
-0.00135376 0.000402449 0.000407705 -7.50331e-05
-0.000452363 0.000131278 0.000137608 -9.0094e-05
-0.000455861 0.00013226 0.000138686 -9.00959e-05
-0.00135893 0.000403971 0.000409267 -7.50337e-05
-0.000903133 0.000266793 0.000272717 -8.44377e-05
-0.000454112 0.000131769 0.000138147 -9.0095e-05
-0.00091005 0.000268804 0.00027482 -8.44393e-05
-0.000906591 0.000267799 0.000273768 -8.44385e-05
-0.00135376 0.000402449 0.000407705 -7.50331e-05
-0.00134343 0.000399405 0.000404582 -7.50318e-05
-0.000448864 0.000130295 0.00013653 -9.00921e-05
-0.000452363 0.000131278 0.000137608 -9.0094e-05
-0.00134859 0.000400927 0.000406143 -7.50324e-05
-0.000896217 0.000264781 0.000270616 -8.44361e-05
-0.000450613 0.000130787 0.000137069 -9.00931e-05
-0.000903133 0.000266793 0.000272717 -8.44377e-05
-0.000899675 0.000265787 0.000271666 -8.44369e-05
-0.00134343 0.000399405 0.000404582 -7.50318e-05
-0.0013331 0.000396361 0.000401458 -7.50305e-05
-0.000445367 0.000129313 0.000135452 -9.00902e-05
-0.000448864 0.000130295 0.00013653 -9.00921e-05
-0.00133826 0.000397883 0.00040302 -7.50312e-05
-0.000889302 0.000262769 0.000268514 -8.44345e-05
-0.000447116 0.000129804 0.000135991 -9.00911e-05
-0.000896217 0.000264781 0.000270616 -8.44361e-05
-0.000892759 0.000263775 0.000269565 -8.44353e-05
-0.0013331 0.000396361 0.000401458 -7.50305e-05
-0.00132277 0.000393317 0.000398336 -7.50293e-05
-0.00044187 0.00012833 0.000134374 -9.00883e-05
-0.000445367 0.000129313 0.000135452 -9.00902e-05
-0.00132793 0.000394839 0.000399897 -7.50299e-05
-0.000882387 0.000260756 0.000266413 -8.44329e-05
-0.000443619 0.000128821 0.000134913 -9.00892e-05
-0.000889302 0.000262769 0.000268514 -8.44345e-05
-0.000885845 0.000261762 0.000267464 -8.44337e-05
-0.00132277 0.000393317 0.000398336 -7.50293e-05
-0.00131244 0.000390273 0.000395214 -7.5028e-05
-0.000438374 0.000127347 0.000133298 -9.00863e-05
-0.00044187 0.00012833 0.000134374 -9.00883e-05
-0.0013176 0.000391795 0.000396775 -7.50286e-05
-0.000875473 0.000258743 0.000264313 -8.44312e-05
-0.000440122 0.000127838 0.000133836 -9.00873e-05
-0.000882387 0.000260756 0.000266413 -8.44329e-05
-0.00087893 0.00025975 0.000265363 -8.44321e-05
-0.00131244 0.000390273 0.000395214 -7.5028e-05
-0.00130211 0.000387228 0.000392092 -7.50267e-05
-0.000434879 0.000126363 0.000132221 -9.00844e-05
-0.000438374 0.000127347 0.000133298 -9.00863e-05
-0.00130727 0.000388751 0.000393653 -7.50274e-05
-0.00086856 0.00025673 0.000262213 -8.44296e-05
-0.000436627 0.000126855 0.000132759 -9.00853e-05
-0.000875473 0.000258743 0.000264313 -8.44312e-05
-0.000872017 0.000257737 0.000263263 -8.44304e-05
-0.00130211 0.000387228 0.000392092 -7.50267e-05
-0.00129178 0.000384184 0.00038897 -7.50255e-05
-0.000431384 0.000125379 0.000131145 -9.00824e-05
-0.000434879 0.000126363 0.000132221 -9.00844e-05
-0.00129694 0.000385706 0.000390531 -7.50261e-05
-0.000861648 0.000254717 0.000260113 -8.4428e-05
-0.000433132 0.000125871 0.000131683 -9.00834e-05
-0.00086856 0.00025673 0.000262213 -8.44296e-05
-0.000865104 0.000255724 0.000261163 -8.44288e-05
-0.00129178 0.000384184 0.00038897 -7.50255e-05
-0.00128145 0.000381139 0.000385849 -7.50242e-05
-0.00042789 0.000124395 0.000130069 -9.00805e-05
-0.000431384 0.000125379 0.000131145 -9.00824e-05
-0.00128662 0.000382661 0.00038741 -7.50248e-05
-0.000854736 0.000252704 0.000258014 -8.44263e-05
-0.000429637 0.000124887 0.000130607 -9.00814e-05
-0.000861648 0.000254717 0.000260113 -8.4428e-05
-0.000858192 0.00025371 0.000259064 -8.44271e-05
-0.00128145 0.000381139 0.000385849 -7.50242e-05
-0.00127113 0.000378094 0.000382729 -7.50229e-05
-0.000424397 0.000123411 0.000128994 -9.00785e-05
-0.00042789 0.000124395 0.000130069 -9.00805e-05
-0.00127629 0.000379616 0.000384289 -7.50235e-05
-0.000847825 0.00025069 0.000255915 -8.44247e-05
-0.000426144 0.000123903 0.000129532 -9.00795e-05
-0.000854736 0.000252704 0.000258014 -8.44263e-05
-0.000851281 0.000251697 0.000256965 -8.44255e-05
-0.00127113 0.000378094 0.000382729 -7.50229e-05
-0.0012608 0.000375048 0.000379609 -7.50216e-05
-0.000420904 0.000122426 0.000127919 -9.00765e-05
-0.000424397 0.000123411 0.000128994 -9.00785e-05
-0.00126596 0.000376571 0.000381169 -7.50222e-05
-0.000840915 0.000248676 0.000253817 -8.4423e-05
-0.000422651 0.000122919 0.000128457 -9.00775e-05
-0.000847825 0.00025069 0.000255915 -8.44247e-05
-0.00084437 0.000249683 0.000254866 -8.44238e-05
-0.0012608 0.000375048 0.000379609 -7.50216e-05
-0.00125048 0.000372003 0.000376489 -7.50203e-05
-0.000417412 0.000121441 0.000126845 -9.00745e-05
-0.000420904 0.000122426 0.000127919 -9.00765e-05
-0.00125564 0.000373526 0.000378049 -7.50209e-05
-0.000834006 0.000246662 0.000251719 -8.44214e-05
-0.000419158 0.000121934 0.000127382 -9.00755e-05
-0.000840915 0.000248676 0.000253817 -8.4423e-05
-0.00083746 0.000247669 0.000252768 -8.44222e-05
-0.00125048 0.000372003 0.000376489 -7.50203e-05
-0.00124015 0.000368957 0.000373369 -7.5019e-05
-0.000413921 0.000120456 0.000125771 -9.00726e-05
-0.000417412 0.000121441 0.000126845 -9.00745e-05
-0.00124531 0.00037048 0.000374929 -7.50196e-05
-0.000827097 0.000244647 0.000249621 -8.44197e-05
-0.000415666 0.000120948 0.000126308 -9.00736e-05
-0.000834006 0.000246662 0.000251719 -8.44214e-05
-0.000830551 0.000245654 0.00025067 -8.44205e-05
-0.00124015 0.000368957 0.000373369 -7.5019e-05
-0.00122983 0.000365911 0.00037025 -7.50177e-05
-0.00041043 0.00011947 0.000124697 -9.00706e-05
-0.000413921 0.000120456 0.000125771 -9.00726e-05
-0.00123499 0.000367434 0.00037181 -7.50183e-05
-0.000820189 0.000242632 0.000247524 -8.4418e-05
-0.000412175 0.000119963 0.000125234 -9.00716e-05
-0.000827097 0.000244647 0.000249621 -8.44197e-05
-0.000823643 0.00024364 0.000248573 -8.44189e-05
-0.00122983 0.000365911 0.00037025 -7.50177e-05
-0.00121951 0.000362865 0.000367132 -7.50163e-05
-0.00040694 0.000118484 0.000123624 -9.00686e-05
-0.00041043 0.00011947 0.000124697 -9.00706e-05
-0.00122467 0.000364388 0.000368691 -7.5017e-05
-0.000813282 0.000240617 0.000245428 -8.44164e-05
-0.000408685 0.000118977 0.000124161 -9.00696e-05
-0.000820189 0.000242632 0.000247524 -8.4418e-05
-0.000816735 0.000241625 0.000246476 -8.44172e-05
-0.00121951 0.000362865 0.000367132 -7.50163e-05
-0.00120918 0.000359819 0.000364014 -7.5015e-05
-0.000403451 0.000117498 0.000122551 -9.00666e-05
-0.00040694 0.000118484 0.000123624 -9.00686e-05
-0.00121435 0.000361342 0.000365573 -7.50157e-05
-0.000806375 0.000238602 0.000243331 -8.44147e-05
-0.000405195 0.000117991 0.000123088 -9.00676e-05
-0.000813282 0.000240617 0.000245428 -8.44164e-05
-0.000809828 0.00023961 0.000244379 -8.44155e-05
-0.00120918 0.000359819 0.000364014 -7.5015e-05
-0.00119886 0.000356773 0.000360896 -7.50137e-05
-0.000399962 0.000116511 0.000121479 -9.00646e-05
-0.000403451 0.000117498 0.000122551 -9.00666e-05
-0.00120402 0.000358296 0.000362455 -7.50144e-05
-0.000799469 0.000236586 0.000241236 -8.4413e-05
-0.000401706 0.000117004 0.000122015 -9.00656e-05
-0.000806375 0.000238602 0.000243331 -8.44147e-05
-0.000802922 0.000237594 0.000242283 -8.44139e-05
-0.00119886 0.000356773 0.000360896 -7.50137e-05
-0.00118854 0.000353726 0.000357779 -7.50124e-05
-0.000396474 0.000115524 0.000120407 -9.00626e-05
-0.000399962 0.000116511 0.000121479 -9.00646e-05
-0.0011937 0.000355249 0.000359337 -7.50131e-05
-0.000792564 0.00023457 0.00023914 -8.44113e-05
-0.000398218 0.000116018 0.000120943 -9.00636e-05
-0.000799469 0.000236586 0.000241236 -8.4413e-05
-0.000796017 0.000235578 0.000240188 -8.44122e-05
-0.00118854 0.000353726 0.000357779 -7.50124e-05
-0.00117822 0.000350679 0.000354662 -7.50111e-05
-0.000392987 0.000114537 0.000119336 -9.00606e-05
-0.000396474 0.000115524 0.000120407 -9.00626e-05
-0.00118338 0.000352203 0.00035622 -7.50117e-05
-0.00078566 0.000232554 0.000237045 -8.44097e-05
-0.00039473 0.000115031 0.000119871 -9.00616e-05
-0.000792564 0.00023457 0.00023914 -8.44113e-05
-0.000789112 0.000233562 0.000238093 -8.44105e-05
-0.00117822 0.000350679 0.000354662 -7.50111e-05
-0.0011679 0.000347632 0.000351546 -7.50098e-05
-0.0003895 0.000113549 0.000118265 -9.00586e-05
-0.000392987 0.000114537 0.000119336 -9.00606e-05
-0.00117306 0.000349156 0.000353104 -7.50104e-05
-0.000778756 0.000230538 0.000234951 -8.4408e-05
-0.000391243 0.000114043 0.0001188 -9.00596e-05
-0.00078566 0.000232554 0.000237045 -8.44097e-05
-0.000782208 0.000231546 0.000235998 -8.44088e-05
-0.0011679 0.000347632 0.000351546 -7.50098e-05
-0.00115759 0.000344585 0.000348429 -7.50085e-05
-0.000386014 0.000112562 0.000117194 -9.00566e-05
-0.0003895 0.000113549 0.000118265 -9.00586e-05
-0.00116275 0.000346108 0.000349987 -7.50091e-05
-0.000771853 0.000228521 0.000232856 -8.44063e-05
-0.000387757 0.000113056 0.000117729 -9.00576e-05
-0.000778756 0.000230538 0.000234951 -8.4408e-05
-0.000775305 0.00022953 0.000233903 -8.44072e-05
-0.00115759 0.000344585 0.000348429 -7.50085e-05
-0.00114727 0.000341537 0.000345314 -7.50071e-05
-0.000382529 0.000111573 0.000116124 -9.00546e-05
-0.000386014 0.000112562 0.000117194 -9.00566e-05
-0.00115243 0.000343061 0.000346872 -7.50078e-05
-0.000764951 0.000226505 0.000230763 -8.44047e-05
-0.000384271 0.000112068 0.000116659 -9.00556e-05
-0.000771853 0.000228521 0.000232856 -8.44063e-05
-0.000768402 0.000227513 0.00023181 -8.44055e-05
-0.00114727 0.000341537 0.000345314 -7.50071e-05
-0.00113695 0.00033849 0.000342199 -7.50058e-05
-0.000379044 0.000110585 0.000115054 -9.00527e-05
-0.000382529 0.000111573 0.000116124 -9.00546e-05
-0.00114211 0.000340014 0.000343756 -7.50065e-05
-0.000758049 0.000224487 0.000228669 -8.4403e-05
-0.000380786 0.000111079 0.000115589 -9.00537e-05
-0.000764951 0.000226505 0.000230763 -8.44047e-05
-0.0007615 0.000225496 0.000229716 -8.44038e-05
-0.00113695 0.00033849 0.000342199 -7.50058e-05
-0.00112664 0.000335442 0.000339084 -7.50045e-05
-0.00037556 0.000109596 0.000113985 -9.00507e-05
-0.000379044 0.000110585 0.000115054 -9.00527e-05
-0.0011318 0.000336966 0.000340641 -7.50052e-05
-0.000751149 0.00022247 0.000226577 -8.44013e-05
-0.000377302 0.000110091 0.000114519 -9.00517e-05
-0.000758049 0.000224487 0.000228669 -8.4403e-05
-0.000754599 0.000223479 0.000227623 -8.44021e-05
-0.00112664 0.000335442 0.000339084 -7.50045e-05
-0.00111632 0.000332394 0.000335969 -7.50032e-05
-0.000372077 0.000108607 0.000112916 -9.00487e-05
-0.00037556 0.000109596 0.000113985 -9.00507e-05
-0.00112148 0.000333918 0.000337527 -7.50039e-05
-0.000744249 0.000220452 0.000224484 -8.43996e-05
-0.000373818 0.000109102 0.00011345 -9.00497e-05
-0.000751149 0.00022247 0.000226577 -8.44013e-05
-0.000747699 0.000221461 0.00022553 -8.44005e-05
-0.00111632 0.000332394 0.000335969 -7.50032e-05
-0.00110601 0.000329346 0.000332855 -7.50019e-05
-0.000368594 0.000107618 0.000111847 -9.00467e-05
-0.000372077 0.000108607 0.000112916 -9.00487e-05
-0.00111117 0.00033087 0.000334412 -7.50025e-05
-0.000737349 0.000218434 0.000222392 -8.4398e-05
-0.000370335 0.000108112 0.000112381 -9.00477e-05
-0.000744249 0.000220452 0.000224484 -8.43996e-05
-0.000740799 0.000219443 0.000223438 -8.43988e-05
-0.00110601 0.000329346 0.000332855 -7.50019e-05
-0.0010957 0.000326297 0.000329742 -7.50006e-05
-0.000365112 0.000106628 0.000110779 -9.00447e-05
-0.000368594 0.000107618 0.000111847 -9.00467e-05
-0.00110085 0.000327822 0.000331299 -7.50012e-05
-0.000730451 0.000216416 0.000220301 -8.43963e-05
-0.000366853 0.000107123 0.000111313 -9.00457e-05
-0.000737349 0.000218434 0.000222392 -8.4398e-05
-0.0007339 0.000217425 0.000221346 -8.43971e-05
-0.0010957 0.000326297 0.000329742 -7.50006e-05
-0.00108538 0.000323249 0.000326629 -7.49993e-05
-0.000361631 0.000105638 0.000109711 -9.00427e-05
-0.000365112 0.000106628 0.000110779 -9.00447e-05
-0.00109054 0.000324773 0.000328185 -7.49999e-05
-0.000723553 0.000214398 0.000218209 -8.43946e-05
-0.000363372 0.000106133 0.000110245 -9.00437e-05
-0.000730451 0.000216416 0.000220301 -8.43963e-05
-0.000727002 0.000215407 0.000219255 -8.43955e-05
-0.00108538 0.000323249 0.000326629 -7.49993e-05
-0.00107507 0.0003202 0.000323516 -7.4998e-05
-0.00035815 0.000104648 0.000108644 -9.00408e-05
-0.000361631 0.000105638 0.000109711 -9.00427e-05
-0.00108023 0.000321724 0.000325072 -7.49986e-05
-0.000716656 0.000212379 0.000216119 -8.4393e-05
-0.000359891 0.000105143 0.000109178 -9.00417e-05
-0.000723553 0.000214398 0.000218209 -8.43946e-05
-0.000720104 0.000213388 0.000217164 -8.43938e-05
-0.00107507 0.0003202 0.000323516 -7.4998e-05
-0.00106476 0.000317151 0.000320404 -7.49967e-05
-0.00035467 0.000103657 0.000107577 -9.00388e-05
-0.00035815 0.000104648 0.000108644 -9.00408e-05
-0.00106992 0.000318676 0.00032196 -7.49973e-05
-0.00070976 0.00021036 0.000214028 -8.43913e-05
-0.00035641 0.000104152 0.000108111 -9.00398e-05
-0.000716656 0.000212379 0.000216119 -8.4393e-05
-0.000713208 0.00021137 0.000215073 -8.43922e-05
-0.00106476 0.000317151 0.000320404 -7.49967e-05
-0.00105445 0.000314102 0.000317292 -7.49954e-05
-0.000351191 0.000102666 0.000106511 -9.00368e-05
-0.00035467 0.000103657 0.000107577 -9.00388e-05
-0.0010596 0.000315627 0.000318848 -7.4996e-05
-0.000702864 0.000208341 0.000211938 -8.43897e-05
-0.000352931 0.000103161 0.000107044 -9.00378e-05
-0.00070976 0.00021036 0.000214028 -8.43913e-05
-0.000706312 0.000209351 0.000212983 -8.43905e-05
-0.00105445 0.000314102 0.000317292 -7.49954e-05
-0.00104414 0.000311053 0.00031418 -7.49941e-05
-0.000347712 0.000101675 0.000105445 -9.00349e-05
-0.000351191 0.000102666 0.000106511 -9.00368e-05
-0.00104929 0.000312577 0.000315736 -7.49947e-05
-0.000695969 0.000206321 0.000209849 -8.4388e-05
-0.000349452 0.00010217 0.000105978 -9.00358e-05
-0.000702864 0.000208341 0.000211938 -8.43897e-05
-0.000699416 0.000207331 0.000210894 -8.43889e-05
-0.00104414 0.000311053 0.00031418 -7.49941e-05
-0.00103383 0.000308003 0.000311069 -7.49928e-05
-0.000344234 0.000100683 0.000104379 -9.00329e-05
-0.000347712 0.000101675 0.000105445 -9.00349e-05
-0.00103899 0.000309528 0.000312625 -7.49935e-05
-0.000689075 0.000204302 0.00020776 -8.43864e-05
-0.000345973 0.000101179 0.000104912 -9.00339e-05
-0.000695969 0.000206321 0.000209849 -8.4388e-05
-0.000692522 0.000205312 0.000208804 -8.43872e-05
-0.00103383 0.000308003 0.000311069 -7.49928e-05
-0.00102352 0.000304953 0.000307959 -7.49915e-05
-0.000340757 9.96911e-05 0.000103314 -9.0031e-05
-0.000344234 0.000100683 0.000104379 -9.00329e-05
-0.00102868 0.000306478 0.000309514 -7.49922e-05
-0.000682181 0.000202282 0.000205671 -8.43848e-05
-0.000342496 0.000100187 0.000103847 -9.00319e-05
-0.000689075 0.000204302 0.00020776 -8.43864e-05
-0.000685628 0.000203292 0.000206716 -8.43856e-05
-0.00102352 0.000304953 0.000307959 -7.49915e-05
-0.00101322 0.000301903 0.000304848 -7.49903e-05
-0.000337281 9.86989e-05 0.000102249 -9.0029e-05
-0.000340757 9.96911e-05 0.000103314 -9.0031e-05
-0.00101837 0.000303428 0.000306403 -7.49909e-05
-0.000675289 0.000200261 0.000203583 -8.43831e-05
-0.000339019 9.91951e-05 0.000102782 -9.003e-05
-0.000682181 0.000202282 0.000205671 -8.43848e-05
-0.000678735 0.000201272 0.000204627 -8.4384e-05
-0.00101322 0.000301903 0.000304848 -7.49903e-05
-0.00100291 0.000298853 0.000301738 -7.4989e-05
-0.000333805 9.77064e-05 0.000101185 -9.00271e-05
-0.000337281 9.86989e-05 0.000102249 -9.0029e-05
-0.00100806 0.000300378 0.000303293 -7.49896e-05
-0.000668397 0.000198241 0.000201495 -8.43815e-05
-0.000335542 9.82027e-05 0.000101717 -9.00281e-05
-0.000675289 0.000200261 0.000203583 -8.43831e-05
-0.000671843 0.000199251 0.000202539 -8.43823e-05
-0.00100291 0.000298853 0.000301738 -7.4989e-05
-0.000992604 0.000295803 0.000298629 -7.49877e-05
-0.000330329 9.67136e-05 0.000100121 -9.00252e-05
-0.000333805 9.77064e-05 0.000101185 -9.00271e-05
-0.000997757 0.000297328 0.000300184 -7.49884e-05
-0.000661505 0.00019622 0.000199408 -8.43799e-05
-0.000332067 9.721e-05 0.000100653 -9.00261e-05
-0.000668397 0.000198241 0.000201495 -8.43815e-05
-0.000664951 0.000197231 0.000200452 -8.43807e-05
-0.000992604 0.000295803 0.000298629 -7.49877e-05
-0.000982299 0.000292752 0.00029552 -7.49865e-05
-0.000326855 9.57204e-05 9.90575e-05 -9.00232e-05
-0.000330329 9.67136e-05 0.000100121 -9.00252e-05
-0.000987451 0.000294278 0.000297074 -7.49871e-05
-0.000654615 0.000194199 0.000197321 -8.43783e-05
-0.000328592 9.6217e-05 9.95892e-05 -9.00242e-05
-0.000661505 0.00019622 0.000199408 -8.43799e-05
-0.00065806 0.00019521 0.000198364 -8.43791e-05
-0.000982299 0.000292752 0.00029552 -7.49865e-05
-0.000971995 0.000289702 0.000292411 -7.49852e-05
-0.000323381 9.4727e-05 9.79944e-05 -9.00213e-05
-0.000326855 9.57204e-05 9.90575e-05 -9.00232e-05
-0.000977147 0.000291227 0.000293966 -7.49859e-05
-0.000647725 0.000192178 0.000195235 -8.43767e-05
-0.000325118 9.52238e-05 9.85259e-05 -9.00223e-05
-0.000654615 0.000194199 0.000197321 -8.43783e-05
-0.00065117 0.000193188 0.000196278 -8.43775e-05
-0.000971995 0.000289702 0.000292411 -7.49852e-05
-0.000961691 0.000286651 0.000289303 -7.4984e-05
-0.000319907 9.37332e-05 9.69318e-05 -9.00194e-05
-0.000323381 9.4727e-05 9.79944e-05 -9.00213e-05
-0.000966843 0.000288176 0.000290857 -7.49846e-05
-0.000640836 0.000190156 0.000193148 -8.43751e-05
-0.000321644 9.42301e-05 9.74631e-05 -9.00204e-05
-0.000647725 0.000192178 0.000195235 -8.43767e-05
-0.00064428 0.000191167 0.000194191 -8.43759e-05
-0.000961691 0.000286651 0.000289303 -7.4984e-05
-0.000951389 0.0002836 0.000286195 -7.49828e-05
-0.000316435 9.27391e-05 9.58695e-05 -9.00175e-05
-0.000319907 9.37332e-05 9.69318e-05 -9.00194e-05
-0.00095654 0.000285125 0.000287749 -7.49834e-05
-0.000633947 0.000188134 0.000191063 -8.43735e-05
-0.000318171 9.32362e-05 9.64006e-05 -9.00185e-05
-0.000640836 0.000190156 0.000193148 -8.43751e-05
-0.000637392 0.000189145 0.000192106 -8.43743e-05
-0.000951389 0.0002836 0.000286195 -7.49828e-05
-0.000941087 0.000280548 0.000283088 -7.49815e-05
-0.000312963 9.17448e-05 9.48077e-05 -9.00157e-05
-0.000316435 9.27391e-05 9.58695e-05 -9.00175e-05
-0.000946238 0.000282074 0.000284642 -7.49822e-05
-0.00062706 0.000186112 0.000188978 -8.4372e-05
-0.000314699 9.2242e-05 9.53386e-05 -9.00166e-05
-0.000633947 0.000188134 0.000191063 -8.43735e-05
-0.000630504 0.000187123 0.00019002 -8.43728e-05
-0.000941087 0.000280548 0.000283088 -7.49815e-05
-0.000930786 0.000277497 0.000279981 -7.49803e-05
-0.000309491 9.07501e-05 9.37463e-05 -9.00138e-05
-0.000312963 9.17448e-05 9.48077e-05 -9.00157e-05
-0.000935936 0.000279022 0.000281534 -7.49809e-05
-0.000620173 0.00018409 0.000186893 -8.43704e-05
-0.000311227 9.12474e-05 9.4277e-05 -9.00147e-05
-0.00062706 0.000186112 0.000188978 -8.4372e-05
-0.000623616 0.000185101 0.000187935 -8.43712e-05
-0.000930786 0.000277497 0.000279981 -7.49803e-05
-0.000920485 0.000274445 0.000276874 -7.49791e-05
-0.000306021 8.9755e-05 9.26853e-05 -9.00119e-05
-0.000309491 9.07501e-05 9.37463e-05 -9.00138e-05
-0.000925635 0.000275971 0.000278428 -7.49797e-05
-0.000613287 0.000182067 0.000184808 -8.43689e-05
-0.000307756 9.02526e-05 9.32158e-05 -9.00129e-05
-0.000620173 0.00018409 0.000186893 -8.43704e-05
-0.00061673 0.000183079 0.00018585 -8.43696e-05
-0.000920485 0.000274445 0.000276874 -7.49791e-05
-0.000910186 0.000271393 0.000273768 -7.49779e-05
-0.000302551 8.87597e-05 9.16248e-05 -9.00101e-05
-0.000306021 8.9755e-05 9.26853e-05 -9.00119e-05
-0.000915335 0.000272919 0.000275321 -7.49785e-05
-0.000606401 0.000180044 0.000182724 -8.43673e-05
-0.000304286 8.92574e-05 9.2155e-05 -9.0011e-05
-0.000613287 0.000182067 0.000184808 -8.43689e-05
-0.000609844 0.000181056 0.000183766 -8.43681e-05
-0.000910186 0.000271393 0.000273768 -7.49779e-05
-0.000899887 0.000268341 0.000270663 -7.49767e-05
-0.000299082 8.77641e-05 9.05646e-05 -9.00082e-05
-0.000302551 8.87597e-05 9.16248e-05 -9.00101e-05
-0.000905036 0.000269867 0.000272215 -7.49773e-05
-0.000599516 0.000178021 0.000180641 -8.43658e-05
-0.000300816 8.82619e-05 9.10946e-05 -9.00092e-05
-0.000606401 0.000180044 0.000182724 -8.43673e-05
-0.000602959 0.000179033 0.000181682 -8.43666e-05
-0.000899887 0.000268341 0.000270663 -7.49767e-05
-0.000889589 0.000265289 0.000267557 -7.49756e-05
-0.000295613 8.67681e-05 8.95049e-05 -9.00064e-05
-0.000299082 8.77641e-05 9.05646e-05 -9.00082e-05
-0.000894738 0.000266815 0.00026911 -7.49761e-05
-0.000592632 0.000175998 0.000178558 -8.43643e-05
-0.000297347 8.72661e-05 9.00347e-05 -9.00073e-05
-0.000599516 0.000178021 0.000180641 -8.43658e-05
-0.000596074 0.000177009 0.000179599 -8.4365e-05
-0.000889589 0.000265289 0.000267557 -7.49756e-05
-0.000879291 0.000262236 0.000264452 -7.49744e-05
-0.000292145 8.57719e-05 8.84456e-05 -9.00046e-05
-0.000295613 8.67681e-05 8.95049e-05 -9.00064e-05
-0.00088444 0.000263762 0.000266005 -7.4975e-05
-0.000585749 0.000173974 0.000176475 -8.43628e-05
-0.000293879 8.627e-05 8.89752e-05 -9.00055e-05
-0.000592632 0.000175998 0.000178558 -8.43643e-05
-0.00058919 0.000174986 0.000177516 -8.43635e-05
-0.000879291 0.000262236 0.000264452 -7.49744e-05
-0.000868995 0.000259183 0.000261348 -7.49732e-05
-0.000288678 8.47753e-05 8.73867e-05 -9.00028e-05
-0.000292145 8.57719e-05 8.84456e-05 -9.00046e-05
-0.000874143 0.00026071 0.0002629 -7.49738e-05
-0.000578866 0.00017195 0.000174393 -8.43613e-05
-0.000290411 8.52736e-05 8.79161e-05 -9.00037e-05
-0.000585749 0.000173974 0.000176475 -8.43628e-05
-0.000582307 0.000172962 0.000175434 -8.4362e-05
-0.000868995 0.000259183 0.000261348 -7.49732e-05
-0.000858699 0.00025613 0.000258244 -7.49721e-05
-0.000285211 8.37784e-05 8.63282e-05 -9.0001e-05
-0.000288678 8.47753e-05 8.73867e-05 -9.00028e-05
-0.000863847 0.000257657 0.000259796 -7.49727e-05
-0.000571984 0.000169926 0.000172311 -8.43598e-05
-0.000286944 8.42769e-05 8.68574e-05 -9.00019e-05
-0.000578866 0.00017195 0.000174393 -8.43613e-05
-0.000575425 0.000170938 0.000173352 -8.43605e-05
-0.000858699 0.00025613 0.000258244 -7.49721e-05
-0.000848404 0.000253077 0.00025514 -7.49709e-05
-0.000281745 8.27812e-05 8.52701e-05 -8.99992e-05
-0.000285211 8.37784e-05 8.63282e-05 -9.0001e-05
-0.000853551 0.000254604 0.000256692 -7.49715e-05
-0.000565103 0.000167901 0.000170229 -8.43583e-05
-0.000283478 8.32798e-05 8.57991e-05 -9.00001e-05
-0.000571984 0.000169926 0.000172311 -8.43598e-05
-0.000568543 0.000168914 0.00017127 -8.4359e-05
-0.000848404 0.000253077 0.00025514 -7.49709e-05
-0.000838109 0.000250024 0.000252037 -7.49698e-05
-0.00027828 8.17837e-05 8.42125e-05 -8.99975e-05
-0.000281745 8.27812e-05 8.52701e-05 -8.99992e-05
-0.000843257 0.000251551 0.000253588 -7.49704e-05
-0.000558222 0.000165877 0.000168148 -8.43569e-05
-0.000280012 8.22825e-05 8.47413e-05 -8.99984e-05
-0.000565103 0.000167901 0.000170229 -8.43583e-05
-0.000561663 0.000166889 0.000169189 -8.43576e-05
-0.000838109 0.000250024 0.000252037 -7.49698e-05
-0.000827816 0.00024697 0.000248934 -7.49687e-05
-0.000274815 8.07859e-05 8.31553e-05 -8.99957e-05
-0.00027828 8.17837e-05 8.42125e-05 -8.99975e-05
-0.000832963 0.000248497 0.000250485 -7.49693e-05
-0.000551343 0.000163852 0.000166068 -8.43554e-05
-0.000276547 8.12848e-05 8.36838e-05 -8.99966e-05
-0.000558222 0.000165877 0.000168148 -8.43569e-05
-0.000554782 0.000164864 0.000167108 -8.43561e-05
-0.000827816 0.00024697 0.000248934 -7.49687e-05
-0.000817523 0.000243917 0.000245831 -7.49676e-05
-0.000271351 7.97877e-05 8.20985e-05 -8.9994e-05
-0.000274815 8.07859e-05 8.31553e-05 -8.99957e-05
-0.000822669 0.000245444 0.000247382 -7.49682e-05
-0.000544463 0.000161826 0.000163987 -8.4354e-05
-0.000273083 8.02868e-05 8.26268e-05 -8.99949e-05
-0.000551343 0.000163852 0.000166068 -8.43554e-05
-0.000547903 0.000162839 0.000165027 -8.43547e-05
-0.000817523 0.000243917 0.000245831 -7.49676e-05
-0.000807231 0.000240863 0.000242729 -7.49665e-05
-0.000267887 7.87893e-05 8.10421e-05 -8.99923e-05
-0.000271351 7.97877e-05 8.20985e-05 -8.9994e-05
-0.000812377 0.00024239 0.00024428 -7.49671e-05
-0.000537585 0.000159801 0.000161908 -8.43526e-05
-0.000269619 7.92885e-05 8.15702e-05 -8.99931e-05
-0.000544463 0.000161826 0.000163987 -8.4354e-05
-0.000541024 0.000160814 0.000162947 -8.43533e-05
-0.000807231 0.000240863 0.000242729 -7.49665e-05
-0.000796939 0.000237809 0.000239627 -7.49654e-05
-0.000264425 7.77905e-05 7.99861e-05 -8.99906e-05
-0.000267887 7.87893e-05 8.10421e-05 -8.99923e-05
-0.000802085 0.000239336 0.000241178 -7.4966e-05
-0.000530707 0.000157775 0.000159828 -8.43512e-05
-0.000266156 7.82899e-05 8.0514e-05 -8.99914e-05
-0.000537585 0.000159801 0.000161908 -8.43526e-05
-0.000534146 0.000158788 0.000160868 -8.43519e-05
-0.000796939 0.000237809 0.000239627 -7.49654e-05
-0.000786649 0.000234754 0.000236526 -7.49644e-05
-0.000260963 7.67914e-05 7.89305e-05 -8.99889e-05
-0.000264425 7.77905e-05 7.99861e-05 -8.99906e-05
-0.000791794 0.000236282 0.000238077 -7.49649e-05
-0.00052383 0.000155749 0.000157749 -8.43498e-05
-0.000262694 7.7291e-05 7.94583e-05 -8.99897e-05
-0.000530707 0.000157775 0.000159828 -8.43512e-05
-0.000527269 0.000156762 0.000158789 -8.43505e-05
-0.000786649 0.000234754 0.000236526 -7.49644e-05
-0.000776359 0.0002317 0.000233425 -7.49633e-05
-0.000257501 7.5792e-05 7.78754e-05 -8.99872e-05
-0.000260963 7.67914e-05 7.89305e-05 -8.99889e-05
-0.000781504 0.000233227 0.000234976 -7.49639e-05
-0.000516954 0.000153723 0.000155671 -8.43484e-05
-0.000259232 7.62918e-05 7.84029e-05 -8.9988e-05
-0.00052383 0.000155749 0.000157749 -8.43498e-05
-0.000520392 0.000154736 0.00015671 -8.43491e-05
-0.000776359 0.0002317 0.000233425 -7.49633e-05
-0.00076607 0.000228645 0.000230325 -7.49623e-05
-0.000254041 7.47923e-05 7.68207e-05 -8.99856e-05
-0.000257501 7.5792e-05 7.78754e-05 -8.99872e-05
-0.000771214 0.000230172 0.000231875 -7.49628e-05
-0.000510078 0.000151696 0.000153593 -8.4347e-05
-0.000255771 7.52922e-05 7.7348e-05 -8.99864e-05
-0.000516954 0.000153723 0.000155671 -8.43484e-05
-0.000513516 0.000152709 0.000154632 -8.43477e-05
-0.00076607 0.000228645 0.000230325 -7.49623e-05
-0.000755781 0.00022559 0.000227225 -7.49613e-05
-0.00025058 7.37923e-05 7.57663e-05 -8.99839e-05
-0.000254041 7.47923e-05 7.68207e-05 -8.99856e-05
-0.000760925 0.000227118 0.000228775 -7.49618e-05
-0.000503204 0.000149669 0.000151515 -8.43457e-05
-0.00025231 7.42923e-05 7.62935e-05 -8.99847e-05
-0.000510078 0.000151696 0.000153593 -8.4347e-05
-0.000506641 0.000150683 0.000152554 -8.43464e-05
-0.000755781 0.00022559 0.000227225 -7.49613e-05
-0.000745493 0.000222535 0.000224125 -7.49603e-05
-0.000247121 7.27919e-05 7.47125e-05 -8.99823e-05
-0.00025058 7.37923e-05 7.57663e-05 -8.99839e-05
-0.000750637 0.000224063 0.000225675 -7.49608e-05
-0.000496329 0.000147642 0.000149437 -8.43444e-05
-0.000248851 7.32921e-05 7.52393e-05 -8.99831e-05
-0.000503204 0.000149669 0.000151515 -8.43457e-05
-0.000499766 0.000148656 0.000150476 -8.4345e-05
-0.000745493 0.000222535 0.000224125 -7.49603e-05
-0.000735206 0.00021948 0.000221026 -7.49593e-05
-0.000243662 7.17913e-05 7.3659e-05 -8.99807e-05
-0.000247121 7.27919e-05 7.47125e-05 -8.99823e-05
-0.00074035 0.000221007 0.000222575 -7.49598e-05
-0.000489456 0.000145614 0.000147361 -8.4343e-05
-0.000245392 7.22916e-05 7.41857e-05 -8.99815e-05
-0.000496329 0.000147642 0.000149437 -8.43444e-05
-0.000492893 0.000146628 0.000148399 -8.43437e-05
-0.000735206 0.00021948 0.000221026 -7.49593e-05
-0.00072492 0.000216424 0.000217927 -7.49583e-05
-0.000240204 7.07903e-05 7.26059e-05 -8.99791e-05
-0.000243662 7.17913e-05 7.3659e-05 -8.99807e-05
-0.000730063 0.000217952 0.000219476 -7.49588e-05
-0.000482583 0.000143587 0.000145284 -8.43417e-05
-0.000241933 7.12908e-05 7.31324e-05 -8.99799e-05
-0.000489456 0.000145614 0.000147361 -8.4343e-05
-0.000486019 0.000144601 0.000146322 -8.43424e-05
-0.00072492 0.000216424 0.000217927 -7.49583e-05
-0.000714635 0.000213368 0.000214828 -7.49573e-05
-0.000236747 6.9789e-05 7.15532e-05 -8.99775e-05
-0.000240204 7.07903e-05 7.26059e-05 -8.99791e-05
-0.000719777 0.000214896 0.000216378 -7.49578e-05
-0.000475711 0.000141559 0.000143208 -8.43405e-05
-0.000238475 7.02897e-05 7.20795e-05 -8.99783e-05
-0.000482583 0.000143587 0.000145284 -8.43417e-05
-0.000479147 0.000142573 0.000144246 -8.43411e-05
-0.000714635 0.000213368 0.000214828 -7.49573e-05
-0.00070435 0.000210312 0.00021173 -7.49564e-05
-0.00023329 6.87874e-05 7.0501e-05 -8.9976e-05
-0.000236747 6.9789e-05 7.15532e-05 -8.99775e-05
-0.000709492 0.00021184 0.000213279 -7.49568e-05
-0.00046884 0.000139531 0.000141132 -8.43392e-05
-0.000235018 6.92883e-05 7.10271e-05 -8.99767e-05
-0.000475711 0.000141559 0.000143208 -8.43405e-05
-0.000472275 0.000140545 0.00014217 -8.43398e-05
-0.00070435 0.000210312 0.00021173 -7.49564e-05
-0.000694066 0.000207256 0.000208633 -7.49554e-05
-0.000229834 6.77855e-05 6.94492e-05 -8.99744e-05
-0.00023329 6.87874e-05 7.0501e-05 -8.9976e-05
-0.000699208 0.000208784 0.000210181 -7.49559e-05
-0.000461969 0.000137502 0.000139057 -8.4338e-05
-0.000231562 6.82865e-05 6.9975e-05 -8.99752e-05
-0.00046884 0.000139531 0.000141132 -8.43392e-05
-0.000465404 0.000138516 0.000140095 -8.43386e-05
-0.000694066 0.000207256 0.000208633 -7.49554e-05
-0.000683782 0.0002042 0.000205535 -7.49545e-05
-0.000226378 6.67833e-05 6.83978e-05 -8.99729e-05
-0.000229834 6.77855e-05 6.94492e-05 -8.99744e-05
-0.000688924 0.000205728 0.000207084 -7.4955e-05
-0.000455099 0.000135473 0.000136982 -8.43367e-05
-0.000228106 6.72844e-05 6.89234e-05 -8.99737e-05
-0.000461969 0.000137502 0.000139057 -8.4338e-05
-0.000458534 0.000136488 0.00013802 -8.43373e-05
-0.000683782 0.0002042 0.000205535 -7.49545e-05
-0.0006735 0.000201143 0.000202439 -7.49536e-05
-0.000222923 6.57807e-05 6.73468e-05 -8.99714e-05
-0.000226378 6.67833e-05 6.83978e-05 -8.99729e-05
-0.000678641 0.000202671 0.000203987 -7.49541e-05
-0.00044823 0.000133444 0.000134908 -8.43355e-05
-0.000224651 6.6282e-05 6.78722e-05 -8.99722e-05
-0.000455099 0.000135473 0.000136982 -8.43367e-05
-0.000451664 0.000134459 0.000135945 -8.43361e-05
-0.0006735 0.000201143 0.000202439 -7.49536e-05
-0.000663218 0.000198086 0.000199342 -7.49527e-05
-0.000219469 6.47779e-05 6.62962e-05 -8.99699e-05
-0.000222923 6.57807e-05 6.73468e-05 -8.99714e-05
-0.000668359 0.000199615 0.00020089 -7.49532e-05
-0.000441361 0.000131415 0.000132834 -8.43343e-05
-0.000221196 6.52793e-05 6.68214e-05 -8.99707e-05
-0.00044823 0.000133444 0.000134908 -8.43355e-05
-0.000444795 0.00013243 0.000133871 -8.43349e-05
-0.000663218 0.000198086 0.000199342 -7.49527e-05
-0.000652936 0.000195029 0.000196246 -7.49518e-05
-0.000216015 6.37747e-05 6.5246e-05 -8.99685e-05
-0.000219469 6.47779e-05 6.62962e-05 -8.99699e-05
-0.000658077 0.000196558 0.000197794 -7.49523e-05
-0.000434493 0.000129385 0.00013076 -8.43331e-05
-0.000217742 6.42763e-05 6.57711e-05 -8.99692e-05
-0.000441361 0.000131415 0.000132834 -8.43343e-05
-0.000437927 0.0001304 0.000131797 -8.43337e-05
-0.000652936 0.000195029 0.000196246 -7.49518e-05
-0.000642656 0.000191972 0.00019315 -7.4951e-05
-0.000212562 6.27712e-05 6.41963e-05 -8.99671e-05
-0.000216015 6.37747e-05 6.5246e-05 -8.99685e-05
-0.000647796 0.000193501 0.000194698 -7.49514e-05
-0.000427626 0.000127356 0.000128687 -8.4332e-05
-0.000214289 6.3273e-05 6.47211e-05 -8.99678e-05
-0.000434493 0.000129385 0.00013076 -8.43331e-05
-0.000431059 0.00012837 0.000129724 -8.43326e-05
-0.000642656 0.000191972 0.00019315 -7.4951e-05
-0.000632376 0.000188914 0.000190055 -7.49501e-05
-0.00020911 6.17674e-05 6.31469e-05 -8.99656e-05
-0.000212562 6.27712e-05 6.41963e-05 -8.99671e-05
-0.000637516 0.000190443 0.000191603 -7.49506e-05
-0.000420759 0.000125325 0.000126614 -8.43309e-05
-0.000210836 6.22693e-05 6.36715e-05 -8.99663e-05
-0.000427626 0.000127356 0.000128687 -8.4332e-05
-0.000424192 0.00012634 0.000127651 -8.43314e-05
-0.000632376 0.000188914 0.000190055 -7.49501e-05
-0.000622097 0.000185857 0.00018696 -7.49493e-05
-0.000205659 6.07632e-05 6.2098e-05 -8.99642e-05
-0.00020911 6.17674e-05 6.31469e-05 -8.99656e-05
-0.000627236 0.000187386 0.000188507 -7.49497e-05
-0.000413893 0.000123295 0.000124542 -8.43297e-05
-0.000207384 6.12653e-05 6.26224e-05 -8.99649e-05
-0.000420759 0.000125325 0.000126614 -8.43309e-05
-0.000417326 0.00012431 0.000125578 -8.43303e-05
-0.000622097 0.000185857 0.00018696 -7.49493e-05
-0.000611818 0.000182799 0.000183866 -7.49485e-05
-0.000202208 5.97588e-05 6.10495e-05 -8.99629e-05
-0.000205659 6.07632e-05 6.2098e-05 -8.99642e-05
-0.000616958 0.000184328 0.000185413 -7.49489e-05
-0.000407028 0.000121264 0.00012247 -8.43286e-05
-0.000203933 6.02611e-05 6.15737e-05 -8.99635e-05
-0.000413893 0.000123295 0.000124542 -8.43297e-05
-0.000410461 0.00012228 0.000123506 -8.43292e-05
-0.000611818 0.000182799 0.000183866 -7.49485e-05
-0.000601541 0.000179741 0.000180771 -7.49477e-05
-0.000198757 5.8754e-05 6.00014e-05 -8.99615e-05
-0.000202208 5.97588e-05 6.10495e-05 -8.99629e-05
-0.000606679 0.00018127 0.000182318 -7.49481e-05
-0.000400164 0.000119233 0.000120399 -8.43276e-05
-0.000200482 5.92565e-05 6.05254e-05 -8.99622e-05
-0.000407028 0.000121264 0.00012247 -8.43286e-05
-0.000403596 0.000120249 0.000121434 -8.43281e-05
-0.000601541 0.000179741 0.000180771 -7.49477e-05
-0.000591264 0.000176682 0.000177678 -7.4947e-05
-0.000195308 5.77489e-05 5.89537e-05 -8.99602e-05
-0.000198757 5.8754e-05 6.00014e-05 -8.99615e-05
-0.000596402 0.000178212 0.000179224 -7.49473e-05
-0.0003933 0.000117202 0.000118328 -8.43265e-05
-0.000197032 5.82515e-05 5.94775e-05 -8.99608e-05
-0.000400164 0.000119233 0.000120399 -8.43276e-05
-0.000396732 0.000118218 0.000119363 -8.4327e-05
-0.000591264 0.000176682 0.000177678 -7.4947e-05
-0.000580987 0.000173624 0.000174584 -7.49462e-05
-0.000191858 5.67435e-05 5.79064e-05 -8.99589e-05
-0.000195308 5.77489e-05 5.89537e-05 -8.99602e-05
-0.000586125 0.000175153 0.000176131 -7.49466e-05
-0.000386436 0.000115171 0.000116257 -8.43255e-05
-0.000193583 5.72463e-05 5.843e-05 -8.99595e-05
-0.0003933 0.000117202 0.000118328 -8.43265e-05
-0.000389868 0.000116186 0.000117292 -8.4326e-05
-0.000580987 0.000173624 0.000174584 -7.49462e-05
-0.000570712 0.000170565 0.000171491 -7.49455e-05
-0.00018841 5.57378e-05 5.68595e-05 -8.99576e-05
-0.000191858 5.67435e-05 5.79064e-05 -8.99589e-05
-0.000575849 0.000172094 0.000173038 -7.49458e-05
-0.000379574 0.000113139 0.000114186 -8.43244e-05
-0.000190134 5.62407e-05 5.73829e-05 -8.99582e-05
-0.000386436 0.000115171 0.000116257 -8.43255e-05
-0.000383005 0.000114155 0.000115222 -8.43249e-05
-0.000570712 0.000170565 0.000171491 -7.49455e-05
-0.000560437 0.000167506 0.000168399 -7.49448e-05
-0.000184962 5.47318e-05 5.58131e-05 -8.99563e-05
-0.00018841 5.57378e-05 5.68595e-05 -8.99576e-05
-0.000565574 0.000169036 0.000169945 -7.49451e-05
-0.000372712 0.000111107 0.000112117 -8.43234e-05
-0.000186686 5.52348e-05 5.63362e-05 -8.99569e-05
-0.000379574 0.000113139 0.000114186 -8.43244e-05
-0.000376143 0.000112123 0.000113151 -8.43239e-05
-0.000560437 0.000167506 0.000168399 -7.49448e-05
-0.000550162 0.000164447 0.000165307 -7.49441e-05
-0.000181515 5.37254e-05 5.4767e-05 -8.9955e-05
-0.000184962 5.47318e-05 5.58131e-05 -8.99563e-05
-0.000555299 0.000165977 0.000166853 -7.49444e-05
-0.000365851 0.000109074 0.000110047 -8.43225e-05
-0.000183239 5.42286e-05 5.529e-05 -8.99557e-05
-0.000372712 0.000111107 0.000112117 -8.43234e-05
-0.000369281 0.000110091 0.000111082 -8.4323e-05
-0.000550162 0.000164447 0.000165307 -7.49441e-05
-0.000539889 0.000161387 0.000162215 -7.49434e-05
-0.000178069 5.27188e-05 5.37214e-05 -8.99538e-05
-0.000181515 5.37254e-05 5.4767e-05 -8.9955e-05
-0.000545025 0.000162917 0.000163761 -7.49437e-05
-0.00035899 0.000107042 0.000107978 -8.43215e-05
-0.000179792 5.32221e-05 5.42441e-05 -8.99544e-05
-0.000365851 0.000109074 0.000110047 -8.43225e-05
-0.000362421 0.000108058 0.000109012 -8.4322e-05
-0.000539889 0.000161387 0.000162215 -7.49434e-05
-0.000529616 0.000158328 0.000159123 -7.49427e-05
-0.000174623 5.17118e-05 5.26761e-05 -8.99526e-05
-0.000178069 5.27188e-05 5.37214e-05 -8.99538e-05
-0.000534752 0.000159858 0.000160669 -7.4943e-05
-0.000352131 0.000105009 0.000105909 -8.43206e-05
-0.000176346 5.22153e-05 5.31987e-05 -8.99532e-05
-0.00035899 0.000107042 0.000107978 -8.43215e-05
-0.00035556 0.000106025 0.000106944 -8.4321e-05
-0.000529616 0.000158328 0.000159123 -7.49427e-05
-0.000519344 0.000155268 0.000156032 -7.49421e-05
-0.000171178 5.07044e-05 5.16313e-05 -8.99514e-05
-0.000174623 5.17118e-05 5.26761e-05 -8.99526e-05
-0.00052448 0.000156798 0.000157578 -7.49424e-05
-0.000345271 0.000102976 0.000103841 -8.43197e-05
-0.0001729 5.12081e-05 5.21537e-05 -8.9952e-05
-0.000352131 0.000105009 0.000105909 -8.43206e-05
-0.000348701 0.000103992 0.000104875 -8.43201e-05
-0.000519344 0.000155268 0.000156032 -7.49421e-05
-0.000509072 0.000152208 0.000152942 -7.49415e-05
-0.000167733 4.96968e-05 5.05869e-05 -8.99503e-05
-0.000171178 5.07044e-05 5.16313e-05 -8.99514e-05
-0.000514208 0.000153738 0.000154487 -7.49418e-05
-0.000338413 0.000100942 0.000101773 -8.43188e-05
-0.000169455 5.02007e-05 5.11091e-05 -8.99508e-05
-0.000345271 0.000102976 0.000103841 -8.43197e-05
-0.000341842 0.000101959 0.000102807 -8.43192e-05
-0.000509072 0.000152208 0.000152942 -7.49415e-05
-0.000498801 0.000149148 0.000149851 -7.49409e-05
-0.000164289 4.86888e-05 4.95429e-05 -8.99491e-05
-0.000167733 4.96968e-05 5.05869e-05 -8.99503e-05
-0.000503936 0.000150678 0.000151397 -7.49412e-05
-0.000331555 9.89086e-05 9.97057e-05 -8.43179e-05
-0.000166011 4.91929e-05 5.00649e-05 -8.99497e-05
-0.000338413 0.000100942 0.000101773 -8.43188e-05
-0.000334984 9.99255e-05 0.000100739 -8.43183e-05
-0.000498801 0.000149148 0.000149851 -7.49409e-05
-0.000488531 0.000146087 0.000146762 -7.49403e-05
-0.000160846 4.76806e-05 4.84993e-05 -8.9948e-05
-0.000164289 4.86888e-05 4.95429e-05 -8.99491e-05
-0.000493666 0.000147617 0.000148307 -7.49406e-05
-0.000324698 9.68745e-05 9.76386e-05 -8.4317e-05
-0.000162567 4.81848e-05 4.90211e-05 -8.99486e-05
-0.000331555 9.89086e-05 9.97057e-05 -8.43179e-05
-0.000328126 9.78916e-05 9.86721e-05 -8.43175e-05
-0.000488531 0.000146087 0.000146762 -7.49403e-05
-0.000478261 0.000143026 0.000143672 -7.49397e-05
-0.000157403 4.6672e-05 4.74561e-05 -8.99469e-05
-0.000160846 4.76806e-05 4.84993e-05 -8.9948e-05
-0.000483396 0.000144557 0.000145217 -7.494e-05
-0.000317841 9.48402e-05 9.5572e-05 -8.43162e-05
-0.000159124 4.71763e-05 4.79777e-05 -8.99475e-05
-0.000324698 9.68745e-05 9.76386e-05 -8.4317e-05
-0.00032127 9.58574e-05 9.66052e-05 -8.43166e-05
-0.000478261 0.000143026 0.000143672 -7.49397e-05
-0.000467992 0.000139965 0.000140583 -7.49392e-05
-0.000153961 4.56631e-05 4.64134e-05 -8.99459e-05
-0.000157403 4.6672e-05 4.74561e-05 -8.99469e-05
-0.000473127 0.000141496 0.000142128 -7.49394e-05
-0.000310986 9.28057e-05 9.35057e-05 -8.43154e-05
-0.000155682 4.61676e-05 4.69347e-05 -8.99464e-05
-0.000317841 9.48402e-05 9.5572e-05 -8.43162e-05
-0.000314413 9.3823e-05 9.45388e-05 -8.43158e-05
-0.000467992 0.000139965 0.000140583 -7.49392e-05
-0.000457724 0.000136904 0.000137494 -7.49386e-05
-0.000150519 4.46538e-05 4.5371e-05 -8.99448e-05
-0.000153961 4.56631e-05 4.64134e-05 -8.99459e-05
-0.000462858 0.000138435 0.000139039 -7.49389e-05
-0.00030413 9.07708e-05 9.14398e-05 -8.43146e-05
-0.00015224 4.51585e-05 4.58921e-05 -8.99454e-05
-0.000310986 9.28057e-05 9.35057e-05 -8.43154e-05
-0.000307558 9.17883e-05 9.24727e-05 -8.4315e-05
-0.000457724 0.000136904 0.000137494 -7.49386e-05
-0.000447457 0.000133843 0.000134406 -7.49381e-05
-0.000147079 4.36443e-05 4.4329e-05 -8.99438e-05
-0.000150519 4.46538e-05 4.5371e-05 -8.99448e-05
-0.00045259 0.000135373 0.00013595 -7.49384e-05
-0.000297276 8.87357e-05 8.93744e-05 -8.43139e-05
-0.000148799 4.41491e-05 4.485e-05 -8.99443e-05
-0.00030413 9.07708e-05 9.14398e-05 -8.43146e-05
-0.000300703 8.97533e-05 9.0407e-05 -8.43143e-05
-0.000447457 0.000133843 0.000134406 -7.49381e-05
-0.00043719 0.000130781 0.000131318 -7.49377e-05
-0.000143638 4.26344e-05 4.32875e-05 -8.99428e-05
-0.000147079 4.36443e-05 4.4329e-05 -8.99438e-05
-0.000442323 0.000132312 0.000132862 -7.49379e-05
-0.000290422 8.67003e-05 8.73093e-05 -8.43131e-05
-0.000145359 4.31394e-05 4.38082e-05 -8.99433e-05
-0.000297276 8.87357e-05 8.93744e-05 -8.43139e-05
-0.000293849 8.7718e-05 8.83418e-05 -8.43135e-05
-0.00043719 0.000130781 0.000131318 -7.49377e-05
-0.000426923 0.000127719 0.00012823 -7.49372e-05
-0.000140199 4.16242e-05 4.22463e-05 -8.99419e-05
-0.000143638 4.26344e-05 4.32875e-05 -8.99428e-05
-0.000432056 0.00012925 0.000129774 -7.49374e-05
-0.000283569 8.46645e-05 8.52446e-05 -8.43124e-05
-0.000141919 4.21293e-05 4.27669e-05 -8.99424e-05
-0.000290422 8.67003e-05 8.73093e-05 -8.43131e-05
-0.000286995 8.56824e-05 8.62769e-05 -8.43128e-05
-0.000426923 0.000127719 0.00012823 -7.49372e-05
-0.000416658 0.000124657 0.000125143 -7.49368e-05
-0.00013676 4.06137e-05 4.12056e-05 -8.99409e-05
-0.000140199 4.16242e-05 4.22463e-05 -8.99419e-05
-0.00042179 0.000126188 0.000126687 -7.4937e-05
-0.000276716 8.26286e-05 8.31804e-05 -8.43117e-05
-0.000138479 4.1119e-05 4.17259e-05 -8.99414e-05
-0.000283569 8.46645e-05 8.52446e-05 -8.43124e-05
-0.000280142 8.36466e-05 8.42125e-05 -8.43121e-05
-0.000416658 0.000124657 0.000125143 -7.49368e-05
-0.000406393 0.000121595 0.000122056 -7.49363e-05
-0.000133322 3.96028e-05 4.01653e-05 -8.994e-05
-0.00013676 4.06137e-05 4.12056e-05 -8.99409e-05
-0.000411525 0.000123126 0.0001236 -7.49365e-05
-0.000269864 8.05923e-05 8.11165e-05 -8.43111e-05
-0.000135041 4.01083e-05 4.06854e-05 -8.99405e-05
-0.000276716 8.26286e-05 8.31804e-05 -8.43117e-05
-0.00027329 8.16105e-05 8.21484e-05 -8.43114e-05
-0.000406393 0.000121595 0.000122056 -7.49363e-05
-0.000396128 0.000118532 0.00011897 -7.49359e-05
-0.000129884 3.85916e-05 3.91253e-05 -8.99391e-05
-0.000133322 3.96028e-05 4.01653e-05 -8.994e-05
-0.000401261 0.000120063 0.000120513 -7.49361e-05
-0.000263013 7.85557e-05 7.90531e-05 -8.43104e-05
-0.000131603 3.90973e-05 3.96453e-05 -8.99396e-05
-0.000269864 8.05923e-05 8.11165e-05 -8.43111e-05
-0.000266438 7.9574e-05 8.00847e-05 -8.43108e-05
-0.000396128 0.000118532 0.00011897 -7.49359e-05
-0.000385865 0.000115469 0.000115884 -7.49356e-05
-0.000126447 3.75801e-05 3.80858e-05 -8.99383e-05
-0.000129884 3.85916e-05 3.91253e-05 -8.99391e-05
-0.000390997 0.000117001 0.000117427 -7.49357e-05
-0.000256162 7.65189e-05 7.699e-05 -8.43098e-05
-0.000128166 3.80859e-05 3.86055e-05 -8.99387e-05
-0.000263013 7.85557e-05 7.90531e-05 -8.43104e-05
-0.000259587 7.75373e-05 7.80215e-05 -8.43101e-05
-0.000385865 0.000115469 0.000115884 -7.49356e-05
-0.000375602 0.000112406 0.000112798 -7.49352e-05
-0.000123011 3.65683e-05 3.70467e-05 -8.99374e-05
-0.000126447 3.75801e-05 3.80858e-05 -8.99383e-05
-0.000380733 0.000113938 0.000114341 -7.49354e-05
-0.000249312 7.44817e-05 7.49273e-05 -8.43092e-05
-0.000124729 3.70743e-05 3.75662e-05 -8.99378e-05
-0.000256162 7.65189e-05 7.699e-05 -8.43098e-05
-0.000252737 7.55003e-05 7.59586e-05 -8.43095e-05
-0.000375602 0.000112406 0.000112798 -7.49352e-05
-0.000365339 0.000109343 0.000109713 -7.49349e-05
-0.000119575 3.55562e-05 3.6008e-05 -8.99366e-05
-0.000123011 3.65683e-05 3.70467e-05 -8.99374e-05
-0.00037047 0.000110874 0.000111255 -7.4935e-05
-0.000242463 7.24443e-05 7.2865e-05 -8.43087e-05
-0.000121293 3.60623e-05 3.65273e-05 -8.9937e-05
-0.000249312 7.44817e-05 7.49273e-05 -8.43092e-05
-0.000245887 7.34631e-05 7.38961e-05 -8.43089e-05
-0.000365339 0.000109343 0.000109713 -7.49349e-05
-0.000355078 0.000106279 0.000106628 -7.49346e-05
-0.00011614 3.45437e-05 3.49697e-05 -8.99358e-05
-0.000119575 3.55562e-05 3.6008e-05 -8.99366e-05
-0.000360208 0.000107811 0.00010817 -7.49347e-05
-0.000235614 7.04066e-05 7.08032e-05 -8.43081e-05
-0.000117857 3.505e-05 3.54888e-05 -8.99362e-05
-0.000242463 7.24443e-05 7.2865e-05 -8.43087e-05
-0.000239038 7.14255e-05 7.1834e-05 -8.43084e-05
-0.000355078 0.000106279 0.000106628 -7.49346e-05
-0.000344816 0.000103215 0.000103543 -7.49343e-05
-0.000112705 3.35309e-05 3.39318e-05 -8.99351e-05
-0.00011614 3.45437e-05 3.49697e-05 -8.99358e-05
-0.000349947 0.000104747 0.000105086 -7.49344e-05
-0.000228766 6.83686e-05 6.87417e-05 -8.43076e-05
-0.000114422 3.40374e-05 3.44507e-05 -8.99354e-05
-0.000235614 7.04066e-05 7.08032e-05 -8.43081e-05
-0.00023219 6.93876e-05 6.97724e-05 -8.43079e-05
-0.000344816 0.000103215 0.000103543 -7.49343e-05
-0.000334556 0.000100151 0.000100459 -7.4934e-05
-0.000109271 3.25178e-05 3.28943e-05 -8.99343e-05
-0.000112705 3.35309e-05 3.39318e-05 -8.99351e-05
-0.000339686 0.000101684 0.000102001 -7.49341e-05
-0.000221918 6.63303e-05 6.66806e-05 -8.43071e-05
-0.000110988 3.30244e-05 3.3413e-05 -8.99347e-05
-0.000228766 6.83686e-05 6.87417e-05 -8.43076e-05
-0.000225342 6.73495e-05 6.77111e-05 -8.43073e-05
-0.000334556 0.000100151 0.000100459 -7.4934e-05
-0.000324296 9.70872e-05 9.73752e-05 -7.49337e-05
-0.000105838 3.15043e-05 3.18573e-05 -8.99336e-05
-0.000109271 3.25178e-05 3.28943e-05 -8.99343e-05
-0.000329426 9.86194e-05 9.89171e-05 -7.49339e-05
-0.000215071 6.42917e-05 6.46199e-05 -8.43066e-05
-0.000107555 3.20111e-05 3.23757e-05 -8.9934e-05
-0.000221918 6.63303e-05 6.66806e-05 -8.43071e-05
-0.000218495 6.53111e-05 6.56502e-05 -8.43068e-05
-0.000324296 9.70872e-05 9.73752e-05 -7.49337e-05
-0.000314037 9.40227e-05 9.42917e-05 -7.49335e-05
-0.000102405 3.04905e-05 3.08206e-05 -8.99329e-05
-0.000105838 3.15043e-05 3.18573e-05 -8.99336e-05
-0.000319166 9.5555e-05 9.58334e-05 -7.49336e-05
-0.000208225 6.22528e-05 6.25596e-05 -8.43061e-05
-0.000104122 3.09975e-05 3.13389e-05 -8.99333e-05
-0.000215071 6.42917e-05 6.46199e-05 -8.43066e-05
-0.000211648 6.32723e-05 6.35897e-05 -8.43064e-05
-0.000314037 9.40227e-05 9.42917e-05 -7.49335e-05
-0.000303778 9.0958e-05 9.12086e-05 -7.49332e-05
-9.89731e-05 2.94764e-05 2.97843e-05 -8.99323e-05
-0.000102405 3.04905e-05 3.08206e-05 -8.99329e-05
-0.000308907 9.24904e-05 9.27501e-05 -7.49334e-05
-0.00020138 6.02136e-05 6.04997e-05 -8.43057e-05
-0.000100689 2.99835e-05 3.03024e-05 -8.99326e-05
-0.000208225 6.22528e-05 6.25596e-05 -8.43061e-05
-0.000204802 6.12333e-05 6.15296e-05 -8.43059e-05
-0.000303778 9.0958e-05 9.12086e-05 -7.49332e-05
-0.00029352 8.7893e-05 8.81259e-05 -7.4933e-05
-9.55416e-05 2.84619e-05 2.87484e-05 -8.99316e-05
-9.89731e-05 2.94764e-05 2.97843e-05 -8.99323e-05
-0.000298649 8.94255e-05 8.96672e-05 -7.49331e-05
-0.000194535 5.81741e-05 5.84402e-05 -8.43053e-05
-9.72573e-05 2.89692e-05 2.92663e-05 -8.99319e-05
-0.00020138 6.02136e-05 6.04997e-05 -8.43057e-05
-0.000197957 5.91939e-05 5.94699e-05 -8.43055e-05
-0.00029352 8.7893e-05 8.81259e-05 -7.4933e-05
-0.000283263 8.48277e-05 8.50435e-05 -7.49328e-05
-9.21107e-05 2.74471e-05 2.7713e-05 -8.9931e-05
-9.55416e-05 2.84619e-05 2.87484e-05 -8.99316e-05
-0.000288391 8.63604e-05 8.65846e-05 -7.49329e-05
-0.00018769 5.61343e-05 5.63811e-05 -8.43048e-05
-9.38261e-05 2.79545e-05 2.82307e-05 -8.99313e-05
-0.000194535 5.81741e-05 5.84402e-05 -8.43053e-05
-0.000191112 5.71542e-05 5.74106e-05 -8.43051e-05
-0.000283263 8.48277e-05 8.50435e-05 -7.49328e-05
-0.000273006 8.17622e-05 8.19615e-05 -7.49325e-05
-8.86803e-05 2.64319e-05 2.66779e-05 -8.99304e-05
-9.21107e-05 2.74471e-05 2.7713e-05 -8.9931e-05
-0.000278134 8.3295e-05 8.35024e-05 -7.49327e-05
-0.000180846 5.40941e-05 5.43224e-05 -8.43044e-05
-9.03954e-05 2.69395e-05 2.71954e-05 -8.99307e-05
-0.00018769 5.61343e-05 5.63811e-05 -8.43048e-05
-0.000184268 5.51143e-05 5.53517e-05 -8.43046e-05
-0.000273006 8.17622e-05 8.19615e-05 -7.49325e-05
-0.000262749 7.86964e-05 7.88799e-05 -7.49323e-05
-8.52505e-05 2.54163e-05 2.56433e-05 -8.99297e-05
-8.86803e-05 2.64319e-05 2.66779e-05 -8.99304e-05
-0.000267877 8.02293e-05 8.04206e-05 -7.49324e-05
-0.000174003 5.20537e-05 5.2264e-05 -8.4304e-05
-8.69654e-05 2.59241e-05 2.61605e-05 -8.99301e-05
-0.000180846 5.40941e-05 5.43224e-05 -8.43044e-05
-0.000177425 5.30739e-05 5.32931e-05 -8.43042e-05
-0.000262749 7.86964e-05 7.88799e-05 -7.49323e-05
-0.000252494 7.56303e-05 7.57986e-05 -7.4932e-05
-8.18213e-05 2.44003e-05 2.4609e-05 -8.99291e-05
-8.52505e-05 2.54163e-05 2.56433e-05 -8.99297e-05
-0.000257621 7.71634e-05 7.73392e-05 -7.49321e-05
-0.00016716 5.00128e-05 5.02061e-05 -8.43035e-05
-8.35358e-05 2.49083e-05 2.51261e-05 -8.99294e-05
-0.000174003 5.20537e-05 5.2264e-05 -8.4304e-05
-0.000170582 5.10333e-05 5.1235e-05 -8.43037e-05
-0.000252494 7.56303e-05 7.57986e-05 -7.4932e-05
-0.000242239 7.2564e-05 7.27177e-05 -7.49316e-05
-7.83926e-05 2.3384e-05 2.35751e-05 -8.99285e-05
-8.18213e-05 2.44003e-05 2.4609e-05 -8.99291e-05
-0.000247366 7.40972e-05 7.42581e-05 -7.49318e-05
-0.000160318 4.79717e-05 4.81485e-05 -8.4303e-05
-8.01069e-05 2.38922e-05 2.4092e-05 -8.99288e-05
-0.00016716 5.00128e-05 5.02061e-05 -8.43035e-05
-0.000163739 4.89923e-05 4.91772e-05 -8.43033e-05
-0.000242239 7.2564e-05 7.27177e-05 -7.49316e-05
-0.000231984 6.94974e-05 6.96371e-05 -7.49313e-05
-7.49644e-05 2.23673e-05 2.25416e-05 -8.99279e-05
-7.83926e-05 2.3384e-05 2.35751e-05 -8.99285e-05
-0.000237111 7.10307e-05 7.11773e-05 -7.49315e-05
-0.000153477 4.59303e-05 4.60913e-05 -8.43025e-05
-7.66784e-05 2.28757e-05 2.30583e-05 -8.99282e-05
-0.000160318 4.79717e-05 4.81485e-05 -8.4303e-05
-0.000156897 4.6951e-05 4.71198e-05 -8.43028e-05
-0.000231984 6.94974e-05 6.96371e-05 -7.49313e-05
-0.00022173 6.64307e-05 6.65569e-05 -7.49309e-05
-7.15367e-05 2.13504e-05 2.15084e-05 -8.99272e-05
-7.49644e-05 2.23673e-05 2.25416e-05 -8.99279e-05
-0.000226857 6.79641e-05 6.80969e-05 -7.49311e-05
-0.000146636 4.38886e-05 4.40344e-05 -8.4302e-05
-7.32505e-05 2.18589e-05 2.2025e-05 -8.99275e-05
-0.000153477 4.59303e-05 4.60913e-05 -8.43025e-05
-0.000150056 4.49095e-05 4.50628e-05 -8.43022e-05
-0.00022173 6.64307e-05 6.65569e-05 -7.49309e-05
-0.000211477 6.33638e-05 6.34769e-05 -7.49305e-05
-6.81096e-05 2.03333e-05 2.04756e-05 -8.99265e-05
-7.15367e-05 2.13504e-05 2.15084e-05 -8.99272e-05
-0.000216603 6.48972e-05 6.50169e-05 -7.49307e-05
-0.000139795 4.18468e-05 4.19779e-05 -8.43014e-05
-6.98231e-05 2.08418e-05 2.09919e-05 -8.99268e-05
-0.000146636 4.38886e-05 4.40344e-05 -8.4302e-05
-0.000143215 4.28677e-05 4.30061e-05 -8.43017e-05
-0.000211477 6.33638e-05 6.34769e-05 -7.49305e-05
-0.000201224 6.02969e-05 6.03973e-05 -7.49303e-05
-6.46831e-05 1.93161e-05 1.9443e-05 -8.99258e-05
-6.81096e-05 2.03333e-05 2.04756e-05 -8.99265e-05
-0.00020635 6.18304e-05 6.19371e-05 -7.49304e-05
-0.000132955 3.9805e-05 3.99216e-05 -8.43009e-05
-6.63963e-05 1.98247e-05 1.99593e-05 -8.99261e-05
-0.000139795 4.18468e-05 4.19779e-05 -8.43014e-05
-0.000136375 4.08259e-05 4.09497e-05 -8.43012e-05
-0.000201224 6.02969e-05 6.03973e-05 -7.49303e-05
-0.000190972 5.72302e-05 5.73179e-05 -7.49302e-05
-6.12575e-05 1.82992e-05 1.84107e-05 -8.9925e-05
-6.46831e-05 1.93161e-05 1.9443e-05 -8.99258e-05
-0.000196098 5.87635e-05 5.88576e-05 -7.49302e-05
-0.000126116 3.77634e-05 3.78656e-05 -8.43006e-05
-6.29702e-05 1.88076e-05 1.89268e-05 -8.99254e-05
-0.000132955 3.9805e-05 3.99216e-05 -8.43009e-05
-0.000129536 3.87841e-05 3.88936e-05 -8.43007e-05
-0.000190972 5.72302e-05 5.73179e-05 -7.49302e-05
-0.000180721 5.41638e-05 5.42388e-05 -7.49306e-05
-5.78329e-05 1.72829e-05 1.73786e-05 -8.99245e-05
-6.12575e-05 1.82992e-05 1.84107e-05 -8.9925e-05
-0.000185846 5.56969e-05 5.57783e-05 -7.49303e-05
-0.000119279 3.57222e-05 3.58099e-05 -8.43005e-05
-5.95451e-05 1.77909e-05 1.78946e-05 -8.99247e-05
-0.000126116 3.77634e-05 3.78656e-05 -8.43006e-05
-0.000122697 3.67427e-05 3.68377e-05 -8.43005e-05
-0.000180721 5.41638e-05 5.42388e-05 -7.49306e-05
-0.000170471 5.10978e-05 5.11599e-05 -7.49318e-05
-5.44098e-05 1.62676e-05 1.63467e-05 -8.99244e-05
-5.78329e-05 1.72829e-05 1.73786e-05 -8.99245e-05
-0.000175596 5.26307e-05 5.26993e-05 -7.49311e-05
-0.000112442 3.36817e-05 3.37543e-05 -8.43012e-05
-5.61211e-05 1.67751e-05 1.68626e-05 -8.99243e-05
-0.000119279 3.57222e-05 3.58099e-05 -8.43005e-05
-0.00011586 3.47019e-05 3.47821e-05 -8.43007e-05
-0.000170471 5.10978e-05 5.11599e-05 -7.49318e-05
-0.000160222 4.8032e-05 4.80814e-05 -7.49342e-05
-5.09883e-05 1.52537e-05 1.53148e-05 -8.99256e-05
-5.44098e-05 1.62676e-05 1.63467e-05 -8.99244e-05
-0.000165346 4.95649e-05 4.96206e-05 -7.49328e-05
-0.000105606 3.16419e-05 3.16991e-05 -8.43032e-05
-5.26988e-05 1.57604e-05 1.58307e-05 -8.99248e-05
-0.000112442 3.36817e-05 3.37543e-05 -8.43012e-05
-0.000109024 3.26618e-05 3.27267e-05 -8.4302e-05
-0.000160222 4.8032e-05 4.80814e-05 -7.49342e-05
-0.000149973 4.49654e-05 4.50031e-05 -7.49385e-05
-4.75689e-05 1.42414e-05 1.42832e-05 -8.99298e-05
-5.09883e-05 1.52537e-05 1.53148e-05 -8.99256e-05
-0.000155097 4.64989e-05 4.65422e-05 -7.49361e-05
-9.87718e-05 2.9602e-05 2.96442e-05 -8.43079e-05
-4.92782e-05 1.47473e-05 1.4799e-05 -8.99272e-05
-0.000105606 3.16419e-05 3.16991e-05 -8.43032e-05
-0.000102189 3.06221e-05 3.06716e-05 -8.43051e-05
-0.000149973 4.49654e-05 4.50031e-05 -7.49385e-05
-0.000139722 4.18951e-05 4.19257e-05 -7.49451e-05
-4.41506e-05 1.32301e-05 1.32516e-05 -8.99408e-05
-4.75689e-05 1.42414e-05 1.42832e-05 -8.99298e-05
-0.000144847 4.3431e-05 4.34642e-05 -7.49415e-05
-9.1936e-05 2.75597e-05 2.75898e-05 -8.43177e-05
-4.58598e-05 1.37357e-05 1.37675e-05 -8.99341e-05
-9.87718e-05 2.9602e-05 2.96442e-05 -8.43079e-05
-9.53542e-05 2.85814e-05 2.86169e-05 -8.4312e-05
-0.000139722 4.18951e-05 4.19257e-05 -7.49451e-05
-0.000129462 3.88147e-05 3.8849e-05 -7.49553e-05
-4.07327e-05 1.22175e-05 1.22208e-05 -8.99658e-05
-4.41506e-05 1.32301e-05 1.32516e-05 -8.99408e-05
-0.000134594 4.03568e-05 4.03873e-05 -7.49497e-05
-8.50943e-05 2.55093e-05 2.55364e-05 -8.43372e-05
-4.24415e-05 1.27242e-05 1.2736e-05 -8.99509e-05
-9.1936e-05 2.75597e-05 2.75898e-05 -8.43177e-05
-8.85163e-05 2.6536e-05 2.6563e-05 -8.43257e-05
-0.000129462 3.88147e-05 3.8849e-05 -7.49553e-05
-0.000119185 3.57107e-05 3.57746e-05 -7.4969e-05
-3.73073e-05 1.11982e-05 1.11896e-05 -9.00192e-05
-4.07327e-05 1.22175e-05 1.22208e-05 -8.99658e-05
-0.000124326 3.72668e-05 3.73112e-05 -7.49618e-05
-7.82355e-05 2.34392e-05 2.34841e-05 -8.43748e-05
-3.90221e-05 1.17094e-05 1.17054e-05 -8.99877e-05
-8.50943e-05 2.55093e-05 2.55364e-05 -8.43372e-05
-8.1668e-05 2.4478e-05 2.451e-05 -8.43533e-05
-0.000119185 3.57107e-05 3.57746e-05 -7.4969e-05
-0.000108859 3.25588e-05 3.27002e-05 -7.49884e-05
-3.38677e-05 1.01597e-05 1.01606e-05 -9.01263e-05
-3.73073e-05 1.11982e-05 1.11896e-05 -9.00192e-05
-0.000114031 3.41433e-05 3.42377e-05 -7.49777e-05
-7.13372e-05 2.13265e-05 2.14331e-05 -8.44457e-05
-3.5589e-05 1.06821e-05 1.06744e-05 -9.00639e-05
-7.82355e-05 2.34392e-05 2.34841e-05 -8.43748e-05
-7.47932e-05 2.239e-05 2.24585e-05 -8.44042e-05
-0.000108859 3.25588e-05 3.27002e-05 -7.49884e-05
-9.84494e-05 2.93137e-05 2.96296e-05 -7.50114e-05
-3.03807e-05 9.0829e-06 9.12762e-06 -9.03333e-05
-3.38677e-05 1.01597e-05 1.01606e-05 -9.01263e-05
-0.000103666 3.09511e-05 3.11636e-05 -7.5e-05
-6.43571e-05 1.91343e-05 1.93812e-05 -8.45767e-05
-3.21345e-05 9.6285e-06 9.64542e-06 -9.02133e-05
-7.13372e-05 2.13265e-05 2.14331e-05 -8.44457e-05
-6.78607e-05 2.02442e-05 2.04071e-05 -8.45027e-05
-9.84494e-05 2.93137e-05 2.96296e-05 -7.50114e-05
-8.78521e-05 2.5909e-05 2.6547e-05 -7.5048e-05
-2.68253e-05 7.93e-06 8.098e-06 -9.07115e-05
-3.03807e-05 9.0829e-06 9.12762e-06 -9.03333e-05
-9.31856e-05 2.76383e-05 2.80917e-05 -7.50264e-05
-5.72203e-05 1.67983e-05 1.73237e-05 -8.48123e-05
-2.86098e-05 8.51733e-06 8.61105e-06 -9.04954e-05
-6.43571e-05 1.91343e-05 1.93812e-05 -8.45767e-05
-6.08143e-05 1.79878e-05 1.83542e-05 -8.46749e-05
-8.78521e-05 2.5909e-05 2.6547e-05 -7.5048e-05
-7.69694e-05 2.2236e-05 2.34572e-05 -7.50953e-05
-2.31012e-05 6.6653e-06 7.04396e-06 -9.13752e-05
-2.68253e-05 7.93e-06 8.098e-06 -9.07115e-05
-8.24471e-05 2.41104e-05 2.50015e-05 -7.50719e-05
-4.98136e-05 1.4247e-05 1.52428e-05 -8.52245e-05
-2.49987e-05 7.31739e-06 7.5777e-06 -9.09981e-05
-5.72203e-05 1.67983e-05 1.73237e-05 -8.48123e-05
-5.35588e-05 1.55576e-05 1.62863e-05 -8.49961e-05
-7.69694e-05 2.2236e-05 2.34572e-05 -7.50953e-05
-6.55249e-05 1.82016e-05 2.02814e-05 -7.52165e-05
-1.91941e-05 5.22652e-06 5.9861e-06 -9.24552e-05
-2.31012e-05 6.6653e-06 7.04396e-06 -9.13752e-05
-7.13512e-05 2.02764e-05 2.18892e-05 -7.51378e-05
-4.19665e-05 1.13846e-05 1.31065e-05 -8.5919e-05
-2.1158e-05 5.96326e-06 6.51202e-06 -9.18549e-05
-4.98136e-05 1.4247e-05 1.52428e-05 -8.52245e-05
-4.59583e-05 1.2852e-05 1.41884e-05 -8.55168e-05
-6.55249e-05 1.82016e-05 2.02814e-05 -7.52165e-05
-5.34021e-05 1.37032e-05 1.70138e-05 -7.54465e-05
-1.49091e-05 3.67271e-06 4.81561e-06 -9.40919e-05
-1.91941e-05 5.22652e-06 5.9861e-06 -9.24552e-05
-5.9529e-05 1.59933e-05 1.86581e-05 -7.53187e-05
-3.35387e-05 8.2675e-06 1.08305e-05 -8.70278e-05
-1.71357e-05 4.46889e-06 5.42864e-06 -9.31944e-05
-4.19665e-05 1.13846e-05 1.31065e-05 -8.5919e-05
-3.78296e-05 9.85844e-06 1.19876e-05 -8.64341e-05
-5.34021e-05 1.37032e-05 1.70138e-05 -7.54465e-05
-4.01661e-05 9.04942e-06 1.33357e-05 -7.61149e-05
-1.05012e-05 2.11115e-06 3.59572e-06 -9.61981e-05
-1.49091e-05 3.67271e-06 4.81561e-06 -9.40919e-05
-4.69969e-05 1.13873e-05 1.52613e-05 -7.56857e-05
-2.44534e-05 5.1299e-06 8.28152e-06 -8.8664e-05
-1.26518e-05 2.84351e-06 4.20355e-06 -9.51064e-05
-3.35387e-05 8.2675e-06 1.08305e-05 -8.70278e-05
-2.90834e-05 6.63616e-06 9.62027e-06 -8.77319e-05
-4.01661e-05 9.04942e-06 1.33357e-05 -7.61149e-05
-2.64792e-05 4.99806e-06 9.2062e-06 -7.7427e-05
-5.96553e-06 1.36343e-06 1.97233e-06 -9.82435e-05
-1.05012e-05 2.11115e-06 3.59572e-06 -9.61981e-05
-3.32225e-05 6.77136e-06 1.13362e-05 -7.66836e-05
-1.53327e-05 3.21386e-06 5.1938e-06 -9.07023e-05
-8.3186e-06 1.60944e-06 2.87536e-06 -9.72842e-05
-2.44534e-05 5.1299e-06 8.28152e-06 -8.8664e-05
-1.98146e-05 3.93926e-06 6.80371e-06 -8.97329e-05
-2.64792e-05 4.99806e-06 9.2062e-06 -7.7427e-05
-1.32369e-05 4.86972e-06 3.58592e-06 -8.0136e-05
-2.76025e-06 2.35149e-06 1.75184e-07 -9.82723e-05
-5.96553e-06 1.36343e-06 1.97233e-06 -9.82435e-05
-1.9847e-05 4.23539e-06 6.69069e-06 -7.85382e-05
-7.57433e-06 4.54805e-06 1.29698e-06 -9.21165e-05
-3.94505e-06 1.46119e-06 1.06451e-06 -9.8708e-05
-1.53327e-05 3.21386e-06 5.1938e-06 -9.07023e-05
-1.11915e-05 3.19705e-06 3.42617e-06 -9.14648e-05
-1.32369e-05 4.86972e-06 3.58592e-06 -8.0136e-05
-6.28455e-06 1.4537e-05 -3.53675e-06 -8.19978e-05
-9.44567e-07 7.01573e-06 -2.60193e-06 -9.26943e-05
-2.76025e-06 2.35149e-06 1.75184e-07 -9.82723e-05
-8.1992e-06 7.60524e-06 2.54558e-07 -8.14872e-05
-4.77834e-06 1.30427e-05 -3.54189e-06 -8.90105e-05
-1.92287e-06 4.36706e-06 -1.04751e-06 -9.64733e-05
-7.57433e-06 4.54805e-06 1.29698e-06 -9.21165e-05
-5.19781e-06 7.85958e-06 -1.14076e-06 -9.17882e-05
-6.28455e-06 1.4537e-05 -3.53675e-06 -8.19978e-05
-9.82348e-06 4.48744e-05 -1.50218e-05 -7.50404e-05
-2.25084e-06 1.30044e-05 -4.60866e-06 -7.56006e-05
-9.44567e-07 7.01573e-06 -2.60193e-06 -9.26943e-05
-6.99273e-06 2.7372e-05 -8.73397e-06 -8.06434e-05
-6.66044e-06 2.85191e-05 -9.36801e-06 -7.38526e-05
-7.46792e-07 9.7973e-06 -3.87879e-06 -8.59819e-05
-4.77834e-06 1.30427e-05 -3.54189e-06 -8.90105e-05
-5.52842e-06 1.99048e-05 -6.1613e-06 -8.30433e-05
-9.82348e-06 4.48744e-05 -1.50218e-05 -7.50404e-05
-2.02391e-05 8.11198e-05 -2.60917e-05 -3.96033e-05
-6.20173e-06 2.18162e-05 -6.69194e-06 -4.34057e-05
-2.25084e-06 1.30044e-05 -4.60866e-06 -7.56006e-05
-1.43736e-05 6.44631e-05 -2.14669e-05 -6.19345e-05
-1.14024e-05 4.87639e-05 -1.60121e-05 -4.3661e-05
-4.41608e-06 1.70225e-05 -5.40275e-06 -6.14773e-05
-6.66044e-06 2.85191e-05 -9.36801e-06 -7.38526e-05
-8.5075e-06 3.86757e-05 -1.29292e-05 -6.10381e-05
-0.000604436 0 0.000259044 0.000341157
-0.000613897 8.04576e-05 0.000228617 0.000113085
0.000594678 -8.4812e-05 -0.000218514 0.00011186
0.000583034 0 -0.000249872 0.000338322
-0.000589816 3.38732e-05 0.000238261 0.000215087
-9.79473e-06 -2.30413e-06 5.18522e-06 0.000127518
0.000569622 -3.62707e-05 -0.000228579 0.000213385
-1.10611e-05 0 4.74045e-06 0.000346792
-1.02874e-05 -1.41894e-06 5.01701e-06 0.000239884
-0.000613897 8.04576e-05 0.000228617 0.000113085
-0.000660411 0.000132452 0.000226268 -2.32322e-05
0.000642804 -0.000139734 -0.000215602 -2.40505e-05
0.000594678 -8.4812e-05 -0.000218514 0.00011186
-0.000647239 0.000111641 0.000229542 3.29367e-05
-8.97172e-06 -3.74307e-06 5.4492e-06 -1.64968e-05
0.000628858 -0.000117593 -0.000219114 3.19341e-05
-9.79473e-06 -2.30413e-06 5.18522e-06 0.000127518
-9.39816e-06 -3.05829e-06 5.33848e-06 3.88503e-05
-0.000660411 0.000132452 0.000226268 -2.32322e-05
-0.000673792 0.000171104 0.000215438 -8.50027e-05
0.000657545 -0.000180551 -0.000204426 -8.56245e-05
0.000642804 -0.000139734 -0.000215602 -2.40505e-05
-0.000665305 0.000153066 0.000219531 -6.04672e-05
-8.2612e-06 -4.8978e-06 5.63957e-06 -8.32436e-05
0.000648399 -0.000161495 -0.000208673 -6.11765e-05
-8.97172e-06 -3.74307e-06 5.4492e-06 -1.64968e-05
-8.58272e-06 -4.35722e-06 5.54569e-06 -5.44296e-05
-0.000673792 0.000171104 0.000215438 -8.50027e-05
-0.000680612 0.000189026 0.00021068 -0.000107073
0.000665552 -0.000200249 -0.000199415 -0.000107518
0.000657545 -0.000180551 -0.000204426 -8.56245e-05
-0.00068064 0.000182501 0.000213489 -9.97809e-05
-7.68799e-06 -5.75865e-06 5.76285e-06 -0.000109034
0.000665006 -0.000192882 -0.000202339 -0.000100307
-8.2612e-06 -4.8978e-06 5.63957e-06 -8.32436e-05
-7.97383e-06 -5.35918e-06 5.71414e-06 -0.000100963
-0.000680612 0.000189026 0.00021068 -0.000107073
-0.000675766 0.00019567 0.000205755 -0.000109477
0.000661658 -0.000208251 -0.000194318 -0.000109761
0.000665552 -0.000200249 -0.000199415 -0.000107518
-0.000677669 0.000193321 0.000207577 -0.000109494
-7.20777e-06 -6.43156e-06 5.84543e-06 -0.000113437
0.000663121 -0.000205278 -0.000196218 -0.000109867
-7.68799e-06 -5.75865e-06 5.76285e-06 -0.000109034
-7.42772e-06 -6.11848e-06 5.80551e-06 -0.000112319
-0.000675766 0.00019567 0.000205755 -0.000109477
-0.000669903 0.000195172 0.000203456 -0.000105654
0.000656472 -0.000208686 -0.000191908 -0.000105773
0.000661658 -0.000208251 -0.000194318 -0.000109761
-0.000673609 0.000196001 0.000204689 -0.000107968
-6.86306e-06 -6.88855e-06 5.89355e-06 -0.000109625
0.000659872 -0.000209099 -0.000193188 -0.00010816
-7.20777e-06 -6.43156e-06 5.84543e-06 -0.000113437
-7.02197e-06 -6.68591e-06 5.87481e-06 -0.000112279
-0.000669903 0.000195172 0.000203456 -0.000105654
-0.000662578 0.000192853 0.00020131 -0.000100671
0.000649586 -0.000206921 -0.000189713 -0.00010068
0.000656472 -0.000208686 -0.000191908 -0.000105773
-0.000665831 0.00019408 0.000202179 -0.00010306
-6.63193e-06 -7.17338e-06 5.91656e-06 -0.000104225
0.000652646 -0.000207914 -0.000190599 -0.00010312
-6.86306e-06 -6.88855e-06 5.89355e-06 -0.000109625
-6.73314e-06 -7.05054e-06 5.90729e-06 -0.000106745
-0.000662578 0.000192853 0.00020131 -0.000100671
-0.000656652 0.000190079 0.00019996 -9.6708e-05
0.000643928 -0.000204409 -0.000188365 -9.66498e-05
0.000649586 -0.000206921 -0.000189713 -0.00010068
-0.000659674 0.000191468 0.00020066 -9.85444e-05
-6.49112e-06 -7.30862e-06 5.91417e-06 -9.96623e-05
0.000646833 -0.000205697 -0.000189058 -9.85118e-05
-6.63193e-06 -7.17338e-06 5.91656e-06 -0.000104225
-6.55334e-06 -7.25704e-06 5.91873e-06 -0.000101843
-0.000656652 0.000190079 0.00019996 -9.6708e-05
-0.000651266 0.000187751 0.000198649 -9.39553e-05
0.000638709 -0.000202141 -0.000187101 -9.38755e-05
0.000643928 -0.000204409 -0.000188365 -9.66498e-05
-0.000653765 0.000188845 0.000199251 -9.51711e-05
-6.404e-06 -7.34381e-06 5.89192e-06 -9.64878e-05
0.000641134 -0.000203225 -0.000187675 -9.50989e-05
-6.49112e-06 -7.30862e-06 5.91417e-06 -9.96623e-05
-6.44242e-06 -7.33626e-06 5.90515e-06 -9.78683e-05
-0.000651266 0.000187751 0.000198649 -9.39553e-05
-0.000646761 0.000185849 0.000197534 -9.22575e-05
0.000634322 -0.000200173 -0.000186064 -9.21807e-05
0.000638709 -0.000202141 -0.000187101 -9.38755e-05
-0.000648988 0.000186751 0.000198101 -9.3001e-05
-6.34504e-06 -7.31143e-06 5.85277e-06 -9.44882e-05
0.000636493 -0.00020112 -0.000186588 -9.29196e-05
-6.404e-06 -7.34381e-06 5.89192e-06 -9.64878e-05
-6.37261e-06 -7.33412e-06 5.87431e-06 -9.53778e-05
-0.000646761 0.000185849 0.000197534 -9.22575e-05
-0.000642634 0.000184337 0.000196413 -9.12628e-05
0.000630296 -0.000198523 -0.000185046 -9.1205e-05
0.000634322 -0.000200173 -0.000186064 -9.21807e-05
-0.000644629 0.000185052 0.000196962 -9.16872e-05
-6.29492e-06 -7.24193e-06 5.80151e-06 -9.33268e-05
0.000632241 -0.000199313 -0.000185541 -9.16191e-05
-6.34504e-06 -7.31143e-06 5.85277e-06 -9.44882e-05
-6.31969e-06 -7.27993e-06 5.82841e-06 -9.3816e-05
-0.000642634 0.000184337 0.000196413 -9.12628e-05
-0.000638836 0.000183071 0.000195328 -9.07181e-05
0.000626605 -0.000197083 -0.000184081 -9.06844e-05
0.000630296 -0.000198523 -0.000185046 -9.1205e-05
-0.000640721 0.00018368 0.000195874 -9.09493e-05
-6.24297e-06 -7.15345e-06 5.74133e-06 -9.26875e-05
0.000628435 -0.000197782 -0.000184566 -9.09031e-05
-6.29492e-06 -7.24193e-06 5.80151e-06 -9.33268e-05
-6.26968e-06 -7.19917e-06 5.77237e-06 -9.29611e-05
-0.000638836 0.000183071 0.000195328 -9.07181e-05
-0.000635172 0.00018196 0.000194234 -9.04304e-05
0.000623063 -0.000195787 -0.000183118 -9.04213e-05
0.000626605 -0.000197083 -0.000184081 -9.06844e-05
-0.000636985 0.0001825 0.000194779 -9.05502e-05
-6.18365e-06 -7.05884e-06 5.67535e-06 -9.23571e-05
0.000624813 -0.000196421 -0.000183597 -9.0529e-05
-6.24297e-06 -7.15345e-06 5.74133e-06 -9.26875e-05
-6.21442e-06 -7.10639e-06 5.70892e-06 -9.24924e-05
-0.000635172 0.00018196 0.000194234 -9.04304e-05
-0.0006316 0.000180932 0.000193143 -9.02865e-05
0.00061963 -0.000194577 -0.000182165 -9.02989e-05
0.000623063 -0.000195787 -0.000183118 -9.04213e-05
-0.000633382 0.000181439 0.00019369 -9.03461e-05
-6.11517e-06 -6.96471e-06 5.60567e-06 -9.21946e-05
0.00062134 -0.000195174 -0.000182643 -9.03481e-05
-6.18365e-06 -7.05884e-06 5.67535e-06 -9.23571e-05
-6.15059e-06 -7.01144e-06 5.64087e-06 -9.22618e-05
-0.0006316 0.000180932 0.000193143 -9.02865e-05
-0.000628059 0.000179948 0.000192048 -9.02168e-05
0.000616245 -0.000193418 -0.000181211 -9.02471e-05
0.00061963 -0.000194577 -0.000182165 -9.02989e-05
-0.000629825 0.000180436 0.000192595 -9.02451e-05
-6.03777e-06 -6.87469e-06 5.53391e-06 -9.21204e-05
0.000617931 -0.000193993 -0.000181688 -9.02671e-05
-6.11517e-06 -6.96471e-06 5.60567e-06 -9.21946e-05
-6.07753e-06 -6.91908e-06 5.56997e-06 -9.21496e-05
-0.000628059 0.000179948 0.000192048 -9.02168e-05
-0.000624536 0.000178982 0.000190951 -9.01848e-05
0.000612892 -0.000192289 -0.000180259 -9.02288e-05
0.000616245 -0.000193418 -0.000181211 -9.02471e-05
-0.000626297 0.000179464 0.0001915 -9.01977e-05
-5.95267e-06 -6.78997e-06 5.46113e-06 -9.20889e-05
0.000614567 -0.000192851 -0.000180735 -9.02354e-05
-6.03777e-06 -6.87469e-06 5.53391e-06 -9.21204e-05
-5.99609e-06 -6.83165e-06 5.4976e-06 -9.21013e-05
-0.000624536 0.000178982 0.000190951 -9.01848e-05
-0.000621015 0.000178024 0.000189854 -9.01705e-05
0.000609554 -0.000191176 -0.000179305 -9.02245e-05
0.000612892 -0.000192289 -0.000180259 -9.02288e-05
-0.000622775 0.000178503 0.000190403 -9.01762e-05
-5.86147e-06 -6.71064e-06 5.38805e-06 -9.20772e-05
0.000611221 -0.000191731 -0.000179782 -9.02256e-05
-5.95267e-06 -6.78997e-06 5.46113e-06 -9.20889e-05
-5.90773e-06 -6.74966e-06 5.4246e-06 -9.20814e-05
-0.000621015 0.000178024 0.000189854 -9.01705e-05
-0.000617495 0.000177066 0.000188756 -9.01643e-05
0.000606224 -0.000190073 -0.00017835 -9.02254e-05
0.000609554 -0.000191176 -0.000179305 -9.02245e-05
-0.000619256 0.000177545 0.000189305 -9.01668e-05
-5.76574e-06 -6.63611e-06 5.31508e-06 -9.20737e-05
0.000607888 -0.000190624 -0.000178828 -9.02247e-05
-5.86147e-06 -6.71064e-06 5.38805e-06 -9.20772e-05
-5.81408e-06 -6.67282e-06 5.35153e-06 -9.20749e-05
-0.000617495 0.000177066 0.000188756 -9.01643e-05
-0.000613973 0.000176106 0.000187657 -9.01615e-05
0.000602898 -0.000188977 -0.000177395 -9.02273e-05
0.000606224 -0.000190073 -0.00017835 -9.02254e-05
-0.000615735 0.000176586 0.000188206 -9.01626e-05
-5.66684e-06 -6.56559e-06 5.24247e-06 -9.20731e-05
0.000604561 -0.000189524 -0.000177873 -9.02263e-05
-5.76574e-06 -6.63611e-06 5.31508e-06 -9.20737e-05
-5.7166e-06 -6.6004e-06 5.27872e-06 -9.20732e-05
-0.000613973 0.000176106 0.000187657 -9.01615e-05
-0.00061045 0.000175145 0.00018656 -9.016e-05
0.000599574 -0.000187884 -0.000176439 -9.02288e-05
0.000602898 -0.000188977 -0.000177395 -9.02273e-05
-0.000612212 0.000175626 0.000187108 -9.01607e-05
-5.56588e-06 -6.49827e-06 5.17035e-06 -9.20731e-05
0.000601236 -0.00018843 -0.000176917 -9.02281e-05
-5.66684e-06 -6.56559e-06 5.24247e-06 -9.20731e-05
-5.61655e-06 -6.53158e-06 5.20634e-06 -9.20731e-05
-0.00061045 0.000175145 0.00018656 -9.016e-05
-0.000606926 0.000174181 0.000185462 -9.01591e-05
0.000596252 -0.000186794 -0.000175482 -9.02295e-05
0.000599574 -0.000187884 -0.000176439 -9.02288e-05
-0.000608688 0.000174663 0.000186011 -9.01595e-05
-5.46372e-06 -6.4334e-06 5.09877e-06 -9.20731e-05
0.000597913 -0.000187339 -0.000175961 -9.02292e-05
-5.56588e-06 -6.49827e-06 5.17035e-06 -9.20731e-05
-5.51491e-06 -6.46557e-06 5.13449e-06 -9.20732e-05
-0.000606926 0.000174181 0.000185462 -9.01591e-05
-0.000603401 0.000173215 0.000184365 -9.01582e-05
0.00059293 -0.000185705 -0.000174525 -9.02295e-05
0.000596252 -0.000186794 -0.000175482 -9.02295e-05
-0.000605163 0.000173698 0.000184914 -9.01586e-05
-5.36099e-06 -6.3704e-06 5.02774e-06 -9.20728e-05
0.000594591 -0.000186249 -0.000175003 -9.02296e-05
-5.46372e-06 -6.4334e-06 5.09877e-06 -9.20731e-05
-5.4124e-06 -6.4017e-06 5.06318e-06 -9.2073e-05
-0.000603401 0.000173215 0.000184365 -9.01582e-05
-0.000599875 0.000172248 0.000183269 -9.01574e-05
0.000589607 -0.000184618 -0.000173567 -9.02289e-05
0.00059293 -0.000185705 -0.000174525 -9.02295e-05
-0.000601638 0.000172732 0.000183817 -9.01578e-05
-5.25813e-06 -6.30877e-06 4.95725e-06 -9.20721e-05
0.000591269 -0.000185162 -0.000174046 -9.02293e-05
-5.36099e-06 -6.3704e-06 5.02774e-06 -9.20728e-05
-5.30956e-06 -6.33944e-06 4.99243e-06 -9.20725e-05
-0.000599875 0.000172248 0.000183269 -9.01574e-05
-0.00059635 0.00017128 0.000182173 -9.01565e-05
0.000586285 -0.000183532 -0.000172608 -9.0228e-05
0.000589607 -0.000184618 -0.000173567 -9.02289e-05
-0.000598113 0.000171764 0.000182721 -9.01569e-05
-5.15545e-06 -6.24818e-06 4.88727e-06 -9.20712e-05
0.000587946 -0.000184075 -0.000173088 -9.02285e-05
-5.25813e-06 -6.30877e-06 4.95725e-06 -9.20721e-05
-5.20675e-06 -6.27836e-06 4.92219e-06 -9.20717e-05
-0.00059635 0.00017128 0.000182173 -9.01565e-05
-0.000592825 0.000170311 0.000181078 -9.01556e-05
0.000582962 -0.000182446 -0.00017165 -9.02268e-05
0.000586285 -0.000183532 -0.000172608 -9.0228e-05
-0.000594588 0.000170796 0.000181625 -9.0156e-05
-5.05313e-06 -6.18837e-06 4.81778e-06 -9.20702e-05
0.000584623 -0.000182989 -0.000172129 -9.02274e-05
-5.15545e-06 -6.24818e-06 4.88727e-06 -9.20712e-05
-5.10423e-06 -6.21819e-06 4.85247e-06 -9.20707e-05
-0.000592825 0.000170311 0.000181078 -9.01556e-05
-0.000589301 0.000169342 0.000179983 -9.01546e-05
0.000579638 -0.000181361 -0.00017069 -9.02254e-05
0.000582962 -0.000182446 -0.00017165 -9.02268e-05
-0.000591063 0.000169826 0.00018053 -9.01551e-05
-4.9513e-06 -6.12916e-06 4.74877e-06 -9.2069e-05
0.0005813 -0.000181904 -0.00017117 -9.02261e-05
-5.05313e-06 -6.18837e-06 4.81778e-06 -9.20702e-05
-5.00214e-06 -6.1587e-06 4.78322e-06 -9.20696e-05
-0.000589301 0.000169342 0.000179983 -9.01546e-05
-0.000585777 0.000168372 0.000178888 -9.01536e-05
0.000576314 -0.000180277 -0.000169731 -9.02239e-05
0.000579638 -0.000181361 -0.00017069 -9.02254e-05
-0.000587539 0.000168857 0.000179435 -9.01541e-05
-4.85003e-06 -6.07045e-06 4.6802e-06 -9.20677e-05
0.000577976 -0.000180819 -0.00017021 -9.02247e-05
-4.9513e-06 -6.12916e-06 4.74877e-06 -9.2069e-05
-4.90059e-06 -6.09975e-06 4.71443e-06 -9.20684e-05
-0.000585777 0.000168372 0.000178888 -9.01536e-05
-0.000582254 0.000167401 0.000177794 -9.01526e-05
0.00057299 -0.000179192 -0.00016877 -9.02224e-05
0.000576314 -0.000180277 -0.000169731 -9.02239e-05
-0.000584016 0.000167887 0.000178341 -9.01531e-05
-4.74936e-06 -6.01215e-06 4.61208e-06 -9.20664e-05
0.000574652 -0.000179734 -0.00016925 -9.02232e-05
-4.85003e-06 -6.07045e-06 4.6802e-06 -9.20677e-05
-4.79962e-06 -6.04125e-06 4.64609e-06 -9.20671e-05
-0.000582254 0.000167401 0.000177794 -9.01526e-05
-0.000578732 0.000166431 0.000176701 -9.01515e-05
0.000569665 -0.000178109 -0.00016781 -9.02208e-05
0.00057299 -0.000179192 -0.00016877 -9.02224e-05
-0.000580493 0.000166916 0.000177247 -9.0152e-05
-4.64931e-06 -5.95423e-06 4.54437e-06 -9.20651e-05
0.000571327 -0.00017865 -0.00016829 -9.02216e-05
-4.74936e-06 -6.01215e-06 4.61208e-06 -9.20664e-05
-4.69926e-06 -5.98314e-06 4.57817e-06 -9.20658e-05
-0.000578732 0.000166431 0.000176701 -9.01515e-05
-0.00057521 0.00016546 0.000175607 -9.01504e-05
0.000566339 -0.000177025 -0.000166849 -9.02192e-05
0.000569665 -0.000178109 -0.00016781 -9.02208e-05
-0.000576971 0.000165945 0.000176154 -9.01509e-05
-4.54989e-06 -5.89665e-06 4.47709e-06 -9.20637e-05
0.000568002 -0.000177567 -0.000167329 -9.022e-05
-4.64931e-06 -5.95423e-06 4.54437e-06 -9.20651e-05
-4.59952e-06 -5.92539e-06 4.51068e-06 -9.20644e-05
-0.00057521 0.00016546 0.000175607 -9.01504e-05
-0.000571689 0.000164488 0.000174515 -9.01492e-05
0.000563013 -0.000175942 -0.000165887 -9.02176e-05
0.000566339 -0.000177025 -0.000166849 -9.02192e-05
-0.00057345 0.000164974 0.000175061 -9.01498e-05
-4.45109e-06 -5.83941e-06 4.41021e-06 -9.20622e-05
0.000564676 -0.000176484 -0.000166368 -9.02184e-05
-4.54989e-06 -5.89665e-06 4.47709e-06 -9.20637e-05
-4.50041e-06 -5.86799e-06 4.4436e-06 -9.2063e-05
-0.000571689 0.000164488 0.000174515 -9.01492e-05
-0.000568169 0.000163517 0.000173422 -9.0148e-05
0.000559686 -0.000174859 -0.000164926 -9.02159e-05
0.000563013 -0.000175942 -0.000165887 -9.02176e-05
-0.000569929 0.000164003 0.000173968 -9.01486e-05
-4.35292e-06 -5.7825e-06 4.34375e-06 -9.20608e-05
0.000561349 -0.000175401 -0.000165407 -9.02167e-05
-4.45109e-06 -5.83941e-06 4.41021e-06 -9.20622e-05
-4.40193e-06 -5.81091e-06 4.37693e-06 -9.20615e-05
-0.000568169 0.000163517 0.000173422 -9.0148e-05
-0.000564649 0.000162545 0.00017233 -9.01468e-05
0.000556359 -0.000173777 -0.000163964 -9.02142e-05
0.000559686 -0.000174859 -0.000164926 -9.02159e-05
-0.000566409 0.000163031 0.000172876 -9.01474e-05
-4.25535e-06 -5.72592e-06 4.27769e-06 -9.20593e-05
0.000558022 -0.000174318 -0.000164445 -9.02151e-05
-4.35292e-06 -5.7825e-06 4.34375e-06 -9.20608e-05
-4.30406e-06 -5.75416e-06 4.31067e-06 -9.206e-05
-0.000564649 0.000162545 0.00017233 -9.01468e-05
-0.00056113 0.000161573 0.000171239 -9.01455e-05
0.000553031 -0.000172695 -0.000163001 -9.02125e-05
0.000556359 -0.000173777 -0.000163964 -9.02142e-05
-0.000562889 0.000162059 0.000171785 -9.01461e-05
-4.1584e-06 -5.66966e-06 4.21203e-06 -9.20577e-05
0.000554695 -0.000173236 -0.000163482 -9.02134e-05
-4.25535e-06 -5.72592e-06 4.27769e-06 -9.20593e-05
-4.2068e-06 -5.69775e-06 4.24481e-06 -9.20585e-05
-0.00056113 0.000161573 0.000171239 -9.01455e-05
-0.000557611 0.0001606 0.000170148 -9.01442e-05
0.000549702 -0.000171613 -0.000162038 -9.02108e-05
0.000553031 -0.000172695 -0.000163001 -9.02125e-05
-0.00055937 0.000161086 0.000170693 -9.01448e-05
-4.06206e-06 -5.61375e-06 4.14677e-06 -9.20562e-05
0.000551367 -0.000172154 -0.00016252 -9.02116e-05
-4.1584e-06 -5.66966e-06 4.21203e-06 -9.20577e-05
-4.11016e-06 -5.64166e-06 4.17935e-06 -9.2057e-05
-0.000557611 0.0001606 0.000170148 -9.01442e-05
-0.000554093 0.000159627 0.000169057 -9.01428e-05
0.000546373 -0.000170532 -0.000161075 -9.0209e-05
0.000549702 -0.000171613 -0.000162038 -9.02108e-05
-0.000555852 0.000160114 0.000169602 -9.01435e-05
-3.96632e-06 -5.55816e-06 4.08192e-06 -9.20546e-05
0.000548038 -0.000171072 -0.000161557 -9.02099e-05
-4.06206e-06 -5.61375e-06 4.14677e-06 -9.20562e-05
-4.01412e-06 -5.58591e-06 4.1143e-06 -9.20554e-05
-0.000554093 0.000159627 0.000169057 -9.01428e-05
-0.000550576 0.000158654 0.000167967 -9.01414e-05
0.000543044 -0.000169451 -0.000160111 -9.02072e-05
0.000546373 -0.000170532 -0.000161075 -9.0209e-05
-0.000552335 0.000159141 0.000168512 -9.01421e-05
-3.87118e-06 -5.50292e-06 4.01747e-06 -9.2053e-05
0.000544709 -0.000169991 -0.000160593 -9.02081e-05
-3.96632e-06 -5.55816e-06 4.08192e-06 -9.20546e-05
-3.91867e-06 -5.5305e-06 4.04965e-06 -9.20538e-05
-0.000550576 0.000158654 0.000167967 -9.01414e-05
-0.00054706 0.00015768 0.000166877 -9.014e-05
0.000539714 -0.00016837 -0.000159147 -9.02054e-05
0.000543044 -0.000169451 -0.000160111 -9.02072e-05
-0.000548818 0.000158167 0.000167422 -9.01407e-05
-3.77664e-06 -5.44801e-06 3.95342e-06 -9.20513e-05
0.000541379 -0.00016891 -0.000159629 -9.02063e-05
-3.87118e-06 -5.50292e-06 4.01747e-06 -9.2053e-05
-3.82383e-06 -5.47542e-06 3.98539e-06 -9.20522e-05
-0.00054706 0.00015768 0.000166877 -9.014e-05
-0.000543544 0.000156707 0.000165787 -9.01386e-05
0.000536383 -0.00016729 -0.000158183 -9.02035e-05
0.000539714 -0.00016837 -0.000159147 -9.02054e-05
-0.000545302 0.000157194 0.000166332 -9.01393e-05
-3.68269e-06 -5.39345e-06 3.88977e-06 -9.20497e-05
0.000538049 -0.00016783 -0.000158665 -9.02045e-05
-3.77664e-06 -5.44801e-06 3.95342e-06 -9.20513e-05
-3.72959e-06 -5.42069e-06 3.92155e-06 -9.20505e-05
-0.000543544 0.000156707 0.000165787 -9.01386e-05
-0.000540029 0.000155733 0.000164698 -9.01371e-05
0.000533052 -0.00016621 -0.000157218 -9.02017e-05
0.000536383 -0.00016729 -0.000158183 -9.02035e-05
-0.000541786 0.00015622 0.000165243 -9.01379e-05
-3.58934e-06 -5.33922e-06 3.82653e-06 -9.2048e-05
0.000534718 -0.00016675 -0.000157701 -9.02026e-05
-3.68269e-06 -5.39345e-06 3.88977e-06 -9.20497e-05
-3.63594e-06 -5.36629e-06 3.8581e-06 -9.20488e-05
-0.000540029 0.000155733 0.000164698 -9.01371e-05
-0.000536514 0.000154758 0.00016361 -9.01357e-05
0.000529721 -0.00016513 -0.000156253 -9.01998e-05
0.000533052 -0.00016621 -0.000157218 -9.02017e-05
-0.000538271 0.000155245 0.000164154 -9.01364e-05
-3.49658e-06 -5.28534e-06 3.76368e-06 -9.20462e-05
0.000531387 -0.00016567 -0.000156736 -9.02007e-05
-3.58934e-06 -5.33922e-06 3.82653e-06 -9.2048e-05
-3.54289e-06 -5.31224e-06 3.79505e-06 -9.20471e-05
-0.000536514 0.000154758 0.00016361 -9.01357e-05
-0.000533 0.000153783 0.000162522 -9.01342e-05
0.000526389 -0.000164051 -0.000155288 -9.01978e-05
0.000529721 -0.00016513 -0.000156253 -9.01998e-05
-0.000534757 0.000154271 0.000163066 -9.01349e-05
-3.40442e-06 -5.23181e-06 3.70124e-06 -9.20445e-05
0.000528055 -0.00016459 -0.00015577 -9.01988e-05
-3.49658e-06 -5.28534e-06 3.76368e-06 -9.20462e-05
-3.45043e-06 -5.25853e-06 3.73241e-06 -9.20454e-05
-0.000533 0.000153783 0.000162522 -9.01342e-05
-0.000529487 0.000152808 0.000161434 -9.01326e-05
0.000523056 -0.000162972 -0.000154322 -9.01959e-05
0.000526389 -0.000164051 -0.000155288 -9.01978e-05
-0.000531244 0.000153296 0.000161978 -9.01334e-05
-3.31286e-06 -5.17861e-06 3.6392e-06 -9.20427e-05
0.000524722 -0.000163511 -0.000154805 -9.01969e-05
-3.40442e-06 -5.23181e-06 3.70124e-06 -9.20445e-05
-3.35857e-06 -5.20517e-06 3.67017e-06 -9.20436e-05
-0.000529487 0.000152808 0.000161434 -9.01326e-05
-0.000525975 0.000151833 0.000160346 -9.01311e-05
0.000519723 -0.000161893 -0.000153355 -9.01939e-05
0.000523056 -0.000162972 -0.000154322 -9.01959e-05
-0.000527731 0.000152321 0.00016089 -9.01318e-05
-3.22189e-06 -5.12577e-06 3.57756e-06 -9.20409e-05
0.000521389 -0.000162433 -0.000153839 -9.01949e-05
-3.31286e-06 -5.17861e-06 3.6392e-06 -9.20427e-05
-3.2673e-06 -5.15215e-06 3.60833e-06 -9.20418e-05
-0.000525975 0.000151833 0.000160346 -9.01311e-05
-0.000522463 0.000150857 0.000159259 -9.01295e-05
0.000516389 -0.000160815 -0.000152389 -9.01919e-05
0.000519723 -0.000161893 -0.000153355 -9.01939e-05
-0.000524219 0.000151345 0.000159803 -9.01303e-05
-3.13151e-06 -5.07326e-06 3.51633e-06 -9.20391e-05
0.000518056 -0.000161354 -0.000152872 -9.01929e-05
-3.22189e-06 -5.12577e-06 3.57756e-06 -9.20409e-05
-3.17662e-06 -5.09947e-06 3.5469e-06 -9.204e-05
-0.000522463 0.000150857 0.000159259 -9.01295e-05
-0.000518951 0.000149881 0.000158173 -9.01279e-05
0.000513055 -0.000159737 -0.000151422 -9.01899e-05
0.000516389 -0.000160815 -0.000152389 -9.01919e-05
-0.000520707 0.000150369 0.000158716 -9.01287e-05
-3.04172e-06 -5.0211e-06 3.4555e-06 -9.20372e-05
0.000514722 -0.000160276 -0.000151905 -9.01909e-05
-3.13151e-06 -5.07326e-06 3.51633e-06 -9.20391e-05
-3.08654e-06 -5.04714e-06 3.48586e-06 -9.20381e-05
-0.000518951 0.000149881 0.000158173 -9.01279e-05
-0.000515441 0.000148905 0.000157087 -9.01262e-05
0.00050972 -0.00015866 -0.000150454 -9.01879e-05
0.000513055 -0.000159737 -0.000151422 -9.01899e-05
-0.000517196 0.000149393 0.00015763 -9.01271e-05
-2.95253e-06 -4.96929e-06 3.39507e-06 -9.20353e-05
0.000511388 -0.000159198 -0.000150938 -9.01889e-05
-3.04172e-06 -5.0211e-06 3.4555e-06 -9.20372e-05
-2.99705e-06 -4.99515e-06 3.42523e-06 -9.20363e-05
-0.000515441 0.000148905 0.000157087 -9.01262e-05
-0.000511931 0.000147928 0.000156001 -9.01246e-05
0.000506385 -0.000157583 -0.000149487 -9.01858e-05
0.00050972 -0.00015866 -0.000150454 -9.01879e-05
-0.000513686 0.000148417 0.000156544 -9.01254e-05
-2.86394e-06 -4.91782e-06 3.33504e-06 -9.20335e-05
0.000508053 -0.000158121 -0.000149971 -9.01868e-05
-2.95253e-06 -4.96929e-06 3.39507e-06 -9.20353e-05
-2.90816e-06 -4.94351e-06 3.365e-06 -9.20344e-05
-0.000511931 0.000147928 0.000156001 -9.01246e-05
-0.000508421 0.000146951 0.000154916 -9.01229e-05
0.000503049 -0.000156506 -0.000148519 -9.01837e-05
0.000506385 -0.000157583 -0.000149487 -9.01858e-05
-0.000510176 0.00014744 0.000155458 -9.01238e-05
-2.77594e-06 -4.8667e-06 3.27541e-06 -9.20315e-05
0.000504717 -0.000157044 -0.000149003 -9.01848e-05
-2.86394e-06 -4.91782e-06 3.33504e-06 -9.20335e-05
-2.81986e-06 -4.89221e-06 3.30518e-06 -9.20325e-05
-0.000508421 0.000146951 0.000154916 -9.01229e-05
-0.000504913 0.000145974 0.000153831 -9.01212e-05
0.000499713 -0.000155429 -0.00014755 -9.01816e-05
0.000503049 -0.000156506 -0.000148519 -9.01837e-05
-0.000506667 0.000146463 0.000154373 -9.01221e-05
-2.68853e-06 -4.81592e-06 3.21619e-06 -9.20296e-05
0.000501381 -0.000155968 -0.000148034 -9.01827e-05
-2.77594e-06 -4.8667e-06 3.27541e-06 -9.20315e-05
-2.73216e-06 -4.84126e-06 3.24575e-06 -9.20306e-05
-0.000504913 0.000145974 0.000153831 -9.01212e-05
-0.000501405 0.000144997 0.000152746 -9.01195e-05
0.000496376 -0.000154353 -0.000146581 -9.01795e-05
0.000499713 -0.000155429 -0.00014755 -9.01816e-05
-0.000503159 0.000145485 0.000153289 -9.01204e-05
-2.60171e-06 -4.76548e-06 3.15737e-06 -9.20277e-05
0.000498045 -0.000154891 -0.000147066 -9.01806e-05
-2.68853e-06 -4.81592e-06 3.21619e-06 -9.20296e-05
-2.64505e-06 -4.79065e-06 3.18673e-06 -9.20286e-05
-0.000501405 0.000144997 0.000152746 -9.01195e-05
-0.000497897 0.000144019 0.000151662 -9.01178e-05
0.000493039 -0.000153278 -0.000145612 -9.01774e-05
0.000496376 -0.000154353 -0.000146581 -9.01795e-05
-0.000499651 0.000144508 0.000152204 -9.01187e-05
-2.51549e-06 -4.71539e-06 3.09895e-06 -9.20257e-05
0.000494708 -0.000153816 -0.000146097 -9.01784e-05
-2.60171e-06 -4.76548e-06 3.15737e-06 -9.20277e-05
-2.55853e-06 -4.74039e-06 3.12811e-06 -9.20267e-05
-0.000497897 0.000144019 0.000151662 -9.01178e-05
-0.000494391 0.00014304 0.000150579 -9.01161e-05
0.000489701 -0.000152202 -0.000144642 -9.01752e-05
0.000493039 -0.000153278 -0.000145612 -9.01774e-05
-0.000496144 0.00014353 0.00015112 -9.01169e-05
-2.42987e-06 -4.66564e-06 3.04093e-06 -9.20237e-05
0.00049137 -0.00015274 -0.000145127 -9.01763e-05
-2.51549e-06 -4.71539e-06 3.09895e-06 -9.20257e-05
-2.47261e-06 -4.69047e-06 3.06989e-06 -9.20247e-05
-0.000494391 0.00014304 0.000150579 -9.01161e-05
-0.000490885 0.000142062 0.000149496 -9.01143e-05
0.000486363 -0.000151127 -0.000143672 -9.0173e-05
0.000489701 -0.000152202 -0.000144642 -9.01752e-05
-0.000492638 0.000142551 0.000150037 -9.01152e-05
-2.34484e-06 -4.61624e-06 2.98332e-06 -9.20217e-05
0.000488032 -0.000151665 -0.000144157 -9.01741e-05
-2.42987e-06 -4.66564e-06 3.04093e-06 -9.20237e-05
-2.38728e-06 -4.6409e-06 3.01208e-06 -9.20227e-05
-0.000490885 0.000142062 0.000149496 -9.01143e-05
-0.000487379 0.000141083 0.000148413 -9.01125e-05
0.000483024 -0.000150053 -0.000142702 -9.01709e-05
0.000486363 -0.000151127 -0.000143672 -9.0173e-05
-0.000489132 0.000141573 0.000148954 -9.01134e-05
-2.2604e-06 -4.56719e-06 2.92611e-06 -9.20197e-05
0.000484694 -0.00015059 -0.000143187 -9.01719e-05
-2.34484e-06 -4.61624e-06 2.98332e-06 -9.20217e-05
-2.30255e-06 -4.59167e-06 2.95467e-06 -9.20207e-05
-0.000487379 0.000141083 0.000148413 -9.01125e-05
-0.000483875 0.000140104 0.00014733 -9.01107e-05
0.000479685 -0.000148979 -0.000141731 -9.01687e-05
0.000483024 -0.000150053 -0.000142702 -9.01709e-05
-0.000485627 0.000140594 0.000147871 -9.01116e-05
-2.17656e-06 -4.51848e-06 2.8693e-06 -9.20176e-05
0.000481354 -0.000149516 -0.000142217 -9.01698e-05
-2.2604e-06 -4.56719e-06 2.92611e-06 -9.20197e-05
-2.21841e-06 -4.54279e-06 2.89766e-06 -9.20187e-05
-0.000483875 0.000140104 0.00014733 -9.01107e-05
-0.000480371 0.000139125 0.000146248 -9.01089e-05
0.000476345 -0.000147905 -0.00014076 -9.01664e-05
0.000479685 -0.000148979 -0.000141731 -9.01687e-05
-0.000482123 0.000139614 0.000146789 -9.01098e-05
-2.09331e-06 -4.47011e-06 2.81289e-06 -9.20156e-05
0.000478015 -0.000148442 -0.000141246 -9.01675e-05
-2.17656e-06 -4.51848e-06 2.8693e-06 -9.20176e-05
-2.13486e-06 -4.49425e-06 2.84105e-06 -9.20166e-05
-0.000480371 0.000139125 0.000146248 -9.01089e-05
-0.000476867 0.000138145 0.000145167 -9.01071e-05
0.000473005 -0.000146831 -0.000139789 -9.01642e-05
0.000476345 -0.000147905 -0.00014076 -9.01664e-05
-0.000478619 0.000138635 0.000145708 -9.0108e-05
-2.01066e-06 -4.42209e-06 2.75689e-06 -9.20135e-05
0.000474675 -0.000147368 -0.000140274 -9.01653e-05
-2.09331e-06 -4.47011e-06 2.81289e-06 -9.20156e-05
-2.05191e-06 -4.44606e-06 2.78484e-06 -9.20145e-05
-0.000476867 0.000138145 0.000145167 -9.01071e-05
-0.000473365 0.000137165 0.000144086 -9.01053e-05
0.000469664 -0.000145758 -0.000138817 -9.0162e-05
0.000473005 -0.000146831 -0.000139789 -9.01642e-05
-0.000475116 0.000137655 0.000144626 -9.01062e-05
-1.9286e-06 -4.37441e-06 2.70129e-06 -9.20114e-05
0.000471334 -0.000146295 -0.000139303 -9.01631e-05
-2.01066e-06 -4.42209e-06 2.75689e-06 -9.20135e-05
-1.96955e-06 -4.39821e-06 2.72904e-06 -9.20125e-05
-0.000473365 0.000137165 0.000144086 -9.01053e-05
-0.000469863 0.000136184 0.000143005 -9.01034e-05
0.000466322 -0.000144685 -0.000137844 -9.01597e-05
0.000469664 -0.000145758 -0.000138817 -9.0162e-05
-0.000471614 0.000136675 0.000143545 -9.01044e-05
-1.84713e-06 -4.32708e-06 2.64609e-06 -9.20093e-05
0.000467993 -0.000145222 -0.000138331 -9.01608e-05
-1.9286e-06 -4.37441e-06 2.70129e-06 -9.20114e-05
-1.88779e-06 -4.3507e-06 2.67364e-06 -9.20104e-05
-0.000469863 0.000136184 0.000143005 -9.01034e-05
-0.000466361 0.000135204 0.000141925 -9.01016e-05
0.000462981 -0.000143613 -0.000136872 -9.01574e-05
0.000466322 -0.000144685 -0.000137844 -9.01597e-05
-0.000468112 0.000135694 0.000142465 -9.01025e-05
-1.76626e-06 -4.28009e-06 2.59129e-06 -9.20072e-05
0.000464652 -0.000144149 -0.000137358 -9.01586e-05
-1.84713e-06 -4.32708e-06 2.64609e-06 -9.20093e-05
-1.80662e-06 -4.30354e-06 2.61864e-06 -9.20083e-05
-0.000466361 0.000135204 0.000141925 -9.01016e-05
-0.000462861 0.000134223 0.000140845 -9.00997e-05
0.000459638 -0.000142541 -0.000135899 -9.01551e-05
0.000462981 -0.000143613 -0.000136872 -9.01574e-05
-0.000464611 0.000134713 0.000141385 -9.01006e-05
-1.68598e-06 -4.23345e-06 2.5369e-06 -9.20051e-05
0.000461309 -0.000143077 -0.000136385 -9.01563e-05
-1.76626e-06 -4.28009e-06 2.59129e-06 -9.20072e-05
-1.72605e-06 -4.25673e-06 2.56405e-06 -9.20062e-05
-0.000462861 0.000134223 0.000140845 -9.00997e-05
-0.000459361 0.000133241 0.000139765 -9.00978e-05
0.000456295 -0.000141469 -0.000134926 -9.01528e-05
0.000459638 -0.000142541 -0.000135899 -9.01551e-05
-0.000461111 0.000133732 0.000140305 -9.00988e-05
-1.6063e-06 -4.18715e-06 2.48291e-06 -9.2003e-05
0.000457967 -0.000142005 -0.000135412 -9.0154e-05
-1.68598e-06 -4.23345e-06 2.5369e-06 -9.20051e-05
-1.64607e-06 -4.21026e-06 2.50985e-06 -9.2004e-05
-0.000459361 0.000133241 0.000139765 -9.00978e-05
-0.000455861 0.00013226 0.000138686 -9.00959e-05
0.000452952 -0.000140398 -0.000133952 -9.01505e-05
0.000456295 -0.000141469 -0.000134926 -9.01528e-05
-0.000457611 0.00013275 0.000139226 -9.00969e-05
-1.52721e-06 -4.1412e-06 2.42932e-06 -9.20008e-05
0.000454624 -0.000140933 -0.000134439 -9.01517e-05
-1.6063e-06 -4.18715e-06 2.48291e-06 -9.2003e-05
-1.56668e-06 -4.16413e-06 2.45606e-06 -9.20019e-05
-0.000455861 0.00013226 0.000138686 -9.00959e-05
-0.000452363 0.000131278 0.000137608 -9.0094e-05
0.000449608 -0.000139327 -0.000132978 -9.01482e-05
0.000452952 -0.000140398 -0.000133952 -9.01505e-05
-0.000454112 0.000131769 0.000138147 -9.0095e-05
-1.44872e-06 -4.09559e-06 2.37613e-06 -9.19987e-05
0.00045128 -0.000139862 -0.000133465 -9.01494e-05
-1.52721e-06 -4.1412e-06 2.42932e-06 -9.20008e-05
-1.48789e-06 -4.11835e-06 2.40268e-06 -9.19997e-05
-0.000452363 0.000131278 0.000137608 -9.0094e-05
-0.000448864 0.000130295 0.00013653 -9.00921e-05
0.000446264 -0.000138256 -0.000132003 -9.01459e-05
0.000449608 -0.000139327 -0.000132978 -9.01482e-05
-0.000450613 0.000130787 0.000137069 -9.00931e-05
-1.37082e-06 -4.05033e-06 2.32335e-06 -9.19965e-05
0.000447936 -0.000138791 -0.000132491 -9.01471e-05
-1.44872e-06 -4.09559e-06 2.37613e-06 -9.19987e-05
-1.40969e-06 -4.07292e-06 2.34969e-06 -9.19976e-05
-0.000448864 0.000130295 0.00013653 -9.00921e-05
-0.000445367 0.000129313 0.000135452 -9.00902e-05
0.000442919 -0.000137186 -0.000131028 -9.01436e-05
0.000446264 -0.000138256 -0.000132003 -9.01459e-05
-0.000447116 0.000129804 0.000135991 -9.00911e-05
-1.29351e-06 -4.00541e-06 2.27097e-06 -9.19943e-05
0.000444591 -0.000137721 -0.000131516 -9.01447e-05
-1.37082e-06 -4.05033e-06 2.32335e-06 -9.19965e-05
-1.33209e-06 -4.02783e-06 2.29711e-06 -9.19954e-05
-0.000445367 0.000129313 0.000135452 -9.00902e-05
-0.00044187 0.00012833 0.000134374 -9.00883e-05
0.000439573 -0.000136116 -0.000130053 -9.01412e-05
0.000442919 -0.000137186 -0.000131028 -9.01436e-05
-0.000443619 0.000128821 0.000134913 -9.00892e-05
-1.2168e-06 -3.96084e-06 2.21899e-06 -9.19921e-05
0.000441246 -0.000136651 -0.000130541 -9.01424e-05
-1.29351e-06 -4.00541e-06 2.27097e-06 -9.19943e-05
-1.25508e-06 -3.98308e-06 2.24493e-06 -9.19932e-05
-0.00044187 0.00012833 0.000134374 -9.00883e-05
-0.000438374 0.000127347 0.000133298 -9.00863e-05
0.000436227 -0.000135046 -0.000129078 -9.01389e-05
0.000439573 -0.000136116 -0.000130053 -9.01412e-05
-0.000440122 0.000127838 0.000133836 -9.00873e-05
-1.14068e-06 -3.91661e-06 2.16741e-06 -9.19899e-05
0.0004379 -0.000135581 -0.000129565 -9.014e-05
-1.2168e-06 -3.96084e-06 2.21899e-06 -9.19921e-05
-1.17866e-06 -3.93868e-06 2.19315e-06 -9.1991e-05
-0.000438374 0.000127347 0.000133298 -9.00863e-05
-0.000434879 0.000126363 0.000132221 -9.00844e-05
0.000432881 -0.000133977 -0.000128102 -9.01365e-05
0.000436227 -0.000135046 -0.000129078 -9.01389e-05
-0.000436627 0.000126855 0.000132759 -9.00853e-05
-1.06515e-06 -3.87272e-06 2.11623e-06 -9.19878e-05
0.000434554 -0.000134512 -0.00012859 -9.01377e-05
-1.14068e-06 -3.91661e-06 2.16741e-06 -9.19899e-05
-1.10284e-06 -3.89462e-06 2.14177e-06 -9.19889e-05
-0.000434879 0.000126363 0.000132221 -9.00844e-05
-0.000431384 0.000125379 0.000131145 -9.00824e-05
0.000429534 -0.000132908 -0.000127125 -9.01341e-05
0.000432881 -0.000133977 -0.000128102 -9.01365e-05
-0.000433132 0.000125871 0.000131683 -9.00834e-05
-9.90224e-07 -3.82919e-06 2.06546e-06 -9.19855e-05
0.000431208 -0.000133443 -0.000127614 -9.01353e-05
-1.06515e-06 -3.87272e-06 2.11623e-06 -9.19878e-05
-1.02762e-06 -3.85091e-06 2.0908e-06 -9.19866e-05
-0.000431384 0.000125379 0.000131145 -9.00824e-05
-0.00042789 0.000124395 0.000130069 -9.00805e-05
0.000426187 -0.00013184 -0.000126149 -9.01318e-05
0.000429534 -0.000132908 -0.000127125 -9.01341e-05
-0.000429637 0.000124887 0.000130607 -9.00814e-05
-9.15888e-07 -3.78599e-06 2.01509e-06 -9.19833e-05
0.000427861 -0.000132374 -0.000126637 -9.01329e-05
-9.90224e-07 -3.82919e-06 2.06546e-06 -9.19855e-05
-9.52982e-07 -3.80755e-06 2.04023e-06 -9.19844e-05
-0.00042789 0.000124395 0.000130069 -9.00805e-05
-0.000424397 0.000123411 0.000128994 -9.00785e-05
0.000422839 -0.000130772 -0.000125172 -9.01294e-05
0.000426187 -0.00013184 -0.000126149 -9.01318e-05
-0.000426144 0.000123903 0.000129532 -9.00795e-05
-8.42146e-07 -3.74314e-06 1.96512e-06 -9.19811e-05
0.000424513 -0.000131306 -0.00012566 -9.01306e-05
-9.15888e-07 -3.78599e-06 2.01509e-06 -9.19833e-05
-8.78943e-07 -3.76452e-06 1.99006e-06 -9.19822e-05
-0.000424397 0.000123411 0.000128994 -9.00785e-05
-0.000420904 0.000122426 0.000127919 -9.00765e-05
0.00041949 -0.000129704 -0.000124194 -9.0127e-05
0.000422839 -0.000130772 -0.000125172 -9.01294e-05
-0.000422651 0.000122919 0.000128457 -9.00775e-05
-7.68998e-07 -3.70064e-06 1.91556e-06 -9.19789e-05
0.000421165 -0.000130238 -0.000124683 -9.01282e-05
-8.42146e-07 -3.74314e-06 1.96512e-06 -9.19811e-05
-8.05498e-07 -3.72185e-06 1.94029e-06 -9.198e-05
-0.000420904 0.000122426 0.000127919 -9.00765e-05
-0.000417412 0.000121441 0.000126845 -9.00745e-05
0.000416142 -0.000128637 -0.000123216 -9.01246e-05
0.00041949 -0.000129704 -0.000124194 -9.0127e-05
-0.000419158 0.000121934 0.000127382 -9.00755e-05
-6.96444e-07 -3.65848e-06 1.8664e-06 -9.19767e-05
0.000417816 -0.00012917 -0.000123705 -9.01258e-05
-7.68998e-07 -3.70064e-06 1.91556e-06 -9.19789e-05
-7.32647e-07 -3.67951e-06 1.89093e-06 -9.19778e-05
-0.000417412 0.000121441 0.000126845 -9.00745e-05
-0.000413921 0.000120456 0.000125771 -9.00726e-05
0.000412792 -0.00012757 -0.000122238 -9.01222e-05
0.000416142 -0.000128637 -0.000123216 -9.01246e-05
-0.000415666 0.000120948 0.000126308 -9.00736e-05
-6.24484e-07 -3.61666e-06 1.81763e-06 -9.19744e-05
0.000414467 -0.000128103 -0.000122727 -9.01234e-05
-6.96444e-07 -3.65848e-06 1.8664e-06 -9.19767e-05
-6.6039e-07 -3.63753e-06 1.84196e-06 -9.19755e-05
-0.000413921 0.000120456 0.000125771 -9.00726e-05
-0.00041043 0.00011947 0.000124697 -9.00706e-05
0.000409442 -0.000126503 -0.00012126 -9.01198e-05
0.000412792 -0.00012757 -0.000122238 -9.01222e-05
-0.000412175 0.000119963 0.000125234 -9.00716e-05
-5.53118e-07 -3.57519e-06 1.76928e-06 -9.19722e-05
0.000411117 -0.000127036 -0.000121749 -9.0121e-05
-6.24484e-07 -3.61666e-06 1.81763e-06 -9.19744e-05
-5.88727e-07 -3.59589e-06 1.79341e-06 -9.19733e-05
-0.00041043 0.00011947 0.000124697 -9.00706e-05
-0.00040694 0.000118484 0.000123624 -9.00686e-05
0.000406092 -0.000125437 -0.000120281 -9.01174e-05
0.000409442 -0.000126503 -0.00012126 -9.01198e-05
-0.000408685 0.000118977 0.000124161 -9.00696e-05
-4.82345e-07 -3.53407e-06 1.72132e-06 -9.197e-05
0.000407767 -0.00012597 -0.00012077 -9.01186e-05
-5.53118e-07 -3.57519e-06 1.76928e-06 -9.19722e-05
-5.17658e-07 -3.55459e-06 1.74525e-06 -9.19711e-05
-0.00040694 0.000118484 0.000123624 -9.00686e-05
-0.000403451 0.000117498 0.000122551 -9.00666e-05
0.000402741 -0.000124371 -0.000119301 -9.0115e-05
0.000406092 -0.000125437 -0.000120281 -9.01174e-05
-0.000405195 0.000117991 0.000123088 -9.00676e-05
-4.12167e-07 -3.49329e-06 1.67377e-06 -9.19677e-05
0.000404416 -0.000124904 -0.000119791 -9.01162e-05
-4.82345e-07 -3.53407e-06 1.72132e-06 -9.197e-05
-4.47182e-07 -3.51364e-06 1.69749e-06 -9.19688e-05
-0.000403451 0.000117498 0.000122551 -9.00666e-05
-0.000399962 0.000116511 0.000121479 -9.00646e-05
0.000399389 -0.000123305 -0.000118322 -9.01126e-05
0.000402741 -0.000124371 -0.000119301 -9.0115e-05
-0.000401706 0.000117004 0.000122015 -9.00656e-05
-3.42583e-07 -3.45285e-06 1.62662e-06 -9.19655e-05
0.000401065 -0.000123838 -0.000118812 -9.01138e-05
-4.12167e-07 -3.49329e-06 1.67377e-06 -9.19677e-05
-3.77301e-07 -3.47303e-06 1.65014e-06 -9.19666e-05
-0.000399962 0.000116511 0.000121479 -9.00646e-05
-0.000396474 0.000115524 0.000120407 -9.00626e-05
0.000396037 -0.00012224 -0.000117342 -9.01102e-05
0.000399389 -0.000123305 -0.000118322 -9.01126e-05
-0.000398218 0.000116018 0.000120943 -9.00636e-05
-2.73592e-07 -3.41276e-06 1.57987e-06 -9.19632e-05
0.000397714 -0.000122773 -0.000117832 -9.01114e-05
-3.42583e-07 -3.45285e-06 1.62662e-06 -9.19655e-05
-3.08014e-07 -3.43276e-06 1.60319e-06 -9.19644e-05
-0.000396474 0.000115524 0.000120407 -9.00626e-05
-0.000392987 0.000114537 0.000119336 -9.00606e-05
0.000392685 -0.000121175 -0.000116361 -9.01078e-05
0.000396037 -0.00012224 -0.000117342 -9.01102e-05
-0.00039473 0.000115031 0.000119871 -9.00616e-05
-2.05195e-07 -3.37302e-06 1.53352e-06 -9.1961e-05
0.000394361 -0.000121707 -0.000116852 -9.0109e-05
-2.73592e-07 -3.41276e-06 1.57987e-06 -9.19632e-05
-2.3932e-07 -3.39285e-06 1.55664e-06 -9.19621e-05
-0.000392987 0.000114537 0.000119336 -9.00606e-05
-0.0003895 0.000113549 0.000118265 -9.00586e-05
0.000389332 -0.000120111 -0.000115381 -9.01054e-05
0.000392685 -0.000121175 -0.000116361 -9.01078e-05
-0.000391243 0.000114043 0.0001188 -9.00596e-05
-1.37392e-07 -3.33361e-06 1.48757e-06 -9.19587e-05
0.000391009 -0.000120643 -0.000115871 -9.01066e-05
-2.05195e-07 -3.37302e-06 1.53352e-06 -9.1961e-05
-1.7122e-07 -3.35327e-06 1.5105e-06 -9.19599e-05
-0.0003895 0.000113549 0.000118265 -9.00586e-05
-0.000386014 0.000112562 0.000117194 -9.00566e-05
0.000385979 -0.000119047 -0.0001144 -9.0103e-05
0.000389332 -0.000120111 -0.000115381 -9.01054e-05
-0.000387757 0.000113056 0.000117729 -9.00576e-05
-7.01833e-08 -3.29456e-06 1.44203e-06 -9.19565e-05
0.000387655 -0.000119579 -0.00011489 -9.01042e-05
-1.37392e-07 -3.33361e-06 1.48757e-06 -9.19587e-05
-1.03714e-07 -3.31404e-06 1.46475e-06 -9.19576e-05
-0.000386014 0.000112562 0.000117194 -9.00566e-05
-0.000382529 0.000111573 0.000116124 -9.00546e-05
0.000382625 -0.000117983 -0.000113418 -9.01006e-05
0.000385979 -0.000119047 -0.0001144 -9.0103e-05
-0.000384271 0.000112068 0.000116659 -9.00556e-05
-3.56787e-09 -3.25585e-06 1.39689e-06 -9.19543e-05
0.000384302 -0.000118515 -0.000113909 -9.01018e-05
-7.01833e-08 -3.29456e-06 1.44203e-06 -9.19565e-05
-3.68017e-08 -3.27516e-06 1.41941e-06 -9.19554e-05
-0.000382529 0.000111573 0.000116124 -9.00546e-05
-0.000379044 0.000110585 0.000115054 -9.00527e-05
0.00037927 -0.000116919 -0.000112436 -9.00982e-05
0.000382625 -0.000117983 -0.000113418 -9.01006e-05
-0.000380786 0.000111079 0.000115589 -9.00537e-05
6.24538e-08 -3.21748e-06 1.35215e-06 -9.1952e-05
0.000380948 -0.000117451 -0.000112927 -9.00994e-05
-3.56787e-09 -3.25585e-06 1.39689e-06 -9.19543e-05
2.95168e-08 -3.23662e-06 1.37447e-06 -9.19531e-05
-0.000379044 0.000110585 0.000115054 -9.00527e-05
-0.00037556 0.000109596 0.000113985 -9.00507e-05
0.000375915 -0.000115856 -0.000111454 -9.00958e-05
0.00037927 -0.000116919 -0.000112436 -9.00982e-05
-0.000377302 0.000110091 0.000114519 -9.00517e-05
1.27882e-07 -3.17946e-06 1.30782e-06 -9.19498e-05
0.000377593 -0.000116388 -0.000111945 -9.0097e-05
6.24538e-08 -3.21748e-06 1.35215e-06 -9.1952e-05
9.52416e-08 -3.19843e-06 1.32994e-06 -9.19509e-05
-0.00037556 0.000109596 0.000113985 -9.00507e-05
-0.000372077 0.000108607 0.000112916 -9.00487e-05
0.00037256 -0.000114794 -0.000110471 -9.00934e-05
0.000375915 -0.000115856 -0.000111454 -9.00958e-05
-0.000373818 0.000109102 0.00011345 -9.00497e-05
1.92716e-07 -3.14178e-06 1.26388e-06 -9.19475e-05
0.000374238 -0.000115325 -0.000110963 -9.00946e-05
1.27882e-07 -3.17946e-06 1.30782e-06 -9.19498e-05
1.60373e-07 -3.16058e-06 1.2858e-06 -9.19486e-05
-0.000372077 0.000108607 0.000112916 -9.00487e-05
-0.000368594 0.000107618 0.000111847 -9.00467e-05
0.000369204 -0.000113731 -0.000109488 -9.0091e-05
0.00037256 -0.000114794 -0.000110471 -9.00934e-05
-0.000370335 0.000108112 0.000112381 -9.00477e-05
2.56957e-07 -3.10445e-06 1.22035e-06 -9.19453e-05
0.000370882 -0.000114263 -0.00010998 -9.00922e-05
1.92716e-07 -3.14178e-06 1.26388e-06 -9.19475e-05
2.2491e-07 -3.12307e-06 1.24207e-06 -9.19464e-05
-0.000368594 0.000107618 0.000111847 -9.00467e-05
-0.000365112 0.000106628 0.000110779 -9.00447e-05
0.000365848 -0.000112669 -0.000108505 -9.00886e-05
0.000369204 -0.000113731 -0.000109488 -9.0091e-05
-0.000366853 0.000107123 0.000111313 -9.00457e-05
3.20604e-07 -3.06746e-06 1.17722e-06 -9.19431e-05
0.000367526 -0.0001132 -0.000108997 -9.00898e-05
2.56957e-07 -3.10445e-06 1.22035e-06 -9.19453e-05
2.88854e-07 -3.08591e-06 1.19874e-06 -9.19442e-05
-0.000365112 0.000106628 0.000110779 -9.00447e-05
-0.000361631 0.000105638 0.000109711 -9.00427e-05
0.000362491 -0.000111608 -0.000107521 -9.00862e-05
0.000365848 -0.000112669 -0.000108505 -9.00886e-05
-0.000363372 0.000106133 0.000110245 -9.00437e-05
3.83657e-07 -3.03082e-06 1.1345e-06 -9.19408e-05
0.000364169 -0.000112139 -0.000108013 -9.00874e-05
3.20604e-07 -3.06746e-06 1.17722e-06 -9.19431e-05
3.52204e-07 -3.04909e-06 1.15581e-06 -9.19419e-05
-0.000361631 0.000105638 0.000109711 -9.00427e-05
-0.00035815 0.000104648 0.000108644 -9.00408e-05
0.000359133 -0.000110547 -0.000106537 -9.00838e-05
0.000362491 -0.000111608 -0.000107521 -9.00862e-05
-0.000359891 0.000105143 0.000109178 -9.00417e-05
4.46117e-07 -2.99452e-06 1.09217e-06 -9.19386e-05
0.000360812 -0.000111077 -0.000107029 -9.0085e-05
3.83657e-07 -3.03082e-06 1.1345e-06 -9.19408e-05
4.14961e-07 -3.01262e-06 1.11328e-06 -9.19397e-05
-0.00035815 0.000104648 0.000108644 -9.00408e-05
-0.00035467 0.000103657 0.000107577 -9.00388e-05
0.000355775 -0.000109486 -0.000105553 -9.00814e-05
0.000359133 -0.000110547 -0.000106537 -9.00838e-05
-0.00035641 0.000104152 0.000108111 -9.00398e-05
5.07983e-07 -2.95856e-06 1.05025e-06 -9.19364e-05
0.000357454 -0.000110016 -0.000106045 -9.00826e-05
4.46117e-07 -2.99452e-06 1.09217e-06 -9.19386e-05
4.77124e-07 -2.9765e-06 1.07116e-06 -9.19375e-05
-0.00035467 0.000103657 0.000107577 -9.00388e-05
-0.000351191 0.000102666 0.000106511 -9.00368e-05
0.000352417 -0.000108425 -0.000104568 -9.00791e-05
0.000355775 -0.000109486 -0.000105553 -9.00814e-05
-0.000352931 0.000103161 0.000107044 -9.00378e-05
5.69256e-07 -2.92295e-06 1.00873e-06 -9.19342e-05
0.000354096 -0.000108956 -0.00010506 -9.00803e-05
5.07983e-07 -2.95856e-06 1.05025e-06 -9.19364e-05
5.38693e-07 -2.94072e-06 1.02944e-06 -9.19353e-05
-0.000351191 0.000102666 0.000106511 -9.00368e-05
-0.000347712 0.000101675 0.000105445 -9.00349e-05
0.000349058 -0.000107365 -0.000103583 -9.00767e-05
0.000352417 -0.000108425 -0.000104568 -9.00791e-05
-0.000349452 0.00010217 0.000105978 -9.00358e-05
6.29935e-07 -2.88769e-06 9.67609e-07 -9.1932e-05
0.000350737 -0.000107895 -0.000104075 -9.00779e-05
5.69256e-07 -2.92295e-06 1.00873e-06 -9.19342e-05
5.99669e-07 -2.90528e-06 9.88118e-07 -9.19331e-05
-0.000347712 0.000101675 0.000105445 -9.00349e-05
-0.000344234 0.000100683 0.000104379 -9.00329e-05
0.000345698 -0.000106305 -0.000102597 -9.00743e-05
0.000349058 -0.000107365 -0.000103583 -9.00767e-05
-0.000345973 0.000101179 0.000104912 -9.00339e-05
6.90021e-07 -2.85277e-06 9.26893e-07 -9.19297e-05
0.000347378 -0.000106835 -0.00010309 -9.00755e-05
6.29935e-07 -2.88769e-06 9.67609e-07 -9.1932e-05
6.60052e-07 -2.87019e-06 9.47201e-07 -9.19309e-05
-0.000344234 0.000100683 0.000104379 -9.00329e-05
-0.000340757 9.96911e-05 0.000103314 -9.0031e-05
0.000342338 -0.000105246 -0.000101611 -9.0072e-05
0.000345698 -0.000106305 -0.000102597 -9.00743e-05
-0.000342496 0.000100187 0.000103847 -9.00319e-05
7.49514e-07 -2.8182e-06 8.86578e-07 -9.19276e-05
0.000344018 -0.000105776 -0.000102104 -9.00731e-05
6.90021e-07 -2.85277e-06 9.26893e-07 -9.19297e-05
7.19841e-07 -2.83544e-06 9.06685e-07 -9.19286e-05
-0.000340757 9.96911e-05 0.000103314 -9.0031e-05
-0.000337281 9.86989e-05 0.000102249 -9.0029e-05
0.000338978 -0.000104187 -0.000100625 -9.00696e-05
0.000342338 -0.000105246 -0.000101611 -9.0072e-05
-0.000339019 9.91951e-05 0.000102782 -9.003e-05
8.08413e-07 -2.78396e-06 8.46665e-07 -9.19254e-05
0.000340658 -0.000104716 -0.000101118 -9.00708e-05
7.49514e-07 -2.8182e-06 8.86578e-07 -9.19276e-05
7.79037e-07 -2.80104e-06 8.66571e-07 -9.19265e-05
-0.000337281 9.86989e-05 0.000102249 -9.0029e-05
-0.000333805 9.77064e-05 0.000101185 -9.00271e-05
0.000335617 -0.000103128 -9.9638e-05 -9.00673e-05
0.000338978 -0.000104187 -0.000100625 -9.00696e-05
-0.000335542 9.82027e-05 0.000101717 -9.00281e-05
8.66718e-07 -2.75008e-06 8.07154e-07 -9.19232e-05
0.000337298 -0.000103658 -0.000100131 -9.00684e-05
8.08413e-07 -2.78396e-06 8.46665e-07 -9.19254e-05
8.37639e-07 -2.76698e-06 8.2686e-07 -9.19243e-05
-0.000333805 9.77064e-05 0.000101185 -9.00271e-05
-0.000330329 9.67136e-05 0.000100121 -9.00252e-05
0.000332256 -0.00010207 -9.86509e-05 -9.00649e-05
0.000335617 -0.000103128 -9.9638e-05 -9.00673e-05
-0.000332067 9.721e-05 0.000100653 -9.00261e-05
9.24431e-07 -2.71654e-06 7.68046e-07 -9.1921e-05
0.000333936 -0.000102599 -9.91445e-05 -9.00661e-05
8.66718e-07 -2.75008e-06 8.07154e-07 -9.19232e-05
8.95648e-07 -2.73326e-06 7.8755e-07 -9.19221e-05
-0.000330329 9.67136e-05 0.000100121 -9.00252e-05
-0.000326855 9.57204e-05 9.90575e-05 -9.00232e-05
0.000328894 -0.000101012 -9.76635e-05 -9.00626e-05
0.000332256 -0.00010207 -9.86509e-05 -9.00649e-05
-0.000328592 9.6217e-05 9.95892e-05 -9.00242e-05
9.8155e-07 -2.68334e-06 7.29339e-07 -9.19188e-05
0.000330575 -0.000101541 -9.81573e-05 -9.00638e-05
9.24431e-07 -2.71654e-06 7.68046e-07 -9.1921e-05
9.53064e-07 -2.6999e-06 7.48642e-07 -9.19199e-05
-0.000326855 9.57204e-05 9.90575e-05 -9.00232e-05
-0.000323381 9.4727e-05 9.79944e-05 -9.00213e-05
0.000325531 -9.99544e-05 -9.66757e-05 -9.00603e-05
0.000328894 -0.000101012 -9.76635e-05 -9.00626e-05
-0.000325118 9.52238e-05 9.85259e-05 -9.00223e-05
1.03808e-06 -2.65049e-06 6.91034e-07 -9.19167e-05
0.000327212 -0.000100483 -9.71697e-05 -9.00614e-05
9.8155e-07 -2.68334e-06 7.29339e-07 -9.19188e-05
1.00989e-06 -2.66687e-06 7.10136e-07 -9.19178e-05
-0.000323381 9.4727e-05 9.79944e-05 -9.00213e-05
-0.000319907 9.37332e-05 9.69318e-05 -9.00194e-05
0.000322168 -9.88972e-05 -9.56875e-05 -9.0058e-05
0.000325531 -9.99544e-05 -9.66757e-05 -9.00603e-05
-0.000321644 9.42301e-05 9.74631e-05 -9.00204e-05
1.09401e-06 -2.61798e-06 6.53131e-07 -9.19145e-05
0.00032385 -9.94258e-05 -9.61817e-05 -9.00591e-05
1.03808e-06 -2.65049e-06 6.91034e-07 -9.19167e-05
1.06612e-06 -2.63419e-06 6.72032e-07 -9.19156e-05
-0.000319907 9.37332e-05 9.69318e-05 -9.00194e-05
-0.000316435 9.27391e-05 9.58695e-05 -9.00175e-05
0.000318805 -9.78403e-05 -9.4699e-05 -9.00557e-05
0.000322168 -9.88972e-05 -9.56875e-05 -9.0058e-05
-0.000318171 9.32362e-05 9.64006e-05 -9.00185e-05
1.14935e-06 -2.58582e-06 6.1563e-07 -9.19124e-05
0.000320486 -9.83687e-05 -9.51933e-05 -9.00568e-05
1.09401e-06 -2.61798e-06 6.53131e-07 -9.19145e-05
1.12175e-06 -2.60186e-06 6.3433e-07 -9.19135e-05
-0.000316435 9.27391e-05 9.58695e-05 -9.00175e-05
-0.000312963 9.17448e-05 9.48077e-05 -9.00157e-05
0.000315441 -9.67838e-05 -9.37101e-05 -9.00534e-05
0.000318805 -9.78403e-05 -9.4699e-05 -9.00557e-05
-0.000314699 9.2242e-05 9.53386e-05 -9.00166e-05
1.20409e-06 -2.554e-06 5.78531e-07 -9.19103e-05
0.000317123 -9.7312e-05 -9.42046e-05 -9.00545e-05
1.14935e-06 -2.58582e-06 6.1563e-07 -9.19124e-05
1.17679e-06 -2.56987e-06 5.9703e-07 -9.19113e-05
-0.000312963 9.17448e-05 9.48077e-05 -9.00157e-05
-0.000309491 9.07501e-05 9.37463e-05 -9.00138e-05
0.000312076 -9.57277e-05 -9.27208e-05 -9.00511e-05
0.000315441 -9.67838e-05 -9.37101e-05 -9.00534e-05
-0.000311227 9.12474e-05 9.4277e-05 -9.00147e-05
1.25825e-06 -2.52253e-06 5.41834e-07 -9.19081e-05
0.000313758 -9.62557e-05 -9.32155e-05 -9.00522e-05
1.20409e-06 -2.554e-06 5.78531e-07 -9.19103e-05
1.23124e-06 -2.53822e-06 5.60132e-07 -9.19092e-05
-0.000309491 9.07501e-05 9.37463e-05 -9.00138e-05
-0.000306021 8.9755e-05 9.26853e-05 -9.00119e-05
0.000308711 -9.46719e-05 -9.17311e-05 -9.00488e-05
0.000312076 -9.57277e-05 -9.27208e-05 -9.00511e-05
-0.000307756 9.02526e-05 9.32158e-05 -9.00129e-05
1.31181e-06 -2.4914e-06 5.05538e-07 -9.1906e-05
0.000310394 -9.51997e-05 -9.2226e-05 -9.005e-05
1.25825e-06 -2.52253e-06 5.41834e-07 -9.19081e-05
1.2851e-06 -2.50692e-06 5.23636e-07 -9.19071e-05
-0.000306021 8.9755e-05 9.26853e-05 -9.00119e-05
-0.000302551 8.87597e-05 9.16248e-05 -9.00101e-05
0.000305346 -9.36164e-05 -9.07411e-05 -9.00466e-05
0.000308711 -9.46719e-05 -9.17311e-05 -9.00488e-05
-0.000304286 8.92574e-05 9.2155e-05 -9.0011e-05
1.36477e-06 -2.46061e-06 4.69644e-07 -9.19039e-05
0.000307028 -9.41441e-05 -9.12362e-05 -9.00477e-05
1.31181e-06 -2.4914e-06 5.05538e-07 -9.1906e-05
1.33836e-06 -2.47596e-06 4.87541e-07 -9.1905e-05
-0.000302551 8.87597e-05 9.16248e-05 -9.00101e-05
-0.000299082 8.77641e-05 9.05646e-05 -9.00082e-05
0.00030198 -9.25614e-05 -8.97507e-05 -9.00443e-05
0.000305346 -9.36164e-05 -9.07411e-05 -9.00466e-05
-0.000300816 8.82619e-05 9.10946e-05 -9.00092e-05
1.41715e-06 -2.43017e-06 4.34153e-07 -9.19018e-05
0.000303663 -9.30889e-05 -9.02459e-05 -9.00454e-05
1.36477e-06 -2.46061e-06 4.69644e-07 -9.19039e-05
1.39104e-06 -2.44535e-06 4.51848e-07 -9.19029e-05
-0.000299082 8.77641e-05 9.05646e-05 -9.00082e-05
-0.000295613 8.67681e-05 8.95049e-05 -9.00064e-05
0.000298613 -9.15066e-05 -8.87599e-05 -9.00421e-05
0.00030198 -9.25614e-05 -8.97507e-05 -9.00443e-05
-0.000297347 8.72661e-05 9.00347e-05 -9.00073e-05
1.46893e-06 -2.40008e-06 3.99063e-07 -9.18998e-05
0.000300296 -9.2034e-05 -8.92553e-05 -9.00432e-05
1.41715e-06 -2.43017e-06 4.34153e-07 -9.19018e-05
1.44311e-06 -2.41508e-06 4.16557e-07 -9.19008e-05
-0.000295613 8.67681e-05 8.95049e-05 -9.00064e-05
-0.000292145 8.57719e-05 8.84456e-05 -9.00046e-05
0.000295246 -9.04523e-05 -8.77688e-05 -9.00399e-05
0.000298613 -9.15066e-05 -8.87599e-05 -9.00421e-05
-0.000293879 8.627e-05 8.89752e-05 -9.00055e-05
1.52012e-06 -2.37032e-06 3.64374e-07 -9.18977e-05
0.00029693 -9.09794e-05 -8.82644e-05 -9.0041e-05
1.46893e-06 -2.40008e-06 3.99063e-07 -9.18998e-05
1.4946e-06 -2.38516e-06 3.81668e-07 -9.18987e-05
-0.000292145 8.57719e-05 8.84456e-05 -9.00046e-05
-0.000288678 8.47753e-05 8.73867e-05 -9.00028e-05
0.000291879 -8.93983e-05 -8.67772e-05 -9.00376e-05
0.000295246 -9.04523e-05 -8.77688e-05 -9.00399e-05
-0.000290411 8.52736e-05 8.79161e-05 -9.00037e-05
1.57071e-06 -2.34092e-06 3.30088e-07 -9.18957e-05
0.000293562 -8.99253e-05 -8.7273e-05 -9.00387e-05
1.52012e-06 -2.37032e-06 3.64374e-07 -9.18977e-05
1.54549e-06 -2.35558e-06 3.47181e-07 -9.18967e-05
-0.000288678 8.47753e-05 8.73867e-05 -9.00028e-05
-0.000285211 8.37784e-05 8.63282e-05 -9.0001e-05
0.00028851 -8.83447e-05 -8.57854e-05 -9.00354e-05
0.000291879 -8.93983e-05 -8.67772e-05 -9.00376e-05
-0.000286944 8.42769e-05 8.68574e-05 -9.00019e-05
1.62071e-06 -2.31185e-06 2.96203e-07 -9.18936e-05
0.000290195 -8.88714e-05 -8.62813e-05 -9.00365e-05
1.57071e-06 -2.34092e-06 3.30088e-07 -9.18957e-05
1.59579e-06 -2.32634e-06 3.13095e-07 -9.18946e-05
-0.000285211 8.37784e-05 8.63282e-05 -9.0001e-05
-0.000281745 8.27812e-05 8.52701e-05 -8.99992e-05
0.000285142 -8.72914e-05 -8.47931e-05 -9.00333e-05
0.00028851 -8.83447e-05 -8.57854e-05 -9.00354e-05
-0.000283478 8.32798e-05 8.57991e-05 -9.00001e-05
1.67012e-06 -2.28314e-06 2.6272e-07 -9.18916e-05
0.000286826 -8.7818e-05 -8.52893e-05 -9.00343e-05
1.62071e-06 -2.31185e-06 2.96203e-07 -9.18936e-05
1.64549e-06 -2.29745e-06 2.79411e-07 -9.18926e-05
-0.000281745 8.27812e-05 8.52701e-05 -8.99992e-05
-0.00027828 8.17837e-05 8.42125e-05 -8.99975e-05
0.000281773 -8.62385e-05 -8.38005e-05 -9.00311e-05
0.000285142 -8.72914e-05 -8.47931e-05 -9.00333e-05
-0.000280012 8.22825e-05 8.47413e-05 -8.99984e-05
1.71894e-06 -2.25476e-06 2.29638e-07 -9.18896e-05
0.000283457 -8.67649e-05 -8.42968e-05 -9.00322e-05
1.67012e-06 -2.28314e-06 2.6272e-07 -9.18916e-05
1.69461e-06 -2.26891e-06 2.46129e-07 -9.18906e-05
-0.00027828 8.17837e-05 8.42125e-05 -8.99975e-05
-0.000274815 8.07859e-05 8.31553e-05 -8.99957e-05
0.000278403 -8.51859e-05 -8.28074e-05 -9.00289e-05
0.000281773 -8.62385e-05 -8.38005e-05 -9.00311e-05
-0.000276547 8.12848e-05 8.36838e-05 -8.99966e-05
1.76716e-06 -2.22673e-06 1.96958e-07 -9.18876e-05
0.000280088 -8.57122e-05 -8.3304e-05 -9.003e-05
1.71894e-06 -2.25476e-06 2.29638e-07 -9.18896e-05
1.74313e-06 -2.24071e-06 2.13248e-07 -9.18886e-05
-0.000274815 8.07859e-05 8.31553e-05 -8.99957e-05
-0.000271351 7.97877e-05 8.20985e-05 -8.9994e-05
0.000275033 -8.41337e-05 -8.18141e-05 -9.00268e-05
0.000278403 -8.51859e-05 -8.28074e-05 -9.00289e-05
-0.000273083 8.02868e-05 8.26268e-05 -8.99949e-05
1.8148e-06 -2.19905e-06 1.6468e-07 -9.18856e-05
0.000276718 -8.46598e-05 -8.23108e-05 -9.00278e-05
1.76716e-06 -2.22673e-06 1.96958e-07 -9.18876e-05
1.79105e-06 -2.21285e-06 1.80769e-07 -9.18866e-05
-0.000271351 7.97877e-05 8.20985e-05 -8.9994e-05
-0.000267887 7.87893e-05 8.10421e-05 -8.99923e-05
0.000271663 -8.30819e-05 -8.08203e-05 -9.00246e-05
0.000275033 -8.41337e-05 -8.18141e-05 -9.00268e-05
-0.000269619 7.92885e-05 8.15702e-05 -8.99931e-05
1.86183e-06 -2.17171e-06 1.32804e-07 -9.18836e-05
0.000273348 -8.36078e-05 -8.13172e-05 -9.00257e-05
1.8148e-06 -2.19905e-06 1.6468e-07 -9.18856e-05
1.83839e-06 -2.18534e-06 1.48692e-07 -9.18846e-05
-0.000267887 7.87893e-05 8.10421e-05 -8.99923e-05
-0.000264425 7.77905e-05 7.99861e-05 -8.99906e-05
0.000268292 -8.20304e-05 -7.98262e-05 -9.00225e-05
0.000271663 -8.30819e-05 -8.08203e-05 -9.00246e-05
-0.000266156 7.82899e-05 8.0514e-05 -8.99914e-05
1.90828e-06 -2.14471e-06 1.01329e-07 -9.18817e-05
0.000269977 -8.25561e-05 -8.03233e-05 -9.00236e-05
1.86183e-06 -2.17171e-06 1.32804e-07 -9.18836e-05
1.88513e-06 -2.15817e-06 1.17016e-07 -9.18827e-05
-0.000264425 7.77905e-05 7.99861e-05 -8.99906e-05
-0.000260963 7.67914e-05 7.89305e-05 -8.99889e-05
0.00026492 -8.09793e-05 -7.88317e-05 -9.00204e-05
0.000268292 -8.20304e-05 -7.98262e-05 -9.00225e-05
-0.000262694 7.7291e-05 7.94583e-05 -8.99897e-05
1.95413e-06 -2.11806e-06 7.02552e-08 -9.18798e-05
0.000266606 -8.15048e-05 -7.9329e-05 -9.00215e-05
1.90828e-06 -2.14471e-06 1.01329e-07 -9.18817e-05
1.93128e-06 -2.13134e-06 8.57418e-08 -9.18807e-05
-0.000260963 7.67914e-05 7.89305e-05 -8.99889e-05
-0.000257501 7.5792e-05 7.78754e-05 -8.99872e-05
0.000261548 -7.99285e-05 -7.78368e-05 -9.00184e-05
0.00026492 -8.09793e-05 -7.88317e-05 -9.00204e-05
-0.000259232 7.62918e-05 7.84029e-05 -8.9988e-05
1.99939e-06 -2.09175e-06 3.95833e-08 -9.18778e-05
0.000263234 -8.04539e-05 -7.83343e-05 -9.00194e-05
1.95413e-06 -2.11806e-06 7.02552e-08 -9.18798e-05
1.97684e-06 -2.10486e-06 5.48692e-08 -9.18788e-05
-0.000257501 7.5792e-05 7.78754e-05 -8.99872e-05
-0.000254041 7.47923e-05 7.68207e-05 -8.99856e-05
0.000258175 -7.88781e-05 -7.68416e-05 -9.00163e-05
0.000261548 -7.99285e-05 -7.78368e-05 -9.00184e-05
-0.000255771 7.52922e-05 7.7348e-05 -8.99864e-05
2.04406e-06 -2.06579e-06 9.31302e-09 -9.18759e-05
0.000259862 -7.94033e-05 -7.73392e-05 -9.00173e-05
1.99939e-06 -2.09175e-06 3.95833e-08 -9.18778e-05
2.0218e-06 -2.07873e-06 2.43981e-08 -9.18769e-05
-0.000254041 7.47923e-05 7.68207e-05 -8.99856e-05
-0.00025058 7.37923e-05 7.57663e-05 -8.99839e-05
0.000254802 -7.78281e-05 -7.5846e-05 -9.00142e-05
0.000258175 -7.88781e-05 -7.68416e-05 -9.00163e-05
-0.00025231 7.42923e-05 7.62935e-05 -8.99847e-05
2.08813e-06 -2.04017e-06 -2.05558e-08 -9.18741e-05
0.000256489 -7.83531e-05 -7.63438e-05 -9.00153e-05
2.04406e-06 -2.06579e-06 9.31302e-09 -9.18759e-05
2.06617e-06 -2.05294e-06 -5.67145e-09 -9.1875e-05
-0.00025058 7.37923e-05 7.57663e-05 -8.99839e-05
-0.000247121 7.27919e-05 7.47125e-05 -8.99823e-05
0.000251428 -7.67784e-05 -7.485e-05 -9.00122e-05
0.000254802 -7.78281e-05 -7.5846e-05 -9.00142e-05
-0.000248851 7.32921e-05 7.52393e-05 -8.99831e-05
2.13162e-06 -2.0149e-06 -5.00231e-08 -9.18722e-05
0.000253115 -7.73032e-05 -7.5348e-05 -9.00132e-05
2.08813e-06 -2.04017e-06 -2.05558e-08 -9.18741e-05
2.10995e-06 -2.02749e-06 -3.53395e-08 -9.18731e-05
-0.000247121 7.27919e-05 7.47125e-05 -8.99823e-05
-0.000243662 7.17913e-05 7.3659e-05 -8.99807e-05
0.000248054 -7.57291e-05 -7.38536e-05 -9.00102e-05
0.000251428 -7.67784e-05 -7.485e-05 -9.00122e-05
-0.000245392 7.22916e-05 7.41857e-05 -8.99815e-05
2.17451e-06 -1.98997e-06 -7.90889e-08 -9.18703e-05
0.000249741 -7.62537e-05 -7.43518e-05 -9.00112e-05
2.13162e-06 -2.0149e-06 -5.00231e-08 -9.18722e-05
2.15314e-06 -2.00239e-06 -6.46061e-08 -9.18713e-05
-0.000243662 7.17913e-05 7.3659e-05 -8.99807e-05
-0.000240204 7.07903e-05 7.26059e-05 -8.99791e-05
0.000244679 -7.46801e-05 -7.28569e-05 -9.00082e-05
0.000248054 -7.57291e-05 -7.38536e-05 -9.00102e-05
-0.000241933 7.12908e-05 7.31324e-05 -8.99799e-05
2.2168e-06 -1.96538e-06 -1.07753e-07 -9.18685e-05
0.000246367 -7.52045e-05 -7.33553e-05 -9.00092e-05
2.17451e-06 -1.98997e-06 -7.90889e-08 -9.18703e-05
2.19573e-06 -1.97763e-06 -9.34712e-08 -9.18694e-05
-0.000240204 7.07903e-05 7.26059e-05 -8.99791e-05
-0.000236747 6.9789e-05 7.15532e-05 -8.99775e-05
0.000241304 -7.36315e-05 -7.18597e-05 -9.00062e-05
0.000244679 -7.46801e-05 -7.28569e-05 -9.00082e-05
-0.000238475 7.02897e-05 7.20795e-05 -8.99783e-05
2.25851e-06 -1.94114e-06 -1.36016e-07 -9.18667e-05
0.000242992 -7.41557e-05 -7.23583e-05 -9.00072e-05
2.2168e-06 -1.96538e-06 -1.07753e-07 -9.18685e-05
2.23773e-06 -1.95322e-06 -1.21935e-07 -9.18676e-05
-0.000236747 6.9789e-05 7.15532e-05 -8.99775e-05
-0.00023329 6.87874e-05 7.0501e-05 -8.9976e-05
0.000237928 -7.25832e-05 -7.08623e-05 -9.00042e-05
0.000241304 -7.36315e-05 -7.18597e-05 -9.00062e-05
-0.000235018 6.92883e-05 7.10271e-05 -8.99767e-05
2.29962e-06 -1.91724e-06 -1.63878e-07 -9.18649e-05
0.000239616 -7.31073e-05 -7.1361e-05 -9.00052e-05
2.25851e-06 -1.94114e-06 -1.36016e-07 -9.18667e-05
2.27914e-06 -1.92915e-06 -1.49997e-07 -9.18658e-05
-0.00023329 6.87874e-05 7.0501e-05 -8.9976e-05
-0.000229834 6.77855e-05 6.94492e-05 -8.99744e-05
0.000234552 -7.15353e-05 -6.98644e-05 -9.00023e-05
0.000237928 -7.25832e-05 -7.08623e-05 -9.00042e-05
-0.000231562 6.82865e-05 6.9975e-05 -8.99752e-05
2.34014e-06 -1.89369e-06 -1.91338e-07 -9.18631e-05
0.00023624 -7.20592e-05 -7.03634e-05 -9.00033e-05
2.29962e-06 -1.91724e-06 -1.63878e-07 -9.18649e-05
2.31996e-06 -1.90542e-06 -1.77658e-07 -9.1864e-05
-0.000229834 6.77855e-05 6.94492e-05 -8.99744e-05
-0.000226378 6.67833e-05 6.83978e-05 -8.99729e-05
0.000231175 -7.04878e-05 -6.88662e-05 -9.00004e-05
0.000234552 -7.15353e-05 -6.98644e-05 -9.00023e-05
-0.000228106 6.72844e-05 6.89234e-05 -8.99737e-05
2.38007e-06 -1.87048e-06 -2.18397e-07 -9.18614e-05
0.000232864 -7.10115e-05 -6.93653e-05 -9.00013e-05
2.34014e-06 -1.89369e-06 -1.91338e-07 -9.18631e-05
2.36018e-06 -1.88204e-06 -2.04917e-07 -9.18623e-05
-0.000226378 6.67833e-05 6.83978e-05 -8.99729e-05
-0.000222923 6.57807e-05 6.73468e-05 -8.99714e-05
0.000227798 -6.94406e-05 -6.78675e-05 -8.99985e-05
0.000231175 -7.04878e-05 -6.88662e-05 -9.00004e-05
-0.000224651 6.6282e-05 6.78722e-05 -8.99722e-05
2.41941e-06 -1.84761e-06 -2.45054e-07 -9.18596e-05
0.000229487 -6.99641e-05 -6.83669e-05 -8.99994e-05
2.38007e-06 -1.87048e-06 -2.18397e-07 -9.18614e-05
2.39981e-06 -1.859e-06 -2.31775e-07 -9.18605e-05
-0.000222923 6.57807e-05 6.73468e-05 -8.99714e-05
-0.000219469 6.47779e-05 6.62962e-05 -8.99699e-05
0.00022442 -6.83937e-05 -6.68686e-05 -8.99966e-05
0.000227798 -6.94406e-05 -6.78675e-05 -8.99985e-05
-0.000221196 6.52793e-05 6.68214e-05 -8.99707e-05
2.45815e-06 -1.82509e-06 -2.7131e-07 -9.18579e-05
0.000226109 -6.89171e-05 -6.73681e-05 -8.99975e-05
2.41941e-06 -1.84761e-06 -2.45054e-07 -9.18596e-05
2.43885e-06 -1.83631e-06 -2.58232e-07 -9.18588e-05
-0.000219469 6.47779e-05 6.62962e-05 -8.99699e-05
-0.000216015 6.37747e-05 6.5246e-05 -8.99685e-05
0.000221042 -6.73473e-05 -6.58692e-05 -8.99947e-05
0.00022442 -6.83937e-05 -6.68686e-05 -8.99966e-05
-0.000217742 6.42763e-05 6.57711e-05 -8.99692e-05
2.4963e-06 -1.80292e-06 -2.97165e-07 -9.18562e-05
0.000222731 -6.78705e-05 -6.63689e-05 -8.99956e-05
2.45815e-06 -1.82509e-06 -2.7131e-07 -9.18579e-05
2.4773e-06 -1.81396e-06 -2.84288e-07 -9.18571e-05
-0.000216015 6.37747e-05 6.5246e-05 -8.99685e-05
-0.000212562 6.27712e-05 6.41963e-05 -8.99671e-05
0.000217663 -6.63011e-05 -6.48695e-05 -8.99929e-05
0.000221042 -6.73473e-05 -6.58692e-05 -8.99947e-05
-0.000214289 6.3273e-05 6.47211e-05 -8.99678e-05
2.53386e-06 -1.78108e-06 -3.22618e-07 -9.18545e-05
0.000219353 -6.68241e-05 -6.53694e-05 -8.99938e-05
2.4963e-06 -1.80292e-06 -2.97165e-07 -9.18562e-05
2.51515e-06 -1.79196e-06 -3.09942e-07 -9.18554e-05
-0.000212562 6.27712e-05 6.41963e-05 -8.99671e-05
-0.00020911 6.17674e-05 6.31469e-05 -8.99656e-05
0.000214284 -6.52554e-05 -6.38693e-05 -8.9991e-05
0.000217663 -6.63011e-05 -6.48695e-05 -8.99929e-05
-0.000210836 6.22693e-05 6.36715e-05 -8.99663e-05
2.57083e-06 -1.7596e-06 -3.4767e-07 -9.18529e-05
0.000215974 -6.57782e-05 -6.43694e-05 -8.99919e-05
2.53386e-06 -1.78108e-06 -3.22618e-07 -9.18545e-05
2.55242e-06 -1.7703e-06 -3.35194e-07 -9.18537e-05
-0.00020911 6.17674e-05 6.31469e-05 -8.99656e-05
-0.000205659 6.07632e-05 6.2098e-05 -8.99642e-05
0.000210904 -6.42099e-05 -6.28688e-05 -8.99892e-05
0.000214284 -6.52554e-05 -6.38693e-05 -8.9991e-05
-0.000207384 6.12653e-05 6.26224e-05 -8.99649e-05
2.6072e-06 -1.73845e-06 -3.72321e-07 -9.18512e-05
0.000212594 -6.47326e-05 -6.33691e-05 -8.99901e-05
2.57083e-06 -1.7596e-06 -3.4767e-07 -9.18529e-05
2.58909e-06 -1.74898e-06 -3.60046e-07 -9.18521e-05
-0.000205659 6.07632e-05 6.2098e-05 -8.99642e-05
-0.000202208 5.97588e-05 6.10495e-05 -8.99629e-05
0.000207524 -6.31649e-05 -6.1868e-05 -8.99874e-05
0.000210904 -6.42099e-05 -6.28688e-05 -8.99892e-05
-0.000203933 6.02611e-05 6.15737e-05 -8.99635e-05
2.64298e-06 -1.71765e-06 -3.96571e-07 -9.18496e-05
0.000209214 -6.36874e-05 -6.23685e-05 -8.99883e-05
2.6072e-06 -1.73845e-06 -3.72321e-07 -9.18512e-05
2.62517e-06 -1.72801e-06 -3.84496e-07 -9.18504e-05
-0.000202208 5.97588e-05 6.10495e-05 -8.99629e-05
-0.000198757 5.8754e-05 6.00014e-05 -8.99615e-05
0.000204143 -6.21202e-05 -6.08667e-05 -8.99857e-05
0.000207524 -6.31649e-05 -6.1868e-05 -8.99874e-05
-0.000200482 5.92565e-05 6.05254e-05 -8.99622e-05
2.67818e-06 -1.6972e-06 -4.2042e-07 -9.1848e-05
0.000205833 -6.26425e-05 -6.13674e-05 -8.99865e-05
2.64298e-06 -1.71765e-06 -3.96571e-07 -9.18496e-05
2.66065e-06 -1.70738e-06 -4.08545e-07 -9.18488e-05
-0.000198757 5.8754e-05 6.00014e-05 -8.99615e-05
-0.000195308 5.77489e-05 5.89537e-05 -8.99602e-05
0.000200761 -6.10758e-05 -5.98651e-05 -8.99839e-05
0.000204143 -6.21202e-05 -6.08667e-05 -8.99857e-05
-0.000197032 5.82515e-05 5.94775e-05 -8.99608e-05
2.71277e-06 -1.67708e-06 -4.43867e-07 -9.18465e-05
0.000202452 -6.1598e-05 -6.0366e-05 -8.99848e-05
2.67818e-06 -1.6972e-06 -4.2042e-07 -9.1848e-05
2.69555e-06 -1.6871e-06 -4.32193e-07 -9.18472e-05
-0.000195308 5.77489e-05 5.89537e-05 -8.99602e-05
-0.000191858 5.67435e-05 5.79064e-05 -8.99589e-05
0.000197379 -6.00318e-05 -5.88631e-05 -8.99822e-05
0.000200761 -6.10758e-05 -5.98651e-05 -8.99839e-05
-0.000193583 5.72463e-05 5.843e-05 -8.99595e-05
2.74678e-06 -1.65732e-06 -4.66913e-07 -9.18449e-05
0.00019907 -6.05538e-05 -5.93642e-05 -8.99831e-05
2.71277e-06 -1.67708e-06 -4.43867e-07 -9.18465e-05
2.72985e-06 -1.66716e-06 -4.5544e-07 -9.18457e-05
-0.000191858 5.67435e-05 5.79064e-05 -8.99589e-05
-0.00018841 5.57378e-05 5.68595e-05 -8.99576e-05
0.000193997 -5.89882e-05 -5.78608e-05 -8.99805e-05
0.000197379 -6.00318e-05 -5.88631e-05 -8.99822e-05
-0.000190134 5.62407e-05 5.73829e-05 -8.99582e-05
2.78019e-06 -1.63789e-06 -4.89558e-07 -9.18434e-05
0.000195688 -5.951e-05 -5.8362e-05 -8.99813e-05
2.74678e-06 -1.65732e-06 -4.66913e-07 -9.18449e-05
2.76356e-06 -1.64756e-06 -4.78285e-07 -9.18441e-05
-0.00018841 5.57378e-05 5.68595e-05 -8.99576e-05
-0.000184962 5.47318e-05 5.58131e-05 -8.99563e-05
0.000190614 -5.79449e-05 -5.6858e-05 -8.99788e-05
0.000193997 -5.89882e-05 -5.78608e-05 -8.99805e-05
-0.000186686 5.52348e-05 5.63362e-05 -8.99569e-05
2.81302e-06 -1.61881e-06 -5.11801e-07 -9.18419e-05
0.000192305 -5.84665e-05 -5.73594e-05 -8.99796e-05
2.78019e-06 -1.63789e-06 -4.89558e-07 -9.18434e-05
2.79668e-06 -1.62831e-06 -5.0073e-07 -9.18426e-05
-0.000184962 5.47318e-05 5.58131e-05 -8.99563e-05
-0.000181515 5.37254e-05 5.4767e-05 -8.9955e-05
0.00018723 -5.6902e-05 -5.58549e-05 -8.99772e-05
0.000190614 -5.79449e-05 -5.6858e-05 -8.99788e-05
-0.000183239 5.42286e-05 5.529e-05 -8.99557e-05
2.84525e-06 -1.60008e-06 -5.33644e-07 -9.18404e-05
0.000188922 -5.74234e-05 -5.63565e-05 -8.9978e-05
2.81302e-06 -1.61881e-06 -5.11801e-07 -9.18419e-05
2.82921e-06 -1.6094e-06 -5.22773e-07 -9.18411e-05
-0.000181515 5.37254e-05 5.4767e-05 -8.9955e-05
-0.000178069 5.27188e-05 5.37214e-05 -8.99538e-05
0.000183846 -5.58594e-05 -5.48514e-05 -8.99755e-05
0.00018723 -5.6902e-05 -5.58549e-05 -8.99772e-05
-0.000179792 5.32221e-05 5.42441e-05 -8.99544e-05
2.87689e-06 -1.58169e-06 -5.55086e-07 -9.18389e-05
0.000185538 -5.63806e-05 -5.53532e-05 -8.99763e-05
2.84525e-06 -1.60008e-06 -5.33644e-07 -9.18404e-05
2.86114e-06 -1.59084e-06 -5.44415e-07 -9.18397e-05
-0.000178069 5.27188e-05 5.37214e-05 -8.99538e-05
-0.000174623 5.17118e-05 5.26761e-05 -8.99526e-05
0.000180461 -5.48171e-05 -5.38475e-05 -8.99739e-05
0.000183846 -5.58594e-05 -5.48514e-05 -8.99755e-05
-0.000176346 5.22153e-05 5.31987e-05 -8.99532e-05
2.90793e-06 -1.56364e-06 -5.76126e-07 -9.18375e-05
0.000182154 -5.53382e-05 -5.43495e-05 -8.99747e-05
2.87689e-06 -1.58169e-06 -5.55086e-07 -9.18389e-05
2.89248e-06 -1.57262e-06 -5.65656e-07 -9.18382e-05
-0.000174623 5.17118e-05 5.26761e-05 -8.99526e-05
-0.000171178 5.07044e-05 5.16313e-05 -8.99514e-05
0.000177076 -5.37752e-05 -5.28432e-05 -8.99723e-05
0.000180461 -5.48171e-05 -5.38475e-05 -8.99739e-05
-0.0001729 5.12081e-05 5.21537e-05 -8.9952e-05
2.93839e-06 -1.54593e-06 -5.96765e-07 -9.18361e-05
0.000178769 -5.42961e-05 -5.33454e-05 -8.99731e-05
2.90793e-06 -1.56364e-06 -5.76126e-07 -9.18375e-05
2.92323e-06 -1.55474e-06 -5.86496e-07 -9.18368e-05
-0.000171178 5.07044e-05 5.16313e-05 -8.99514e-05
-0.000167733 4.96968e-05 5.05869e-05 -8.99503e-05
0.00017369 -5.27337e-05 -5.18386e-05 -8.99707e-05
0.000177076 -5.37752e-05 -5.28432e-05 -8.99723e-05
-0.000169455 5.02007e-05 5.11091e-05 -8.99508e-05
2.96825e-06 -1.52858e-06 -6.17004e-07 -9.18347e-05
0.000175383 -5.32544e-05 -5.23409e-05 -8.99715e-05
2.93839e-06 -1.54593e-06 -5.96765e-07 -9.18361e-05
2.95339e-06 -1.53721e-06 -6.06934e-07 -9.18354e-05
-0.000167733 4.96968e-05 5.05869e-05 -8.99503e-05
-0.000164289 4.86888e-05 4.95429e-05 -8.99491e-05
0.000170304 -5.16925e-05 -5.08336e-05 -8.99692e-05
0.00017369 -5.27337e-05 -5.18386e-05 -8.99707e-05
-0.000166011 4.91929e-05 5.00649e-05 -8.99497e-05
2.99752e-06 -1.51156e-06 -6.36841e-07 -9.18333e-05
0.000171997 -5.22131e-05 -5.13361e-05 -8.997e-05
2.96825e-06 -1.52858e-06 -6.17004e-07 -9.18347e-05
2.98296e-06 -1.52002e-06 -6.26972e-07 -9.1834e-05
-0.000164289 4.86888e-05 4.95429e-05 -8.99491e-05
-0.000160846 4.76806e-05 4.84993e-05 -8.9948e-05
0.000166917 -5.06517e-05 -4.98282e-05 -8.99677e-05
0.000170304 -5.16925e-05 -5.08336e-05 -8.99692e-05
-0.000162567 4.81848e-05 4.90211e-05 -8.99486e-05
3.0262e-06 -1.49489e-06 -6.56277e-07 -9.1832e-05
0.000168611 -5.11721e-05 -5.03309e-05 -8.99684e-05
2.99752e-06 -1.51156e-06 -6.36841e-07 -9.18333e-05
3.01193e-06 -1.50318e-06 -6.46609e-07 -9.18327e-05
-0.000160846 4.76806e-05 4.84993e-05 -8.9948e-05
-0.000157403 4.6672e-05 4.74561e-05 -8.99469e-05
0.00016353 -4.96112e-05 -4.88224e-05 -8.99662e-05
0.000166917 -5.06517e-05 -4.98282e-05 -8.99677e-05
-0.000159124 4.71763e-05 4.79777e-05 -8.99475e-05
3.05429e-06 -1.47856e-06 -6.75312e-07 -9.18307e-05
0.000165224 -5.01314e-05 -4.93253e-05 -8.99669e-05
3.0262e-06 -1.49489e-06 -6.56277e-07 -9.1832e-05
3.04032e-06 -1.48668e-06 -6.65845e-07 -9.18313e-05
-0.000157403 4.6672e-05 4.74561e-05 -8.99469e-05
-0.000153961 4.56631e-05 4.64134e-05 -8.99459e-05
0.000160142 -4.85711e-05 -4.78162e-05 -8.99647e-05
0.00016353 -4.96112e-05 -4.88224e-05 -8.99662e-05
-0.000155682 4.61676e-05 4.69347e-05 -8.99464e-05
3.08178e-06 -1.46258e-06 -6.93946e-07 -9.18294e-05
0.000161836 -4.90911e-05 -4.83194e-05 -8.99654e-05
3.05429e-06 -1.47856e-06 -6.75312e-07 -9.18307e-05
3.06811e-06 -1.47052e-06 -6.84679e-07 -9.183e-05
-0.000153961 4.56631e-05 4.64134e-05 -8.99459e-05
-0.000150519 4.46538e-05 4.5371e-05 -8.99448e-05
0.000156754 -4.75313e-05 -4.68097e-05 -8.99633e-05
0.000160142 -4.85711e-05 -4.78162e-05 -8.99647e-05
-0.00015224 4.51585e-05 4.58921e-05 -8.99454e-05
3.10869e-06 -1.44694e-06 -7.1218e-07 -9.18281e-05
0.000158448 -4.80512e-05 -4.7313e-05 -8.9964e-05
3.08178e-06 -1.46258e-06 -6.93946e-07 -9.18294e-05
3.09531e-06 -1.45471e-06 -7.03113e-07 -9.18287e-05
-0.000150519 4.46538e-05 4.5371e-05 -8.99448e-05
-0.000147079 4.36443e-05 4.4329e-05 -8.99438e-05
0.000153365 -4.64919e-05 -4.58028e-05 -8.99618e-05
0.000156754 -4.75313e-05 -4.68097e-05 -8.99633e-05
-0.000148799 4.41491e-05 4.485e-05 -8.99443e-05
3.135e-06 -1.43164e-06 -7.30012e-07 -9.18269e-05
0.00015506 -4.70116e-05 -4.63063e-05 -8.99626e-05
3.10869e-06 -1.44694e-06 -7.1218e-07 -9.18281e-05
3.12192e-06 -1.43924e-06 -7.21146e-07 -9.18275e-05
-0.000147079 4.36443e-05 4.4329e-05 -8.99438e-05
-0.000143638 4.26344e-05 4.32875e-05 -8.99428e-05
0.000149976 -4.54528e-05 -4.47955e-05 -8.99604e-05
0.000153365 -4.64919e-05 -4.58028e-05 -8.99618e-05
-0.000145359 4.31394e-05 4.38082e-05 -8.99433e-05
3.16072e-06 -1.41669e-06 -7.47443e-07 -9.18256e-05
0.00015167 -4.59723e-05 -4.52992e-05 -8.99611e-05
3.135e-06 -1.43164e-06 -7.30012e-07 -9.18269e-05
3.14793e-06 -1.42412e-06 -7.38777e-07 -9.18262e-05
-0.000143638 4.26344e-05 4.32875e-05 -8.99428e-05
-0.000140199 4.16242e-05 4.22463e-05 -8.99419e-05
0.000146586 -4.44141e-05 -4.37878e-05 -8.99591e-05
0.000149976 -4.54528e-05 -4.47955e-05 -8.99604e-05
-0.000141919 4.21293e-05 4.27669e-05 -8.99424e-05
3.18585e-06 -1.40208e-06 -7.64473e-07 -9.18244e-05
0.000148281 -4.49334e-05 -4.42917e-05 -8.99598e-05
3.16072e-06 -1.41669e-06 -7.47443e-07 -9.18256e-05
3.17336e-06 -1.40934e-06 -7.56008e-07 -9.1825e-05
-0.000140199 4.16242e-05 4.22463e-05 -8.99419e-05
-0.00013676 4.06137e-05 4.12056e-05 -8.99409e-05
0.000143195 -4.33757e-05 -4.27797e-05 -8.99577e-05
0.000146586 -4.44141e-05 -4.37878e-05 -8.99591e-05
-0.000138479 4.1119e-05 4.17259e-05 -8.99414e-05
3.21039e-06 -1.38781e-06 -7.81103e-07 -9.18233e-05
0.00014489 -4.38949e-05 -4.32838e-05 -8.99584e-05
3.18585e-06 -1.40208e-06 -7.64473e-07 -9.18244e-05
3.19819e-06 -1.3949e-06 -7.72838e-07 -9.18239e-05
-0.00013676 4.06137e-05 4.12056e-05 -8.99409e-05
-0.000133322 3.96028e-05 4.01653e-05 -8.994e-05
0.000139804 -4.23377e-05 -4.17713e-05 -8.99564e-05
0.000143195 -4.33757e-05 -4.27797e-05 -8.99577e-05
-0.000135041 4.01083e-05 4.06854e-05 -8.99405e-05
3.23433e-06 -1.37389e-06 -7.97331e-07 -9.18221e-05
0.0001415 -4.28567e-05 -4.22756e-05 -8.99571e-05
3.21039e-06 -1.38781e-06 -7.81103e-07 -9.18233e-05
3.22243e-06 -1.38081e-06 -7.89267e-07 -9.18227e-05
-0.000133322 3.96028e-05 4.01653e-05 -8.994e-05
-0.000129884 3.85916e-05 3.91253e-05 -8.99391e-05
0.000136412 -4.13e-05 -4.07625e-05 -8.99551e-05
0.000139804 -4.23377e-05 -4.17713e-05 -8.99564e-05
-0.000131603 3.90973e-05 3.96453e-05 -8.99396e-05
3.25768e-06 -1.36031e-06 -8.13158e-07 -9.1821e-05
0.000138108 -4.18188e-05 -4.12669e-05 -8.99557e-05
3.23433e-06 -1.37389e-06 -7.97331e-07 -9.18221e-05
3.24608e-06 -1.36706e-06 -8.05295e-07 -9.18216e-05
-0.000129884 3.85916e-05 3.91253e-05 -8.99391e-05
-0.000126447 3.75801e-05 3.80858e-05 -8.99383e-05
0.00013302 -4.02627e-05 -3.97533e-05 -8.99538e-05
0.000136412 -4.13e-05 -4.07625e-05 -8.99551e-05
-0.000128166 3.80859e-05 3.86055e-05 -8.99387e-05
3.28044e-06 -1.34708e-06 -8.28585e-07 -9.18199e-05
0.000134716 -4.07813e-05 -4.02579e-05 -8.99545e-05
3.25768e-06 -1.36031e-06 -8.13158e-07 -9.1821e-05
3.26914e-06 -1.35365e-06 -8.20922e-07 -9.18205e-05
-0.000126447 3.75801e-05 3.80858e-05 -8.99383e-05
-0.000123011 3.65683e-05 3.70467e-05 -8.99374e-05
0.000129628 -3.92257e-05 -3.87437e-05 -8.99526e-05
0.00013302 -4.02627e-05 -3.97533e-05 -8.99538e-05
-0.000124729 3.70743e-05 3.75662e-05 -8.99378e-05
3.30261e-06 -1.33419e-06 -8.4361e-07 -9.18189e-05
0.000131324 -3.97442e-05 -3.92485e-05 -8.99532e-05
3.28044e-06 -1.34708e-06 -8.28585e-07 -9.18199e-05
3.2916e-06 -1.34059e-06 -8.36147e-07 -9.18194e-05
-0.000123011 3.65683e-05 3.70467e-05 -8.99374e-05
-0.000119575 3.55562e-05 3.6008e-05 -8.99366e-05
0.000126234 -3.81891e-05 -3.77337e-05 -8.99514e-05
0.000129628 -3.92257e-05 -3.87437e-05 -8.99526e-05
-0.000121293 3.60623e-05 3.65273e-05 -8.9937e-05
3.32419e-06 -1.32165e-06 -8.58234e-07 -9.18178e-05
0.000127931 -3.87073e-05 -3.82388e-05 -8.9952e-05
3.30261e-06 -1.33419e-06 -8.4361e-07 -9.18189e-05
3.31348e-06 -1.32788e-06 -8.50972e-07 -9.18183e-05
-0.000119575 3.55562e-05 3.6008e-05 -8.99366e-05
-0.00011614 3.45437e-05 3.49697e-05 -8.99358e-05
0.000122841 -3.71528e-05 -3.67234e-05 -8.99502e-05
0.000126234 -3.81891e-05 -3.77337e-05 -8.99514e-05
-0.000117857 3.505e-05 3.54888e-05 -8.99362e-05
3.34518e-06 -1.30945e-06 -8.72456e-07 -9.18168e-05
0.000124538 -3.76709e-05 -3.72286e-05 -8.99508e-05
3.32419e-06 -1.32165e-06 -8.58234e-07 -9.18178e-05
3.33476e-06 -1.3155e-06 -8.65395e-07 -9.18173e-05
-0.00011614 3.45437e-05 3.49697e-05 -8.99358e-05
-0.000112705 3.35309e-05 3.39318e-05 -8.99351e-05
0.000119446 -3.61168e-05 -3.57126e-05 -8.9949e-05
0.000122841 -3.71528e-05 -3.67234e-05 -8.99502e-05
-0.000114422 3.40374e-05 3.44507e-05 -8.99354e-05
3.36558e-06 -1.2976e-06 -8.86277e-07 -9.18158e-05
0.000121144 -3.66348e-05 -3.62181e-05 -8.99496e-05
3.34518e-06 -1.30945e-06 -8.72456e-07 -9.18168e-05
3.35545e-06 -1.30348e-06 -8.79417e-07 -9.18163e-05
-0.000112705 3.35309e-05 3.39318e-05 -8.99351e-05
-0.000109271 3.25178e-05 3.28943e-05 -8.99343e-05
0.000116052 -3.50813e-05 -3.47015e-05 -8.99478e-05
0.000119446 -3.61168e-05 -3.57126e-05 -8.9949e-05
-0.000110988 3.30244e-05 3.3413e-05 -8.99347e-05
3.38539e-06 -1.2861e-06 -8.99696e-07 -9.18149e-05
0.000117749 -3.5599e-05 -3.52071e-05 -8.99484e-05
3.36558e-06 -1.2976e-06 -8.86277e-07 -9.18158e-05
3.37556e-06 -1.2918e-06 -8.93036e-07 -9.18153e-05
-0.000109271 3.25178e-05 3.28943e-05 -8.99343e-05
-0.000105838 3.15043e-05 3.18573e-05 -8.99336e-05
0.000112656 -3.4046e-05 -3.369e-05 -8.99467e-05
0.000116052 -3.50813e-05 -3.47015e-05 -8.99478e-05
-0.000107555 3.20111e-05 3.23757e-05 -8.9934e-05
3.40461e-06 -1.27495e-06 -9.12713e-07 -9.18139e-05
0.000114354 -3.45636e-05 -3.41958e-05 -8.99473e-05
3.38539e-06 -1.2861e-06 -8.99696e-07 -9.18149e-05
3.39507e-06 -1.28048e-06 -9.06254e-07 -9.18144e-05
-0.000105838 3.15043e-05 3.18573e-05 -8.99336e-05
-0.000102405 3.04905e-05 3.08206e-05 -8.99329e-05
0.00010926 -3.30112e-05 -3.26781e-05 -8.99457e-05
0.000112656 -3.4046e-05 -3.369e-05 -8.99467e-05
-0.000104122 3.09975e-05 3.13389e-05 -8.99333e-05
3.42325e-06 -1.26416e-06 -9.25327e-07 -9.1813e-05
0.000110958 -3.35286e-05 -3.31841e-05 -8.99462e-05
3.40461e-06 -1.27495e-06 -9.12713e-07 -9.18139e-05
3.414e-06 -1.26951e-06 -9.1907e-07 -9.18135e-05
-0.000102405 3.04905e-05 3.08206e-05 -8.99329e-05
-9.89731e-05 2.94764e-05 2.97843e-05 -8.99323e-05
0.000105864 -3.19767e-05 -3.16659e-05 -8.99446e-05
0.00010926 -3.30112e-05 -3.26781e-05 -8.99457e-05
-0.000100689 2.99835e-05 3.03024e-05 -8.99326e-05
3.44132e-06 -1.25373e-06 -9.3754e-07 -9.18122e-05
0.000107562 -3.24939e-05 -3.21721e-05 -8.99451e-05
3.42325e-06 -1.26416e-06 -9.25327e-07 -9.1813e-05
3.43236e-06 -1.2589e-06 -9.31484e-07 -9.18126e-05
-9.89731e-05 2.94764e-05 2.97843e-05 -8.99323e-05
-9.55416e-05 2.84619e-05 2.87484e-05 -8.99316e-05
0.000102467 -3.09425e-05 -3.06532e-05 -8.99436e-05
0.000105864 -3.19767e-05 -3.16659e-05 -8.99446e-05
-9.72573e-05 2.89692e-05 2.92663e-05 -8.99319e-05
3.45882e-06 -1.24367e-06 -9.4935e-07 -9.18113e-05
0.000104165 -3.14595e-05 -3.11596e-05 -8.99441e-05
3.44132e-06 -1.25373e-06 -9.3754e-07 -9.18122e-05
3.45014e-06 -1.24865e-06 -9.43495e-07 -9.18117e-05
-9.55416e-05 2.84619e-05 2.87484e-05 -8.99316e-05
-9.21107e-05 2.74471e-05 2.7713e-05 -8.9931e-05
9.90692e-05 -2.99088e-05 -2.96402e-05 -8.99426e-05
0.000102467 -3.09425e-05 -3.06532e-05 -8.99436e-05
-9.38261e-05 2.79545e-05 2.82307e-05 -8.99313e-05
3.47576e-06 -1.23398e-06 -9.6076e-07 -9.18105e-05
0.000100768 -3.04256e-05 -3.01467e-05 -8.99431e-05
3.45882e-06 -1.24367e-06 -9.4935e-07 -9.18113e-05
3.46736e-06 -1.23878e-06 -9.55105e-07 -9.18109e-05
-9.21107e-05 2.74471e-05 2.7713e-05 -8.9931e-05
-8.86803e-05 2.64319e-05 2.66779e-05 -8.99304e-05
9.56711e-05 -2.88754e-05 -2.86267e-05 -8.99417e-05
9.90692e-05 -2.99088e-05 -2.96402e-05 -8.99426e-05
-9.03954e-05 2.69395e-05 2.71954e-05 -8.99307e-05
3.49215e-06 -1.22469e-06 -9.71771e-07 -9.18097e-05
9.73702e-05 -2.9392e-05 -2.91335e-05 -8.99421e-05
3.47576e-06 -1.23398e-06 -9.6076e-07 -9.18105e-05
3.48402e-06 -1.22929e-06 -9.66315e-07 -9.18101e-05
-8.86803e-05 2.64319e-05 2.66779e-05 -8.99304e-05
-8.52505e-05 2.54163e-05 2.56433e-05 -8.99297e-05
9.22726e-05 -2.78424e-05 -2.76129e-05 -8.99408e-05
9.56711e-05 -2.88754e-05 -2.86267e-05 -8.99417e-05
-8.69654e-05 2.59241e-05 2.61605e-05 -8.99301e-05
3.50801e-06 -1.21578e-06 -9.82386e-07 -9.18089e-05
9.39719e-05 -2.83589e-05 -2.81199e-05 -8.99412e-05
3.49215e-06 -1.22469e-06 -9.71771e-07 -9.18097e-05
3.50015e-06 -1.22018e-06 -9.77127e-07 -9.18093e-05
-8.52505e-05 2.54163e-05 2.56433e-05 -8.99297e-05
-8.18213e-05 2.44003e-05 2.4609e-05 -8.99291e-05
8.88736e-05 -2.68098e-05 -2.65988e-05 -8.99399e-05
9.22726e-05 -2.78424e-05 -2.76129e-05 -8.99408e-05
-8.35358e-05 2.49083e-05 2.51261e-05 -8.99294e-05
3.52337e-06 -1.20727e-06 -9.92611e-07 -9.18082e-05
9.05731e-05 -2.73261e-05 -2.71059e-05 -8.99403e-05
3.50801e-06 -1.21578e-06 -9.82386e-07 -9.18089e-05
3.51575e-06 -1.21148e-06 -9.87547e-07 -9.18085e-05
-8.18213e-05 2.44003e-05 2.4609e-05 -8.99291e-05
-7.83926e-05 2.3384e-05 2.35751e-05 -8.99285e-05
8.54741e-05 -2.57777e-05 -2.55842e-05 -8.99391e-05
8.88736e-05 -2.68098e-05 -2.65988e-05 -8.99399e-05
-8.01069e-05 2.38922e-05 2.4092e-05 -8.99288e-05
3.53822e-06 -1.19916e-06 -1.00246e-06 -9.18074e-05
8.71739e-05 -2.62937e-05 -2.60915e-05 -8.99395e-05
3.52337e-06 -1.20727e-06 -9.92611e-07 -9.18082e-05
3.53086e-06 -1.20317e-06 -9.97581e-07 -9.18078e-05
-7.83926e-05 2.3384e-05 2.35751e-05 -8.99285e-05
-7.49644e-05 2.23673e-05 2.25416e-05 -8.99279e-05
8.20742e-05 -2.47459e-05 -2.45693e-05 -8.99383e-05
8.54741e-05 -2.57777e-05 -2.55842e-05 -8.99391e-05
-7.66784e-05 2.28757e-05 2.30583e-05 -8.99282e-05
3.5526e-06 -1.19141e-06 -1.01194e-06 -9.18067e-05
8.37742e-05 -2.52617e-05 -2.50768e-05 -8.99387e-05
3.53822e-06 -1.19916e-06 -1.00246e-06 -9.18074e-05
3.54547e-06 -1.19524e-06 -1.00724e-06 -9.1807e-05
-7.49644e-05 2.23673e-05 2.25416e-05 -8.99279e-05
-7.15367e-05 2.13504e-05 2.15084e-05 -8.99272e-05
7.86739e-05 -2.37144e-05 -2.35541e-05 -8.99375e-05
8.20742e-05 -2.47459e-05 -2.45693e-05 -8.99383e-05
-7.32505e-05 2.18589e-05 2.2025e-05 -8.99275e-05
3.56649e-06 -1.18398e-06 -1.02107e-06 -9.18059e-05
8.03741e-05 -2.42301e-05 -2.40617e-05 -8.99379e-05
3.5526e-06 -1.19141e-06 -1.01194e-06 -9.18067e-05
3.5596e-06 -1.18766e-06 -1.01655e-06 -9.18063e-05
-7.15367e-05 2.13504e-05 2.15084e-05 -8.99272e-05
-6.81096e-05 2.03333e-05 2.04756e-05 -8.99265e-05
7.52731e-05 -2.26832e-05 -2.25385e-05 -8.99367e-05
7.86739e-05 -2.37144e-05 -2.35541e-05 -8.99375e-05
-6.98231e-05 2.08418e-05 2.09919e-05 -8.99268e-05
3.57987e-06 -1.17678e-06 -1.02989e-06 -9.18051e-05
7.69736e-05 -2.31988e-05 -2.30463e-05 -8.99371e-05
3.56649e-06 -1.18398e-06 -1.02107e-06 -9.18059e-05
3.57324e-06 -1.18036e-06 -1.02552e-06 -9.18055e-05
-6.81096e-05 2.03333e-05 2.04756e-05 -8.99265e-05
-6.46831e-05 1.93161e-05 1.9443e-05 -8.99258e-05
7.18719e-05 -2.16521e-05 -2.15227e-05 -8.99357e-05
7.52731e-05 -2.26832e-05 -2.25385e-05 -8.99367e-05
-6.63963e-05 1.98247e-05 1.99593e-05 -8.99261e-05
3.59267e-06 -1.16963e-06 -1.03844e-06 -9.18042e-05
7.35726e-05 -2.21677e-05 -2.20307e-05 -8.99362e-05
3.57987e-06 -1.17678e-06 -1.02989e-06 -9.18051e-05
3.58635e-06 -1.17321e-06 -1.0342e-06 -9.18047e-05
-6.46831e-05 1.93161e-05 1.9443e-05 -8.99258e-05
-6.12575e-05 1.82992e-05 1.84107e-05 -8.9925e-05
6.847e-05 -2.06209e-05 -2.05068e-05 -8.99345e-05
7.18719e-05 -2.16521e-05 -2.15227e-05 -8.99357e-05
-6.29702e-05 1.88076e-05 1.89268e-05 -8.99254e-05
3.60474e-06 -1.16226e-06 -1.04677e-06 -9.18032e-05
7.0171e-05 -2.11366e-05 -2.10148e-05 -8.99352e-05
3.59267e-06 -1.16963e-06 -1.03844e-06 -9.18042e-05
3.59881e-06 -1.166e-06 -1.04263e-06 -9.18037e-05
-6.12575e-05 1.82992e-05 1.84107e-05 -8.9925e-05
-5.78329e-05 1.72829e-05 1.73786e-05 -8.99245e-05
6.50673e-05 -1.95891e-05 -1.94907e-05 -8.9933e-05
6.847e-05 -2.06209e-05 -2.05068e-05 -8.99345e-05
-5.95451e-05 1.77909e-05 1.78946e-05 -8.99247e-05
3.6158e-06 -1.15424e-06 -1.05495e-06 -9.18021e-05
6.67688e-05 -2.01051e-05 -1.99987e-05 -8.99338e-05
3.60474e-06 -1.16226e-06 -1.04677e-06 -9.18032e-05
3.61041e-06 -1.15837e-06 -1.05088e-06 -9.18026e-05
-5.78329e-05 1.72829e-05 1.73786e-05 -8.99245e-05
-5.44098e-05 1.62676e-05 1.63467e-05 -8.99244e-05
6.16633e-05 -1.85558e-05 -1.84747e-05 -8.99312e-05
6.50673e-05 -1.95891e-05 -1.94907e-05 -8.9933e-05
-5.61211e-05 1.67751e-05 1.68626e-05 -8.99243e-05
3.62539e-06 -1.14492e-06 -1.06306e-06 -9.18011e-05
6.33655e-05 -1.90727e-05 -1.89826e-05 -8.99322e-05
3.6158e-06 -1.15424e-06 -1.05495e-06 -9.18021e-05
3.62081e-06 -1.1498e-06 -1.05901e-06 -9.18016e-05
-5.44098e-05 1.62676e-05 1.63467e-05 -8.99244e-05
-5.09883e-05 1.52537e-05 1.53148e-05 -8.99256e-05
5.82568e-05 -1.75198e-05 -1.74587e-05 -8.99293e-05
6.16633e-05 -1.85558e-05 -1.84747e-05 -8.99312e-05
-5.26988e-05 1.57604e-05 1.58307e-05 -8.99248e-05
3.63278e-06 -1.13338e-06 -1.07117e-06 -9.1801e-05
5.99605e-05 -1.80383e-05 -1.79667e-05 -8.99303e-05
3.62539e-06 -1.14492e-06 -1.06306e-06 -9.18011e-05
3.62942e-06 -1.1395e-06 -1.06711e-06 -9.18009e-05
-5.09883e-05 1.52537e-05 1.53148e-05 -8.99256e-05
-4.75689e-05 1.42414e-05 1.42832e-05 -8.99298e-05
5.48464e-05 -1.64788e-05 -1.64433e-05 -8.99284e-05
5.82568e-05 -1.75198e-05 -1.74587e-05 -8.99293e-05
-4.92782e-05 1.47473e-05 1.4799e-05 -8.99272e-05
3.63685e-06 -1.11833e-06 -1.07937e-06 -9.18033e-05
5.65522e-05 -1.70001e-05 -1.69509e-05 -8.99287e-05
3.63278e-06 -1.13338e-06 -1.07117e-06 -9.1801e-05
3.63532e-06 -1.12639e-06 -1.07525e-06 -9.18017e-05
-4.75689e-05 1.42414e-05 1.42832e-05 -8.99298e-05
-4.41506e-05 1.32301e-05 1.32516e-05 -8.99408e-05
5.14278e-05 -1.54289e-05 -1.54281e-05 -8.9931e-05
5.48464e-05 -1.64788e-05 -1.64433e-05 -8.99284e-05
-4.58598e-05 1.37357e-05 1.37675e-05 -8.99341e-05
3.63597e-06 -1.09803e-06 -1.08769e-06 -9.1812e-05
5.31385e-05 -1.59553e-05 -1.59357e-05 -8.9929e-05
3.63685e-06 -1.11833e-06 -1.07937e-06 -9.18033e-05
3.63715e-06 -1.10896e-06 -1.08351e-06 -9.18064e-05
-4.41506e-05 1.32301e-05 1.32516e-05 -8.99408e-05
-4.07327e-05 1.22175e-05 1.22208e-05 -8.99658e-05
4.79961e-05 -1.43636e-05 -1.44139e-05 -8.9943e-05
5.14278e-05 -1.54289e-05 -1.54281e-05 -8.9931e-05
-4.24415e-05 1.27242e-05 1.2736e-05 -8.99509e-05
3.62781e-06 -1.07031e-06 -1.09607e-06 -9.18351e-05
4.97138e-05 -1.48987e-05 -1.49208e-05 -8.99353e-05
3.63597e-06 -1.09803e-06 -1.08769e-06 -9.1812e-05
3.63297e-06 -1.08526e-06 -1.09187e-06 -9.18212e-05
-4.07327e-05 1.22175e-05 1.22208e-05 -8.99658e-05
-3.73073e-05 1.11982e-05 1.11896e-05 -9.00192e-05
4.45376e-05 -1.32725e-05 -1.33993e-05 -8.99769e-05
4.79961e-05 -1.43636e-05 -1.44139e-05 -8.9943e-05
-3.90221e-05 1.17094e-05 1.17054e-05 -8.99877e-05
3.60924e-06 -1.03249e-06 -1.10432e-06 -9.18883e-05
4.62717e-05 -1.38224e-05 -1.39069e-05 -8.9956e-05
3.62781e-06 -1.07031e-06 -1.09607e-06 -9.18351e-05
3.62005e-06 -1.05284e-06 -1.10024e-06 -9.18562e-05
-3.73073e-05 1.11982e-05 1.11896e-05 -9.00192e-05
-3.38677e-05 1.01597e-05 1.01606e-05 -9.01263e-05
4.10379e-05 -1.21376e-05 -1.23859e-05 -9.00559e-05
4.45376e-05 -1.32725e-05 -1.33993e-05 -8.99769e-05
-3.5589e-05 1.06821e-05 1.06744e-05 -9.00639e-05
3.57619e-06 -9.81727e-07 -1.11191e-06 -9.20013e-05
4.27932e-05 -1.27117e-05 -1.28921e-05 -9.00088e-05
3.60924e-06 -1.03249e-06 -1.10432e-06 -9.18883e-05
3.5948e-06 -1.00893e-06 -1.10823e-06 -9.19354e-05
-3.38677e-05 1.01597e-05 1.01606e-05 -9.01263e-05
-3.03807e-05 9.0829e-06 9.12762e-06 -9.03333e-05
3.74546e-05 -1.09343e-05 -1.13658e-05 -9.02239e-05
4.10379e-05 -1.21376e-05 -1.23859e-05 -9.00559e-05
-3.21345e-05 9.6285e-06 9.64542e-06 -9.02133e-05
3.52367e-06 -9.15147e-07 -1.11794e-06 -9.22253e-05
3.92618e-05 -1.15472e-05 -1.18777e-05 -9.01249e-05
3.57619e-06 -9.81727e-07 -1.11191e-06 -9.20013e-05
3.55271e-06 -9.5052e-07 -1.11523e-06 -9.20937e-05
-3.03807e-05 9.0829e-06 9.12762e-06 -9.03333e-05
-2.68253e-05 7.93e-06 8.098e-06 -9.07115e-05
3.37561e-05 -9.62133e-06 -1.03435e-05 -9.05502e-05
3.74546e-05 -1.09343e-05 -1.13658e-05 -9.02239e-05
-2.86098e-05 8.51733e-06 8.61105e-06 -9.04954e-05
3.44626e-06 -8.31426e-07 -1.12064e-06 -9.26448e-05
3.56186e-05 -1.02929e-05 -1.08539e-05 -9.03619e-05
3.52367e-06 -9.15147e-07 -1.11794e-06 -9.22253e-05
3.4884e-06 -8.75497e-07 -1.11982e-06 -9.24066e-05
-2.68253e-05 7.93e-06 8.098e-06 -9.07115e-05
-2.31012e-05 6.6653e-06 7.04396e-06 -9.13752e-05
2.98315e-05 -8.16465e-06 -9.28578e-06 -9.11494e-05
3.37561e-05 -9.62133e-06 -1.03435e-05 -9.05502e-05
-2.49987e-05 7.31739e-06 7.5777e-06 -9.09981e-05
3.3386e-06 -7.31284e-07 -1.11742e-06 -9.33829e-05
3.1837e-05 -8.91629e-06 -9.82316e-06 -9.08059e-05
3.44626e-06 -8.31426e-07 -1.12064e-06 -9.26448e-05
3.39656e-06 -7.83017e-07 -1.12009e-06 -9.29588e-05
-2.31012e-05 6.6653e-06 7.04396e-06 -9.13752e-05
-1.91941e-05 5.22652e-06 5.9861e-06 -9.24552e-05
2.56605e-05 -6.51381e-06 -8.2057e-06 -9.21546e-05
2.98315e-05 -8.16465e-06 -9.28578e-06 -9.11494e-05
-2.1158e-05 5.96326e-06 6.51202e-06 -9.18549e-05
3.19859e-06 -6.22945e-07 -1.10385e-06 -9.45917e-05
2.77643e-05 -7.35761e-06 -8.74574e-06 -9.15929e-05
3.3386e-06 -7.31284e-07 -1.11742e-06 -9.33829e-05
3.27255e-06 -6.7749e-07 -1.11217e-06 -9.39291e-05
-1.91941e-05 5.22652e-06 5.9861e-06 -9.24552e-05
-1.49091e-05 3.67271e-06 4.81561e-06 -9.40919e-05
2.10515e-05 -4.75962e-06 -6.98225e-06 -9.37195e-05
2.56605e-05 -6.51381e-06 -8.2057e-06 -9.21546e-05
-1.71357e-05 4.46889e-06 5.42864e-06 -9.31944e-05
3.02892e-06 -5.22572e-07 -1.07415e-06 -9.63851e-05
2.34471e-05 -5.65147e-06 -7.6267e-06 -9.2856e-05
3.19859e-06 -6.22945e-07 -1.10385e-06 -9.45917e-05
3.1172e-06 -5.69678e-07 -1.0918e-06 -9.53898e-05
-1.49091e-05 3.67271e-06 4.81561e-06 -9.40919e-05
-1.05012e-05 2.11115e-06 3.59572e-06 -9.61981e-05
1.62869e-05 -3.07268e-06 -5.66324e-06 -9.57773e-05
2.10515e-05 -4.75962e-06 -6.98225e-06 -9.37195e-05
-1.26518e-05 2.84351e-06 4.20355e-06 -9.51064e-05
2.8485e-06 -4.69047e-07 -1.01977e-06 -9.864e-05
1.86171e-05 -3.85228e-06 -6.32776e-06 -9.47053e-05
3.02892e-06 -5.22572e-07 -1.07415e-06 -9.63851e-05
2.93794e-06 -4.87198e-07 -1.05032e-06 -9.75168e-05
-1.05012e-05 2.11115e-06 3.59572e-06 -9.61981e-05
-5.96553e-06 1.36343e-06 1.97233e-06 -9.82435e-05
1.1424e-05 -2.38898e-06 -3.87215e-06 -9.7842e-05
1.62869e-05 -3.07268e-06 -5.66324e-06 -9.57773e-05
-8.3186e-06 1.60944e-06 2.87536e-06 -9.72842e-05
2.69158e-06 -5.16527e-07 -9.32165e-07 -0.000100563
1.39322e-05 -2.57012e-06 -4.86946e-06 -9.68608e-05
2.8485e-06 -4.69047e-07 -1.01977e-06 -9.864e-05
2.76493e-06 -4.74863e-07 -9.81456e-07 -9.96556e-05
-5.96553e-06 1.36343e-06 1.97233e-06 -9.82435e-05
-2.76025e-06 2.35149e-06 1.75184e-07 -9.82723e-05
8.04088e-06 -3.79527e-06 -1.81955e-06 -9.79969e-05
1.1424e-05 -2.38898e-06 -3.87215e-06 -9.7842e-05
-3.94505e-06 1.46119e-06 1.06451e-06 -9.8708e-05
2.62822e-06 -7.52291e-07 -8.03968e-07 -0.000100062
9.28577e-06 -2.63889e-06 -2.84866e-06 -9.83539e-05
2.69158e-06 -5.16527e-07 -9.32165e-07 -0.000100563
2.64162e-06 -6.06231e-07 -8.72309e-07 -0.000100937
-2.76025e-06 2.35149e-06 1.75184e-07 -9.82723e-05
-9.44567e-07 7.01573e-06 -2.60193e-06 -9.26943e-05
6.33815e-06 -9.41326e-06 1.3179e-06 -9.26635e-05
8.04088e-06 -3.79527e-06 -1.81955e-06 -9.79969e-05
-1.92287e-06 4.36706e-06 -1.04751e-06 -9.64733e-05
2.71335e-06 -1.23832e-06 -6.32157e-07 -9.36242e-05
7.21609e-06 -6.21476e-06 -4.29139e-07 -9.63088e-05
2.62822e-06 -7.52291e-07 -8.03968e-07 -0.000100062
2.65193e-06 -9.61479e-07 -7.24478e-07 -9.7612e-05
-9.44567e-07 7.01573e-06 -2.60193e-06 -9.26943e-05
-2.25084e-06 1.30044e-05 -4.60866e-06 -7.56006e-05
8.13929e-06 -1.68784e-05 3.74532e-06 -7.58818e-05
6.33815e-06 -9.41326e-06 1.3179e-06 -9.26635e-05
-7.46792e-07 9.7973e-06 -3.87879e-06 -8.59819e-05
3.00768e-06 -2.01361e-06 -4.26029e-07 -7.67765e-05
6.33615e-06 -1.2885e-05 2.80664e-06 -8.60974e-05
2.71335e-06 -1.23832e-06 -6.32157e-07 -9.36242e-05
2.82704e-06 -1.58713e-06 -5.31389e-07 -8.71991e-05
-2.25084e-06 1.30044e-05 -4.60866e-06 -7.56006e-05
-6.20173e-06 2.18162e-05 -6.69194e-06 -4.34057e-05
1.28242e-05 -2.72389e-05 6.17773e-06 -4.32083e-05
8.13929e-06 -1.68784e-05 3.74532e-06 -7.58818e-05
-4.41608e-06 1.70225e-05 -5.40275e-06 -6.14773e-05
3.52711e-06 -2.56953e-06 -4.10391e-07 -4.20569e-05
1.06633e-05 -2.1713e-05 4.73557e-06 -6.17223e-05
3.00768e-06 -2.01361e-06 -4.26029e-07 -7.67765e-05
3.24455e-06 -2.45453e-06 -3.38583e-07 -6.17129e-05
0.000583034 0 -0.000249872 0.000338322
0.000594678 -8.4812e-05 -0.000218514 0.00011186
0.00186203 -0.000248645 -0.000691451 -9.44626e-06
0.00164484 0 -0.000704929 0.000213549
0.000569622 -3.62707e-05 -0.000228579 0.000213385
0.00122782 -0.000166961 -0.000454654 6.48358e-05
0.00178359 -0.000139925 -0.000704429 7.87766e-05
0.00108928 0 -0.000466835 0.000308014
0.00117585 -7.95006e-05 -0.000469866 0.000151806
0.000594678 -8.4812e-05 -0.000218514 0.00011186
0.000642804 -0.000139734 -0.000215602 -2.40505e-05
0.00195819 -0.00045466 -0.000644368 -7.86959e-05
0.00186203 -0.000248645 -0.000691451 -9.44626e-06
0.000628858 -0.000117593 -0.000219114 3.19341e-05
0.00129225 -0.000286412 -0.000431074 -4.3702e-05
0.00191018 -0.000358122 -0.000665169 -5.40596e-05
0.00122782 -0.000166961 -0.000454654 6.48358e-05
0.00126124 -0.000234951 -0.000439836 6.08831e-06
0.000642804 -0.000139734 -0.000215602 -2.40505e-05
0.000657545 -0.000180551 -0.000204426 -8.56245e-05
0.00200747 -0.000559472 -0.00062057 -9.18489e-05
0.00195819 -0.00045466 -0.000644368 -7.86959e-05
0.000648399 -0.000161495 -0.000208673 -6.11765e-05
0.00133025 -0.000363022 -0.000414526 -9.04435e-05
0.00199447 -0.000519538 -0.000632114 -9.07612e-05
0.00129225 -0.000286412 -0.000431074 -4.3702e-05
0.00131666 -0.000329505 -0.000423068 -7.6011e-05
0.000657545 -0.000180551 -0.000204426 -8.56245e-05
0.000665552 -0.000200249 -0.000199415 -0.000107518
0.00200636 -0.000601211 -0.000602207 -8.46887e-05
0.00200747 -0.000559472 -0.00062057 -9.18489e-05
0.000665006 -0.000192882 -0.000202339 -0.000100307
0.00133724 -0.000397663 -0.000402674 -0.000100632
0.00200786 -0.000585584 -0.000609548 -8.78767e-05
0.00133025 -0.000363022 -0.000414526 -9.04435e-05
0.00133608 -0.000384735 -0.000407717 -9.68746e-05
0.000665552 -0.000200249 -0.000199415 -0.000107518
0.000661658 -0.000208251 -0.000194318 -0.000109761
0.0019927 -0.000609706 -0.000592713 -7.97044e-05
0.00200636 -0.000601211 -0.000602207 -8.46887e-05
0.000663121 -0.000205278 -0.000196218 -0.000109867
0.00132987 -0.000409454 -0.000394463 -9.88401e-05
0.00200172 -0.000608138 -0.00059725 -8.2202e-05
0.00133724 -0.000397663 -0.000402674 -0.000100632
0.00133481 -0.000405503 -0.000398273 -0.000100959
0.000661658 -0.000208251 -0.000194318 -0.000109761
0.000656472 -0.000208686 -0.000191908 -0.000105773
0.00197307 -0.000607072 -0.000585428 -7.63523e-05
0.0019927 -0.000609706 -0.000592713 -7.97044e-05
0.000659872 -0.000209099 -0.000193188 -0.00010816
0.0013171 -0.000409115 -0.000389138 -9.45494e-05
0.00198219 -0.000609069 -0.00058848 -7.75347e-05
0.00132987 -0.000409454 -0.000394463 -9.88401e-05
0.00132358 -0.00041023 -0.000391435 -9.64106e-05
0.000656472 -0.000208686 -0.000191908 -0.000105773
0.000649586 -0.000206921 -0.000189713 -0.00010068
0.00195589 -0.000600598 -0.000580838 -7.52473e-05
0.00197307 -0.000607072 -0.000585428 -7.63523e-05
0.000652646 -0.000207914 -0.000190599 -0.00010312
0.00130442 -0.000405144 -0.000385405 -9.07628e-05
0.00196456 -0.000604048 -0.000583079 -7.57405e-05
0.0013171 -0.000409115 -0.000389138 -9.45494e-05
0.00131065 -0.000407312 -0.000387145 -9.26633e-05
0.000649586 -0.000206921 -0.000189713 -0.00010068
0.000643928 -0.000204409 -0.000188365 -9.66498e-05
0.0019402 -0.000594138 -0.000576883 -7.47691e-05
0.00195589 -0.000600598 -0.000580838 -7.52473e-05
0.000646833 -0.000205697 -0.000189058 -9.85118e-05
0.00129309 -0.00040032 -0.000382615 -8.81265e-05
0.00194758 -0.000597272 -0.000578705 -7.48914e-05
0.00130442 -0.000405144 -0.000385405 -9.07628e-05
0.00129853 -0.000402739 -0.000383912 -8.92275e-05
0.000643928 -0.000204409 -0.000188365 -9.66498e-05
0.000638709 -0.000202141 -0.000187101 -9.38755e-05
0.00192681 -0.000588398 -0.000573604 -7.4772e-05
0.0019402 -0.000594138 -0.000576883 -7.47691e-05
0.000641134 -0.000203225 -0.000187675 -9.50989e-05
0.00128332 -0.000396029 -0.000380266 -8.64711e-05
0.00193339 -0.000591166 -0.000575238 -7.47686e-05
0.00129309 -0.00040032 -0.000382615 -8.81265e-05
0.00128803 -0.000398082 -0.000381408 -8.72262e-05
0.000638709 -0.000202141 -0.000187101 -9.38755e-05
0.000634322 -0.000200173 -0.000186064 -9.21807e-05
0.0019146 -0.000583555 -0.000570448 -7.48386e-05
0.00192681 -0.000588398 -0.000573604 -7.4772e-05
0.000636493 -0.00020112 -0.000186588 -9.29196e-05
0.00127471 -0.000392375 -0.000378144 -8.55272e-05
0.00192052 -0.000585873 -0.000571992 -7.47883e-05
0.00128332 -0.000396029 -0.000380266 -8.64711e-05
0.00127889 -0.000394127 -0.000379185 -8.59123e-05
0.000634322 -0.000200173 -0.000186064 -9.21807e-05
0.000630296 -0.000198523 -0.000185046 -9.1205e-05
0.00190336 -0.000579365 -0.000567427 -7.49527e-05
0.0019146 -0.000583555 -0.000570448 -7.48386e-05
0.000632241 -0.000199313 -0.000185541 -9.16191e-05
0.0012669 -0.000389299 -0.000376114 -8.50179e-05
0.00190892 -0.000581394 -0.000568941 -7.49015e-05
0.00127471 -0.000392375 -0.000378144 -8.55272e-05
0.00127073 -0.000390775 -0.000377123 -8.52387e-05
0.000630296 -0.000198523 -0.000185046 -9.1205e-05
0.000626605 -0.000197083 -0.000184081 -9.06844e-05
0.00189259 -0.000575627 -0.000564413 -7.50406e-05
0.00190336 -0.000579365 -0.000567427 -7.49527e-05
0.000628435 -0.000197782 -0.000184566 -9.09031e-05
0.00125956 -0.00038661 -0.000374123 -8.47683e-05
0.00189792 -0.000577451 -0.000565914 -7.49972e-05
0.0012669 -0.000389299 -0.000376114 -8.50179e-05
0.00126319 -0.000387916 -0.000375116 -8.48662e-05
0.000626605 -0.000197083 -0.000184081 -9.06844e-05
0.000623063 -0.000195787 -0.000183118 -9.04213e-05
0.00188213 -0.000572158 -0.000561415 -7.51123e-05
0.00189259 -0.000575627 -0.000564413 -7.50406e-05
0.000624813 -0.000196421 -0.000183597 -9.0529e-05
0.00125251 -0.000384172 -0.000372144 -8.46551e-05
0.00188734 -0.000573867 -0.000562916 -7.50803e-05
0.00125956 -0.00038661 -0.000374123 -8.47683e-05
0.00125601 -0.000385367 -0.000373134 -8.47014e-05
0.000623063 -0.000195787 -0.000183118 -9.04213e-05
0.00061963 -0.000194577 -0.000182165 -9.02989e-05
0.00187181 -0.000568849 -0.00055841 -7.51615e-05
0.00188213 -0.000572158 -0.000561415 -7.51123e-05
0.00062134 -0.000195174 -0.000182643 -9.03481e-05
0.0012456 -0.00038188 -0.000370167 -8.46129e-05
0.00187695 -0.000570489 -0.000559912 -7.51388e-05
0.00125251 -0.000384172 -0.000372144 -8.46551e-05
0.00124904 -0.000383013 -0.000371156 -8.46275e-05
0.00061963 -0.000194577 -0.000182165 -9.02989e-05
0.000616245 -0.000193418 -0.000181211 -9.02471e-05
0.00186156 -0.000565625 -0.000555403 -7.51961e-05
0.00187181 -0.000568849 -0.00055841 -7.51615e-05
0.000617931 -0.000193993 -0.000181688 -9.02671e-05
0.00123878 -0.000379672 -0.000368189 -8.46022e-05
0.00186668 -0.000567229 -0.000556907 -7.51807e-05
0.0012456 -0.00038188 -0.000370167 -8.46129e-05
0.00124219 -0.000380769 -0.000369179 -8.46055e-05
0.000616245 -0.000193418 -0.000181211 -9.02471e-05
0.000612892 -0.000192289 -0.000180259 -9.02288e-05
0.00185136 -0.000562448 -0.00055239 -7.52188e-05
0.00186156 -0.000565625 -0.000555403 -7.51961e-05
0.000614567 -0.000192851 -0.000180735 -9.02354e-05
0.00123199 -0.000377509 -0.000366208 -8.46046e-05
0.00185646 -0.000564033 -0.000553897 -7.52086e-05
0.00123878 -0.000379672 -0.000368189 -8.46022e-05
0.00123538 -0.000378587 -0.000367199 -8.46024e-05
0.000612892 -0.000192289 -0.000180259 -9.02288e-05
0.000609554 -0.000191176 -0.000179305 -9.02245e-05
0.00184117 -0.000559294 -0.000549375 -7.52336e-05
0.00185136 -0.000562448 -0.00055239 -7.52188e-05
0.000611221 -0.000191731 -0.000179782 -9.02256e-05
0.00122523 -0.000375371 -0.000364225 -8.46104e-05
0.00184626 -0.000560869 -0.000550883 -7.52271e-05
0.00123199 -0.000377509 -0.000366208 -8.46046e-05
0.00122861 -0.000376438 -0.000365217 -8.46074e-05
0.000609554 -0.000191176 -0.000179305 -9.02245e-05
0.000606224 -0.000190073 -0.00017835 -9.02254e-05
0.00183099 -0.000556152 -0.000546357 -7.52426e-05
0.00184117 -0.000559294 -0.000549375 -7.52336e-05
0.000607888 -0.000190624 -0.000178828 -9.02247e-05
0.00121847 -0.000373245 -0.000362241 -8.46161e-05
0.00183608 -0.000557722 -0.000547866 -7.52387e-05
0.00122523 -0.000375371 -0.000364225 -8.46104e-05
0.00122185 -0.000374307 -0.000363233 -8.46133e-05
0.000606224 -0.000190073 -0.00017835 -9.02254e-05
0.000602898 -0.000188977 -0.000177395 -9.02273e-05
0.00182081 -0.000553016 -0.000543338 -7.52479e-05
0.00183099 -0.000556152 -0.000546357 -7.52426e-05
0.000604561 -0.000189524 -0.000177873 -9.02263e-05
0.00121172 -0.000371127 -0.000360255 -8.46202e-05
0.0018259 -0.000554583 -0.000544848 -7.52457e-05
0.00121847 -0.000373245 -0.000362241 -8.46161e-05
0.0012151 -0.000372186 -0.000361248 -8.46184e-05
0.000602898 -0.000188977 -0.000177395 -9.02273e-05
0.000599574 -0.000187884 -0.000176439 -9.02288e-05
0.00181063 -0.000549883 -0.000540318 -7.52507e-05
0.00182081 -0.000553016 -0.000543338 -7.52479e-05
0.000601236 -0.00018843 -0.000176917 -9.02281e-05
0.00120497 -0.000369012 -0.000358268 -8.46227e-05
0.00181572 -0.000551449 -0.000541828 -7.52496e-05
0.00121172 -0.000371127 -0.000360255 -8.46202e-05
0.00120835 -0.000370069 -0.000359262 -8.46217e-05
0.000599574 -0.000187884 -0.000176439 -9.02288e-05
0.000596252 -0.000186794 -0.000175482 -9.02295e-05
0.00180045 -0.000546751 -0.000537297 -7.52517e-05
0.00181063 -0.000549883 -0.000540318 -7.52507e-05
0.000597913 -0.000187339 -0.000175961 -9.02292e-05
0.00119822 -0.0003669 -0.000356281 -8.46239e-05
0.00180554 -0.000548317 -0.000538808 -7.52514e-05
0.00120497 -0.000369012 -0.000358268 -8.46227e-05
0.0012016 -0.000367956 -0.000357274 -8.46234e-05
0.000596252 -0.000186794 -0.000175482 -9.02295e-05
0.00059293 -0.000185705 -0.000174525 -9.02295e-05
0.00179026 -0.000543621 -0.000534276 -7.52517e-05
0.00180045 -0.000546751 -0.000537297 -7.52517e-05
0.000594591 -0.000186249 -0.000175003 -9.02296e-05
0.00119147 -0.000364789 -0.000354292 -8.4624e-05
0.00179535 -0.000545186 -0.000535787 -7.52518e-05
0.00119822 -0.0003669 -0.000356281 -8.46239e-05
0.00119485 -0.000365844 -0.000355287 -8.4624e-05
0.00059293 -0.000185705 -0.000174525 -9.02295e-05
0.000589607 -0.000184618 -0.000173567 -9.02289e-05
0.00178008 -0.000540491 -0.000531254 -7.52509e-05
0.00179026 -0.000543621 -0.000534276 -7.52517e-05
0.000591269 -0.000185162 -0.000174046 -9.02293e-05
0.00118472 -0.000362679 -0.000352304 -8.46234e-05
0.00178517 -0.000542056 -0.000532765 -7.52514e-05
0.00119147 -0.000364789 -0.000354292 -8.4624e-05
0.0011881 -0.000363734 -0.000353298 -8.46237e-05
0.000589607 -0.000184618 -0.000173567 -9.02289e-05
0.000586285 -0.000183532 -0.000172608 -9.0228e-05
0.0017699 -0.000537362 -0.000528231 -7.52498e-05
0.00178008 -0.000540491 -0.000531254 -7.52509e-05
0.000587946 -0.000184075 -0.000173088 -9.02285e-05
0.00117797 -0.00036057 -0.000350314 -8.46223e-05
0.00177499 -0.000538927 -0.000529742 -7.52504e-05
0.00118472 -0.000362679 -0.000352304 -8.46234e-05
0.00118135 -0.000361624 -0.000351309 -8.46229e-05
0.000586285 -0.000183532 -0.000172608 -9.0228e-05
0.000582962 -0.000182446 -0.00017165 -9.02268e-05
0.00175972 -0.000534234 -0.000525208 -7.52483e-05
0.0017699 -0.000537362 -0.000528231 -7.52498e-05
0.000584623 -0.000182989 -0.000172129 -9.02274e-05
0.00117122 -0.000358461 -0.000348325 -8.4621e-05
0.00176481 -0.000535798 -0.00052672 -7.52491e-05
0.00117797 -0.00036057 -0.000350314 -8.46223e-05
0.00117459 -0.000359516 -0.00034932 -8.46217e-05
0.000582962 -0.000182446 -0.00017165 -9.02268e-05
0.000579638 -0.000181361 -0.00017069 -9.02254e-05
0.00174954 -0.000531105 -0.000522185 -7.52467e-05
0.00175972 -0.000534234 -0.000525208 -7.52483e-05
0.0005813 -0.000181904 -0.00017117 -9.02261e-05
0.00116447 -0.000356353 -0.000346335 -8.46195e-05
0.00175463 -0.000532669 -0.000523697 -7.52475e-05
0.00117122 -0.000358461 -0.000348325 -8.4621e-05
0.00116784 -0.000357407 -0.00034733 -8.46202e-05
0.000579638 -0.000181361 -0.00017069 -9.02254e-05
0.000576314 -0.000180277 -0.000169731 -9.02239e-05
0.00173935 -0.000527977 -0.000519161 -7.52451e-05
0.00174954 -0.000531105 -0.000522185 -7.52467e-05
0.000577976 -0.000180819 -0.00017021 -9.02247e-05
0.00115772 -0.000354246 -0.000344344 -8.46178e-05
0.00174445 -0.000529541 -0.000520673 -7.52459e-05
0.00116447 -0.000356353 -0.000346335 -8.46195e-05
0.00116109 -0.0003553 -0.00034534 -8.46187e-05
0.000576314 -0.000180277 -0.000169731 -9.02239e-05
0.00057299 -0.000179192 -0.00016877 -9.02224e-05
0.00172917 -0.00052485 -0.000516137 -7.52434e-05
0.00173935 -0.000527977 -0.000519161 -7.52451e-05
0.000574652 -0.000179734 -0.00016925 -9.02232e-05
0.00115096 -0.000352139 -0.000342353 -8.46162e-05
0.00173426 -0.000526414 -0.000517649 -7.52442e-05
0.00115772 -0.000354246 -0.000344344 -8.46178e-05
0.00115434 -0.000353192 -0.000343349 -8.4617e-05
0.00057299 -0.000179192 -0.00016877 -9.02224e-05
0.000569665 -0.000178109 -0.00016781 -9.02208e-05
0.00171899 -0.000521723 -0.000513113 -7.52416e-05
0.00172917 -0.00052485 -0.000516137 -7.52434e-05
0.000571327 -0.00017865 -0.00016829 -9.02216e-05
0.00114421 -0.000350032 -0.000340362 -8.46145e-05
0.00172408 -0.000523286 -0.000514625 -7.52425e-05
0.00115096 -0.000352139 -0.000342353 -8.46162e-05
0.00114759 -0.000351085 -0.000341358 -8.46153e-05
0.000569665 -0.000178109 -0.00016781 -9.02208e-05
0.000566339 -0.000177025 -0.000166849 -9.02192e-05
0.0017088 -0.000518596 -0.000510089 -7.52399e-05
0.00171899 -0.000521723 -0.000513113 -7.52416e-05
0.000568002 -0.000177567 -0.000167329 -9.022e-05
0.00113746 -0.000347925 -0.000338371 -8.46127e-05
0.00171389 -0.000520159 -0.000511601 -7.52407e-05
0.00114421 -0.000350032 -0.000340362 -8.46145e-05
0.00114083 -0.000348978 -0.000339366 -8.46136e-05
0.000566339 -0.000177025 -0.000166849 -9.02192e-05
0.000563013 -0.000175942 -0.000165887 -9.02176e-05
0.00169862 -0.000515469 -0.000507064 -7.52381e-05
0.0017088 -0.000518596 -0.000510089 -7.52399e-05
0.000564676 -0.000176484 -0.000166368 -9.02184e-05
0.0011307 -0.000345819 -0.000336379 -8.4611e-05
0.00170371 -0.000517032 -0.000508576 -7.5239e-05
0.00113746 -0.000347925 -0.000338371 -8.46127e-05
0.00113408 -0.000346872 -0.000337375 -8.46118e-05
0.000563013 -0.000175942 -0.000165887 -9.02176e-05
0.000559686 -0.000174859 -0.000164926 -9.02159e-05
0.00168843 -0.000512343 -0.000504039 -7.52363e-05
0.00169862 -0.000515469 -0.000507064 -7.52381e-05
0.000561349 -0.000175401 -0.000165407 -9.02167e-05
0.00112395 -0.000343713 -0.000334386 -8.46092e-05
0.00169353 -0.000513906 -0.000505551 -7.52372e-05
0.0011307 -0.000345819 -0.000336379 -8.4611e-05
0.00112733 -0.000344766 -0.000335383 -8.46101e-05
0.000559686 -0.000174859 -0.000164926 -9.02159e-05
0.000556359 -0.000173777 -0.000163964 -9.02142e-05
0.00167825 -0.000509217 -0.000501013 -7.52346e-05
0.00168843 -0.000512343 -0.000504039 -7.52363e-05
0.000558022 -0.000174318 -0.000164445 -9.02151e-05
0.00111719 -0.000341607 -0.000332394 -8.46074e-05
0.00168334 -0.00051078 -0.000502526 -7.52355e-05
0.00112395 -0.000343713 -0.000334386 -8.46092e-05
0.00112057 -0.00034266 -0.00033339 -8.46083e-05
0.000556359 -0.000173777 -0.000163964 -9.02142e-05
0.000553031 -0.000172695 -0.000163001 -9.02125e-05
0.00166806 -0.000506091 -0.000497988 -7.52328e-05
0.00167825 -0.000509217 -0.000501013 -7.52346e-05
0.000554695 -0.000173236 -0.000163482 -9.02134e-05
0.00111044 -0.000339502 -0.000330401 -8.46056e-05
0.00167315 -0.000507654 -0.0004995 -7.52337e-05
0.00111719 -0.000341607 -0.000332394 -8.46074e-05
0.00111382 -0.000340555 -0.000331397 -8.46065e-05
0.000553031 -0.000172695 -0.000163001 -9.02125e-05
0.000549702 -0.000171613 -0.000162038 -9.02108e-05
0.00165788 -0.000502966 -0.000494962 -7.5231e-05
0.00166806 -0.000506091 -0.000497988 -7.52328e-05
0.000551367 -0.000172154 -0.00016252 -9.02116e-05
0.00110368 -0.000337397 -0.000328408 -8.46037e-05
0.00166297 -0.000504528 -0.000496475 -7.52319e-05
0.00111044 -0.000339502 -0.000330401 -8.46056e-05
0.00110706 -0.00033845 -0.000329404 -8.46047e-05
0.000549702 -0.000171613 -0.000162038 -9.02108e-05
0.000546373 -0.000170532 -0.000161075 -9.0209e-05
0.00164769 -0.000499841 -0.000491935 -7.52291e-05
0.00165788 -0.000502966 -0.000494962 -7.5231e-05
0.000548038 -0.000171072 -0.000161557 -9.02099e-05
0.00109693 -0.000335293 -0.000326414 -8.46019e-05
0.00165278 -0.000501403 -0.000493448 -7.52301e-05
0.00110368 -0.000337397 -0.000328408 -8.46037e-05
0.0011003 -0.000336345 -0.000327411 -8.46028e-05
0.000546373 -0.000170532 -0.000161075 -9.0209e-05
0.000543044 -0.000169451 -0.000160111 -9.02072e-05
0.0016375 -0.000496716 -0.000488909 -7.52273e-05
0.00164769 -0.000499841 -0.000491935 -7.52291e-05
0.000544709 -0.000169991 -0.000160593 -9.02081e-05
0.00109017 -0.000333189 -0.00032442 -8.46e-05
0.0016426 -0.000498278 -0.000490422 -7.52282e-05
0.00109693 -0.000335293 -0.000326414 -8.46019e-05
0.00109355 -0.000334241 -0.000325417 -8.46009e-05
0.000543044 -0.000169451 -0.000160111 -9.02072e-05
0.000539714 -0.00016837 -0.000159147 -9.02054e-05
0.00162732 -0.000493592 -0.000485882 -7.52254e-05
0.0016375 -0.000496716 -0.000488909 -7.52273e-05
0.000541379 -0.00016891 -0.000159629 -9.02063e-05
0.00108341 -0.000331085 -0.000322426 -8.45981e-05
0.00163241 -0.000495154 -0.000487395 -7.52264e-05
0.00109017 -0.000333189 -0.00032442 -8.46e-05
0.00108679 -0.000332137 -0.000323423 -8.45991e-05
0.000539714 -0.00016837 -0.000159147 -9.02054e-05
0.000536383 -0.00016729 -0.000158183 -9.02035e-05
0.00161713 -0.000490468 -0.000482855 -7.52236e-05
0.00162732 -0.000493592 -0.000485882 -7.52254e-05
0.000538049 -0.00016783 -0.000158665 -9.02045e-05
0.00107665 -0.000328981 -0.000320431 -8.45962e-05
0.00162222 -0.00049203 -0.000484368 -7.52245e-05
0.00108341 -0.000331085 -0.000322426 -8.45981e-05
0.00108003 -0.000330033 -0.000321428 -8.45971e-05
0.000536383 -0.00016729 -0.000158183 -9.02035e-05
0.000533052 -0.00016621 -0.000157218 -9.02017e-05
0.00160694 -0.000487344 -0.000479827 -7.52216e-05
0.00161713 -0.000490468 -0.000482855 -7.52236e-05
0.000534718 -0.00016675 -0.000157701 -9.02026e-05
0.0010699 -0.000326878 -0.000318436 -8.45942e-05
0.00161203 -0.000488906 -0.000481341 -7.52226e-05
0.00107665 -0.000328981 -0.000320431 -8.45962e-05
0.00107327 -0.00032793 -0.000319434 -8.45952e-05
0.000533052 -0.00016621 -0.000157218 -9.02017e-05
0.000529721 -0.00016513 -0.000156253 -9.01998e-05
0.00159675 -0.000484221 -0.0004768 -7.52197e-05
0.00160694 -0.000487344 -0.000479827 -7.52216e-05
0.000531387 -0.00016567 -0.000156736 -9.02007e-05
0.00106314 -0.000324775 -0.000316441 -8.45922e-05
0.00160185 -0.000485782 -0.000478314 -7.52207e-05
0.0010699 -0.000326878 -0.000318436 -8.45942e-05
0.00106652 -0.000325827 -0.000317439 -8.45932e-05
0.000529721 -0.00016513 -0.000156253 -9.01998e-05
0.000526389 -0.000164051 -0.000155288 -9.01978e-05
0.00158656 -0.000481098 -0.000473772 -7.52178e-05
0.00159675 -0.000484221 -0.0004768 -7.52197e-05
0.000528055 -0.00016459 -0.00015577 -9.01988e-05
0.00105638 -0.000322673 -0.000314445 -8.45903e-05
0.00159166 -0.000482659 -0.000475286 -7.52188e-05
0.00106314 -0.000324775 -0.000316441 -8.45922e-05
0.00105976 -0.000323724 -0.000315443 -8.45913e-05
0.000526389 -0.000164051 -0.000155288 -9.01978e-05
0.000523056 -0.000162972 -0.000154322 -9.01959e-05
0.00157638 -0.000477975 -0.000470743 -7.52158e-05
0.00158656 -0.000481098 -0.000473772 -7.52178e-05
0.000524722 -0.000163511 -0.000154805 -9.01969e-05
0.00104962 -0.000320571 -0.000312449 -8.45882e-05
0.00158147 -0.000479536 -0.000472258 -7.52168e-05
0.00105638 -0.000322673 -0.000314445 -8.45903e-05
0.001053 -0.000321622 -0.000313447 -8.45892e-05
0.000523056 -0.000162972 -0.000154322 -9.01959e-05
0.000519723 -0.000161893 -0.000153355 -9.01939e-05
0.00156619 -0.000474852 -0.000467715 -7.52138e-05
0.00157638 -0.000477975 -0.000470743 -7.52158e-05
0.000521389 -0.000162433 -0.000153839 -9.01949e-05
0.00104286 -0.000318469 -0.000310453 -8.45862e-05
0.00157128 -0.000476414 -0.000469229 -7.52148e-05
0.00104962 -0.000320571 -0.000312449 -8.45882e-05
0.00104624 -0.00031952 -0.000311451 -8.45872e-05
0.000519723 -0.000161893 -0.000153355 -9.01939e-05
0.000516389 -0.000160815 -0.000152389 -9.01919e-05
0.001556 -0.00047173 -0.000464686 -7.52118e-05
0.00156619 -0.000474852 -0.000467715 -7.52138e-05
0.000518056 -0.000161354 -0.000152872 -9.01929e-05
0.0010361 -0.000316368 -0.000308456 -8.45841e-05
0.00156109 -0.000473291 -0.000466201 -7.52128e-05
0.00104286 -0.000318469 -0.000310453 -8.45862e-05
0.00103948 -0.000317418 -0.000309455 -8.45852e-05
0.000516389 -0.000160815 -0.000152389 -9.01919e-05
0.000513055 -0.000159737 -0.000151422 -9.01899e-05
0.00154581 -0.000468609 -0.000461657 -7.52098e-05
0.001556 -0.00047173 -0.000464686 -7.52118e-05
0.000514722 -0.000160276 -0.000151905 -9.01909e-05
0.00102934 -0.000314267 -0.000306459 -8.4582e-05
0.0015509 -0.000470169 -0.000463172 -7.52108e-05
0.0010361 -0.000316368 -0.000308456 -8.45841e-05
0.00103272 -0.000315317 -0.000307458 -8.45831e-05
0.000513055 -0.000159737 -0.000151422 -9.01899e-05
0.00050972 -0.00015866 -0.000150454 -9.01879e-05
0.00153562 -0.000465487 -0.000458628 -7.52078e-05
0.00154581 -0.000468609 -0.000461657 -7.52098e-05
0.000511388 -0.000159198 -0.000150938 -9.01889e-05
0.00102258 -0.000312166 -0.000304462 -8.45799e-05
0.00154071 -0.000467048 -0.000460142 -7.52088e-05
0.00102934 -0.000314267 -0.000306459 -8.4582e-05
0.00102596 -0.000313216 -0.000305461 -8.4581e-05
0.00050972 -0.00015866 -0.000150454 -9.01879e-05
0.000506385 -0.000157583 -0.000149487 -9.01858e-05
0.00152543 -0.000462366 -0.000455598 -7.52057e-05
0.00153562 -0.000465487 -0.000458628 -7.52078e-05
0.000508053 -0.000158121 -0.000149971 -9.01868e-05
0.00101582 -0.000310066 -0.000302464 -8.45778e-05
0.00153052 -0.000463927 -0.000457113 -7.52067e-05
0.00102258 -0.000312166 -0.000304462 -8.45799e-05
0.0010192 -0.000311116 -0.000303463 -8.45789e-05
0.000506385 -0.000157583 -0.000149487 -9.01858e-05
0.000503049 -0.000156506 -0.000148519 -9.01837e-05
0.00151524 -0.000459246 -0.000452568 -7.52036e-05
0.00152543 -0.000462366 -0.000455598 -7.52057e-05
0.000504717 -0.000157044 -0.000149003 -9.01848e-05
0.00100905 -0.000307966 -0.000300466 -8.45757e-05
0.00152033 -0.000460806 -0.000454083 -7.52047e-05
0.00101582 -0.000310066 -0.000302464 -8.45778e-05
0.00101243 -0.000309016 -0.000301465 -8.45767e-05
0.000503049 -0.000156506 -0.000148519 -9.01837e-05
0.000499713 -0.000155429 -0.00014755 -9.01816e-05
0.00150505 -0.000456125 -0.000449538 -7.52015e-05
0.00151524 -0.000459246 -0.000452568 -7.52036e-05
0.000501381 -0.000155968 -0.000148034 -9.01827e-05
0.00100229 -0.000305866 -0.000298468 -8.45735e-05
0.00151014 -0.000457685 -0.000451053 -7.52026e-05
0.00100905 -0.000307966 -0.000300466 -8.45757e-05
0.00100567 -0.000306916 -0.000299467 -8.45746e-05
0.000499713 -0.000155429 -0.00014755 -9.01816e-05
0.000496376 -0.000154353 -0.000146581 -9.01795e-05
0.00149486 -0.000453005 -0.000446507 -7.51994e-05
0.00150505 -0.000456125 -0.000449538 -7.52015e-05
0.000498045 -0.000154891 -0.000147066 -9.01806e-05
0.000995529 -0.000303767 -0.000296469 -8.45713e-05
0.00149995 -0.000454565 -0.000448023 -7.52005e-05
0.00100229 -0.000305866 -0.000298468 -8.45735e-05
0.00099891 -0.000304816 -0.000297469 -8.45724e-05
0.000496376 -0.000154353 -0.000146581 -9.01795e-05
0.000493039 -0.000153278 -0.000145612 -9.01774e-05
0.00148466 -0.000449885 -0.000443477 -7.51973e-05
0.00149486 -0.000453005 -0.000446507 -7.51994e-05
0.000494708 -0.000153816 -0.000146097 -9.01784e-05
0.000988766 -0.000301668 -0.00029447 -8.45691e-05
0.00148976 -0.000451445 -0.000444992 -7.51984e-05
0.000995529 -0.000303767 -0.000296469 -8.45713e-05
0.000992147 -0.000302717 -0.00029547 -8.45702e-05
0.000493039 -0.000153278 -0.000145612 -9.01774e-05
0.000489701 -0.000152202 -0.000144642 -9.01752e-05
0.00147447 -0.000446766 -0.000440446 -7.51952e-05
0.00148466 -0.000449885 -0.000443477 -7.51973e-05
0.00049137 -0.00015274 -0.000145127 -9.01763e-05
0.000982002 -0.000299569 -0.000292471 -8.45669e-05
0.00147957 -0.000448326 -0.000441961 -7.51962e-05
0.000988766 -0.000301668 -0.00029447 -8.45691e-05
0.000985384 -0.000300619 -0.000293471 -8.4568e-05
0.000489701 -0.000152202 -0.000144642 -9.01752e-05
0.000486363 -0.000151127 -0.000143672 -9.0173e-05
0.00146428 -0.000443647 -0.000437414 -7.5193e-05
0.00147447 -0.000446766 -0.000440446 -7.51952e-05
0.000488032 -0.000151665 -0.000144157 -9.01741e-05
0.000975238 -0.000297471 -0.000290472 -8.45647e-05
0.00146938 -0.000445207 -0.00043893 -7.51941e-05
0.000982002 -0.000299569 -0.000292471 -8.45669e-05
0.00097862 -0.00029852 -0.000291471 -8.45658e-05
0.000486363 -0.000151127 -0.000143672 -9.0173e-05
0.000483024 -0.000150053 -0.000142702 -9.01709e-05
0.00145409 -0.000440528 -0.000434383 -7.51908e-05
0.00146428 -0.000443647 -0.000437414 -7.5193e-05
0.000484694 -0.00015059 -0.000143187 -9.01719e-05
0.000968474 -0.000295373 -0.000288472 -8.45625e-05
0.00145918 -0.000442088 -0.000435899 -7.51919e-05
0.000975238 -0.000297471 -0.000290472 -8.45647e-05
0.000971856 -0.000296422 -0.000289472 -8.45636e-05
0.000483024 -0.000150053 -0.000142702 -9.01709e-05
0.000479685 -0.000148979 -0.000141731 -9.01687e-05
0.0014439 -0.00043741 -0.000431351 -7.51887e-05
0.00145409 -0.000440528 -0.000434383 -7.51908e-05
0.000481354 -0.000149516 -0.000142217 -9.01698e-05
0.000961709 -0.000293276 -0.000286471 -8.45602e-05
0.00144899 -0.000438969 -0.000432867 -7.51898e-05
0.000968474 -0.000295373 -0.000288472 -8.45625e-05
0.000965091 -0.000294325 -0.000287471 -8.45613e-05
0.000479685 -0.000148979 -0.000141731 -9.01687e-05
0.000476345 -0.000147905 -0.00014076 -9.01664e-05
0.0014337 -0.000434292 -0.000428319 -7.51865e-05
0.0014439 -0.00043741 -0.000431351 -7.51887e-05
0.000478015 -0.000148442 -0.000141246 -9.01675e-05
0.000954944 -0.000291179 -0.000284471 -8.45579e-05
0.0014388 -0.000435851 -0.000429835 -7.51876e-05
0.000961709 -0.000293276 -0.000286471 -8.45602e-05
0.000958326 -0.000292227 -0.000285471 -8.45591e-05
0.000476345 -0.000147905 -0.00014076 -9.01664e-05
0.000473005 -0.000146831 -0.000139789 -9.01642e-05
0.00142351 -0.000431174 -0.000425287 -7.51843e-05
0.0014337 -0.000434292 -0.000428319 -7.51865e-05
0.000474675 -0.000147368 -0.000140274 -9.01653e-05
0.000948178 -0.000289082 -0.00028247 -8.45556e-05
0.00142861 -0.000432733 -0.000426803 -7.51854e-05
0.000954944 -0.000291179 -0.000284471 -8.45579e-05
0.000951561 -0.00029013 -0.00028347 -8.45568e-05
0.000473005 -0.000146831 -0.000139789 -9.01642e-05
0.000469664 -0.000145758 -0.000138817 -9.0162e-05
0.00141332 -0.000428057 -0.000422254 -7.51821e-05
0.00142351 -0.000431174 -0.000425287 -7.51843e-05
0.000471334 -0.000146295 -0.000139303 -9.01631e-05
0.000941412 -0.000286986 -0.000280468 -8.45533e-05
0.00141841 -0.000429616 -0.00042377 -7.51832e-05
0.000948178 -0.000289082 -0.00028247 -8.45556e-05
0.000944795 -0.000288034 -0.000281469 -8.45545e-05
0.000469664 -0.000145758 -0.000138817 -9.0162e-05
0.000466322 -0.000144685 -0.000137844 -9.01597e-05
0.00140312 -0.00042494 -0.000419221 -7.51798e-05
0.00141332 -0.000428057 -0.000422254 -7.51821e-05
0.000467993 -0.000145222 -0.000138331 -9.01608e-05
0.000934646 -0.00028489 -0.000278467 -8.4551e-05
0.00140822 -0.000426499 -0.000420738 -7.51809e-05
0.000941412 -0.000286986 -0.000280468 -8.45533e-05
0.000938029 -0.000285938 -0.000279468 -8.45522e-05
0.000466322 -0.000144685 -0.000137844 -9.01597e-05
0.000462981 -0.000143613 -0.000136872 -9.01574e-05
0.00139293 -0.000421824 -0.000416188 -7.51776e-05
0.00140312 -0.00042494 -0.000419221 -7.51798e-05
0.000464652 -0.000144149 -0.000137358 -9.01586e-05
0.000927879 -0.000282794 -0.000276465 -8.45487e-05
0.00139803 -0.000423382 -0.000417705 -7.51787e-05
0.000934646 -0.00028489 -0.000278467 -8.4551e-05
0.000931262 -0.000283842 -0.000277466 -8.45499e-05
0.000462981 -0.000143613 -0.000136872 -9.01574e-05
0.000459638 -0.000142541 -0.000135899 -9.01551e-05
0.00138273 -0.000418707 -0.000413154 -7.51754e-05
0.00139293 -0.000421824 -0.000416188 -7.51776e-05
0.000461309 -0.000143077 -0.000136385 -9.01563e-05
0.000921112 -0.000280699 -0.000274463 -8.45464e-05
0.00138783 -0.000420265 -0.000414671 -7.51765e-05
0.000927879 -0.000282794 -0.000276465 -8.45487e-05
0.000924495 -0.000281746 -0.000275464 -8.45475e-05
0.000459638 -0.000142541 -0.000135899 -9.01551e-05
0.000456295 -0.000141469 -0.000134926 -9.01528e-05
0.00137254 -0.000415591 -0.000410121 -7.51731e-05
0.00138273 -0.000418707 -0.000413154 -7.51754e-05
0.000457967 -0.000142005 -0.000135412 -9.0154e-05
0.000914344 -0.000278604 -0.00027246 -8.4544e-05
0.00137764 -0.000417149 -0.000411638 -7.51742e-05
0.000921112 -0.000280699 -0.000274463 -8.45464e-05
0.000917728 -0.000279651 -0.000273461 -8.45452e-05
0.000456295 -0.000141469 -0.000134926 -9.01528e-05
0.000452952 -0.000140398 -0.000133952 -9.01505e-05
0.00136234 -0.000412476 -0.000407087 -7.51708e-05
0.00137254 -0.000415591 -0.000410121 -7.51731e-05
0.000454624 -0.000140933 -0.000134439 -9.01517e-05
0.000907576 -0.000276509 -0.000270457 -8.45417e-05
0.00136744 -0.000414034 -0.000408604 -7.5172e-05
0.000914344 -0.000278604 -0.00027246 -8.4544e-05
0.00091096 -0.000277557 -0.000271459 -8.45428e-05
0.000452952 -0.000140398 -0.000133952 -9.01505e-05
0.000449608 -0.000139327 -0.000132978 -9.01482e-05
0.00135215 -0.000409361 -0.000404053 -7.51686e-05
0.00136234 -0.000412476 -0.000407087 -7.51708e-05
0.00045128 -0.000139862 -0.000133465 -9.01494e-05
0.000900808 -0.000274415 -0.000268454 -8.45393e-05
0.00135725 -0.000410918 -0.00040557 -7.51697e-05
0.000907576 -0.000276509 -0.000270457 -8.45417e-05
0.000904192 -0.000275462 -0.000269456 -8.45405e-05
0.000449608 -0.000139327 -0.000132978 -9.01482e-05
0.000446264 -0.000138256 -0.000132003 -9.01459e-05
0.00134195 -0.000406246 -0.000401018 -7.51663e-05
0.00135215 -0.000409361 -0.000404053 -7.51686e-05
0.000447936 -0.000138791 -0.000132491 -9.01471e-05
0.000894039 -0.000272321 -0.00026645 -8.45369e-05
0.00134705 -0.000407803 -0.000402535 -7.51674e-05
0.000900808 -0.000274415 -0.000268454 -8.45393e-05
0.000897423 -0.000273368 -0.000267452 -8.45381e-05
0.000446264 -0.000138256 -0.000132003 -9.01459e-05
0.000442919 -0.000137186 -0.000131028 -9.01436e-05
0.00133176 -0.000403131 -0.000397983 -7.5164e-05
0.00134195 -0.000406246 -0.000401018 -7.51663e-05
0.000444591 -0.000137721 -0.000131516 -9.01447e-05
0.00088727 -0.000270228 -0.000264446 -8.45345e-05
0.00133686 -0.000404688 -0.000399501 -7.51651e-05
0.000894039 -0.000272321 -0.00026645 -8.45369e-05
0.000890654 -0.000271274 -0.000265448 -8.45357e-05
0.000442919 -0.000137186 -0.000131028 -9.01436e-05
0.000439573 -0.000136116 -0.000130053 -9.01412e-05
0.00132156 -0.000400017 -0.000394948 -7.51617e-05
0.00133176 -0.000403131 -0.000397983 -7.5164e-05
0.000441246 -0.000136651 -0.000130541 -9.01424e-05
0.0008805 -0.000268135 -0.000262442 -8.45322e-05
0.00132666 -0.000401574 -0.000396466 -7.51628e-05
0.00088727 -0.000270228 -0.000264446 -8.45345e-05
0.000883885 -0.000269181 -0.000263444 -8.45334e-05
0.000439573 -0.000136116 -0.000130053 -9.01412e-05
0.000436227 -0.000135046 -0.000129078 -9.01389e-05
0.00131137 -0.000396903 -0.000391913 -7.51594e-05
0.00132156 -0.000400017 -0.000394948 -7.51617e-05
0.0004379 -0.000135581 -0.000129565 -9.014e-05
0.00087373 -0.000266042 -0.000260438 -8.45298e-05
0.00131646 -0.00039846 -0.000393431 -7.51605e-05
0.0008805 -0.000268135 -0.000262442 -8.45322e-05
0.000877115 -0.000267088 -0.00026144 -8.4531e-05
0.000436227 -0.000135046 -0.000129078 -9.01389e-05
0.000432881 -0.000133977 -0.000128102 -9.01365e-05
0.00130117 -0.00039379 -0.000388877 -7.51571e-05
0.00131137 -0.000396903 -0.000391913 -7.51594e-05
0.000434554 -0.000134512 -0.00012859 -9.01377e-05
0.00086696 -0.00026395 -0.000258433 -8.45274e-05
0.00130627 -0.000395346 -0.000390395 -7.51582e-05
0.00087373 -0.000266042 -0.000260438 -8.45298e-05
0.000870345 -0.000264996 -0.000259435 -8.45286e-05
0.000432881 -0.000133977 -0.000128102 -9.01365e-05
0.000429534 -0.000132908 -0.000127125 -9.01341e-05
0.00129097 -0.000390676 -0.000385841 -7.51548e-05
0.00130117 -0.00039379 -0.000388877 -7.51571e-05
0.000431208 -0.000133443 -0.000127614 -9.01353e-05
0.000860189 -0.000261857 -0.000256428 -8.45249e-05
0.00129607 -0.000392233 -0.000387359 -7.51559e-05
0.00086696 -0.00026395 -0.000258433 -8.45274e-05
0.000863574 -0.000262903 -0.00025743 -8.45261e-05
0.000429534 -0.000132908 -0.000127125 -9.01341e-05
0.000426187 -0.00013184 -0.000126149 -9.01318e-05
0.00128078 -0.000387564 -0.000382805 -7.51524e-05
0.00129097 -0.000390676 -0.000385841 -7.51548e-05
0.000427861 -0.000132374 -0.000126637 -9.01329e-05
0.000853418 -0.000259766 -0.000254422 -8.45225e-05
0.00128587 -0.00038912 -0.000384323 -7.51536e-05
0.000860189 -0.000261857 -0.000256428 -8.45249e-05
0.000856803 -0.000260812 -0.000255425 -8.45237e-05
0.000426187 -0.00013184 -0.000126149 -9.01318e-05
0.000422839 -0.000130772 -0.000125172 -9.01294e-05
0.00127058 -0.000384451 -0.000379769 -7.51501e-05
0.00128078 -0.000387564 -0.000382805 -7.51524e-05
0.000424513 -0.000131306 -0.00012566 -9.01306e-05
0.000846646 -0.000257675 -0.000252416 -8.45201e-05
0.00127568 -0.000386007 -0.000381287 -7.51513e-05
0.000853418 -0.000259766 -0.000254422 -8.45225e-05
0.000850032 -0.00025872 -0.000253419 -8.45213e-05
0.000422839 -0.000130772 -0.000125172 -9.01294e-05
0.00041949 -0.000129704 -0.000124194 -9.0127e-05
0.00126038 -0.000381339 -0.000376732 -7.51478e-05
0.00127058 -0.000384451 -0.000379769 -7.51501e-05
0.000421165 -0.000130238 -0.000124683 -9.01282e-05
0.000839874 -0.000255584 -0.00025041 -8.45177e-05
0.00126548 -0.000382895 -0.000378251 -7.5149e-05
0.000846646 -0.000257675 -0.000252416 -8.45201e-05
0.00084326 -0.000256629 -0.000251413 -8.45189e-05
0.00041949 -0.000129704 -0.000124194 -9.0127e-05
0.000416142 -0.000128637 -0.000123216 -9.01246e-05
0.00125018 -0.000378227 -0.000373695 -7.51455e-05
0.00126038 -0.000381339 -0.000376732 -7.51478e-05
0.000417816 -0.00012917 -0.000123705 -9.01258e-05
0.000833102 -0.000253493 -0.000248404 -8.45152e-05
0.00125528 -0.000379783 -0.000375214 -7.51466e-05
0.000839874 -0.000255584 -0.00025041 -8.45177e-05
0.000836488 -0.000254538 -0.000249407 -8.45165e-05
0.000416142 -0.000128637 -0.000123216 -9.01246e-05
0.000412792 -0.00012757 -0.000122238 -9.01222e-05
0.00123999 -0.000375116 -0.000370658 -7.51431e-05
0.00125018 -0.000378227 -0.000373695 -7.51455e-05
0.000414467 -0.000128103 -0.000122727 -9.01234e-05
0.000826329 -0.000251403 -0.000246397 -8.45128e-05
0.00124508 -0.000376671 -0.000372177 -7.51443e-05
0.000833102 -0.000253493 -0.000248404 -8.45152e-05
0.000829715 -0.000252448 -0.0002474 -8.4514e-05
0.000412792 -0.00012757 -0.000122238 -9.01222e-05
0.000409442 -0.000126503 -0.00012126 -9.01198e-05
0.00122979 -0.000372005 -0.000367621 -7.51408e-05
0.00123999 -0.000375116 -0.000370658 -7.51431e-05
0.000411117 -0.000127036 -0.000121749 -9.0121e-05
0.000819556 -0.000249313 -0.00024439 -8.45104e-05
0.00123489 -0.00037356 -0.00036914 -7.5142e-05
0.000826329 -0.000251403 -0.000246397 -8.45128e-05
0.000822942 -0.000250358 -0.000245393 -8.45116e-05
0.000409442 -0.000126503 -0.00012126 -9.01198e-05
0.000406092 -0.000125437 -0.000120281 -9.01174e-05
0.00121959 -0.000368894 -0.000364583 -7.51384e-05
0.00122979 -0.000372005 -0.000367621 -7.51408e-05
0.000407767 -0.00012597 -0.00012077 -9.01186e-05
0.000812782 -0.000247223 -0.000242382 -8.45079e-05
0.00122469 -0.000370449 -0.000366102 -7.51396e-05
0.000819556 -0.000249313 -0.00024439 -8.45104e-05
0.000816169 -0.000248268 -0.000243386 -8.45092e-05
0.000406092 -0.000125437 -0.000120281 -9.01174e-05
0.000402741 -0.000124371 -0.000119301 -9.0115e-05
0.00120939 -0.000365784 -0.000361545 -7.51361e-05
0.00121959 -0.000368894 -0.000364583 -7.51384e-05
0.000404416 -0.000124904 -0.000119791 -9.01162e-05
0.000806008 -0.000245134 -0.000240374 -8.45055e-05
0.00121449 -0.000367339 -0.000363064 -7.51373e-05
0.000812782 -0.000247223 -0.000242382 -8.45079e-05
0.000809395 -0.000246179 -0.000241378 -8.45067e-05
0.000402741 -0.000124371 -0.000119301 -9.0115e-05
0.000399389 -0.000123305 -0.000118322 -9.01126e-05
0.00119919 -0.000362674 -0.000358507 -7.51338e-05
0.00120939 -0.000365784 -0.000361545 -7.51361e-05
0.000401065 -0.000123838 -0.000118812 -9.01138e-05
0.000799234 -0.000243046 -0.000238366 -8.4503e-05
0.00120429 -0.000364229 -0.000360026 -7.51349e-05
0.000806008 -0.000245134 -0.000240374 -8.45055e-05
0.000802621 -0.00024409 -0.00023937 -8.45043e-05
0.000399389 -0.000123305 -0.000118322 -9.01126e-05
0.000396037 -0.00012224 -0.000117342 -9.01102e-05
0.00118899 -0.000359564 -0.000355469 -7.51314e-05
0.00119919 -0.000362674 -0.000358507 -7.51338e-05
0.000397714 -0.000122773 -0.000117832 -9.01114e-05
0.000792459 -0.000240957 -0.000236358 -8.45006e-05
0.00119409 -0.000361119 -0.000356988 -7.51326e-05
0.000799234 -0.000243046 -0.000238366 -8.4503e-05
0.000795846 -0.000242001 -0.000237362 -8.45018e-05
0.000396037 -0.00012224 -0.000117342 -9.01102e-05
0.000392685 -0.000121175 -0.000116361 -9.01078e-05
0.00117879 -0.000356455 -0.00035243 -7.51291e-05
0.00118899 -0.000359564 -0.000355469 -7.51314e-05
0.000394361 -0.000121707 -0.000116852 -9.0109e-05
0.000785684 -0.000238869 -0.000234349 -8.44981e-05
0.00118389 -0.000358009 -0.000353949 -7.51302e-05
0.000792459 -0.000240957 -0.000236358 -8.45006e-05
0.000789071 -0.000239913 -0.000235354 -8.44994e-05
0.000392685 -0.000121175 -0.000116361 -9.01078e-05
0.000389332 -0.000120111 -0.000115381 -9.01054e-05
0.00116859 -0.000353346 -0.000349391 -7.51267e-05
0.00117879 -0.000356455 -0.00035243 -7.51291e-05
0.000391009 -0.000120643 -0.000115871 -9.01066e-05
0.000778908 -0.000236781 -0.00023234 -8.44957e-05
0.00117369 -0.0003549 -0.00035091 -7.51279e-05
0.000785684 -0.000238869 -0.000234349 -8.44981e-05
0.000782296 -0.000237825 -0.000233345 -8.44969e-05
0.000389332 -0.000120111 -0.000115381 -9.01054e-05
0.000385979 -0.000119047 -0.0001144 -9.0103e-05
0.00115839 -0.000350237 -0.000346352 -7.51244e-05
0.00116859 -0.000353346 -0.000349391 -7.51267e-05
0.000387655 -0.000119579 -0.00011489 -9.01042e-05
0.000772132 -0.000234694 -0.000230331 -8.44933e-05
0.00116349 -0.000351791 -0.000347871 -7.51255e-05
0.000778908 -0.000236781 -0.00023234 -8.44957e-05
0.00077552 -0.000235738 -0.000231335 -8.44945e-05
0.000385979 -0.000119047 -0.0001144 -9.0103e-05
0.000382625 -0.000117983 -0.000113418 -9.01006e-05
0.00114819 -0.000347129 -0.000343312 -7.5122e-05
0.00115839 -0.000350237 -0.000346352 -7.51244e-05
0.000384302 -0.000118515 -0.000113909 -9.01018e-05
0.000765356 -0.000232607 -0.000228321 -8.44908e-05
0.00115329 -0.000348683 -0.000344832 -7.51232e-05
0.000772132 -0.000234694 -0.000230331 -8.44933e-05
0.000768744 -0.000233651 -0.000229326 -8.4492e-05
0.000382625 -0.000117983 -0.000113418 -9.01006e-05
0.00037927 -0.000116919 -0.000112436 -9.00982e-05
0.00113799 -0.000344021 -0.000340272 -7.51197e-05
0.00114819 -0.000347129 -0.000343312 -7.5122e-05
0.000380948 -0.000117451 -0.000112927 -9.00994e-05
0.000758579 -0.000230521 -0.000226311 -8.44884e-05
0.00114309 -0.000345575 -0.000341792 -7.51209e-05
0.000765356 -0.000232607 -0.000228321 -8.44908e-05
0.000761968 -0.000231564 -0.000227316 -8.44896e-05
0.00037927 -0.000116919 -0.000112436 -9.00982e-05
0.000375915 -0.000115856 -0.000111454 -9.00958e-05
0.00112779 -0.000340913 -0.000337232 -7.51173e-05
0.00113799 -0.000344021 -0.000340272 -7.51197e-05
0.000377593 -0.000116388 -0.000111945 -9.0097e-05
0.000751802 -0.000228434 -0.0002243 -8.44859e-05
0.00113289 -0.000342467 -0.000338752 -7.51185e-05
0.000758579 -0.000230521 -0.000226311 -8.44884e-05
0.000755191 -0.000229477 -0.000225306 -8.44871e-05
0.000375915 -0.000115856 -0.000111454 -9.00958e-05
0.00037256 -0.000114794 -0.000110471 -9.00934e-05
0.00111759 -0.000337806 -0.000334192 -7.5115e-05
0.00112779 -0.000340913 -0.000337232 -7.51173e-05
0.000374238 -0.000115325 -0.000110963 -9.00946e-05
0.000745025 -0.000226349 -0.00022229 -8.44835e-05
0.00112269 -0.00033936 -0.000335712 -7.51162e-05
0.000751802 -0.000228434 -0.0002243 -8.44859e-05
0.000748413 -0.000227391 -0.000223295 -8.44847e-05
0.00037256 -0.000114794 -0.000110471 -9.00934e-05
0.000369204 -0.000113731 -0.000109488 -9.0091e-05
0.00110739 -0.000334699 -0.000331151 -7.51127e-05
0.00111759 -0.000337806 -0.000334192 -7.5115e-05
0.000370882 -0.000114263 -0.00010998 -9.00922e-05
0.000738247 -0.000224263 -0.000220279 -8.4481e-05
0.00111249 -0.000336252 -0.000332671 -7.51138e-05
0.000745025 -0.000226349 -0.00022229 -8.44835e-05
0.000741636 -0.000225306 -0.000221284 -8.44823e-05
0.000369204 -0.000113731 -0.000109488 -9.0091e-05
0.000365848 -0.000112669 -0.000108505 -9.00886e-05
0.00109718 -0.000331592 -0.00032811 -7.51103e-05
0.00110739 -0.000334699 -0.000331151 -7.51127e-05
0.000367526 -0.0001132 -0.000108997 -9.00898e-05
0.000731469 -0.000222178 -0.000218267 -8.44786e-05
0.00110228 -0.000333146 -0.000329631 -7.51115e-05
0.000738247 -0.000224263 -0.000220279 -8.4481e-05
0.000734858 -0.00022322 -0.000219273 -8.44798e-05
0.000365848 -0.000112669 -0.000108505 -9.00886e-05
0.000362491 -0.000111608 -0.000107521 -9.00862e-05
0.00108698 -0.000328486 -0.000325069 -7.5108e-05
0.00109718 -0.000331592 -0.00032811 -7.51103e-05
0.000364169 -0.000112139 -0.000108013 -9.00874e-05
0.00072469 -0.000220093 -0.000216256 -8.44762e-05
0.00109208 -0.000330039 -0.00032659 -7.51092e-05
0.000731469 -0.000222178 -0.000218267 -8.44786e-05
0.000728079 -0.000221136 -0.000217262 -8.44774e-05
0.000362491 -0.000111608 -0.000107521 -9.00862e-05
0.000359133 -0.000110547 -0.000106537 -9.00838e-05
0.00107678 -0.00032538 -0.000322028 -7.51057e-05
0.00108698 -0.000328486 -0.000325069 -7.5108e-05
0.000360812 -0.000111077 -0.000107029 -9.0085e-05
0.000717911 -0.000218009 -0.000214244 -8.44737e-05
0.00108188 -0.000326933 -0.000323549 -7.51068e-05
0.00072469 -0.000220093 -0.000216256 -8.44762e-05
0.0007213 -0.000219051 -0.00021525 -8.4475e-05
0.000359133 -0.000110547 -0.000106537 -9.00838e-05
0.000355775 -0.000109486 -0.000105553 -9.00814e-05
0.00106658 -0.000322275 -0.000318986 -7.51033e-05
0.00107678 -0.00032538 -0.000322028 -7.51057e-05
0.000357454 -0.000110016 -0.000106045 -9.00826e-05
0.000711131 -0.000215925 -0.000212231 -8.44713e-05
0.00107168 -0.000323828 -0.000320507 -7.51045e-05
0.000717911 -0.000218009 -0.000214244 -8.44737e-05
0.000714521 -0.000216967 -0.000213238 -8.44725e-05
0.000355775 -0.000109486 -0.000105553 -9.00814e-05
0.000352417 -0.000108425 -0.000104568 -9.00791e-05
0.00105637 -0.00031917 -0.000315944 -7.5101e-05
0.00106658 -0.000322275 -0.000318986 -7.51033e-05
0.000354096 -0.000108956 -0.00010506 -9.00803e-05
0.000704351 -0.000213841 -0.000210219 -8.44689e-05
0.00106147 -0.000320722 -0.000317465 -7.51022e-05
0.000711131 -0.000215925 -0.000212231 -8.44713e-05
0.000707741 -0.000214883 -0.000211225 -8.44701e-05
0.000352417 -0.000108425 -0.000104568 -9.00791e-05
0.000349058 -0.000107365 -0.000103583 -9.00767e-05
0.00104617 -0.000316065 -0.000312902 -7.50987e-05
0.00105637 -0.00031917 -0.000315944 -7.5101e-05
0.000350737 -0.000107895 -0.000104075 -9.00779e-05
0.000697571 -0.000211758 -0.000208206 -8.44665e-05
0.00105127 -0.000317617 -0.000314423 -7.50999e-05
0.000704351 -0.000213841 -0.000210219 -8.44689e-05
0.000700961 -0.000212799 -0.000209212 -8.44677e-05
0.000349058 -0.000107365 -0.000103583 -9.00767e-05
0.000345698 -0.000106305 -0.000102597 -9.00743e-05
0.00103597 -0.000312961 -0.00030986 -7.50964e-05
0.00104617 -0.000316065 -0.000312902 -7.50987e-05
0.000347378 -0.000106835 -0.00010309 -9.00755e-05
0.000690791 -0.000209675 -0.000206192 -8.44641e-05
0.00104107 -0.000314513 -0.000311381 -7.50975e-05
0.000697571 -0.000211758 -0.000208206 -8.44665e-05
0.000694181 -0.000210716 -0.000207199 -8.44653e-05
0.000345698 -0.000106305 -0.000102597 -9.00743e-05
0.000342338 -0.000105246 -0.000101611 -9.0072e-05
0.00102576 -0.000309856 -0.000306817 -7.50941e-05
0.00103597 -0.000312961 -0.00030986 -7.50964e-05
0.000344018 -0.000105776 -0.000102104 -9.00731e-05
0.000684009 -0.000207592 -0.000204179 -8.44617e-05
0.00103086 -0.000311408 -0.000308338 -7.50952e-05
0.000690791 -0.000209675 -0.000206192 -8.44641e-05
0.0006874 -0.000208633 -0.000205186 -8.44629e-05
0.000342338 -0.000105246 -0.000101611 -9.0072e-05
0.000338978 -0.000104187 -0.000100625 -9.00696e-05
0.00101556 -0.000306753 -0.000303774 -7.50918e-05
0.00102576 -0.000309856 -0.000306817 -7.50941e-05
0.000340658 -0.000104716 -0.000101118 -9.00708e-05
0.000677228 -0.00020551 -0.000202165 -8.44593e-05
0.00102066 -0.000308304 -0.000305295 -7.50929e-05
0.000684009 -0.000207592 -0.000204179 -8.44617e-05
0.000680619 -0.000206551 -0.000203172 -8.44605e-05
0.000338978 -0.000104187 -0.000100625 -9.00696e-05
0.000335617 -0.000103128 -9.9638e-05 -9.00673e-05
0.00100535 -0.000303649 -0.000300731 -7.50895e-05
0.00101556 -0.000306753 -0.000303774 -7.50918e-05
0.000337298 -0.000103658 -0.000100131 -9.00684e-05
0.000670446 -0.000203428 -0.000200151 -8.44569e-05
0.00101046 -0.000305201 -0.000302252 -7.50906e-05
0.000677228 -0.00020551 -0.000202165 -8.44593e-05
0.000673837 -0.000204469 -0.000201158 -8.44581e-05
0.000335617 -0.000103128 -9.9638e-05 -9.00673e-05
0.000332256 -0.00010207 -9.86509e-05 -9.00649e-05
0.000995149 -0.000300546 -0.000297687 -7.50872e-05
0.00100535 -0.000303649 -0.000300731 -7.50895e-05
0.000333936 -0.000102599 -9.91445e-05 -9.00661e-05
0.000663664 -0.000201347 -0.000198136 -8.44545e-05
0.00100025 -0.000302098 -0.000299209 -7.50883e-05
0.000670446 -0.000203428 -0.000200151 -8.44569e-05
0.000667055 -0.000202387 -0.000199143 -8.44557e-05
0.000332256 -0.00010207 -9.86509e-05 -9.00649e-05
0.000328894 -0.000101012 -9.76635e-05 -9.00626e-05
0.000984945 -0.000297443 -0.000294643 -7.50849e-05
0.000995149 -0.000300546 -0.000297687 -7.50872e-05
0.000330575 -0.000101541 -9.81573e-05 -9.00638e-05
0.000656881 -0.000199265 -0.000196121 -8.44521e-05
0.000990047 -0.000298995 -0.000296165 -7.5086e-05
0.000663664 -0.000201347 -0.000198136 -8.44545e-05
0.000660273 -0.000200306 -0.000197129 -8.44533e-05
0.000328894 -0.000101012 -9.76635e-05 -9.00626e-05
0.000325531 -9.99544e-05 -9.66757e-05 -9.00603e-05
0.000974739 -0.000294341 -0.000291599 -7.50826e-05
0.000984945 -0.000297443 -0.000294643 -7.50849e-05
0.000327212 -0.000100483 -9.71697e-05 -9.00614e-05
0.000650098 -0.000197185 -0.000194106 -8.44497e-05
0.000979842 -0.000295892 -0.000293121 -7.50838e-05
0.000656881 -0.000199265 -0.000196121 -8.44521e-05
0.00065349 -0.000198225 -0.000195113 -8.44509e-05
0.000325531 -9.99544e-05 -9.66757e-05 -9.00603e-05
0.000322168 -9.88972e-05 -9.56875e-05 -9.0058e-05
0.000964534 -0.000291239 -0.000288555 -7.50804e-05
0.000974739 -0.000294341 -0.000291599 -7.50826e-05
0.00032385 -9.94258e-05 -9.61817e-05 -9.00591e-05
0.000643315 -0.000195104 -0.00019209 -8.44474e-05
0.000969637 -0.00029279 -0.000290077 -7.50815e-05
0.000650098 -0.000197185 -0.000194106 -8.44497e-05
0.000646707 -0.000196144 -0.000193098 -8.44486e-05
0.000322168 -9.88972e-05 -9.56875e-05 -9.0058e-05
0.000318805 -9.78403e-05 -9.4699e-05 -9.00557e-05
0.000954328 -0.000288137 -0.00028551 -7.50781e-05
0.000964534 -0.000291239 -0.000288555 -7.50804e-05
0.000320486 -9.83687e-05 -9.51933e-05 -9.00568e-05
0.000636531 -0.000193024 -0.000190074 -8.4445e-05
0.000959431 -0.000289688 -0.000287033 -7.50792e-05
0.000643315 -0.000195104 -0.00019209 -8.44474e-05
0.000639923 -0.000194064 -0.000191082 -8.44462e-05
0.000318805 -9.78403e-05 -9.4699e-05 -9.00557e-05
0.000315441 -9.67838e-05 -9.37101e-05 -9.00534e-05
0.000944122 -0.000285036 -0.000282466 -7.50758e-05
0.000954328 -0.000288137 -0.00028551 -7.50781e-05
0.000317123 -9.7312e-05 -9.42046e-05 -9.00545e-05
0.000629747 -0.000190945 -0.000188058 -8.44427e-05
0.000949225 -0.000286587 -0.000283988 -7.5077e-05
0.000636531 -0.000193024 -0.000190074 -8.4445e-05
0.000633139 -0.000191984 -0.000189066 -8.44439e-05
0.000315441 -9.67838e-05 -9.37101e-05 -9.00534e-05
0.000312076 -9.57277e-05 -9.27208e-05 -9.00511e-05
0.000933916 -0.000281935 -0.00027942 -7.50736e-05
0.000944122 -0.000285036 -0.000282466 -7.50758e-05
0.000313758 -9.62557e-05 -9.32155e-05 -9.00522e-05
0.000622962 -0.000188865 -0.000186042 -8.44404e-05
0.000939019 -0.000283485 -0.000280943 -7.50747e-05
0.000629747 -0.000190945 -0.000188058 -8.44427e-05
0.000626354 -0.000189905 -0.00018705 -8.44415e-05
0.000312076 -9.57277e-05 -9.27208e-05 -9.00511e-05
0.000308711 -9.46719e-05 -9.17311e-05 -9.00488e-05
0.000923709 -0.000278834 -0.000276375 -7.50714e-05
0.000933916 -0.000281935 -0.00027942 -7.50736e-05
0.000310394 -9.51997e-05 -9.2226e-05 -9.005e-05
0.000616177 -0.000186786 -0.000184025 -8.4438e-05
0.000928813 -0.000280385 -0.000277898 -7.50725e-05
0.000622962 -0.000188865 -0.000186042 -8.44404e-05
0.00061957 -0.000187826 -0.000185033 -8.44392e-05
0.000308711 -9.46719e-05 -9.17311e-05 -9.00488e-05
0.000305346 -9.36164e-05 -9.07411e-05 -9.00466e-05
0.000913503 -0.000275734 -0.000273329 -7.50691e-05
0.000923709 -0.000278834 -0.000276375 -7.50714e-05
0.000307028 -9.41441e-05 -9.12362e-05 -9.00477e-05
0.000609392 -0.000184708 -0.000182007 -8.44357e-05
0.000918606 -0.000277284 -0.000274852 -7.50703e-05
0.000616177 -0.000186786 -0.000184025 -8.4438e-05
0.000612784 -0.000185747 -0.000183016 -8.44369e-05
0.000305346 -9.36164e-05 -9.07411e-05 -9.00466e-05
0.00030198 -9.25614e-05 -8.97507e-05 -9.00443e-05
0.000903295 -0.000272634 -0.000270284 -7.50669e-05
0.000913503 -0.000275734 -0.000273329 -7.50691e-05
0.000303663 -9.30889e-05 -9.02459e-05 -9.00454e-05
0.000602606 -0.000182629 -0.00017999 -8.44334e-05
0.000908399 -0.000274184 -0.000271807 -7.5068e-05
0.000609392 -0.000184708 -0.000182007 -8.44357e-05
0.000605999 -0.000183668 -0.000180999 -8.44346e-05
0.00030198 -9.25614e-05 -8.97507e-05 -9.00443e-05
0.000298613 -9.15066e-05 -8.87599e-05 -9.00421e-05
0.000893088 -0.000269534 -0.000267237 -7.50647e-05
0.000903295 -0.000272634 -0.000270284 -7.50669e-05
0.000300296 -9.2034e-05 -8.92553e-05 -9.00432e-05
0.00059582 -0.000180551 -0.000177972 -8.44311e-05
0.000898192 -0.000271084 -0.00026876 -7.50658e-05
0.000602606 -0.000182629 -0.00017999 -8.44334e-05
0.000599213 -0.00018159 -0.000178981 -8.44323e-05
0.000298613 -9.15066e-05 -8.87599e-05 -9.00421e-05
0.000295246 -9.04523e-05 -8.77688e-05 -9.00399e-05
0.00088288 -0.000266435 -0.000264191 -7.50625e-05
0.000893088 -0.000269534 -0.000267237 -7.50647e-05
0.00029693 -9.09794e-05 -8.82644e-05 -9.0041e-05
0.000589033 -0.000178474 -0.000175954 -8.44289e-05
0.000887984 -0.000267985 -0.000265714 -7.50636e-05
0.00059582 -0.000180551 -0.000177972 -8.44311e-05
0.000592426 -0.000179513 -0.000176963 -8.443e-05
0.000295246 -9.04523e-05 -8.77688e-05 -9.00399e-05
0.000291879 -8.93983e-05 -8.67772e-05 -9.00376e-05
0.000872672 -0.000263336 -0.000261144 -7.50603e-05
0.00088288 -0.000266435 -0.000264191 -7.50625e-05
0.000293562 -8.99253e-05 -8.7273e-05 -9.00387e-05
0.000582246 -0.000176397 -0.000173935 -8.44266e-05
0.000877776 -0.000264885 -0.000262668 -7.50614e-05
0.000589033 -0.000178474 -0.000175954 -8.44289e-05
0.000585639 -0.000177435 -0.000174945 -8.44277e-05
0.000291879 -8.93983e-05 -8.67772e-05 -9.00376e-05
0.00028851 -8.83447e-05 -8.57854e-05 -9.00354e-05
0.000862464 -0.000260237 -0.000258097 -7.50582e-05
0.000872672 -0.000263336 -0.000261144 -7.50603e-05
0.000290195 -8.88714e-05 -8.62813e-05 -9.00365e-05
0.000575458 -0.00017432 -0.000171916 -8.44243e-05
0.000867568 -0.000261787 -0.000259621 -7.50593e-05
0.000582246 -0.000176397 -0.000173935 -8.44266e-05
0.000578852 -0.000175358 -0.000172926 -8.44255e-05
0.00028851 -8.83447e-05 -8.57854e-05 -9.00354e-05
0.000285142 -8.72914e-05 -8.47931e-05 -9.00333e-05
0.000852256 -0.000257139 -0.00025505 -7.5056e-05
0.000862464 -0.000260237 -0.000258097 -7.50582e-05
0.000286826 -8.7818e-05 -8.52893e-05 -9.00343e-05
0.00056867 -0.000172243 -0.000169897 -8.44221e-05
0.00085736 -0.000258688 -0.000256574 -7.50571e-05
0.000575458 -0.00017432 -0.000171916 -8.44243e-05
0.000572064 -0.000173282 -0.000170907 -8.44232e-05
0.000285142 -8.72914e-05 -8.47931e-05 -9.00333e-05
0.000281773 -8.62385e-05 -8.38005e-05 -9.00311e-05
0.000842047 -0.000254041 -0.000252002 -7.50539e-05
0.000852256 -0.000257139 -0.00025505 -7.5056e-05
0.000283457 -8.67649e-05 -8.42968e-05 -9.00322e-05
0.000561882 -0.000170167 -0.000167878 -8.44199e-05
0.000847151 -0.00025559 -0.000253526 -7.50549e-05
0.00056867 -0.000172243 -0.000169897 -8.44221e-05
0.000565276 -0.000171205 -0.000168888 -8.4421e-05
0.000281773 -8.62385e-05 -8.38005e-05 -9.00311e-05
0.000278403 -8.51859e-05 -8.28074e-05 -9.00289e-05
0.000831838 -0.000250944 -0.000248955 -7.50517e-05
0.000842047 -0.000254041 -0.000252002 -7.50539e-05
0.000280088 -8.57122e-05 -8.3304e-05 -9.003e-05
0.000555093 -0.000168092 -0.000165858 -8.44177e-05
0.000836942 -0.000252492 -0.000250478 -7.50528e-05
0.000561882 -0.000170167 -0.000167878 -8.44199e-05
0.000558488 -0.000169129 -0.000166868 -8.44188e-05
0.000278403 -8.51859e-05 -8.28074e-05 -9.00289e-05
0.000275033 -8.41337e-05 -8.18141e-05 -9.00268e-05
0.000821628 -0.000247846 -0.000245906 -7.50496e-05
0.000831838 -0.000250944 -0.000248955 -7.50517e-05
0.000276718 -8.46598e-05 -8.23108e-05 -9.00278e-05
0.000548304 -0.000166016 -0.000163838 -8.44155e-05
0.000826733 -0.000249395 -0.000247431 -7.50506e-05
0.000555093 -0.000168092 -0.000165858 -8.44177e-05
0.000551699 -0.000167054 -0.000164848 -8.44165e-05
0.000275033 -8.41337e-05 -8.18141e-05 -9.00268e-05
0.000271663 -8.30819e-05 -8.08203e-05 -9.00246e-05
0.000811418 -0.000244749 -0.000242858 -7.50475e-05
0.000821628 -0.000247846 -0.000245906 -7.50496e-05
0.000273348 -8.36078e-05 -8.13172e-05 -9.00257e-05
0.000541515 -0.000163941 -0.000161817 -8.44133e-05
0.000816523 -0.000246298 -0.000244382 -7.50485e-05
0.000548304 -0.000166016 -0.000163838 -8.44155e-05
0.00054491 -0.000164979 -0.000162828 -8.44144e-05
0.000271663 -8.30819e-05 -8.08203e-05 -9.00246e-05
0.000268292 -8.20304e-05 -7.98262e-05 -9.00225e-05
0.000801208 -0.000241653 -0.000239809 -7.50454e-05
0.000811418 -0.000244749 -0.000242858 -7.50475e-05
0.000269977 -8.25561e-05 -8.03233e-05 -9.00236e-05
0.000534725 -0.000161867 -0.000159796 -8.44111e-05
0.000806313 -0.000243201 -0.000241334 -7.50464e-05
0.000541515 -0.000163941 -0.000161817 -8.44133e-05
0.00053812 -0.000162904 -0.000160807 -8.44122e-05
0.000268292 -8.20304e-05 -7.98262e-05 -9.00225e-05
0.00026492 -8.09793e-05 -7.88317e-05 -9.00204e-05
0.000790998 -0.000238557 -0.000236761 -7.50433e-05
0.000801208 -0.000241653 -0.000239809 -7.50454e-05
0.000266606 -8.15048e-05 -7.9329e-05 -9.00215e-05
0.000527935 -0.000159792 -0.000157775 -8.44089e-05
0.000796103 -0.000240105 -0.000238285 -7.50443e-05
0.000534725 -0.000161867 -0.000159796 -8.44111e-05
0.00053133 -0.000160829 -0.000158786 -8.441e-05
0.00026492 -8.09793e-05 -7.88317e-05 -9.00204e-05
0.000261548 -7.99285e-05 -7.78368e-05 -9.00184e-05
0.000780787 -0.000235461 -0.000233711 -7.50412e-05
0.000790998 -0.000238557 -0.000236761 -7.50433e-05
0.000263234 -8.04539e-05 -7.83343e-05 -9.00194e-05
0.000521144 -0.000157718 -0.000155754 -8.44068e-05
0.000785893 -0.000237009 -0.000235236 -7.50422e-05
0.000527935 -0.000159792 -0.000157775 -8.44089e-05
0.000524539 -0.000158755 -0.000156765 -8.44079e-05
0.000261548 -7.99285e-05 -7.78368e-05 -9.00184e-05
0.000258175 -7.88781e-05 -7.68416e-05 -9.00163e-05
0.000770576 -0.000232365 -0.000230662 -7.50391e-05
0.000780787 -0.000235461 -0.000233711 -7.50412e-05
0.000259862 -7.94033e-05 -7.73392e-05 -9.00173e-05
0.000514353 -0.000155645 -0.000153732 -8.44047e-05
0.000775682 -0.000233913 -0.000232187 -7.50402e-05
0.000521144 -0.000157718 -0.000155754 -8.44068e-05
0.000517748 -0.000156681 -0.000154743 -8.44057e-05
0.000258175 -7.88781e-05 -7.68416e-05 -9.00163e-05
0.000254802 -7.78281e-05 -7.5846e-05 -9.00142e-05
0.000760365 -0.00022927 -0.000227612 -7.50371e-05
0.000770576 -0.000232365 -0.000230662 -7.50391e-05
0.000256489 -7.83531e-05 -7.63438e-05 -9.00153e-05
0.000507561 -0.000153571 -0.00015171 -8.44025e-05
0.000765471 -0.000230817 -0.000229137 -7.50381e-05
0.000514353 -0.000155645 -0.000153732 -8.44047e-05
0.000510957 -0.000154608 -0.000152721 -8.44036e-05
0.000254802 -7.78281e-05 -7.5846e-05 -9.00142e-05
0.000251428 -7.67784e-05 -7.485e-05 -9.00122e-05
0.000750153 -0.000226175 -0.000224562 -7.5035e-05
0.000760365 -0.00022927 -0.000227612 -7.50371e-05
0.000253115 -7.73032e-05 -7.5348e-05 -9.00132e-05
0.000500769 -0.000151498 -0.000149687 -8.44004e-05
0.000755259 -0.000227722 -0.000226087 -7.50361e-05
0.000507561 -0.000153571 -0.00015171 -8.44025e-05
0.000504165 -0.000152535 -0.000150699 -8.44015e-05
0.000251428 -7.67784e-05 -7.485e-05 -9.00122e-05
0.000248054 -7.57291e-05 -7.38536e-05 -9.00102e-05
0.000739942 -0.00022308 -0.000221512 -7.5033e-05
0.000750153 -0.000226175 -0.000224562 -7.5035e-05
0.000249741 -7.62537e-05 -7.43518e-05 -9.00112e-05
0.000493977 -0.000149426 -0.000147665 -8.43984e-05
0.000745048 -0.000224628 -0.000223037 -7.5034e-05
0.000500769 -0.000151498 -0.000149687 -8.44004e-05
0.000497373 -0.000150462 -0.000148676 -8.43994e-05
0.000248054 -7.57291e-05 -7.38536e-05 -9.00102e-05
0.000244679 -7.46801e-05 -7.28569e-05 -9.00082e-05
0.000729729 -0.000219986 -0.000218461 -7.5031e-05
0.000739942 -0.00022308 -0.000221512 -7.5033e-05
0.000246367 -7.52045e-05 -7.33553e-05 -9.00092e-05
0.000487184 -0.000147354 -0.000145641 -8.43963e-05
0.000734836 -0.000221533 -0.000219987 -7.5032e-05
0.000493977 -0.000149426 -0.000147665 -8.43984e-05
0.00049058 -0.00014839 -0.000146653 -8.43973e-05
0.000244679 -7.46801e-05 -7.28569e-05 -9.00082e-05
0.000241304 -7.36315e-05 -7.18597e-05 -9.00062e-05
0.000719517 -0.000216892 -0.000215411 -7.5029e-05
0.000729729 -0.000219986 -0.000218461 -7.5031e-05
0.000242992 -7.41557e-05 -7.23583e-05 -9.00072e-05
0.00048039 -0.000145282 -0.000143618 -8.43942e-05
0.000724623 -0.000218439 -0.000216936 -7.503e-05
0.000487184 -0.000147354 -0.000145641 -8.43963e-05
0.000483787 -0.000146318 -0.00014463 -8.43953e-05
0.000241304 -7.36315e-05 -7.18597e-05 -9.00062e-05
0.000237928 -7.25832e-05 -7.08623e-05 -9.00042e-05
0.000709304 -0.000213799 -0.000212359 -7.5027e-05
0.000719517 -0.000216892 -0.000215411 -7.5029e-05
0.000239616 -7.31073e-05 -7.1361e-05 -9.00052e-05
0.000473597 -0.00014321 -0.000141594 -8.43922e-05
0.000714411 -0.000215345 -0.000213885 -7.5028e-05
0.00048039 -0.000145282 -0.000143618 -8.43942e-05
0.000476994 -0.000144246 -0.000142606 -8.43932e-05
0.000237928 -7.25832e-05 -7.08623e-05 -9.00042e-05
0.000234552 -7.15353e-05 -6.98644e-05 -9.00023e-05
0.000699091 -0.000210705 -0.000209308 -7.50251e-05
0.000709304 -0.000213799 -0.000212359 -7.5027e-05
0.00023624 -7.20592e-05 -7.03634e-05 -9.00033e-05
0.000466803 -0.000141139 -0.00013957 -8.43902e-05
0.000704198 -0.000212252 -0.000210834 -7.50261e-05
0.000473597 -0.00014321 -0.000141594 -8.43922e-05
0.0004702 -0.000142175 -0.000140582 -8.43912e-05
0.000234552 -7.15353e-05 -6.98644e-05 -9.00023e-05
0.000231175 -7.04878e-05 -6.88662e-05 -9.00004e-05
0.000688877 -0.000207613 -0.000206256 -7.50231e-05
0.000699091 -0.000210705 -0.000209308 -7.50251e-05
0.000232864 -7.10115e-05 -6.93653e-05 -9.00013e-05
0.000460008 -0.000139069 -0.000137545 -8.43882e-05
0.000693984 -0.000209159 -0.000207782 -7.50241e-05
0.000466803 -0.000141139 -0.00013957 -8.43902e-05
0.000463405 -0.000140104 -0.000138558 -8.43892e-05
0.000231175 -7.04878e-05 -6.88662e-05 -9.00004e-05
0.000227798 -6.94406e-05 -6.78675e-05 -8.99985e-05
0.000678664 -0.00020452 -0.000203204 -7.50212e-05
0.000688877 -0.000207613 -0.000206256 -7.50231e-05
0.000229487 -6.99641e-05 -6.83669e-05 -8.99994e-05
0.000453213 -0.000136998 -0.000135521 -8.43862e-05
0.000683771 -0.000206066 -0.00020473 -7.50222e-05
0.000460008 -0.000139069 -0.000137545 -8.43882e-05
0.000456611 -0.000138033 -0.000136533 -8.43872e-05
0.000227798 -6.94406e-05 -6.78675e-05 -8.99985e-05
0.00022442 -6.83937e-05 -6.68686e-05 -8.99966e-05
0.00066845 -0.000201428 -0.000200152 -7.50193e-05
0.000678664 -0.00020452 -0.000203204 -7.50212e-05
0.000226109 -6.89171e-05 -6.73681e-05 -8.99975e-05
0.000446418 -0.000134928 -0.000133496 -8.43843e-05
0.000673557 -0.000202974 -0.000201678 -7.50202e-05
0.000453213 -0.000136998 -0.000135521 -8.43862e-05
0.000449815 -0.000135963 -0.000134508 -8.43852e-05
0.00022442 -6.83937e-05 -6.68686e-05 -8.99966e-05
0.000221042 -6.73473e-05 -6.58692e-05 -8.99947e-05
0.000658235 -0.000198336 -0.0001971 -7.50174e-05
0.00066845 -0.000201428 -0.000200152 -7.50193e-05
0.000222731 -6.78705e-05 -6.63689e-05 -8.99956e-05
0.000439622 -0.000132858 -0.00013147 -8.43823e-05
0.000663342 -0.000199882 -0.000198626 -7.50183e-05
0.000446418 -0.000134928 -0.000133496 -8.43843e-05
0.00044302 -0.000133893 -0.000132483 -8.43833e-05
0.000221042 -6.73473e-05 -6.58692e-05 -8.99947e-05
0.000217663 -6.63011e-05 -6.48695e-05 -8.99929e-05
0.00064802 -0.000195244 -0.000194047 -7.50155e-05
0.000658235 -0.000198336 -0.0001971 -7.50174e-05
0.000219353 -6.68241e-05 -6.53694e-05 -8.99938e-05
0.000432825 -0.000130789 -0.000129444 -8.43804e-05
0.000653128 -0.00019679 -0.000195573 -7.50164e-05
0.000439622 -0.000132858 -0.00013147 -8.43823e-05
0.000436224 -0.000131824 -0.000130457 -8.43813e-05
0.000217663 -6.63011e-05 -6.48695e-05 -8.99929e-05
0.000214284 -6.52554e-05 -6.38693e-05 -8.9991e-05
0.000637805 -0.000192153 -0.000190994 -7.50136e-05
0.00064802 -0.000195244 -0.000194047 -7.50155e-05
0.000215974 -6.57782e-05 -6.43694e-05 -8.99919e-05
0.000426029 -0.00012872 -0.000127418 -8.43785e-05
0.000642913 -0.000193699 -0.00019252 -7.50146e-05
0.000432825 -0.000130789 -0.000129444 -8.43804e-05
0.000429427 -0.000129754 -0.000128431 -8.43794e-05
0.000214284 -6.52554e-05 -6.38693e-05 -8.9991e-05
0.000210904 -6.42099e-05 -6.28688e-05 -8.99892e-05
0.00062759 -0.000189062 -0.00018794 -7.50118e-05
0.000637805 -0.000192153 -0.000190994 -7.50136e-05
0.000212594 -6.47326e-05 -6.33691e-05 -8.99901e-05
0.000419232 -0.000126651 -0.000125392 -8.43766e-05
0.000632698 -0.000190607 -0.000189467 -7.50127e-05
0.000426029 -0.00012872 -0.000127418 -8.43785e-05
0.00042263 -0.000127685 -0.000126405 -8.43775e-05
0.000210904 -6.42099e-05 -6.28688e-05 -8.99892e-05
0.000207524 -6.31649e-05 -6.1868e-05 -8.99874e-05
0.000617374 -0.000185971 -0.000184887 -7.501e-05
0.00062759 -0.000189062 -0.00018794 -7.50118e-05
0.000209214 -6.36874e-05 -6.23685e-05 -8.99883e-05
0.000412434 -0.000124583 -0.000123365 -8.43747e-05
0.000622482 -0.000187517 -0.000186414 -7.50109e-05
0.000419232 -0.000126651 -0.000125392 -8.43766e-05
0.000415833 -0.000125617 -0.000124378 -8.43757e-05
0.000207524 -6.31649e-05 -6.1868e-05 -8.99874e-05
0.000204143 -6.21202e-05 -6.08667e-05 -8.99857e-05
0.000607158 -0.000182881 -0.000181833 -7.50082e-05
0.000617374 -0.000185971 -0.000184887 -7.501e-05
0.000205833 -6.26425e-05 -6.13674e-05 -8.99865e-05
0.000405636 -0.000122515 -0.000121338 -8.43729e-05
0.000612266 -0.000184426 -0.00018336 -7.50091e-05
0.000412434 -0.000124583 -0.000123365 -8.43747e-05
0.000409035 -0.000123549 -0.000122351 -8.43738e-05
0.000204143 -6.21202e-05 -6.08667e-05 -8.99857e-05
0.000200761 -6.10758e-05 -5.98651e-05 -8.99839e-05
0.000596941 -0.000179791 -0.000178779 -7.50064e-05
0.000607158 -0.000182881 -0.000181833 -7.50082e-05
0.000202452 -6.1598e-05 -6.0366e-05 -8.99848e-05
0.000398837 -0.000120447 -0.00011931 -8.4371e-05
0.00060205 -0.000181336 -0.000180306 -7.50073e-05
0.000405636 -0.000122515 -0.000121338 -8.43729e-05
0.000402237 -0.000121481 -0.000120324 -8.4372e-05
0.000200761 -6.10758e-05 -5.98651e-05 -8.99839e-05
0.000197379 -6.00318e-05 -5.88631e-05 -8.99822e-05
0.000586725 -0.000176702 -0.000175724 -7.50046e-05
0.000596941 -0.000179791 -0.000178779 -7.50064e-05
0.00019907 -6.05538e-05 -5.93642e-05 -8.99831e-05
0.000392038 -0.00011838 -0.000117282 -8.43692e-05
0.000591833 -0.000178246 -0.000177252 -7.50055e-05
0.000398837 -0.000120447 -0.00011931 -8.4371e-05
0.000395438 -0.000119414 -0.000118296 -8.43701e-05
0.000197379 -6.00318e-05 -5.88631e-05 -8.99822e-05
0.000193997 -5.89882e-05 -5.78608e-05 -8.99805e-05
0.000576508 -0.000173612 -0.000172669 -7.50028e-05
0.000586725 -0.000176702 -0.000175724 -7.50046e-05
0.000195688 -5.951e-05 -5.8362e-05 -8.99813e-05
0.000385239 -0.000116313 -0.000115254 -8.43674e-05
0.000581616 -0.000175157 -0.000174197 -7.50037e-05
0.000392038 -0.00011838 -0.000117282 -8.43692e-05
0.000388639 -0.000117346 -0.000116268 -8.43683e-05
0.000193997 -5.89882e-05 -5.78608e-05 -8.99805e-05
0.000190614 -5.79449e-05 -5.6858e-05 -8.99788e-05
0.00056629 -0.000170523 -0.000169614 -7.50011e-05
0.000576508 -0.000173612 -0.000172669 -7.50028e-05
0.000192305 -5.84665e-05 -5.73594e-05 -8.99796e-05
0.000378439 -0.000114246 -0.000113226 -8.43657e-05
0.000571399 -0.000172068 -0.000171142 -7.50019e-05
0.000385239 -0.000116313 -0.000115254 -8.43674e-05
0.000381839 -0.00011528 -0.00011424 -8.43666e-05
0.000190614 -5.79449e-05 -5.6858e-05 -8.99788e-05
0.00018723 -5.6902e-05 -5.58549e-05 -8.99772e-05
0.000556072 -0.000167435 -0.000166559 -7.49994e-05
0.00056629 -0.000170523 -0.000169614 -7.50011e-05
0.000188922 -5.74234e-05 -5.63565e-05 -8.9978e-05
0.000371639 -0.00011218 -0.000111197 -8.43639e-05
0.000561181 -0.000168979 -0.000168087 -7.50002e-05
0.000378439 -0.000114246 -0.000113226 -8.43657e-05
0.000375039 -0.000113213 -0.000112211 -8.43648e-05
0.00018723 -5.6902e-05 -5.58549e-05 -8.99772e-05
0.000183846 -5.58594e-05 -5.48514e-05 -8.99755e-05
0.000545854 -0.000164346 -0.000163503 -7.49977e-05
0.000556072 -0.000167435 -0.000166559 -7.49994e-05
0.000185538 -5.63806e-05 -5.53532e-05 -8.99763e-05
0.000364838 -0.000110114 -0.000109167 -8.43622e-05
0.000550963 -0.00016589 -0.000165031 -7.49985e-05
0.000371639 -0.00011218 -0.000111197 -8.43639e-05
0.000368239 -0.000111147 -0.000110182 -8.43631e-05
0.000183846 -5.58594e-05 -5.48514e-05 -8.99755e-05
0.000180461 -5.48171e-05 -5.38475e-05 -8.99739e-05
0.000535636 -0.000161258 -0.000160447 -7.4996e-05
0.000545854 -0.000164346 -0.000163503 -7.49977e-05
0.000182154 -5.53382e-05 -5.43495e-05 -8.99747e-05
0.000358037 -0.000108049 -0.000107138 -8.43605e-05
0.000540745 -0.000162802 -0.000161975 -7.49968e-05
0.000364838 -0.000110114 -0.000109167 -8.43622e-05
0.000361438 -0.000109081 -0.000108153 -8.43614e-05
0.000180461 -5.48171e-05 -5.38475e-05 -8.99739e-05
0.000177076 -5.37752e-05 -5.28432e-05 -8.99723e-05
0.000525417 -0.00015817 -0.000157391 -7.49943e-05
0.000535636 -0.000161258 -0.000160447 -7.4996e-05
0.000178769 -5.42961e-05 -5.33454e-05 -8.99731e-05
0.000351236 -0.000105983 -0.000105108 -8.43588e-05
0.000530526 -0.000159714 -0.000158919 -7.49951e-05
0.000358037 -0.000108049 -0.000107138 -8.43605e-05
0.000354636 -0.000107016 -0.000106123 -8.43597e-05
0.000177076 -5.37752e-05 -5.28432e-05 -8.99723e-05
0.00017369 -5.27337e-05 -5.18386e-05 -8.99707e-05
0.000515197 -0.000155083 -0.000154335 -7.49927e-05
0.000525417 -0.00015817 -0.000157391 -7.49943e-05
0.000175383 -5.32544e-05 -5.23409e-05 -8.99715e-05
0.000344433 -0.000103919 -0.000103078 -8.43572e-05
0.000520307 -0.000156627 -0.000155863 -7.49935e-05
0.000351236 -0.000105983 -0.000105108 -8.43588e-05
0.000347835 -0.000104951 -0.000104093 -8.4358e-05
0.00017369 -5.27337e-05 -5.18386e-05 -8.99707e-05
0.000170304 -5.16925e-05 -5.08336e-05 -8.99692e-05
0.000504978 -0.000151996 -0.000151278 -7.4991e-05
0.000515197 -0.000155083 -0.000154335 -7.49927e-05
0.000171997 -5.22131e-05 -5.13361e-05 -8.997e-05
0.000337631 -0.000101854 -0.000101047 -8.43555e-05
0.000510088 -0.00015354 -0.000152806 -7.49918e-05
0.000344433 -0.000103919 -0.000103078 -8.43572e-05
0.000341032 -0.000102886 -0.000102063 -8.43563e-05
0.000170304 -5.16925e-05 -5.08336e-05 -8.99692e-05
0.000166917 -5.06517e-05 -4.98282e-05 -8.99677e-05
0.000494758 -0.000148909 -0.000148221 -7.49894e-05
0.000504978 -0.000151996 -0.000151278 -7.4991e-05
0.000168611 -5.11721e-05 -5.03309e-05 -8.99684e-05
0.000330828 -9.97899e-05 -9.90163e-05 -8.43539e-05
0.000499868 -0.000150453 -0.000149749 -7.49902e-05
0.000337631 -0.000101854 -0.000101047 -8.43555e-05
0.00033423 -0.000100822 -0.000100032 -8.43547e-05
0.000166917 -5.06517e-05 -4.98282e-05 -8.99677e-05
0.00016353 -4.96112e-05 -4.88224e-05 -8.99662e-05
0.000484537 -0.000145823 -0.000145163 -7.49878e-05
0.000494758 -0.000148909 -0.000148221 -7.49894e-05
0.000165224 -5.01314e-05 -4.93253e-05 -8.99669e-05
0.000324025 -9.7726e-05 -9.69851e-05 -8.43523e-05
0.000489648 -0.000147366 -0.000146692 -7.49886e-05
0.000330828 -9.97899e-05 -9.90163e-05 -8.43539e-05
0.000327426 -9.87579e-05 -9.80007e-05 -8.43531e-05
0.00016353 -4.96112e-05 -4.88224e-05 -8.99662e-05
0.000160142 -4.85711e-05 -4.78162e-05 -8.99647e-05
0.000474317 -0.000142737 -0.000142106 -7.49863e-05
0.000484537 -0.000145823 -0.000145163 -7.49878e-05
0.000161836 -4.90911e-05 -4.83194e-05 -8.99654e-05
0.000317221 -9.56625e-05 -9.49535e-05 -8.43507e-05
0.000479427 -0.00014428 -0.000143635 -7.4987e-05
0.000324025 -9.7726e-05 -9.69851e-05 -8.43523e-05
0.000320623 -9.66942e-05 -9.59693e-05 -8.43515e-05
0.000160142 -4.85711e-05 -4.78162e-05 -8.99647e-05
0.000156754 -4.75313e-05 -4.68097e-05 -8.99633e-05
0.000464095 -0.000139651 -0.000139048 -7.49847e-05
0.000474317 -0.000142737 -0.000142106 -7.49863e-05
0.000158448 -4.80512e-05 -4.7313e-05 -8.9964e-05
0.000310416 -9.35994e-05 -9.29215e-05 -8.43492e-05
0.000469206 -0.000141194 -0.000140577 -7.49855e-05
0.000317221 -9.56625e-05 -9.49535e-05 -8.43507e-05
0.000313818 -9.46309e-05 -9.39375e-05 -8.435e-05
0.000156754 -4.75313e-05 -4.68097e-05 -8.99633e-05
0.000153365 -4.64919e-05 -4.58028e-05 -8.99618e-05
0.000453874 -0.000136565 -0.000135989 -7.49832e-05
0.000464095 -0.000139651 -0.000139048 -7.49847e-05
0.00015506 -4.70116e-05 -4.63063e-05 -8.99626e-05
0.000303611 -9.15365e-05 -9.08892e-05 -8.43477e-05
0.000458985 -0.000138108 -0.000137519 -7.49839e-05
0.000310416 -9.35994e-05 -9.29215e-05 -8.43492e-05
0.000307014 -9.25679e-05 -9.19054e-05 -8.43484e-05
0.000153365 -4.64919e-05 -4.58028e-05 -8.99618e-05
0.000149976 -4.54528e-05 -4.47955e-05 -8.99604e-05
0.000443652 -0.00013348 -0.000132931 -7.49817e-05
0.000453874 -0.000136565 -0.000135989 -7.49832e-05
0.00015167 -4.59723e-05 -4.52992e-05 -8.99611e-05
0.000296806 -8.9474e-05 -8.88566e-05 -8.43462e-05
0.000448763 -0.000135023 -0.00013446 -7.49824e-05
0.000303611 -9.15365e-05 -9.08892e-05 -8.43477e-05
0.000300209 -9.05052e-05 -8.9873e-05 -8.43469e-05
0.000149976 -4.54528e-05 -4.47955e-05 -8.99604e-05
0.000146586 -4.44141e-05 -4.37878e-05 -8.99591e-05
0.00043343 -0.000130395 -0.000129872 -7.49802e-05
0.000443652 -0.00013348 -0.000132931 -7.49817e-05
0.000148281 -4.49334e-05 -4.42917e-05 -8.99598e-05
0.00029 -8.74119e-05 -8.68236e-05 -8.43447e-05
0.000438541 -0.000131938 -0.000131401 -7.49809e-05
0.000296806 -8.9474e-05 -8.88566e-05 -8.43462e-05
0.000293403 -8.84429e-05 -8.78402e-05 -8.43454e-05
0.000146586 -4.44141e-05 -4.37878e-05 -8.99591e-05
0.000143195 -4.33757e-05 -4.27797e-05 -8.99577e-05
0.000423207 -0.000127311 -0.000126813 -7.49787e-05
0.00043343 -0.000130395 -0.000129872 -7.49802e-05
0.00014489 -4.38949e-05 -4.32838e-05 -8.99584e-05
0.000283194 -8.53501e-05 -8.47903e-05 -8.43432e-05
0.000428319 -0.000128853 -0.000128342 -7.49795e-05
0.00029 -8.74119e-05 -8.68236e-05 -8.43447e-05
0.000286597 -8.6381e-05 -8.5807e-05 -8.43439e-05
0.000143195 -4.33757e-05 -4.27797e-05 -8.99577e-05
0.000139804 -4.23377e-05 -4.17713e-05 -8.99564e-05
0.000412984 -0.000124227 -0.000123753 -7.49773e-05
0.000423207 -0.000127311 -0.000126813 -7.49787e-05
0.0001415 -4.28567e-05 -4.22756e-05 -8.99571e-05
0.000276387 -8.32886e-05 -8.27566e-05 -8.43418e-05
0.000418096 -0.000125769 -0.000125283 -7.4978e-05
0.000283194 -8.53501e-05 -8.47903e-05 -8.43432e-05
0.000279791 -8.43193e-05 -8.37735e-05 -8.43425e-05
0.000139804 -4.23377e-05 -4.17713e-05 -8.99564e-05
0.000136412 -4.13e-05 -4.07625e-05 -8.99551e-05
0.000402761 -0.000121143 -0.000120694 -7.49759e-05
0.000412984 -0.000124227 -0.000123753 -7.49773e-05
0.000138108 -4.18188e-05 -4.12669e-05 -8.99557e-05
0.00026958 -8.12275e-05 -8.07226e-05 -8.43404e-05
0.000407873 -0.000122684 -0.000122223 -7.49766e-05
0.000276387 -8.32886e-05 -8.27566e-05 -8.43418e-05
0.000272984 -8.2258e-05 -8.17397e-05 -8.43411e-05
0.000136412 -4.13e-05 -4.07625e-05 -8.99551e-05
0.00013302 -4.02627e-05 -3.97533e-05 -8.99538e-05
0.000392537 -0.000118059 -0.000117633 -7.49745e-05
0.000402761 -0.000121143 -0.000120694 -7.49759e-05
0.000134716 -4.07813e-05 -4.02579e-05 -8.99545e-05
0.000262773 -7.91667e-05 -7.86882e-05 -8.4339e-05
0.000397649 -0.000119601 -0.000119164 -7.49752e-05
0.00026958 -8.12275e-05 -8.07226e-05 -8.43404e-05
0.000266176 -8.0197e-05 -7.97055e-05 -8.43397e-05
0.00013302 -4.02627e-05 -3.97533e-05 -8.99538e-05
0.000129628 -3.92257e-05 -3.87437e-05 -8.99526e-05
0.000382313 -0.000114976 -0.000114573 -7.49731e-05
0.000392537 -0.000118059 -0.000117633 -7.49745e-05
0.000131324 -3.97442e-05 -3.92485e-05 -8.99532e-05
0.000255964 -7.71062e-05 -7.66535e-05 -8.43376e-05
0.000387425 -0.000116517 -0.000116103 -7.49738e-05
0.000262773 -7.91667e-05 -7.86882e-05 -8.4339e-05
0.000259369 -7.81364e-05 -7.76709e-05 -8.43383e-05
0.000129628 -3.92257e-05 -3.87437e-05 -8.99526e-05
0.000126234 -3.81891e-05 -3.77337e-05 -8.99514e-05
0.000372088 -0.000111893 -0.000111512 -7.49717e-05
0.000382313 -0.000114976 -0.000114573 -7.49731e-05
0.000127931 -3.87073e-05 -3.82388e-05 -8.9952e-05
0.000249156 -7.50461e-05 -7.46184e-05 -8.43363e-05
0.000377201 -0.000113434 -0.000113043 -7.49724e-05
0.000255964 -7.71062e-05 -7.66535e-05 -8.43376e-05
0.00025256 -7.60761e-05 -7.5636e-05 -8.4337e-05
0.000126234 -3.81891e-05 -3.77337e-05 -8.99514e-05
0.000122841 -3.71528e-05 -3.67234e-05 -8.99502e-05
0.000361863 -0.00010881 -0.000108451 -7.49704e-05
0.000372088 -0.000111893 -0.000111512 -7.49717e-05
0.000124538 -3.76709e-05 -3.72286e-05 -8.99508e-05
0.000242347 -7.29863e-05 -7.2583e-05 -8.4335e-05
0.000366976 -0.000110351 -0.000109982 -7.4971e-05
0.000249156 -7.50461e-05 -7.46184e-05 -8.43363e-05
0.000245751 -7.40161e-05 -7.36008e-05 -8.43356e-05
0.000122841 -3.71528e-05 -3.67234e-05 -8.99502e-05
0.000119446 -3.61168e-05 -3.57126e-05 -8.9949e-05
0.000351638 -0.000105727 -0.00010539 -7.49691e-05
0.000361863 -0.00010881 -0.000108451 -7.49704e-05
0.000121144 -3.66348e-05 -3.62181e-05 -8.99496e-05
0.000235537 -7.09268e-05 -7.05473e-05 -8.43337e-05
0.000356751 -0.000107269 -0.000106921 -7.49697e-05
0.000242347 -7.29863e-05 -7.2583e-05 -8.4335e-05
0.000238942 -7.19565e-05 -7.15652e-05 -8.43343e-05
0.000119446 -3.61168e-05 -3.57126e-05 -8.9949e-05
0.000116052 -3.50813e-05 -3.47015e-05 -8.99478e-05
0.000341412 -0.000102645 -0.000102329 -7.49678e-05
0.000351638 -0.000105727 -0.00010539 -7.49691e-05
0.000117749 -3.5599e-05 -3.52071e-05 -8.99484e-05
0.000228727 -6.88677e-05 -6.85111e-05 -8.43324e-05
0.000346525 -0.000104186 -0.000103859 -7.49684e-05
0.000235537 -7.09268e-05 -7.05473e-05 -8.43337e-05
0.000232132 -6.98972e-05 -6.95292e-05 -8.43331e-05
0.000116052 -3.50813e-05 -3.47015e-05 -8.99478e-05
0.000112656 -3.4046e-05 -3.369e-05 -8.99467e-05
0.000331186 -9.95636e-05 -9.92666e-05 -7.49665e-05
0.000341412 -0.000102645 -0.000102329 -7.49678e-05
0.000114354 -3.45636e-05 -3.41958e-05 -8.99473e-05
0.000221916 -6.68089e-05 -6.64747e-05 -8.43312e-05
0.000336299 -0.000101104 -0.000100798 -7.49671e-05
0.000228727 -6.88677e-05 -6.85111e-05 -8.43324e-05
0.000225322 -6.78383e-05 -6.74929e-05 -8.43318e-05
0.000112656 -3.4046e-05 -3.369e-05 -8.99467e-05
0.00010926 -3.30112e-05 -3.26781e-05 -8.99457e-05
0.000320959 -9.64821e-05 -9.62044e-05 -7.49653e-05
0.000331186 -9.95636e-05 -9.92666e-05 -7.49665e-05
0.000110958 -3.35286e-05 -3.31841e-05 -8.99462e-05
0.000215105 -6.47505e-05 -6.44378e-05 -8.433e-05
0.000326072 -9.80228e-05 -9.77356e-05 -7.49659e-05
0.000221916 -6.68089e-05 -6.64747e-05 -8.43312e-05
0.000218511 -6.57797e-05 -6.54563e-05 -8.43306e-05
0.00010926 -3.30112e-05 -3.26781e-05 -8.99457e-05
0.000105864 -3.19767e-05 -3.16659e-05 -8.99446e-05
0.000310732 -9.34009e-05 -9.31419e-05 -7.49641e-05
0.000320959 -9.64821e-05 -9.62044e-05 -7.49653e-05
0.000107562 -3.24939e-05 -3.21721e-05 -8.99451e-05
0.000208294 -6.26924e-05 -6.24006e-05 -8.43288e-05
0.000315846 -9.49414e-05 -9.46732e-05 -7.49647e-05
0.000215105 -6.47505e-05 -6.44378e-05 -8.433e-05
0.0002117 -6.37214e-05 -6.34193e-05 -8.43294e-05
0.000105864 -3.19767e-05 -3.16659e-05 -8.99446e-05
0.000102467 -3.09425e-05 -3.06532e-05 -8.99436e-05
0.000300505 -9.032e-05 -9.00791e-05 -7.49629e-05
0.000310732 -9.34009e-05 -9.31419e-05 -7.49641e-05
0.000104165 -3.14595e-05 -3.11596e-05 -8.99441e-05
0.000201482 -6.06347e-05 -6.03631e-05 -8.43277e-05
0.000305618 -9.18604e-05 -9.16105e-05 -7.49635e-05
0.000208294 -6.26924e-05 -6.24006e-05 -8.43288e-05
0.000204888 -6.16635e-05 -6.13819e-05 -8.43283e-05
0.000102467 -3.09425e-05 -3.06532e-05 -8.99436e-05
9.90692e-05 -2.99088e-05 -2.96402e-05 -8.99426e-05
0.000290277 -8.72395e-05 -8.70159e-05 -7.49618e-05
0.000300505 -9.032e-05 -9.00791e-05 -7.49629e-05
0.000100768 -3.04256e-05 -3.01467e-05 -8.99431e-05
0.000194669 -5.85773e-05 -5.83252e-05 -8.43266e-05
0.000295391 -8.87797e-05 -8.85475e-05 -7.49624e-05
0.000201482 -6.06347e-05 -6.03631e-05 -8.43277e-05
0.000198076 -5.9606e-05 -5.93442e-05 -8.43272e-05
9.90692e-05 -2.99088e-05 -2.96402e-05 -8.99426e-05
9.56711e-05 -2.88754e-05 -2.86267e-05 -8.99417e-05
0.000280048 -8.41593e-05 -8.39524e-05 -7.49608e-05
0.000290277 -8.72395e-05 -8.70159e-05 -7.49618e-05
9.73702e-05 -2.9392e-05 -2.91335e-05 -8.99421e-05
0.000187857 -5.65203e-05 -5.6287e-05 -8.43256e-05
0.000285163 -8.56993e-05 -8.54842e-05 -7.49613e-05
0.000194669 -5.85773e-05 -5.83252e-05 -8.43266e-05
0.000191263 -5.75488e-05 -5.73061e-05 -8.43261e-05
9.56711e-05 -2.88754e-05 -2.86267e-05 -8.99417e-05
9.22726e-05 -2.78424e-05 -2.76129e-05 -8.99408e-05
0.00026982 -8.10794e-05 -8.08887e-05 -7.49598e-05
0.000280048 -8.41593e-05 -8.39524e-05 -7.49608e-05
9.39719e-05 -2.83589e-05 -2.81199e-05 -8.99412e-05
0.000181043 -5.44637e-05 -5.42484e-05 -8.43246e-05
0.000274934 -8.26193e-05 -8.24206e-05 -7.49603e-05
0.000187857 -5.65203e-05 -5.6287e-05 -8.43256e-05
0.00018445 -5.54919e-05 -5.52677e-05 -8.43251e-05
9.22726e-05 -2.78424e-05 -2.76129e-05 -8.99408e-05
8.88736e-05 -2.68098e-05 -2.65988e-05 -8.99399e-05
0.000259591 -7.79998e-05 -7.78246e-05 -7.49589e-05
0.00026982 -8.10794e-05 -8.08887e-05 -7.49598e-05
9.05731e-05 -2.73261e-05 -2.71059e-05 -8.99403e-05
0.000174229 -5.24074e-05 -5.22094e-05 -8.43237e-05
0.000264705 -7.95396e-05 -7.93567e-05 -7.49593e-05
0.000181043 -5.44637e-05 -5.42484e-05 -8.43246e-05
0.000177636 -5.34355e-05 -5.32289e-05 -8.43242e-05
8.88736e-05 -2.68098e-05 -2.65988e-05 -8.99399e-05
8.54741e-05 -2.57777e-05 -2.55842e-05 -8.99391e-05
0.000249361 -7.49206e-05 -7.47602e-05 -7.49581e-05
0.000259591 -7.79998e-05 -7.78246e-05 -7.49589e-05
8.71739e-05 -2.62937e-05 -2.60915e-05 -8.99395e-05
0.000167415 -5.03515e-05 -5.01701e-05 -8.43229e-05
0.000254476 -7.64602e-05 -7.62924e-05 -7.49585e-05
0.000174229 -5.24074e-05 -5.22094e-05 -8.43237e-05
0.000170822 -5.13794e-05 -5.11898e-05 -8.43233e-05
8.54741e-05 -2.57777e-05 -2.55842e-05 -8.99391e-05
8.20742e-05 -2.47459e-05 -2.45693e-05 -8.99383e-05
0.000239131 -7.18417e-05 -7.16955e-05 -7.49573e-05
0.000249361 -7.49206e-05 -7.47602e-05 -7.49581e-05
8.37742e-05 -2.52617e-05 -2.50768e-05 -8.99387e-05
0.0001606 -4.8296e-05 -4.81305e-05 -8.43221e-05
0.000244246 -7.33811e-05 -7.32279e-05 -7.49577e-05
0.000167415 -5.03515e-05 -5.01701e-05 -8.43229e-05
0.000164008 -4.93237e-05 -4.91503e-05 -8.43225e-05
8.20742e-05 -2.47459e-05 -2.45693e-05 -8.99383e-05
7.86739e-05 -2.37144e-05 -2.35541e-05 -8.99375e-05
0.000228901 -6.87632e-05 -6.86305e-05 -7.49567e-05
0.000239131 -7.18417e-05 -7.16955e-05 -7.49573e-05
8.03741e-05 -2.42301e-05 -2.40617e-05 -8.99379e-05
0.000153785 -4.62408e-05 -4.60905e-05 -8.43213e-05
0.000234016 -7.03024e-05 -7.0163e-05 -7.4957e-05
0.0001606 -4.8296e-05 -4.81305e-05 -8.43221e-05
0.000157193 -4.72684e-05 -4.71105e-05 -8.43217e-05
7.86739e-05 -2.37144e-05 -2.35541e-05 -8.99375e-05
7.52731e-05 -2.26832e-05 -2.25385e-05 -8.99367e-05
0.000218671 -6.56849e-05 -6.55653e-05 -7.4956e-05
0.000228901 -6.87632e-05 -6.86305e-05 -7.49567e-05
7.69736e-05 -2.31988e-05 -2.30463e-05 -8.99371e-05
0.00014697 -4.4186e-05 -4.40503e-05 -8.43205e-05
0.000223786 -6.7224e-05 -6.70979e-05 -7.49563e-05
0.000153785 -4.62408e-05 -4.60905e-05 -8.43213e-05
0.000150378 -4.52134e-05 -4.50705e-05 -8.43209e-05
7.52731e-05 -2.26832e-05 -2.25385e-05 -8.99367e-05
7.18719e-05 -2.16521e-05 -2.15227e-05 -8.99357e-05
0.00020844 -6.26069e-05 -6.24998e-05 -7.49553e-05
0.000218671 -6.56849e-05 -6.55653e-05 -7.4956e-05
7.35726e-05 -2.21677e-05 -2.20307e-05 -8.99362e-05
0.000140154 -4.21313e-05 -4.20099e-05 -8.43196e-05
0.000213555 -6.41459e-05 -6.40326e-05 -7.49557e-05
0.00014697 -4.4186e-05 -4.40503e-05 -8.43205e-05
0.000143562 -4.31586e-05 -4.30301e-05 -8.43201e-05
7.18719e-05 -2.16521e-05 -2.15227e-05 -8.99357e-05
6.847e-05 -2.06209e-05 -2.05068e-05 -8.99345e-05
0.000198209 -5.95289e-05 -5.94342e-05 -7.49544e-05
0.00020844 -6.26069e-05 -6.24998e-05 -7.49553e-05
7.0171e-05 -2.11366e-05 -2.10148e-05 -8.99352e-05
0.000133338 -4.00766e-05 -3.99693e-05 -8.43185e-05
0.000203324 -6.10679e-05 -6.0967e-05 -7.49549e-05
0.000140154 -4.21313e-05 -4.20099e-05 -8.43196e-05
0.000136746 -4.11039e-05 -4.09896e-05 -8.43191e-05
6.847e-05 -2.06209e-05 -2.05068e-05 -8.99345e-05
6.50673e-05 -1.95891e-05 -1.94907e-05 -8.9933e-05
0.000187977 -5.64507e-05 -5.63686e-05 -7.4953e-05
0.000198209 -5.95289e-05 -5.94342e-05 -7.49544e-05
6.67688e-05 -2.01051e-05 -1.99987e-05 -8.99338e-05
0.000126521 -3.80213e-05 -3.79286e-05 -8.43168e-05
0.000193093 -5.79899e-05 -5.79014e-05 -7.49538e-05
0.000133338 -4.00766e-05 -3.99693e-05 -8.43185e-05
0.00012993 -3.9049e-05 -3.89489e-05 -8.43177e-05
6.50673e-05 -1.95891e-05 -1.94907e-05 -8.9933e-05
6.16633e-05 -1.85558e-05 -1.84747e-05 -8.99312e-05
0.000177746 -5.33716e-05 -5.33031e-05 -7.49505e-05
0.000187977 -5.64507e-05 -5.63686e-05 -7.4953e-05
6.33655e-05 -1.90727e-05 -1.89826e-05 -8.99322e-05
0.000119704 -3.59648e-05 -3.58881e-05 -8.43144e-05
0.000182862 -5.49113e-05 -5.48358e-05 -7.49519e-05
0.000126521 -3.80213e-05 -3.79286e-05 -8.43168e-05
0.000123113 -3.69933e-05 -3.69083e-05 -8.43157e-05
6.16633e-05 -1.85558e-05 -1.84747e-05 -8.99312e-05
5.82568e-05 -1.75198e-05 -1.74587e-05 -8.99293e-05
0.000167513 -5.02903e-05 -5.02381e-05 -7.49463e-05
0.000177746 -5.33716e-05 -5.33031e-05 -7.49505e-05
5.99605e-05 -1.80383e-05 -1.79667e-05 -8.99303e-05
0.000112884 -3.39055e-05 -3.38479e-05 -8.4311e-05
0.000172629 -5.18314e-05 -5.17705e-05 -7.49487e-05
0.000119704 -3.59648e-05 -3.58881e-05 -8.43144e-05
0.000116294 -3.49357e-05 -3.48679e-05 -8.43129e-05
5.82568e-05 -1.75198e-05 -1.74587e-05 -8.99293e-05
5.48464e-05 -1.64788e-05 -1.64433e-05 -8.99284e-05
0.000157277 -4.72044e-05 -4.71739e-05 -7.4939e-05
0.000167513 -5.02903e-05 -5.02381e-05 -7.49463e-05
5.65522e-05 -1.70001e-05 -1.69509e-05 -8.99287e-05
0.00010606 -3.18406e-05 -3.18084e-05 -8.43063e-05
0.000162395 -4.87482e-05 -4.87059e-05 -7.49431e-05
0.000112884 -3.39055e-05 -3.38479e-05 -8.4311e-05
0.000109473 -3.2874e-05 -3.2828e-05 -8.43088e-05
5.48464e-05 -1.64788e-05 -1.64433e-05 -8.99284e-05
5.14278e-05 -1.54289e-05 -1.54281e-05 -8.9931e-05
0.000147035 -4.41089e-05 -4.41113e-05 -7.49268e-05
0.000157277 -4.72044e-05 -4.71739e-05 -7.4939e-05
5.31385e-05 -1.59553e-05 -1.59357e-05 -8.9929e-05
9.92282e-05 -2.97651e-05 -2.97699e-05 -8.4301e-05
0.000152157 -4.56583e-05 -4.56423e-05 -7.49337e-05
0.00010606 -3.18406e-05 -3.18084e-05 -8.43063e-05
0.000102646 -3.08047e-05 -3.07889e-05 -8.43037e-05
5.14278e-05 -1.54289e-05 -1.54281e-05 -8.9931e-05
4.79961e-05 -1.43636e-05 -1.44139e-05 -8.9943e-05
0.000136779 -4.09949e-05 -4.10505e-05 -7.49071e-05
0.000147035 -4.41089e-05 -4.41113e-05 -7.49268e-05
4.97138e-05 -1.48987e-05 -1.49208e-05 -8.99353e-05
9.238e-05 -2.76695e-05 -2.7733e-05 -8.42967e-05
0.00014191 -4.25551e-05 -4.25807e-05 -7.4918e-05
9.92282e-05 -2.97651e-05 -2.97699e-05 -8.4301e-05
9.58068e-05 -2.87206e-05 -2.87512e-05 -8.42984e-05
4.79961e-05 -1.43636e-05 -1.44139e-05 -8.9943e-05
4.45376e-05 -1.32725e-05 -1.33993e-05 -8.99769e-05
0.000126497 -3.78459e-05 -3.79934e-05 -7.48755e-05
0.000136779 -4.09949e-05 -4.10505e-05 -7.49071e-05
4.62717e-05 -1.38224e-05 -1.39069e-05 -8.9956e-05
8.54997e-05 -2.55383e-05 -2.56978e-05 -8.42987e-05
0.000131642 -3.94262e-05 -3.95212e-05 -7.48932e-05
9.238e-05 -2.76695e-05 -2.7733e-05 -8.42967e-05
8.89451e-05 -2.66099e-05 -2.67151e-05 -8.42968e-05
4.45376e-05 -1.32725e-05 -1.33993e-05 -8.99769e-05
4.10379e-05 -1.21376e-05 -1.23859e-05 -9.00559e-05
0.000116155 -3.46337e-05 -3.49378e-05 -7.48285e-05
0.000126497 -3.78459e-05 -3.79934e-05 -7.48755e-05
4.27932e-05 -1.27117e-05 -1.28921e-05 -9.00088e-05
7.85589e-05 -2.33432e-05 -2.36639e-05 -8.43179e-05
0.000121337 -3.62504e-05 -3.64658e-05 -7.4854e-05
8.54997e-05 -2.55383e-05 -2.56978e-05 -8.42987e-05
8.20392e-05 -2.44508e-05 -2.46808e-05 -8.43045e-05
4.10379e-05 -1.21376e-05 -1.23859e-05 -9.00559e-05
3.74546e-05 -1.09343e-05 -1.13658e-05 -9.02239e-05
0.000105713 -3.13093e-05 -3.18871e-05 -7.47574e-05
0.000116155 -3.46337e-05 -3.49378e-05 -7.48285e-05
3.92618e-05 -1.15472e-05 -1.18777e-05 -9.01249e-05
7.15078e-05 -2.10429e-05 -2.16278e-05 -8.43766e-05
0.000110948 -3.29889e-05 -3.34111e-05 -7.47971e-05
7.85589e-05 -2.33432e-05 -2.36639e-05 -8.43179e-05
7.50511e-05 -2.22104e-05 -2.2646e-05 -8.43417e-05
3.74546e-05 -1.09343e-05 -1.13658e-05 -9.02239e-05
3.37561e-05 -9.62133e-06 -1.03435e-05 -9.05502e-05
9.50597e-05 -2.78032e-05 -2.88242e-05 -7.46663e-05
0.000105713 -3.13093e-05 -3.18871e-05 -7.47574e-05
3.56186e-05 -1.02929e-05 -1.08539e-05 -9.03619e-05
6.42621e-05 -1.85689e-05 -1.95828e-05 -8.45154e-05
0.000100424 -2.95861e-05 -3.03592e-05 -7.47131e-05
7.15078e-05 -2.10429e-05 -2.16278e-05 -8.43766e-05
6.79159e-05 -1.98311e-05 -2.06078e-05 -8.44297e-05
3.37561e-05 -9.62133e-06 -1.03435e-05 -9.05502e-05
2.98315e-05 -8.16465e-06 -9.28578e-06 -9.11494e-05
8.40914e-05 -2.40046e-05 -2.57515e-05 -7.45469e-05
9.50597e-05 -2.78032e-05 -2.88242e-05 -7.46663e-05
3.1837e-05 -8.91629e-06 -9.82316e-06 -9.08059e-05
5.66989e-05 -1.58505e-05 -1.75065e-05 -8.48046e-05
8.96162e-05 -2.59447e-05 -2.72878e-05 -7.46121e-05
6.42621e-05 -1.85689e-05 -1.95828e-05 -8.45154e-05
6.05289e-05 -1.72483e-05 -1.85488e-05 -8.46411e-05
2.98315e-05 -8.16465e-06 -9.28578e-06 -9.11494e-05
2.56605e-05 -6.51381e-06 -8.2057e-06 -9.21546e-05
7.25196e-05 -1.98223e-05 -2.25845e-05 -7.44653e-05
8.40914e-05 -2.40046e-05 -2.57515e-05 -7.45469e-05
2.77643e-05 -7.35761e-06 -8.74574e-06 -9.15929e-05
4.86374e-05 -1.27968e-05 -1.53603e-05 -8.53547e-05
7.84158e-05 -2.19737e-05 -2.41895e-05 -7.44918e-05
5.66989e-05 -1.58505e-05 -1.75065e-05 -8.48046e-05
5.27444e-05 -1.43616e-05 -1.64498e-05 -8.50266e-05
2.56605e-05 -6.51381e-06 -8.2057e-06 -9.21546e-05
2.10515e-05 -4.75962e-06 -6.98225e-06 -9.37195e-05
6.02164e-05 -1.51605e-05 -1.93097e-05 -7.44672e-05
7.25196e-05 -1.98223e-05 -2.25845e-05 -7.44653e-05
2.34471e-05 -5.65147e-06 -7.6267e-06 -9.2856e-05
3.99342e-05 -9.48885e-06 -1.3048e-05 -8.63145e-05
6.64405e-05 -1.75331e-05 -2.09603e-05 -7.44555e-05
4.86374e-05 -1.27968e-05 -1.53603e-05 -8.53547e-05
4.437e-05 -1.11736e-05 -1.4227e-05 -8.57944e-05
2.10515e-05 -4.75962e-06 -6.98225e-06 -9.37195e-05
1.62869e-05 -3.07268e-06 -5.66324e-06 -9.57773e-05
4.67261e-05 -1.03501e-05 -1.55897e-05 -7.49256e-05
6.02164e-05 -1.51605e-05 -1.93097e-05 -7.44672e-05
1.86171e-05 -3.85228e-06 -6.32776e-06 -9.47053e-05
3.05135e-05 -6.19977e-06 -1.04202e-05 -8.78373e-05
5.36955e-05 -1.27639e-05 -1.75421e-05 -7.45949e-05
3.99342e-05 -9.48885e-06 -1.3048e-05 -8.63145e-05
3.53191e-05 -7.77139e-06 -1.18062e-05 -8.69532e-05
1.62869e-05 -3.07268e-06 -5.66324e-06 -9.57773e-05
1.1424e-05 -2.38898e-06 -3.87215e-06 -9.7842e-05
3.27044e-05 -6.1909e-06 -1.13629e-05 -7.61193e-05
4.67261e-05 -1.03501e-05 -1.55897e-05 -7.49256e-05
1.39322e-05 -2.57012e-06 -4.86946e-06 -9.68608e-05
2.10377e-05 -4.27389e-06 -7.18447e-06 -8.98693e-05
3.96239e-05 -8.00578e-06 -1.35506e-05 -7.54171e-05
3.05135e-05 -6.19977e-06 -1.04202e-05 -8.78373e-05
2.56941e-05 -4.97947e-06 -8.87768e-06 -8.88849e-05
1.1424e-05 -2.38898e-06 -3.87215e-06 -9.7842e-05
8.04088e-06 -3.79527e-06 -1.81955e-06 -9.79969e-05
1.90511e-05 -6.13138e-06 -5.53702e-06 -7.89475e-05
3.27044e-05 -6.1909e-06 -1.13629e-05 -7.61193e-05
9.28577e-06 -2.63889e-06 -2.84866e-06 -9.83539e-05
1.29701e-05 -5.88568e-06 -3.03616e-06 -9.1479e-05
2.5877e-05 -5.42976e-06 -8.76312e-06 -7.7249e-05
2.10377e-05 -4.27389e-06 -7.18447e-06 -8.98693e-05
1.67333e-05 -4.34434e-06 -5.30955e-06 -9.06959e-05
8.04088e-06 -3.79527e-06 -1.81955e-06 -9.79969e-05
6.33815e-06 -9.41326e-06 1.3179e-06 -9.26635e-05
1.17637e-05 -1.63269e-05 1.95566e-06 -8.12954e-05
1.90511e-05 -6.13138e-06 -5.53702e-06 -7.89475e-05
7.21609e-06 -6.21476e-06 -4.29139e-07 -9.63088e-05
1.01164e-05 -1.52095e-05 2.18275e-06 -8.88062e-05
1.38166e-05 -9.03636e-06 -2.04868e-06 -8.04864e-05
1.29701e-05 -5.88568e-06 -3.03616e-06 -9.1479e-05
1.05103e-05 -9.52811e-06 -4.20939e-07 -9.13438e-05
6.33815e-06 -9.41326e-06 1.3179e-06 -9.26635e-05
8.13929e-06 -1.68784e-05 3.74532e-06 -7.58818e-05
1.53174e-05 -4.8331e-05 1.41487e-05 -7.49674e-05
1.17637e-05 -1.63269e-05 1.95566e-06 -8.12954e-05
6.33615e-06 -1.2885e-05 2.80664e-06 -8.60974e-05
1.22457e-05 -3.21356e-05 8.52424e-06 -7.40897e-05
1.2421e-05 -2.98075e-05 7.45137e-06 -8.02909e-05
1.01164e-05 -1.52095e-05 2.18275e-06 -8.88062e-05
1.09682e-05 -2.2743e-05 5.04632e-06 -8.30797e-05
8.13929e-06 -1.68784e-05 3.74532e-06 -7.58818e-05
1.28242e-05 -2.72389e-05 6.17773e-06 -4.32083e-05
2.60791e-05 -8.76883e-05 2.64039e-05 -3.97478e-05
1.53174e-05 -4.8331e-05 1.41487e-05 -7.49674e-05
1.06633e-05 -2.1713e-05 4.73557e-06 -6.17223e-05
1.70636e-05 -5.47571e-05 1.61544e-05 -4.39465e-05
2.00157e-05 -6.93525e-05 2.11444e-05 -6.20525e-05
1.22457e-05 -3.21356e-05 8.52424e-06 -7.40897e-05
1.41953e-05 -4.31976e-05 1.24295e-05 -6.13758e-05
0.00164484 0 -0.000704929 0.000213549
0.00186203 -0.000248645 -0.000691451 -9.44626e-06
0.00322547 -0.000639686 -0.0011082 -0.000243141
0.00286641 2.22045e-16 -0.00122846 -0.000168626
0.00178359 -0.000139925 -0.000704429 7.87766e-05
0.00248793 -0.000387141 -0.000900338 -0.000101891
0.00306733 -0.000301411 -0.0011854 -0.000281764
0.00234205 0 -0.00100374 2.93448e-05
0.00238199 -0.000214808 -0.000928793 -3.47796e-05
0.00186203 -0.000248645 -0.000691451 -9.44626e-06
0.00195819 -0.00045466 -0.000644368 -7.86959e-05
0.00335235 -0.000909966 -0.00104674 -0.000116979
0.00322547 -0.000639686 -0.0011082 -0.000243141
0.00191018 -0.000358122 -0.000665169 -5.40596e-05
0.00265434 -0.000658008 -0.000855569 -0.000118347
0.00332554 -0.000829869 -0.00106957 -0.000176173
0.00248793 -0.000387141 -0.000900338 -0.000101891
0.00259902 -0.000539111 -0.00088282 -0.000132783
0.00195819 -0.00045466 -0.000644368 -7.86959e-05
0.00200747 -0.000559472 -0.00062057 -9.18489e-05
0.00333679 -0.000986638 -0.00100721 -4.42612e-05
0.00335235 -0.000909966 -0.00104674 -0.000116979
0.00199447 -0.000519538 -0.000632114 -9.07612e-05
0.00268205 -0.000767983 -0.000820314 -7.97438e-05
0.00334354 -0.000957614 -0.00102254 -6.94066e-05
0.00265434 -0.000658008 -0.000855569 -0.000118347
0.00267495 -0.00072958 -0.000833732 -9.38668e-05
0.00200747 -0.000559472 -0.00062057 -9.18489e-05
0.00200636 -0.000601211 -0.000602207 -8.46887e-05
0.00331341 -0.00099777 -0.000992417 -2.74699e-05
0.00333679 -0.000986638 -0.00100721 -4.42612e-05
0.00200786 -0.000585584 -0.000609548 -8.78767e-05
0.0026696 -0.000803658 -0.000799689 -6.04075e-05
0.00332809 -0.000997094 -0.000998997 -3.30597e-05
0.00268205 -0.000767983 -0.000820314 -7.97438e-05
0.00267911 -0.000791133 -0.000809131 -6.93539e-05
0.00200636 -0.000601211 -0.000602207 -8.46887e-05
0.0019927 -0.000609706 -0.000592713 -7.97044e-05
0.00328628 -0.000996471 -0.000981345 -2.62899e-05
0.00331341 -0.00099777 -0.000992417 -2.74699e-05
0.00200172 -0.000608138 -0.00059725 -8.2202e-05
0.00264533 -0.000806284 -0.000788163 -5.40793e-05
0.0032978 -0.000997488 -0.000985846 -2.52634e-05
0.0026696 -0.000803658 -0.000799689 -6.04075e-05
0.00265714 -0.000807394 -0.000792747 -5.5269e-05
0.0019927 -0.000609706 -0.000592713 -7.97044e-05
0.00197307 -0.000607072 -0.000585428 -7.63523e-05
0.00326566 -0.000989372 -0.000975552 -3.14744e-05
0.00328628 -0.000996471 -0.000981345 -2.62899e-05
0.00198219 -0.000609069 -0.00058848 -7.75347e-05
0.00262285 -0.000801006 -0.000780789 -5.42236e-05
0.00327639 -0.000993401 -0.000978422 -2.89943e-05
0.00264533 -0.000806284 -0.000788163 -5.40793e-05
0.00263397 -0.000803998 -0.000784275 -5.41098e-05
0.00197307 -0.000607072 -0.000585428 -7.63523e-05
0.00195589 -0.000600598 -0.000580838 -7.52473e-05
0.00324575 -0.000982334 -0.000970037 -3.59456e-05
0.00326566 -0.000989372 -0.000975552 -3.14744e-05
0.00196456 -0.000604048 -0.000583079 -7.57405e-05
0.00260257 -0.000793067 -0.000775501 -5.61183e-05
0.00325511 -0.000985719 -0.000972596 -3.37043e-05
0.00262285 -0.000801006 -0.000780789 -5.42236e-05
0.00261227 -0.000797167 -0.000777902 -5.49241e-05
0.00195589 -0.000600598 -0.000580838 -7.52473e-05
0.0019402 -0.000594138 -0.000576883 -7.47691e-05
0.00322791 -0.000975438 -0.000965343 -3.96514e-05
0.00324575 -0.000982334 -0.000970037 -3.59456e-05
0.00194758 -0.000597272 -0.000578705 -7.48914e-05
0.00258491 -0.000785849 -0.000771028 -5.81039e-05
0.00323691 -0.000978868 -0.000967734 -3.80349e-05
0.00260257 -0.000793067 -0.000775501 -5.61183e-05
0.00259352 -0.000789309 -0.000773234 -5.72394e-05
0.0019402 -0.000594138 -0.000576883 -7.47691e-05
0.00192681 -0.000588398 -0.000573604 -7.4772e-05
0.00321028 -0.000969175 -0.000960475 -4.19424e-05
0.00322791 -0.000975438 -0.000965343 -3.96514e-05
0.00193339 -0.000591166 -0.000575238 -7.47686e-05
0.00256888 -0.000779396 -0.00076692 -5.96247e-05
0.00321895 -0.000972224 -0.000962884 -4.09054e-05
0.00258491 -0.000785849 -0.000771028 -5.81039e-05
0.00257671 -0.00078253 -0.000768934 -5.88961e-05
0.00192681 -0.000588398 -0.000573604 -7.4772e-05
0.0019146 -0.000583555 -0.000570448 -7.48386e-05
0.00319314 -0.000963306 -0.000955644 -4.34146e-05
0.00321028 -0.000969175 -0.000960475 -4.19424e-05
0.00192052 -0.000585873 -0.000571992 -7.47883e-05
0.00255395 -0.000773828 -0.00076291 -6.06387e-05
0.00320173 -0.000966203 -0.000958084 -4.27891e-05
0.00256888 -0.000779396 -0.00076692 -5.96247e-05
0.00256132 -0.000776514 -0.000764917 -6.02068e-05
0.0019146 -0.000583555 -0.000570448 -7.48386e-05
0.00190336 -0.000579365 -0.000567427 -7.49527e-05
0.00317603 -0.000957745 -0.000950695 -4.42295e-05
0.00319314 -0.000963306 -0.000955644 -4.34146e-05
0.00190892 -0.000581394 -0.000568941 -7.49015e-05
0.00253965 -0.000768816 -0.000758927 -6.1272e-05
0.00318456 -0.000960493 -0.000953171 -4.38755e-05
0.00255395 -0.000773828 -0.00076291 -6.06387e-05
0.00254674 -0.000771268 -0.000760916 -6.09881e-05
0.00190336 -0.000579365 -0.000567427 -7.49527e-05
0.00189259 -0.000575627 -0.000564413 -7.50406e-05
0.00315901 -0.000952361 -0.000945708 -4.46964e-05
0.00317603 -0.000957745 -0.000950695 -4.42295e-05
0.00189792 -0.000577451 -0.000565914 -7.49972e-05
0.00252569 -0.000764191 -0.00075493 -6.16427e-05
0.00316753 -0.000955037 -0.000948211 -4.45013e-05
0.00253965 -0.000768816 -0.000758927 -6.1272e-05
0.00253264 -0.000766465 -0.000756932 -6.14866e-05
0.00189259 -0.000575627 -0.000564413 -7.50406e-05
0.00188213 -0.000572158 -0.000561415 -7.51123e-05
0.00314198 -0.000947085 -0.000940671 -4.49377e-05
0.00315901 -0.000952361 -0.000945708 -4.46964e-05
0.00188734 -0.000573867 -0.000562916 -7.50803e-05
0.00251192 -0.000759784 -0.000750917 -6.18553e-05
0.00315049 -0.000949713 -0.000943192 -4.48354e-05
0.00252569 -0.000764191 -0.00075493 -6.16427e-05
0.00251879 -0.000761968 -0.000752925 -6.17627e-05
0.00188213 -0.000572158 -0.000561415 -7.51123e-05
0.00187181 -0.000568849 -0.00055841 -7.51615e-05
0.00312496 -0.000941866 -0.000935613 -4.50664e-05
0.00314198 -0.000947085 -0.000940671 -4.49377e-05
0.00187695 -0.000570489 -0.000559912 -7.51388e-05
0.00249824 -0.000755504 -0.000746889 -6.19726e-05
0.00313348 -0.000944471 -0.000938145 -4.50133e-05
0.00251192 -0.000759784 -0.000750917 -6.18553e-05
0.00250508 -0.000757632 -0.000748905 -6.19235e-05
0.00187181 -0.000568849 -0.00055841 -7.51615e-05
0.00186156 -0.000565625 -0.000555403 -7.51961e-05
0.00310793 -0.000936677 -0.000930537 -4.51297e-05
0.00312496 -0.000941866 -0.000935613 -4.50664e-05
0.00186668 -0.000567229 -0.000556907 -7.51807e-05
0.00248461 -0.00075129 -0.00074285 -6.20371e-05
0.00311645 -0.000939269 -0.000933076 -4.51033e-05
0.00249824 -0.000755504 -0.000746889 -6.19726e-05
0.00249142 -0.000753391 -0.000744871 -6.20094e-05
0.00186156 -0.000565625 -0.000555403 -7.51961e-05
0.00185136 -0.000562448 -0.00055239 -7.52188e-05
0.00309089 -0.000931503 -0.000925453 -4.51619e-05
0.00310793 -0.000936677 -0.000930537 -4.51297e-05
0.00185646 -0.000564033 -0.000553897 -7.52086e-05
0.00247099 -0.000747111 -0.000738804 -6.20719e-05
0.00309941 -0.000934089 -0.000927996 -4.51487e-05
0.00248461 -0.00075129 -0.00074285 -6.20371e-05
0.0024778 -0.000749197 -0.000740828 -6.20574e-05
0.00185136 -0.000562448 -0.00055239 -7.52188e-05
0.00184117 -0.000559294 -0.000549375 -7.52336e-05
0.00307385 -0.000926337 -0.000920363 -4.51771e-05
0.00309089 -0.000931503 -0.000925453 -4.51619e-05
0.00184626 -0.000560869 -0.000550883 -7.52271e-05
0.00245737 -0.000742948 -0.000734754 -6.20907e-05
0.00308237 -0.00092892 -0.000922909 -4.51708e-05
0.00247099 -0.000747111 -0.000738804 -6.20719e-05
0.00246418 -0.000745028 -0.00073678 -6.20827e-05
0.00184117 -0.000559294 -0.000549375 -7.52336e-05
0.00183099 -0.000556152 -0.000546357 -7.52426e-05
0.00305681 -0.000921173 -0.000915271 -4.51844e-05
0.00307385 -0.000926337 -0.000920363 -4.51771e-05
0.00183608 -0.000557722 -0.000547866 -7.52387e-05
0.00244376 -0.000738794 -0.000730701 -6.21005e-05
0.00306533 -0.000923755 -0.000917818 -4.51815e-05
0.00245737 -0.000742948 -0.000734754 -6.20907e-05
0.00245057 -0.00074087 -0.000732728 -6.20964e-05
0.00183099 -0.000556152 -0.000546357 -7.52426e-05
0.00182081 -0.000553016 -0.000543338 -7.52479e-05
0.00303976 -0.000916011 -0.000910177 -4.51875e-05
0.00305681 -0.000921173 -0.000915271 -4.51844e-05
0.0018259 -0.000554583 -0.000544848 -7.52457e-05
0.00243015 -0.000734644 -0.000726646 -6.21055e-05
0.00304828 -0.000918592 -0.000912724 -4.51863e-05
0.00244376 -0.000738794 -0.000730701 -6.21005e-05
0.00243696 -0.000736719 -0.000728673 -6.21034e-05
0.00182081 -0.000553016 -0.000543338 -7.52479e-05
0.00181063 -0.000549883 -0.000540318 -7.52507e-05
0.00302271 -0.000910849 -0.000905082 -4.51886e-05
0.00303976 -0.000916011 -0.000910177 -4.51875e-05
0.00181572 -0.000551449 -0.000541828 -7.52496e-05
0.00241654 -0.000730495 -0.00072259 -6.21077e-05
0.00303123 -0.00091343 -0.00090763 -4.51882e-05
0.00243015 -0.000734644 -0.000726646 -6.21055e-05
0.00242334 -0.000732569 -0.000724618 -6.21068e-05
0.00181063 -0.000549883 -0.000540318 -7.52507e-05
0.00180045 -0.000546751 -0.000537297 -7.52517e-05
0.00300566 -0.000905688 -0.000899986 -4.51885e-05
0.00302271 -0.000910849 -0.000905082 -4.51886e-05
0.00180554 -0.000548317 -0.000538808 -7.52514e-05
0.00240292 -0.000726347 -0.000718532 -6.21083e-05
0.00301418 -0.000908268 -0.000902534 -4.51886e-05
0.00241654 -0.000730495 -0.00072259 -6.21077e-05
0.00240973 -0.000728421 -0.000720561 -6.21081e-05
0.00180045 -0.000546751 -0.000537297 -7.52517e-05
0.00179026 -0.000543621 -0.000534276 -7.52517e-05
0.0029886 -0.000900527 -0.00089489 -4.51879e-05
0.00300566 -0.000905688 -0.000899986 -4.51885e-05
0.00179535 -0.000545186 -0.000535787 -7.52518e-05
0.00238931 -0.0007222 -0.000714475 -6.21079e-05
0.00299713 -0.000903107 -0.000897438 -4.51883e-05
0.00240292 -0.000726347 -0.000718532 -6.21083e-05
0.00239612 -0.000724274 -0.000716504 -6.21082e-05
0.00179026 -0.000543621 -0.000534276 -7.52517e-05
0.00178008 -0.000540491 -0.000531254 -7.52509e-05
0.00297155 -0.000895366 -0.000889794 -4.51869e-05
0.0029886 -0.000900527 -0.00089489 -4.51879e-05
0.00178517 -0.000542056 -0.000532765 -7.52514e-05
0.00237569 -0.000718054 -0.000710417 -6.2107e-05
0.00298008 -0.000897946 -0.000892342 -4.51874e-05
0.00238931 -0.0007222 -0.000714475 -6.21079e-05
0.0023825 -0.000720127 -0.000712446 -6.21075e-05
0.00178008 -0.000540491 -0.000531254 -7.52509e-05
0.0017699 -0.000537362 -0.000528231 -7.52498e-05
0.0029545 -0.000890205 -0.000884697 -4.51858e-05
0.00297155 -0.000895366 -0.000889794 -4.51869e-05
0.00177499 -0.000538927 -0.000529742 -7.52504e-05
0.00236208 -0.000713908 -0.000706359 -6.21058e-05
0.00296303 -0.000892786 -0.000887246 -4.51864e-05
0.00237569 -0.000718054 -0.000710417 -6.2107e-05
0.00236889 -0.000715981 -0.000708388 -6.21064e-05
0.0017699 -0.000537362 -0.000528231 -7.52498e-05
0.00175972 -0.000534234 -0.000525208 -7.52483e-05
0.00293745 -0.000885045 -0.0008796 -4.51845e-05
0.0029545 -0.000890205 -0.000884697 -4.51858e-05
0.00176481 -0.000535798 -0.00052672 -7.52491e-05
0.00234846 -0.000709762 -0.0007023 -6.21043e-05
0.00294597 -0.000887625 -0.000882149 -4.51852e-05
0.00236208 -0.000713908 -0.000706359 -6.21058e-05
0.00235527 -0.000711835 -0.000704329 -6.21051e-05
0.00175972 -0.000534234 -0.000525208 -7.52483e-05
0.00174954 -0.000531105 -0.000522185 -7.52467e-05
0.00292039 -0.000879885 -0.000874503 -4.51833e-05
0.00293745 -0.000885045 -0.0008796 -4.51845e-05
0.00175463 -0.000532669 -0.000523697 -7.52475e-05
0.00233485 -0.000705616 -0.000698241 -6.21028e-05
0.00292892 -0.000882465 -0.000877052 -4.51839e-05
0.00234846 -0.000709762 -0.0007023 -6.21043e-05
0.00234165 -0.000707689 -0.000700271 -6.21036e-05
0.00174954 -0.000531105 -0.000522185 -7.52467e-05
0.00173935 -0.000527977 -0.000519161 -7.52451e-05
0.00290334 -0.000874725 -0.000869406 -4.5182e-05
0.00292039 -0.000879885 -0.000874503 -4.51833e-05
0.00174445 -0.000529541 -0.000520673 -7.52459e-05
0.00232123 -0.000701471 -0.000694182 -6.21012e-05
0.00291187 -0.000877305 -0.000871955 -4.51826e-05
0.00233485 -0.000705616 -0.000698241 -6.21028e-05
0.00232804 -0.000703543 -0.000696211 -6.2102e-05
0.00173935 -0.000527977 -0.000519161 -7.52451e-05
0.00172917 -0.00052485 -0.000516137 -7.52434e-05
0.00288629 -0.000869565 -0.000864309 -4.51807e-05
0.00290334 -0.000874725 -0.000869406 -4.5182e-05
0.00173426 -0.000526414 -0.000517649 -7.52442e-05
0.00230761 -0.000697326 -0.000690122 -6.20996e-05
0.00289481 -0.000872145 -0.000866858 -4.51813e-05
0.00232123 -0.000701471 -0.000694182 -6.21012e-05
0.00231442 -0.000699398 -0.000692152 -6.21004e-05
0.00172917 -0.00052485 -0.000516137 -7.52434e-05
0.00171899 -0.000521723 -0.000513113 -7.52416e-05
0.00286923 -0.000864405 -0.000859211 -4.51794e-05
0.00288629 -0.000869565 -0.000864309 -4.51807e-05
0.00172408 -0.000523286 -0.000514625 -7.52425e-05
0.00229399 -0.000693181 -0.000686063 -6.2098e-05
0.00287776 -0.000866985 -0.00086176 -4.518e-05
0.00230761 -0.000697326 -0.000690122 -6.20996e-05
0.0023008 -0.000695253 -0.000688093 -6.20988e-05
0.00171899 -0.000521723 -0.000513113 -7.52416e-05
0.0017088 -0.000518596 -0.000510089 -7.52399e-05
0.00285218 -0.000859246 -0.000854114 -4.51781e-05
0.00286923 -0.000864405 -0.000859211 -4.51794e-05
0.00171389 -0.000520159 -0.000511601 -7.52407e-05
0.00228038 -0.000689036 -0.000682003 -6.20964e-05
0.00286071 -0.000861826 -0.000856663 -4.51787e-05
0.00229399 -0.000693181 -0.000686063 -6.2098e-05
0.00228719 -0.000691109 -0.000684033 -6.20972e-05
0.0017088 -0.000518596 -0.000510089 -7.52399e-05
0.00169862 -0.000515469 -0.000507064 -7.52381e-05
0.00283512 -0.000854087 -0.000849016 -4.51768e-05
0.00285218 -0.000859246 -0.000854114 -4.51781e-05
0.00170371 -0.000517032 -0.000508576 -7.5239e-05
0.00226676 -0.000684892 -0.000677943 -6.20948e-05
0.00284365 -0.000856666 -0.000851565 -4.51774e-05
0.00228038 -0.000689036 -0.000682003 -6.20964e-05
0.00227357 -0.000686964 -0.000679973 -6.20956e-05
0.00169862 -0.000515469 -0.000507064 -7.52381e-05
0.00168843 -0.000512343 -0.000504039 -7.52363e-05
0.00281807 -0.000848928 -0.000843918 -4.51755e-05
0.00283512 -0.000854087 -0.000849016 -4.51768e-05
0.00169353 -0.000513906 -0.000505551 -7.52372e-05
0.00225314 -0.000680748 -0.000673882 -6.20932e-05
0.0028266 -0.000851507 -0.000846467 -4.51761e-05
0.00226676 -0.000684892 -0.000677943 -6.20948e-05
0.00225995 -0.00068282 -0.000675913 -6.2094e-05
0.00168843 -0.000512343 -0.000504039 -7.52363e-05
0.00167825 -0.000509217 -0.000501013 -7.52346e-05
0.00280102 -0.000843769 -0.00083882 -4.51742e-05
0.00281807 -0.000848928 -0.000843918 -4.51755e-05
0.00168334 -0.00051078 -0.000502526 -7.52355e-05
0.00223952 -0.000676604 -0.000669822 -6.20916e-05
0.00280954 -0.000846349 -0.000841369 -4.51749e-05
0.00225314 -0.000680748 -0.000673882 -6.20932e-05
0.00224633 -0.000678676 -0.000671852 -6.20924e-05
0.00167825 -0.000509217 -0.000501013 -7.52346e-05
0.00166806 -0.000506091 -0.000497988 -7.52328e-05
0.00278396 -0.000838611 -0.000833722 -4.51729e-05
0.00280102 -0.000843769 -0.00083882 -4.51742e-05
0.00167315 -0.000507654 -0.0004995 -7.52337e-05
0.0022259 -0.000672461 -0.000665761 -6.209e-05
0.00279249 -0.00084119 -0.000836271 -4.51736e-05
0.00223952 -0.000676604 -0.000669822 -6.20916e-05
0.00223271 -0.000674533 -0.000667792 -6.20908e-05
0.00166806 -0.000506091 -0.000497988 -7.52328e-05
0.00165788 -0.000502966 -0.000494962 -7.5231e-05
0.00276691 -0.000833453 -0.000828624 -4.51716e-05
0.00278396 -0.000838611 -0.000833722 -4.51729e-05
0.00166297 -0.000504528 -0.000496475 -7.52319e-05
0.00221229 -0.000668318 -0.0006617 -6.20883e-05
0.00277544 -0.000836032 -0.000831173 -4.51723e-05
0.0022259 -0.000672461 -0.000665761 -6.209e-05
0.00221909 -0.000670389 -0.000663731 -6.20891e-05
0.00165788 -0.000502966 -0.000494962 -7.5231e-05
0.00164769 -0.000499841 -0.000491935 -7.52291e-05
0.00274985 -0.000828295 -0.000823525 -4.51703e-05
0.00276691 -0.000833453 -0.000828624 -4.51716e-05
0.00165278 -0.000501403 -0.000493448 -7.52301e-05
0.00219867 -0.000664175 -0.000657639 -6.20867e-05
0.00275838 -0.000830874 -0.000826075 -4.5171e-05
0.00221229 -0.000668318 -0.0006617 -6.20883e-05
0.00220548 -0.000666246 -0.00065967 -6.20875e-05
0.00164769 -0.000499841 -0.000491935 -7.52291e-05
0.0016375 -0.000496716 -0.000488909 -7.52273e-05
0.0027328 -0.000823137 -0.000818427 -4.5169e-05
0.00274985 -0.000828295 -0.000823525 -4.51703e-05
0.0016426 -0.000498278 -0.000490422 -7.52282e-05
0.00218505 -0.000660033 -0.000653578 -6.2085e-05
0.00274133 -0.000825716 -0.000820976 -4.51697e-05
0.00219867 -0.000664175 -0.000657639 -6.20867e-05
0.00219186 -0.000662104 -0.000655608 -6.20858e-05
0.0016375 -0.000496716 -0.000488909 -7.52273e-05
0.00162732 -0.000493592 -0.000485882 -7.52254e-05
0.00271575 -0.00081798 -0.000813328 -4.51677e-05
0.0027328 -0.000823137 -0.000818427 -4.5169e-05
0.00163241 -0.000495154 -0.000487395 -7.52264e-05
0.00217143 -0.00065589 -0.000649516 -6.20833e-05
0.00272427 -0.000820558 -0.000815878 -4.51684e-05
0.00218505 -0.000660033 -0.000653578 -6.2085e-05
0.00217824 -0.000657961 -0.000651547 -6.20842e-05
0.00162732 -0.000493592 -0.000485882 -7.52254e-05
0.00161713 -0.000490468 -0.000482855 -7.52236e-05
0.00269869 -0.000812822 -0.000808229 -4.51664e-05
0.00271575 -0.00081798 -0.000813328 -4.51677e-05
0.00162222 -0.00049203 -0.000484368 -7.52245e-05
0.00215781 -0.000651748 -0.000645454 -6.20816e-05
0.00270722 -0.000815401 -0.000810779 -4.5167e-05
0.00217143 -0.00065589 -0.000649516 -6.20833e-05
0.00216462 -0.000653819 -0.000647485 -6.20825e-05
0.00161713 -0.000490468 -0.000482855 -7.52236e-05
0.00160694 -0.000487344 -0.000479827 -7.52216e-05
0.00268164 -0.000807665 -0.00080313 -4.5165e-05
0.00269869 -0.000812822 -0.000808229 -4.51664e-05
0.00161203 -0.000488906 -0.000481341 -7.52226e-05
0.00214419 -0.000647607 -0.000641392 -6.20799e-05
0.00269016 -0.000810244 -0.00080568 -4.51657e-05
0.00215781 -0.000651748 -0.000645454 -6.20816e-05
0.002151 -0.000649677 -0.000643423 -6.20808e-05
0.00160694 -0.000487344 -0.000479827 -7.52216e-05
0.00159675 -0.000484221 -0.0004768 -7.52197e-05
0.00266458 -0.000802509 -0.000798031 -4.51637e-05
0.00268164 -0.000807665 -0.00080313 -4.5165e-05
0.00160185 -0.000485782 -0.000478314 -7.52207e-05
0.00213057 -0.000643465 -0.00063733 -6.20782e-05
0.00267311 -0.000805087 -0.000800581 -4.51643e-05
0.00214419 -0.000647607 -0.000641392 -6.20799e-05
0.00213738 -0.000645536 -0.000639361 -6.20791e-05
0.00159675 -0.000484221 -0.0004768 -7.52197e-05
0.00158656 -0.000481098 -0.000473772 -7.52178e-05
0.00264753 -0.000797352 -0.000792932 -4.51623e-05
0.00266458 -0.000802509 -0.000798031 -4.51637e-05
0.00159166 -0.000482659 -0.000475286 -7.52188e-05
0.00211695 -0.000639324 -0.000633267 -6.20764e-05
0.00265605 -0.00079993 -0.000795482 -4.5163e-05
0.00213057 -0.000643465 -0.00063733 -6.20782e-05
0.00212376 -0.000641395 -0.000635299 -6.20773e-05
0.00158656 -0.000481098 -0.000473772 -7.52178e-05
0.00157638 -0.000477975 -0.000470743 -7.52158e-05
0.00263047 -0.000792196 -0.000787833 -4.51609e-05
0.00264753 -0.000797352 -0.000792932 -4.51623e-05
0.00158147 -0.000479536 -0.000472258 -7.52168e-05
0.00210333 -0.000635183 -0.000629205 -6.20747e-05
0.002639 -0.000794774 -0.000790382 -4.51616e-05
0.00211695 -0.000639324 -0.000633267 -6.20764e-05
0.00211014 -0.000637254 -0.000631236 -6.20756e-05
0.00157638 -0.000477975 -0.000470743 -7.52158e-05
0.00156619 -0.000474852 -0.000467715 -7.52138e-05
0.00261342 -0.00078704 -0.000782733 -4.51595e-05
0.00263047 -0.000792196 -0.000787833 -4.51609e-05
0.00157128 -0.000476414 -0.000469229 -7.52148e-05
0.00208971 -0.000631043 -0.000625142 -6.20729e-05
0.00262194 -0.000789618 -0.000785283 -4.51602e-05
0.00210333 -0.000635183 -0.000629205 -6.20747e-05
0.00209652 -0.000633113 -0.000627173 -6.20738e-05
0.00156619 -0.000474852 -0.000467715 -7.52138e-05
0.001556 -0.00047173 -0.000464686 -7.52118e-05
0.00259636 -0.000781884 -0.000777634 -4.51581e-05
0.00261342 -0.00078704 -0.000782733 -4.51595e-05
0.00156109 -0.000473291 -0.000466201 -7.52128e-05
0.00207609 -0.000626903 -0.000621079 -6.20711e-05
0.00260489 -0.000784462 -0.000780184 -4.51588e-05
0.00208971 -0.000631043 -0.000625142 -6.20729e-05
0.0020829 -0.000628973 -0.00062311 -6.2072e-05
0.001556 -0.00047173 -0.000464686 -7.52118e-05
0.00154581 -0.000468609 -0.000461657 -7.52098e-05
0.00257931 -0.000776728 -0.000772534 -4.51567e-05
0.00259636 -0.000781884 -0.000777634 -4.51581e-05
0.0015509 -0.000470169 -0.000463172 -7.52108e-05
0.00206246 -0.000622763 -0.000617015 -6.20693e-05
0.00258784 -0.000779306 -0.000775084 -4.51574e-05
0.00207609 -0.000626903 -0.000621079 -6.20711e-05
0.00206928 -0.000624833 -0.000619047 -6.20702e-05
0.00154581 -0.000468609 -0.000461657 -7.52098e-05
0.00153562 -0.000465487 -0.000458628 -7.52078e-05
0.00256225 -0.000771573 -0.000767434 -4.51553e-05
0.00257931 -0.000776728 -0.000772534 -4.51567e-05
0.00154071 -0.000467048 -0.000460142 -7.52088e-05
0.00204884 -0.000618623 -0.000612952 -6.20675e-05
0.00257078 -0.000774151 -0.000769984 -4.5156e-05
0.00206246 -0.000622763 -0.000617015 -6.20693e-05
0.00205565 -0.000620693 -0.000614983 -6.20684e-05
0.00153562 -0.000465487 -0.000458628 -7.52078e-05
0.00152543 -0.000462366 -0.000455598 -7.52057e-05
0.0025452 -0.000766418 -0.000762334 -4.51538e-05
0.00256225 -0.000771573 -0.000767434 -4.51553e-05
0.00153052 -0.000463927 -0.000457113 -7.52067e-05
0.00203522 -0.000614484 -0.000608888 -6.20656e-05
0.00255373 -0.000768995 -0.000764884 -4.51545e-05
0.00204884 -0.000618623 -0.000612952 -6.20675e-05
0.00204203 -0.000616553 -0.00061092 -6.20666e-05
0.00152543 -0.000462366 -0.000455598 -7.52057e-05
0.00151524 -0.000459246 -0.000452568 -7.52036e-05
0.00252814 -0.000761263 -0.000757234 -4.51524e-05
0.0025452 -0.000766418 -0.000762334 -4.51538e-05
0.00152033 -0.000460806 -0.000454083 -7.52047e-05
0.0020216 -0.000610345 -0.000604824 -6.20638e-05
0.00253667 -0.00076384 -0.000759784 -4.51531e-05
0.00203522 -0.000614484 -0.000608888 -6.20656e-05
0.00202841 -0.000612414 -0.000606856 -6.20647e-05
0.00151524 -0.000459246 -0.000452568 -7.52036e-05
0.00150505 -0.000456125 -0.000449538 -7.52015e-05
0.00251109 -0.000756109 -0.000752134 -4.51509e-05
0.00252814 -0.000761263 -0.000757234 -4.51524e-05
0.00151014 -0.000457685 -0.000451053 -7.52026e-05
0.00200798 -0.000606206 -0.00060076 -6.20619e-05
0.00251962 -0.000758686 -0.000754684 -4.51516e-05
0.0020216 -0.000610345 -0.000604824 -6.20638e-05
0.00201479 -0.000608275 -0.000602792 -6.20628e-05
0.00150505 -0.000456125 -0.000449538 -7.52015e-05
0.00149486 -0.000453005 -0.000446507 -7.51994e-05
0.00249403 -0.000750954 -0.000747034 -4.51494e-05
0.00251109 -0.000756109 -0.000752134 -4.51509e-05
0.00149995 -0.000454565 -0.000448023 -7.52005e-05
0.00199436 -0.000602068 -0.000596695 -6.206e-05
0.00250256 -0.000753531 -0.000749584 -4.51502e-05
0.00200798 -0.000606206 -0.00060076 -6.20619e-05
0.00200117 -0.000604137 -0.000598728 -6.2061e-05
0.00149486 -0.000453005 -0.000446507 -7.51994e-05
0.00148466 -0.000449885 -0.000443477 -7.51973e-05
0.00247698 -0.0007458 -0.000741933 -4.5148e-05
0.00249403 -0.000750954 -0.000747034 -4.51494e-05
0.00148976 -0.000451445 -0.000444992 -7.51984e-05
0.00198074 -0.00059793 -0.000592631 -6.20581e-05
0.00248551 -0.000748377 -0.000744483 -4.51487e-05
0.00199436 -0.000602068 -0.000596695 -6.206e-05
0.00198755 -0.000599999 -0.000594663 -6.20591e-05
0.00148466 -0.000449885 -0.000443477 -7.51973e-05
0.00147447 -0.000446766 -0.000440446 -7.51952e-05
0.00245992 -0.000740646 -0.000736833 -4.51465e-05
0.00247698 -0.0007458 -0.000741933 -4.5148e-05
0.00147957 -0.000448326 -0.000441961 -7.51962e-05
0.00196711 -0.000593792 -0.000588566 -6.20562e-05
0.00246845 -0.000743223 -0.000739383 -4.51472e-05
0.00198074 -0.00059793 -0.000592631 -6.20581e-05
0.00197392 -0.000595861 -0.000590599 -6.20572e-05
0.00147447 -0.000446766 -0.000440446 -7.51952e-05
0.00146428 -0.000443647 -0.000437414 -7.5193e-05
0.00244287 -0.000735493 -0.000731732 -4.5145e-05
0.00245992 -0.000740646 -0.000736833 -4.51465e-05
0.00146938 -0.000445207 -0.00043893 -7.51941e-05
0.00195349 -0.000589654 -0.000584501 -6.20543e-05
0.00245139 -0.000738069 -0.000734282 -4.51457e-05
0.00196711 -0.000593792 -0.000588566 -6.20562e-05
0.0019603 -0.000591723 -0.000586534 -6.20553e-05
0.00146428 -0.000443647 -0.000437414 -7.5193e-05
0.00145409 -0.000440528 -0.000434383 -7.51908e-05
0.00242581 -0.000730339 -0.000726631 -4.51435e-05
0.00244287 -0.000735493 -0.000731732 -4.5145e-05
0.00145918 -0.000442088 -0.000435899 -7.51919e-05
0.00193987 -0.000585517 -0.000580436 -6.20524e-05
0.00243434 -0.000732916 -0.000729182 -4.51442e-05
0.00195349 -0.000589654 -0.000584501 -6.20543e-05
0.00194668 -0.000587586 -0.000582469 -6.20534e-05
0.00145409 -0.000440528 -0.000434383 -7.51908e-05
0.0014439 -0.00043741 -0.000431351 -7.51887e-05
0.00240876 -0.000725186 -0.00072153 -4.5142e-05
0.00242581 -0.000730339 -0.000726631 -4.51435e-05
0.00144899 -0.000438969 -0.000432867 -7.51898e-05
0.00192625 -0.00058138 -0.000576371 -6.20505e-05
0.00241728 -0.000727763 -0.000724081 -4.51427e-05
0.00193987 -0.000585517 -0.000580436 -6.20524e-05
0.00193306 -0.000583449 -0.000578403 -6.20514e-05
0.0014439 -0.00043741 -0.000431351 -7.51887e-05
0.0014337 -0.000434292 -0.000428319 -7.51865e-05
0.0023917 -0.000720034 -0.000716429 -4.51405e-05
0.00240876 -0.000725186 -0.00072153 -4.5142e-05
0.0014388 -0.000435851 -0.000429835 -7.51876e-05
0.00191262 -0.000577244 -0.000572305 -6.20485e-05
0.00240023 -0.00072261 -0.00071898 -4.51412e-05
0.00192625 -0.00058138 -0.000576371 -6.20505e-05
0.00191943 -0.000579312 -0.000574338 -6.20495e-05
0.0014337 -0.000434292 -0.000428319 -7.51865e-05
0.00142351 -0.000431174 -0.000425287 -7.51843e-05
0.00237465 -0.000714881 -0.000711328 -4.51389e-05
0.0023917 -0.000720034 -0.000716429 -4.51405e-05
0.00142861 -0.000432733 -0.000426803 -7.51854e-05
0.001899 -0.000573108 -0.000568239 -6.20466e-05
0.00238317 -0.000717457 -0.000713879 -4.51397e-05
0.00191262 -0.000577244 -0.000572305 -6.20485e-05
0.00190581 -0.000575176 -0.000570272 -6.20475e-05
0.00142351 -0.000431174 -0.000425287 -7.51843e-05
0.00141332 -0.000428057 -0.000422254 -7.51821e-05
0.00235759 -0.000709729 -0.000706227 -4.51374e-05
0.00237465 -0.000714881 -0.000711328 -4.51389e-05
0.00141841 -0.000429616 -0.00042377 -7.51832e-05
0.00188538 -0.000568972 -0.000564173 -6.20446e-05
0.00236612 -0.000712305 -0.000708778 -4.51382e-05
0.001899 -0.000573108 -0.000568239 -6.20466e-05
0.00189219 -0.00057104 -0.000566206 -6.20456e-05
0.00141332 -0.000428057 -0.000422254 -7.51821e-05
0.00140312 -0.00042494 -0.000419221 -7.51798e-05
0.00234054 -0.000704577 -0.000701126 -4.51359e-05
0.00235759 -0.000709729 -0.000706227 -4.51374e-05
0.00140822 -0.000426499 -0.000420738 -7.51809e-05
0.00187175 -0.000564836 -0.000560107 -6.20426e-05
0.00234906 -0.000707153 -0.000703676 -4.51366e-05
0.00188538 -0.000568972 -0.000564173 -6.20446e-05
0.00187856 -0.000566904 -0.00056214 -6.20436e-05
0.00140312 -0.00042494 -0.000419221 -7.51798e-05
0.00139293 -0.000421824 -0.000416188 -7.51776e-05
0.00232348 -0.000699425 -0.000696024 -4.51343e-05
0.00234054 -0.000704577 -0.000701126 -4.51359e-05
0.00139803 -0.000423382 -0.000417705 -7.51787e-05
0.00185813 -0.000560701 -0.000556041 -6.20406e-05
0.00233201 -0.000702001 -0.000698575 -4.51351e-05
0.00187175 -0.000564836 -0.000560107 -6.20426e-05
0.00186494 -0.000562768 -0.000558074 -6.20416e-05
0.00139293 -0.000421824 -0.000416188 -7.51776e-05
0.00138273 -0.000418707 -0.000413154 -7.51754e-05
0.00230643 -0.000694273 -0.000690923 -4.51328e-05
0.00232348 -0.000699425 -0.000696024 -4.51343e-05
0.00138783 -0.000420265 -0.000414671 -7.51765e-05
0.00184451 -0.000556566 -0.000551974 -6.20386e-05
0.00231495 -0.000696849 -0.000693474 -4.51335e-05
0.00185813 -0.000560701 -0.000556041 -6.20406e-05
0.00185132 -0.000558633 -0.000554008 -6.20396e-05
0.00138273 -0.000418707 -0.000413154 -7.51754e-05
0.00137254 -0.000415591 -0.000410121 -7.51731e-05
0.00228937 -0.000689122 -0.000685821 -4.51312e-05
0.00230643 -0.000694273 -0.000690923 -4.51328e-05
0.00137764 -0.000417149 -0.000411638 -7.51742e-05
0.00183088 -0.000552431 -0.000547908 -6.20366e-05
0.0022979 -0.000691698 -0.000688372 -4.5132e-05
0.00184451 -0.000556566 -0.000551974 -6.20386e-05
0.00183769 -0.000554498 -0.000549941 -6.20376e-05
0.00137254 -0.000415591 -0.000410121 -7.51731e-05
0.00136234 -0.000412476 -0.000407087 -7.51708e-05
0.00227232 -0.000683971 -0.000680719 -4.51296e-05
0.00228937 -0.000689122 -0.000685821 -4.51312e-05
0.00136744 -0.000414034 -0.000408604 -7.5172e-05
0.00181726 -0.000548297 -0.000543841 -6.20346e-05
0.00228084 -0.000686547 -0.00068327 -4.51304e-05
0.00183088 -0.000552431 -0.000547908 -6.20366e-05
0.00182407 -0.000550364 -0.000545874 -6.20356e-05
0.00136234 -0.000412476 -0.000407087 -7.51708e-05
0.00135215 -0.000409361 -0.000404053 -7.51686e-05
0.00225526 -0.000678821 -0.000675617 -4.51281e-05
0.00227232 -0.000683971 -0.000680719 -4.51296e-05
0.00135725 -0.000410918 -0.00040557 -7.51697e-05
0.00180363 -0.000544163 -0.000539774 -6.20326e-05
0.00226379 -0.000681396 -0.000678168 -4.51288e-05
0.00181726 -0.000548297 -0.000543841 -6.20346e-05
0.00181045 -0.00054623 -0.000541807 -6.20336e-05
0.00135215 -0.000409361 -0.000404053 -7.51686e-05
0.00134195 -0.000406246 -0.000401018 -7.51663e-05
0.00223821 -0.00067367 -0.000670515 -4.51265e-05
0.00225526 -0.000678821 -0.000675617 -4.51281e-05
0.00134705 -0.000407803 -0.000402535 -7.51674e-05
0.00179001 -0.000540029 -0.000535706 -6.20306e-05
0.00224673 -0.000676245 -0.000673066 -4.51273e-05
0.00180363 -0.000544163 -0.000539774 -6.20326e-05
0.00179682 -0.000542096 -0.00053774 -6.20316e-05
0.00134195 -0.000406246 -0.000401018 -7.51663e-05
0.00133176 -0.000403131 -0.000397983 -7.5164e-05
0.00222115 -0.00066852 -0.000665413 -4.51249e-05
0.00223821 -0.00067367 -0.000670515 -4.51265e-05
0.00133686 -0.000404688 -0.000399501 -7.51651e-05
0.00177639 -0.000535895 -0.000531639 -6.20285e-05
0.00222968 -0.000671095 -0.000667964 -4.51257e-05
0.00179001 -0.000540029 -0.000535706 -6.20306e-05
0.0017832 -0.000537962 -0.000533673 -6.20296e-05
0.00133176 -0.000403131 -0.000397983 -7.5164e-05
0.00132156 -0.000400017 -0.000394948 -7.51617e-05
0.0022041 -0.00066337 -0.000660311 -4.51233e-05
0.00222115 -0.00066852 -0.000665413 -4.51249e-05
0.00132666 -0.000401574 -0.000396466 -7.51628e-05
0.00176276 -0.000531762 -0.000527571 -6.20265e-05
0.00221262 -0.000665945 -0.000662862 -4.51241e-05
0.00177639 -0.000535895 -0.000531639 -6.20285e-05
0.00176957 -0.000533829 -0.000529605 -6.20275e-05
0.00132156 -0.000400017 -0.000394948 -7.51617e-05
0.00131137 -0.000396903 -0.000391913 -7.51594e-05
0.00218704 -0.00065822 -0.000655209 -4.51217e-05
0.0022041 -0.00066337 -0.000660311 -4.51233e-05
0.00131646 -0.00039846 -0.000393431 -7.51605e-05
0.00174914 -0.000527629 -0.000523503 -6.20245e-05
0.00219557 -0.000660795 -0.00065776 -4.51225e-05
0.00176276 -0.000531762 -0.000527571 -6.20265e-05
0.00175595 -0.000529696 -0.000525537 -6.20255e-05
0.00131137 -0.000396903 -0.000391913 -7.51594e-05
0.00130117 -0.00039379 -0.000388877 -7.51571e-05
0.00216999 -0.000653071 -0.000650107 -4.51202e-05
0.00218704 -0.00065822 -0.000655209 -4.51217e-05
0.00130627 -0.000395346 -0.000390395 -7.51582e-05
0.00173551 -0.000523497 -0.000519435 -6.20224e-05
0.00217851 -0.000655646 -0.000652658 -4.5121e-05
0.00174914 -0.000527629 -0.000523503 -6.20245e-05
0.00174232 -0.000525563 -0.000521469 -6.20235e-05
0.00130117 -0.00039379 -0.000388877 -7.51571e-05
0.00129097 -0.000390676 -0.000385841 -7.51548e-05
0.00215293 -0.000647922 -0.000645004 -4.51186e-05
0.00216999 -0.000653071 -0.000650107 -4.51202e-05
0.00129607 -0.000392233 -0.000387359 -7.51559e-05
0.00172189 -0.000519365 -0.000515367 -6.20204e-05
0.00216146 -0.000650496 -0.000647555 -4.51194e-05
0.00173551 -0.000523497 -0.000519435 -6.20224e-05
0.0017287 -0.000521431 -0.000517401 -6.20214e-05
0.00129097 -0.000390676 -0.000385841 -7.51548e-05
0.00128078 -0.000387564 -0.000382805 -7.51524e-05
0.00213588 -0.000642773 -0.000639902 -4.5117e-05
0.00215293 -0.000647922 -0.000645004 -4.51186e-05
0.00128587 -0.00038912 -0.000384323 -7.51536e-05
0.00170826 -0.000515233 -0.000511298 -6.20183e-05
0.0021444 -0.000645347 -0.000642453 -4.51178e-05
0.00172189 -0.000519365 -0.000515367 -6.20204e-05
0.00171508 -0.000517299 -0.000513333 -6.20194e-05
0.00128078 -0.000387564 -0.000382805 -7.51524e-05
0.00127058 -0.000384451 -0.000379769 -7.51501e-05
0.00211882 -0.000637624 -0.000634799 -4.51154e-05
0.00213588 -0.000642773 -0.000639902 -4.5117e-05
0.00127568 -0.000386007 -0.000381287 -7.51513e-05
0.00169464 -0.000511101 -0.00050723 -6.20163e-05
0.00212735 -0.000640199 -0.00063735 -4.51162e-05
0.00170826 -0.000515233 -0.000511298 -6.20183e-05
0.00170145 -0.000513167 -0.000509264 -6.20173e-05
0.00127058 -0.000384451 -0.000379769 -7.51501e-05
0.00126038 -0.000381339 -0.000376732 -7.51478e-05
0.00210177 -0.000632476 -0.000629696 -4.51138e-05
0.00211882 -0.000637624 -0.000634799 -4.51154e-05
0.00126548 -0.000382895 -0.000378251 -7.5149e-05
0.00168101 -0.00050697 -0.000503161 -6.20142e-05
0.00211029 -0.00063505 -0.000632247 -4.51146e-05
0.00169464 -0.000511101 -0.00050723 -6.20163e-05
0.00168782 -0.000509036 -0.000505195 -6.20152e-05
0.00126038 -0.000381339 -0.000376732 -7.51478e-05
0.00125018 -0.000378227 -0.000373695 -7.51455e-05
0.00208471 -0.000627328 -0.000624593 -4.51122e-05
0.00210177 -0.000632476 -0.000629696 -4.51138e-05
0.00125528 -0.000379783 -0.000375214 -7.51466e-05
0.00166739 -0.000502839 -0.000499092 -6.20121e-05
0.00209324 -0.000629902 -0.000627145 -4.5113e-05
0.00168101 -0.00050697 -0.000503161 -6.20142e-05
0.0016742 -0.000504904 -0.000501126 -6.20132e-05
0.00125018 -0.000378227 -0.000373695 -7.51455e-05
0.00123999 -0.000375116 -0.000370658 -7.51431e-05
0.00206766 -0.00062218 -0.00061949 -4.51106e-05
0.00208471 -0.000627328 -0.000624593 -4.51122e-05
0.00124508 -0.000376671 -0.000372177 -7.51443e-05
0.00165376 -0.000498708 -0.000495023 -6.20101e-05
0.00207618 -0.000624754 -0.000622042 -4.51114e-05
0.00166739 -0.000502839 -0.000499092 -6.20121e-05
0.00166057 -0.000500774 -0.000497057 -6.20111e-05
0.00123999 -0.000375116 -0.000370658 -7.51431e-05
0.00122979 -0.000372005 -0.000367621 -7.51408e-05
0.0020506 -0.000617033 -0.000614387 -4.5109e-05
0.00206766 -0.00062218 -0.00061949 -4.51106e-05
0.00123489 -0.00037356 -0.00036914 -7.5142e-05
0.00164014 -0.000494578 -0.000490953 -6.2008e-05
0.00205913 -0.000619606 -0.000616939 -4.51098e-05
0.00165376 -0.000498708 -0.000495023 -6.20101e-05
0.00164695 -0.000496643 -0.000492988 -6.2009e-05
0.00122979 -0.000372005 -0.000367621 -7.51408e-05
0.00121959 -0.000368894 -0.000364583 -7.51384e-05
0.00203355 -0.000611885 -0.000609284 -4.51073e-05
0.0020506 -0.000617033 -0.000614387 -4.5109e-05
0.00122469 -0.000370449 -0.000366102 -7.51396e-05
0.00162651 -0.000490448 -0.000486884 -6.20059e-05
0.00204207 -0.000614459 -0.000611835 -4.51081e-05
0.00164014 -0.000494578 -0.000490953 -6.2008e-05
0.00163332 -0.000492513 -0.000488919 -6.2007e-05
0.00121959 -0.000368894 -0.000364583 -7.51384e-05
0.00120939 -0.000365784 -0.000361545 -7.51361e-05
0.00201649 -0.000606738 -0.000604181 -4.51057e-05
0.00203355 -0.000611885 -0.000609284 -4.51073e-05
0.00121449 -0.000367339 -0.000363064 -7.51373e-05
0.00161288 -0.000486318 -0.000482814 -6.20039e-05
0.00202502 -0.000609312 -0.000606732 -4.51065e-05
0.00162651 -0.000490448 -0.000486884 -6.20059e-05
0.0016197 -0.000488383 -0.000484849 -6.20049e-05
0.00120939 -0.000365784 -0.000361545 -7.51361e-05
0.00119919 -0.000362674 -0.000358507 -7.51338e-05
0.00199944 -0.000601592 -0.000599077 -4.51041e-05
0.00201649 -0.000606738 -0.000604181 -4.51057e-05
0.00120429 -0.000364229 -0.000360026 -7.51349e-05
0.00159926 -0.000482189 -0.000478744 -6.20018e-05
0.00200797 -0.000604165 -0.000601629 -4.51049e-05
0.00161288 -0.000486318 -0.000482814 -6.20039e-05
0.00160607 -0.000484254 -0.000480779 -6.20028e-05
0.00119919 -0.000362674 -0.000358507 -7.51338e-05
0.00118899 -0.000359564 -0.000355469 -7.51314e-05
0.00198238 -0.000596445 -0.000593974 -4.51025e-05
0.00199944 -0.000601592 -0.000599077 -4.51041e-05
0.00119409 -0.000361119 -0.000356988 -7.51326e-05
0.00158563 -0.00047806 -0.000474674 -6.19997e-05
0.00199091 -0.000599018 -0.000596525 -4.51033e-05
0.00159926 -0.000482189 -0.000478744 -6.20018e-05
0.00159245 -0.000480125 -0.000476709 -6.20007e-05
0.00118899 -0.000359564 -0.000355469 -7.51314e-05
0.00117879 -0.000356455 -0.00035243 -7.51291e-05
0.00196533 -0.000591299 -0.00058887 -4.51009e-05
0.00198238 -0.000596445 -0.000593974 -4.51025e-05
0.00118389 -0.000358009 -0.000353949 -7.51302e-05
0.00157201 -0.000473931 -0.000470603 -6.19976e-05
0.00197386 -0.000593872 -0.000591422 -4.51017e-05
0.00158563 -0.00047806 -0.000474674 -6.19997e-05
0.00157882 -0.000475996 -0.000472639 -6.19987e-05
0.00117879 -0.000356455 -0.00035243 -7.51291e-05
0.00116859 -0.000353346 -0.000349391 -7.51267e-05
0.00194827 -0.000586153 -0.000583766 -4.50993e-05
0.00196533 -0.000591299 -0.00058887 -4.51009e-05
0.00117369 -0.0003549 -0.00035091 -7.51279e-05
0.00155838 -0.000469803 -0.000466533 -6.19956e-05
0.0019568 -0.000588726 -0.000586318 -4.51001e-05
0.00157201 -0.000473931 -0.000470603 -6.19976e-05
0.00156519 -0.000471867 -0.000468568 -6.19966e-05
0.00116859 -0.000353346 -0.000349391 -7.51267e-05
0.00115839 -0.000350237 -0.000346352 -7.51244e-05
0.00193122 -0.000581007 -0.000578662 -4.50977e-05
0.00194827 -0.000586153 -0.000583766 -4.50993e-05
0.00116349 -0.000351791 -0.000347871 -7.51255e-05
0.00154475 -0.000465675 -0.000462462 -6.19935e-05
0.00193975 -0.00058358 -0.000581214 -4.50985e-05
0.00155838 -0.000469803 -0.000466533 -6.19956e-05
0.00155157 -0.000467739 -0.000464497 -6.19945e-05
0.00115839 -0.000350237 -0.000346352 -7.51244e-05
0.00114819 -0.000347129 -0.000343312 -7.5122e-05
0.00191417 -0.000575862 -0.000573559 -4.50961e-05
0.00193122 -0.000581007 -0.000578662 -4.50977e-05
0.00115329 -0.000348683 -0.000344832 -7.51232e-05
0.00153113 -0.000461547 -0.000458391 -6.19914e-05
0.00192269 -0.000578435 -0.000576111 -4.50969e-05
0.00154475 -0.000465675 -0.000462462 -6.19935e-05
0.00153794 -0.000463611 -0.000460427 -6.19924e-05
0.00114819 -0.000347129 -0.000343312 -7.5122e-05
0.00113799 -0.000344021 -0.000340272 -7.51197e-05
0.00189711 -0.000570717 -0.000568455 -4.50945e-05
0.00191417 -0.000575862 -0.000573559 -4.50961e-05
0.00114309 -0.000345575 -0.000341792 -7.51209e-05
0.0015175 -0.00045742 -0.00045432 -6.19893e-05
0.00190564 -0.000573289 -0.000571007 -4.50953e-05
0.00153113 -0.000461547 -0.000458391 -6.19914e-05
0.00152431 -0.000459483 -0.000456356 -6.19904e-05
0.00113799 -0.000344021 -0.000340272 -7.51197e-05
0.00112779 -0.000340913 -0.000337232 -7.51173e-05
0.00188006 -0.000565572 -0.00056335 -4.50928e-05
0.00189711 -0.000570717 -0.000568455 -4.50945e-05
0.00113289 -0.000342467 -0.000338752 -7.51185e-05
0.00150387 -0.000453292 -0.000450249 -6.19873e-05
0.00188858 -0.000568144 -0.000565903 -4.50936e-05
0.0015175 -0.00045742 -0.00045432 -6.19893e-05
0.00151069 -0.000455356 -0.000452284 -6.19883e-05
0.00112779 -0.000340913 -0.000337232 -7.51173e-05
0.00111759 -0.000337806 -0.000334192 -7.5115e-05
0.001863 -0.000560427 -0.000558246 -4.50912e-05
0.00188006 -0.000565572 -0.00056335 -4.50928e-05
0.00112269 -0.00033936 -0.000335712 -7.51162e-05
0.00149025 -0.000449166 -0.000446177 -6.19852e-05
0.00187153 -0.000563 -0.000560798 -4.5092e-05
0.00150387 -0.000453292 -0.000450249 -6.19873e-05
0.00149706 -0.000451229 -0.000448213 -6.19862e-05
0.00111759 -0.000337806 -0.000334192 -7.5115e-05
0.00110739 -0.000334699 -0.000331151 -7.51127e-05
0.00184595 -0.000555283 -0.000553142 -4.50896e-05
0.001863 -0.000560427 -0.000558246 -4.50912e-05
0.00111249 -0.000336252 -0.000332671 -7.51138e-05
0.00147662 -0.000445039 -0.000442106 -6.19831e-05
0.00185447 -0.000557855 -0.000555694 -4.50904e-05
0.00149025 -0.000449166 -0.000446177 -6.19852e-05
0.00148343 -0.000447102 -0.000444141 -6.19841e-05
0.00110739 -0.000334699 -0.000331151 -7.51127e-05
0.00109718 -0.000331592 -0.00032811 -7.51103e-05
0.00182889 -0.000550139 -0.000548038 -4.5088e-05
0.00184595 -0.000555283 -0.000553142 -4.50896e-05
0.00110228 -0.000333146 -0.000329631 -7.51115e-05
0.00146299 -0.000440913 -0.000438034 -6.1981e-05
0.00183742 -0.000552711 -0.00055059 -4.50888e-05
0.00147662 -0.000445039 -0.000442106 -6.19831e-05
0.00146981 -0.000442976 -0.00044007 -6.19821e-05
0.00109718 -0.000331592 -0.00032811 -7.51103e-05
0.00108698 -0.000328486 -0.000325069 -7.5108e-05
0.00181184 -0.000544995 -0.000542933 -4.50864e-05
0.00182889 -0.000550139 -0.000548038 -4.5088e-05
0.00109208 -0.000330039 -0.00032659 -7.51092e-05
0.00144936 -0.000436787 -0.000433962 -6.1979e-05
0.00182037 -0.000547567 -0.000545485 -4.50872e-05
0.00146299 -0.000440913 -0.000438034 -6.1981e-05
0.00145618 -0.00043885 -0.000435998 -6.198e-05
0.00108698 -0.000328486 -0.000325069 -7.5108e-05
0.00107678 -0.00032538 -0.000322028 -7.51057e-05
0.00179478 -0.000539852 -0.000537828 -4.50848e-05
0.00181184 -0.000544995 -0.000542933 -4.50864e-05
0.00108188 -0.000326933 -0.000323549 -7.51068e-05
0.00143574 -0.000432662 -0.000429889 -6.19769e-05
0.00180331 -0.000542423 -0.000540381 -4.50856e-05
0.00144936 -0.000436787 -0.000433962 -6.1979e-05
0.00144255 -0.000434724 -0.000431925 -6.19779e-05
0.00107678 -0.00032538 -0.000322028 -7.51057e-05
0.00106658 -0.000322275 -0.000318986 -7.51033e-05
0.00177773 -0.000534708 -0.000532724 -4.50832e-05
0.00179478 -0.000539852 -0.000537828 -4.50848e-05
0.00107168 -0.000323828 -0.000320507 -7.51045e-05
0.00142211 -0.000428536 -0.000425817 -6.19749e-05
0.00178626 -0.00053728 -0.000535276 -4.5084e-05
0.00143574 -0.000432662 -0.000429889 -6.19769e-05
0.00142892 -0.000430599 -0.000427853 -6.19759e-05
0.00106658 -0.000322275 -0.000318986 -7.51033e-05
0.00105637 -0.00031917 -0.000315944 -7.5101e-05
0.00176068 -0.000529565 -0.000527619 -4.50816e-05
0.00177773 -0.000534708 -0.000532724 -4.50832e-05
0.00106147 -0.000320722 -0.000317465 -7.51022e-05
0.00140848 -0.000424411 -0.000421744 -6.19728e-05
0.0017692 -0.000532137 -0.000530171 -4.50824e-05
0.00142211 -0.000428536 -0.000425817 -6.19749e-05
0.0014153 -0.000426474 -0.000423781 -6.19738e-05
0.00105637 -0.00031917 -0.000315944 -7.5101e-05
0.00104617 -0.000316065 -0.000312902 -7.50987e-05
0.00174362 -0.000524423 -0.000522514 -4.508e-05
0.00176068 -0.000529565 -0.000527619 -4.50816e-05
0.00105127 -0.000317617 -0.000314423 -7.50999e-05
0.00139485 -0.000420287 -0.000417671 -6.19707e-05
0.00175215 -0.000526994 -0.000525066 -4.50808e-05
0.00140848 -0.000424411 -0.000421744 -6.19728e-05
0.00140167 -0.000422349 -0.000419708 -6.19718e-05
0.00104617 -0.000316065 -0.000312902 -7.50987e-05
0.00103597 -0.000312961 -0.00030986 -7.50964e-05
0.00172657 -0.00051928 -0.000517409 -4.50784e-05
0.00174362 -0.000524423 -0.000522514 -4.508e-05
0.00104107 -0.000314513 -0.000311381 -7.50975e-05
0.00138123 -0.000416162 -0.000413598 -6.19687e-05
0.00173509 -0.000521851 -0.000519961 -4.50792e-05
0.00139485 -0.000420287 -0.000417671 -6.19707e-05
0.00138804 -0.000418225 -0.000415635 -6.19697e-05
0.00103597 -0.000312961 -0.00030986 -7.50964e-05
0.00102576 -0.000309856 -0.000306817 -7.50941e-05
0.00170951 -0.000514138 -0.000512304 -4.50768e-05
0.00172657 -0.00051928 -0.000517409 -4.50784e-05
0.00103086 -0.000311408 -0.000308338 -7.50952e-05
0.0013676 -0.000412038 -0.000409525 -6.19667e-05
0.00171804 -0.000516709 -0.000514856 -4.50776e-05
0.00138123 -0.000416162 -0.000413598 -6.19687e-05
0.00137441 -0.0004141 -0.000411562 -6.19677e-05
0.00102576 -0.000309856 -0.000306817 -7.50941e-05
0.00101556 -0.000306753 -0.000303774 -7.50918e-05
0.00169246 -0.000508996 -0.000507199 -4.50753e-05
0.00170951 -0.000514138 -0.000512304 -4.50768e-05
0.00102066 -0.000308304 -0.000305295 -7.50929e-05
0.00135397 -0.000407915 -0.000405452 -6.19646e-05
0.00170099 -0.000511567 -0.000509751 -4.5076e-05
0.0013676 -0.000412038 -0.000409525 -6.19667e-05
0.00136078 -0.000409977 -0.000407488 -6.19656e-05
0.00101556 -0.000306753 -0.000303774 -7.50918e-05
0.00100535 -0.000303649 -0.000300731 -7.50895e-05
0.00167541 -0.000503854 -0.000502093 -4.50737e-05
0.00169246 -0.000508996 -0.000507199 -4.50753e-05
0.00101046 -0.000305201 -0.000302252 -7.50906e-05
0.00134034 -0.000403791 -0.000401378 -6.19626e-05
0.00168393 -0.000506425 -0.000504646 -4.50745e-05
0.00135397 -0.000407915 -0.000405452 -6.19646e-05
0.00134715 -0.000405853 -0.000403415 -6.19636e-05
0.00100535 -0.000303649 -0.000300731 -7.50895e-05
0.000995149 -0.000300546 -0.000297687 -7.50872e-05
0.00165835 -0.000498713 -0.000496988 -4.50721e-05
0.00167541 -0.000503854 -0.000502093 -4.50737e-05
0.00100025 -0.000302098 -0.000299209 -7.50883e-05
0.00132671 -0.000399668 -0.000397304 -6.19605e-05
0.00166688 -0.000501284 -0.00049954 -4.50729e-05
0.00134034 -0.000403791 -0.000401378 -6.19626e-05
0.00133353 -0.00040173 -0.000399341 -6.19616e-05
0.000995149 -0.000300546 -0.000297687 -7.50872e-05
0.000984945 -0.000297443 -0.000294643 -7.50849e-05
0.0016413 -0.000493572 -0.000491882 -4.50705e-05
0.00165835 -0.000498713 -0.000496988 -4.50721e-05
0.000990047 -0.000298995 -0.000296165 -7.5086e-05
0.00131308 -0.000395546 -0.00039323 -6.19585e-05
0.00164982 -0.000496142 -0.000494435 -4.50713e-05
0.00132671 -0.000399668 -0.000397304 -6.19605e-05
0.0013199 -0.000397607 -0.000395267 -6.19595e-05
0.000984945 -0.000297443 -0.000294643 -7.50849e-05
0.000974739 -0.000294341 -0.000291599 -7.50826e-05
0.00162424 -0.000488431 -0.000486777 -4.5069e-05
0.0016413 -0.000493572 -0.000491882 -4.50705e-05
0.000979842 -0.000295892 -0.000293121 -7.50838e-05
0.00129945 -0.000391423 -0.000389156 -6.19565e-05
0.00163277 -0.000491001 -0.000489329 -4.50697e-05
0.00131308 -0.000395546 -0.00039323 -6.19585e-05
0.00130627 -0.000393484 -0.000391193 -6.19575e-05
0.000974739 -0.000294341 -0.000291599 -7.50826e-05
0.000964534 -0.000291239 -0.000288555 -7.50804e-05
0.00160719 -0.00048329 -0.000481671 -4.50674e-05
0.00162424 -0.000488431 -0.000486777 -4.5069e-05
0.000969637 -0.00029279 -0.000290077 -7.50815e-05
0.00128583 -0.000387301 -0.000385082 -6.19545e-05
0.00161572 -0.000485861 -0.000484224 -4.50682e-05
0.00129945 -0.000391423 -0.000389156 -6.19565e-05
0.00129264 -0.000389362 -0.000387119 -6.19555e-05
0.000964534 -0.000291239 -0.000288555 -7.50804e-05
0.000954328 -0.000288137 -0.00028551 -7.50781e-05
0.00159013 -0.00047815 -0.000476565 -4.50658e-05
0.00160719 -0.00048329 -0.000481671 -4.50674e-05
0.000959431 -0.000289688 -0.000287033 -7.50792e-05
0.0012722 -0.000383179 -0.000381007 -6.19525e-05
0.00159866 -0.00048072 -0.000479118 -4.50666e-05
0.00128583 -0.000387301 -0.000385082 -6.19545e-05
0.00127901 -0.00038524 -0.000383045 -6.19535e-05
0.000954328 -0.000288137 -0.00028551 -7.50781e-05
0.000944122 -0.000285036 -0.000282466 -7.50758e-05
0.00157308 -0.00047301 -0.000471459 -4.50643e-05
0.00159013 -0.00047815 -0.000476565 -4.50658e-05
0.000949225 -0.000286587 -0.000283988 -7.5077e-05
0.00125857 -0.000379058 -0.000376933 -6.19505e-05
0.00158161 -0.00047558 -0.000474012 -4.5065e-05
0.0012722 -0.000383179 -0.000381007 -6.19525e-05
0.00126538 -0.000381118 -0.00037897 -6.19515e-05
0.000944122 -0.000285036 -0.000282466 -7.50758e-05
0.000933916 -0.000281935 -0.00027942 -7.50736e-05
0.00155603 -0.00046787 -0.000466353 -4.50627e-05
0.00157308 -0.00047301 -0.000471459 -4.50643e-05
0.000939019 -0.000283485 -0.000280943 -7.50747e-05
0.00124494 -0.000374937 -0.000372858 -6.19485e-05
0.00156455 -0.00047044 -0.000468906 -4.50635e-05
0.00125857 -0.000379058 -0.000376933 -6.19505e-05
0.00125175 -0.000376997 -0.000374895 -6.19495e-05
0.000933916 -0.000281935 -0.00027942 -7.50736e-05
0.000923709 -0.000278834 -0.000276375 -7.50714e-05
0.00153897 -0.00046273 -0.000461247 -4.50612e-05
0.00155603 -0.00046787 -0.000466353 -4.50627e-05
0.000928813 -0.000280385 -0.000277898 -7.50725e-05
0.00123131 -0.000370816 -0.000368782 -6.19465e-05
0.0015475 -0.0004653 -0.0004638 -4.50619e-05
0.00124494 -0.000374937 -0.000372858 -6.19485e-05
0.00123812 -0.000372876 -0.00037082 -6.19475e-05
0.000923709 -0.000278834 -0.000276375 -7.50714e-05
0.000913503 -0.000275734 -0.000273329 -7.50691e-05
0.00152192 -0.000457591 -0.00045614 -4.50596e-05
0.00153897 -0.00046273 -0.000461247 -4.50612e-05
0.000918606 -0.000277284 -0.000274852 -7.50703e-05
0.00121768 -0.000366695 -0.000364707 -6.19445e-05
0.00153045 -0.000460161 -0.000458694 -4.50604e-05
0.00123131 -0.000370816 -0.000368782 -6.19465e-05
0.00122449 -0.000368755 -0.000366745 -6.19455e-05
0.000913503 -0.000275734 -0.000273329 -7.50691e-05
0.000903295 -0.000272634 -0.000270284 -7.50669e-05
0.00150486 -0.000452452 -0.000451034 -4.50581e-05
0.00152192 -0.000457591 -0.00045614 -4.50596e-05
0.000908399 -0.000274184 -0.000271807 -7.5068e-05
0.00120405 -0.000362575 -0.000360632 -6.19426e-05
0.00151339 -0.000455022 -0.000453587 -4.50589e-05
0.00121768 -0.000366695 -0.000364707 -6.19445e-05
0.00121086 -0.000364635 -0.000362669 -6.19436e-05
0.000903295 -0.000272634 -0.000270284 -7.50669e-05
0.000893088 -0.000269534 -0.000267237 -7.50647e-05
0.00148781 -0.000447313 -0.000445927 -4.50566e-05
0.00150486 -0.000452452 -0.000451034 -4.50581e-05
0.000898192 -0.000271084 -0.00026876 -7.50658e-05
0.00119042 -0.000358455 -0.000356556 -6.19406e-05
0.00149634 -0.000449883 -0.000448481 -4.50573e-05
0.00120405 -0.000362575 -0.000360632 -6.19426e-05
0.00119723 -0.000360515 -0.000358594 -6.19416e-05
0.000893088 -0.000269534 -0.000267237 -7.50647e-05
0.00088288 -0.000266435 -0.000264191 -7.50625e-05
0.00147076 -0.000442175 -0.000440821 -4.50551e-05
0.00148781 -0.000447313 -0.000445927 -4.50566e-05
0.000887984 -0.000267985 -0.000265714 -7.50636e-05
0.00117679 -0.000354335 -0.00035248 -6.19387e-05
0.00147928 -0.000444744 -0.000443374 -4.50558e-05
0.00119042 -0.000358455 -0.000356556 -6.19406e-05
0.0011836 -0.000356395 -0.000354518 -6.19396e-05
0.00088288 -0.000266435 -0.000264191 -7.50625e-05
0.000872672 -0.000263336 -0.000261144 -7.50603e-05
0.0014537 -0.000437036 -0.000435714 -4.50535e-05
0.00147076 -0.000442175 -0.000440821 -4.50551e-05
0.000877776 -0.000264885 -0.000262668 -7.50614e-05
0.00116316 -0.000350216 -0.000348404 -6.19367e-05
0.00146223 -0.000439605 -0.000438268 -4.50543e-05
0.00117679 -0.000354335 -0.00035248 -6.19387e-05
0.00116997 -0.000352276 -0.000350442 -6.19377e-05
0.000872672 -0.000263336 -0.000261144 -7.50603e-05
0.000862464 -0.000260237 -0.000258097 -7.50582e-05
0.00143665 -0.000431898 -0.000430607 -4.5052e-05
0.0014537 -0.000437036 -0.000435714 -4.50535e-05
0.000867568 -0.000261787 -0.000259621 -7.50593e-05
0.00114953 -0.000346097 -0.000344327 -6.19348e-05
0.00144518 -0.000434467 -0.000433161 -4.50528e-05
0.00116316 -0.000350216 -0.000348404 -6.19367e-05
0.00115634 -0.000348156 -0.000346366 -6.19357e-05
0.000862464 -0.000260237 -0.000258097 -7.50582e-05
0.000852256 -0.000257139 -0.00025505 -7.5056e-05
0.00141959 -0.000426761 -0.0004255 -4.50505e-05
0.00143665 -0.000431898 -0.000430607 -4.5052e-05
0.00085736 -0.000258688 -0.000256574 -7.50571e-05
0.0011359 -0.000341978 -0.000340251 -6.19329e-05
0.00142812 -0.000429329 -0.000428054 -4.50513e-05
0.00114953 -0.000346097 -0.000344327 -6.19348e-05
0.00114271 -0.000344038 -0.000342289 -6.19338e-05
0.000852256 -0.000257139 -0.00025505 -7.5056e-05
0.000842047 -0.000254041 -0.000252002 -7.50539e-05
0.00140254 -0.000421623 -0.000420393 -4.5049e-05
0.00141959 -0.000426761 -0.0004255 -4.50505e-05
0.000847151 -0.00025559 -0.000253526 -7.50549e-05
0.00112227 -0.00033786 -0.000336174 -6.19309e-05
0.00141107 -0.000424192 -0.000422947 -4.50498e-05
0.0011359 -0.000341978 -0.000340251 -6.19329e-05
0.00112908 -0.000339919 -0.000338213 -6.19319e-05
0.000842047 -0.000254041 -0.000252002 -7.50539e-05
0.000831838 -0.000250944 -0.000248955 -7.50517e-05
0.00138549 -0.000416486 -0.000415286 -4.50475e-05
0.00140254 -0.000421623 -0.000420393 -4.5049e-05
0.000836942 -0.000252492 -0.000250478 -7.50528e-05
0.00110864 -0.000333742 -0.000332097 -6.1929e-05
0.00139401 -0.000419054 -0.00041784 -4.50483e-05
0.00112227 -0.00033786 -0.000336174 -6.19309e-05
0.00111545 -0.000335801 -0.000334136 -6.193e-05
0.000831838 -0.000250944 -0.000248955 -7.50517e-05
0.000821628 -0.000247846 -0.000245906 -7.50496e-05
0.00136843 -0.000411349 -0.000410179 -4.50461e-05
0.00138549 -0.000416486 -0.000415286 -4.50475e-05
0.000826733 -0.000249395 -0.000247431 -7.50506e-05
0.001095 -0.000329624 -0.00032802 -6.19271e-05
0.00137696 -0.000413917 -0.000412732 -4.50468e-05
0.00110864 -0.000333742 -0.000332097 -6.1929e-05
0.00110182 -0.000331683 -0.000330059 -6.19281e-05
0.000821628 -0.000247846 -0.000245906 -7.50496e-05
0.000811418 -0.000244749 -0.000242858 -7.50475e-05
0.00135138 -0.000406212 -0.000405071 -4.50446e-05
0.00136843 -0.000411349 -0.000410179 -4.50461e-05
0.000816523 -0.000246298 -0.000244382 -7.50485e-05
0.00108137 -0.000325506 -0.000323943 -6.19252e-05
0.00135991 -0.00040878 -0.000407625 -4.50453e-05
0.001095 -0.000329624 -0.00032802 -6.19271e-05
0.00108819 -0.000327565 -0.000325981 -6.19262e-05
0.000811418 -0.000244749 -0.000242858 -7.50475e-05
0.000801208 -0.000241653 -0.000239809 -7.50454e-05
0.00133432 -0.000401075 -0.000399964 -4.50431e-05
0.00135138 -0.000406212 -0.000405071 -4.50446e-05
0.000806313 -0.000243201 -0.000241334 -7.50464e-05
0.00106774 -0.000321389 -0.000319865 -6.19234e-05
0.00134285 -0.000403644 -0.000402518 -4.50439e-05
0.00108137 -0.000325506 -0.000323943 -6.19252e-05
0.00107456 -0.000323448 -0.000321904 -6.19243e-05
0.000801208 -0.000241653 -0.000239809 -7.50454e-05
0.000790998 -0.000238557 -0.000236761 -7.50433e-05
0.00131727 -0.000395939 -0.000394856 -4.50417e-05
0.00133432 -0.000401075 -0.000399964 -4.50431e-05
0.000796103 -0.000240105 -0.000238285 -7.50443e-05
0.00105411 -0.000317272 -0.000315788 -6.19215e-05
0.0013258 -0.000398507 -0.00039741 -4.50424e-05
0.00106774 -0.000321389 -0.000319865 -6.19234e-05
0.00106093 -0.000319331 -0.000317826 -6.19224e-05
0.000790998 -0.000238557 -0.000236761 -7.50433e-05
0.000780787 -0.000235461 -0.000233711 -7.50412e-05
0.00130022 -0.000390803 -0.000389748 -4.50402e-05
0.00131727 -0.000395939 -0.000394856 -4.50417e-05
0.000785893 -0.000237009 -0.000235236 -7.50422e-05
0.00104048 -0.000313156 -0.00031171 -6.19197e-05
0.00130874 -0.000393371 -0.000392302 -4.50409e-05
0.00105411 -0.000317272 -0.000315788 -6.19215e-05
0.00104729 -0.000315214 -0.000313749 -6.19206e-05
0.000780787 -0.000235461 -0.000233711 -7.50412e-05
0.000770576 -0.000232365 -0.000230662 -7.50391e-05
0.00128316 -0.000385667 -0.00038464 -4.50388e-05
0.00130022 -0.000390803 -0.000389748 -4.50402e-05
0.000775682 -0.000233913 -0.000232187 -7.50402e-05
0.00102685 -0.000309039 -0.000307631 -6.19178e-05
0.00129169 -0.000388235 -0.000387194 -4.50395e-05
0.00104048 -0.000313156 -0.00031171 -6.19197e-05
0.00103366 -0.000311098 -0.000309671 -6.19187e-05
0.000770576 -0.000232365 -0.000230662 -7.50391e-05
0.000760365 -0.00022927 -0.000227612 -7.50371e-05
0.00126611 -0.000380532 -0.000379532 -4.50373e-05
0.00128316 -0.000385667 -0.00038464 -4.50388e-05
0.000765471 -0.000230817 -0.000229137 -7.50381e-05
0.00101321 -0.000304923 -0.000303553 -6.1916e-05
0.00127463 -0.0003831 -0.000382086 -4.50381e-05
0.00102685 -0.000309039 -0.000307631 -6.19178e-05
0.00102003 -0.000306981 -0.000305592 -6.19169e-05
0.000760365 -0.00022927 -0.000227612 -7.50371e-05
0.000750153 -0.000226175 -0.000224562 -7.5035e-05
0.00124905 -0.000375397 -0.000374424 -4.50359e-05
0.00126611 -0.000380532 -0.000379532 -4.50373e-05
0.000755259 -0.000227722 -0.000226087 -7.50361e-05
0.000999582 -0.000300808 -0.000299475 -6.19142e-05
0.00125758 -0.000377964 -0.000376978 -4.50366e-05
0.00101321 -0.000304923 -0.000303553 -6.1916e-05
0.0010064 -0.000302866 -0.000301514 -6.19151e-05
0.000750153 -0.000226175 -0.000224562 -7.5035e-05
0.000739942 -0.00022308 -0.000221512 -7.5033e-05
0.001232 -0.000370262 -0.000369316 -4.50345e-05
0.00124905 -0.000375397 -0.000374424 -4.50359e-05
0.000745048 -0.000224628 -0.000223037 -7.5034e-05
0.000985949 -0.000296692 -0.000295396 -6.19123e-05
0.00124053 -0.000372829 -0.00037187 -4.50352e-05
0.000999582 -0.000300808 -0.000299475 -6.19142e-05
0.000992765 -0.00029875 -0.000297435 -6.19133e-05
0.000739942 -0.00022308 -0.000221512 -7.5033e-05
0.000729729 -0.000219986 -0.000218461 -7.5031e-05
0.00121494 -0.000365127 -0.000364208 -4.50331e-05
0.001232 -0.000370262 -0.000369316 -4.50345e-05
0.000734836 -0.000221533 -0.000219987 -7.5032e-05
0.000972316 -0.000292577 -0.000291317 -6.19106e-05
0.00122347 -0.000367694 -0.000366762 -4.50338e-05
0.000985949 -0.000296692 -0.000295396 -6.19123e-05
0.000979133 -0.000294635 -0.000293356 -6.19114e-05
0.000729729 -0.000219986 -0.000218461 -7.5031e-05
0.000719517 -0.000216892 -0.000215411 -7.5029e-05
0.00119789 -0.000359992 -0.000359099 -4.50317e-05
0.00121494 -0.000365127 -0.000364208 -4.50331e-05
0.000724623 -0.000218439 -0.000216936 -7.503e-05
0.000958684 -0.000288462 -0.000287238 -6.19088e-05
0.00120642 -0.000362559 -0.000361653 -4.50324e-05
0.000972316 -0.000292577 -0.000291317 -6.19106e-05
0.0009655 -0.00029052 -0.000289277 -6.19097e-05
0.000719517 -0.000216892 -0.000215411 -7.5029e-05
0.000709304 -0.000213799 -0.000212359 -7.5027e-05
0.00118084 -0.000354858 -0.000353991 -4.50303e-05
0.00119789 -0.000359992 -0.000359099 -4.50317e-05
0.000714411 -0.000215345 -0.000213885 -7.5028e-05
0.000945051 -0.000284348 -0.000283158 -6.1907e-05
0.00118936 -0.000357425 -0.000356545 -4.5031e-05
0.000958684 -0.000288462 -0.000287238 -6.19088e-05
0.000951867 -0.000286405 -0.000285198 -6.19079e-05
0.000709304 -0.000213799 -0.000212359 -7.5027e-05
0.000699091 -0.000210705 -0.000209308 -7.50251e-05
0.00116378 -0.000349724 -0.000348882 -4.50289e-05
0.00118084 -0.000354858 -0.000353991 -4.50303e-05
0.000704198 -0.000212252 -0.000210834 -7.50261e-05
0.000931417 -0.000280234 -0.000279079 -6.19052e-05
0.00117231 -0.000352291 -0.000351436 -4.50296e-05
0.000945051 -0.000284348 -0.000283158 -6.1907e-05
0.000938234 -0.000282291 -0.000281118 -6.19061e-05
0.000699091 -0.000210705 -0.000209308 -7.50251e-05
0.000688877 -0.000207613 -0.000206256 -7.50231e-05
0.00114673 -0.00034459 -0.000343773 -4.50275e-05
0.00116378 -0.000349724 -0.000348882 -4.50289e-05
0.000693984 -0.000209159 -0.000207782 -7.50241e-05
0.000917784 -0.00027612 -0.000274999 -6.19035e-05
0.00115525 -0.000347157 -0.000346327 -4.50282e-05
0.000931417 -0.000280234 -0.000279079 -6.19052e-05
0.000924601 -0.000278177 -0.000277039 -6.19044e-05
0.000688877 -0.000207613 -0.000206256 -7.50231e-05
0.000678664 -0.00020452 -0.000203204 -7.50212e-05
0.00112967 -0.000339456 -0.000338664 -4.50262e-05
0.00114673 -0.00034459 -0.000343773 -4.50275e-05
0.000683771 -0.000206066 -0.00020473 -7.50222e-05
0.00090415 -0.000272006 -0.000270919 -6.19018e-05
0.0011382 -0.000342023 -0.000341218 -4.50269e-05
0.000917784 -0.00027612 -0.000274999 -6.19035e-05
0.000910967 -0.000274063 -0.000272959 -6.19026e-05
0.000678664 -0.00020452 -0.000203204 -7.50212e-05
0.00066845 -0.000201428 -0.000200152 -7.50193e-05
0.00111262 -0.000334323 -0.000333555 -4.50248e-05
0.00112967 -0.000339456 -0.000338664 -4.50262e-05
0.000673557 -0.000202974 -0.000201678 -7.50202e-05
0.000890516 -0.000267893 -0.000266839 -6.19e-05
0.00112114 -0.00033689 -0.000336109 -4.50255e-05
0.00090415 -0.000272006 -0.000270919 -6.19018e-05
0.000897333 -0.000269949 -0.000268879 -6.19009e-05
0.00066845 -0.000201428 -0.000200152 -7.50193e-05
0.000658235 -0.000198336 -0.0001971 -7.50174e-05
0.00109556 -0.00032919 -0.000328445 -4.50235e-05
0.00111262 -0.000334323 -0.000333555 -4.50248e-05
0.000663342 -0.000199882 -0.000198626 -7.50183e-05
0.000876882 -0.00026378 -0.000262758 -6.18983e-05
0.00110409 -0.000331757 -0.000331 -4.50242e-05
0.000890516 -0.000267893 -0.000266839 -6.19e-05
0.000883699 -0.000265836 -0.000264798 -6.18992e-05
0.000658235 -0.000198336 -0.0001971 -7.50174e-05
0.00064802 -0.000195244 -0.000194047 -7.50155e-05
0.00107851 -0.000324057 -0.000323336 -4.50221e-05
0.00109556 -0.00032919 -0.000328445 -4.50235e-05
0.000653128 -0.00019679 -0.000195573 -7.50164e-05
0.000863248 -0.000259667 -0.000258678 -6.18966e-05
0.00108704 -0.000326624 -0.000325891 -4.50228e-05
0.000876882 -0.00026378 -0.000262758 -6.18983e-05
0.000870065 -0.000261723 -0.000260718 -6.18975e-05
0.00064802 -0.000195244 -0.000194047 -7.50155e-05
0.000637805 -0.000192153 -0.000190994 -7.50136e-05
0.00106145 -0.000318924 -0.000318227 -4.50208e-05
0.00107851 -0.000324057 -0.000323336 -4.50221e-05
0.000642913 -0.000193699 -0.00019252 -7.50146e-05
0.000849613 -0.000255555 -0.000254597 -6.1895e-05
0.00106998 -0.000321491 -0.000320781 -4.50215e-05
0.000863248 -0.000259667 -0.000258678 -6.18966e-05
0.000856431 -0.000257611 -0.000256637 -6.18958e-05
0.000637805 -0.000192153 -0.000190994 -7.50136e-05
0.00062759 -0.000189062 -0.00018794 -7.50118e-05
0.0010444 -0.000313792 -0.000313117 -4.50195e-05
0.00106145 -0.000318924 -0.000318227 -4.50208e-05
0.000632698 -0.000190607 -0.000189467 -7.50127e-05
0.000835979 -0.000251442 -0.000250516 -6.18933e-05
0.00105293 -0.000316358 -0.000315672 -4.50202e-05
0.000849613 -0.000255555 -0.000254597 -6.1895e-05
0.000842796 -0.000253498 -0.000252556 -6.18941e-05
0.00062759 -0.000189062 -0.00018794 -7.50118e-05
0.000617374 -0.000185971 -0.000184887 -7.501e-05
0.00102734 -0.00030866 -0.000308007 -4.50182e-05
0.0010444 -0.000313792 -0.000313117 -4.50195e-05
0.000622482 -0.000187517 -0.000186414 -7.50109e-05
0.000822344 -0.00024733 -0.000246434 -6.18916e-05
0.00103587 -0.000311226 -0.000310562 -4.50189e-05
0.000835979 -0.000251442 -0.000250516 -6.18933e-05
0.000829161 -0.000249386 -0.000248475 -6.18925e-05
0.000617374 -0.000185971 -0.000184887 -7.501e-05
0.000607158 -0.000182881 -0.000181833 -7.50082e-05
0.00101029 -0.000303528 -0.000302897 -4.50169e-05
0.00102734 -0.00030866 -0.000308007 -4.50182e-05
0.000612266 -0.000184426 -0.00018336 -7.50091e-05
0.000808709 -0.000243219 -0.000242353 -6.189e-05
0.00101882 -0.000306094 -0.000305452 -4.50176e-05
0.000822344 -0.00024733 -0.000246434 -6.18916e-05
0.000815526 -0.000245275 -0.000244394 -6.18908e-05
0.000607158 -0.000182881 -0.000181833 -7.50082e-05
0.000596941 -0.000179791 -0.000178779 -7.50064e-05
0.000993233 -0.000298396 -0.000297787 -4.50156e-05
0.00101029 -0.000303528 -0.000302897 -4.50169e-05
0.00060205 -0.000181336 -0.000180306 -7.50073e-05
0.000795073 -0.000239108 -0.000238271 -6.18884e-05
0.00100176 -0.000300962 -0.000300342 -4.50163e-05
0.000808709 -0.000243219 -0.000242353 -6.189e-05
0.000801891 -0.000241163 -0.000240312 -6.18892e-05
0.000596941 -0.000179791 -0.000178779 -7.50064e-05
0.000586725 -0.000176702 -0.000175724 -7.50046e-05
0.000976177 -0.000293265 -0.000292677 -4.50144e-05
0.000993233 -0.000298396 -0.000297787 -4.50156e-05
0.000591833 -0.000178246 -0.000177252 -7.50055e-05
0.000781438 -0.000234997 -0.000234189 -6.18868e-05
0.000984705 -0.00029583 -0.000295232 -4.5015e-05
0.000795073 -0.000239108 -0.000238271 -6.18884e-05
0.000788256 -0.000237052 -0.00023623 -6.18876e-05
0.000586725 -0.000176702 -0.000175724 -7.50046e-05
0.000576508 -0.000173612 -0.000172669 -7.50028e-05
0.000959122 -0.000288133 -0.000287566 -4.50131e-05
0.000976177 -0.000293265 -0.000292677 -4.50144e-05
0.000581616 -0.000175157 -0.000174197 -7.50037e-05
0.000767802 -0.000230886 -0.000230107 -6.18852e-05
0.00096765 -0.000290699 -0.000290122 -4.50137e-05
0.000781438 -0.000234997 -0.000234189 -6.18868e-05
0.00077462 -0.000232941 -0.000232148 -6.1886e-05
0.000576508 -0.000173612 -0.000172669 -7.50028e-05
0.00056629 -0.000170523 -0.000169614 -7.50011e-05
0.000942066 -0.000283002 -0.000282456 -4.50119e-05
0.000959122 -0.000288133 -0.000287566 -4.50131e-05
0.000571399 -0.000172068 -0.000171142 -7.50019e-05
0.000754166 -0.000226775 -0.000226025 -6.18836e-05
0.000950594 -0.000285568 -0.000285011 -4.50125e-05
0.000767802 -0.000230886 -0.000230107 -6.18852e-05
0.000760984 -0.00022883 -0.000228066 -6.18844e-05
0.00056629 -0.000170523 -0.000169614 -7.50011e-05
0.000556072 -0.000167435 -0.000166559 -7.49994e-05
0.000925011 -0.000277872 -0.000277345 -4.50106e-05
0.000942066 -0.000283002 -0.000282456 -4.50119e-05
0.000561181 -0.000168979 -0.000168087 -7.50002e-05
0.00074053 -0.000222665 -0.000221942 -6.1882e-05
0.000933539 -0.000280437 -0.000279901 -4.50112e-05
0.000754166 -0.000226775 -0.000226025 -6.18836e-05
0.000747348 -0.00022472 -0.000223983 -6.18828e-05
0.000556072 -0.000167435 -0.000166559 -7.49994e-05
0.000545854 -0.000164346 -0.000163503 -7.49977e-05
0.000907955 -0.000272741 -0.000272235 -4.50094e-05
0.000925011 -0.000277872 -0.000277345 -4.50106e-05
0.000550963 -0.00016589 -0.000165031 -7.49985e-05
0.000726893 -0.000218555 -0.000217859 -6.18805e-05
0.000916483 -0.000275306 -0.00027479 -4.501e-05
0.00074053 -0.000222665 -0.000221942 -6.1882e-05
0.000733711 -0.00022061 -0.0002199 -6.18813e-05
0.000545854 -0.000164346 -0.000163503 -7.49977e-05
0.000535636 -0.000161258 -0.000160447 -7.4996e-05
0.000890899 -0.000267611 -0.000267124 -4.50082e-05
0.000907955 -0.000272741 -0.000272235 -4.50094e-05
0.000540745 -0.000162802 -0.000161975 -7.49968e-05
0.000713256 -0.000214446 -0.000213776 -6.1879e-05
0.000899427 -0.000270176 -0.000269679 -4.50088e-05
0.000726893 -0.000218555 -0.000217859 -6.18805e-05
0.000720075 -0.0002165 -0.000215818 -6.18797e-05
0.000535636 -0.000161258 -0.000160447 -7.4996e-05
0.000525417 -0.00015817 -0.000157391 -7.49943e-05
0.000873843 -0.000262481 -0.000262013 -4.5007e-05
0.000890899 -0.000267611 -0.000267124 -4.50082e-05
0.000530526 -0.000159714 -0.000158919 -7.49951e-05
0.000699619 -0.000210336 -0.000209693 -6.18775e-05
0.000882371 -0.000265046 -0.000264568 -4.50076e-05
0.000713256 -0.000214446 -0.000213776 -6.1879e-05
0.000706438 -0.000212391 -0.000211734 -6.18782e-05
0.000525417 -0.00015817 -0.000157391 -7.49943e-05
0.000515197 -0.000155083 -0.000154335 -7.49927e-05
0.000856787 -0.000257351 -0.000256901 -4.50058e-05
0.000873843 -0.000262481 -0.000262013 -4.5007e-05
0.000520307 -0.000156627 -0.000155863 -7.49935e-05
0.000685982 -0.000206227 -0.000205609 -6.1876e-05
0.000865315 -0.000259916 -0.000259457 -4.50064e-05
0.000699619 -0.000210336 -0.000209693 -6.18775e-05
0.000692801 -0.000208282 -0.000207651 -6.18767e-05
0.000515197 -0.000155083 -0.000154335 -7.49927e-05
0.000504978 -0.000151996 -0.000151278 -7.4991e-05
0.000839731 -0.000252221 -0.00025179 -4.50046e-05
0.000856787 -0.000257351 -0.000256901 -4.50058e-05
0.000510088 -0.00015354 -0.000152806 -7.49918e-05
0.000672344 -0.000202118 -0.000201525 -6.18745e-05
0.000848259 -0.000254786 -0.000254346 -4.50052e-05
0.000685982 -0.000206227 -0.000205609 -6.1876e-05
0.000679163 -0.000204173 -0.000203567 -6.18752e-05
0.000504978 -0.000151996 -0.000151278 -7.4991e-05
0.000494758 -0.000148909 -0.000148221 -7.49894e-05
0.000822674 -0.000247091 -0.000246678 -4.50034e-05
0.000839731 -0.000252221 -0.00025179 -4.50046e-05
0.000499868 -0.000150453 -0.000149749 -7.49902e-05
0.000658707 -0.00019801 -0.000197441 -6.1873e-05
0.000831203 -0.000249656 -0.000249234 -4.5004e-05
0.000672344 -0.000202118 -0.000201525 -6.18745e-05
0.000665525 -0.000200064 -0.000199483 -6.18737e-05
0.000494758 -0.000148909 -0.000148221 -7.49894e-05
0.000484537 -0.000145823 -0.000145163 -7.49878e-05
0.000805618 -0.000241962 -0.000241567 -4.50023e-05
0.000822674 -0.000247091 -0.000246678 -4.50034e-05
0.000489648 -0.000147366 -0.000146692 -7.49886e-05
0.000645068 -0.000193902 -0.000193357 -6.18715e-05
0.000814146 -0.000244527 -0.000244123 -4.50028e-05
0.000658707 -0.00019801 -0.000197441 -6.1873e-05
0.000651888 -0.000195956 -0.000195399 -6.18723e-05
0.000484537 -0.000145823 -0.000145163 -7.49878e-05
0.000474317 -0.000142737 -0.000142106 -7.49863e-05
0.000788561 -0.000236833 -0.000236455 -4.50011e-05
0.000805618 -0.000241962 -0.000241567 -4.50023e-05
0.000479427 -0.00014428 -0.000143635 -7.4987e-05
0.00063143 -0.000189794 -0.000189273 -6.18701e-05
0.000797089 -0.000239398 -0.000239011 -4.50017e-05
0.000645068 -0.000193902 -0.000193357 -6.18715e-05
0.000638249 -0.000191848 -0.000191315 -6.18708e-05
0.000474317 -0.000142737 -0.000142106 -7.49863e-05
0.000464095 -0.000139651 -0.000139048 -7.49847e-05
0.000771504 -0.000231704 -0.000231343 -4.5e-05
0.000788561 -0.000236833 -0.000236455 -4.50011e-05
0.000469206 -0.000141194 -0.000140577 -7.49855e-05
0.000617792 -0.000185686 -0.000185188 -6.18687e-05
0.000780033 -0.000234269 -0.000233899 -4.50006e-05
0.00063143 -0.000189794 -0.000189273 -6.18701e-05
0.000624611 -0.00018774 -0.000187231 -6.18694e-05
0.000464095 -0.000139651 -0.000139048 -7.49847e-05
0.000453874 -0.000136565 -0.000135989 -7.49832e-05
0.000754447 -0.000226576 -0.000226231 -4.49989e-05
0.000771504 -0.000231704 -0.000231343 -4.5e-05
0.000458985 -0.000138108 -0.000137519 -7.49839e-05
0.000604153 -0.000181578 -0.000181103 -6.18673e-05
0.000762976 -0.00022914 -0.000228787 -4.49994e-05
0.000617792 -0.000185686 -0.000185188 -6.18687e-05
0.000610972 -0.000183632 -0.000183146 -6.1868e-05
0.000453874 -0.000136565 -0.000135989 -7.49832e-05
0.000443652 -0.00013348 -0.000132931 -7.49817e-05
0.00073739 -0.000221447 -0.000221118 -4.49978e-05
0.000754447 -0.000226576 -0.000226231 -4.49989e-05
0.000448763 -0.000135023 -0.00013446 -7.49824e-05
0.000590514 -0.000177471 -0.000177018 -6.18659e-05
0.000745919 -0.000224011 -0.000223675 -4.49983e-05
0.000604153 -0.000181578 -0.000181103 -6.18673e-05
0.000597333 -0.000179525 -0.000179061 -6.18666e-05
0.000443652 -0.00013348 -0.000132931 -7.49817e-05
0.00043343 -0.000130395 -0.000129872 -7.49802e-05
0.000720333 -0.000216319 -0.000216006 -4.49967e-05
0.00073739 -0.000221447 -0.000221118 -4.49978e-05
0.000438541 -0.000131938 -0.000131401 -7.49809e-05
0.000576874 -0.000173364 -0.000172933 -6.18645e-05
0.000728862 -0.000218883 -0.000218562 -4.49972e-05
0.000590514 -0.000177471 -0.000177018 -6.18659e-05
0.000583694 -0.000175418 -0.000174975 -6.18652e-05
0.00043343 -0.000130395 -0.000129872 -7.49802e-05
0.000423207 -0.000127311 -0.000126813 -7.49787e-05
0.000703275 -0.000211191 -0.000210893 -4.49956e-05
0.000720333 -0.000216319 -0.000216006 -4.49967e-05
0.000428319 -0.000128853 -0.000128342 -7.49795e-05
0.000563234 -0.000169258 -0.000168847 -6.18632e-05
0.000711804 -0.000213755 -0.00021345 -4.49961e-05
0.000576874 -0.000173364 -0.000172933 -6.18645e-05
0.000570054 -0.000171311 -0.00017089 -6.18639e-05
0.000423207 -0.000127311 -0.000126813 -7.49787e-05
0.000412984 -0.000124227 -0.000123753 -7.49773e-05
0.000686218 -0.000206063 -0.000205781 -4.49945e-05
0.000703275 -0.000211191 -0.000210893 -4.49956e-05
0.000418096 -0.000125769 -0.000125283 -7.4978e-05
0.000549594 -0.000165151 -0.000164761 -6.18619e-05
0.000694747 -0.000208627 -0.000208337 -4.4995e-05
0.000563234 -0.000169258 -0.000168847 -6.18632e-05
0.000556414 -0.000167205 -0.000166804 -6.18625e-05
0.000412984 -0.000124227 -0.000123753 -7.49773e-05
0.000402761 -0.000121143 -0.000120694 -7.49759e-05
0.00066916 -0.000200935 -0.000200668 -4.49935e-05
0.000686218 -0.000206063 -0.000205781 -4.49945e-05
0.000407873 -0.000122684 -0.000122223 -7.49766e-05
0.000535954 -0.000161045 -0.000160675 -6.18605e-05
0.000677689 -0.000203499 -0.000203224 -4.4994e-05
0.000549594 -0.000165151 -0.000164761 -6.18619e-05
0.000542774 -0.000163098 -0.000162718 -6.18612e-05
0.000402761 -0.000121143 -0.000120694 -7.49759e-05
0.000392537 -0.000118059 -0.000117633 -7.49745e-05
0.000652102 -0.000195808 -0.000195555 -4.49924e-05
0.00066916 -0.000200935 -0.000200668 -4.49935e-05
0.000397649 -0.000119601 -0.000119164 -7.49752e-05
0.000522314 -0.000156939 -0.000156589 -6.18592e-05
0.000660631 -0.000198372 -0.000198111 -4.49929e-05
0.000535954 -0.000161045 -0.000160675 -6.18605e-05
0.000529134 -0.000158992 -0.000158632 -6.18599e-05
0.000392537 -0.000118059 -0.000117633 -7.49745e-05
0.000382313 -0.000114976 -0.000114573 -7.49731e-05
0.000635044 -0.000190681 -0.000190441 -4.49914e-05
0.000652102 -0.000195808 -0.000195555 -4.49924e-05
0.000387425 -0.000116517 -0.000116103 -7.49738e-05
0.000508673 -0.000152834 -0.000152502 -6.1858e-05
0.000643573 -0.000193244 -0.000192998 -4.49919e-05
0.000522314 -0.000156939 -0.000156589 -6.18592e-05
0.000515493 -0.000154887 -0.000154546 -6.18586e-05
0.000382313 -0.000114976 -0.000114573 -7.49731e-05
0.000372088 -0.000111893 -0.000111512 -7.49717e-05
0.000617986 -0.000185554 -0.000185328 -4.49904e-05
0.000635044 -0.000190681 -0.000190441 -4.49914e-05
0.000377201 -0.000113434 -0.000113043 -7.49724e-05
0.000495031 -0.000148729 -0.000148416 -6.18567e-05
0.000626515 -0.000188117 -0.000187885 -4.49909e-05
0.000508673 -0.000152834 -0.000152502 -6.1858e-05
0.000501852 -0.000150781 -0.000150459 -6.18573e-05
0.000372088 -0.000111893 -0.000111512 -7.49717e-05
0.000361863 -0.00010881 -0.000108451 -7.49704e-05
0.000600927 -0.000180427 -0.000180214 -4.49893e-05
0.000617986 -0.000185554 -0.000185328 -4.49904e-05
0.000366976 -0.000110351 -0.000109982 -7.4971e-05
0.00048139 -0.000144623 -0.000144328 -6.18555e-05
0.000609456 -0.00018299 -0.000182771 -4.49898e-05
0.000495031 -0.000148729 -0.000148416 -6.18567e-05
0.000488211 -0.000146676 -0.000146372 -6.18561e-05
0.000361863 -0.00010881 -0.000108451 -7.49704e-05
0.000351638 -0.000105727 -0.00010539 -7.49691e-05
0.000583868 -0.0001753 -0.0001751 -4.49884e-05
0.000600927 -0.000180427 -0.000180214 -4.49893e-05
0.000356751 -0.000107269 -0.000106921 -7.49697e-05
0.000467748 -0.000140519 -0.000140241 -6.18542e-05
0.000592398 -0.000177864 -0.000177657 -4.49888e-05
0.00048139 -0.000144623 -0.000144328 -6.18555e-05
0.000474569 -0.000142571 -0.000142285 -6.18548e-05
0.000351638 -0.000105727 -0.00010539 -7.49691e-05
0.000341412 -0.000102645 -0.000102329 -7.49678e-05
0.000566809 -0.000170174 -0.000169987 -4.49874e-05
0.000583868 -0.0001753 -0.0001751 -4.49884e-05
0.000346525 -0.000104186 -0.000103859 -7.49684e-05
0.000454106 -0.000136414 -0.000136154 -6.1853e-05
0.000575339 -0.000172737 -0.000172544 -4.49879e-05
0.000467748 -0.000140519 -0.000140241 -6.18542e-05
0.000460927 -0.000138466 -0.000138197 -6.18536e-05
0.000341412 -0.000102645 -0.000102329 -7.49678e-05
0.000331186 -9.95636e-05 -9.92666e-05 -7.49665e-05
0.00054975 -0.000165048 -0.000164872 -4.49864e-05
0.000566809 -0.000170174 -0.000169987 -4.49874e-05
0.000336299 -0.000101104 -0.000100798 -7.49671e-05
0.000440464 -0.00013231 -0.000132066 -6.18519e-05
0.00055828 -0.000167611 -0.00016743 -4.49869e-05
0.000454106 -0.000136414 -0.000136154 -6.1853e-05
0.000447285 -0.000134362 -0.00013411 -6.18524e-05
0.000331186 -9.95636e-05 -9.92666e-05 -7.49665e-05
0.000320959 -9.64821e-05 -9.62044e-05 -7.49653e-05
0.000532691 -0.000159922 -0.000159758 -4.49855e-05
0.00054975 -0.000165048 -0.000164872 -4.49864e-05
0.000326072 -9.80228e-05 -9.77356e-05 -7.49659e-05
0.000426821 -0.000128206 -0.000127978 -6.18507e-05
0.00054122 -0.000162485 -0.000162315 -4.49859e-05
0.000440464 -0.00013231 -0.000132066 -6.18519e-05
0.000433642 -0.000130258 -0.000130022 -6.18513e-05
0.000320959 -9.64821e-05 -9.62044e-05 -7.49653e-05
0.000310732 -9.34009e-05 -9.31419e-05 -7.49641e-05
0.000515631 -0.000154796 -0.000154644 -4.49846e-05
0.000532691 -0.000159922 -0.000159758 -4.49855e-05
0.000315846 -9.49414e-05 -9.46732e-05 -7.49647e-05
0.000413178 -0.000124102 -0.00012389 -6.18496e-05
0.000524161 -0.000157359 -0.000157201 -4.4985e-05
0.000426821 -0.000128206 -0.000127978 -6.18507e-05
0.000419999 -0.000126154 -0.000125934 -6.18501e-05
0.000310732 -9.34009e-05 -9.31419e-05 -7.49641e-05
0.000300505 -9.032e-05 -9.00791e-05 -7.49629e-05
0.000498571 -0.00014967 -0.000149529 -4.49837e-05
0.000515631 -0.000154796 -0.000154644 -4.49846e-05
0.000305618 -9.18604e-05 -9.16105e-05 -7.49635e-05
0.000399534 -0.000119999 -0.000119801 -6.18485e-05
0.000507101 -0.000152233 -0.000152086 -4.49841e-05
0.000413178 -0.000124102 -0.00012389 -6.18496e-05
0.000406356 -0.00012205 -0.000121845 -6.1849e-05
0.000300505 -9.032e-05 -9.00791e-05 -7.49629e-05
0.000290277 -8.72395e-05 -8.70159e-05 -7.49618e-05
0.000481511 -0.000144545 -0.000144414 -4.49828e-05
0.000498571 -0.00014967 -0.000149529 -4.49837e-05
0.000295391 -8.87797e-05 -8.85475e-05 -7.49624e-05
0.000385891 -0.000115895 -0.000115712 -6.18475e-05
0.000490041 -0.000147108 -0.000146972 -4.49832e-05
0.000399534 -0.000119999 -0.000119801 -6.18485e-05
0.000392712 -0.000117947 -0.000117757 -6.1848e-05
0.000290277 -8.72395e-05 -8.70159e-05 -7.49618e-05
0.000280048 -8.41593e-05 -8.39524e-05 -7.49608e-05
0.000464451 -0.00013942 -0.000139299 -4.4982e-05
0.000481511 -0.000144545 -0.000144414 -4.49828e-05
0.000285163 -8.56993e-05 -8.54842e-05 -7.49613e-05
0.000372246 -0.000111792 -0.000111623 -6.18465e-05
0.000472981 -0.000141982 -0.000141857 -4.49824e-05
0.000385891 -0.000115895 -0.000115712 -6.18475e-05
0.000379069 -0.000113844 -0.000113668 -6.1847e-05
0.000280048 -8.41593e-05 -8.39524e-05 -7.49608e-05
0.00026982 -8.10794e-05 -8.08887e-05 -7.49598e-05
0.00044739 -0.000134294 -0.000134184 -4.49813e-05
0.000464451 -0.00013942 -0.000139299 -4.4982e-05
0.000274934 -8.26193e-05 -8.24206e-05 -7.49603e-05
0.000358602 -0.00010769 -0.000107534 -6.18456e-05
0.000455921 -0.000136857 -0.000136742 -4.49816e-05
0.000372246 -0.000111792 -0.000111623 -6.18465e-05
0.000365424 -0.000109741 -0.000109579 -6.1846e-05
0.00026982 -8.10794e-05 -8.08887e-05 -7.49598e-05
0.000259591 -7.79998e-05 -7.78246e-05 -7.49589e-05
0.000430329 -0.00012917 -0.000129068 -4.49806e-05
0.00044739 -0.000134294 -0.000134184 -4.49813e-05
0.000264705 -7.95396e-05 -7.93567e-05 -7.49593e-05
0.000344957 -0.000103587 -0.000103444 -6.18447e-05
0.00043886 -0.000131732 -0.000131626 -4.49809e-05
0.000358602 -0.00010769 -0.000107534 -6.18456e-05
0.00035178 -0.000105638 -0.000105489 -6.18451e-05
0.000259591 -7.79998e-05 -7.78246e-05 -7.49589e-05
0.000249361 -7.49206e-05 -7.47602e-05 -7.49581e-05
0.000413268 -0.000124045 -0.000123953 -4.498e-05
0.000430329 -0.00012917 -0.000129068 -4.49806e-05
0.000254476 -7.64602e-05 -7.62924e-05 -7.49585e-05
0.000331312 -9.94851e-05 -9.93544e-05 -6.1844e-05
0.000421799 -0.000126607 -0.000126511 -4.49803e-05
0.000344957 -0.000103587 -0.000103444 -6.18447e-05
0.000338135 -0.000101536 -0.000101399 -6.18444e-05
0.000249361 -7.49206e-05 -7.47602e-05 -7.49581e-05
0.000239131 -7.18417e-05 -7.16955e-05 -7.49573e-05
0.000396207 -0.00011892 -0.000118837 -4.49796e-05
0.000413268 -0.000124045 -0.000123953 -4.498e-05
0.000244246 -7.33811e-05 -7.32279e-05 -7.49577e-05
0.000317667 -9.53832e-05 -9.52643e-05 -6.18434e-05
0.000404737 -0.000121483 -0.000121395 -4.49798e-05
0.000331312 -9.94851e-05 -9.93544e-05 -6.1844e-05
0.000324489 -9.74341e-05 -9.73094e-05 -6.18437e-05
0.000239131 -7.18417e-05 -7.16955e-05 -7.49573e-05
0.000228901 -6.87632e-05 -6.86305e-05 -7.49567e-05
0.000379145 -0.000113796 -0.000113721 -4.49792e-05
0.000396207 -0.00011892 -0.000118837 -4.49796e-05
0.000234016 -7.03024e-05 -7.0163e-05 -7.4957e-05
0.000304021 -9.12816e-05 -9.1174e-05 -6.18428e-05
0.000387676 -0.000116358 -0.000116279 -4.49794e-05
0.000317667 -9.53832e-05 -9.52643e-05 -6.18434e-05
0.000310844 -9.33323e-05 -9.32192e-05 -6.18431e-05
0.000228901 -6.87632e-05 -6.86305e-05 -7.49567e-05
0.000218671 -6.56849e-05 -6.55653e-05 -7.4956e-05
0.000362082 -0.000108672 -0.000108605 -4.49789e-05
0.000379145 -0.000113796 -0.000113721 -4.49792e-05
0.000223786 -6.7224e-05 -6.70979e-05 -7.49563e-05
0.000290375 -8.71802e-05 -8.70834e-05 -6.18424e-05
0.000370614 -0.000111234 -0.000111163 -4.49791e-05
0.000304021 -9.12816e-05 -9.1174e-05 -6.18428e-05
0.000297198 -8.92308e-05 -8.91287e-05 -6.18426e-05
0.000218671 -6.56849e-05 -6.55653e-05 -7.4956e-05
0.00020844 -6.26069e-05 -6.24998e-05 -7.49553e-05
0.00034502 -0.000103548 -0.000103488 -4.49788e-05
0.000362082 -0.000108672 -0.000108605 -4.49789e-05
0.000213555 -6.41459e-05 -6.40326e-05 -7.49557e-05
0.000276728 -8.3079e-05 -8.29926e-05 -6.1842e-05
0.000353551 -0.00010611 -0.000106046 -4.49789e-05
0.000290375 -8.71802e-05 -8.70834e-05 -6.18424e-05
0.000283552 -8.51296e-05 -8.5038e-05 -6.18422e-05
0.00020844 -6.26069e-05 -6.24998e-05 -7.49553e-05
0.000198209 -5.95289e-05 -5.94342e-05 -7.49544e-05
0.000327957 -9.84237e-05 -9.83715e-05 -4.49786e-05
0.00034502 -0.000103548 -0.000103488 -4.49788e-05
0.000203324 -6.10679e-05 -6.0967e-05 -7.49549e-05
0.000263082 -7.8978e-05 -7.89016e-05 -6.18414e-05
0.000336489 -0.000100986 -0.00010093 -4.49787e-05
0.000276728 -8.3079e-05 -8.29926e-05 -6.1842e-05
0.000269905 -8.10285e-05 -8.09471e-05 -6.18417e-05
0.000198209 -5.95289e-05 -5.94342e-05 -7.49544e-05
0.000187977 -5.64507e-05 -5.63686e-05 -7.4953e-05
0.000310894 -9.32998e-05 -9.32548e-05 -4.49783e-05
0.000327957 -9.84237e-05 -9.83715e-05 -4.49786e-05
0.000193093 -5.79899e-05 -5.79014e-05 -7.49538e-05
0.000249435 -7.4877e-05 -7.48106e-05 -6.18405e-05
0.000319426 -9.58617e-05 -9.58132e-05 -4.49785e-05
0.000263082 -7.8978e-05 -7.89016e-05 -6.18414e-05
0.000256258 -7.69275e-05 -7.68561e-05 -6.1841e-05
0.000187977 -5.64507e-05 -5.63686e-05 -7.4953e-05
0.000177746 -5.33716e-05 -5.33031e-05 -7.49505e-05
0.000293832 -8.81759e-05 -8.81382e-05 -4.49774e-05
0.000310894 -9.32998e-05 -9.32548e-05 -4.49783e-05
0.000182862 -5.49113e-05 -5.48358e-05 -7.49519e-05
0.000235788 -7.07756e-05 -7.07198e-05 -6.18386e-05
0.000302363 -9.07378e-05 -9.06965e-05 -4.4978e-05
0.000249435 -7.4877e-05 -7.48106e-05 -6.18405e-05
0.000242612 -7.28264e-05 -7.27652e-05 -6.18397e-05
0.000177746 -5.33716e-05 -5.33031e-05 -7.49505e-05
0.000167513 -5.02903e-05 -5.02381e-05 -7.49463e-05
0.00027677 -8.30515e-05 -8.3022e-05 -4.4975e-05
0.000293832 -8.81759e-05 -8.81382e-05 -4.49774e-05
0.000172629 -5.18314e-05 -5.17705e-05 -7.49487e-05
0.000222142 -6.66728e-05 -6.66295e-05 -6.18347e-05
0.000285301 -8.56138e-05 -8.558e-05 -4.49764e-05
0.000235788 -7.07756e-05 -7.07198e-05 -6.18386e-05
0.000228965 -6.87244e-05 -6.86746e-05 -6.18369e-05
0.000167513 -5.02903e-05 -5.02381e-05 -7.49463e-05
0.000157277 -4.72044e-05 -4.71739e-05 -7.4939e-05
0.000259709 -7.79262e-05 -7.79067e-05 -4.49692e-05
0.00027677 -8.30515e-05 -8.3022e-05 -4.4975e-05
0.000162395 -4.87482e-05 -4.87059e-05 -7.49431e-05
0.000208494 -6.25672e-05 -6.25401e-05 -6.18269e-05
0.000268239 -8.04891e-05 -8.04642e-05 -4.49727e-05
0.000222142 -6.66728e-05 -6.66295e-05 -6.18347e-05
0.000215318 -6.46206e-05 -6.45846e-05 -6.18314e-05
0.000157277 -4.72044e-05 -4.71739e-05 -7.4939e-05
0.000147035 -4.41089e-05 -4.41113e-05 -7.49268e-05
0.000242649 -7.27984e-05 -7.27933e-05 -4.49569e-05
0.000259709 -7.79262e-05 -7.79067e-05 -4.49692e-05
0.000152157 -4.56583e-05 -4.56423e-05 -7.49337e-05
0.000194845 -5.84551e-05 -5.84527e-05 -6.18117e-05
0.000251179 -7.53627e-05 -7.53497e-05 -4.49642e-05
0.000208494 -6.25672e-05 -6.25401e-05 -6.18269e-05
0.00020167 -6.05123e-05 -6.04961e-05 -6.18204e-05
0.000147035 -4.41089e-05 -4.41113e-05 -7.49268e-05
0.000136779 -4.09949e-05 -4.10505e-05 -7.49071e-05
0.000225594 -6.76652e-05 -6.76838e-05 -4.49308e-05
0.000242649 -7.27984e-05 -7.27933e-05 -4.49569e-05
0.00014191 -4.25551e-05 -4.25807e-05 -7.4918e-05
0.00018119 -5.43301e-05 -5.43684e-05 -6.17831e-05
0.000234121 -7.02327e-05 -7.02379e-05 -4.49463e-05
0.000194845 -5.84551e-05 -5.84527e-05 -6.18117e-05
0.000188018 -5.6395e-05 -5.641e-05 -6.17997e-05
0.000136779 -4.09949e-05 -4.10505e-05 -7.49071e-05
0.000126497 -3.78459e-05 -3.79934e-05 -7.48755e-05
0.000208542 -6.25212e-05 -6.25804e-05 -4.48797e-05
0.000225594 -6.76652e-05 -6.76838e-05 -4.49308e-05
0.000131642 -3.94262e-05 -3.95212e-05 -7.48932e-05
0.000167521 -5.0179e-05 -5.02895e-05 -6.17301e-05
0.000217068 -6.50952e-05 -6.51313e-05 -4.49093e-05
0.00018119 -5.43301e-05 -5.43684e-05 -6.17831e-05
0.000174358 -5.22587e-05 -5.23282e-05 -6.17603e-05
0.000126497 -3.78459e-05 -3.79934e-05 -7.48755e-05
0.000116155 -3.46337e-05 -3.49378e-05 -7.48285e-05
0.000191498 -5.73557e-05 -5.74897e-05 -4.47782e-05
0.000208542 -6.25212e-05 -6.25804e-05 -4.48797e-05
0.000121337 -3.62504e-05 -3.64658e-05 -7.4854e-05
0.000153822 -4.59807e-05 -4.62179e-05 -6.16347e-05
0.000200018 -5.99418e-05 -6.00327e-05 -4.48377e-05
0.000167521 -5.0179e-05 -5.02895e-05 -6.17301e-05
0.000160677 -4.80883e-05 -4.82522e-05 -6.16899e-05
0.000116155 -3.46337e-05 -3.49378e-05 -7.48285e-05
0.000105713 -3.13093e-05 -3.18871e-05 -7.47574e-05
0.000174451 -5.21514e-05 -5.24142e-05 -4.45927e-05
0.000191498 -5.73557e-05 -5.74897e-05 -4.47782e-05
0.000110948 -3.29889e-05 -3.34111e-05 -7.47971e-05
0.000140059 -4.16925e-05 -4.21572e-05 -6.14672e-05
0.000182978 -5.47607e-05 -5.49501e-05 -4.46986e-05
0.000153822 -4.59807e-05 -4.62179e-05 -6.16347e-05
0.000146952 -4.385e-05 -4.41866e-05 -6.15612e-05
0.000105713 -3.13093e-05 -3.18871e-05 -7.47574e-05
9.50597e-05 -2.78032e-05 -2.88242e-05 -7.46663e-05
0.000157414 -4.68737e-05 -4.73743e-05 -4.42452e-05
0.000174451 -5.21514e-05 -5.24142e-05 -4.45927e-05
0.000100424 -2.95861e-05 -3.03592e-05 -7.47131e-05
0.000126174 -3.72597e-05 -3.81063e-05 -6.11828e-05
0.000165927 -4.95225e-05 -4.98877e-05 -4.44467e-05
0.000140059 -4.16925e-05 -4.21572e-05 -6.14672e-05
0.000133136 -3.9502e-05 -4.01289e-05 -6.13462e-05
9.50597e-05 -2.78032e-05 -2.88242e-05 -7.46663e-05
8.40914e-05 -2.40046e-05 -2.57515e-05 -7.45469e-05
0.000140317 -4.14829e-05 -4.23576e-05 -4.36574e-05
0.000157414 -4.68737e-05 -4.73743e-05 -4.42452e-05
8.96162e-05 -2.59447e-05 -2.72878e-05 -7.46121e-05
0.000112046 -3.25682e-05 -3.40619e-05 -6.07219e-05
0.000148886 -4.42012e-05 -4.48647e-05 -4.39865e-05
0.000126174 -3.72597e-05 -3.81063e-05 -6.11828e-05
0.000119152 -3.49482e-05 -3.60872e-05 -6.09729e-05
8.40914e-05 -2.40046e-05 -2.57515e-05 -7.45469e-05
7.25196e-05 -1.98223e-05 -2.25845e-05 -7.44653e-05
0.000123189 -3.58787e-05 -3.74185e-05 -4.26338e-05
0.000140317 -4.14829e-05 -4.23576e-05 -4.36574e-05
7.84158e-05 -2.19737e-05 -2.41895e-05 -7.44918e-05
9.75187e-05 -2.75348e-05 -2.99931e-05 -6.00188e-05
0.000131741 -3.87018e-05 -3.98739e-05 -4.32191e-05
0.000112046 -3.25682e-05 -3.40619e-05 -6.07219e-05
0.000104841 -3.01139e-05 -3.20257e-05 -6.04178e-05
7.25196e-05 -1.98223e-05 -2.25845e-05 -7.44653e-05
6.02164e-05 -1.51605e-05 -1.93097e-05 -7.44672e-05
0.000105703 -3.00366e-05 -3.24284e-05 -4.10996e-05
0.000123189 -3.58787e-05 -3.74185e-05 -4.26338e-05
6.64405e-05 -1.75331e-05 -2.09603e-05 -7.44555e-05
8.22287e-05 -2.1951e-05 -2.58333e-05 -5.90737e-05
0.000114547 -3.30199e-05 -3.49402e-05 -4.19312e-05
9.75187e-05 -2.75348e-05 -2.99931e-05 -6.00188e-05
9.00062e-05 -2.47938e-05 -2.79482e-05 -5.95465e-05
6.02164e-05 -1.51605e-05 -1.93097e-05 -7.44672e-05
4.67261e-05 -1.03501e-05 -1.55897e-05 -7.49256e-05
8.78791e-05 -2.37075e-05 -2.75021e-05 -3.8765e-05
0.000105703 -3.00366e-05 -3.24284e-05 -4.10996e-05
5.36955e-05 -1.27639e-05 -1.75421e-05 -7.45949e-05
6.59323e-05 -1.60204e-05 -2.13908e-05 -5.80448e-05
9.67743e-05 -2.68741e-05 -2.99572e-05 -4.00577e-05
8.22287e-05 -2.1951e-05 -2.58333e-05 -5.90737e-05
7.41995e-05 -1.90561e-05 -2.36329e-05 -5.8602e-05
4.67261e-05 -1.03501e-05 -1.55897e-05 -7.49256e-05
3.27044e-05 -6.1909e-06 -1.13629e-05 -7.61193e-05
6.8418e-05 -1.74029e-05 -2.18636e-05 -3.62409e-05
8.78791e-05 -2.37075e-05 -2.75021e-05 -3.8765e-05
3.96239e-05 -8.00578e-06 -1.35506e-05 -7.54171e-05
4.78335e-05 -9.9604e-06 -1.62313e-05 -5.77208e-05
7.85746e-05 -2.06584e-05 -2.48212e-05 -3.74607e-05
6.59323e-05 -1.60204e-05 -2.13908e-05 -5.80448e-05
5.72145e-05 -1.28363e-05 -1.90192e-05 -5.76046e-05
3.27044e-05 -6.1909e-06 -1.13629e-05 -7.61193e-05
1.90511e-05 -6.13138e-06 -5.53702e-06 -7.89475e-05
4.74027e-05 -1.11258e-05 -1.55473e-05 -3.45387e-05
6.8418e-05 -1.74029e-05 -2.18636e-05 -3.62409e-05
2.5877e-05 -5.42976e-06 -8.76312e-06 -7.7249e-05
2.89613e-05 -7.0417e-06 -9.39411e-06 -5.98063e-05
5.78728e-05 -1.38301e-05 -1.88755e-05 -3.51337e-05
4.78335e-05 -9.9604e-06 -1.62313e-05 -5.77208e-05
3.82593e-05 -7.91753e-06 -1.30036e-05 -5.8499e-05
1.90511e-05 -6.13138e-06 -5.53702e-06 -7.89475e-05
1.17637e-05 -1.63269e-05 1.95566e-06 -8.12954e-05
2.28039e-05 -1.16705e-05 -4.77148e-06 -4.04723e-05
4.74027e-05 -1.11258e-05 -1.55473e-05 -3.45387e-05
1.38166e-05 -9.03636e-06 -2.04868e-06 -8.04864e-05
1.15963e-05 -1.45522e-05 1.26678e-06 -6.76243e-05
3.60367e-05 -1.04636e-05 -1.09599e-05 -3.58957e-05
2.89613e-05 -7.0417e-06 -9.39411e-06 -5.98063e-05
2.00401e-05 -8.19616e-06 -5.07599e-06 -6.23563e-05
1.17637e-05 -1.63269e-05 1.95566e-06 -8.12954e-05
1.53174e-05 -4.8331e-05 1.41487e-05 -7.49674e-05
1.11139e-05 -4.01617e-05 1.24491e-05 -6.30344e-05
2.28039e-05 -1.16705e-05 -4.77148e-06 -4.04723e-05
1.2421e-05 -2.98075e-05 7.45137e-06 -8.02909e-05
1.65556e-05 -5.46217e-05 1.63141e-05 -7.41835e-05
1.27984e-05 -1.70503e-05 1.82223e-06 -4.84592e-05
1.15963e-05 -1.45522e-05 1.26678e-06 -6.76243e-05
8.73365e-06 -2.94529e-05 8.87967e-06 -7.30874e-05
1.53174e-05 -4.8331e-05 1.41487e-05 -7.49674e-05
2.60791e-05 -8.76883e-05 2.64039e-05 -3.97478e-05
5.78318e-05 -0.000175148 5.02782e-05 -6.47782e-05
1.11139e-05 -4.01617e-05 1.24491e-05 -6.30344e-05
2.00157e-05 -6.93525e-05 2.11444e-05 -6.20525e-05
4.6519e-05 -0.000127372 3.46513e-05 -3.72842e-05
2.40312e-05 -9.36363e-05 2.98307e-05 -7.49401e-05
1.65556e-05 -5.46217e-05 1.63141e-05 -7.41835e-05
3.06282e-05 -8.96688e-05 2.53031e-05 -6.43704e-05
0.00286641 2.22045e-16 -0.00122846 -0.000168626
0.00322547 -0.000639686 -0.0011082 -0.000243141
0.00450761 -0.0014282 -0.00131975 8.08448e-05
0.00631931 -1.11022e-16 -0.00270828 -0.00214545
0.00306733 -0.000301411 -0.0011854 -0.000281764
0.00408516 -0.000991697 -0.00132577 -0.000314352
0.00501436 -0.00158943 -0.00146783 -0.000304307
0.00337332 0 -0.00144571 -0.000522131
0.00394087 -0.00066998 -0.00140181 -0.000490957
0.00322547 -0.000639686 -0.0011082 -0.000243141
0.00335235 -0.000909966 -0.00104674 -0.000116979
0.00444976 -0.00137866 -0.00131618 2.58048e-05
0.00450761 -0.0014282 -0.00131975 8.08448e-05
0.00332554 -0.000829869 -0.00106957 -0.000176173
0.00399473 -0.00116526 -0.00121263 -5.45228e-05
0.00443843 -0.00131816 -0.00133726 3.61557e-05
0.00408516 -0.000991697 -0.00132577 -0.000314352
0.00402877 -0.00112475 -0.00124458 -0.000129014
0.00335235 -0.000909966 -0.00104674 -0.000116979
0.00333679 -0.000986638 -0.00100721 -4.42612e-05
0.00451096 -0.00133928 -0.00135929 1.19832e-05
0.00444976 -0.00137866 -0.00131618 2.58048e-05
0.00334354 -0.000957614 -0.00102254 -6.94066e-05
0.00395234 -0.00118665 -0.0011853 -6.48303e-06
0.00449084 -0.00137536 -0.00133521 2.60029e-05
0.00399473 -0.00116526 -0.00121263 -5.45228e-05
0.00397271 -0.00118055 -0.00119664 -2.69273e-05
0.00333679 -0.000986638 -0.00100721 -4.42612e-05
0.00331341 -0.00099777 -0.000992417 -2.74699e-05
0.00453621 -0.00136489 -0.00135913 -1.27447e-06
0.00451096 -0.00133928 -0.00135929 1.19832e-05
0.00332809 -0.000997094 -0.000998997 -3.30597e-05
0.00392892 -0.00118452 -0.00117617 9.3919e-07
0.0045221 -0.00134363 -0.0013622 -2.2122e-06
0.00395234 -0.00118665 -0.0011853 -6.48303e-06
0.00393672 -0.0011868 -0.00117853 2.69285e-06
0.00331341 -0.00099777 -0.000992417 -2.74699e-05
0.00328628 -0.000996471 -0.000981345 -2.62899e-05
0.00454931 -0.00136003 -0.00136683 9.23753e-07
0.00453621 -0.00136489 -0.00135913 -1.27447e-06
0.0032978 -0.000997488 -0.000985846 -2.52634e-05
0.00391723 -0.00118086 -0.00117273 -5.66483e-06
0.00454727 -0.00136697 -0.00136299 2.30532e-06
0.00392892 -0.00118452 -0.00117617 9.3919e-07
0.00392406 -0.00118261 -0.0011749 -3.32824e-06
0.00328628 -0.000996471 -0.000981345 -2.62899e-05
0.00326566 -0.000989372 -0.000975552 -3.14744e-05
0.00454449 -0.00136392 -0.0013631 -8.23822e-07
0.00454931 -0.00136003 -0.00136683 9.23753e-07
0.00327639 -0.000993401 -0.000978422 -2.89943e-05
0.00390297 -0.0011758 -0.00116879 -1.19106e-05
0.00454687 -0.00136056 -0.00136556 -1.42137e-06
0.00391723 -0.00118086 -0.00117273 -5.66483e-06
0.00390977 -0.00117851 -0.00117054 -8.41525e-06
0.00326566 -0.000989372 -0.000975552 -3.14744e-05
0.00324575 -0.000982334 -0.000970037 -3.59456e-05
0.00453361 -0.001359 -0.00136055 4.30586e-08
0.00454449 -0.00136392 -0.0013631 -8.23822e-07
0.00325511 -0.000985719 -0.000972596 -3.37043e-05
0.00388792 -0.00117033 -0.00116468 -1.6898e-05
0.00454059 -0.00136262 -0.00136199 2.64612e-07
0.00390297 -0.0011758 -0.00116879 -1.19106e-05
0.00389598 -0.00117308 -0.00116696 -1.48769e-05
0.00324575 -0.000982334 -0.000970037 -3.59456e-05
0.00322791 -0.000975438 -0.000965343 -3.96514e-05
0.0045159 -0.00135488 -0.00135472 -2.69622e-07
0.00453361 -0.001359 -0.00136055 4.30586e-08
0.00323691 -0.000978868 -0.000967734 -3.80349e-05
0.00387054 -0.00116456 -0.0011597 -2.01445e-05
0.00452493 -0.00135672 -0.0013578 -4.57309e-07
0.00388792 -0.00117033 -0.00116468 -1.6898e-05
0.00387928 -0.00116749 -0.0011622 -1.86301e-05
0.00322791 -0.000975438 -0.000965343 -3.96514e-05
0.00321028 -0.000969175 -0.000960475 -4.19424e-05
0.00449576 -0.00134853 -0.00134881 -3.42467e-08
0.0045159 -0.00135488 -0.00135472 -2.69622e-07
0.00321895 -0.000972224 -0.000962884 -4.09054e-05
0.00385213 -0.0011586 -0.00115437 -2.20969e-05
0.00450626 -0.00135199 -0.00135183 9.73698e-09
0.00387054 -0.00116456 -0.0011597 -2.01445e-05
0.00386154 -0.00116159 -0.00115712 -2.12898e-05
0.00321028 -0.000969175 -0.000960475 -4.19424e-05
0.00319314 -0.000963306 -0.000955644 -4.34146e-05
0.00447353 -0.00134211 -0.00134204 -7.62208e-08
0.00449576 -0.00134853 -0.00134881 -3.42467e-08
0.00320173 -0.000966203 -0.000958084 -4.27891e-05
0.00383272 -0.00115255 -0.00114865 -2.3239e-05
0.00448473 -0.00134529 -0.00134547 -1.34166e-07
0.00385213 -0.0011586 -0.00115437 -2.20969e-05
0.00384247 -0.00115558 -0.00115152 -2.27389e-05
0.00319314 -0.000963306 -0.000955644 -4.34146e-05
0.00317603 -0.000957745 -0.000950695 -4.42295e-05
0.00445053 -0.00133515 -0.00133516 -1.85451e-08
0.00447353 -0.00134211 -0.00134204 -7.62208e-08
0.00318456 -0.000960493 -0.000953171 -4.38755e-05
0.00381289 -0.00114643 -0.00114277 -2.3848e-05
0.00446214 -0.00133869 -0.00133862 -8.82685e-09
0.00383272 -0.00115255 -0.00114865 -2.3239e-05
0.00382287 -0.00114949 -0.00114573 -2.35967e-05
0.00317603 -0.000957745 -0.000950695 -4.42295e-05
0.00315901 -0.000952361 -0.000945708 -4.46964e-05
0.00442699 -0.00132814 -0.00132808 -1.91718e-08
0.00445053 -0.00133515 -0.00133516 -1.85451e-08
0.00316753 -0.000955037 -0.000948211 -4.45013e-05
0.00379272 -0.00114029 -0.00113675 -2.41781e-05
0.00443879 -0.00133164 -0.00133163 -3.58634e-08
0.00381289 -0.00114643 -0.00114277 -2.3848e-05
0.00380282 -0.00114336 -0.00113977 -2.40386e-05
0.00315901 -0.000952361 -0.000945708 -4.46964e-05
0.00314198 -0.000947085 -0.000940671 -4.49377e-05
0.00440325 -0.00132101 -0.00132096 -6.28292e-09
0.00442699 -0.00132814 -0.00132808 -1.91718e-08
0.00315049 -0.000949713 -0.000943192 -4.48354e-05
0.00377241 -0.00113413 -0.00113069 -2.434e-05
0.00441514 -0.00132458 -0.00132453 -4.00627e-09
0.00379272 -0.00114029 -0.00113675 -2.41781e-05
0.00378258 -0.00113721 -0.00113373 -2.42739e-05
0.00314198 -0.000947085 -0.000940671 -4.49377e-05
0.00312496 -0.000941866 -0.000935613 -4.50664e-05
0.00437939 -0.00131385 -0.0013138 -4.28514e-09
0.00440325 -0.00132101 -0.00132096 -6.28292e-09
0.00313348 -0.000944471 -0.000938145 -4.50133e-05
0.003752 -0.00112797 -0.00112458 -2.44218e-05
0.00439133 -0.00131743 -0.00131739 -8.6115e-09
0.00377241 -0.00113413 -0.00113069 -2.434e-05
0.00376221 -0.00113105 -0.00112764 -2.4388e-05
0.00312496 -0.000941866 -0.000935613 -4.50664e-05
0.00310793 -0.000936677 -0.000930537 -4.51297e-05
0.00435549 -0.00130668 -0.00130663 -1.73436e-09
0.00437939 -0.00131385 -0.0013138 -4.28514e-09
0.00311645 -0.000939269 -0.000933076 -4.51033e-05
0.00373156 -0.0011218 -0.00111847 -2.4459e-05
0.00436745 -0.00131027 -0.00131022 -1.17948e-09
0.003752 -0.00112797 -0.00112458 -2.44218e-05
0.00374178 -0.00112489 -0.00112153 -2.44441e-05
0.00310793 -0.000936677 -0.000930537 -4.51297e-05
0.00309089 -0.000931503 -0.000925453 -4.51619e-05
0.00433156 -0.0012995 -0.00129945 -8.88575e-10
0.00435549 -0.00130668 -0.00130663 -1.73436e-09
0.00309941 -0.000934089 -0.000927996 -4.51487e-05
0.00371108 -0.00111563 -0.00111234 -2.44766e-05
0.00434353 -0.00130309 -0.00130304 -1.87586e-09
0.00373156 -0.0011218 -0.00111847 -2.4459e-05
0.00372132 -0.00111872 -0.0011154 -2.44695e-05
0.00309089 -0.000931503 -0.000925453 -4.51619e-05
0.00307385 -0.000926337 -0.000920363 -4.51771e-05
0.00430763 -0.00129232 -0.00129227 -4.76051e-10
0.00433156 -0.0012995 -0.00129945 -8.88575e-10
0.00308237 -0.00092892 -0.000922909 -4.51708e-05
0.0036906 -0.00110946 -0.0011062 -2.44839e-05
0.0043196 -0.00129591 -0.00129586 -3.37306e-10
0.00371108 -0.00111563 -0.00111234 -2.44766e-05
0.00370085 -0.00111255 -0.00110927 -2.4481e-05
0.00307385 -0.000926337 -0.000920363 -4.51771e-05
0.00305681 -0.000921173 -0.000915271 -4.51844e-05
0.00428369 -0.00128514 -0.00128509 -2.35997e-10
0.00430763 -0.00129232 -0.00129227 -4.76051e-10
0.00306533 -0.000923755 -0.000917818 -4.51815e-05
0.00367012 -0.00110329 -0.00110007 -2.44869e-05
0.00429566 -0.00128873 -0.00128868 -4.29797e-10
0.0036906 -0.00110946 -0.0011062 -2.44839e-05
0.00368036 -0.00110638 -0.00110314 -2.44858e-05
0.00305681 -0.000921173 -0.000915271 -4.51844e-05
0.00303976 -0.000916011 -0.000910177 -4.51875e-05
0.00425976 -0.00127796 -0.00127791 -1.94196e-10
0.00428369 -0.00128514 -0.00128509 -2.35997e-10
0.00304828 -0.000918592 -0.000912724 -4.51863e-05
0.00364963 -0.00109712 -0.00109393 -2.44878e-05
0.00427173 -0.00128155 -0.0012815 -1.60429e-10
0.00367012 -0.00110329 -0.00110007 -2.44869e-05
0.00365987 -0.0011002 -0.001097 -2.44875e-05
0.00303976 -0.000916011 -0.000910177 -4.51875e-05
0.00302271 -0.000910849 -0.000905082 -4.51886e-05
0.00423582 -0.00127078 -0.00127073 -1.37497e-10
0.00425976 -0.00127796 -0.00127791 -1.94196e-10
0.00303123 -0.00091343 -0.00090763 -4.51882e-05
0.00362914 -0.00109094 -0.0010878 -2.44879e-05
0.00424779 -0.00127437 -0.00127432 -1.69243e-10
0.00364963 -0.00109712 -0.00109393 -2.44878e-05
0.00363938 -0.00109403 -0.00109086 -2.44879e-05
0.00302271 -0.000910849 -0.000905082 -4.51886e-05
0.00300566 -0.000905688 -0.000899986 -4.51885e-05
0.00421188 -0.0012636 -0.00126355 -1.39569e-10
0.00423582 -0.00127078 -0.00127073 -1.37497e-10
0.00301418 -0.000908268 -0.000902534 -4.51886e-05
0.00360864 -0.00108477 -0.00108166 -2.44875e-05
0.00422385 -0.00126719 -0.00126714 -1.32596e-10
0.00362914 -0.00109094 -0.0010878 -2.44879e-05
0.00361889 -0.00108786 -0.00108473 -2.44877e-05
0.00300566 -0.000905688 -0.000899986 -4.51885e-05
0.0029886 -0.000900527 -0.00089489 -4.51879e-05
0.00418795 -0.00125642 -0.00125637 -1.26301e-10
0.00421188 -0.0012636 -0.00126355 -1.39569e-10
0.00299713 -0.000903107 -0.000897438 -4.51883e-05
0.00358815 -0.0010786 -0.00107552 -2.44869e-05
0.00419992 -0.00126001 -0.00125996 -1.30643e-10
0.00360864 -0.00108477 -0.00108166 -2.44875e-05
0.0035984 -0.00108169 -0.00107859 -2.44872e-05
0.0029886 -0.000900527 -0.00089489 -4.51879e-05
0.00297155 -0.000895366 -0.000889794 -4.51869e-05
0.00416401 -0.00124924 -0.00124919 -1.27919e-10
0.00418795 -0.00125642 -0.00125637 -1.26301e-10
0.00298008 -0.000897946 -0.000892342 -4.51874e-05
0.00356766 -0.00107243 -0.00106938 -2.44861e-05
0.00417598 -0.00125283 -0.00125278 -1.27188e-10
0.00358815 -0.0010786 -0.00107552 -2.44869e-05
0.0035779 -0.00107551 -0.00107245 -2.44865e-05
0.00297155 -0.000895366 -0.000889794 -4.51869e-05
0.0029545 -0.000890205 -0.000884697 -4.51858e-05
0.00414007 -0.00124205 -0.00124201 -1.23997e-10
0.00416401 -0.00124924 -0.00124919 -1.27919e-10
0.00296303 -0.000892786 -0.000887246 -4.51864e-05
0.00354716 -0.00106625 -0.00106325 -2.44854e-05
0.00415204 -0.00124564 -0.0012456 -1.24699e-10
0.00356766 -0.00107243 -0.00106938 -2.44861e-05
0.00355741 -0.00106934 -0.00106632 -2.44858e-05
0.0029545 -0.000890205 -0.000884697 -4.51858e-05
0.00293745 -0.000885045 -0.0008796 -4.51845e-05
0.00411614 -0.00123487 -0.00123483 -1.23861e-10
0.00414007 -0.00124205 -0.00124201 -1.24e-10
0.00294597 -0.000887625 -0.000882149 -4.51852e-05
0.00352667 -0.00106008 -0.00105711 -2.44846e-05
0.00412811 -0.00123846 -0.00123842 -1.24166e-10
0.00354716 -0.00106625 -0.00106325 -2.44854e-05
0.00353692 -0.00106317 -0.00106018 -2.4485e-05
0.00293745 -0.000885045 -0.0008796 -4.51845e-05
0.00292039 -0.000879885 -0.000874503 -4.51833e-05
0.0040922 -0.00122769 -0.00122765 -1.22334e-10
0.00411614 -0.00123487 -0.00123483 -1.23861e-10
0.00292892 -0.000882465 -0.000877052 -4.51839e-05
0.00350618 -0.00105391 -0.00105097 -2.44838e-05
0.00410417 -0.00123128 -0.00123124 -1.22616e-10
0.00352667 -0.00106008 -0.00105711 -2.44846e-05
0.00351643 -0.001057 -0.00105404 -2.44842e-05
0.00292039 -0.000879885 -0.000874503 -4.51833e-05
0.00290334 -0.000874725 -0.000869406 -4.5182e-05
0.00406827 -0.00122051 -0.00122047 -1.21863e-10
0.0040922 -0.00122769 -0.00122765 -1.22338e-10
0.00291187 -0.000877305 -0.000871955 -4.51826e-05
0.00348569 -0.00104774 -0.00104483 -2.4483e-05
0.00408024 -0.0012241 -0.00122406 -1.22159e-10
0.00350618 -0.00105391 -0.00105097 -2.44838e-05
0.00349593 -0.00105082 -0.0010479 -2.44834e-05
0.00290334 -0.000874725 -0.000869406 -4.5182e-05
0.00288629 -0.000869565 -0.000864309 -4.51807e-05
0.00404433 -0.00121333 -0.00121329 -1.21157e-10
0.00406827 -0.00122051 -0.00122047 -1.21863e-10
0.00289481 -0.000872145 -0.000866858 -4.51813e-05
0.00346519 -0.00104157 -0.0010387 -2.44822e-05
0.0040563 -0.00121692 -0.00121688 -1.2136e-10
0.00348569 -0.00104774 -0.00104483 -2.4483e-05
0.00347544 -0.00104465 -0.00104177 -2.44826e-05
0.00288629 -0.000869565 -0.000864309 -4.51807e-05
0.00286923 -0.000864405 -0.000859211 -4.51794e-05
0.0040204 -0.00120615 -0.00120611 -1.2074e-10
0.00404433 -0.00121333 -0.00121329 -1.21156e-10
0.00287776 -0.000866985 -0.00086176 -4.518e-05
0.0034447 -0.0010354 -0.00103256 -2.44815e-05
0.00403237 -0.00120974 -0.0012097 -1.20969e-10
0.00346519 -0.00104157 -0.0010387 -2.44822e-05
0.00345495 -0.00103848 -0.00103563 -2.44818e-05
0.00286923 -0.000864405 -0.000859211 -4.51794e-05
0.00285218 -0.000859246 -0.000854114 -4.51781e-05
0.00399647 -0.00119897 -0.00119893 -1.20281e-10
0.0040204 -0.00120615 -0.00120611 -1.2074e-10
0.00286071 -0.000861826 -0.000856663 -4.51787e-05
0.00342421 -0.00102922 -0.00102642 -2.44807e-05
0.00400843 -0.00120256 -0.00120252 -1.20492e-10
0.0034447 -0.0010354 -0.00103256 -2.44815e-05
0.00343445 -0.00103231 -0.00102949 -2.44811e-05
0.00285218 -0.000859246 -0.000854114 -4.51781e-05
0.00283512 -0.000854087 -0.000849016 -4.51768e-05
0.00397253 -0.00119179 -0.00119175 -1.19872e-10
0.00399647 -0.00119897 -0.00119893 -1.20284e-10
0.00284365 -0.000856666 -0.000851565 -4.51774e-05
0.00340372 -0.00102305 -0.00102028 -2.44799e-05
0.0039845 -0.00119538 -0.00119534 -1.20114e-10
0.00342421 -0.00102922 -0.00102642 -2.44807e-05
0.00341396 -0.00102614 -0.00102335 -2.44803e-05
0.00283512 -0.000854087 -0.000849016 -4.51768e-05
0.00281807 -0.000848928 -0.000843918 -4.51755e-05
0.0039486 -0.00118461 -0.00118457 -1.19418e-10
0.00397253 -0.00119179 -0.00119175 -1.19872e-10
0.0028266 -0.000851507 -0.000846467 -4.51761e-05
0.00338322 -0.00101688 -0.00101415 -2.44792e-05
0.00396056 -0.0011882 -0.00118816 -1.19674e-10
0.00340372 -0.00102305 -0.00102028 -2.44799e-05
0.00339347 -0.00101997 -0.00101722 -2.44796e-05
0.00281807 -0.000848928 -0.000843918 -4.51755e-05
0.00280102 -0.000843769 -0.00083882 -4.51742e-05
0.00392466 -0.00117743 -0.00117739 -1.18934e-10
0.0039486 -0.00118461 -0.00118457 -1.19421e-10
0.00280954 -0.000846349 -0.000841369 -4.51749e-05
0.00336273 -0.00101071 -0.00100801 -2.44784e-05
0.00393663 -0.00118102 -0.00118098 -1.19236e-10
0.00338322 -0.00101688 -0.00101415 -2.44792e-05
0.00337298 -0.0010138 -0.00101108 -2.44788e-05
0.00280102 -0.000843769 -0.00083882 -4.51742e-05
0.00278396 -0.000838611 -0.000833722 -4.51729e-05
0.00390073 -0.00117025 -0.00117021 -1.18407e-10
0.00392466 -0.00117743 -0.00117739 -1.18934e-10
0.00279249 -0.00084119 -0.000836271 -4.51736e-05
0.00334224 -0.00100454 -0.00100187 -2.44777e-05
0.0039127 -0.00117384 -0.0011738 -1.18722e-10
0.00336273 -0.00101071 -0.00100801 -2.44784e-05
0.00335248 -0.00100763 -0.00100494 -2.44781e-05
0.00278396 -0.000838611 -0.000833722 -4.51729e-05
0.00276691 -0.000833453 -0.000828624 -4.51716e-05
0.0038768 -0.00116307 -0.00116303 -1.17847e-10
0.00390073 -0.00117025 -0.00117021 -1.18401e-10
0.00277544 -0.000836032 -0.000831173 -4.51723e-05
0.00332175 -0.00099837 -0.000995733 -2.44769e-05
0.00388876 -0.00116666 -0.00116662 -1.18185e-10
0.00334224 -0.00100454 -0.00100187 -2.44777e-05
0.00333199 -0.00100146 -0.000998802 -2.44773e-05
0.00276691 -0.000833453 -0.000828624 -4.51716e-05
0.00274985 -0.000828295 -0.000823525 -4.51703e-05
0.00385287 -0.00115589 -0.00115585 -1.1724e-10
0.0038768 -0.00116307 -0.00116303 -1.17847e-10
0.00275838 -0.000830874 -0.000826075 -4.5171e-05
0.00330125 -0.000992199 -0.000989595 -2.44762e-05
0.00386483 -0.00115948 -0.00115944 -1.17615e-10
0.00332175 -0.00099837 -0.000995733 -2.44769e-05
0.0033115 -0.000995285 -0.000992664 -2.44765e-05
0.00274985 -0.000828295 -0.000823525 -4.51703e-05
0.0027328 -0.000823137 -0.000818427 -4.5169e-05
0.00382893 -0.00114871 -0.00114867 -1.16603e-10
0.00385287 -0.00115589 -0.00115585 -1.17243e-10
0.00274133 -0.000825716 -0.000820976 -4.51697e-05
0.00328076 -0.000986029 -0.000983457 -2.44754e-05
0.0038409 -0.0011523 -0.00115226 -1.1698e-10
0.00330125 -0.000992199 -0.000989595 -2.44762e-05
0.00329101 -0.000989114 -0.000986526 -2.44758e-05
0.0027328 -0.000823137 -0.000818427 -4.5169e-05
0.00271575 -0.00081798 -0.000813328 -4.51677e-05
0.003805 -0.00114153 -0.00114149 -1.1595e-10
0.00382893 -0.00114871 -0.00114867 -1.16603e-10
0.00272427 -0.000820558 -0.000815878 -4.51684e-05
0.00326027 -0.000979859 -0.000977319 -2.44746e-05
0.00381697 -0.00114512 -0.00114508 -1.16337e-10
0.00328076 -0.000986029 -0.000983457 -2.44754e-05
0.00327052 -0.000982944 -0.000980388 -2.4475e-05
0.00271575 -0.00081798 -0.000813328 -4.51677e-05
0.00269869 -0.000812822 -0.000808229 -4.51664e-05
0.00378107 -0.00113435 -0.00113431 -1.15306e-10
0.003805 -0.00114153 -0.00114149 -1.1595e-10
0.00270722 -0.000815401 -0.000810779 -4.5167e-05
0.00323978 -0.000973689 -0.000971181 -2.44738e-05
0.00379303 -0.00113794 -0.0011379 -1.157e-10
0.00326027 -0.000979859 -0.000977319 -2.44746e-05
0.00325002 -0.000976774 -0.00097425 -2.44742e-05
0.00269869 -0.000812822 -0.000808229 -4.51664e-05
0.00268164 -0.000807665 -0.00080313 -4.5165e-05
0.00375714 -0.00112717 -0.00112713 -1.14568e-10
0.00378107 -0.00113435 -0.00113431 -1.15306e-10
0.00269016 -0.000810244 -0.00080568 -4.51657e-05
0.00321929 -0.00096752 -0.000965043 -2.44731e-05
0.0037691 -0.00113076 -0.00113072 -1.15002e-10
0.00323978 -0.000973689 -0.000971181 -2.44738e-05
0.00322953 -0.000970604 -0.000968112 -2.44734e-05
0.00268164 -0.000807665 -0.00080313 -4.5165e-05
0.00266458 -0.000802509 -0.000798031 -4.51637e-05
0.0037332 -0.00111999 -0.00111995 -1.13898e-10
0.00375714 -0.00112717 -0.00112713 -1.14568e-10
0.00267311 -0.000805087 -0.000800581 -4.51643e-05
0.00319879 -0.00096135 -0.000958905 -2.44723e-05
0.00374517 -0.00112358 -0.00112354 -1.14286e-10
0.00321929 -0.00096752 -0.000965043 -2.44731e-05
0.00320904 -0.000964435 -0.000961974 -2.44727e-05
0.00266458 -0.000802509 -0.000798031 -4.51637e-05
0.00264753 -0.000797352 -0.000792932 -4.51623e-05
0.00370927 -0.00111281 -0.00111277 -1.13201e-10
0.0037332 -0.00111999 -0.00111995 -1.13905e-10
0.00265605 -0.00079993 -0.000795482 -4.5163e-05
0.0031783 -0.000955181 -0.000952766 -2.44715e-05
0.00372124 -0.0011164 -0.00111636 -1.13625e-10
0.00319879 -0.00096135 -0.000958905 -2.44723e-05
0.00318855 -0.000958265 -0.000955835 -2.44719e-05
0.00264753 -0.000797352 -0.000792932 -4.51623e-05
0.00263047 -0.000792196 -0.000787833 -4.51609e-05
0.00368534 -0.00110563 -0.00110559 -1.1248e-10
0.00370927 -0.00111281 -0.00111277 -1.13201e-10
0.002639 -0.000794774 -0.000790382 -4.51616e-05
0.00315781 -0.000949011 -0.000946628 -2.44707e-05
0.00369731 -0.00110922 -0.00110918 -1.12891e-10
0.0031783 -0.000955181 -0.000952766 -2.44715e-05
0.00316806 -0.000952096 -0.000949697 -2.44711e-05
0.00263047 -0.000792196 -0.000787833 -4.51609e-05
0.00261342 -0.00078704 -0.000782733 -4.51595e-05
0.00366141 -0.00109845 -0.00109841 -1.11774e-10
0.00368534 -0.00110563 -0.00110559 -1.12493e-10
0.00262194 -0.000789618 -0.000785283 -4.51602e-05
0.00313732 -0.000942842 -0.00094049 -2.44699e-05
0.00367338 -0.00110204 -0.001102 -1.12189e-10
0.00315781 -0.000949011 -0.000946628 -2.44707e-05
0.00314756 -0.000945927 -0.000943559 -2.44703e-05
0.00261342 -0.00078704 -0.000782733 -4.51595e-05
0.00259636 -0.000781884 -0.000777634 -4.51581e-05
0.00363748 -0.00109127 -0.00109123 -1.11068e-10
0.00366141 -0.00109845 -0.00109841 -1.11774e-10
0.00260489 -0.000784462 -0.000780184 -4.51588e-05
0.00311683 -0.000936673 -0.000934352 -2.4469e-05
0.00364945 -0.00109486 -0.00109482 -1.11468e-10
0.00313732 -0.000942842 -0.00094049 -2.44699e-05
0.00312707 -0.000939758 -0.000937421 -2.44694e-05
0.00259636 -0.000781884 -0.000777634 -4.51581e-05
0.00257931 -0.000776728 -0.000772534 -4.51567e-05
0.00361355 -0.00108409 -0.00108405 -1.10348e-10
0.00363748 -0.00109127 -0.00109123 -1.11061e-10
0.00258784 -0.000779306 -0.000775084 -4.51574e-05
0.00309634 -0.000930505 -0.000928214 -2.44682e-05
0.00362552 -0.00108768 -0.00108764 -1.10769e-10
0.00311683 -0.000936673 -0.000934352 -2.4469e-05
0.00310658 -0.000933589 -0.000931283 -2.44686e-05
0.00257931 -0.000776728 -0.000772534 -4.51567e-05
0.00256225 -0.000771573 -0.000767434 -4.51553e-05
0.00358962 -0.00107691 -0.00107688 -1.09659e-10
0.00361355 -0.00108409 -0.00108405 -1.10348e-10
0.00257078 -0.000774151 -0.000769984 -4.5156e-05
0.00307585 -0.000924336 -0.000922075 -2.44674e-05
0.00360159 -0.0010805 -0.00108046 -1.1004e-10
0.00309634 -0.000930505 -0.000928214 -2.44682e-05
0.00308609 -0.00092742 -0.000925144 -2.44678e-05
0.00256225 -0.000771573 -0.000767434 -4.51553e-05
0.0025452 -0.000766418 -0.000762334 -4.51538e-05
0.00356569 -0.00106973 -0.0010697 -1.08939e-10
0.00358962 -0.00107691 -0.00107688 -1.09646e-10
0.00255373 -0.000768995 -0.000764884 -4.51545e-05
0.00305535 -0.000918168 -0.000915937 -2.44665e-05
0.00357766 -0.00107332 -0.00107329 -1.09382e-10
0.00307585 -0.000924336 -0.000922075 -2.44674e-05
0.0030656 -0.000921252 -0.000919006 -2.4467e-05
0.0025452 -0.000766418 -0.000762334 -4.51538e-05
0.00252814 -0.000761263 -0.000757234 -4.51524e-05
0.00354176 -0.00106255 -0.00106252 -1.08164e-10
0.00356569 -0.00106973 -0.0010697 -1.08939e-10
0.00253667 -0.00076384 -0.000759784 -4.51531e-05
0.00303486 -0.000912 -0.000909799 -2.44657e-05
0.00355373 -0.00106614 -0.00106611 -1.0857e-10
0.00305535 -0.000918168 -0.000915937 -2.44665e-05
0.00304511 -0.000915084 -0.000912868 -2.44661e-05
0.00252814 -0.000761263 -0.000757234 -4.51524e-05
0.00251109 -0.000756109 -0.000752134 -4.51509e-05
0.00351783 -0.00105538 -0.00105534 -1.07568e-10
0.00354176 -0.00106255 -0.00106252 -1.08158e-10
0.00251962 -0.000758686 -0.000754684 -4.51516e-05
0.00301437 -0.000905832 -0.00090366 -2.44649e-05
0.0035298 -0.00105896 -0.00105893 -1.07918e-10
0.00303486 -0.000912 -0.000909799 -2.44657e-05
0.00302462 -0.000908916 -0.00090673 -2.44653e-05
0.00251109 -0.000756109 -0.000752134 -4.51509e-05
0.00249403 -0.000750954 -0.000747034 -4.51494e-05
0.0034939 -0.0010482 -0.00104816 -1.06791e-10
0.00351783 -0.00105538 -0.00105534 -1.07568e-10
0.00250256 -0.000753531 -0.000749584 -4.51502e-05
0.00299388 -0.000899664 -0.000897522 -2.4464e-05
0.00350587 -0.00105179 -0.00105175 -1.07251e-10
0.00301437 -0.000905832 -0.00090366 -2.44649e-05
0.00300413 -0.000902748 -0.000900591 -2.44644e-05
0.00249403 -0.000750954 -0.000747034 -4.51494e-05
0.00247698 -0.0007458 -0.000741933 -4.5148e-05
0.00346998 -0.00104102 -0.00104098 -1.0606e-10
0.0034939 -0.0010482 -0.00104816 -1.06791e-10
0.00248551 -0.000748377 -0.000744483 -4.51487e-05
0.00297339 -0.000893496 -0.000891384 -2.44632e-05
0.00348194 -0.00104461 -0.00104457 -1.06442e-10
0.00299388 -0.000899664 -0.000897522 -2.4464e-05
0.00298364 -0.00089658 -0.000894453 -2.44636e-05
0.00247698 -0.0007458 -0.000741933 -4.5148e-05
0.00245992 -0.000740646 -0.000736833 -4.51465e-05
0.00344605 -0.00103384 -0.0010338 -1.05353e-10
0.00346998 -0.00104102 -0.00104098 -1.06055e-10
0.00246845 -0.000743223 -0.000739383 -4.51472e-05
0.0029529 -0.000887329 -0.000885245 -2.44623e-05
0.00345801 -0.00103743 -0.00103739 -1.05785e-10
0.00297339 -0.000893496 -0.000891384 -2.44632e-05
0.00296315 -0.000890412 -0.000888314 -2.44627e-05
0.00245992 -0.000740646 -0.000736833 -4.51465e-05
0.00244287 -0.000735493 -0.000731732 -4.5145e-05
0.00342212 -0.00102666 -0.00102663 -1.04649e-10
0.00344605 -0.00103384 -0.0010338 -1.05362e-10
0.00245139 -0.000738069 -0.000734282 -4.51457e-05
0.00293241 -0.000881162 -0.000879107 -2.44614e-05
0.00343408 -0.00103025 -0.00103022 -1.05034e-10
0.0029529 -0.000887329 -0.000885245 -2.44623e-05
0.00294266 -0.000884245 -0.000882176 -2.44619e-05
0.00244287 -0.000735493 -0.000731732 -4.5145e-05
0.00242581 -0.000730339 -0.000726631 -4.51435e-05
0.00339819 -0.00101948 -0.00101945 -1.03926e-10
0.00342212 -0.00102666 -0.00102663 -1.04649e-10
0.00243434 -0.000732916 -0.000729182 -4.51442e-05
0.00291192 -0.000874994 -0.000872969 -2.44606e-05
0.00341016 -0.00102307 -0.00102304 -1.04336e-10
0.00293241 -0.000881162 -0.000879107 -2.44614e-05
0.00292217 -0.000878078 -0.000876038 -2.4461e-05
0.00242581 -0.000730339 -0.000726631 -4.51435e-05
0.00240876 -0.000725186 -0.00072153 -4.5142e-05
0.00337427 -0.0010123 -0.00101227 -1.03217e-10
0.00339819 -0.00101948 -0.00101945 -1.03926e-10
0.00241728 -0.000727763 -0.000724081 -4.51427e-05
0.00289143 -0.000868828 -0.00086683 -2.44597e-05
0.00338623 -0.00101589 -0.00101586 -1.03616e-10
0.00291192 -0.000874994 -0.000872969 -2.44606e-05
0.00290168 -0.000871911 -0.000869899 -2.44601e-05
0.00240876 -0.000725186 -0.00072153 -4.5142e-05
0.0023917 -0.000720034 -0.000716429 -4.51405e-05
0.00335034 -0.00100513 -0.00100509 -1.02504e-10
0.00337427 -0.0010123 -0.00101227 -1.0323e-10
0.00240023 -0.00072261 -0.00071898 -4.51412e-05
0.00287094 -0.000862661 -0.000860692 -2.44588e-05
0.0033623 -0.00100871 -0.00100868 -1.02921e-10
0.00289143 -0.000868828 -0.00086683 -2.44597e-05
0.00288119 -0.000865744 -0.000863761 -2.44592e-05
0.0023917 -0.000720034 -0.000716429 -4.51405e-05
0.00237465 -0.000714881 -0.000711328 -4.51389e-05
0.00332641 -0.000997947 -0.000997914 -1.0179e-10
0.00335034 -0.00100513 -0.00100509 -1.0251e-10
0.00238317 -0.000717457 -0.000713879 -4.51397e-05
0.00285045 -0.000856494 -0.000854553 -2.44579e-05
0.00333838 -0.00100154 -0.0010015 -1.0219e-10
0.00287094 -0.000862661 -0.000860692 -2.44588e-05
0.0028607 -0.000859578 -0.000857622 -2.44584e-05
0.00237465 -0.000714881 -0.000711328 -4.51389e-05
0.00235759 -0.000709729 -0.000706227 -4.51374e-05
0.00330249 -0.000990769 -0.000990737 -1.01067e-10
0.00332641 -0.000997947 -0.000997914 -1.0179e-10
0.00236612 -0.000712305 -0.000708778 -4.51382e-05
0.00282996 -0.000850328 -0.000848415 -2.4457e-05
0.00331445 -0.000994358 -0.000994326 -1.01489e-10
0.00285045 -0.000856494 -0.000854553 -2.44579e-05
0.00284021 -0.000853411 -0.000851484 -2.44575e-05
0.00235759 -0.000709729 -0.000706227 -4.51374e-05
0.00234054 -0.000704577 -0.000701126 -4.51359e-05
0.00327856 -0.000983591 -0.000983559 -1.00362e-10
0.00330249 -0.000990769 -0.000990737 -1.01067e-10
0.00234906 -0.000707153 -0.000703676 -4.51366e-05
0.00280947 -0.000844162 -0.000842276 -2.44562e-05
0.00329053 -0.00098718 -0.000987148 -1.00759e-10
0.00282996 -0.000850328 -0.000848415 -2.4457e-05
0.00281972 -0.000847245 -0.000845346 -2.44566e-05
0.00234054 -0.000704577 -0.000701126 -4.51359e-05
0.00232348 -0.000699425 -0.000696024 -4.51343e-05
0.00325464 -0.000976413 -0.000976382 -9.9649e-11
0.00327856 -0.000983591 -0.000983559 -1.00362e-10
0.00233201 -0.000702001 -0.000698575 -4.51351e-05
0.00278898 -0.000837996 -0.000836138 -2.44553e-05
0.0032666 -0.000980002 -0.000979971 -1.00035e-10
0.00280947 -0.000844162 -0.000842276 -2.44562e-05
0.00279923 -0.000841079 -0.000839207 -2.44557e-05
0.00232348 -0.000699425 -0.000696024 -4.51343e-05
0.00230643 -0.000694273 -0.000690923 -4.51328e-05
0.00323071 -0.000969235 -0.000969205 -9.89357e-11
0.00325464 -0.000976413 -0.000976382 -9.96441e-11
0.00231495 -0.000696849 -0.000693474 -4.51335e-05
0.0027685 -0.00083183 -0.000829999 -2.44544e-05
0.00324268 -0.000972824 -0.000972793 -9.93241e-11
0.00278898 -0.000837996 -0.000836138 -2.44553e-05
0.00277874 -0.000834913 -0.000833069 -2.44548e-05
0.00230643 -0.000694273 -0.000690923 -4.51328e-05
0.00228937 -0.000689122 -0.000685821 -4.51312e-05
0.00320679 -0.000962058 -0.000962027 -9.8211e-11
0.00323071 -0.000969235 -0.000969205 -9.89357e-11
0.0022979 -0.000691698 -0.000688372 -4.5132e-05
0.00274801 -0.000825665 -0.000823861 -2.44535e-05
0.00321875 -0.000965647 -0.000965616 -9.86017e-11
0.0027685 -0.00083183 -0.000829999 -2.44544e-05
0.00275825 -0.000828747 -0.00082693 -2.44539e-05
0.00228937 -0.000689122 -0.000685821 -4.51312e-05
0.00227232 -0.000683971 -0.000680719 -4.51296e-05
0.00318286 -0.00095488 -0.00095485 -9.7501e-11
0.00320679 -0.000962058 -0.000962027 -9.8211e-11
0.00228084 -0.000686547 -0.00068327 -4.51304e-05
0.00272752 -0.000819499 -0.000817722 -2.44526e-05
0.00319483 -0.000958469 -0.000958439 -9.78793e-11
0.00274801 -0.000825665 -0.000823861 -2.44535e-05
0.00273776 -0.000822582 -0.000820792 -2.4453e-05
0.00227232 -0.000683971 -0.000680719 -4.51296e-05
0.00225526 -0.000678821 -0.000675617 -4.51281e-05
0.00315894 -0.000947703 -0.000947673 -9.67781e-11
0.00318286 -0.00095488 -0.00095485 -9.74828e-11
0.00226379 -0.000681396 -0.000678168 -4.51288e-05
0.00270703 -0.000813334 -0.000811584 -2.44517e-05
0.0031709 -0.000951292 -0.000951262 -9.71681e-11
0.00272752 -0.000819499 -0.000817722 -2.44526e-05
0.00271727 -0.000816417 -0.000814653 -2.44521e-05
0.00225526 -0.000678821 -0.000675617 -4.51281e-05
0.00223821 -0.00067367 -0.000670515 -4.51265e-05
0.00313502 -0.000940526 -0.000940496 -9.60631e-11
0.00315894 -0.000947703 -0.000947673 -9.67727e-11
0.00224673 -0.000676245 -0.000673066 -4.51273e-05
0.00268654 -0.000807169 -0.000805445 -2.44508e-05
0.00314698 -0.000944114 -0.000944085 -9.64535e-11
0.00270703 -0.000813334 -0.000811584 -2.44517e-05
0.00269679 -0.000810252 -0.000808515 -2.44512e-05
0.00223821 -0.00067367 -0.000670515 -4.51265e-05
0.00222115 -0.00066852 -0.000665413 -4.51249e-05
0.00311109 -0.000933349 -0.00093332 -9.53353e-11
0.00313502 -0.000940526 -0.000940496 -9.60631e-11
0.00222968 -0.000671095 -0.000667964 -4.51257e-05
0.00266605 -0.000801004 -0.000799307 -2.44498e-05
0.00312306 -0.000936937 -0.000936908 -9.57442e-11
0.00268654 -0.000807169 -0.000805445 -2.44508e-05
0.0026763 -0.000804087 -0.000802376 -2.44503e-05
0.00222115 -0.00066852 -0.000665413 -4.51249e-05
0.0022041 -0.00066337 -0.000660311 -4.51233e-05
0.00308717 -0.000926172 -0.000926143 -9.4624e-11
0.00311109 -0.000933349 -0.00093332 -9.53353e-11
0.00221262 -0.000665945 -0.000662862 -4.51241e-05
0.00264557 -0.00079484 -0.000793168 -2.44489e-05
0.00309913 -0.00092976 -0.000929731 -9.50192e-11
0.00266605 -0.000801004 -0.000799307 -2.44498e-05
0.00265581 -0.000797922 -0.000796238 -2.44494e-05
0.0022041 -0.00066337 -0.000660311 -4.51233e-05
0.00218704 -0.00065822 -0.000655209 -4.51217e-05
0.00306325 -0.000918995 -0.000918967 -9.39009e-11
0.00308717 -0.000926172 -0.000926143 -9.46247e-11
0.00219557 -0.000660795 -0.00065776 -4.51225e-05
0.00262508 -0.000788676 -0.00078703 -2.4448e-05
0.00307521 -0.000922583 -0.000922555 -9.43005e-11
0.00264557 -0.00079484 -0.000793168 -2.44489e-05
0.00263532 -0.000791758 -0.000790099 -2.44485e-05
0.00218704 -0.00065822 -0.000655209 -4.51217e-05
0.00216999 -0.000653071 -0.000650107 -4.51202e-05
0.00303933 -0.000911818 -0.00091179 -9.31919e-11
0.00306325 -0.000918995 -0.000918967 -9.39096e-11
0.00217851 -0.000655646 -0.000652658 -4.5121e-05
0.00260459 -0.000782511 -0.000780892 -2.44471e-05
0.00305129 -0.000915406 -0.000915378 -9.35788e-11
0.00262508 -0.000788676 -0.00078703 -2.4448e-05
0.00261484 -0.000785593 -0.000783961 -2.44476e-05
0.00216999 -0.000653071 -0.000650107 -4.51202e-05
0.00215293 -0.000647922 -0.000645004 -4.51186e-05
0.00301541 -0.000904641 -0.000904614 -9.24646e-11
0.00303933 -0.000911818 -0.00091179 -9.31919e-11
0.00216146 -0.000650496 -0.000647555 -4.51194e-05
0.0025841 -0.000776347 -0.000774753 -2.44462e-05
0.00302737 -0.000908229 -0.000908202 -9.28422e-11
0.00260459 -0.000782511 -0.000780892 -2.44471e-05
0.00259435 -0.000779429 -0.000777822 -2.44466e-05
0.00215293 -0.000647922 -0.000645004 -4.51186e-05
0.00213588 -0.000642773 -0.000639902 -4.5117e-05
0.00299149 -0.000897464 -0.000897438 -9.17418e-11
0.00301541 -0.000904641 -0.000904614 -9.24646e-11
0.0021444 -0.000645347 -0.000642453 -4.51178e-05
0.00256362 -0.000770184 -0.000768615 -2.44453e-05
0.00300345 -0.000901053 -0.000901026 -9.21398e-11
0.0025841 -0.000776347 -0.000774753 -2.44462e-05
0.00257386 -0.000773265 -0.000771684 -2.44457e-05
0.00213588 -0.000642773 -0.000639902 -4.5117e-05
0.00211882 -0.000637624 -0.000634799 -4.51154e-05
0.00296757 -0.000890288 -0.000890262 -9.10278e-11
0.00299149 -0.000897464 -0.000897438 -9.17368e-11
0.00212735 -0.000640199 -0.00063735 -4.51162e-05
0.00254313 -0.00076402 -0.000762476 -2.44443e-05
0.00297953 -0.000893876 -0.00089385 -9.14295e-11
0.00256362 -0.000770184 -0.000768615 -2.44453e-05
0.00255337 -0.000767102 -0.000765545 -2.44448e-05
0.00211882 -0.000637624 -0.000634799 -4.51154e-05
0.00210177 -0.000632476 -0.000629696 -4.51138e-05
0.00294364 -0.000883112 -0.000883086 -9.02983e-11
0.00296757 -0.000890288 -0.000890262 -9.10228e-11
0.00211029 -0.00063505 -0.000632247 -4.51146e-05
0.00252264 -0.000757857 -0.000756338 -2.44434e-05
0.0029556 -0.0008867 -0.000886674 -9.06959e-11
0.00254313 -0.00076402 -0.000762476 -2.44443e-05
0.00253289 -0.000760938 -0.000759407 -2.44439e-05
0.00210177 -0.000632476 -0.000629696 -4.51138e-05
0.00208471 -0.000627328 -0.000624593 -4.51122e-05
0.00291973 -0.000875935 -0.00087591 -8.95994e-11
0.00294364 -0.000883112 -0.000883086 -9.02983e-11
0.00209324 -0.000629902 -0.000627145 -4.5113e-05
0.00250216 -0.000751694 -0.000750199 -2.44425e-05
0.00293168 -0.000879524 -0.000879498 -8.99921e-11
0.00252264 -0.000757857 -0.000756338 -2.44434e-05
0.0025124 -0.000754775 -0.000753268 -2.4443e-05
0.00208471 -0.000627328 -0.000624593 -4.51122e-05
0.00206766 -0.00062218 -0.00061949 -4.51106e-05
0.00289581 -0.000868759 -0.000868734 -8.8866e-11
0.00291973 -0.000875935 -0.00087591 -8.95994e-11
0.00207618 -0.000624754 -0.000622042 -4.51114e-05
0.00248167 -0.000745531 -0.000744061 -2.44416e-05
0.00290777 -0.000872347 -0.000872322 -8.92695e-11
0.00250216 -0.000751694 -0.000750199 -2.44425e-05
0.00249191 -0.000748612 -0.00074713 -2.4442e-05
0.00206766 -0.00062218 -0.00061949 -4.51106e-05
0.0020506 -0.000617033 -0.000614387 -4.5109e-05
0.00287189 -0.000861583 -0.000861559 -8.81393e-11
0.00289581 -0.000868759 -0.000868734 -8.88743e-11
0.00205913 -0.000619606 -0.000616939 -4.51098e-05
0.00246119 -0.000739368 -0.000737922 -2.44406e-05
0.00288385 -0.000865171 -0.000865146 -8.85184e-11
0.00248167 -0.000745531 -0.000744061 -2.44416e-05
0.00247143 -0.000742449 -0.000740991 -2.44411e-05
0.0020506 -0.000617033 -0.000614387 -4.5109e-05
0.00203355 -0.000611885 -0.000609284 -4.51073e-05
0.00284797 -0.000854407 -0.000854383 -8.74131e-11
0.00287189 -0.000861583 -0.000861559 -8.81328e-11
0.00204207 -0.000614459 -0.000611835 -4.51081e-05
0.0024407 -0.000733205 -0.000731784 -2.44397e-05
0.00285993 -0.000857995 -0.000857971 -8.77848e-11
0.00246119 -0.000739368 -0.000737922 -2.44406e-05
0.00245094 -0.000736286 -0.000734853 -2.44402e-05
0.00203355 -0.000611885 -0.000609284 -4.51073e-05
0.00201649 -0.000606738 -0.000604181 -4.51057e-05
0.00282405 -0.000847232 -0.000847208 -8.66872e-11
0.00284797 -0.000854407 -0.000854383 -8.74131e-11
0.00202502 -0.000609312 -0.000606732 -4.51065e-05
0.00242021 -0.000727043 -0.000725645 -2.44388e-05
0.00283601 -0.00085082 -0.000850795 -8.7065e-11
0.0024407 -0.000733205 -0.000731784 -2.44397e-05
0.00243046 -0.000730124 -0.000728714 -2.44393e-05
0.00201649 -0.000606738 -0.000604181 -4.51057e-05
0.00199944 -0.000601592 -0.000599077 -4.51041e-05
0.00280013 -0.000840056 -0.000840033 -8.59669e-11
0.00282405 -0.000847232 -0.000847208 -8.66872e-11
0.00200797 -0.000604165 -0.000601629 -4.51049e-05
0.00239973 -0.000720881 -0.000719507 -2.44379e-05
0.00281209 -0.000843644 -0.00084362 -8.63774e-11
0.00242021 -0.000727043 -0.000725645 -2.44388e-05
0.00240997 -0.000723962 -0.000722576 -2.44383e-05
0.00199944 -0.000601592 -0.000599077 -4.51041e-05
0.00198238 -0.000596445 -0.000593974 -4.51025e-05
0.00277621 -0.000832881 -0.000832857 -8.52611e-11
0.00280013 -0.000840056 -0.000840033 -8.59823e-11
0.00199091 -0.000599018 -0.000596525 -4.51033e-05
0.00237924 -0.000714719 -0.000713368 -2.44369e-05
0.00278817 -0.000836468 -0.000836445 -8.56641e-11
0.00239973 -0.000720881 -0.000719507 -2.44379e-05
0.00238949 -0.0007178 -0.000716437 -2.44374e-05
0.00198238 -0.000596445 -0.000593974 -4.51025e-05
0.00196533 -0.000591299 -0.00058887 -4.51009e-05
0.0027523 -0.000825705 -0.000825682 -8.45222e-11
0.00277621 -0.000832881 -0.000832857 -8.52495e-11
0.00197386 -0.000593872 -0.000591422 -4.51017e-05
0.00235876 -0.000708557 -0.00070723 -2.4436e-05
0.00276426 -0.000829293 -0.00082927 -8.49179e-11
0.00237924 -0.000714719 -0.000713368 -2.44369e-05
0.002369 -0.000711638 -0.000710299 -2.44365e-05
0.00196533 -0.000591299 -0.00058887 -4.51009e-05
0.00194827 -0.000586153 -0.000583766 -4.50993e-05
0.00272838 -0.00081853 -0.000818508 -8.38059e-11
0.0027523 -0.000825705 -0.000825682 -8.45222e-11
0.0019568 -0.000588726 -0.000586318 -4.51001e-05
0.00233827 -0.000702395 -0.000701091 -2.44351e-05
0.00274034 -0.000822118 -0.000822095 -8.41839e-11
0.00235876 -0.000708557 -0.00070723 -2.4436e-05
0.00234852 -0.000705476 -0.00070416 -2.44355e-05
0.00194827 -0.000586153 -0.000583766 -4.50993e-05
0.00193122 -0.000581007 -0.000578662 -4.50977e-05
0.00270446 -0.000811355 -0.000811333 -8.30943e-11
0.00272838 -0.00081853 -0.000818508 -8.38059e-11
0.00193975 -0.00058358 -0.000581214 -4.50985e-05
0.00231779 -0.000696234 -0.000694953 -2.44341e-05
0.00271642 -0.000814942 -0.00081492 -8.34948e-11
0.00233827 -0.000702395 -0.000701091 -2.44351e-05
0.00232803 -0.000699315 -0.000698022 -2.44346e-05
0.00193122 -0.000581007 -0.000578662 -4.50977e-05
0.00191417 -0.000575862 -0.000573559 -4.50961e-05
0.00268055 -0.00080418 -0.000804158 -8.23742e-11
0.00270446 -0.000811355 -0.000811333 -8.309e-11
0.00192269 -0.000578435 -0.000576111 -4.50969e-05
0.00229731 -0.000690073 -0.000688814 -2.44332e-05
0.00269251 -0.000807767 -0.000807746 -8.2753e-11
0.00231779 -0.000696234 -0.000694953 -2.44341e-05
0.00230755 -0.000693153 -0.000691883 -2.44337e-05
0.00191417 -0.000575862 -0.000573559 -4.50961e-05
0.00189711 -0.000570717 -0.000568455 -4.50945e-05
0.00265663 -0.000797005 -0.000796984 -8.16446e-11
0.00268055 -0.00080418 -0.000804158 -8.23756e-11
0.00190564 -0.000573289 -0.000571007 -4.50953e-05
0.00227682 -0.000683912 -0.000682676 -2.44323e-05
0.00266859 -0.000800592 -0.000800571 -8.2017e-11
0.00229731 -0.000690073 -0.000688814 -2.44332e-05
0.00228706 -0.000686992 -0.000685745 -2.44328e-05
0.00189711 -0.000570717 -0.000568455 -4.50945e-05
0.00188006 -0.000565572 -0.00056335 -4.50928e-05
0.00263272 -0.00078983 -0.000789809 -8.09351e-11
0.00265663 -0.000797005 -0.000796984 -8.16446e-11
0.00188858 -0.000568144 -0.000565903 -4.50936e-05
0.00225634 -0.000677751 -0.000676537 -2.44314e-05
0.00264468 -0.000793417 -0.000793397 -8.13159e-11
0.00227682 -0.000683912 -0.000682676 -2.44323e-05
0.00226658 -0.000680832 -0.000679607 -2.44318e-05
0.00188006 -0.000565572 -0.00056335 -4.50928e-05
0.001863 -0.000560427 -0.000558246 -4.50912e-05
0.0026088 -0.000782655 -0.000782635 -8.02056e-11
0.00263272 -0.00078983 -0.000789809 -8.09351e-11
0.00187153 -0.000563 -0.000560798 -4.5092e-05
0.00223585 -0.000671591 -0.000670399 -2.44304e-05
0.00262076 -0.000786243 -0.000786222 -8.05851e-11
0.00225634 -0.000677751 -0.000676537 -2.44314e-05
0.0022461 -0.000674671 -0.000673468 -2.44309e-05
0.001863 -0.000560427 -0.000558246 -4.50912e-05
0.00184595 -0.000555283 -0.000553142 -4.50896e-05
0.00258489 -0.000775481 -0.000775461 -7.94813e-11
0.0026088 -0.000782655 -0.000782635 -8.02076e-11
0.00185447 -0.000557855 -0.000555694 -4.50904e-05
0.00221537 -0.00066543 -0.00066426 -2.44295e-05
0.00259685 -0.000779068 -0.000779048 -7.98703e-11
0.00223585 -0.000671591 -0.000670399 -2.44304e-05
0.00222561 -0.00066851 -0.00066733 -2.443e-05
0.00184595 -0.000555283 -0.000553142 -4.50896e-05
0.00182889 -0.000550139 -0.000548038 -4.5088e-05
0.00256098 -0.000768306 -0.000768287 -7.87514e-11
0.00258489 -0.000775481 -0.000775461 -7.94897e-11
0.00183742 -0.000552711 -0.00055059 -4.50888e-05
0.00219489 -0.00065927 -0.000658122 -2.44286e-05
0.00257293 -0.000771894 -0.000771874 -7.9145e-11
0.00221537 -0.00066543 -0.00066426 -2.44295e-05
0.00220513 -0.00066235 -0.000661191 -2.4429e-05
0.00182889 -0.000550139 -0.000548038 -4.5088e-05
0.00181184 -0.000544995 -0.000542933 -4.50864e-05
0.00253706 -0.000761132 -0.000761113 -7.80272e-11
0.00256098 -0.000768306 -0.000768287 -7.87514e-11
0.00182037 -0.000547567 -0.000545485 -4.50872e-05
0.0021744 -0.00065311 -0.000651983 -2.44277e-05
0.00254902 -0.000764719 -0.0007647 -7.84072e-11
0.00219489 -0.00065927 -0.000658122 -2.44286e-05
0.00218465 -0.00065619 -0.000655053 -2.44281e-05
0.00181184 -0.000544995 -0.000542933 -4.50864e-05
0.00179478 -0.000539852 -0.000537828 -4.50848e-05
0.00251315 -0.000753958 -0.000753939 -7.73009e-11
0.00253706 -0.000761132 -0.000761113 -7.80272e-11
0.00180331 -0.000542423 -0.000540381 -4.50856e-05
0.00215392 -0.00064695 -0.000645845 -2.44267e-05
0.00252511 -0.000757545 -0.000757526 -7.76891e-11
0.0021744 -0.00065311 -0.000651983 -2.44277e-05
0.00216416 -0.00065003 -0.000648914 -2.44272e-05
0.00179478 -0.000539852 -0.000537828 -4.50848e-05
0.00177773 -0.000534708 -0.000532724 -4.50832e-05
0.00248924 -0.000746784 -0.000746765 -7.6566e-11
0.00251315 -0.000753958 -0.000753939 -7.73141e-11
0.00178626 -0.00053728 -0.000535276 -4.5084e-05
0.00213344 -0.000640791 -0.000639707 -2.44258e-05
0.00250119 -0.000750371 -0.000750352 -7.6951e-11
0.00215392 -0.00064695 -0.000645845 -2.44267e-05
0.00214368 -0.000643871 -0.000642776 -2.44263e-05
0.00177773 -0.000534708 -0.000532724 -4.50832e-05
0.00176068 -0.000529565 -0.000527619 -4.50816e-05
0.00246532 -0.00073961 -0.000739592 -7.58468e-11
0.00248924 -0.000746784 -0.000746765 -7.65825e-11
0.0017692 -0.000532137 -0.000530171 -4.50824e-05
0.00211296 -0.000634632 -0.000633568 -2.44249e-05
0.00247728 -0.000743197 -0.000743179 -7.62364e-11
0.00213344 -0.000640791 -0.000639707 -2.44258e-05
0.0021232 -0.000637711 -0.000636637 -2.44254e-05
0.00176068 -0.000529565 -0.000527619 -4.50816e-05
0.00174362 -0.000524423 -0.000522514 -4.508e-05
0.00244141 -0.000732436 -0.000732418 -7.51171e-11
0.00246532 -0.00073961 -0.000739592 -7.58468e-11
0.00175215 -0.000526994 -0.000525066 -4.50808e-05
0.00209247 -0.000628472 -0.00062743 -2.4424e-05
0.00245337 -0.000736023 -0.000736005 -7.55083e-11
0.00211296 -0.000634632 -0.000633568 -2.44249e-05
0.00210272 -0.000631552 -0.000630499 -2.44244e-05
0.00174362 -0.000524423 -0.000522514 -4.508e-05
0.00172657 -0.00051928 -0.000517409 -4.50784e-05
0.0024175 -0.000725262 -0.000725245 -7.44055e-11
0.00244141 -0.000732436 -0.000732418 -7.51171e-11
0.00173509 -0.000521851 -0.000519961 -4.50792e-05
0.00207199 -0.000622313 -0.000621291 -2.44231e-05
0.00242946 -0.000728849 -0.000728832 -7.47886e-11
0.00209247 -0.000628472 -0.00062743 -2.4424e-05
0.00208223 -0.000625393 -0.00062436 -2.44235e-05
0.00172657 -0.00051928 -0.000517409 -4.50784e-05
0.00170951 -0.000514138 -0.000512304 -4.50768e-05
0.00239359 -0.000718089 -0.000718072 -7.36855e-11
0.0024175 -0.000725262 -0.000725245 -7.43961e-11
0.00171804 -0.000516709 -0.000514856 -4.50776e-05
0.00205151 -0.000616155 -0.000615153 -2.44221e-05
0.00240555 -0.000721675 -0.000721659 -7.40429e-11
0.00207199 -0.000622313 -0.000621291 -2.44231e-05
0.00206175 -0.000619234 -0.000618222 -2.44226e-05
0.00170951 -0.000514138 -0.000512304 -4.50768e-05
0.00169246 -0.000508996 -0.000507199 -4.50753e-05
0.00236968 -0.000710915 -0.000710899 -7.29442e-11
0.00239359 -0.000718089 -0.000718072 -7.3699e-11
0.00170099 -0.000511567 -0.000509751 -4.5076e-05
0.00203103 -0.000609996 -0.000609014 -2.44212e-05
0.00238163 -0.000714502 -0.000714485 -7.33363e-11
0.00205151 -0.000616155 -0.000615153 -2.44221e-05
0.00204127 -0.000613075 -0.000612083 -2.44217e-05
0.00169246 -0.000508996 -0.000507199 -4.50753e-05
0.00167541 -0.000503854 -0.000502093 -4.50737e-05
0.00234577 -0.000703742 -0.000703726 -7.2218e-11
0.00236968 -0.000710915 -0.000710899 -7.29442e-11
0.00168393 -0.000506425 -0.000504646 -4.50745e-05
0.00201055 -0.000603838 -0.000602876 -2.44203e-05
0.00235772 -0.000707328 -0.000707312 -7.26103e-11
0.00203103 -0.000609996 -0.000609014 -2.44212e-05
0.00202079 -0.000606917 -0.000605945 -2.44208e-05
0.00167541 -0.000503854 -0.000502093 -4.50737e-05
0.00165835 -0.000498713 -0.000496988 -4.50721e-05
0.00232186 -0.000696568 -0.000696553 -7.14966e-11
0.00234577 -0.000703742 -0.000703726 -7.2218e-11
0.00166688 -0.000501284 -0.00049954 -4.50729e-05
0.00199007 -0.00059768 -0.000596737 -2.44194e-05
0.00233381 -0.000700155 -0.000700139 -7.18705e-11
0.00201055 -0.000603838 -0.000602876 -2.44203e-05
0.00200031 -0.000600759 -0.000599807 -2.44199e-05
0.00165835 -0.000498713 -0.000496988 -4.50721e-05
0.0016413 -0.000493572 -0.000491882 -4.50705e-05
0.00229795 -0.000689395 -0.00068938 -7.0766e-11
0.00232186 -0.000696568 -0.000696553 -7.15057e-11
0.00164982 -0.000496142 -0.000494435 -4.50713e-05
0.00196959 -0.000591522 -0.000590599 -2.44185e-05
0.0023099 -0.000692982 -0.000692967 -7.11656e-11
0.00199007 -0.00059768 -0.000596737 -2.44194e-05
0.00197983 -0.000594601 -0.000593668 -2.4419e-05
0.0016413 -0.000493572 -0.000491882 -4.50705e-05
0.00162424 -0.000488431 -0.000486777 -4.5069e-05
0.00227404 -0.000682222 -0.000682208 -7.00574e-11
0.00229795 -0.000689395 -0.00068938 -7.07662e-11
0.00163277 -0.000491001 -0.000489329 -4.50697e-05
0.0019491 -0.000585364 -0.00058446 -2.44176e-05
0.00228599 -0.000685809 -0.000685794 -7.0414e-11
0.00196959 -0.000591522 -0.000590599 -2.44185e-05
0.00195935 -0.000588443 -0.00058753 -2.4418e-05
0.00162424 -0.000488431 -0.000486777 -4.5069e-05
0.00160719 -0.00048329 -0.000481671 -4.50674e-05
0.00225013 -0.000675049 -0.000675035 -6.93207e-11
0.00227404 -0.000682222 -0.000682208 -7.00574e-11
0.00161572 -0.000485861 -0.000484224 -4.50682e-05
0.00192862 -0.000579206 -0.000578322 -2.44167e-05
0.00226209 -0.000678636 -0.000678621 -6.97253e-11
0.0019491 -0.000585364 -0.00058446 -2.44176e-05
0.00193886 -0.000582285 -0.000581391 -2.44171e-05
0.00160719 -0.00048329 -0.000481671 -4.50674e-05
0.00159013 -0.00047815 -0.000476565 -4.50658e-05
0.00222622 -0.000667876 -0.000667863 -6.85942e-11
0.00225013 -0.000675049 -0.000675035 -6.93207e-11
0.00159866 -0.00048072 -0.000479118 -4.50666e-05
0.00190814 -0.000573049 -0.000572183 -2.44158e-05
0.00223818 -0.000671463 -0.000671449 -6.8982e-11
0.00192862 -0.000579206 -0.000578322 -2.44167e-05
0.00191838 -0.000576128 -0.000575253 -2.44162e-05
0.00159013 -0.00047815 -0.000476565 -4.50658e-05
0.00157308 -0.00047301 -0.000471459 -4.50643e-05
0.00220231 -0.000660704 -0.00066069 -6.78624e-11
0.00222622 -0.000667876 -0.000667863 -6.85946e-11
0.00158161 -0.00047558 -0.000474012 -4.5065e-05
0.00188766 -0.000566892 -0.000566045 -2.44149e-05
0.00221427 -0.00066429 -0.000664276 -6.82361e-11
0.00190814 -0.000573049 -0.000572183 -2.44158e-05
0.0018979 -0.00056997 -0.000569114 -2.44153e-05
0.00157308 -0.00047301 -0.000471459 -4.50643e-05
0.00155603 -0.00046787 -0.000466353 -4.50627e-05
0.00217841 -0.000653531 -0.000653518 -6.71379e-11
0.00220231 -0.000660704 -0.00066069 -6.78587e-11
0.00156455 -0.00047044 -0.000468906 -4.50635e-05
0.00186718 -0.000560735 -0.000559906 -2.4414e-05
0.00219036 -0.000657117 -0.000657104 -6.74957e-11
0.00188766 -0.000566892 -0.000566045 -2.44149e-05
0.00187742 -0.000563813 -0.000562976 -2.44144e-05
0.00155603 -0.00046787 -0.000466353 -4.50627e-05
0.00153897 -0.00046273 -0.000461247 -4.50612e-05
0.0021545 -0.000646359 -0.000646346 -6.63854e-11
0.00217841 -0.000653531 -0.000653518 -6.71379e-11
0.0015475 -0.0004653 -0.0004638 -4.50619e-05
0.0018467 -0.000554578 -0.000553768 -2.44131e-05
0.00216645 -0.000649945 -0.000649932 -6.6778e-11
0.00186718 -0.000560735 -0.000559906 -2.4414e-05
0.00185694 -0.000557656 -0.000556837 -2.44136e-05
0.00153897 -0.00046273 -0.000461247 -4.50612e-05
0.00152192 -0.000457591 -0.00045614 -4.50596e-05
0.00213059 -0.000639186 -0.000639174 -6.56699e-11
0.0021545 -0.000646359 -0.000646346 -6.63854e-11
0.00153045 -0.000460161 -0.000458694 -4.50604e-05
0.00182622 -0.000548422 -0.000547629 -2.44122e-05
0.00214255 -0.000642772 -0.00064276 -6.605e-11
0.0018467 -0.000554578 -0.000553768 -2.44131e-05
0.00183646 -0.0005515 -0.000550699 -2.44127e-05
0.00152192 -0.000457591 -0.00045614 -4.50596e-05
0.00150486 -0.000452452 -0.000451034 -4.50581e-05
0.00210669 -0.000632014 -0.000632002 -6.49446e-11
0.00213059 -0.000639186 -0.000639174 -6.56659e-11
0.00151339 -0.000455022 -0.000453587 -4.50589e-05
0.00180574 -0.000542265 -0.000541491 -2.44113e-05
0.00211864 -0.0006356 -0.000635588 -6.52938e-11
0.00182622 -0.000548422 -0.000547629 -2.44122e-05
0.00181598 -0.000545343 -0.00054456 -2.44118e-05
0.00150486 -0.000452452 -0.000451034 -4.50581e-05
0.00148781 -0.000447313 -0.000445927 -4.50566e-05
0.00208278 -0.000624842 -0.00062483 -6.42244e-11
0.00210669 -0.000632014 -0.000632002 -6.49446e-11
0.00149634 -0.000449883 -0.000448481 -4.50573e-05
0.00178526 -0.000536109 -0.000535352 -2.44104e-05
0.00209473 -0.000628428 -0.000628416 -6.4601e-11
0.00180574 -0.000542265 -0.000541491 -2.44113e-05
0.0017955 -0.000539187 -0.000538422 -2.44109e-05
0.00148781 -0.000447313 -0.000445927 -4.50566e-05
0.00147076 -0.000442175 -0.000440821 -4.50551e-05
0.00205887 -0.00061767 -0.000617659 -6.34702e-11
0.00208278 -0.000624842 -0.00062483 -6.42244e-11
0.00147928 -0.000444744 -0.000443374 -4.50558e-05
0.00176479 -0.000529953 -0.000529214 -2.44096e-05
0.00207083 -0.000621256 -0.000621245 -6.38481e-11
0.00178526 -0.000536109 -0.000535352 -2.44104e-05
0.00177502 -0.000533031 -0.000532283 -2.441e-05
0.00147076 -0.000442175 -0.000440821 -4.50551e-05
0.0014537 -0.000437036 -0.000435714 -4.50535e-05
0.00203497 -0.000610498 -0.000610487 -6.27547e-11
0.00205887 -0.00061767 -0.000617659 -6.34702e-11
0.00146223 -0.000439605 -0.000438268 -4.50543e-05
0.00174431 -0.000523797 -0.000523075 -2.44087e-05
0.00204692 -0.000614084 -0.000614073 -6.31051e-11
0.00176479 -0.000529953 -0.000529214 -2.44096e-05
0.00175455 -0.000526875 -0.000526145 -2.44091e-05
0.0014537 -0.000437036 -0.000435714 -4.50535e-05
0.00143665 -0.000431898 -0.000430607 -4.5052e-05
0.00201106 -0.000603326 -0.000603316 -6.20469e-11
0.00203497 -0.000610498 -0.000610487 -6.27547e-11
0.00144518 -0.000434467 -0.000433161 -4.50528e-05
0.00172383 -0.000517641 -0.000516937 -2.44078e-05
0.00202302 -0.000606912 -0.000606901 -6.24066e-11
0.00174431 -0.000523797 -0.000523075 -2.44087e-05
0.00173407 -0.000520719 -0.000520006 -2.44083e-05
0.00143665 -0.000431898 -0.000430607 -4.5052e-05
0.00141959 -0.000426761 -0.0004255 -4.50505e-05
0.00198716 -0.000596154 -0.000596144 -6.12793e-11
0.00201106 -0.000603326 -0.000603316 -6.203e-11
0.00142812 -0.000429329 -0.000428054 -4.50513e-05
0.00170335 -0.000511486 -0.000510798 -2.4407e-05
0.00199911 -0.00059974 -0.00059973 -6.16807e-11
0.00172383 -0.000517641 -0.000516937 -2.44078e-05
0.00171359 -0.000514564 -0.000513867 -2.44074e-05
0.00141959 -0.000426761 -0.0004255 -4.50505e-05
0.00140254 -0.000421623 -0.000420393 -4.5049e-05
0.00196325 -0.000588982 -0.000588973 -6.05433e-11
0.00198716 -0.000596154 -0.000596144 -6.12793e-11
0.00141107 -0.000424192 -0.000422947 -4.50498e-05
0.00168287 -0.000505331 -0.00050466 -2.44061e-05
0.00197521 -0.000592568 -0.000592559 -6.09111e-11
0.00170335 -0.000511486 -0.000510798 -2.4407e-05
0.00169311 -0.000508408 -0.000507729 -2.44065e-05
0.00140254 -0.000421623 -0.000420393 -4.5049e-05
0.00138549 -0.000416486 -0.000415286 -4.50475e-05
0.00193935 -0.000581811 -0.000581802 -5.97877e-11
0.00196325 -0.000588982 -0.000588973 -6.05433e-11
0.00139401 -0.000419054 -0.00041784 -4.50483e-05
0.00166239 -0.000499176 -0.000498521 -2.44052e-05
0.0019513 -0.000585397 -0.000585388 -6.0185e-11
0.00168287 -0.000505331 -0.00050466 -2.44061e-05
0.00167263 -0.000502253 -0.00050159 -2.44057e-05
0.00138549 -0.000416486 -0.000415286 -4.50475e-05
0.00136843 -0.000411349 -0.000410179 -4.50461e-05
0.00191544 -0.000574639 -0.000574631 -5.90877e-11
0.00193935 -0.000581811 -0.000581802 -5.9807e-11
0.00137696 -0.000413917 -0.000412732 -4.50468e-05
0.00164191 -0.000493021 -0.000492382 -2.44044e-05
0.0019274 -0.000578225 -0.000578216 -5.94646e-11
0.00166239 -0.000499176 -0.000498521 -2.44052e-05
0.00165215 -0.000496098 -0.000495452 -2.44048e-05
0.00136843 -0.000411349 -0.000410179 -4.50461e-05
0.00135138 -0.000406212 -0.000405071 -4.50446e-05
0.00189154 -0.000567468 -0.00056746 -5.83601e-11
0.00191544 -0.000574639 -0.000574631 -5.90873e-11
0.00135991 -0.00040878 -0.000407625 -4.50453e-05
0.00162143 -0.000486866 -0.000486244 -2.44035e-05
0.00190349 -0.000571054 -0.000571045 -5.87204e-11
0.00164191 -0.000493021 -0.000492382 -2.44044e-05
0.00163167 -0.000489943 -0.000489313 -2.44039e-05
0.00135138 -0.000406212 -0.000405071 -4.50446e-05
0.00133432 -0.000401075 -0.000399964 -4.50431e-05
0.00186764 -0.000560297 -0.000560289 -5.76232e-11
0.00189154 -0.000567468 -0.00056746 -5.83601e-11
0.00134285 -0.000403644 -0.000402518 -4.50439e-05
0.00160096 -0.000480711 -0.000480105 -2.44027e-05
0.00187959 -0.000563882 -0.000563875 -5.79987e-11
0.00162143 -0.000486866 -0.000486244 -2.44035e-05
0.0016112 -0.000483789 -0.000483174 -2.44031e-05
0.00133432 -0.000401075 -0.000399964 -4.50431e-05
0.00131727 -0.000395939 -0.000394856 -4.50417e-05
0.00184374 -0.000553126 -0.000553118 -5.69004e-11
0.00186764 -0.000560297 -0.000560289 -5.76232e-11
0.0013258 -0.000398507 -0.00039741 -4.50424e-05
0.00158048 -0.000474557 -0.000473966 -2.44018e-05
0.00185569 -0.000556711 -0.000556704 -5.72783e-11
0.00160096 -0.000480711 -0.000480105 -2.44027e-05
0.00159072 -0.000477634 -0.000477036 -2.44022e-05
0.00131727 -0.000395939 -0.000394856 -4.50417e-05
0.00130022 -0.000390803 -0.000389748 -4.50402e-05
0.00181983 -0.000545955 -0.000545948 -5.61571e-11
0.00184374 -0.000553126 -0.000553118 -5.69001e-11
0.00130874 -0.000393371 -0.000392302 -4.50409e-05
0.00156 -0.000468403 -0.000467828 -2.4401e-05
0.00183178 -0.00054954 -0.000549533 -5.65348e-11
0.00158048 -0.000474557 -0.000473966 -2.44018e-05
0.00157024 -0.00047148 -0.000470897 -2.44014e-05
0.00130022 -0.000390803 -0.000389748 -4.50402e-05
0.00128316 -0.000385667 -0.00038464 -4.50388e-05
0.00179593 -0.000538784 -0.000538777 -5.54262e-11
0.00181983 -0.000545955 -0.000545948 -5.61427e-11
0.00129169 -0.000388235 -0.000387194 -4.50395e-05
0.00153952 -0.000462249 -0.000461689 -2.44001e-05
0.00180788 -0.000542369 -0.000542362 -5.57821e-11
0.00156 -0.000468403 -0.000467828 -2.4401e-05
0.00154976 -0.000465326 -0.000464758 -2.44006e-05
0.00128316 -0.000385667 -0.00038464 -4.50388e-05
0.00126611 -0.000380532 -0.000379532 -4.50373e-05
0.00177203 -0.000531613 -0.000531607 -5.46973e-11
0.00179593 -0.000538784 -0.000538777 -5.54262e-11
0.00127463 -0.0003831 -0.000382086 -4.50381e-05
0.00151905 -0.000456095 -0.00045555 -2.43993e-05
0.00178398 -0.000535198 -0.000535192 -5.50564e-11
0.00153952 -0.000462249 -0.000461689 -2.44001e-05
0.00152928 -0.000459172 -0.00045862 -2.43997e-05
0.00126611 -0.000380532 -0.000379532 -4.50373e-05
0.00124905 -0.000375397 -0.000374424 -4.50359e-05
0.00174813 -0.000524442 -0.000524436 -5.39486e-11
0.00177203 -0.000531613 -0.000531607 -5.46973e-11
0.00125758 -0.000377964 -0.000376978 -4.50366e-05
0.00149857 -0.000449941 -0.000449412 -2.43985e-05
0.00176008 -0.000528027 -0.000528021 -5.43494e-11
0.00151905 -0.000456095 -0.00045555 -2.43993e-05
0.00150881 -0.000453018 -0.000452481 -2.43989e-05
0.00124905 -0.000375397 -0.000374424 -4.50359e-05
0.001232 -0.000370262 -0.000369316 -4.50345e-05
0.00172422 -0.000517271 -0.000517266 -5.32224e-11
0.00174813 -0.000524442 -0.000524436 -5.39582e-11
0.00124053 -0.000372829 -0.00037187 -4.50352e-05
0.00147809 -0.000443788 -0.000443273 -2.43977e-05
0.00173618 -0.000520857 -0.000520851 -5.35964e-11
0.00149857 -0.000449941 -0.000449412 -2.43985e-05
0.00148833 -0.000446865 -0.000446342 -2.43981e-05
0.001232 -0.000370262 -0.000369316 -4.50345e-05
0.00121494 -0.000365127 -0.000364208 -4.50331e-05
0.00170032 -0.000510101 -0.000510096 -5.25309e-11
0.00172422 -0.000517271 -0.000517266 -5.3222e-11
0.00122347 -0.000367694 -0.000366762 -4.50338e-05
0.00145761 -0.000437635 -0.000437134 -2.43968e-05
0.00171227 -0.000513686 -0.000513681 -5.28679e-11
0.00147809 -0.000443788 -0.000443273 -2.43977e-05
0.00146785 -0.000440711 -0.000440203 -2.43972e-05
0.00121494 -0.000365127 -0.000364208 -4.50331e-05
0.00119789 -0.000359992 -0.000359099 -4.50317e-05
0.00167642 -0.00050293 -0.000502926 -5.17516e-11
0.00170032 -0.000510101 -0.000510096 -5.25309e-11
0.00120642 -0.000362559 -0.000361653 -4.50324e-05
0.00143714 -0.000431482 -0.000430995 -2.4396e-05
0.00168837 -0.000506515 -0.000506511 -5.21158e-11
0.00145761 -0.000437635 -0.000437134 -2.43968e-05
0.00144738 -0.000434558 -0.000434065 -2.43964e-05
0.00119789 -0.000359992 -0.000359099 -4.50317e-05
0.00118084 -0.000354858 -0.000353991 -4.50303e-05
0.00165252 -0.00049576 -0.000495755 -5.10313e-11
0.00167642 -0.00050293 -0.000502926 -5.17516e-11
0.00118936 -0.000357425 -0.000356545 -4.5031e-05
0.00141666 -0.000425329 -0.000424856 -2.43952e-05
0.00166447 -0.000499345 -0.00049934 -5.1392e-11
0.00143714 -0.000431482 -0.000430995 -2.4396e-05
0.0014269 -0.000428405 -0.000427926 -2.43956e-05
0.00118084 -0.000354858 -0.000353991 -4.50303e-05
0.00116378 -0.000349724 -0.000348882 -4.50289e-05
0.00162862 -0.000488589 -0.000488585 -5.02977e-11
0.00165252 -0.00049576 -0.000495755 -5.10313e-11
0.00117231 -0.000352291 -0.000351436 -4.50296e-05
0.00139618 -0.000419176 -0.000418717 -2.43944e-05
0.00164057 -0.000492174 -0.00049217 -5.06494e-11
0.00141666 -0.000425329 -0.000424856 -2.43952e-05
0.00140642 -0.000422252 -0.000421787 -2.43948e-05
0.00116378 -0.000349724 -0.000348882 -4.50289e-05
0.00114673 -0.00034459 -0.000343773 -4.50275e-05
0.00160472 -0.000481419 -0.000481416 -4.95612e-11
0.00162862 -0.000488589 -0.000488585 -5.02943e-11
0.00115525 -0.000347157 -0.000346327 -4.50282e-05
0.00137571 -0.000413023 -0.000412578 -2.43936e-05
0.00161667 -0.000485004 -0.000485001 -4.99298e-11
0.00139618 -0.000419176 -0.000418717 -2.43944e-05
0.00138594 -0.000416099 -0.000415648 -2.4394e-05
0.00114673 -0.00034459 -0.000343773 -4.50275e-05
0.00112967 -0.000339456 -0.000338664 -4.50262e-05
0.00158082 -0.000474249 -0.000474246 -4.88276e-11
0.00160472 -0.000481419 -0.000481416 -4.95612e-11
0.0011382 -0.000342023 -0.000341218 -4.50269e-05
0.00135523 -0.000406871 -0.00040644 -2.43928e-05
0.00159277 -0.000477834 -0.000477831 -4.91928e-11
0.00137571 -0.000413023 -0.000412578 -2.43936e-05
0.00136547 -0.000409947 -0.000409509 -2.43932e-05
0.00112967 -0.000339456 -0.000338664 -4.50262e-05
0.00111262 -0.000334323 -0.000333555 -4.50248e-05
0.00155692 -0.000467079 -0.000467076 -4.80754e-11
0.00158082 -0.000474249 -0.000474246 -4.88276e-11
0.00112114 -0.00033689 -0.000336109 -4.50255e-05
0.00133475 -0.000400718 -0.000400301 -2.4392e-05
0.00156887 -0.000470664 -0.000470661 -4.84577e-11
0.00135523 -0.000406871 -0.00040644 -2.43928e-05
0.00134499 -0.000403795 -0.00040337 -2.43924e-05
0.00111262 -0.000334323 -0.000333555 -4.50248e-05
0.00109556 -0.00032919 -0.000328445 -4.50235e-05
0.00153302 -0.000459909 -0.000459906 -4.73277e-11
0.00155692 -0.000467079 -0.000467076 -4.80721e-11
0.00110409 -0.000331757 -0.000331 -4.50242e-05
0.00131428 -0.000394566 -0.000394162 -2.43913e-05
0.00154497 -0.000463494 -0.000463491 -4.77158e-11
0.00133475 -0.000400718 -0.000400301 -2.4392e-05
0.00132451 -0.000397642 -0.000397231 -2.43916e-05
0.00109556 -0.00032919 -0.000328445 -4.50235e-05
0.00107851 -0.000324057 -0.000323336 -4.50221e-05
0.00150912 -0.000452739 -0.000452737 -4.66035e-11
0.00153302 -0.000459909 -0.000459906 -4.73279e-11
0.00108704 -0.000326624 -0.000325891 -4.50228e-05
0.0012938 -0.000388414 -0.000388022 -2.43905e-05
0.00152107 -0.000456324 -0.000456322 -4.69741e-11
0.00131428 -0.000394566 -0.000394162 -2.43913e-05
0.00130404 -0.00039149 -0.000391092 -2.43909e-05
0.00107851 -0.000324057 -0.000323336 -4.50221e-05
0.00106145 -0.000318924 -0.000318227 -4.50208e-05
0.00148523 -0.000445569 -0.000445567 -4.58683e-11
0.00150912 -0.000452739 -0.000452737 -4.66035e-11
0.00106998 -0.000321491 -0.000320781 -4.50215e-05
0.00127332 -0.000382263 -0.000381883 -2.43897e-05
0.00149718 -0.000449154 -0.000449152 -4.62443e-11
0.0012938 -0.000388414 -0.000388022 -2.43905e-05
0.00128356 -0.000385338 -0.000384953 -2.43901e-05
0.00106145 -0.000318924 -0.000318227 -4.50208e-05
0.0010444 -0.000313792 -0.000313117 -4.50195e-05
0.00146133 -0.000438399 -0.000438398 -4.51495e-11
0.00148523 -0.000445569 -0.000445567 -4.58683e-11
0.00105293 -0.000316358 -0.000315672 -4.50202e-05
0.00125285 -0.000376111 -0.000375744 -2.43889e-05
0.00147328 -0.000441984 -0.000441983 -4.54678e-11
0.00127332 -0.000382263 -0.000381883 -2.43897e-05
0.00126309 -0.000379187 -0.000378814 -2.43893e-05
0.0010444 -0.000313792 -0.000313117 -4.50195e-05
0.00102734 -0.00030866 -0.000308007 -4.50182e-05
0.00143743 -0.000431229 -0.000431229 -4.4411e-11
0.00146133 -0.000438399 -0.000438398 -4.51495e-11
0.00103587 -0.000311226 -0.000310562 -4.50189e-05
0.00123237 -0.00036996 -0.000369605 -2.43882e-05
0.00144938 -0.000434814 -0.000434813 -4.4734e-11
0.00125285 -0.000376111 -0.000375744 -2.43889e-05
0.00124261 -0.000373035 -0.000372675 -2.43886e-05
0.00102734 -0.00030866 -0.000308007 -4.50182e-05
0.00101029 -0.000303528 -0.000302897 -4.50169e-05
0.00141353 -0.00042406 -0.000424059 -4.3643e-11
0.00143743 -0.000431229 -0.000431229 -4.44071e-11
0.00101882 -0.000306094 -0.000305452 -4.50176e-05
0.0012119 -0.000363808 -0.000363466 -2.43874e-05
0.00142548 -0.000427644 -0.000427644 -4.40204e-11
0.00123237 -0.00036996 -0.000369605 -2.43882e-05
0.00122213 -0.000366884 -0.000366536 -2.43878e-05
0.00101029 -0.000303528 -0.000302897 -4.50169e-05
0.000993233 -0.000298396 -0.000297787 -4.50156e-05
0.00138963 -0.00041689 -0.00041689 -4.28948e-11
0.00141353 -0.00042406 -0.000424059 -4.3643e-11
0.00100176 -0.000300962 -0.000300342 -4.50163e-05
0.00119142 -0.000357657 -0.000357327 -2.43867e-05
0.00140158 -0.000420475 -0.000420475 -4.32769e-11
0.0012119 -0.000363808 -0.000363466 -2.43874e-05
0.00120166 -0.000360733 -0.000360396 -2.4387e-05
0.000993233 -0.000298396 -0.000297787 -4.50156e-05
0.000976177 -0.000293265 -0.000292677 -4.50144e-05
0.00136574 -0.00040972 -0.000409721 -4.21601e-11
0.00138963 -0.00041689 -0.00041689 -4.28948e-11
0.000984705 -0.00029583 -0.000295232 -4.5015e-05
0.00117094 -0.000351506 -0.000351187 -2.43859e-05
0.00137768 -0.000413305 -0.000413305 -4.24993e-11
0.00119142 -0.000357657 -0.000357327 -2.43867e-05
0.00118118 -0.000354582 -0.000354257 -2.43863e-05
0.000976177 -0.000293265 -0.000292677 -4.50144e-05
0.000959122 -0.000288133 -0.000287566 -4.50131e-05
0.00134184 -0.000402551 -0.000402552 -4.14352e-11
0.00136574 -0.00040972 -0.000409721 -4.21728e-11
0.00096765 -0.000290699 -0.000290122 -4.50137e-05
0.00115047 -0.000345355 -0.000345048 -2.43852e-05
0.00135379 -0.000406136 -0.000406136 -4.1783e-11
0.00117094 -0.000351506 -0.000351187 -2.43859e-05
0.00116071 -0.000348431 -0.000348118 -2.43856e-05
0.000959122 -0.000288133 -0.000287566 -4.50131e-05
0.000942066 -0.000283002 -0.000282456 -4.50119e-05
0.00131794 -0.000395382 -0.000395383 -4.06795e-11
0.00134184 -0.000402551 -0.000402552 -4.14354e-11
0.000950594 -0.000285568 -0.000285011 -4.50125e-05
0.00112999 -0.000339205 -0.000338909 -2.43845e-05
0.00132989 -0.000398966 -0.000398967 -4.10816e-11
0.00115047 -0.000345355 -0.000345048 -2.43852e-05
0.00114023 -0.00034228 -0.000341978 -2.43848e-05
0.000942066 -0.000283002 -0.000282456 -4.50119e-05
0.000925011 -0.000277872 -0.000277345 -4.50106e-05
0.00129404 -0.000388212 -0.000388214 -3.99423e-11
0.00131794 -0.000395382 -0.000395383 -4.06795e-11
0.000933539 -0.000280437 -0.000279901 -4.50112e-05
0.00110952 -0.000333054 -0.000332769 -2.43837e-05
0.00130599 -0.000391797 -0.000391798 -4.03232e-11
0.00112999 -0.000339205 -0.000338909 -2.43845e-05
0.00111975 -0.000336129 -0.000335839 -2.43841e-05
0.000925011 -0.000277872 -0.000277345 -4.50106e-05
0.000907955 -0.000272741 -0.000272235 -4.50094e-05
0.00127015 -0.000381043 -0.000381045 -3.91914e-11
0.00129404 -0.000388212 -0.000388214 -3.99423e-11
0.000916483 -0.000275306 -0.00027479 -4.501e-05
0.00108904 -0.000326904 -0.00032663 -2.4383e-05
0.0012821 -0.000384628 -0.000384629 -3.95646e-11
0.00110952 -0.000333054 -0.000332769 -2.43837e-05
0.00109928 -0.000329979 -0.000329699 -2.43834e-05
0.000907955 -0.000272741 -0.000272235 -4.50094e-05
0.000890899 -0.000267611 -0.000267124 -4.50082e-05
0.00124625 -0.000373874 -0.000373876 -3.84528e-11
0.00127015 -0.000381043 -0.000381045 -3.91914e-11
0.000899427 -0.000270176 -0.000269679 -4.50088e-05
0.00106856 -0.000320753 -0.00032049 -2.43823e-05
0.0012582 -0.000377458 -0.00037746 -3.88723e-11
0.00108904 -0.000326904 -0.00032663 -2.4383e-05
0.0010788 -0.000323829 -0.00032356 -2.43827e-05
0.000890899 -0.000267611 -0.000267124 -4.50082e-05
0.000873843 -0.000262481 -0.000262013 -4.5007e-05
0.00122235 -0.000366704 -0.000366707 -3.77046e-11
0.00124625 -0.000373874 -0.000373876 -3.84919e-11
0.000882371 -0.000265046 -0.000264568 -4.50076e-05
0.00104809 -0.000314603 -0.000314351 -2.43816e-05
0.0012343 -0.000370289 -0.000370291 -3.80854e-11
0.00106856 -0.000320753 -0.00032049 -2.43823e-05
0.00105833 -0.000317678 -0.00031742 -2.43819e-05
0.000873843 -0.000262481 -0.000262013 -4.5007e-05
0.000856787 -0.000257351 -0.000256901 -4.50058e-05
0.00119846 -0.000359535 -0.000359538 -3.70025e-11
0.00122235 -0.000366704 -0.000366707 -3.77046e-11
0.000865315 -0.000259916 -0.000259457 -4.50064e-05
0.00102761 -0.000308453 -0.000308211 -2.43809e-05
0.00121041 -0.00036312 -0.000363123 -3.73116e-11
0.00104809 -0.000314603 -0.000314351 -2.43816e-05
0.00103785 -0.000311528 -0.000311281 -2.43812e-05
0.000856787 -0.000257351 -0.000256901 -4.50058e-05
0.000839731 -0.000252221 -0.00025179 -4.50046e-05
0.00117456 -0.000352366 -0.00035237 -3.62841e-11
0.00119846 -0.000359535 -0.000359538 -3.69628e-11
0.000848259 -0.000254786 -0.000254346 -4.50052e-05
0.00100714 -0.000302304 -0.000302071 -2.43802e-05
0.00118651 -0.000355951 -0.000355954 -3.6636e-11
0.00102761 -0.000308453 -0.000308211 -2.43809e-05
0.00101737 -0.000305378 -0.000305141 -2.43805e-05
0.000839731 -0.000252221 -0.00025179 -4.50046e-05
0.000822674 -0.000247091 -0.000246678 -4.50034e-05
0.00115067 -0.000345197 -0.000345201 -3.55136e-11
0.00117456 -0.000352366 -0.00035237 -3.62841e-11
0.000831203 -0.000249656 -0.000249234 -4.5004e-05
0.000986661 -0.000296154 -0.000295932 -2.43795e-05
0.00116261 -0.000348782 -0.000348785 -3.59027e-11
0.00100714 -0.000302304 -0.000302071 -2.43802e-05
0.000996899 -0.000299229 -0.000299001 -2.43798e-05
0.000822674 -0.000247091 -0.000246678 -4.50034e-05
0.000805618 -0.000241962 -0.000241567 -4.50023e-05
0.00112677 -0.000338028 -0.000338032 -3.47794e-11
0.00115067 -0.000345197 -0.000345201 -3.55136e-11
0.000814146 -0.000244527 -0.000244123 -4.50028e-05
0.000966185 -0.000290004 -0.000289792 -2.43788e-05
0.00113872 -0.000341613 -0.000341617 -3.51338e-11
0.000986661 -0.000296154 -0.000295932 -2.43795e-05
0.000976423 -0.000293079 -0.000292862 -2.43792e-05
0.000805618 -0.000241962 -0.000241567 -4.50023e-05
0.000788561 -0.000236833 -0.000236455 -4.50011e-05
0.00110287 -0.000330859 -0.000330864 -3.40411e-11
0.00112677 -0.000338028 -0.000338032 -3.47792e-11
0.000797089 -0.000239398 -0.000239011 -4.50017e-05
0.000945709 -0.000283855 -0.000283652 -2.43781e-05
0.00111482 -0.000334444 -0.000334448 -3.44237e-11
0.000966185 -0.000290004 -0.000289792 -2.43788e-05
0.000955947 -0.00028693 -0.000286722 -2.43785e-05
0.000788561 -0.000236833 -0.000236455 -4.50011e-05
0.000771504 -0.000231704 -0.000231343 -4.5e-05
0.00107898 -0.00032369 -0.000323695 -3.32953e-11
0.00110287 -0.000330859 -0.000330864 -3.39975e-11
0.000780033 -0.000234269 -0.000233899 -4.50006e-05
0.000925234 -0.000277706 -0.000277512 -2.43775e-05
0.00109093 -0.000327275 -0.000327279 -3.36755e-11
0.000945709 -0.000283855 -0.000283652 -2.43781e-05
0.000935471 -0.00028078 -0.000280582 -2.43778e-05
0.000771504 -0.000231704 -0.000231343 -4.5e-05
0.000754447 -0.000226576 -0.000226231 -4.49989e-05
0.00105508 -0.000316522 -0.000316527 -3.25445e-11
0.00107898 -0.00032369 -0.000323695 -3.32953e-11
0.000762976 -0.00022914 -0.000228787 -4.49994e-05
0.000904758 -0.000271557 -0.000271372 -2.43768e-05
0.00106703 -0.000320106 -0.000320111 -3.29026e-11
0.000925234 -0.000277706 -0.000277512 -2.43775e-05
0.000914996 -0.000274631 -0.000274442 -2.43771e-05
0.000754447 -0.000226576 -0.000226231 -4.49989e-05
0.00073739 -0.000221447 -0.000221118 -4.49978e-05
0.00103119 -0.000309353 -0.000309358 -3.1792e-11
0.00105508 -0.000316522 -0.000316527 -3.25445e-11
0.000745919 -0.000224011 -0.000223675 -4.49983e-05
0.000884282 -0.000265408 -0.000265232 -2.43762e-05
0.00104314 -0.000312937 -0.000312942 -3.21628e-11
0.000904758 -0.000271557 -0.000271372 -2.43768e-05
0.00089452 -0.000268482 -0.000268302 -2.43765e-05
0.00073739 -0.000221447 -0.000221118 -4.49978e-05
0.000720333 -0.000216319 -0.000216006 -4.49967e-05
0.00100729 -0.000302184 -0.00030219 -3.10628e-11
0.00103119 -0.000309353 -0.000309358 -3.18282e-11
0.000728862 -0.000218883 -0.000218562 -4.49972e-05
0.000863806 -0.000259259 -0.000259092 -2.43755e-05
0.00101924 -0.000305768 -0.000305774 -3.14372e-11
0.000884282 -0.000265408 -0.000265232 -2.43762e-05
0.000874044 -0.000262333 -0.000262162 -2.43758e-05
0.000720333 -0.000216319 -0.000216006 -4.49967e-05
0.000703275 -0.000211191 -0.000210893 -4.49956e-05
0.000983399 -0.000295015 -0.000295021 -3.03323e-11
0.00100729 -0.000302184 -0.00030219 -3.10626e-11
0.000711804 -0.000213755 -0.00021345 -4.49961e-05
0.00084333 -0.00025311 -0.000252951 -2.43749e-05
0.000995346 -0.0002986 -0.000298606 -3.06822e-11
0.000863806 -0.000259259 -0.000259092 -2.43755e-05
0.000853568 -0.000256184 -0.000256022 -2.43752e-05
0.000703275 -0.000211191 -0.000210893 -4.49956e-05
0.000686218 -0.000206063 -0.000205781 -4.49945e-05
0.000959504 -0.000287847 -0.000287853 -2.95547e-11
0.000983399 -0.000295015 -0.000295021 -3.03323e-11
0.000694747 -0.000208627 -0.000208337 -4.4995e-05
0.000822854 -0.000246962 -0.000246811 -2.43742e-05
0.000971451 -0.000291431 -0.000291437 -2.99149e-11
0.00084333 -0.00025311 -0.000252951 -2.43749e-05
0.000833092 -0.000250036 -0.000249881 -2.43745e-05
0.000686218 -0.000206063 -0.000205781 -4.49945e-05
0.00066916 -0.000200935 -0.000200668 -4.49935e-05
0.000935609 -0.000280678 -0.000280685 -2.88027e-11
0.000959504 -0.000287847 -0.000287853 -2.95547e-11
0.000677689 -0.000203499 -0.000203224 -4.4994e-05
0.000802378 -0.000240813 -0.000240671 -2.43736e-05
0.000947557 -0.000284262 -0.000284269 -2.91813e-11
0.000822854 -0.000246962 -0.000246811 -2.43742e-05
0.000812616 -0.000243887 -0.000243741 -2.43739e-05
0.00066916 -0.000200935 -0.000200668 -4.49935e-05
0.000652102 -0.000195808 -0.000195555 -4.49924e-05
0.000911715 -0.000273509 -0.000273517 -2.80694e-11
0.000935609 -0.000280678 -0.000280685 -2.88025e-11
0.000660631 -0.000198372 -0.000198111 -4.49929e-05
0.000781902 -0.000234665 -0.00023453 -2.4373e-05
0.000923662 -0.000277094 -0.000277101 -2.84377e-11
0.000802378 -0.000240813 -0.000240671 -2.43736e-05
0.00079214 -0.000237739 -0.000237601 -2.43733e-05
0.000652102 -0.000195808 -0.000195555 -4.49924e-05
0.000635044 -0.000190681 -0.000190441 -4.49914e-05
0.00088782 -0.000266341 -0.000266348 -2.73244e-11
0.000911715 -0.000273509 -0.000273517 -2.80655e-11
0.000643573 -0.000193244 -0.000192998 -4.49919e-05
0.000761426 -0.000228517 -0.00022839 -2.43724e-05
0.000899767 -0.000269925 -0.000269932 -2.76984e-11
0.000781902 -0.000234665 -0.00023453 -2.4373e-05
0.000771664 -0.000231591 -0.00023146 -2.43727e-05
0.000635044 -0.000190681 -0.000190441 -4.49914e-05
0.000617986 -0.000185554 -0.000185328 -4.49904e-05
0.000863926 -0.000259172 -0.00025918 -2.65889e-11
0.00088782 -0.000266341 -0.000266348 -2.73244e-11
0.000626515 -0.000188117 -0.000187885 -4.49909e-05
0.00074095 -0.000222368 -0.000222249 -2.43718e-05
0.000875873 -0.000262756 -0.000262764 -2.69523e-11
0.000761426 -0.000228517 -0.00022839 -2.43724e-05
0.000751188 -0.000225442 -0.00022532 -2.43721e-05
0.000617986 -0.000185554 -0.000185328 -4.49904e-05
0.000600927 -0.000180427 -0.000180214 -4.49893e-05
0.000840031 -0.000252004 -0.000252012 -2.57991e-11
0.000863926 -0.000259172 -0.00025918 -2.65889e-11
0.000609456 -0.00018299 -0.000182771 -4.49898e-05
0.000720474 -0.00021622 -0.000216109 -2.43712e-05
0.000851978 -0.000255588 -0.000255596 -2.62038e-11
0.00074095 -0.000222368 -0.000222249 -2.43718e-05
0.000730712 -0.000219294 -0.000219179 -2.43715e-05
0.000600927 -0.000180427 -0.000180214 -4.49893e-05
0.000583868 -0.0001753 -0.0001751 -4.49884e-05
0.000816137 -0.000244835 -0.000244844 -2.49739e-11
0.000840031 -0.000252004 -0.000252012 -2.57984e-11
0.000592398 -0.000177864 -0.000177657 -4.49888e-05
0.000699998 -0.000210073 -0.000209968 -2.43706e-05
0.000828084 -0.000248419 -0.000248428 -2.53956e-11
0.000720474 -0.00021622 -0.000216109 -2.43712e-05
0.000710236 -0.000213147 -0.000213038 -2.43709e-05
0.000583868 -0.0001753 -0.0001751 -4.49884e-05
0.000566809 -0.000170174 -0.000169987 -4.49874e-05
0.000792243 -0.000237667 -0.000237675 -2.41398e-11
0.000816137 -0.000244835 -0.000244844 -2.49737e-11
0.000575339 -0.000172737 -0.000172544 -4.49879e-05
0.000679522 -0.000203925 -0.000203827 -2.437e-05
0.00080419 -0.000241251 -0.00024126 -2.45572e-11
0.000699998 -0.000210073 -0.000209968 -2.43706e-05
0.00068976 -0.000206999 -0.000206898 -2.43703e-05
0.000566809 -0.000170174 -0.000169987 -4.49874e-05
0.00054975 -0.000165048 -0.000164872 -4.49864e-05
0.000768348 -0.000230498 -0.000230507 -2.33052e-11
0.000792243 -0.000237667 -0.000237675 -2.41398e-11
0.00055828 -0.000167611 -0.00016743 -4.49869e-05
0.000659045 -0.000197777 -0.000197686 -2.43694e-05
0.000780296 -0.000234082 -0.000234091 -2.37671e-11
0.000679522 -0.000203925 -0.000203827 -2.437e-05
0.000669283 -0.000200851 -0.000200757 -2.43697e-05
0.00054975 -0.000165048 -0.000164872 -4.49864e-05
0.000532691 -0.000159922 -0.000159758 -4.49855e-05
0.000744454 -0.00022333 -0.000223339 -2.23294e-11
0.000768348 -0.000230498 -0.000230507 -2.33052e-11
0.00054122 -0.000162485 -0.000162315 -4.49859e-05
0.000638569 -0.00019163 -0.000191545 -2.43688e-05
0.000756401 -0.000226914 -0.000226923 -2.28046e-11
0.000659045 -0.000197777 -0.000197686 -2.43694e-05
0.000648807 -0.000194703 -0.000194616 -2.43691e-05
0.000532691 -0.000159922 -0.000159758 -4.49855e-05
0.000515631 -0.000154796 -0.000154644 -4.49846e-05
0.00072056 -0.000216161 -0.000216171 -2.12842e-11
0.000744454 -0.00022333 -0.000223339 -2.23297e-11
0.000524161 -0.000157359 -0.000157201 -4.4985e-05
0.000618092 -0.000185482 -0.000185404 -2.43683e-05
0.000732507 -0.000219745 -0.000219755 -2.18352e-11
0.000638569 -0.00019163 -0.000191545 -2.43688e-05
0.00062833 -0.000188556 -0.000188475 -2.43686e-05
0.000515631 -0.000154796 -0.000154644 -4.49846e-05
0.000498571 -0.00014967 -0.000149529 -4.49837e-05
0.000696666 -0.000208993 -0.000209003 -2.01552e-11
0.00072056 -0.000216161 -0.000216171 -2.12971e-11
0.000507101 -0.000152233 -0.000152086 -4.49841e-05
0.000597615 -0.000179335 -0.000179263 -2.43678e-05
0.000708613 -0.000212577 -0.000212587 -2.07698e-11
0.000618092 -0.000185482 -0.000185404 -2.43683e-05
0.000607854 -0.000182409 -0.000182334 -2.4368e-05
0.000498571 -0.00014967 -0.000149529 -4.49837e-05
0.000481511 -0.000144545 -0.000144414 -4.49828e-05
0.000672772 -0.000201824 -0.000201835 -1.88239e-11
0.000696666 -0.000208993 -0.000209003 -2.01552e-11
0.000490041 -0.000147108 -0.000146972 -4.49832e-05
0.000577138 -0.000173188 -0.000173122 -2.43672e-05
0.000684719 -0.000205409 -0.000205419 -1.95257e-11
0.000597615 -0.000179335 -0.000179263 -2.43678e-05
0.000587377 -0.000176261 -0.000176192 -2.43675e-05
0.000481511 -0.000144545 -0.000144414 -4.49828e-05
0.000464451 -0.00013942 -0.000139299 -4.4982e-05
0.000648878 -0.000194656 -0.000194667 -1.73664e-11
0.000672772 -0.000201824 -0.000201835 -1.88239e-11
0.000472981 -0.000141982 -0.000141857 -4.49824e-05
0.000556661 -0.000167041 -0.00016698 -2.43668e-05
0.000660825 -0.00019824 -0.000198251 -1.80711e-11
0.000577138 -0.000173188 -0.000173122 -2.43672e-05
0.0005669 -0.000170114 -0.000170051 -2.4367e-05
0.000464451 -0.00013942 -0.000139299 -4.4982e-05
0.00044739 -0.000134294 -0.000134184 -4.49813e-05
0.000624984 -0.000187487 -0.000187498 -1.56165e-11
0.000648878 -0.000194656 -0.000194667 -1.73924e-11
0.000455921 -0.000136857 -0.000136742 -4.49816e-05
0.000536184 -0.000160894 -0.000160839 -2.43663e-05
0.000636931 -0.000191072 -0.000191083 -1.6475e-11
0.000556661 -0.000167041 -0.00016698 -2.43668e-05
0.000546423 -0.000163967 -0.00016391 -2.43665e-05
0.00044739 -0.000134294 -0.000134184 -4.49813e-05
0.000430329 -0.00012917 -0.000129068 -4.49806e-05
0.00060109 -0.000180319 -0.00018033 -1.37345e-11
0.000624984 -0.000187487 -0.000187498 -1.56163e-11
0.00043886 -0.000131732 -0.000131626 -4.49809e-05
0.000515707 -0.000154747 -0.000154697 -2.43659e-05
0.000613037 -0.000183903 -0.000183914 -1.45433e-11
0.000536184 -0.000160894 -0.000160839 -2.43663e-05
0.000525945 -0.00015782 -0.000157768 -2.43661e-05
0.000430329 -0.00012917 -0.000129068 -4.49806e-05
0.000413268 -0.000124045 -0.000123953 -4.498e-05
0.000577195 -0.00017315 -0.000173162 -1.13408e-11
0.00060109 -0.000180319 -0.00018033 -1.37345e-11
0.000421799 -0.000126607 -0.000126511 -4.49803e-05
0.000495229 -0.0001486 -0.000148555 -2.43656e-05
0.000589142 -0.000176735 -0.000176746 -1.24873e-11
0.000515707 -0.000154747 -0.000154697 -2.43659e-05
0.000505468 -0.000151673 -0.000151626 -2.43657e-05
0.000413268 -0.000124045 -0.000123953 -4.498e-05
0.000396207 -0.00011892 -0.000118837 -4.49796e-05
0.0005533 -0.000165982 -0.000165994 -9.15498e-12
0.000577195 -0.00017315 -0.000173162 -1.13408e-11
0.000404737 -0.000121483 -0.000121395 -4.49798e-05
0.000474751 -0.000142453 -0.000142413 -2.43653e-05
0.000565248 -0.000169566 -0.000169578 -1.00118e-11
0.000495229 -0.0001486 -0.000148555 -2.43656e-05
0.00048499 -0.000145527 -0.000145484 -2.43654e-05
0.000396207 -0.00011892 -0.000118837 -4.49796e-05
0.000379145 -0.000113796 -0.000113721 -4.49792e-05
0.000529405 -0.000158813 -0.000158825 -5.92324e-12
0.0005533 -0.000165982 -0.000165994 -9.1548e-12
0.000387676 -0.000116358 -0.000116279 -4.49794e-05
0.000454273 -0.000136306 -0.000136271 -2.43651e-05
0.000541353 -0.000162397 -0.00016241 -7.21131e-12
0.000474751 -0.000142453 -0.000142413 -2.43653e-05
0.000464512 -0.00013938 -0.000139342 -2.43652e-05
0.000379145 -0.000113796 -0.000113721 -4.49792e-05
0.000362082 -0.000108672 -0.000108605 -4.49789e-05
0.00050551 -0.000151644 -0.000151657 -4.35076e-12
0.000529405 -0.000158813 -0.000158825 -5.94623e-12
0.000370614 -0.000111234 -0.000111163 -4.49791e-05
0.000433794 -0.00013016 -0.000130129 -2.4365e-05
0.000517458 -0.000155229 -0.000155241 -4.60703e-12
0.000454273 -0.000136306 -0.000136271 -2.43651e-05
0.000444034 -0.000133233 -0.0001332 -2.4365e-05
0.000362082 -0.000108672 -0.000108605 -4.49789e-05
0.00034502 -0.000103548 -0.000103488 -4.49788e-05
0.000481614 -0.000144475 -0.000144488 -1.27469e-12
0.00050551 -0.000151644 -0.000151657 -4.35076e-12
0.000353551 -0.00010611 -0.000106046 -4.49789e-05
0.000413315 -0.000124013 -0.000123987 -2.4365e-05
0.000493562 -0.00014806 -0.000148072 -8.64648e-13
0.000433794 -0.00013016 -0.000130129 -2.4365e-05
0.000423555 -0.000127086 -0.000127058 -2.4365e-05
0.00034502 -0.000103548 -0.000103488 -4.49788e-05
0.000327957 -9.84237e-05 -9.83715e-05 -4.49786e-05
0.000457717 -0.000137306 -0.000137319 -5.07944e-12
0.000481614 -0.000144475 -0.000144488 -1.27469e-12
0.000336489 -0.000100986 -0.00010093 -4.49787e-05
0.000392835 -0.000117866 -0.000117844 -2.43651e-05
0.000469666 -0.00014089 -0.000140904 -3.36143e-12
0.000413315 -0.000124013 -0.000123987 -2.4365e-05
0.000403075 -0.00012094 -0.000120915 -2.43651e-05
0.000327957 -9.84237e-05 -9.83715e-05 -4.49786e-05
0.000310894 -9.32998e-05 -9.32548e-05 -4.49783e-05
0.000433819 -0.000130136 -0.00013015 -1.27699e-11
0.000457717 -0.000137306 -0.000137319 -5.11543e-12
0.000319426 -9.58617e-05 -9.58132e-05 -4.49785e-05
0.000372356 -0.000111719 -0.000111701 -2.43652e-05
0.000445768 -0.000133721 -0.000133735 1.81766e-12
0.000392835 -0.000117866 -0.000117844 -2.43651e-05
0.000382596 -0.000114793 -0.000114773 -2.43652e-05
0.000310894 -9.32998e-05 -9.32548e-05 -4.49783e-05
0.000293832 -8.81759e-05 -8.81382e-05 -4.49774e-05
0.000409921 -0.000122966 -0.00012298 -4.10648e-11
0.000433819 -0.000130136 -0.00013015 -1.27699e-11
0.000302363 -9.07378e-05 -9.06965e-05 -4.4978e-05
0.000351875 -0.000105573 -0.000105558 -2.43652e-05
0.00042187 -0.000126551 -0.000126565 -3.59796e-11
0.000372356 -0.000111719 -0.000111701 -2.43652e-05
0.000362115 -0.000108646 -0.00010863 -2.43653e-05
0.000293832 -8.81759e-05 -8.81382e-05 -4.49774e-05
0.00027677 -8.30515e-05 -8.3022e-05 -4.4975e-05
0.000386021 -0.000115796 -0.000115811 -1.27488e-10
0.000409921 -0.000122966 -0.00012298 -4.10648e-11
0.000285301 -8.56138e-05 -8.558e-05 -4.49764e-05
0.000331395 -9.94261e-05 -9.94154e-05 -2.43645e-05
0.000397971 -0.000119381 -0.000119396 -2.88743e-11
0.000351875 -0.000105573 -0.000105558 -2.43652e-05
0.000341635 -0.000102499 -0.000102487 -2.4365e-05
0.00027677 -8.30515e-05 -8.3022e-05 -4.4975e-05
0.000259709 -7.79262e-05 -7.79067e-05 -4.49692e-05
0.000362121 -0.000108626 -0.000108641 -2.43129e-10
0.000386021 -0.000115796 -0.000115811 -1.27488e-10
0.000268239 -8.04891e-05 -8.04642e-05 -4.49727e-05
0.000310917 -9.32796e-05 -9.32731e-05 -2.43621e-05
0.000374071 -0.000112211 -0.000112226 -2.52685e-10
0.000331395 -9.94261e-05 -9.94154e-05 -2.43645e-05
0.000321156 -9.63528e-05 -9.63442e-05 -2.43636e-05
0.000259709 -7.79262e-05 -7.79067e-05 -4.49692e-05
0.000242649 -7.27984e-05 -7.27933e-05 -4.49569e-05
0.000338222 -0.000101455 -0.000101471 -7.5549e-10
0.000362121 -0.000108626 -0.000108641 -2.43129e-10
0.000251179 -7.53627e-05 -7.53497e-05 -4.49642e-05
0.000290442 -8.71335e-05 -8.71323e-05 -2.43562e-05
0.000350171 -0.00010504 -0.000105056 -2.36741e-10
0.000310917 -9.32796e-05 -9.32731e-05 -2.43621e-05
0.000300679 -9.02065e-05 -9.02024e-05 -2.43598e-05
0.000242649 -7.27984e-05 -7.27933e-05 -4.49569e-05
0.000225594 -6.76652e-05 -6.76838e-05 -4.49308e-05
0.000314328 -9.42879e-05 -9.43029e-05 -1.09755e-09
0.000338222 -0.000101455 -0.000101471 -7.5549e-10
0.000234121 -7.02327e-05 -7.02379e-05 -4.49463e-05
0.000269975 -8.09884e-05 -8.09944e-05 -2.43419e-05
0.000326274 -9.78717e-05 -9.78868e-05 -1.3102e-09
0.000290442 -8.71335e-05 -8.71323e-05 -2.43562e-05
0.000280208 -8.40608e-05 -8.40629e-05 -2.43504e-05
0.000225594 -6.76652e-05 -6.76838e-05 -4.49308e-05
0.000208542 -6.25212e-05 -6.25804e-05 -4.48797e-05
0.000290453 -8.71233e-05 -8.71413e-05 -3.56209e-09
0.000314328 -9.42879e-05 -9.43029e-05 -1.09755e-09
0.000217068 -6.50952e-05 -6.51313e-05 -4.49093e-05
0.000249527 -7.48451e-05 -7.48638e-05 -2.43115e-05
0.000302387 -9.07036e-05 -9.07213e-05 -1.16625e-09
0.000269975 -8.09884e-05 -8.09944e-05 -2.43419e-05
0.000259748 -7.79165e-05 -7.79277e-05 -2.43296e-05
0.000208542 -6.25212e-05 -6.25804e-05 -4.48797e-05
0.000191498 -5.73557e-05 -5.74897e-05 -4.47782e-05
0.000266611 -7.99769e-05 -7.99861e-05 -4.10099e-09
0.000290453 -8.71233e-05 -8.71413e-05 -3.56209e-09
0.000200018 -5.99418e-05 -6.00327e-05 -4.48377e-05
0.000229111 -6.87056e-05 -6.87453e-05 -2.42474e-05
0.000278528 -8.35501e-05 -8.35618e-05 -5.77615e-09
0.000249527 -7.48451e-05 -7.48638e-05 -2.43115e-05
0.000239315 -7.17746e-05 -7.18029e-05 -2.42848e-05
0.000191498 -5.73557e-05 -5.74897e-05 -4.47782e-05
0.000174451 -5.21514e-05 -5.24142e-05 -4.45927e-05
0.000242866 -7.28449e-05 -7.28664e-05 -1.44807e-08
0.000266611 -7.99769e-05 -7.99861e-05 -4.10099e-09
0.000182978 -5.47607e-05 -5.49501e-05 -4.46986e-05
0.000208766 -6.25732e-05 -6.26541e-05 -2.41218e-05
0.000254719 -7.64005e-05 -7.64221e-05 -4.32749e-09
0.000229111 -6.87056e-05 -6.87453e-05 -2.42474e-05
0.000218925 -6.56385e-05 -6.56944e-05 -2.41961e-05
0.000174451 -5.21514e-05 -5.24142e-05 -4.45927e-05
0.000157414 -4.68737e-05 -4.73743e-05 -4.42452e-05
0.000219274 -6.58038e-05 -6.5773e-05 -1.28943e-08
0.000242866 -7.28449e-05 -7.28664e-05 -1.44807e-08
0.000165927 -4.95225e-05 -4.98877e-05 -4.44467e-05
0.00018853 -5.64527e-05 -5.66048e-05 -2.38786e-05
0.000231052 -6.93262e-05 -6.93111e-05 -2.29671e-08
0.000208766 -6.25732e-05 -6.26541e-05 -2.41218e-05
0.000198634 -5.951e-05 -5.96246e-05 -2.4017e-05
0.000157414 -4.68737e-05 -4.73743e-05 -4.42452e-05
0.000140317 -4.14829e-05 -4.23576e-05 -4.36574e-05
0.000196084 -5.88055e-05 -5.88337e-05 -5.2389e-08
0.000219274 -6.58038e-05 -6.5773e-05 -1.28943e-08
0.000148886 -4.42012e-05 -4.48647e-05 -4.39865e-05
0.000168532 -5.03587e-05 -5.06455e-05 -2.34284e-05
0.000207597 -6.22572e-05 -6.22883e-05 -1.15443e-08
0.00018853 -5.64527e-05 -5.66048e-05 -2.38786e-05
0.000178486 -5.34041e-05 -5.36065e-05 -2.36949e-05
0.000140317 -4.14829e-05 -4.23576e-05 -4.36574e-05
0.000123189 -3.58787e-05 -3.74185e-05 -4.26338e-05
0.000173479 -5.22107e-05 -5.19721e-05 -3.35993e-08
0.000196084 -5.88055e-05 -5.88337e-05 -5.2389e-08
0.000131741 -3.87018e-05 -3.98739e-05 -4.32191e-05
0.000148841 -4.42914e-05 -4.4807e-05 -2.26308e-05
0.000184718 -5.55284e-05 -5.53668e-05 -8.62336e-08
0.000168532 -5.03587e-05 -5.06455e-05 -2.34284e-05
0.000158654 -4.73144e-05 -4.7717e-05 -2.30696e-05
0.000123189 -3.58787e-05 -3.74185e-05 -4.26338e-05
0.000105703 -3.00366e-05 -3.24284e-05 -4.10996e-05
0.000152295 -4.56615e-05 -4.57e-05 -1.71858e-07
0.000173479 -5.22107e-05 -5.19721e-05 -3.35993e-08
0.000114547 -3.30199e-05 -3.49402e-05 -4.19312e-05
0.000129837 -3.83094e-05 -3.92263e-05 -2.12272e-05
0.000162595 -4.87339e-05 -4.87978e-05 -1.07617e-08
0.000148841 -4.42914e-05 -4.4807e-05 -2.26308e-05
0.0001392 -4.13027e-05 -4.19559e-05 -2.20656e-05
0.000105703 -3.00366e-05 -3.24284e-05 -4.10996e-05
8.78791e-05 -2.37075e-05 -2.75021e-05 -3.8765e-05
0.000133121 -4.07903e-05 -3.95703e-05 -6.41315e-08
0.000152295 -4.56615e-05 -4.57e-05 -1.71858e-07
9.67743e-05 -2.68741e-05 -2.99572e-05 -4.00577e-05
0.000111423 -3.23258e-05 -3.38989e-05 -1.90297e-05
0.000142497 -4.3368e-05 -4.24837e-05 -3.20806e-07
0.000129837 -3.83094e-05 -3.92263e-05 -2.12272e-05
0.000120623 -3.52879e-05 -3.6572e-05 -2.01659e-05
8.78791e-05 -2.37075e-05 -2.75021e-05 -3.8765e-05
6.8418e-05 -1.74029e-05 -2.18636e-05 -3.62409e-05
0.000118249 -3.54484e-05 -3.54857e-05 -4.7246e-07
0.000133121 -4.07903e-05 -3.95703e-05 -6.41315e-08
7.85746e-05 -2.06584e-05 -2.48212e-05 -3.74607e-05
9.45643e-05 -2.65536e-05 -2.91474e-05 -1.54397e-05
0.000124821 -3.73e-05 -3.75089e-05 1.33621e-07
0.000111423 -3.23258e-05 -3.38989e-05 -1.90297e-05
0.000102613 -2.94776e-05 -3.13437e-05 -1.76351e-05
6.8418e-05 -1.74029e-05 -2.18636e-05 -3.62409e-05
4.74027e-05 -1.11258e-05 -1.55473e-05 -3.45387e-05
0.000110268 -3.6556e-05 -3.15907e-05 7.26914e-07
0.000118249 -3.54484e-05 -3.54857e-05 -4.7246e-07
5.78728e-05 -1.38301e-05 -1.88755e-05 -3.51337e-05
7.70283e-05 -2.03182e-05 -2.43043e-05 -1.14964e-05
0.000113399 -3.68954e-05 -3.27874e-05 -1.04183e-06
9.45643e-05 -2.65536e-05 -2.91474e-05 -1.54397e-05
8.63464e-05 -2.34085e-05 -2.69734e-05 -1.30531e-05
4.74027e-05 -1.11258e-05 -1.55473e-05 -3.45387e-05
2.28039e-05 -1.16705e-05 -4.77148e-06 -4.04723e-05
0.000117507 -3.22813e-05 -3.65254e-05 4.51297e-06
0.000110268 -3.6556e-05 -3.15907e-05 7.26914e-07
3.60367e-05 -1.04636e-05 -1.09599e-05 -3.58957e-05
5.83608e-05 -1.51043e-05 -1.85385e-05 -8.90548e-06
0.000110941 -3.12651e-05 -3.41468e-05 3.20151e-06
7.70283e-05 -2.03182e-05 -2.43043e-05 -1.14964e-05
6.74273e-05 -1.75738e-05 -2.13658e-05 -1.05082e-05
2.28039e-05 -1.16705e-05 -4.77148e-06 -4.04723e-05
1.11139e-05 -4.01617e-05 1.24491e-05 -6.30344e-05
0.000160415 -3.31869e-05 -5.45262e-05 3.57002e-05
0.000117507 -3.22813e-05 -3.65254e-05 4.51297e-06
1.27984e-05 -1.70503e-05 1.82223e-06 -4.84592e-05
1.85898e-05 -2.60003e-05 3.1759e-06 -3.56738e-05
0.00013299 -4.45311e-05 -3.79111e-05 9.52469e-06
5.83608e-05 -1.51043e-05 -1.85385e-05 -8.90548e-06
4.40176e-05 -1.47052e-05 -1.25624e-05 -1.38886e-05
1.11139e-05 -4.01617e-05 1.24491e-05 -6.30344e-05
5.78318e-05 -0.000175148 5.02782e-05 -6.47782e-05
0.00010527 -0.00023235 5.44628e-05 -0.000172656
0.000160415 -3.31869e-05 -5.45262e-05 3.57002e-05
2.40312e-05 -9.36363e-05 2.98307e-05 -7.49401e-05
5.28614e-05 -0.000215386 6.96532e-05 -0.000104155
0.000163283 -1.24353e-05 -6.46489e-05 1.709e-05
1.85898e-05 -2.60003e-05 3.1759e-06 -3.56738e-05
1.1674e-05 -7.12451e-05 2.55305e-05 -6.78665e-05
      </DataArray> 
    </PointData>
    <CellData>
      <DataArray type="Float64" NumberOfComponents="1" Name="Process" format="ascii">
3
3
3
3
3
3
3
3
3
3
3
3
3
3
3
3
3
3
3
3
3
3
3
3
3
2
2
2
2
2
2
2
2
2
2
2
2
2
2
2
2
2
2
2
2
2
2
2
2
1
1
1
1
1
1
1
1
1
1
1
1
1
1
1
1
1
1
1
1
1
1
1
1
1
0
0
0
0
0
0
0
0
0
0
0
0
0
0
0
0
0
0
0
0
0
0
0
0
0
5
5
5
5
5
5
5
5
5
5
5
5
5
5
5
5
5
5
5
5
5
5
5
5
5
4
4
4
4
4
4
4
4
4
4
4
4
4
4
4
4
4
4
4
4
4
4
4
4
7
7
7
7
7
7
7
7
7
7
7
7
7
7
7
7
7
7
7
7
7
7
7
7
7
6
6
6
6
6
6
6
6
6
6
6
6
6
6
6
6
6
6
6
6
6
6
6
6
3
3
3
3
3
3
3
3
3
3
3
3
3
3
3
3
3
3
3
3
3
3
3
3
3
2
2
2
2
2
2
2
2
2
2
2
2
2
2
2
2
2
2
2
2
2
2
2
2
1
1
1
1
1
1
1
1
1
1
1
1
1
1
1
1
1
1
1
1
1
1
1
1
1
0
0
0
0
0
0
0
0
0
0
0
0
0
0
0
0
0
0
0
0
0
0
0
0
0
5
5
5
5
5
5
5
5
5
5
5
5
5
5
5
5
5
5
5
5
5
5
5
5
5
4
4
4
4
4
4
4
4
4
4
4
4
4
4
4
4
4
4
4
4
4
4
4
4
7
7
7
7
7
7
7
7
7
7
7
7
7
7
7
7
7
7
7
7
7
7
7
7
7
6
6
6
6
6
6
6
6
6
6
6
6
6
6
6
6
6
6
6
6
6
6
6
6
3
3
3
3
3
3
3
3
3
3
3
3
3
3
3
3
3
3
3
3
3
3
3
3
3
2
2
2
2
2
2
2
2
2
2
2
2
2
2
2
2
2
2
2
2
2
2
2
2
1
1
1
1
1
1
1
1
1
1
1
1
1
1
1
1
1
1
1
1
1
1
1
1
1
0
0
0
0
0
0
0
0
0
0
0
0
0
0
0
0
0
0
0
0
0
0
0
0
0
5
5
5
5
5
5
5
5
5
5
5
5
5
5
5
5
5
5
5
5
5
5
5
5
5
4
4
4
4
4
4
4
4
4
4
4
4
4
4
4
4
4
4
4
4
4
4
4
4
7
7
7
7
7
7
7
7
7
7
7
7
7
7
7
7
7
7
7
7
7
7
7
7
7
6
6
6
6
6
6
6
6
6
6
6
6
6
6
6
6
6
6
6
6
6
6
6
6
3
3
3
3
3
3
3
3
3
3
3
3
3
3
3
3
3
3
3
3
3
3
3
3
3
2
2
2
2
2
2
2
2
2
2
2
2
2
2
2
2
2
2
2
2
2
2
2
2
1
1
1
1
1
1
1
1
1
1
1
1
1
1
1
1
1
1
1
1
1
1
1
1
1
0
0
0
0
0
0
0
0
0
0
0
0
0
0
0
0
0
0
0
0
0
0
0
0
0
5
5
5
5
5
5
5
5
5
5
5
5
5
5
5
5
5
5
5
5
5
5
5
5
5
4
4
4
4
4
4
4
4
4
4
4
4
4
4
4
4
4
4
4
4
4
4
4
4
7
7
7
7
7
7
7
7
7
7
7
7
7
7
7
7
7
7
7
7
7
7
7
7
7
6
6
6
6
6
6
6
6
6
6
6
6
6
6
6
6
6
6
6
6
6
6
6
6
3
3
3
3
3
3
3
3
3
3
3
3
3
3
3
3
3
3
3
3
3
3
3
3
3
2
2
2
2
2
2
2
2
2
2
2
2
2
2
2
2
2
2
2
2
2
2
2
2
1
1
1
1
1
1
1
1
1
1
1
1
1
1
1
1
1
1
1
1
1
1
1
1
1
0
0
0
0
0
0
0
0
0
0
0
0
0
0
0
0
0
0
0
0
0
0
0
0
0
5
5
5
5
5
5
5
5
5
5
5
5
5
5
5
5
5
5
5
5
5
5
5
5
5
4
4
4
4
4
4
4
4
4
4
4
4
4
4
4
4
4
4
4
4
4
4
4
4
7
7
7
7
7
7
7
7
7
7
7
7
7
7
7
7
7
7
7
7
7
7
7
7
7
6
6
6
6
6
6
6
6
6
6
6
6
6
6
6
6
6
6
6
6
6
6
6
6
3
3
3
3
3
3
3
3
3
3
3
3
3
3
3
3
3
3
3
3
3
3
3
3
3
2
2
2
2
2
2
2
2
2
2
2
2
2
2
2
2
2
2
2
2
2
2
2
2
1
1
1
1
1
1
1
1
1
1
1
1
1
1
1
1
1
1
1
1
1
1
1
1
1
0
0
0
0
0
0
0
0
0
0
0
0
0
0
0
0
0
0
0
0
0
0
0
0
0
5
5
5
5
5
5
5
5
5
5
5
5
5
5
5
5
5
5
5
5
5
5
5
5
5
4
4
4
4
4
4
4
4
4
4
4
4
4
4
4
4
4
4
4
4
4
4
4
4
7
7
7
7
7
7
7
7
7
7
7
7
7
7
7
7
7
7
7
7
7
7
7
7
7
6
6
6
6
6
6
6
6
6
6
6
6
6
6
6
6
6
6
6
6
6
6
6
6
3
3
3
3
3
3
3
3
3
3
3
3
3
3
3
3
3
3
3
3
3
3
3
3
3
2
2
2
2
2
2
2
2
2
2
2
2
2
2
2
2
2
2
2
2
2
2
2
2
1
1
1
1
1
1
1
1
1
1
1
1
1
1
1
1
1
1
1
1
1
1
1
1
1
0
0
0
0
0
0
0
0
0
0
0
0
0
0
0
0
0
0
0
0
0
0
0
0
0
5
5
5
5
5
5
5
5
5
5
5
5
5
5
5
5
5
5
5
5
5
5
5
5
5
4
4
4
4
4
4
4
4
4
4
4
4
4
4
4
4
4
4
4
4
4
4
4
4
7
7
7
7
7
7
7
7
7
7
7
7
7
7
7
7
7
7
7
7
7
7
7
7
7
6
6
6
6
6
6
6
6
6
6
6
6
6
6
6
6
6
6
6
6
6
6
6
6
      </DataArray> 
    </CellData>
  </Piece>
  </UnstructuredGrid>
</VTKFile>
