<?xml version="1.0"?>
<VTKFile type="UnstructuredGrid">
  <UnstructuredGrid>
  <Piece NumberOfPoints="12411"  NumberOfCells="1379">
    <Points>
      <DataArray type="Float64" NumberOfComponents="3" format="ascii">
0 0 0
2.52807 -0.00497841 0
2.5321 4.28404 0
0 4.28571 0
1.26359 -0.00310614 0
2.53054 2.13985 0
1.26614 4.28511 0
0 2.14286 0
1.26544 2.14153 0
2.52807 -0.00497841 0
5.05748 -0.00863868 0
5.06371 4.28087 0
2.5321 4.28404 0
3.79276 -0.00673938 0
5.06075 2.13631 0
3.79794 4.2826 0
2.53054 2.13985 0
3.79562 2.13813 0
5.05748 -0.00863868 0
7.58682 -0.0130554 0
7.59526 4.27651 0
5.06371 4.28087 0
6.32217 -0.0107174 0
7.59109 2.13187 0
6.32949 4.27884 0
5.06075 2.13631 0
6.32591 2.13423 0
7.58682 -0.0130554 0
10.1161 -0.018742 0
10.1268 4.27083 0
7.59526 4.27651 0
8.85146 -0.0157266 0
10.1215 2.1262 0
8.86105 4.27384 0
7.59109 2.13187 0
8.85628 2.1292 0
10.1161 -0.018742 0
12.6453 -0.0258154 0
12.6585 4.26374 0
10.1268 4.27083 0
11.3807 -0.0221005 0
12.6519 2.11911 0
11.3927 4.26746 0
10.1215 2.1262 0
11.3867 2.12284 0
12.6453 -0.0258154 0
15.1745 -0.0343551 0
15.1902 4.25518 0
12.6585 4.26374 0
13.9099 -0.0299001 0
15.1823 2.11057 0
13.9243 4.25964 0
12.6519 2.11911 0
13.9171 2.11502 0
15.1745 -0.0343551 0
17.7037 -0.0443718 0
17.7219 4.24513 0
15.1902 4.25518 0
16.4391 -0.0391783 0
17.7128 2.10054 0
16.456 4.25034 0
15.1823 2.11057 0
16.4476 2.10574 0
17.7037 -0.0443718 0
20.233 -0.0558748 0
20.2536 4.2336 0
17.7219 4.24513 0
18.9683 -0.0499376 0
20.2433 2.08902 0
18.9877 4.23955 0
17.7128 2.10054 0
18.9781 2.09496 0
20.233 -0.0558748 0
22.7622 -0.0688584 0
22.7854 4.22058 0
20.2536 4.2336 0
21.4976 -0.0621819 0
22.7738 2.07602 0
21.5195 4.22727 0
20.2433 2.08902 0
21.5086 2.0827 0
22.7622 -0.0688584 0
25.2915 -0.0833171 0
25.3172 4.20609 0
22.7854 4.22058 0
24.0269 -0.0759038 0
25.3044 2.06154 0
24.0513 4.21352 0
22.7738 2.07602 0
24.0391 2.06897 0
25.2915 -0.0833171 0
27.8209 -0.0992428 0
27.849 4.19013 0
25.3172 4.20609 0
26.5562 -0.0910971 0
27.835 2.0456 0
26.5831 4.19829 0
25.3044 2.06154 0
26.5697 2.05375 0
27.8209 -0.0992428 0
30.3502 -0.116627 0
30.3808 4.17271 0
27.849 4.19013 0
29.0855 -0.107753 0
30.3656 2.0282 0
29.1149 4.1816 0
27.835 2.0456 0
29.1003 2.03708 0
30.3502 -0.116627 0
32.8797 -0.135463 0
32.9127 4.15383 0
30.3808 4.17271 0
31.6149 -0.125864 0
32.8962 2.00934 0
31.6467 4.16345 0
30.3656 2.0282 0
31.6309 2.01895 0
32.8797 -0.135463 0
35.4091 -0.155741 0
35.4446 4.13351 0
32.9127 4.15383 0
34.1444 -0.145422 0
35.4269 1.98904 0
34.1786 4.14385 0
32.8962 2.00934 0
34.1615 1.99937 0
35.4091 -0.155741 0
37.9386 -0.177454 0
37.9765 4.11176 0
35.4446 4.13351 0
36.6738 -0.166419 0
37.9576 1.96731 0
36.7105 4.12282 0
35.4269 1.98904 0
36.6922 1.97835 0
37.9386 -0.177454 0
40.4681 -0.200594 0
40.5084 4.08858 0
37.9765 4.11176 0
39.2033 -0.188846 0
40.4883 1.94414 0
39.2424 4.10035 0
37.9576 1.96731 0
39.2229 1.9559 0
40.4681 -0.200594 0
42.9976 -0.225153 0
43.0404 4.06397 0
40.5084 4.08858 0
41.7329 -0.212697 0
43.019 1.91956 0
41.7744 4.07645 0
40.4883 1.94414 0
41.7537 1.93203 0
42.9976 -0.225153 0
45.5272 -0.251123 0
45.5723 4.03796 0
43.0404 4.06397 0
44.2624 -0.237962 0
45.5498 1.89357 0
44.3063 4.05114 0
43.019 1.91956 0
44.2844 1.90674 0
45.5272 -0.251123 0
48.0568 -0.278497 0
48.1043 4.01054 0
45.5723 4.03796 0
46.792 -0.264635 0
48.0806 1.86617 0
46.8383 4.02443 0
45.5498 1.89357 0
46.8152 1.88005 0
48.0568 -0.278497 0
50.5865 -0.307266 0
50.6363 3.98172 0
48.1043 4.01054 0
49.3217 -0.292708 0
50.6114 1.83738 0
49.3703 3.99631 0
48.0806 1.86617 0
49.346 1.85195 0
50.5865 -0.307266 0
53.1162 -0.337423 0
53.1683 3.95152 0
50.6363 3.98172 0
51.8513 -0.322172 0
53.1423 1.8072 0
51.9023 3.9668 0
50.6114 1.83738 0
51.8769 1.82246 0
53.1162 -0.337423 0
55.6459 -0.36896 0
55.7004 3.91993 0
53.1683 3.95152 0
54.381 -0.35302 0
55.6732 1.77563 0
54.4343 3.9359 0
53.1423 1.8072 0
54.4077 1.79159 0
55.6459 -0.36896 0
58.1756 -0.40187 0
58.2324 3.88697 0
55.7004 3.91993 0
56.9107 -0.385244 0
58.2041 1.7427 0
56.9664 3.90362 0
55.6732 1.77563 0
56.9386 1.75934 0
58.1756 -0.40187 0
60.7054 -0.436143 0
60.7645 3.85265 0
58.2324 3.88697 0
59.4405 -0.418836 0
60.735 1.7084 0
59.4985 3.86998 0
58.2041 1.7427 0
59.4695 1.72572 0
60.7054 -0.436143 0
63.2352 -0.471773 0
63.2966 3.81697 0
60.7645 3.85265 0
61.9703 -0.453789 0
63.2659 1.67274 0
62.0305 3.83498 0
60.735 1.7084 0
62.0004 1.69074 0
63.2352 -0.471773 0
65.765 -0.508752 0
65.8287 3.77993 0
63.2966 3.81697 0
64.5001 -0.490095 0
65.7969 1.63573 0
64.5626 3.79862 0
63.2659 1.67274 0
64.5314 1.65441 0
65.765 -0.508752 0
68.2948 -0.547072 0
68.3608 3.74156 0
65.8287 3.77993 0
67.0299 -0.527745 0
68.3278 1.59739 0
67.0947 3.76091 0
65.7969 1.63573 0
67.0624 1.61673 0
68.2948 -0.547072 0
70.8247 -0.586725 0
70.8929 3.70185 0
68.3608 3.74156 0
69.5598 -0.566733 0
70.8588 1.55771 0
69.6268 3.72187 0
68.3278 1.59739 0
69.5933 1.57771 0
70.8247 -0.586725 0
73.3546 -0.627704 0
73.425 3.66082 0
70.8929 3.70185 0
72.0896 -0.60705 0
73.3899 1.5167 0
72.159 3.6815 0
70.8588 1.55771 0
72.1243 1.53737 0
73.3546 -0.627704 0
75.8845 -0.67 0
75.9572 3.61846 0
73.425 3.66082 0
74.6196 -0.648688 0
75.9209 1.47437 0
74.6911 3.6398 0
73.3899 1.5167 0
74.6554 1.4957 0
75.8845 -0.67 0
78.4145 -0.713606 0
78.4894 3.5748 0
75.9572 3.61846 0
77.1495 -0.69164 0
78.4519 1.43074 0
77.2233 3.59679 0
75.9209 1.47437 0
77.1864 1.45272 0
78.4145 -0.713606 0
80.9444 -0.758514 0
81.0215 3.52983 0
78.4894 3.5748 0
79.6795 -0.735897 0
80.983 1.3858 0
79.7554 3.55248 0
78.4519 1.43074 0
79.7175 1.40843 0
80.9444 -0.758514 0
83.4744 -0.804715 0
83.5537 3.48357 0
81.0215 3.52983 0
82.2094 -0.781453 0
83.5141 1.33957 0
82.2876 3.50686 0
80.983 1.3858 0
82.2486 1.36284 0
83.4744 -0.804715 0
86.0045 -0.852204 0
86.0859 3.43602 0
83.5537 3.48357 0
84.7394 -0.828299 0
86.0452 1.29205 0
84.8198 3.45996 0
83.5141 1.33957 0
84.7797 1.31597 0
86.0045 -0.852204 0
88.5345 -0.90097 0
88.6181 3.38719 0
86.0859 3.43602 0
87.2695 -0.876428 0
88.5763 1.24325 0
87.352 3.41177 0
86.0452 1.29205 0
87.3108 1.26781 0
88.5345 -0.90097 0
91.0646 -0.951008 0
91.1503 3.33709 0
88.6181 3.38719 0
89.7995 -0.92583 0
91.1075 1.19318 0
89.8842 3.3623 0
88.5763 1.24325 0
89.8419 1.21837 0
91.0646 -0.951008 0
93.5946 -1.00231 0
93.6825 3.28573 0
91.1503 3.33709 0
92.3296 -0.9765 0
93.6386 1.14185 0
92.4164 3.31157 0
91.1075 1.19318 0
92.373 1.16767 0
93.5946 -1.00231 0
96.1247 -1.05486 0
96.2147 3.23311 0
93.6825 3.28573 0
94.8597 -1.02843 0
96.1698 1.08926 0
94.9486 3.25958 0
93.6386 1.14185 0
94.9042 1.11571 0
96.1247 -1.05486 0
98.6549 -1.10867 0
98.747 3.17924 0
96.2147 3.23311 0
97.3898 -1.08161 0
98.701 1.03542 0
97.4809 3.20633 0
96.1698 1.08926 0
97.4354 1.06249 0
98.6549 -1.10867 0
101.185 -1.16371 0
101.279 3.12413 0
98.747 3.17924 0
99.9199 -1.13603 0
101.232 0.980346 0
100.013 3.15184 0
98.701 1.03542 0
99.9665 1.00804 0
101.185 -1.16371 0
103.715 -1.21998 0
103.811 3.0678 0
101.279 3.12413 0
102.45 -1.19169 0
103.763 0.924038 0
102.545 3.09612 0
101.232 0.980346 0
102.498 0.952345 0
103.715 -1.21998 0
106.245 -1.27748 0
106.344 3.01023 0
103.811 3.0678 0
104.98 -1.24858 0
106.295 0.866506 0
105.078 3.03917 0
103.763 0.924038 0
105.029 0.895425 0
106.245 -1.27748 0
108.776 -1.33619 0
108.876 2.95145 0
106.344 3.01023 0
107.51 -1.30668 0
108.826 0.807758 0
107.61 2.98099 0
106.295 0.866506 0
107.56 0.837284 0
108.776 -1.33619 0
111.306 -1.39611 0
111.408 2.89146 0
108.876 2.95145 0
110.041 -1.366 0
111.357 0.747801 0
110.142 2.92161 0
108.826 0.807758 0
110.091 0.77793 0
111.306 -1.39611 0
113.836 -1.45724 0
113.94 2.83027 0
111.408 2.89146 0
112.571 -1.42652 0
113.888 0.686644 0
112.674 2.86101 0
111.357 0.747801 0
112.623 0.717372 0
113.836 -1.45724 0
116.366 -1.51955 0
116.473 2.76788 0
113.94 2.83027 0
115.101 -1.48824 0
116.42 0.624294 0
115.207 2.79923 0
113.888 0.686644 0
115.154 0.655618 0
116.366 -1.51955 0
118.897 -1.58305 0
119.005 2.70431 0
116.473 2.76788 0
117.631 -1.55115 0
118.951 0.560759 0
117.739 2.73625 0
116.42 0.624294 0
117.685 0.592674 0
118.897 -1.58305 0
121.427 -1.64773 0
121.537 2.63957 0
119.005 2.70431 0
120.162 -1.61524 0
121.482 0.496046 0
120.271 2.67209 0
118.951 0.560759 0
120.216 0.528549 0
121.427 -1.64773 0
123.957 -1.71357 0
124.07 2.57365 0
121.537 2.63957 0
122.692 -1.6805 0
124.013 0.430164 0
122.803 2.60676 0
121.482 0.496046 0
122.748 0.463251 0
123.957 -1.71357 0
126.487 -1.78058 0
126.602 2.50657 0
124.07 2.57365 0
125.222 -1.74693 0
126.545 0.363121 0
125.336 2.54026 0
124.013 0.430164 0
125.279 0.396787 0
126.487 -1.78058 0
129.018 -1.84874 0
129.134 2.43834 0
126.602 2.50657 0
127.753 -1.81451 0
129.076 0.294924 0
127.868 2.4726 0
126.545 0.363121 0
127.81 0.329166 0
129.018 -1.84874 0
131.548 -1.91804 0
131.666 2.36896 0
129.134 2.43834 0
130.283 -1.88325 0
131.607 0.225581 0
130.4 2.40379 0
129.076 0.294924 0
130.342 0.260395 0
131.548 -1.91804 0
134.079 -1.98849 0
134.199 2.29844 0
131.666 2.36896 0
132.813 -1.95312 0
134.139 0.1551 0
132.933 2.33384 0
131.607 0.225581 0
132.873 0.190482 0
134.079 -1.98849 0
136.609 -2.06006 0
136.731 2.2268 0
134.199 2.29844 0
135.344 -2.02413 0
136.67 0.0834884 0
135.465 2.26276 0
134.139 0.1551 0
135.404 0.119435 0
136.609 -2.06006 0
139.139 -2.13276 0
139.263 2.15403 0
136.731 2.2268 0
137.874 -2.09627 0
139.201 0.0107546 0
137.997 2.19055 0
136.67 0.0834884 0
137.936 0.0472613 0
139.139 -2.13276 0
141.67 -2.20657 0
141.796 2.08014 0
139.263 2.15403 0
140.405 -2.16952 0
141.733 -0.0630938 0
140.529 2.11722 0
139.201 0.0107546 0
140.467 -0.0260308 0
141.67 -2.20657 0
144.2 -2.28148 0
144.328 2.00515 0
141.796 2.08014 0
142.935 -2.24389 0
144.264 -0.138049 0
143.062 2.04278 0
141.733 -0.0630938 0
142.998 -0.100434 0
144.2 -2.28148 0
146.731 -2.3575 0
146.86 1.92906 0
144.328 2.00515 0
145.465 -2.31935 0
146.795 -0.214103 0
145.594 1.96724 0
144.264 -0.138049 0
145.53 -0.175939 0
146.731 -2.3575 0
149.261 -2.4346 0
149.392 1.85188 0
146.86 1.92906 0
147.996 -2.39591 0
149.327 -0.291248 0
148.126 1.8906 0
146.795 -0.214103 0
148.061 -0.25254 0
149.261 -2.4346 0
151.792 -2.51279 0
151.925 1.77361 0
149.392 1.85188 0
150.526 -2.47356 0
151.858 -0.369477 0
150.659 1.81288 0
149.327 -0.291248 0
150.592 -0.330228 0
151.792 -2.51279 0
154.322 -2.59206 0
154.457 1.69427 0
151.925 1.77361 0
153.057 -2.55229 0
154.39 -0.448781 0
153.191 1.73407 0
151.858 -0.369477 0
153.124 -0.408995 0
154.322 -2.59206 0
156.853 -2.67239 0
156.989 1.61386 0
154.457 1.69427 0
155.587 -2.63209 0
156.921 -0.529153 0
155.723 1.6542 0
154.39 -0.448781 0
155.655 -0.488834 0
156.853 -2.67239 0
159.383 -2.75378 0
159.522 1.53239 0
156.989 1.61386 0
158.118 -2.71295 0
159.452 -0.610584 0
158.255 1.57326 0
156.921 -0.529153 0
158.187 -0.569736 0
159.383 -2.75378 0
161.914 -2.83623 0
162.054 1.44987 0
159.522 1.53239 0
160.648 -2.79487 0
161.984 -0.693067 0
160.788 1.49126 0
159.452 -0.610584 0
160.718 -0.651695 0
161.914 -2.83623 0
164.444 -2.91971 0
164.586 1.3663 0
162.054 1.44987 0
163.179 -2.87784 0
164.515 -0.776595 0
163.32 1.40822 0
161.984 -0.693067 0
163.249 -0.734701 0
164.444 -2.91971 0
166.975 -3.00424 0
167.119 1.2817 0
164.586 1.3663 0
165.709 -2.96185 0
167.047 -0.861159 0
165.852 1.32413 0
164.515 -0.776595 0
165.781 -0.818748 0
166.975 -3.00424 0
169.505 -3.08979 0
169.651 1.19607 0
167.119 1.2817 0
168.24 -3.04689 0
169.578 -0.946751 0
168.385 1.23901 0
167.047 -0.861159 0
168.312 -0.903827 0
169.505 -3.08979 0
172.036 -3.17636 0
172.183 1.10942 0
169.651 1.19607 0
170.77 -3.13295 0
172.109 -1.03336 0
170.917 1.15287 0
169.578 -0.946751 0
170.844 -0.989931 0
172.036 -3.17636 0
174.566 -3.26395 0
174.715 1.02175 0
172.183 1.10942 0
173.301 -3.22003 0
174.641 -1.12099 0
173.449 1.06571 0
172.109 -1.03336 0
173.375 -1.07705 0
174.566 -3.26395 0
177.097 -3.35254 0
177.248 0.933084 0
174.715 1.02175 0
175.832 -3.30812 0
177.172 -1.20962 0
175.982 0.977544 0
174.641 -1.12099 0
175.907 -1.16518 0
177.097 -3.35254 0
179.628 -3.44213 0
179.78 0.843417 0
177.248 0.933084 0
178.362 -3.39721 0
179.704 -1.29925 0
178.514 0.888375 0
177.172 -1.20962 0
178.438 -1.25431 0
179.628 -3.44213 0
182.158 -3.5327 0
182.312 0.75276 0
179.78 0.843417 0
180.893 -3.48729 0
182.235 -1.38987 0
181.046 0.798212 0
179.704 -1.29925 0
180.97 -1.34443 0
182.158 -3.5327 0
184.689 -3.62426 0
184.845 0.661122 0
182.312 0.75276 0
183.423 -3.57836 0
184.767 -1.48147 0
183.578 0.707064 0
182.235 -1.38987 0
183.501 -1.43554 0
184.689 -3.62426 0
187.219 -3.71679 0
187.377 0.568511 0
184.845 0.661122 0
185.954 -3.6704 0
187.298 -1.57404 0
186.111 0.614938 0
184.767 -1.48147 0
186.032 -1.52763 0
187.219 -3.71679 0
189.75 -3.81029 0
189.909 0.474933 0
187.377 0.568511 0
188.485 -3.76342 0
189.83 -1.66758 0
188.643 0.521842 0
187.298 -1.57404 0
188.564 -1.62069 0
189.75 -3.81029 0
192.281 -3.90474 0
192.441 0.380397 0
189.909 0.474933 0
191.015 -3.8574 0
192.361 -1.76207 0
191.175 0.427784 0
189.83 -1.66758 0
191.095 -1.71471 0
192.281 -3.90474 0
194.811 -4.00015 0
194.974 0.284911 0
192.441 0.380397 0
193.546 -3.95233 0
194.893 -1.85752 0
193.707 0.332773 0
192.361 -1.76207 0
193.627 -1.80968 0
194.811 -4.00015 0
197.342 -4.0965 0
197.506 0.188483 0
194.974 0.284911 0
196.077 -4.04821 0
197.424 -1.95391 0
196.24 0.236814 0
194.893 -1.85752 0
196.158 -1.9056 0
197.342 -4.0965 0
199.873 -4.19378 0
200.038 0.0911198 0
197.506 0.188483 0
198.607 -4.14502 0
199.955 -2.05123 0
198.772 0.139918 0
197.424 -1.95391 0
198.69 -2.00245 0
199.873 -4.19378 0
202.403 -4.29199 0
202.57 -0.00717 0
200.038 0.0911198 0
201.138 -4.24277 0
202.487 -2.14948 0
201.304 0.0420902 0
199.955 -2.05123 0
201.221 -2.10024 0
202.403 -4.29199 0
204.934 -4.39112 0
205.103 -0.106379 0
202.57 -0.00717 0
203.669 -4.34144 0
205.018 -2.24865 0
203.837 -0.05666 0
202.487 -2.14948 0
203.753 -2.19895 0
204.934 -4.39112 0
207.465 -4.49116 0
207.635 -0.206498 0
205.103 -0.106379 0
206.2 -4.44102 0
207.55 -2.34873 0
206.369 -0.156325 0
205.018 -2.24865 0
206.284 -2.29858 0
207.465 -4.49116 0
209.996 -4.5921 0
210.167 -0.307521 0
207.635 -0.206498 0
208.73 -4.54152 0
210.081 -2.44972 0
208.901 -0.256897 0
207.55 -2.34873 0
208.816 -2.39911 0
209.996 -4.5921 0
212.526 -4.69394 0
212.699 -0.40944 0
210.167 -0.307521 0
211.261 -4.64291 0
212.613 -2.55159 0
211.433 -0.358369 0
210.081 -2.44972 0
211.347 -2.50054 0
212.526 -4.69394 0
215.057 -4.79666 0
215.232 -0.512246 0
212.699 -0.40944 0
213.792 -4.74519 0
215.144 -2.65436 0
213.966 -0.460732 0
212.613 -2.55159 0
213.879 -2.60287 0
215.057 -4.79666 0
217.588 -4.90027 0
217.764 -0.615931 0
215.232 -0.512246 0
216.323 -4.84836 0
217.676 -2.75801 0
216.498 -0.563979 0
215.144 -2.65436 0
216.41 -2.70607 0
217.588 -4.90027 0
220.119 -5.00474 0
220.296 -0.720489 0
217.764 -0.615931 0
218.853 -4.9524 0
220.207 -2.86253 0
219.03 -0.668101 0
217.676 -2.75801 0
218.942 -2.81016 0
220.119 -5.00474 0
222.65 -5.11009 0
222.828 -0.82591 0
220.296 -0.720489 0
221.384 -5.05731 0
222.739 -2.96791 0
221.562 -0.773092 0
220.207 -2.86253 0
221.473 -2.91511 0
222.65 -5.11009 0
225.18 -5.21628 0
225.361 -0.932188 0
222.828 -0.82591 0
223.915 -5.16308 0
225.271 -3.07415 0
224.095 -0.878943 0
222.739 -2.96791 0
224.005 -3.02092 0
225.18 -5.21628 0
227.711 -5.32333 0
227.893 -1.03931 0
225.361 -0.932188 0
226.446 -5.2697 0
227.802 -3.18123 0
226.627 -0.985645 0
225.271 -3.07415 0
226.536 -3.12758 0
227.711 -5.32333 0
230.242 -5.43121 0
230.425 -1.14728 0
227.893 -1.03931 0
228.977 -5.37717 0
230.334 -3.28916 0
229.159 -1.09319 0
227.802 -3.18123 0
229.068 -3.23509 0
230.242 -5.43121 0
232.773 -5.53993 0
232.957 -1.25608 0
230.425 -1.14728 0
231.507 -5.48547 0
232.865 -3.39792 0
231.691 -1.20158 0
230.334 -3.28916 0
231.599 -3.34344 0
232.773 -5.53993 0
235.304 -5.64948 0
235.49 -1.3657 0
232.957 -1.25608 0
234.038 -5.5946 0
235.397 -3.5075 0
234.223 -1.31079 0
232.865 -3.39792 0
234.131 -3.45261 0
235.304 -5.64948 0
237.834 -5.75984 0
238.022 -1.47615 0
235.49 -1.3657 0
236.569 -5.70456 0
237.928 -3.61791 0
236.756 -1.42082 0
235.397 -3.5075 0
236.662 -3.5626 0
237.834 -5.75984 0
240.365 -5.87101 0
240.554 -1.5874 0
238.022 -1.47615 0
239.1 -5.81532 0
240.46 -3.72912 0
239.288 -1.53167 0
237.928 -3.61791 0
239.194 -3.67341 0
240.365 -5.87101 0
242.896 -5.98298 0
243.086 -1.69945 0
240.554 -1.5874 0
241.631 -5.9269 0
242.991 -3.84113 0
241.82 -1.64332 0
240.46 -3.72912 0
241.726 -3.78502 0
242.896 -5.98298 0
245.427 -6.09575 0
245.619 -1.81229 0
243.086 -1.69945 0
244.162 -6.03927 0
245.523 -3.95394 0
244.352 -1.75577 0
242.991 -3.84113 0
244.257 -3.89744 0
245.427 -6.09575 0
247.958 -6.2093 0
248.151 -1.92592 0
245.619 -1.81229 0
246.693 -6.15243 0
248.054 -4.06753 0
246.885 -1.86901 0
245.523 -3.95394 0
246.789 -4.01064 0
247.958 -6.2093 0
250.489 -6.32363 0
250.683 -2.04033 0
248.151 -1.92592 0
249.223 -6.26637 0
250.586 -4.1819 0
249.417 -1.98303 0
248.054 -4.06753 0
249.32 -4.12462 0
250.489 -6.32363 0
253.02 -6.43873 0
253.215 -2.15551 0
250.683 -2.04033 0
251.754 -6.38108 0
253.118 -4.29704 0
251.949 -2.09783 0
250.586 -4.1819 0
251.852 -4.23937 0
253.02 -6.43873 0
255.551 -6.55459 0
255.747 -2.27145 0
253.215 -2.15551 0
254.285 -6.49656 0
255.649 -4.41294 0
254.481 -2.21339 0
253.118 -4.29704 0
254.383 -4.3549 0
255.551 -6.55459 0
258.082 -6.67121 0
258.28 -2.38815 0
255.747 -2.27145 0
256.816 -6.61281 0
258.181 -4.5296 0
257.014 -2.32971 0
255.649 -4.41294 0
256.915 -4.47118 0
258.082 -6.67121 0
260.613 -6.78857 0
260.812 -2.50559 0
258.28 -2.38815 0
259.347 -6.7298 0
260.712 -4.647 0
259.546 -2.44678 0
258.181 -4.5296 0
259.447 -4.58821 0
260.613 -6.78857 0
263.144 -6.90667 0
263.344 -2.62377 0
260.812 -2.50559 0
261.878 -6.84753 0
263.244 -4.76514 0
262.078 -2.56459 0
260.712 -4.647 0
261.978 -4.70598 0
263.144 -6.90667 0
265.675 -7.02551 0
265.876 -2.74268 0
263.344 -2.62377 0
264.409 -6.966 0
265.776 -4.88402 0
264.61 -2.68313 0
263.244 -4.76514 0
264.51 -4.82449 0
265.675 -7.02551 0
268.206 -7.14506 0
268.408 -2.86232 0
265.876 -2.74268 0
266.94 -7.0852 0
268.307 -5.00361 0
267.142 -2.80241 0
265.776 -4.88402 0
267.041 -4.94373 0
268.206 -7.14506 0
270.737 -7.26534 0
270.941 -2.98266 0
268.408 -2.86232 0
269.471 -7.20511 0
270.839 -5.12393 0
269.675 -2.9224 0
268.307 -5.00361 0
269.573 -5.06368 0
270.737 -7.26534 0
273.268 -7.38632 0
273.473 -3.10372 0
270.941 -2.98266 0
272.002 -7.32574 0
273.37 -5.24495 0
272.207 -3.04311 0
270.839 -5.12393 0
272.105 -5.18435 0
273.268 -7.38632 0
275.799 -7.508 0
276.005 -3.22548 0
273.473 -3.10372 0
274.533 -7.44707 0
275.902 -5.36666 0
274.739 -3.16451 0
273.37 -5.24495 0
274.636 -5.30572 0
275.799 -7.508 0
278.33 -7.63037 0
278.537 -3.34793 0
276.005 -3.22548 0
277.064 -7.5691 0
278.434 -5.48907 0
277.271 -3.28662 0
275.902 -5.36666 0
277.168 -5.42778 0
278.33 -7.63037 0
280.861 -7.75342 0
281.07 -3.47106 0
278.537 -3.34793 0
279.595 -7.69181 0
280.965 -5.61217 0
279.803 -3.40941 0
278.434 -5.48907 0
279.699 -5.55054 0
280.861 -7.75342 0
283.392 -7.87715 0
283.602 -3.59486 0
281.07 -3.47106 0
282.126 -7.8152 0
283.497 -5.73594 0
282.336 -3.53288 0
280.965 -5.61217 0
282.231 -5.67397 0
283.392 -7.87715 0
285.923 -8.00156 0
286.134 -3.71934 0
283.602 -3.59486 0
284.658 -7.93927 0
286.029 -5.86038 0
284.868 -3.65702 0
283.497 -5.73594 0
284.763 -5.79808 0
285.923 -8.00156 0
288.454 -8.12662 0
288.666 -3.84448 0
286.134 -3.71934 0
287.189 -8.064 0
288.56 -5.98548 0
287.4 -3.78183 0
286.029 -5.86038 0
287.294 -5.92285 0
288.454 -8.12662 0
290.985 -8.25233 0
291.198 -3.97026 0
288.666 -3.84448 0
289.72 -8.18939 0
291.092 -6.11123 0
289.932 -3.90729 0
288.56 -5.98548 0
289.826 -6.04827 0
290.985 -8.25233 0
293.516 -8.37869 0
293.731 -4.0967 0
291.198 -3.97026 0
292.251 -8.31543 0
293.624 -6.23763 0
292.464 -4.0334 0
291.092 -6.11123 0
292.358 -6.17435 0
293.516 -8.37869 0
296.048 -8.50569 0
296.263 -4.22377 0
293.731 -4.0967 0
294.782 -8.44211 0
296.155 -6.36466 0
294.997 -4.16015 0
293.624 -6.23763 0
294.889 -6.30107 0
296.048 -8.50569 0
298.579 -8.63331 0
298.795 -4.35147 0
296.263 -4.22377 0
297.313 -8.56942 0
298.687 -6.49232 0
297.529 -4.28754 0
296.155 -6.36466 0
297.421 -6.42841 0
298.579 -8.63331 0
301.11 -8.76156 0
301.327 -4.47979 0
298.795 -4.35147 0
299.844 -8.69736 0
301.219 -6.62061 0
300.061 -4.41555 0
298.687 -6.49232 0
299.953 -6.55639 0
301.11 -8.76156 0
303.641 -8.89042 0
303.859 -4.60872 0
301.327 -4.47979 0
302.376 -8.82591 0
303.75 -6.74951 0
302.593 -4.54418 0
301.219 -6.62061 0
302.484 -6.68498 0
303.641 -8.89042 0
306.172 -9.01989 0
306.392 -4.73826 0
303.859 -4.60872 0
304.907 -8.95508 0
306.282 -6.87901 0
305.126 -4.67341 0
303.75 -6.74951 0
305.016 -6.81418 0
306.172 -9.01989 0
308.704 -9.14995 0
308.924 -4.86839 0
306.392 -4.73826 0
307.438 -9.08484 0
308.814 -7.00911 0
307.658 -4.80325 0
306.282 -6.87901 0
307.548 -6.94399 0
308.704 -9.14995 0
311.235 -9.28061 0
311.456 -4.99912 0
308.924 -4.86839 0
309.969 -9.21521 0
311.345 -7.1398 0
310.19 -4.93368 0
308.814 -7.00911 0
310.08 -7.07438 0
311.235 -9.28061 0
313.766 -9.41184 0
313.988 -5.13043 0
311.456 -4.99912 0
312.5 -9.34615 0
313.877 -7.27108 0
312.722 -5.0647 0
311.345 -7.1398 0
312.611 -7.20537 0
313.766 -9.41184 0
316.297 -9.54366 0
316.521 -5.26231 0
313.988 -5.13043 0
315.032 -9.47768 0
316.409 -7.40292 0
315.254 -5.1963 0
313.877 -7.27108 0
315.143 -7.33693 0
316.297 -9.54366 0
318.829 -9.67603 0
319.053 -5.39476 0
316.521 -5.26231 0
317.563 -9.60977 0
318.941 -7.53534 0
317.787 -5.32847 0
316.409 -7.40292 0
317.675 -7.46906 0
318.829 -9.67603 0
321.36 -9.80897 0
321.585 -5.52777 0
319.053 -5.39476 0
320.094 -9.74243 0
321.473 -7.66831 0
320.319 -5.46119 0
318.941 -7.53534 0
320.207 -7.60176 0
321.36 -9.80897 0
323.891 -9.94246 0
324.117 -5.66132 0
321.585 -5.52777 0
322.626 -9.87565 0
324.004 -7.80184 0
322.851 -5.59448 0
321.473 -7.66831 0
322.738 -7.73501 0
323.891 -9.94246 0
326.423 -10.0765 0
326.65 -5.79542 0
324.117 -5.66132 0
325.157 -10.0094 0
326.536 -7.9359 0
325.383 -5.72831 0
324.004 -7.80184 0
325.27 -7.8688 0
326.423 -10.0765 0
328.954 -10.2111 0
329.182 -5.93006 0
326.65 -5.79542 0
327.688 -10.1437 0
329.068 -8.07051 0
327.916 -5.86268 0
326.536 -7.9359 0
327.802 -8.00314 0
328.954 -10.2111 0
331.485 -10.3462 0
331.714 -6.06522 0
329.182 -5.93006 0
330.22 -10.2785 0
331.6 -8.20563 0
330.448 -5.99758 0
329.068 -8.07051 0
330.334 -8.138 0
331.485 -10.3462 0
334.017 -10.4818 0
334.246 -6.2009 0
331.714 -6.06522 0
332.751 -10.4139 0
334.132 -8.34128 0
332.98 -6.133 0
331.6 -8.20563 0
332.866 -8.27339 0
334.017 -10.4818 0
336.548 -10.6179 0
336.779 -6.3371 0
334.246 -6.2009 0
335.282 -10.5498 0
336.663 -8.47744 0
335.513 -6.26894 0
334.132 -8.34128 0
335.398 -8.4093 0
336.548 -10.6179 0
339.08 -10.7545 0
339.311 -6.47379 0
336.779 -6.3371 0
337.814 -10.6862 0
339.195 -8.61411 0
338.045 -6.40538 0
336.663 -8.47744 0
337.929 -8.54571 0
339.08 -10.7545 0
341.611 -10.8917 0
341.843 -6.61098 0
339.311 -6.47379 0
340.345 -10.823 0
341.727 -8.75127 0
340.577 -6.54233 0
339.195 -8.61411 0
340.461 -8.68263 0
341.611 -10.8917 0
344.143 -11.0293 0
344.376 -6.74867 0
341.843 -6.61098 0
342.877 -10.9604 0
344.259 -8.88892 0
343.109 -6.67976 0
341.727 -8.75127 0
342.993 -8.82003 0
344.143 -11.0293 0
346.674 -11.1674 0
346.908 -6.88683 0
344.376 -6.74867 0
345.408 -11.0983 0
346.791 -9.02705 0
345.642 -6.81769 0
344.259 -8.88892 0
345.525 -8.95792 0
346.674 -11.1674 0
349.206 -11.3059 0
349.44 -7.02546 0
346.908 -6.88683 0
347.94 -11.2366 0
349.323 -9.16565 0
348.174 -6.95608 0
346.791 -9.02705 0
348.057 -9.09629 0
349.206 -11.3059 0
351.737 -11.445 0
351.972 -7.16456 0
349.44 -7.02546 0
350.471 -11.3754 0
351.855 -9.30472 0
350.706 -7.09495 0
349.323 -9.16565 0
350.589 -9.23513 0
351.737 -11.445 0
354.269 -11.5845 0
354.505 -7.30411 0
351.972 -7.16456 0
353.003 -11.5147 0
354.387 -9.44424 0
353.239 -7.23428 0
351.855 -9.30472 0
353.121 -9.37442 0
354.269 -11.5845 0
356.8 -11.7244 0
357.037 -7.44411 0
354.505 -7.30411 0
355.534 -11.6544 0
356.919 -9.58421 0
355.771 -7.37405 0
354.387 -9.44424 0
355.653 -9.51417 0
356.8 -11.7244 0
359.332 -11.8648 0
359.569 -7.58455 0
357.037 -7.44411 0
358.066 -11.7945 0
359.451 -9.72463 0
358.303 -7.51428 0
356.919 -9.58421 0
358.185 -9.65436 0
359.332 -11.8648 0
361.864 -12.0056 0
362.102 -7.72543 0
359.569 -7.58455 0
360.598 -11.9351 0
361.983 -9.86547 0
360.836 -7.65494 0
359.451 -9.72463 0
360.717 -9.795 0
361.864 -12.0056 0
364.395 -12.1468 0
364.634 -7.86673 0
362.102 -7.72543 0
363.129 -12.0762 0
364.515 -10.0067 0
363.368 -7.79603 0
361.983 -9.86547 0
363.249 -9.93606 0
364.395 -12.1468 0
366.927 -12.2885 0
367.167 -8.00845 0
364.634 -7.86673 0
365.661 -12.2176 0
367.047 -10.1484 0
365.9 -7.93754 0
364.515 -10.0067 0
365.781 -10.0775 0
366.927 -12.2885 0
369.459 -12.4306 0
369.699 -8.15058 0
367.167 -8.00845 0
368.193 -12.3595 0
369.579 -10.2905 0
368.433 -8.07946 0
367.047 -10.1484 0
368.313 -10.2194 0
369.459 -12.4306 0
371.99 -12.573 0
372.231 -8.29311 0
369.699 -8.15058 0
370.724 -12.5018 0
372.111 -10.433 0
370.965 -8.2218 0
369.579 -10.2905 0
370.845 -10.3617 0
371.99 -12.573 0
374.522 -12.7159 0
374.764 -8.43603 0
372.231 -8.29311 0
373.256 -12.6444 0
374.643 -10.5759 0
373.498 -8.36452 0
372.111 -10.433 0
373.377 -10.5044 0
374.522 -12.7159 0
377.054 -12.8592 0
377.296 -8.57934 0
374.764 -8.43603 0
375.788 -12.7875 0
377.175 -10.7192 0
376.03 -8.50764 0
374.643 -10.5759 0
375.909 -10.6475 0
377.054 -12.8592 0
379.586 -13.0028 0
379.829 -8.72303 0
377.296 -8.57934 0
378.32 -12.9309 0
379.707 -10.8629 0
378.562 -8.65114 0
377.175 -10.7192 0
378.441 -10.791 0
379.586 -13.0028 0
382.117 -13.1468 0
382.361 -8.86709 0
379.829 -8.72303 0
380.851 -13.0748 0
382.239 -11.0069 0
381.095 -8.79502 0
379.707 -10.8629 0
380.973 -10.9348 0
382.117 -13.1468 0
384.649 -13.2912 0
384.893 -9.01151 0
382.361 -8.86709 0
383.383 -13.2189 0
384.771 -11.1513 0
383.627 -8.93926 0
382.239 -11.0069 0
383.505 -11.0791 0
384.649 -13.2912 0
387.181 -13.4359 0
387.426 -9.15629 0
384.893 -9.01151 0
385.915 -13.3635 0
387.304 -11.2961 0
386.16 -9.08386 0
384.771 -11.1513 0
386.037 -11.2236 0
387.181 -13.4359 0
389.713 -13.581 0
389.958 -9.30141 0
387.426 -9.15629 0
388.447 -13.5084 0
389.836 -11.4412 0
388.692 -9.22881 0
387.304 -11.2961 0
388.57 -11.3686 0
389.713 -13.581 0
392.245 -13.7264 0
392.491 -9.44687 0
389.958 -9.30141 0
390.979 -13.6536 0
392.368 -11.5866 0
391.225 -9.3741 0
389.836 -11.4412 0
391.102 -11.5138 0
392.245 -13.7264 0
394.777 -13.8721 0
395.023 -9.59267 0
392.491 -9.44687 0
393.511 -13.7992 0
394.9 -11.7324 0
393.757 -9.51973 0
392.368 -11.5866 0
393.634 -11.6594 0
394.777 -13.8721 0
397.309 -14.0182 0
397.556 -9.73878 0
395.023 -9.59267 0
396.043 -13.9451 0
397.432 -11.8785 0
396.29 -9.66569 0
394.9 -11.7324 0
396.166 -11.8054 0
397.309 -14.0182 0
399.841 -14.1646 0
400.088 -9.88522 0
397.556 -9.73878 0
398.575 -14.0913 0
399.965 -12.0249 0
398.822 -9.81196 0
397.432 -11.8785 0
398.699 -11.9516 0
399.841 -14.1646 0
402.373 -14.3113 0
402.621 -10.032 0
400.088 -9.88522 0
401.107 -14.2379 0
402.497 -12.1716 0
401.355 -9.95855 0
399.965 -12.0249 0
401.231 -12.0982 0
402.373 -14.3113 0
404.905 -14.4582 0
405.154 -10.179 0
402.621 -10.032 0
403.639 -14.3847 0
405.029 -12.3186 0
403.887 -10.1054 0
402.497 -12.1716 0
403.763 -12.245 0
404.905 -14.4582 0
407.437 -14.6055 0
407.686 -10.3263 0
405.154 -10.179 0
406.171 -14.5318 0
407.562 -12.4659 0
406.42 -10.2526 0
405.029 -12.3186 0
406.295 -12.3922 0
407.437 -14.6055 0
409.969 -14.7531 0
410.219 -10.4739 0
407.686 -10.3263 0
408.703 -14.6793 0
410.094 -12.6135 0
408.952 -10.4001 0
407.562 -12.4659 0
408.828 -12.5397 0
409.969 -14.7531 0
412.501 -14.9009 0
412.751 -10.6218 0
410.219 -10.4739 0
411.235 -14.827 0
412.626 -12.7614 0
411.485 -10.5479 0
410.094 -12.6135 0
411.36 -12.6874 0
412.501 -14.9009 0
415.034 -15.0491 0
415.284 -10.77 0
412.751 -10.6218 0
413.768 -14.975 0
415.159 -12.9095 0
414.018 -10.6959 0
412.626 -12.7614 0
413.893 -12.8354 0
415.034 -15.0491 0
417.566 -15.1974 0
417.817 -10.9184 0
415.284 -10.77 0
416.3 -15.1232 0
417.691 -13.0579 0
416.55 -10.8442 0
415.159 -12.9095 0
416.425 -12.9837 0
417.566 -15.1974 0
420.098 -15.3461 0
420.349 -11.0671 0
417.817 -10.9184 0
418.832 -15.2717 0
420.224 -13.2066 0
419.083 -10.9927 0
417.691 -13.0579 0
418.958 -13.1322 0
420.098 -15.3461 0
422.63 -15.4949 0
422.882 -11.216 0
420.349 -11.0671 0
421.364 -15.4205 0
422.756 -13.3555 0
421.616 -11.1415 0
420.224 -13.2066 0
421.49 -13.281 0
422.63 -15.4949 0
425.163 -15.6441 0
425.415 -11.3652 0
422.882 -11.216 0
423.897 -15.5695 0
425.289 -13.5046 0
424.148 -11.2906 0
422.756 -13.3555 0
424.022 -13.43 0
425.163 -15.6441 0
427.695 -15.7934 0
427.947 -11.5146 0
425.415 -11.3652 0
426.429 -15.7187 0
427.821 -13.654 0
426.681 -11.4398 0
425.289 -13.5046 0
426.555 -13.5792 0
427.695 -15.7934 0
430.227 -15.943 0
430.48 -11.6642 0
427.947 -11.5146 0
428.961 -15.8682 0
430.354 -13.8035 0
429.214 -11.5893 0
427.821 -13.654 0
429.088 -13.7287 0
430.227 -15.943 0
432.76 -16.0927 0
433.013 -11.814 0
430.48 -11.6642 0
431.494 -16.0178 0
432.886 -13.9533 0
431.747 -11.739 0
430.354 -13.8035 0
431.62 -13.8784 0
432.76 -16.0927 0
435.292 -16.2427 0
435.546 -11.964 0
433.013 -11.814 0
434.026 -16.1677 0
435.419 -14.1034 0
434.279 -11.889 0
432.886 -13.9533 0
434.153 -14.0283 0
435.292 -16.2427 0
437.825 -16.3929 0
438.079 -12.1142 0
435.546 -11.964 0
436.559 -16.3178 0
437.952 -14.2536 0
436.812 -12.0391 0
435.419 -14.1034 0
436.685 -14.1784 0
437.825 -16.3929 0
440.357 -16.5433 0
440.611 -12.2647 0
438.079 -12.1142 0
439.091 -16.4681 0
440.484 -14.404 0
439.345 -12.1894 0
437.952 -14.2536 0
439.218 -14.3287 0
440.357 -16.5433 0
442.89 -16.6939 0
443.144 -12.4153 0
440.611 -12.2647 0
441.624 -16.6185 0
443.017 -14.5545 0
441.878 -12.3399 0
440.484 -14.404 0
441.751 -14.4792 0
442.89 -16.6939 0
445.422 -16.8446 0
445.677 -12.566 0
443.144 -12.4153 0
444.156 -16.7692 0
445.55 -14.7053 0
444.411 -12.4906 0
443.017 -14.5545 0
444.283 -14.6299 0
445.422 -16.8446 0
447.955 -16.9955 0
448.21 -12.717 0
445.677 -12.566 0
446.689 -16.92 0
448.083 -14.8562 0
446.944 -12.6415 0
445.55 -14.7053 0
446.816 -14.7807 0
447.955 -16.9955 0
450.488 -17.1466 0
450.743 -12.8681 0
448.21 -12.717 0
449.221 -17.071 0
450.615 -15.0073 0
449.477 -12.7925 0
448.083 -14.8562 0
449.349 -14.9317 0
450.488 -17.1466 0
453.02 -17.2978 0
453.276 -13.0193 0
450.743 -12.8681 0
451.754 -17.2221 0
453.148 -15.1585 0
452.009 -12.9437 0
450.615 -15.0073 0
451.882 -15.0829 0
453.02 -17.2978 0
455.553 -17.4491 0
455.809 -13.1707 0
453.276 -13.0193 0
454.287 -17.3734 0
455.681 -15.3099 0
454.542 -13.095 0
453.148 -15.1585 0
454.415 -15.2342 0
455.553 -17.4491 0
458.086 -17.6006 0
458.342 -13.3222 0
455.809 -13.1707 0
456.82 -17.5249 0
458.214 -15.4614 0
457.075 -13.2464 0
455.681 -15.3099 0
456.948 -15.3856 0
458.086 -17.6006 0
460.619 -17.7522 0
460.875 -13.4739 0
458.342 -13.3222 0
459.352 -17.6764 0
460.747 -15.613 0
459.608 -13.398 0
458.214 -15.4614 0
459.48 -15.5372 0
460.619 -17.7522 0
463.152 -17.904 0
463.408 -13.6257 0
460.875 -13.4739 0
461.885 -17.8281 0
463.28 -15.7648 0
462.141 -13.5498 0
460.747 -15.613 0
462.013 -15.6889 0
463.152 -17.904 0
465.685 -18.0558 0
465.941 -13.7775 0
463.408 -13.6257 0
464.418 -17.9799 0
465.813 -15.9167 0
464.675 -13.7016 0
463.28 -15.7648 0
464.546 -15.8407 0
465.685 -18.0558 0
468.218 -18.2078 0
468.474 -13.9295 0
465.941 -13.7775 0
466.951 -18.1318 0
468.346 -16.0687 0
467.208 -13.8535 0
465.813 -15.9167 0
467.079 -15.9927 0
468.218 -18.2078 0
470.751 -18.3599 0
471.007 -14.0816 0
468.474 -13.9295 0
469.484 -18.2838 0
470.879 -16.2207 0
469.741 -14.0056 0
468.346 -16.0687 0
469.612 -16.1447 0
470.751 -18.3599 0
473.284 -18.512 0
473.54 -14.2338 0
471.007 -14.0816 0
472.017 -18.4359 0
473.412 -16.3729 0
472.274 -14.1577 0
470.879 -16.2207 0
472.145 -16.2968 0
473.284 -18.512 0
475.817 -18.6642 0
476.074 -14.386 0
473.54 -14.2338 0
474.55 -18.5881 0
475.945 -16.5251 0
474.807 -14.3099 0
473.412 -16.3729 0
474.679 -16.449 0
475.817 -18.6642 0
478.35 -18.8165 0
478.607 -14.5384 0
476.074 -14.386 0
477.083 -18.7404 0
478.478 -16.6774 0
477.34 -14.4622 0
475.945 -16.5251 0
477.212 -16.6013 0
478.35 -18.8165 0
480.883 -18.9689 0
481.14 -14.6908 0
478.607 -14.5384 0
479.616 -18.8927 0
481.012 -16.8298 0
479.873 -14.6146 0
478.478 -16.6774 0
479.745 -16.7536 0
480.883 -18.9689 0
483.416 -19.1213 0
483.673 -14.8432 0
481.14 -14.6908 0
482.149 -19.0451 0
483.545 -16.9823 0
482.407 -14.767 0
481.012 -16.8298 0
482.278 -16.906 0
483.416 -19.1213 0
485.949 -19.2738 0
486.207 -14.9957 0
483.673 -14.8432 0
484.683 -19.1975 0
486.078 -17.1347 0
484.94 -14.9194 0
483.545 -16.9823 0
484.811 -17.0585 0
485.949 -19.2738 0
488.483 -19.4263 0
488.74 -15.1482 0
486.207 -14.9957 0
487.216 -19.35 0
488.611 -17.2873 0
487.473 -15.072 0
486.078 -17.1347 0
487.345 -17.211 0
488.483 -19.4263 0
491.016 -19.5789 0
491.273 -15.3008 0
488.74 -15.1482 0
489.749 -19.5026 0
491.145 -17.4398 0
490.007 -15.2245 0
488.611 -17.2873 0
489.878 -17.3635 0
491.016 -19.5789 0
493.549 -19.7315 0
493.807 -15.4535 0
491.273 -15.3008 0
492.282 -19.6552 0
493.678 -17.5925 0
492.54 -15.3771 0
491.145 -17.4398 0
492.411 -17.5162 0
493.549 -19.7315 0
496.082 -19.8843 0
496.34 -15.6062 0
493.807 -15.4535 0
494.816 -19.8078 0
496.211 -17.7453 0
495.074 -15.5298 0
493.678 -17.5925 0
494.945 -17.6688 0
496.082 -19.8843 0
498.616 -20.0376 0
498.874 -15.759 0
496.34 -15.6062 0
497.349 -19.9608 0
498.745 -17.8983 0
497.607 -15.6826 0
496.211 -17.7453 0
497.478 -17.8217 0
0 4.28571 0
2.5321 4.28404 0
2.5346 8.57108 0
0 8.57143 0
1.26614 4.28511 0
2.5334 6.42772 0
1.26735 8.57154 0
0 6.42857 0
1.26673 6.42839 0
2.5321 4.28404 0
5.06371 4.28087 0
5.06893 8.56875 0
2.5346 8.57108 0
3.79794 4.2826 0
5.06641 6.425 0
3.80178 8.57014 0
2.5334 6.42772 0
3.79994 6.42657 0
5.06371 4.28087 0
7.59526 4.27651 0
7.6031 8.56472 0
5.06893 8.56875 0
6.32949 4.27884 0
7.59926 6.42079 0
6.33603 8.56694 0
5.06641 6.425 0
6.33284 6.42307 0
7.59526 4.27651 0
10.1268 4.27083 0
10.1372 8.55914 0
7.6031 8.56472 0
8.86105 4.27384 0
10.1321 6.41515 0
8.87017 8.56212 0
7.59926 6.42079 0
8.86568 6.41815 0
10.1268 4.27083 0
12.6585 4.26374 0
12.6714 8.55205 0
10.1372 8.55914 0
11.3927 4.26746 0
12.665 6.40805 0
11.4043 8.55578 0
10.1321 6.41515 0
11.3985 6.41178 0
12.6585 4.26374 0
15.1902 4.25518 0
15.2056 8.54346 0
12.6714 8.55205 0
13.9243 4.25964 0
15.1979 6.39948 0
13.9385 8.54794 0
12.665 6.40805 0
13.9314 6.40395 0
15.1902 4.25518 0
17.7219 4.24513 0
17.7398 8.53338 0
15.2056 8.54346 0
16.456 4.25034 0
17.7309 6.38941 0
16.4727 8.5386 0
15.1979 6.39948 0
16.4644 6.39463 0
17.7219 4.24513 0
20.2536 4.2336 0
20.274 8.52181 0
17.7398 8.53338 0
18.9877 4.23955 0
20.2638 6.37786 0
19.0069 8.52778 0
17.7309 6.38941 0
18.9973 6.38382 0
20.2536 4.2336 0
22.7854 4.22058 0
22.8083 8.50876 0
20.274 8.52181 0
21.5195 4.22727 0
22.7969 6.36483 0
21.5412 8.51547 0
20.2638 6.37786 0
21.5303 6.37153 0
22.7854 4.22058 0
25.3172 4.20609 0
25.3426 8.49424 0
22.8083 8.50876 0
24.0513 4.21352 0
25.3299 6.35032 0
24.0754 8.50168 0
22.7969 6.36483 0
24.0634 6.35776 0
25.3172 4.20609 0
27.849 4.19013 0
27.8769 8.47824 0
25.3426 8.49424 0
26.5831 4.19829 0
27.8629 6.33434 0
26.6097 8.48642 0
25.3299 6.35032 0
26.5964 6.34251 0
27.849 4.19013 0
30.3808 4.17271 0
30.4112 8.46079 0
27.8769 8.47824 0
29.1149 4.1816 0
30.396 6.3169 0
29.144 8.4697 0
27.8629 6.33434 0
29.1295 6.3258 0
30.3808 4.17271 0
32.9127 4.15383 0
32.9455 8.44188 0
30.4112 8.46079 0
31.6467 4.16345 0
32.9291 6.29801 0
31.6783 8.45152 0
30.396 6.3169 0
31.6626 6.30764 0
32.9127 4.15383 0
35.4446 4.13351 0
35.4798 8.42153 0
32.9455 8.44188 0
34.1786 4.14385 0
35.4622 6.27768 0
34.2126 8.43189 0
32.9291 6.29801 0
34.1957 6.28803 0
35.4446 4.13351 0
37.9765 4.11176 0
38.0141 8.39974 0
35.4798 8.42153 0
36.7105 4.12282 0
37.9953 6.25591 0
36.747 8.41082 0
35.4622 6.27768 0
36.7288 6.26697 0
37.9765 4.11176 0
40.5084 4.08858 0
40.5485 8.37653 0
38.0141 8.39974 0
39.2424 4.10035 0
40.5285 6.2327 0
39.2813 8.38831 0
37.9953 6.25591 0
39.2619 6.24448 0
40.5084 4.08858 0
43.0404 4.06397 0
43.0828 8.35189 0
40.5485 8.37653 0
41.7744 4.07645 0
43.0616 6.20808 0
41.8156 8.36439 0
40.5285 6.2327 0
41.795 6.22057 0
43.0404 4.06397 0
45.5723 4.03796 0
45.6172 8.32584 0
43.0828 8.35189 0
44.3063 4.05114 0
45.5948 6.18205 0
44.35 8.33904 0
43.0616 6.20808 0
44.3282 6.19524 0
45.5723 4.03796 0
48.1043 4.01054 0
48.1515 8.29838 0
45.6172 8.32584 0
46.8383 4.02443 0
48.1279 6.15461 0
46.8844 8.31228 0
45.5948 6.18205 0
46.8614 6.1685 0
48.1043 4.01054 0
50.6363 3.98172 0
50.6859 8.26952 0
48.1515 8.29838 0
49.3703 3.99631 0
50.6611 6.12577 0
49.4187 8.28412 0
48.1279 6.15461 0
49.3945 6.14036 0
50.6363 3.98172 0
53.1683 3.95152 0
53.2203 8.23928 0
50.6859 8.26952 0
51.9023 3.9668 0
53.1943 6.09555 0
51.9531 8.25457 0
50.6611 6.12577 0
51.9277 6.11083 0
53.1683 3.95152 0
55.7004 3.91993 0
55.7546 8.20765 0
53.2203 8.23928 0
54.4343 3.9359 0
55.7275 6.06394 0
54.4874 8.22363 0
53.1943 6.09555 0
54.4609 6.07991 0
55.7004 3.91993 0
58.2324 3.88697 0
58.289 8.17464 0
55.7546 8.20765 0
56.9664 3.90362 0
58.2607 6.03096 0
57.0218 8.19132 0
55.7275 6.06394 0
56.9941 6.04762 0
58.2324 3.88697 0
60.7645 3.85265 0
60.8234 8.14027 0
58.289 8.17464 0
59.4985 3.86998 0
60.794 5.99661 0
59.5562 8.15763 0
58.2607 6.03096 0
59.5273 6.01395 0
60.7645 3.85265 0
63.2966 3.81697 0
63.3578 8.10455 0
60.8234 8.14027 0
62.0305 3.83498 0
63.3272 5.9609 0
62.0906 8.12258 0
60.794 5.99661 0
62.0606 5.97892 0
63.2966 3.81697 0
65.8287 3.77993 0
65.8921 8.06747 0
63.3578 8.10455 0
64.5626 3.79862 0
65.8604 5.92384 0
64.6249 8.08618 0
63.3272 5.9609 0
64.5938 5.94254 0
65.8287 3.77993 0
68.3608 3.74156 0
68.4265 8.02905 0
65.8921 8.06747 0
67.0947 3.76091 0
68.3937 5.88545 0
67.1593 8.04842 0
65.8604 5.92384 0
67.127 5.90481 0
68.3608 3.74156 0
70.8929 3.70185 0
70.9609 7.98929 0
68.4265 8.02905 0
69.6268 3.72187 0
70.9269 5.84571 0
69.6937 8.00933 0
68.3937 5.88545 0
69.6603 5.86575 0
70.8929 3.70185 0
73.425 3.66082 0
73.4953 7.9482 0
70.9609 7.98929 0
72.159 3.6815 0
73.4602 5.80465 0
72.2281 7.96891 0
70.9269 5.84571 0
72.1935 5.82535 0
73.425 3.66082 0
75.9572 3.61846 0
76.0296 7.9058 0
73.4953 7.9482 0
74.6911 3.6398 0
75.9934 5.76227 0
74.7624 7.92717 0
73.4602 5.80465 0
74.7268 5.78363 0
75.9572 3.61846 0
78.4894 3.5748 0
78.564 7.86209 0
76.0296 7.9058 0
77.2233 3.59679 0
78.5267 5.71858 0
77.2968 7.88411 0
75.9934 5.76227 0
77.2601 5.74059 0
78.4894 3.5748 0
81.0215 3.52983 0
81.0984 7.81707 0
78.564 7.86209 0
79.7554 3.55248 0
81.06 5.67359 0
79.8312 7.83974 0
78.5267 5.71858 0
79.7933 5.69625 0
81.0215 3.52983 0
83.5537 3.48357 0
83.6327 7.77075 0
81.0984 7.81707 0
82.2876 3.50686 0
83.5932 5.6273 0
82.3655 7.79407 0
81.06 5.67359 0
82.3266 5.6506 0
83.5537 3.48357 0
86.0859 3.43602 0
86.1671 7.72315 0
83.6327 7.77075 0
84.8198 3.45996 0
86.1265 5.57972 0
84.8999 7.74711 0
83.5932 5.6273 0
84.8599 5.60367 0
86.0859 3.43602 0
88.6181 3.38719 0
88.7014 7.67427 0
86.1671 7.72315 0
87.352 3.41177 0
88.6598 5.53087 0
87.4343 7.69887 0
86.1265 5.57972 0
87.3932 5.55545 0
88.6181 3.38719 0
91.1503 3.33709 0
91.2358 7.62411 0
88.7014 7.67427 0
89.8842 3.3623 0
91.1931 5.48074 0
89.9686 7.64935 0
88.6598 5.53087 0
89.9264 5.50596 0
91.1503 3.33709 0
93.6825 3.28573 0
93.7701 7.57269 0
91.2358 7.62411 0
92.4164 3.31157 0
93.7264 5.42934 0
92.503 7.59856 0
91.1931 5.48074 0
92.4597 5.4552 0
93.6825 3.28573 0
96.2147 3.23311 0
96.3045 7.52001 0
93.7701 7.57269 0
94.9486 3.25958 0
96.2596 5.3767 0
95.0373 7.54651 0
93.7264 5.42934 0
94.993 5.40318 0
96.2147 3.23311 0
98.747 3.17924 0
98.8388 7.46609 0
96.3045 7.52001 0
97.4809 3.20633 0
98.7929 5.3228 0
97.5717 7.49321 0
96.2596 5.3767 0
97.5263 5.3499 0
98.747 3.17924 0
101.279 3.12413 0
101.373 7.41092 0
98.8388 7.46609 0
100.013 3.15184 0
101.326 5.26766 0
100.106 7.43866 0
98.7929 5.3228 0
100.06 5.29538 0
101.279 3.12413 0
103.811 3.0678 0
103.907 7.35452 0
101.373 7.41092 0
102.545 3.09612 0
103.859 5.21129 0
102.64 7.38288 0
101.326 5.26766 0
102.593 5.23963 0
103.811 3.0678 0
106.344 3.01023 0
106.442 7.2969 0
103.907 7.35452 0
105.078 3.03917 0
106.393 5.15369 0
105.175 7.32586 0
103.859 5.21129 0
105.126 5.18264 0
106.344 3.01023 0
108.876 2.95145 0
108.976 7.23806 0
106.442 7.2969 0
107.61 2.98099 0
108.926 5.09488 0
107.709 7.26763 0
106.393 5.15369 0
107.659 5.12444 0
108.876 2.95145 0
111.408 2.89146 0
111.51 7.178 0
108.976 7.23806 0
110.142 2.92161 0
111.459 5.03486 0
110.243 7.20818 0
108.926 5.09488 0
110.193 5.06502 0
111.408 2.89146 0
113.94 2.83027 0
114.045 7.11675 0
111.51 7.178 0
112.674 2.86101 0
113.993 4.97364 0
112.778 7.14753 0
111.459 5.03486 0
112.726 5.0044 0
113.94 2.83027 0
116.473 2.76788 0
116.579 7.0543 0
114.045 7.11675 0
115.207 2.79923 0
116.526 4.91122 0
115.312 7.08568 0
113.993 4.97364 0
115.259 4.94258 0
116.473 2.76788 0
119.005 2.70431 0
119.113 6.99067 0
116.579 7.0543 0
117.739 2.73625 0
119.059 4.84762 0
117.846 7.02264 0
116.526 4.91122 0
117.793 4.87957 0
119.005 2.70431 0
121.537 2.63957 0
121.647 6.92586 0
119.113 6.99067 0
120.271 2.67209 0
121.592 4.78284 0
120.38 6.95841 0
119.059 4.84762 0
120.326 4.81538 0
121.537 2.63957 0
124.07 2.57365 0
124.182 6.85988 0
121.647 6.92586 0
122.803 2.60676 0
124.126 4.71689 0
122.915 6.89302 0
121.592 4.78284 0
122.859 4.75001 0
124.07 2.57365 0
126.602 2.50657 0
126.716 6.79274 0
124.182 6.85988 0
125.336 2.54026 0
126.659 4.64978 0
125.449 6.82645 0
124.126 4.71689 0
125.392 4.68348 0
126.602 2.50657 0
129.134 2.43834 0
129.25 6.72444 0
126.716 6.79274 0
127.868 2.4726 0
129.192 4.58151 0
127.983 6.75873 0
126.659 4.64978 0
127.926 4.61579 0
129.134 2.43834 0
131.666 2.36896 0
131.784 6.65499 0
129.25 6.72444 0
130.4 2.40379 0
131.725 4.5121 0
130.517 6.68986 0
129.192 4.58151 0
130.459 4.54695 0
131.666 2.36896 0
134.199 2.29844 0
134.319 6.58441 0
131.784 6.65499 0
132.933 2.33384 0
134.259 4.44155 0
133.052 6.61984 0
131.725 4.5121 0
132.992 4.47697 0
134.199 2.29844 0
136.731 2.2268 0
136.853 6.5127 0
134.319 6.58441 0
135.465 2.26276 0
136.792 4.36987 0
135.586 6.54869 0
134.259 4.44155 0
135.525 4.40585 0
136.731 2.2268 0
139.263 2.15403 0
139.387 6.43986 0
136.853 6.5127 0
137.997 2.19055 0
139.325 4.29706 0
138.12 6.47642 0
136.792 4.36987 0
138.059 4.3336 0
139.263 2.15403 0
141.796 2.08014 0
141.921 6.3659 0
139.387 6.43986 0
140.529 2.11722 0
141.858 4.22314 0
140.654 6.40302 0
139.325 4.29706 0
140.592 4.26024 0
141.796 2.08014 0
144.328 2.00515 0
144.455 6.29084 0
141.921 6.3659 0
143.062 2.04278 0
144.392 4.14811 0
143.188 6.32851 0
141.858 4.22314 0
143.125 4.18577 0
144.328 2.00515 0
146.86 1.92906 0
146.989 6.21468 0
144.455 6.29084 0
145.594 1.96724 0
146.925 4.07199 0
145.722 6.2529 0
144.392 4.14811 0
145.658 4.11019 0
146.86 1.92906 0
149.392 1.85188 0
149.524 6.13743 0
146.989 6.21468 0
148.126 1.8906 0
149.458 3.99477 0
148.257 6.17619 0
146.925 4.07199 0
148.191 4.03351 0
149.392 1.85188 0
151.925 1.77361 0
152.058 6.0591 0
149.524 6.13743 0
150.659 1.81288 0
151.991 3.91647 0
150.791 6.0984 0
149.458 3.99477 0
150.725 3.95575 0
151.925 1.77361 0
154.457 1.69427 0
154.592 5.97969 0
152.058 6.0591 0
153.191 1.73407 0
154.524 3.83709 0
153.325 6.01952 0
151.991 3.91647 0
153.258 3.87691 0
154.457 1.69427 0
156.989 1.61386 0
157.126 5.89921 0
154.592 5.97969 0
155.723 1.6542 0
157.058 3.75665 0
155.859 5.93958 0
154.524 3.83709 0
155.791 3.797 0
156.989 1.61386 0
159.522 1.53239 0
159.66 5.81767 0
157.126 5.89921 0
158.255 1.57326 0
159.591 3.67514 0
158.393 5.85857 0
157.058 3.75665 0
158.324 3.71602 0
159.522 1.53239 0
162.054 1.44987 0
162.194 5.73507 0
159.66 5.81767 0
160.788 1.49126 0
162.124 3.59258 0
160.927 5.7765 0
159.591 3.67514 0
160.857 3.63399 0
162.054 1.44987 0
164.586 1.3663 0
164.728 5.65144 0
162.194 5.73507 0
163.32 1.40822 0
164.657 3.50898 0
163.461 5.69338 0
162.124 3.59258 0
163.391 3.55091 0
164.586 1.3663 0
167.119 1.2817 0
167.262 5.56676 0
164.728 5.65144 0
165.852 1.32413 0
167.19 3.42434 0
165.995 5.60923 0
164.657 3.50898 0
165.924 3.46679 0
167.119 1.2817 0
169.651 1.19607 0
169.796 5.48106 0
167.262 5.56676 0
168.385 1.23901 0
169.724 3.33867 0
168.529 5.52404 0
167.19 3.42434 0
168.457 3.38164 0
169.651 1.19607 0
172.183 1.10942 0
172.33 5.39434 0
169.796 5.48106 0
170.917 1.15287 0
172.257 3.25198 0
171.063 5.43782 0
169.724 3.33867 0
170.99 3.29546 0
172.183 1.10942 0
174.715 1.02175 0
174.864 5.3066 0
172.33 5.39434 0
173.449 1.06571 0
174.79 3.16428 0
173.597 5.35059 0
172.257 3.25198 0
173.523 3.20826 0
174.715 1.02175 0
177.248 0.933084 0
177.398 5.21786 0
174.864 5.3066 0
175.982 0.977544 0
177.323 3.07558 0
176.131 5.26235 0
174.79 3.16428 0
176.056 3.12006 0
177.248 0.933084 0
179.78 0.843417 0
179.932 5.12812 0
177.398 5.21786 0
178.514 0.888375 0
179.856 2.98587 0
178.665 5.17311 0
177.323 3.07558 0
178.59 3.03085 0
179.78 0.843417 0
182.312 0.75276 0
182.466 5.03739 0
179.932 5.12812 0
181.046 0.798212 0
182.389 2.89518 0
181.199 5.08288 0
179.856 2.98587 0
181.123 2.94065 0
182.312 0.75276 0
184.845 0.661122 0
185 4.94568 0
182.466 5.03739 0
183.578 0.707064 0
184.922 2.8035 0
183.733 4.99165 0
182.389 2.89518 0
183.656 2.84946 0
184.845 0.661122 0
187.377 0.568511 0
187.534 4.85299 0
185 4.94568 0
186.111 0.614938 0
187.455 2.71085 0
186.267 4.89946 0
184.922 2.8035 0
186.189 2.7573 0
187.377 0.568511 0
189.909 0.474933 0
190.068 4.75934 0
187.534 4.85299 0
188.643 0.521842 0
189.988 2.61724 0
188.801 4.80629 0
187.455 2.71085 0
188.722 2.66417 0
189.909 0.474933 0
192.441 0.380397 0
192.602 4.66473 0
190.068 4.75934 0
191.175 0.427784 0
192.522 2.52267 0
191.335 4.71216 0
189.988 2.61724 0
191.255 2.57007 0
192.441 0.380397 0
194.974 0.284911 0
195.136 4.56917 0
192.602 4.66473 0
193.707 0.332773 0
195.055 2.42714 0
193.869 4.61707 0
192.522 2.52267 0
193.788 2.47502 0
194.974 0.284911 0
197.506 0.188483 0
197.669 4.47267 0
195.136 4.56917 0
196.24 0.236814 0
197.588 2.33068 0
196.402 4.52104 0
195.055 2.42714 0
196.321 2.37903 0
197.506 0.188483 0
200.038 0.0911198 0
200.203 4.37523 0
197.669 4.47267 0
198.772 0.139918 0
200.121 2.23328 0
198.936 4.42407 0
197.588 2.33068 0
198.854 2.28209 0
200.038 0.0911198 0
202.57 -0.00717 0
202.737 4.27687 0
200.203 4.37523 0
201.304 0.0420902 0
202.654 2.13495 0
201.47 4.32617 0
200.121 2.23328 0
201.387 2.18423 0
202.57 -0.00717 0
205.103 -0.106379 0
205.271 4.17759 0
202.737 4.27687 0
203.837 -0.05666 0
205.187 2.0357 0
204.004 4.22734 0
202.654 2.13495 0
203.92 2.08544 0
205.103 -0.106379 0
207.635 -0.206498 0
207.805 4.07739 0
205.271 4.17759 0
206.369 -0.156325 0
207.72 1.93554 0
206.538 4.1276 0
205.187 2.0357 0
206.453 1.98574 0
207.635 -0.206498 0
210.167 -0.307521 0
210.338 3.9763 0
207.805 4.07739 0
208.901 -0.256897 0
210.253 1.83448 0
209.072 4.02696 0
207.72 1.93554 0
208.986 1.88513 0
210.167 -0.307521 0
212.699 -0.40944 0
212.872 3.87431 0
210.338 3.9763 0
211.433 -0.358369 0
212.786 1.73253 0
211.605 3.92541 0
210.253 1.83448 0
211.519 1.78362 0
212.699 -0.40944 0
215.232 -0.512246 0
215.406 3.77143 0
212.872 3.87431 0
213.966 -0.460732 0
215.319 1.62968 0
214.139 3.82298 0
212.786 1.73253 0
214.052 1.68122 0
215.232 -0.512246 0
217.764 -0.615931 0
217.94 3.66767 0
215.406 3.77143 0
216.498 -0.563979 0
217.852 1.52596 0
216.673 3.71966 0
215.319 1.62968 0
216.585 1.57793 0
217.764 -0.615931 0
220.296 -0.720489 0
220.473 3.56303 0
217.94 3.66767 0
219.03 -0.668101 0
220.385 1.42136 0
219.207 3.61546 0
217.852 1.52596 0
219.118 1.47377 0
220.296 -0.720489 0
222.828 -0.82591 0
223.007 3.45754 0
220.473 3.56303 0
221.562 -0.773092 0
222.918 1.31591 0
221.74 3.51039 0
220.385 1.42136 0
221.651 1.36874 0
222.828 -0.82591 0
225.361 -0.932188 0
225.541 3.35119 0
223.007 3.45754 0
224.095 -0.878943 0
225.451 1.20959 0
224.274 3.40447 0
222.918 1.31591 0
224.184 1.26285 0
225.361 -0.932188 0
227.893 -1.03931 0
228.074 3.24399 0
225.541 3.35119 0
226.627 -0.985645 0
227.984 1.10243 0
226.808 3.29769 0
225.451 1.20959 0
226.717 1.15611 0
227.893 -1.03931 0
230.425 -1.14728 0
230.608 3.13595 0
228.074 3.24399 0
229.159 -1.09319 0
230.517 0.994422 0
229.341 3.19007 0
227.984 1.10243 0
229.25 1.04853 0
230.425 -1.14728 0
232.957 -1.25608 0
233.142 3.02708 0
230.608 3.13595 0
231.691 -1.20158 0
233.05 0.885585 0
231.875 3.08162 0
230.517 0.994422 0
231.783 0.940107 0
232.957 -1.25608 0
235.49 -1.3657 0
235.675 2.91738 0
233.142 3.02708 0
234.223 -1.31079 0
235.582 0.775923 0
234.409 2.97233 0
233.05 0.885585 0
234.316 0.830857 0
235.49 -1.3657 0
238.022 -1.47615 0
238.209 2.80686 0
235.675 2.91738 0
236.756 -1.42082 0
238.115 0.665445 0
236.942 2.86222 0
235.582 0.775923 0
236.849 0.720786 0
238.022 -1.47615 0
240.554 -1.5874 0
240.743 2.69554 0
238.209 2.80686 0
239.288 -1.53167 0
240.648 0.554157 0
239.476 2.7513 0
238.115 0.665445 0
239.382 0.609902 0
240.554 -1.5874 0
243.086 -1.69945 0
243.276 2.58342 0
240.743 2.69554 0
241.82 -1.64332 0
243.181 0.442068 0
242.009 2.63958 0
240.648 0.554157 0
241.915 0.498212 0
243.086 -1.69945 0
245.619 -1.81229 0
245.81 2.4705 0
243.276 2.58342 0
244.352 -1.75577 0
245.714 0.329186 0
244.543 2.52706 0
243.181 0.442068 0
244.448 0.385725 0
245.619 -1.81229 0
248.151 -1.92592 0
248.343 2.35679 0
245.81 2.4705 0
246.885 -1.86901 0
248.247 0.215517 0
247.076 2.41374 0
245.714 0.329186 0
246.981 0.272449 0
248.151 -1.92592 0
250.683 -2.04033 0
250.877 2.24231 0
248.343 2.35679 0
249.417 -1.98303 0
250.78 0.101072 0
249.61 2.29965 0
248.247 0.215517 0
249.513 0.158391 0
250.683 -2.04033 0
253.215 -2.15551 0
253.41 2.12706 0
250.877 2.24231 0
251.949 -2.09783 0
253.313 -0.014144 0
252.143 2.18478 0
250.78 0.101072 0
252.046 0.0435596 0
253.215 -2.15551 0
255.747 -2.27145 0
255.944 2.01105 0
253.41 2.12706 0
254.481 -2.21339 0
255.846 -0.130122 0
254.677 2.06915 0
253.313 -0.014144 0
254.579 -0.0720381 0
255.747 -2.27145 0
258.28 -2.38815 0
258.477 1.89428 0
255.944 2.01105 0
257.014 -2.32971 0
258.378 -0.246854 0
257.21 1.95276 0
255.846 -0.130122 0
257.112 -0.188394 0
258.28 -2.38815 0
260.812 -2.50559 0
261.011 1.77677 0
258.477 1.89428 0
259.546 -2.44678 0
260.911 -0.364332 0
259.744 1.83562 0
258.378 -0.246854 0
259.645 -0.3055 0
260.812 -2.50559 0
263.344 -2.62377 0
263.544 1.65852 0
261.011 1.77677 0
262.078 -2.56459 0
263.444 -0.482549 0
262.277 1.71774 0
260.911 -0.364332 0
262.178 -0.423349 0
263.344 -2.62377 0
265.876 -2.74268 0
266.078 1.53954 0
263.544 1.65852 0
264.61 -2.68313 0
265.977 -0.601496 0
264.811 1.59912 0
263.444 -0.482549 0
264.711 -0.541932 0
265.876 -2.74268 0
268.408 -2.86232 0
268.611 1.41983 0
266.078 1.53954 0
267.142 -2.80241 0
268.51 -0.721167 0
267.344 1.47977 0
265.977 -0.601496 0
267.243 -0.661242 0
268.408 -2.86232 0
270.941 -2.98266 0
271.144 1.29941 0
268.611 1.41983 0
269.675 -2.9224 0
271.043 -0.841552 0
269.878 1.35971 0
268.51 -0.721167 0
269.776 -0.781271 0
270.941 -2.98266 0
273.473 -3.10372 0
273.678 1.17828 0
271.144 1.29941 0
272.207 -3.04311 0
273.575 -0.962645 0
272.411 1.23894 0
271.043 -0.841552 0
272.309 -0.90201 0
273.473 -3.10372 0
276.005 -3.22548 0
276.211 1.05646 0
273.678 1.17828 0
274.739 -3.16451 0
276.108 -1.08444 0
274.944 1.11746 0
273.575 -0.962645 0
274.842 -1.02345 0
276.005 -3.22548 0
278.537 -3.34793 0
278.745 0.933941 0
276.211 1.05646 0
277.271 -3.28662 0
278.641 -1.20692 0
277.478 0.995286 0
276.108 -1.08444 0
277.375 -1.14559 0
278.537 -3.34793 0
281.07 -3.47106 0
281.278 0.810741 0
278.745 0.933941 0
279.803 -3.40941 0
281.174 -1.33009 0
280.011 0.872426 0
278.641 -1.20692 0
279.907 -1.26842 0
281.07 -3.47106 0
283.602 -3.59486 0
283.811 0.686864 0
281.278 0.810741 0
282.336 -3.53288 0
283.707 -1.45393 0
282.545 0.748887 0
281.174 -1.33009 0
282.44 -1.39192 0
283.602 -3.59486 0
286.134 -3.71934 0
286.345 0.56232 0
283.811 0.686864 0
284.868 -3.65702 0
286.239 -1.57844 0
285.078 0.624675 0
283.707 -1.45393 0
284.973 -1.5161 0
286.134 -3.71934 0
288.666 -3.84448 0
288.878 0.437116 0
286.345 0.56232 0
287.4 -3.78183 0
288.772 -1.70361 0
287.611 0.4998 0
286.239 -1.57844 0
287.506 -1.64094 0
288.666 -3.84448 0
291.198 -3.97026 0
291.411 0.31126 0
288.878 0.437116 0
289.932 -3.90729 0
291.305 -1.82943 0
290.145 0.374269 0
288.772 -1.70361 0
290.038 -1.76644 0
291.198 -3.97026 0
293.731 -4.0967 0
293.945 0.18476 0
291.411 0.31126 0
292.464 -4.0334 0
293.838 -1.9559 0
292.678 0.24809 0
291.305 -1.82943 0
292.571 -1.89259 0
293.731 -4.0967 0
296.263 -4.22377 0
296.478 0.0576232 0
293.945 0.18476 0
294.997 -4.16015 0
296.37 -2.08301 0
295.211 0.121271 0
293.838 -1.9559 0
295.104 -2.01937 0
296.263 -4.22377 0
298.795 -4.35147 0
299.011 -0.0701421 0
296.478 0.0576232 0
297.529 -4.28754 0
298.903 -2.21074 0
297.744 -0.00618139 0
296.37 -2.08301 0
297.637 -2.14679 0
298.795 -4.35147 0
301.327 -4.47979 0
301.544 -0.198528 0
299.011 -0.0701421 0
300.061 -4.41555 0
301.436 -2.33909 0
300.278 -0.134258 0
298.903 -2.21074 0
300.169 -2.27484 0
301.327 -4.47979 0
303.859 -4.60872 0
304.078 -0.327527 0
301.544 -0.198528 0
302.593 -4.54418 0
303.969 -2.46806 0
302.811 -0.262951 0
301.436 -2.33909 0
302.702 -2.4035 0
303.859 -4.60872 0
306.392 -4.73826 0
306.611 -0.457131 0
304.078 -0.327527 0
305.126 -4.67341 0
306.501 -2.59763 0
305.344 -0.392254 0
303.969 -2.46806 0
305.235 -2.53277 0
306.392 -4.73826 0
308.924 -4.86839 0
309.144 -0.587332 0
306.611 -0.457131 0
307.658 -4.80325 0
309.034 -2.7278 0
307.877 -0.522157 0
306.501 -2.59763 0
307.768 -2.66264 0
308.924 -4.86839 0
311.456 -4.99912 0
311.677 -0.718122 0
309.144 -0.587332 0
310.19 -4.93368 0
311.567 -2.85856 0
310.411 -0.652654 0
309.034 -2.7278 0
310.3 -2.79311 0
311.456 -4.99912 0
313.988 -5.13043 0
314.21 -0.849494 0
311.677 -0.718122 0
312.722 -5.0647 0
314.099 -2.9899 0
312.944 -0.783736 0
311.567 -2.85856 0
312.833 -2.92416 0
313.988 -5.13043 0
316.521 -5.26231 0
316.744 -0.98144 0
314.21 -0.849494 0
315.254 -5.1963 0
316.632 -3.12182 0
315.477 -0.915396 0
314.099 -2.9899 0
315.366 -3.05579 0
316.521 -5.26231 0
319.053 -5.39476 0
319.277 -1.11395 0
316.744 -0.98144 0
317.787 -5.32847 0
319.165 -3.2543 0
318.01 -1.04763 0
316.632 -3.12182 0
317.899 -3.18799 0
319.053 -5.39476 0
321.585 -5.52777 0
321.81 -1.24702 0
319.277 -1.11395 0
320.319 -5.46119 0
321.698 -3.38734 0
320.543 -1.18042 0
319.165 -3.2543 0
320.431 -3.32075 0
321.585 -5.52777 0
324.117 -5.66132 0
324.343 -1.38064 0
321.81 -1.24702 0
322.851 -5.59448 0
324.23 -3.52092 0
323.077 -1.31376 0
321.698 -3.38734 0
322.964 -3.45406 0
324.117 -5.66132 0
326.65 -5.79542 0
326.876 -1.5148 0
324.343 -1.38064 0
325.383 -5.72831 0
326.763 -3.65506 0
325.61 -1.44765 0
324.23 -3.52092 0
325.497 -3.58792 0
326.65 -5.79542 0
329.182 -5.93006 0
329.409 -1.6495 0
326.876 -1.5148 0
327.916 -5.86268 0
329.296 -3.78972 0
328.143 -1.58208 0
326.763 -3.65506 0
328.029 -3.72232 0
329.182 -5.93006 0
331.714 -6.06522 0
331.943 -1.78472 0
329.409 -1.6495 0
330.448 -5.99758 0
331.828 -3.92492 0
330.676 -1.71704 0
329.296 -3.78972 0
330.562 -3.85725 0
331.714 -6.06522 0
334.246 -6.2009 0
334.476 -1.92046 0
331.943 -1.78472 0
332.98 -6.133 0
334.361 -4.06063 0
333.209 -1.85253 0
331.828 -3.92492 0
333.095 -3.99271 0
334.246 -6.2009 0
336.779 -6.3371 0
337.009 -2.05671 0
334.476 -1.92046 0
335.513 -6.26894 0
336.894 -4.19685 0
335.742 -1.98852 0
334.361 -4.06063 0
335.627 -4.12868 0
336.779 -6.3371 0
339.311 -6.47379 0
339.542 -2.19347 0
337.009 -2.05671 0
338.045 -6.40538 0
339.427 -4.33358 0
338.275 -2.12503 0
336.894 -4.19685 0
338.16 -4.26515 0
339.311 -6.47379 0
341.843 -6.61098 0
342.075 -2.33072 0
339.542 -2.19347 0
340.577 -6.54233 0
341.959 -4.4708 0
340.809 -2.26203 0
339.427 -4.33358 0
340.693 -4.40213 0
341.843 -6.61098 0
344.376 -6.74867 0
344.608 -2.46846 0
342.075 -2.33072 0
343.109 -6.67976 0
344.492 -4.60851 0
343.342 -2.39953 0
341.959 -4.4708 0
343.226 -4.5396 0
344.376 -6.74867 0
346.908 -6.88683 0
347.141 -2.60667 0
344.608 -2.46846 0
345.642 -6.81769 0
347.025 -4.7467 0
345.875 -2.53751 0
344.492 -4.60851 0
345.758 -4.67755 0
346.908 -6.88683 0
349.44 -7.02546 0
349.674 -2.74536 0
347.141 -2.60667 0
348.174 -6.95608 0
349.557 -4.88536 0
348.408 -2.67596 0
347.025 -4.7467 0
348.291 -4.81597 0
349.44 -7.02546 0
351.972 -7.16456 0
352.208 -2.88452 0
349.674 -2.74536 0
350.706 -7.09495 0
352.09 -5.02449 0
350.941 -2.81488 0
349.557 -4.88536 0
350.824 -4.95487 0
351.972 -7.16456 0
354.505 -7.30411 0
354.741 -3.02413 0
352.208 -2.88452 0
353.239 -7.23428 0
354.623 -5.16407 0
353.474 -2.95426 0
352.09 -5.02449 0
353.356 -5.09422 0
354.505 -7.30411 0
357.037 -7.44411 0
357.274 -3.16418 0
354.741 -3.02413 0
355.771 -7.37405 0
357.155 -5.3041 0
356.007 -3.0941 0
354.623 -5.16407 0
355.889 -5.23403 0
357.037 -7.44411 0
359.569 -7.58455 0
359.807 -3.30468 0
357.274 -3.16418 0
358.303 -7.51428 0
359.688 -5.44457 0
358.54 -3.23438 0
357.155 -5.3041 0
358.422 -5.37428 0
359.569 -7.58455 0
362.102 -7.72543 0
362.34 -3.44561 0
359.807 -3.30468 0
360.836 -7.65494 0
362.221 -5.58548 0
361.073 -3.37509 0
359.688 -5.44457 0
360.955 -5.51497 0
362.102 -7.72543 0
364.634 -7.86673 0
364.873 -3.58696 0
362.34 -3.44561 0
363.368 -7.79603 0
364.754 -5.7268 0
363.606 -3.51623 0
362.221 -5.58548 0
363.487 -5.65609 0
364.634 -7.86673 0
367.167 -8.00845 0
367.406 -3.72874 0
364.873 -3.58696 0
365.9 -7.93754 0
367.286 -5.86855 0
366.139 -3.6578 0
364.754 -5.7268 0
366.02 -5.79763 0
367.167 -8.00845 0
369.699 -8.15058 0
369.939 -3.87092 0
367.406 -3.72874 0
368.433 -8.07946 0
369.819 -6.01071 0
368.673 -3.79977 0
367.286 -5.86855 0
368.553 -5.93958 0
369.699 -8.15058 0
372.231 -8.29311 0
372.472 -4.0135 0
369.939 -3.87092 0
370.965 -8.2218 0
372.352 -6.15326 0
371.206 -3.94216 0
369.819 -6.01071 0
371.085 -6.08193 0
372.231 -8.29311 0
374.764 -8.43603 0
375.005 -4.15647 0
372.472 -4.0135 0
373.498 -8.36452 0
374.884 -6.29621 0
373.739 -4.08494 0
372.352 -6.15326 0
373.618 -6.22469 0
374.764 -8.43603 0
377.296 -8.57934 0
377.538 -4.29983 0
375.005 -4.15647 0
376.03 -8.50764 0
377.417 -6.43955 0
376.272 -4.2281 0
374.884 -6.29621 0
376.151 -6.36783 0
377.296 -8.57934 0
379.829 -8.72303 0
380.071 -4.44357 0
377.538 -4.29983 0
378.562 -8.65114 0
379.95 -6.58326 0
378.805 -4.37165 0
377.417 -6.43955 0
378.684 -6.51136 0
379.829 -8.72303 0
382.361 -8.86709 0
382.604 -4.58768 0
380.071 -4.44357 0
381.095 -8.79502 0
382.483 -6.72735 0
381.338 -4.51558 0
379.95 -6.58326 0
381.216 -6.65526 0
382.361 -8.86709 0
384.893 -9.01151 0
385.137 -4.73215 0
382.604 -4.58768 0
383.627 -8.93926 0
385.015 -6.87179 0
383.871 -4.65987 0
382.483 -6.72735 0
383.749 -6.79952 0
384.893 -9.01151 0
387.426 -9.15629 0
387.67 -4.87697 0
385.137 -4.73215 0
386.16 -9.08386 0
387.548 -7.01659 0
386.404 -4.80451 0
385.015 -6.87179 0
386.282 -6.94415 0
387.426 -9.15629 0
389.958 -9.30141 0
390.204 -5.02214 0
387.67 -4.87697 0
388.692 -9.22881 0
390.081 -7.16174 0
388.937 -4.94951 0
387.548 -7.01659 0
388.815 -7.08912 0
389.958 -9.30141 0
392.491 -9.44687 0
392.737 -5.16765 0
390.204 -5.02214 0
391.225 -9.3741 0
392.614 -7.30723 0
391.47 -5.09485 0
390.081 -7.16174 0
391.347 -7.23444 0
392.491 -9.44687 0
395.023 -9.59267 0
395.27 -5.31348 0
392.737 -5.16765 0
393.757 -9.51973 0
395.147 -7.45304 0
394.003 -5.24052 0
392.614 -7.30723 0
393.88 -7.38009 0
395.023 -9.59267 0
397.556 -9.73878 0
397.803 -5.45965 0
395.27 -5.31348 0
396.29 -9.66569 0
397.679 -7.59918 0
396.536 -5.38652 0
395.147 -7.45304 0
396.413 -7.52607 0
397.556 -9.73878 0
400.088 -9.88522 0
400.336 -5.60612 0
397.803 -5.45965 0
398.822 -9.81196 0
400.212 -7.74564 0
399.069 -5.53284 0
397.679 -7.59918 0
398.946 -7.67237 0
400.088 -9.88522 0
402.621 -10.032 0
402.869 -5.7529 0
400.336 -5.60612 0
401.355 -9.95855 0
402.745 -7.8924 0
401.602 -5.67947 0
400.212 -7.74564 0
401.479 -7.81898 0
402.621 -10.032 0
405.154 -10.179 0
405.402 -5.89999 0
402.869 -5.7529 0
403.887 -10.1054 0
405.278 -8.03946 0
404.135 -5.82641 0
402.745 -7.8924 0
404.011 -7.96589 0
405.154 -10.179 0
407.686 -10.3263 0
407.935 -6.04736 0
405.402 -5.89999 0
406.42 -10.2526 0
407.811 -8.18681 0
406.668 -5.97364 0
405.278 -8.03946 0
406.544 -8.1131 0
407.686 -10.3263 0
410.219 -10.4739 0
410.468 -6.19502 0
407.935 -6.04736 0
408.952 -10.4001 0
410.343 -8.33445 0
409.201 -6.12115 0
407.811 -8.18681 0
409.077 -8.2606 0
410.219 -10.4739 0
412.751 -10.6218 0
413.001 -6.34295 0
410.468 -6.19502 0
411.485 -10.5479 0
412.876 -8.48237 0
411.735 -6.26895 0
410.343 -8.33445 0
411.61 -8.40837 0
412.751 -10.6218 0
415.284 -10.77 0
415.534 -6.49115 0
413.001 -6.34295 0
414.018 -10.6959 0
415.409 -8.63055 0
414.268 -6.41702 0
412.876 -8.48237 0
414.143 -8.55642 0
415.284 -10.77 0
417.817 -10.9184 0
418.067 -6.63961 0
415.534 -6.49115 0
416.55 -10.8442 0
417.942 -8.77899 0
416.801 -6.56535 0
415.409 -8.63055 0
416.676 -8.70474 0
417.817 -10.9184 0
420.349 -11.0671 0
420.6 -6.78832 0
418.067 -6.63961 0
419.083 -10.9927 0
420.475 -8.92768 0
419.334 -6.71393 0
417.942 -8.77899 0
419.208 -8.85331 0
420.349 -11.0671 0
422.882 -11.216 0
423.133 -6.93728 0
420.6 -6.78832 0
421.616 -11.1415 0
423.008 -9.07662 0
421.867 -6.86277 0
420.475 -8.92768 0
421.741 -9.00212 0
422.882 -11.216 0
425.415 -11.3652 0
425.667 -7.08647 0
423.133 -6.93728 0
424.148 -11.2906 0
425.541 -9.2258 0
424.4 -7.01185 0
423.008 -9.07662 0
424.274 -9.15118 0
425.415 -11.3652 0
427.947 -11.5146 0
428.2 -7.23589 0
425.667 -7.08647 0
426.681 -11.4398 0
428.074 -9.3752 0
426.933 -7.16115 0
425.541 -9.2258 0
426.807 -9.30047 0
427.947 -11.5146 0
430.48 -11.6642 0
430.733 -7.38554 0
428.2 -7.23589 0
429.214 -11.5893 0
430.606 -9.52483 0
429.466 -7.31069 0
428.074 -9.3752 0
429.34 -9.44999 0
430.48 -11.6642 0
433.013 -11.814 0
433.266 -7.53539 0
430.733 -7.38554 0
431.747 -11.739 0
433.139 -9.67467 0
431.999 -7.46044 0
430.606 -9.52483 0
431.873 -9.59972 0
433.013 -11.814 0
435.546 -11.964 0
435.799 -7.68545 0
433.266 -7.53539 0
434.279 -11.889 0
435.672 -9.82471 0
434.532 -7.6104 0
433.139 -9.67467 0
434.406 -9.74967 0
435.546 -11.964 0
438.079 -12.1142 0
438.332 -7.83571 0
435.799 -7.68545 0
436.812 -12.0391 0
438.205 -9.97495 0
437.066 -7.76056 0
435.672 -9.82471 0
436.939 -9.89981 0
438.079 -12.1142 0
440.611 -12.2647 0
440.865 -7.98616 0
438.332 -7.83571 0
439.345 -12.1894 0
440.738 -10.1254 0
439.599 -7.91091 0
438.205 -9.97495 0
439.472 -10.0501 0
440.611 -12.2647 0
443.144 -12.4153 0
443.398 -8.13679 0
440.865 -7.98616 0
441.878 -12.3399 0
443.271 -10.276 0
442.132 -8.06145 0
440.738 -10.1254 0
442.005 -10.2007 0
443.144 -12.4153 0
445.677 -12.566 0
445.932 -8.28759 0
443.398 -8.13679 0
444.411 -12.4906 0
445.804 -10.4268 0
444.665 -8.21217 0
443.271 -10.276 0
444.538 -10.3514 0
445.677 -12.566 0
448.21 -12.717 0
448.465 -8.43856 0
445.932 -8.28759 0
446.944 -12.6415 0
448.337 -10.5777 0
447.198 -8.36305 0
445.804 -10.4268 0
447.071 -10.5022 0
448.21 -12.717 0
450.743 -12.8681 0
450.998 -8.58968 0
448.465 -8.43856 0
449.477 -12.7925 0
450.87 -10.7289 0
449.731 -8.5141 0
448.337 -10.5777 0
449.604 -10.6533 0
450.743 -12.8681 0
453.276 -13.0193 0
453.531 -8.74096 0
450.998 -8.58968 0
452.009 -12.9437 0
453.404 -10.8801 0
452.265 -8.6653 0
450.87 -10.7289 0
452.137 -10.8045 0
453.276 -13.0193 0
455.809 -13.1707 0
456.064 -8.89238 0
453.531 -8.74096 0
454.542 -13.095 0
455.937 -11.0315 0
454.798 -8.81665 0
453.404 -10.8801 0
454.67 -10.9558 0
455.809 -13.1707 0
458.342 -13.3222 0
458.598 -9.04393 0
456.064 -8.89238 0
457.075 -13.2464 0
458.47 -11.1831 0
457.331 -8.96814 0
455.937 -11.0315 0
457.203 -11.1073 0
458.342 -13.3222 0
460.875 -13.4739 0
461.131 -9.19561 0
458.598 -9.04393 0
459.608 -13.398 0
461.003 -11.3347 0
459.864 -9.11976 0
458.47 -11.1831 0
459.736 -11.2589 0
460.875 -13.4739 0
463.408 -13.6257 0
463.664 -9.34741 0
461.131 -9.19561 0
462.141 -13.5498 0
463.536 -11.4865 0
462.397 -9.2715 0
461.003 -11.3347 0
462.269 -11.4106 0
463.408 -13.6257 0
465.941 -13.7775 0
466.197 -9.49932 0
463.664 -9.34741 0
464.675 -13.7016 0
466.069 -11.6384 0
464.931 -9.42335 0
463.536 -11.4865 0
464.803 -11.5625 0
465.941 -13.7775 0
468.474 -13.9295 0
468.731 -9.65133 0
466.197 -9.49932 0
467.208 -13.8535 0
468.602 -11.7904 0
467.464 -9.57531 0
466.069 -11.6384 0
467.336 -11.7144 0
468.474 -13.9295 0
471.007 -14.0816 0
471.264 -9.80344 0
468.731 -9.65133 0
469.741 -14.0056 0
471.136 -11.9425 0
469.997 -9.72738 0
468.602 -11.7904 0
469.869 -11.8665 0
471.007 -14.0816 0
473.54 -14.2338 0
473.797 -9.95564 0
471.264 -9.80344 0
472.274 -14.1577 0
473.669 -12.0947 0
472.53 -9.87953 0
471.136 -11.9425 0
472.402 -12.0186 0
473.54 -14.2338 0
476.074 -14.386 0
476.33 -10.1079 0
473.797 -9.95564 0
474.807 -14.3099 0
476.202 -12.247 0
475.064 -10.0318 0
473.669 -12.0947 0
474.935 -12.1708 0
476.074 -14.386 0
478.607 -14.5384 0
478.864 -10.2603 0
476.33 -10.1079 0
477.34 -14.4622 0
478.735 -12.3993 0
477.597 -10.1841 0
476.202 -12.247 0
477.469 -12.3231 0
478.607 -14.5384 0
481.14 -14.6908 0
481.397 -10.4127 0
478.864 -10.2603 0
479.873 -14.6146 0
481.269 -12.5517 0
480.13 -10.3365 0
478.735 -12.3993 0
480.002 -12.4755 0
481.14 -14.6908 0
483.673 -14.8432 0
483.931 -10.5651 0
481.397 -10.4127 0
482.407 -14.767 0
483.802 -12.7042 0
482.664 -10.4889 0
481.269 -12.5517 0
482.535 -12.6279 0
483.673 -14.8432 0
486.207 -14.9957 0
486.464 -10.7177 0
483.931 -10.5651 0
484.94 -14.9194 0
486.335 -12.8567 0
485.197 -10.6414 0
483.802 -12.7042 0
485.069 -12.7804 0
486.207 -14.9957 0
488.74 -15.1482 0
488.997 -10.8702 0
486.464 -10.7177 0
487.473 -15.072 0
488.869 -13.0092 0
487.731 -10.7939 0
486.335 -12.8567 0
487.602 -12.933 0
488.74 -15.1482 0
491.273 -15.3008 0
491.531 -11.0228 0
488.997 -10.8702 0
490.007 -15.2245 0
491.402 -13.1618 0
490.264 -10.9465 0
488.869 -13.0092 0
490.135 -13.0855 0
491.273 -15.3008 0
493.807 -15.4535 0
494.064 -11.1755 0
491.531 -11.0228 0
492.54 -15.3771 0
493.936 -13.3145 0
492.797 -11.0991 0
491.402 -13.1618 0
492.669 -13.2381 0
493.807 -15.4535 0
496.34 -15.6062 0
496.598 -11.3281 0
494.064 -11.1755 0
495.074 -15.5298 0
496.469 -13.4672 0
495.331 -11.2518 0
493.936 -13.3145 0
495.202 -13.3908 0
496.34 -15.6062 0
498.874 -15.759 0
499.131 -11.4806 0
496.598 -11.3281 0
497.607 -15.6826 0
499.002 -13.6198 0
497.864 -11.4044 0
496.469 -13.4672 0
497.736 -13.5435 0
0 8.57143 0
2.5346 8.57108 0
2.53692 12.8573 0
0 12.8571 0
1.26735 8.57154 0
2.53576 10.7143 0
1.26846 12.8575 0
0 10.7143 0
1.26792 10.7146 0
2.5346 8.57108 0
5.06893 8.56875 0
5.07374 12.8554 0
2.53692 12.8573 0
3.80178 8.57014 0
5.07136 10.7122 0
3.80534 12.8566 0
2.53576 10.7143 0
3.80358 10.7135 0
5.06893 8.56875 0
7.6031 8.56472 0
7.61052 12.8516 0
5.07374 12.8554 0
6.33603 8.56694 0
7.60684 10.7083 0
6.34213 12.8537 0
5.07136 10.7122 0
6.33911 10.7105 0
7.6031 8.56472 0
10.1372 8.55914 0
10.1473 12.8461 0
7.61052 12.8516 0
8.87017 8.56212 0
10.1423 10.7028 0
8.8789 12.8491 0
7.60684 10.7083 0
8.87457 10.7058 0
10.1372 8.55914 0
12.6714 8.55205 0
12.684 12.8391 0
10.1473 12.8461 0
11.4043 8.55578 0
12.6777 10.6957 0
11.4156 12.8428 0
10.1423 10.7028 0
11.41 10.6994 0
12.6714 8.55205 0
15.2056 8.54346 0
15.2208 12.8304 0
12.684 12.8391 0
13.9385 8.54794 0
15.2132 10.6871 0
13.9524 12.8349 0
12.6777 10.6957 0
13.9455 10.6916 0
15.2056 8.54346 0
17.7398 8.53338 0
17.7575 12.8203 0
15.2208 12.8304 0
16.4727 8.5386 0
17.7487 10.677 0
16.4891 12.8256 0
15.2132 10.6871 0
16.4809 10.6823 0
17.7398 8.53338 0
20.274 8.52181 0
20.2943 12.8087 0
17.7575 12.8203 0
19.0069 8.52778 0
20.2842 10.6654 0
19.0259 12.8147 0
17.7487 10.677 0
19.0164 10.6714 0
20.274 8.52181 0
22.8083 8.50876 0
22.8311 12.7957 0
20.2943 12.8087 0
21.5412 8.51547 0
22.8197 10.6524 0
21.5627 12.8024 0
20.2842 10.6654 0
21.5519 10.6591 0
22.8083 8.50876 0
25.3426 8.49424 0
25.3678 12.7811 0
22.8311 12.7957 0
24.0754 8.50168 0
25.3552 10.6378 0
24.0994 12.7886 0
22.8197 10.6524 0
24.0875 10.6453 0
25.3426 8.49424 0
27.8769 8.47824 0
27.9046 12.7651 0
25.3678 12.7811 0
26.6097 8.48642 0
27.8907 10.6218 0
26.6362 12.7733 0
25.3552 10.6378 0
26.623 10.63 0
27.8769 8.47824 0
30.4112 8.46079 0
30.4414 12.7476 0
27.9046 12.7651 0
29.144 8.4697 0
30.4263 10.6044 0
29.173 12.7565 0
27.8907 10.6218 0
29.1585 10.6133 0
30.4112 8.46079 0
32.9455 8.44188 0
32.9781 12.7287 0
30.4414 12.7476 0
31.6783 8.45152 0
32.9618 10.5854 0
31.7098 12.7383 0
30.4263 10.6044 0
31.6941 10.5951 0
32.9455 8.44188 0
35.4798 8.42153 0
35.5149 12.7083 0
32.9781 12.7287 0
34.2126 8.43189 0
35.4974 10.5651 0
34.2465 12.7187 0
32.9618 10.5854 0
34.2296 10.5754 0
35.4798 8.42153 0
38.0141 8.39974 0
38.0517 12.6865 0
35.5149 12.7083 0
36.747 8.41082 0
38.0329 10.5433 0
36.7833 12.6976 0
35.4974 10.5651 0
36.7651 10.5544 0
38.0141 8.39974 0
40.5485 8.37653 0
40.5884 12.6633 0
38.0517 12.6865 0
39.2813 8.38831 0
40.5685 10.52 0
39.32 12.6751 0
38.0329 10.5433 0
39.3007 10.5318 0
40.5485 8.37653 0
43.0828 8.35189 0
43.1252 12.6386 0
40.5884 12.6633 0
41.8156 8.36439 0
43.104 10.4954 0
41.8568 12.6511 0
40.5685 10.52 0
41.8362 10.5079 0
43.0828 8.35189 0
45.6172 8.32584 0
45.6619 12.6125 0
43.1252 12.6386 0
44.35 8.33904 0
45.6395 10.4693 0
44.3935 12.6257 0
43.104 10.4954 0
44.3718 10.4825 0
45.6172 8.32584 0
48.1515 8.29838 0
48.1986 12.585 0
45.6619 12.6125 0
46.8844 8.31228 0
48.1751 10.4418 0
46.9303 12.5989 0
45.6395 10.4693 0
46.9073 10.4558 0
48.1515 8.29838 0
50.6859 8.26952 0
50.7353 12.5561 0
48.1986 12.585 0
49.4187 8.28412 0
50.7106 10.413 0
49.467 12.5707 0
48.1751 10.4418 0
49.4429 10.4276 0
50.6859 8.26952 0
53.2203 8.23928 0
53.272 12.5258 0
50.7353 12.5561 0
51.9531 8.25457 0
53.2462 10.3827 0
52.0037 12.5412 0
50.7106 10.413 0
51.9784 10.398 0
53.2203 8.23928 0
55.7546 8.20765 0
55.8087 12.4942 0
53.272 12.5258 0
54.4874 8.22363 0
55.7817 10.3511 0
54.5404 12.5102 0
53.2462 10.3827 0
54.5139 10.3671 0
55.7546 8.20765 0
58.289 8.17464 0
58.3454 12.4611 0
55.8087 12.4942 0
57.0218 8.19132 0
58.3172 10.318 0
57.0771 12.4778 0
55.7817 10.3511 0
57.0495 10.3347 0
58.289 8.17464 0
60.8234 8.14027 0
60.8821 12.4267 0
58.3454 12.4611 0
59.5562 8.15763 0
60.8528 10.2837 0
59.6138 12.4441 0
58.3172 10.318 0
59.585 10.301 0
60.8234 8.14027 0
63.3578 8.10455 0
63.4188 12.391 0
60.8821 12.4267 0
62.0906 8.12258 0
63.3883 10.2479 0
62.1504 12.409 0
60.8528 10.2837 0
62.1205 10.2659 0
63.3578 8.10455 0
65.8921 8.06747 0
65.9554 12.3539 0
63.4188 12.391 0
64.6249 8.08618 0
65.9238 10.2108 0
64.6871 12.3726 0
63.3883 10.2479 0
64.656 10.2295 0
65.8921 8.06747 0
68.4265 8.02905 0
68.4921 12.3154 0
65.9554 12.3539 0
67.1593 8.04842 0
68.4593 10.1724 0
67.2238 12.3348 0
65.9238 10.2108 0
67.1915 10.1917 0
68.4265 8.02905 0
70.9609 7.98929 0
71.0287 12.2756 0
68.4921 12.3154 0
69.6937 8.00933 0
70.9948 10.1326 0
69.7604 12.2957 0
68.4593 10.1724 0
69.7271 10.1526 0
70.9609 7.98929 0
73.4953 7.9482 0
73.5653 12.2345 0
71.0287 12.2756 0
72.2281 7.96891 0
73.5303 10.0915 0
72.297 12.2552 0
70.9948 10.1326 0
72.2626 10.1122 0
73.4953 7.9482 0
76.0296 7.9058 0
76.1019 12.192 0
73.5653 12.2345 0
74.7624 7.92717 0
76.0658 10.049 0
74.8336 12.2134 0
73.5303 10.0915 0
74.798 10.0704 0
76.0296 7.9058 0
78.564 7.86209 0
78.6385 12.1483 0
76.1019 12.192 0
77.2968 7.88411 0
78.6013 10.0053 0
77.3702 12.1703 0
76.0658 10.049 0
77.3335 10.0273 0
78.564 7.86209 0
81.0984 7.81707 0
81.1751 12.1032 0
78.6385 12.1483 0
79.8312 7.83974 0
81.1367 9.96027 0
79.9068 12.1259 0
78.6013 10.0053 0
79.869 9.98295 0
81.0984 7.81707 0
83.6327 7.77075 0
83.7116 12.0568 0
81.1751 12.1032 0
82.3655 7.79407 0
83.6722 9.91393 0
82.4433 12.0802 0
81.1367 9.96027 0
82.4045 9.93726 0
83.6327 7.77075 0
86.1671 7.72315 0
86.2481 12.0092 0
83.7116 12.0568 0
84.8999 7.74711 0
86.2076 9.8663 0
84.9799 12.0332 0
83.6722 9.91393 0
84.9399 9.89028 0
86.1671 7.72315 0
88.7014 7.67427 0
88.7847 11.9602 0
86.2481 12.0092 0
87.4343 7.69887 0
88.7431 9.81739 0
87.5164 11.9849 0
86.2076 9.8663 0
87.4753 9.84201 0
88.7014 7.67427 0
91.2358 7.62411 0
91.3211 11.91 0
88.7847 11.9602 0
89.9686 7.64935 0
91.2785 9.76721 0
90.0529 11.9353 0
88.7431 9.81739 0
90.0108 9.79246 0
91.2358 7.62411 0
93.7701 7.57269 0
93.8576 11.8586 0
91.3211 11.91 0
92.503 7.59856 0
93.8139 9.71577 0
92.5894 11.8845 0
91.2785 9.76721 0
92.5462 9.74165 0
93.7701 7.57269 0
96.3045 7.52001 0
96.3941 11.8058 0
93.8576 11.8586 0
95.0373 7.54651 0
96.3493 9.66306 0
95.1259 11.8324 0
93.8139 9.71577 0
95.0816 9.68957 0
96.3045 7.52001 0
98.8388 7.46609 0
98.9305 11.7519 0
96.3941 11.8058 0
97.5717 7.49321 0
98.8847 9.60911 0
97.6623 11.779 0
96.3493 9.66306 0
97.617 9.63624 0
98.8388 7.46609 0
101.373 7.41092 0
101.467 11.6967 0
98.9305 11.7519 0
100.106 7.43866 0
101.42 9.55392 0
100.199 11.7244 0
98.8847 9.60911 0
100.152 9.58167 0
101.373 7.41092 0
103.907 7.35452 0
104.003 11.6402 0
101.467 11.6967 0
102.64 7.38288 0
103.955 9.49749 0
102.735 11.6686 0
101.42 9.55392 0
102.688 9.52586 0
103.907 7.35452 0
106.442 7.2969 0
106.54 11.5825 0
104.003 11.6402 0
105.175 7.32586 0
106.491 9.43984 0
105.272 11.6115 0
103.955 9.49749 0
105.223 9.46882 0
106.442 7.2969 0
108.976 7.23806 0
109.076 11.5236 0
106.54 11.5825 0
107.709 7.26763 0
109.026 9.38097 0
107.808 11.5532 0
106.491 9.43984 0
107.758 9.41056 0
108.976 7.23806 0
111.51 7.178 0
111.612 11.4635 0
109.076 11.5236 0
110.243 7.20818 0
111.561 9.32089 0
110.344 11.4937 0
109.026 9.38097 0
110.294 9.35108 0
111.51 7.178 0
114.045 7.11675 0
114.149 11.4022 0
111.612 11.4635 0
112.778 7.14753 0
114.097 9.25961 0
112.881 11.433 0
111.561 9.32089 0
112.829 9.2904 0
114.045 7.11675 0
116.579 7.0543 0
116.685 11.3397 0
114.149 11.4022 0
115.312 7.08568 0
116.632 9.19713 0
115.417 11.3711 0
114.097 9.25961 0
115.364 9.22852 0
116.579 7.0543 0
119.113 6.99067 0
119.221 11.276 0
116.685 11.3397 0
117.846 7.02264 0
119.167 9.13347 0
117.953 11.308 0
116.632 9.19713 0
117.9 9.16545 0
119.113 6.99067 0
121.647 6.92586 0
121.758 11.2112 0
119.221 11.276 0
120.38 6.95841 0
121.703 9.06863 0
120.489 11.2437 0
119.167 9.13347 0
120.435 9.1012 0
121.647 6.92586 0
124.182 6.85988 0
124.294 11.1451 0
121.758 11.2112 0
122.915 6.89302 0
124.238 9.00262 0
123.026 11.1783 0
121.703 9.06863 0
122.97 9.03577 0
124.182 6.85988 0
126.716 6.79274 0
126.83 11.0779 0
124.294 11.1451 0
125.449 6.82645 0
126.773 8.93545 0
125.562 11.1117 0
124.238 9.00262 0
125.505 8.96918 0
126.716 6.79274 0
129.25 6.72444 0
129.366 11.0096 0
126.83 11.0779 0
127.983 6.75873 0
129.308 8.86712 0
128.098 11.0439 0
126.773 8.93545 0
128.041 8.90143 0
129.25 6.72444 0
131.784 6.65499 0
131.902 10.9401 0
129.366 11.0096 0
130.517 6.68986 0
131.843 8.79764 0
130.634 10.9749 0
129.308 8.86712 0
130.576 8.83252 0
131.784 6.65499 0
134.319 6.58441 0
134.438 10.8694 0
131.902 10.9401 0
133.052 6.61984 0
134.379 8.72703 0
133.17 10.9049 0
131.843 8.79764 0
133.111 8.76248 0
134.319 6.58441 0
136.853 6.5127 0
136.974 10.7976 0
134.438 10.8694 0
135.586 6.54869 0
136.914 8.65528 0
135.706 10.8337 0
134.379 8.72703 0
135.646 8.6913 0
136.853 6.5127 0
139.387 6.43986 0
139.511 10.7247 0
136.974 10.7976 0
138.12 6.47642 0
139.449 8.58242 0
138.243 10.7613 0
136.914 8.65528 0
138.181 8.61899 0
139.387 6.43986 0
141.921 6.3659 0
142.047 10.6507 0
139.511 10.7247 0
140.654 6.40302 0
141.984 8.50843 0
140.779 10.6879 0
139.449 8.58242 0
140.716 8.54556 0
141.921 6.3659 0
144.455 6.29084 0
144.583 10.5756 0
142.047 10.6507 0
143.188 6.32851 0
144.519 8.43334 0
143.315 10.6133 0
141.984 8.50843 0
143.251 8.47102 0
144.455 6.29084 0
146.989 6.21468 0
147.119 10.4994 0
144.583 10.5756 0
145.722 6.2529 0
147.054 8.35715 0
145.851 10.5376 0
144.519 8.43334 0
145.787 8.39538 0
146.989 6.21468 0
149.524 6.13743 0
149.655 10.4221 0
147.119 10.4994 0
148.257 6.17619 0
149.589 8.27986 0
148.387 10.4609 0
147.054 8.35715 0
148.322 8.31864 0
149.524 6.13743 0
152.058 6.0591 0
152.191 10.3437 0
149.655 10.4221 0
150.791 6.0984 0
152.124 8.2015 0
150.923 10.383 0
149.589 8.27986 0
150.857 8.24081 0
152.058 6.0591 0
154.592 5.97969 0
154.726 10.2642 0
152.191 10.3437 0
153.325 6.01952 0
154.659 8.12205 0
153.459 10.3041 0
152.124 8.2015 0
153.392 8.16191 0
154.592 5.97969 0
157.126 5.89921 0
157.262 10.1836 0
154.726 10.2642 0
155.859 5.93958 0
157.194 8.04154 0
155.994 10.2241 0
154.659 8.12205 0
155.927 8.08193 0
157.126 5.89921 0
159.66 5.81767 0
159.798 10.102 0
157.262 10.1836 0
158.393 5.85857 0
159.729 7.95997 0
158.53 10.143 0
157.194 8.04154 0
158.462 8.00088 0
159.66 5.81767 0
162.194 5.73507 0
162.334 10.0194 0
159.798 10.102 0
160.927 5.7765 0
162.264 7.87734 0
161.066 10.0608 0
159.729 7.95997 0
160.997 7.91878 0
162.194 5.73507 0
164.728 5.65144 0
164.87 9.93568 0
162.334 10.0194 0
163.461 5.69338 0
164.799 7.79367 0
163.602 9.97767 0
162.264 7.87734 0
163.532 7.83564 0
164.728 5.65144 0
167.262 5.56676 0
167.406 9.85095 0
164.87 9.93568 0
165.995 5.60923 0
167.334 7.70896 0
166.138 9.89344 0
164.799 7.79367 0
166.066 7.75145 0
167.262 5.56676 0
169.796 5.48106 0
169.941 9.76518 0
167.406 9.85095 0
168.529 5.52404 0
169.869 7.62323 0
168.674 9.80819 0
167.334 7.70896 0
168.601 7.66622 0
169.796 5.48106 0
172.33 5.39434 0
172.477 9.67839 0
169.941 9.76518 0
171.063 5.43782 0
172.404 7.53647 0
171.209 9.72191 0
169.869 7.62323 0
171.136 7.57998 0
172.33 5.39434 0
174.864 5.3066 0
175.013 9.59059 0
172.477 9.67839 0
173.597 5.35059 0
174.939 7.4487 0
173.745 9.63461 0
172.404 7.53647 0
173.671 7.49271 0
174.864 5.3066 0
177.398 5.21786 0
177.548 9.50178 0
175.013 9.59059 0
176.131 5.26235 0
177.473 7.35992 0
176.281 9.54631 0
174.939 7.4487 0
176.206 7.40444 0
177.398 5.21786 0
179.932 5.12812 0
180.084 9.41197 0
177.548 9.50178 0
178.665 5.17311 0
180.008 7.27015 0
178.816 9.457 0
177.473 7.35992 0
178.741 7.31516 0
179.932 5.12812 0
182.466 5.03739 0
182.62 9.32118 0
180.084 9.41197 0
181.199 5.08288 0
182.543 7.17939 0
181.352 9.3667 0
180.008 7.27015 0
181.276 7.22489 0
182.466 5.03739 0
185 4.94568 0
185.155 9.2294 0
182.62 9.32118 0
183.733 4.99165 0
185.078 7.08764 0
183.888 9.27541 0
182.543 7.17939 0
183.81 7.13364 0
185 4.94568 0
187.534 4.85299 0
187.691 9.13665 0
185.155 9.2294 0
186.267 4.89946 0
187.612 6.99492 0
186.423 9.18315 0
185.078 7.08764 0
186.345 7.0414 0
187.534 4.85299 0
190.068 4.75934 0
190.226 9.04293 0
187.691 9.13665 0
188.801 4.80629 0
190.147 6.90124 0
188.959 9.08991 0
187.612 6.99492 0
188.88 6.9482 0
190.068 4.75934 0
192.602 4.66473 0
192.762 8.94826 0
190.226 9.04293 0
191.335 4.71216 0
192.682 6.8066 0
191.494 8.99571 0
190.147 6.90124 0
191.414 6.85404 0
192.602 4.66473 0
195.136 4.56917 0
195.297 8.85263 0
192.762 8.94826 0
193.869 4.61707 0
195.216 6.711 0
194.03 8.90056 0
192.682 6.8066 0
193.949 6.75892 0
195.136 4.56917 0
197.669 4.47267 0
197.833 8.75606 0
195.297 8.85263 0
196.402 4.52104 0
197.751 6.61447 0
196.565 8.80446 0
195.216 6.711 0
196.484 6.66285 0
197.669 4.47267 0
200.203 4.37523 0
200.368 8.65856 0
197.833 8.75606 0
198.936 4.42407 0
200.286 6.51699 0
199.101 8.70743 0
197.751 6.61447 0
199.018 6.56585 0
200.203 4.37523 0
202.737 4.27687 0
202.904 8.56013 0
200.368 8.65856 0
201.47 4.32617 0
202.82 6.4186 0
201.636 8.60946 0
200.286 6.51699 0
201.553 6.46791 0
202.737 4.27687 0
205.271 4.17759 0
205.439 8.46078 0
202.904 8.56013 0
204.004 4.22734 0
205.355 6.31928 0
204.171 8.51057 0
202.82 6.4186 0
204.088 6.36905 0
205.271 4.17759 0
207.805 4.07739 0
207.974 8.36052 0
205.439 8.46078 0
206.538 4.1276 0
207.889 6.21905 0
206.707 8.41076 0
205.355 6.31928 0
206.622 6.26928 0
207.805 4.07739 0
210.338 3.9763 0
210.51 8.25935 0
207.974 8.36052 0
209.072 4.02696 0
210.424 6.11792 0
209.242 8.31005 0
207.889 6.21905 0
209.157 6.1686 0
210.338 3.9763 0
212.872 3.87431 0
213.045 8.15729 0
210.51 8.25935 0
211.605 3.92541 0
212.959 6.01589 0
211.777 8.20844 0
210.424 6.11792 0
211.691 6.06702 0
212.872 3.87431 0
215.406 3.77143 0
215.58 8.05435 0
213.045 8.15729 0
214.139 3.82298 0
215.493 5.91298 0
214.312 8.10593 0
212.959 6.01589 0
214.226 5.96455 0
215.406 3.77143 0
217.94 3.66767 0
218.115 7.95052 0
215.58 8.05435 0
216.673 3.71966 0
218.027 5.80919 0
216.848 8.00254 0
215.493 5.91298 0
216.76 5.86119 0
217.94 3.66767 0
220.473 3.56303 0
220.65 7.84582 0
218.115 7.95052 0
219.207 3.61546 0
220.562 5.70452 0
219.383 7.89828 0
218.027 5.80919 0
219.295 5.75696 0
220.473 3.56303 0
223.007 3.45754 0
223.186 7.74026 0
220.65 7.84582 0
221.74 3.51039 0
223.096 5.59899 0
221.918 7.79315 0
220.562 5.70452 0
221.829 5.65186 0
223.007 3.45754 0
225.541 3.35119 0
225.721 7.63384 0
223.186 7.74026 0
224.274 3.40447 0
225.631 5.49261 0
224.453 7.68716 0
223.096 5.59899 0
224.364 5.5459 0
225.541 3.35119 0
228.074 3.24399 0
228.256 7.52658 0
225.721 7.63384 0
226.808 3.29769 0
228.165 5.38537 0
226.988 7.58031 0
225.631 5.49261 0
226.898 5.43909 0
228.074 3.24399 0
230.608 3.13595 0
230.791 7.41847 0
228.256 7.52658 0
229.341 3.19007 0
230.699 5.2773 0
229.523 7.47263 0
228.165 5.38537 0
229.432 5.33144 0
230.608 3.13595 0
233.142 3.02708 0
233.326 7.30953 0
230.791 7.41847 0
231.875 3.08162 0
233.234 5.16839 0
232.058 7.3641 0
230.699 5.2773 0
231.967 5.22295 0
233.142 3.02708 0
235.675 2.91738 0
235.861 7.19977 0
233.326 7.30953 0
234.409 2.97233 0
235.768 5.05866 0
234.593 7.25475 0
233.234 5.16839 0
234.501 5.11363 0
235.675 2.91738 0
238.209 2.80686 0
238.396 7.08919 0
235.861 7.19977 0
236.942 2.86222 0
238.302 4.94811 0
237.128 7.14458 0
235.768 5.05866 0
237.035 5.00349 0
238.209 2.80686 0
240.743 2.69554 0
240.931 6.9778 0
238.396 7.08919 0
239.476 2.7513 0
240.837 4.83675 0
239.663 7.03359 0
238.302 4.94811 0
239.57 4.89253 0
240.743 2.69554 0
243.276 2.58342 0
243.466 6.86561 0
240.931 6.9778 0
242.009 2.63958 0
243.371 4.72459 0
242.198 6.9218 0
240.837 4.83675 0
242.104 4.78077 0
243.276 2.58342 0
245.81 2.4705 0
246.001 6.75262 0
243.466 6.86561 0
244.543 2.52706 0
245.905 4.61164 0
244.733 6.80921 0
243.371 4.72459 0
244.638 4.66822 0
245.81 2.4705 0
248.343 2.35679 0
248.535 6.63885 0
246.001 6.75262 0
247.076 2.41374 0
248.439 4.49791 0
247.268 6.69583 0
245.905 4.61164 0
247.172 4.55487 0
248.343 2.35679 0
250.877 2.24231 0
251.07 6.52431 0
248.535 6.63885 0
249.61 2.29965 0
250.974 4.38339 0
249.803 6.58168 0
248.439 4.49791 0
249.706 4.44075 0
250.877 2.24231 0
253.41 2.12706 0
253.605 6.40899 0
251.07 6.52431 0
252.143 2.18478 0
253.508 4.26811 0
252.338 6.46674 0
250.974 4.38339 0
252.241 4.32584 0
253.41 2.12706 0
255.944 2.01105 0
256.14 6.29291 0
253.605 6.40899 0
254.677 2.06915 0
256.042 4.15206 0
254.873 6.35105 0
253.508 4.26811 0
254.775 4.21018 0
255.944 2.01105 0
258.477 1.89428 0
258.675 6.17608 0
256.14 6.29291 0
257.21 1.95276 0
258.576 4.03526 0
257.407 6.23459 0
256.042 4.15206 0
257.309 4.09375 0
258.477 1.89428 0
261.011 1.77677 0
261.209 6.0585 0
258.675 6.17608 0
259.744 1.83562 0
261.11 3.91771 0
259.942 6.11738 0
258.576 4.03526 0
259.843 3.97658 0
261.011 1.77677 0
263.544 1.65852 0
263.744 5.94019 0
261.209 6.0585 0
262.277 1.71774 0
263.644 3.79943 0
262.477 5.99944 0
261.11 3.91771 0
262.377 3.85866 0
263.544 1.65852 0
266.078 1.53954 0
266.279 5.82114 0
263.744 5.94019 0
264.811 1.59912 0
266.178 3.68041 0
265.011 5.88075 0
263.644 3.79943 0
264.911 3.74001 0
266.078 1.53954 0
268.611 1.41983 0
268.813 5.70137 0
266.279 5.82114 0
267.344 1.47977 0
268.712 3.56068 0
267.546 5.76135 0
266.178 3.68041 0
267.445 3.62064 0
268.611 1.41983 0
271.144 1.29941 0
271.348 5.58089 0
268.813 5.70137 0
269.878 1.35971 0
271.246 3.44022 0
270.081 5.64122 0
268.712 3.56068 0
269.979 3.50054 0
271.144 1.29941 0
273.678 1.17828 0
273.883 5.4597 0
271.348 5.58089 0
272.411 1.23894 0
273.78 3.31907 0
272.615 5.52038 0
271.246 3.44022 0
272.513 3.37973 0
273.678 1.17828 0
276.211 1.05646 0
276.417 5.33781 0
273.883 5.4597 0
274.944 1.11746 0
276.314 3.19721 0
275.15 5.39884 0
273.78 3.31907 0
275.047 3.25822 0
276.211 1.05646 0
278.745 0.933941 0
278.952 5.21523 0
276.417 5.33781 0
277.478 0.995286 0
278.848 3.07466 0
277.684 5.27661 0
276.314 3.19721 0
277.581 3.13602 0
278.745 0.933941 0
281.278 0.810741 0
281.486 5.09197 0
278.952 5.21523 0
280.011 0.872426 0
281.382 2.95143 0
280.219 5.15368 0
278.848 3.07466 0
280.115 3.01313 0
281.278 0.810741 0
283.811 0.686864 0
284.021 4.96803 0
281.486 5.09197 0
282.545 0.748887 0
283.916 2.82752 0
282.753 5.03008 0
281.382 2.95143 0
282.649 2.88956 0
283.811 0.686864 0
286.345 0.56232 0
286.555 4.84342 0
284.021 4.96803 0
285.078 0.624675 0
286.45 2.70294 0
285.288 4.90581 0
283.916 2.82752 0
285.183 2.76531 0
286.345 0.56232 0
288.878 0.437116 0
289.089 4.71816 0
286.555 4.84342 0
287.611 0.4998 0
288.984 2.57771 0
287.822 4.78087 0
286.45 2.70294 0
287.717 2.64041 0
288.878 0.437116 0
291.411 0.31126 0
291.624 4.59224 0
289.089 4.71816 0
290.145 0.374269 0
291.518 2.45182 0
290.357 4.65528 0
288.984 2.57771 0
290.251 2.51484 0
291.411 0.31126 0
293.945 0.18476 0
294.158 4.46568 0
291.624 4.59224 0
292.678 0.24809 0
294.051 2.32529 0
292.891 4.52904 0
291.518 2.45182 0
292.784 2.38863 0
293.945 0.18476 0
296.478 0.0576232 0
296.693 4.33848 0
294.158 4.46568 0
295.211 0.121271 0
296.585 2.19812 0
295.425 4.40216 0
294.051 2.32529 0
295.318 2.26178 0
296.478 0.0576232 0
299.011 -0.0701421 0
299.227 4.21066 0
296.693 4.33848 0
297.744 -0.00618139 0
299.119 2.07032 0
297.96 4.27465 0
296.585 2.19812 0
297.852 2.1343 0
299.011 -0.0701421 0
301.544 -0.198528 0
301.761 4.08221 0
299.227 4.21066 0
300.278 -0.134258 0
301.653 1.94191 0
300.494 4.14651 0
299.119 2.07032 0
300.386 2.00619 0
301.544 -0.198528 0
304.078 -0.327527 0
304.296 3.95315 0
301.761 4.08221 0
302.811 -0.262951 0
304.187 1.81288 0
303.028 4.01776 0
301.653 1.94191 0
302.92 1.87747 0
304.078 -0.327527 0
306.611 -0.457131 0
306.83 3.82349 0
304.296 3.95315 0
305.344 -0.392254 0
306.72 1.68324 0
305.563 3.8884 0
304.187 1.81288 0
305.453 1.74814 0
306.611 -0.457131 0
309.144 -0.587332 0
309.364 3.69323 0
306.83 3.82349 0
307.877 -0.522157 0
309.254 1.55301 0
308.097 3.75844 0
306.72 1.68324 0
307.987 1.6182 0
309.144 -0.587332 0
311.677 -0.718122 0
311.898 3.56239 0
309.364 3.69323 0
310.411 -0.652654 0
311.788 1.42219 0
310.631 3.62788 0
309.254 1.55301 0
310.521 1.48768 0
311.677 -0.718122 0
314.21 -0.849494 0
314.432 3.43096 0
311.898 3.56239 0
312.944 -0.783736 0
314.321 1.29079 0
313.165 3.49674 0
311.788 1.42219 0
313.055 1.35656 0
314.21 -0.849494 0
316.744 -0.98144 0
316.967 3.29895 0
314.432 3.43096 0
315.477 -0.915396 0
316.855 1.15882 0
315.699 3.36503 0
314.321 1.29079 0
315.588 1.22488 0
316.744 -0.98144 0
319.277 -1.11395 0
319.501 3.16639 0
316.967 3.29895 0
318.01 -1.04763 0
319.389 1.02628 0
318.234 3.23274 0
316.855 1.15882 0
318.122 1.09262 0
319.277 -1.11395 0
321.81 -1.24702 0
322.035 3.03326 0
319.501 3.16639 0
320.543 -1.18042 0
321.922 0.893179 0
320.768 3.09989 0
319.389 1.02628 0
320.656 0.959797 0
321.81 -1.24702 0
324.343 -1.38064 0
324.569 2.89959 0
322.035 3.03326 0
323.077 -1.31376 0
324.456 0.759532 0
323.302 2.96649 0
321.922 0.893179 0
323.189 0.826424 0
324.343 -1.38064 0
326.876 -1.5148 0
327.103 2.76537 0
324.569 2.89959 0
325.61 -1.44765 0
326.99 0.625342 0
325.836 2.83255 0
324.456 0.759532 0
325.723 0.692504 0
326.876 -1.5148 0
329.409 -1.6495 0
329.637 2.63062 0
327.103 2.76537 0
328.143 -1.58208 0
329.523 0.490618 0
328.37 2.69806 0
326.99 0.625342 0
328.256 0.558046 0
329.409 -1.6495 0
331.943 -1.78472 0
332.171 2.49535 0
329.637 2.63062 0
330.676 -1.71704 0
332.057 0.355368 0
330.904 2.56305 0
329.523 0.490618 0
330.79 0.423058 0
331.943 -1.78472 0
334.476 -1.92046 0
334.705 2.35955 0
332.171 2.49535 0
333.209 -1.85253 0
334.59 0.219599 0
333.438 2.42751 0
332.057 0.355368 0
333.324 0.287547 0
334.476 -1.92046 0
337.009 -2.05671 0
337.239 2.22325 0
334.705 2.35955 0
335.742 -1.98852 0
337.124 0.0833194 0
335.972 2.29146 0
334.59 0.219599 0
335.857 0.151522 0
337.009 -2.05671 0
339.542 -2.19347 0
339.773 2.08644 0
337.239 2.22325 0
338.275 -2.12503 0
339.658 -0.0534627 0
338.506 2.1549 0
337.124 0.0833194 0
338.391 0.0149907 0
339.542 -2.19347 0
342.075 -2.33072 0
342.307 1.94914 0
339.773 2.08644 0
340.809 -2.26203 0
342.191 -0.19074 0
341.04 2.01785 0
339.658 -0.0534627 0
340.924 -0.12204 0
342.075 -2.33072 0
344.608 -2.46846 0
344.841 1.81135 0
342.307 1.94914 0
343.342 -2.39953 0
344.725 -0.328504 0
343.574 1.8803 0
342.191 -0.19074 0
343.458 -0.259561 0
344.608 -2.46846 0
347.141 -2.60667 0
347.375 1.67308 0
344.841 1.81135 0
345.875 -2.53751 0
347.258 -0.466747 0
346.108 1.74227 0
344.725 -0.328504 0
345.991 -0.397566 0
347.141 -2.60667 0
349.674 -2.74536 0
349.909 1.53434 0
347.375 1.67308 0
348.408 -2.67596 0
349.792 -0.605462 0
348.642 1.60377 0
347.258 -0.466747 0
348.525 -0.536046 0
349.674 -2.74536 0
352.208 -2.88452 0
352.442 1.39514 0
349.909 1.53434 0
350.941 -2.81488 0
352.325 -0.74464 0
351.176 1.4648 0
349.792 -0.605462 0
351.058 -0.674994 0
352.208 -2.88452 0
354.741 -3.02413 0
354.976 1.25548 0
352.442 1.39514 0
353.474 -2.95426 0
354.858 -0.884274 0
353.709 1.32537 0
352.325 -0.74464 0
353.592 -0.814401 0
354.741 -3.02413 0
357.274 -3.16418 0
357.51 1.11538 0
354.976 1.25548 0
356.007 -3.0941 0
357.392 -1.02436 0
356.243 1.18549 0
354.858 -0.884274 0
356.125 -0.95426 0
357.274 -3.16418 0
359.807 -3.30468 0
360.044 0.974832 0
357.51 1.11538 0
358.54 -3.23438 0
359.925 -1.16488 0
358.777 1.04516 0
357.392 -1.02436 0
358.659 -1.09456 0
359.807 -3.30468 0
362.34 -3.44561 0
362.578 0.833856 0
360.044 0.974832 0
361.073 -3.37509 0
362.459 -1.30583 0
361.311 0.904398 0
359.925 -1.16488 0
361.192 -1.2353 0
362.34 -3.44561 0
364.873 -3.58696 0
365.112 0.692455 0
362.578 0.833856 0
363.606 -3.51623 0
364.992 -1.44721 0
363.845 0.763208 0
362.459 -1.30583 0
363.726 -1.37647 0
364.873 -3.58696 0
367.406 -3.72874 0
367.645 0.550638 0
365.112 0.692455 0
366.139 -3.6578 0
367.526 -1.58901 0
366.378 0.621598 0
364.992 -1.44721 0
366.259 -1.51806 0
367.406 -3.72874 0
369.939 -3.87092 0
370.179 0.408413 0
367.645 0.550638 0
368.673 -3.79977 0
370.059 -1.73121 0
368.912 0.479576 0
367.526 -1.58901 0
368.792 -1.66006 0
369.939 -3.87092 0
372.472 -4.0135 0
372.713 0.265788 0
370.179 0.408413 0
371.206 -3.94216 0
372.592 -1.87381 0
371.446 0.33715 0
370.059 -1.73121 0
371.326 -1.80246 0
372.472 -4.0135 0
375.005 -4.15647 0
375.247 0.12277 0
372.713 0.265788 0
373.739 -4.08494 0
375.126 -2.01681 0
373.98 0.194327 0
372.592 -1.87381 0
373.859 -1.94526 0
375.005 -4.15647 0
377.538 -4.29983 0
377.78 -0.0206332 0
375.247 0.12277 0
376.272 -4.2281 0
377.659 -2.16019 0
376.513 0.0511158 0
375.126 -2.01681 0
376.393 -2.08845 0
377.538 -4.29983 0
380.071 -4.44357 0
380.314 -0.164413 0
377.78 -0.0206332 0
378.805 -4.37165 0
380.193 -2.30395 0
379.047 -0.0924765 0
377.659 -2.16019 0
378.926 -2.23203 0
380.071 -4.44357 0
382.604 -4.58768 0
382.848 -0.308562 0
380.314 -0.164413 0
381.338 -4.51558 0
382.726 -2.44808 0
381.581 -0.236442 0
380.193 -2.30395 0
381.459 -2.37597 0
382.604 -4.58768 0
385.137 -4.73215 0
385.381 -0.453072 0
382.848 -0.308562 0
383.871 -4.65987 0
385.259 -2.59257 0
384.114 -0.380772 0
382.726 -2.44808 0
383.993 -2.52028 0
385.137 -4.73215 0
387.67 -4.87697 0
387.915 -0.597936 0
385.381 -0.453072 0
386.404 -4.80451 0
387.793 -2.73742 0
386.648 -0.52546 0
385.259 -2.59257 0
386.526 -2.66495 0
387.67 -4.87697 0
390.204 -5.02214 0
390.448 -0.743145 0
387.915 -0.597936 0
388.937 -4.94951 0
390.326 -2.88261 0
389.182 -0.670498 0
387.793 -2.73742 0
389.059 -2.80997 0
390.204 -5.02214 0
392.737 -5.16765 0
392.982 -0.888691 0
390.448 -0.743145 0
391.47 -5.09485 0
392.859 -3.02813 0
391.715 -0.815876 0
390.326 -2.88261 0
391.593 -2.95533 0
392.737 -5.16765 0
395.27 -5.31348 0
395.516 -1.03457 0
392.982 -0.888691 0
394.003 -5.24052 0
395.393 -3.17399 0
394.249 -0.961589 0
392.859 -3.02813 0
394.126 -3.10102 0
395.27 -5.31348 0
397.803 -5.45965 0
398.049 -1.18077 0
395.516 -1.03457 0
396.536 -5.38652 0
397.926 -3.32017 0
396.782 -1.10763 0
395.393 -3.17399 0
396.659 -3.24704 0
397.803 -5.45965 0
400.336 -5.60612 0
400.583 -1.32728 0
398.049 -1.18077 0
399.069 -5.53284 0
400.459 -3.46667 0
399.316 -1.25398 0
397.926 -3.32017 0
399.193 -3.39338 0
400.336 -5.60612 0
402.869 -5.7529 0
403.116 -1.4741 0
400.583 -1.32728 0
401.602 -5.67947 0
402.993 -3.61347 0
401.85 -1.40065 0
400.459 -3.46667 0
401.726 -3.54003 0
402.869 -5.7529 0
405.402 -5.89999 0
405.65 -1.62122 0
403.116 -1.4741 0
404.135 -5.82641 0
405.526 -3.76057 0
404.383 -1.54762 0
402.993 -3.61347 0
404.259 -3.68698 0
405.402 -5.89999 0
407.935 -6.04736 0
408.184 -1.76862 0
405.65 -1.62122 0
406.668 -5.97364 0
408.059 -3.90796 0
406.917 -1.69488 0
405.526 -3.76057 0
406.793 -3.83423 0
407.935 -6.04736 0
410.468 -6.19502 0
410.717 -1.91632 0
408.184 -1.76862 0
409.201 -6.12115 0
410.593 -4.05564 0
409.45 -1.84243 0
408.059 -3.90796 0
409.326 -3.98176 0
410.468 -6.19502 0
413.001 -6.34295 0
413.251 -2.06428 0
410.717 -1.91632 0
411.735 -6.26895 0
413.126 -4.20359 0
411.984 -1.99026 0
410.593 -4.05564 0
411.859 -4.12958 0
413.001 -6.34295 0
415.534 -6.49115 0
415.784 -2.21251 0
413.251 -2.06428 0
414.268 -6.41702 0
415.659 -4.3518 0
414.517 -2.13836 0
413.126 -4.20359 0
414.393 -4.27766 0
415.534 -6.49115 0
418.067 -6.63961 0
418.318 -2.36101 0
415.784 -2.21251 0
416.801 -6.56535 0
418.192 -4.50028 0
417.051 -2.28673 0
415.659 -4.3518 0
416.926 -4.42601 0
418.067 -6.63961 0
420.6 -6.78832 0
420.851 -2.50975 0
418.318 -2.36101 0
419.334 -6.71393 0
420.726 -4.64901 0
419.584 -2.43535 0
418.192 -4.50028 0
419.459 -4.57461 0
420.6 -6.78832 0
423.133 -6.93728 0
423.385 -2.65874 0
420.851 -2.50975 0
421.867 -6.86277 0
423.259 -4.79798 0
422.118 -2.58421 0
420.726 -4.64901 0
421.992 -4.72347 0
423.133 -6.93728 0
425.667 -7.08647 0
425.918 -2.80796 0
423.385 -2.65874 0
424.4 -7.01185 0
425.792 -4.94719 0
424.651 -2.73332 0
423.259 -4.79798 0
424.526 -4.87256 0
425.667 -7.08647 0
428.2 -7.23589 0
428.452 -2.95741 0
425.918 -2.80796 0
426.933 -7.16115 0
428.326 -5.09663 0
427.185 -2.88266 0
425.792 -4.94719 0
427.059 -5.02188 0
428.2 -7.23589 0
430.733 -7.38554 0
430.985 -3.10708 0
428.452 -2.95741 0
429.466 -7.31069 0
430.859 -5.24629 0
429.718 -3.03222 0
428.326 -5.09663 0
429.592 -5.17143 0
430.733 -7.38554 0
433.266 -7.53539 0
433.519 -3.25696 0
430.985 -3.10708 0
431.999 -7.46044 0
433.392 -5.39616 0
432.252 -3.182 0
430.859 -5.24629 0
432.126 -5.3212 0
433.266 -7.53539 0
435.799 -7.68545 0
436.052 -3.40705 0
433.519 -3.25696 0
434.532 -7.6104 0
435.926 -5.54623 0
434.785 -3.33198 0
433.392 -5.39616 0
434.659 -5.47117 0
435.799 -7.68545 0
438.332 -7.83571 0
438.586 -3.55733 0
436.052 -3.40705 0
437.066 -7.76056 0
438.459 -5.6965 0
437.319 -3.48217 0
435.926 -5.54623 0
437.192 -5.62134 0
438.332 -7.83571 0
440.865 -7.98616 0
441.119 -3.70781 0
438.586 -3.55733 0
439.599 -7.91091 0
440.992 -5.84696 0
439.852 -3.63255 0
438.459 -5.6965 0
439.725 -5.77171 0
440.865 -7.98616 0
443.398 -8.13679 0
443.652 -3.85846 0
441.119 -3.70781 0
442.132 -8.06145 0
443.525 -5.9976 0
442.386 -3.78311 0
440.992 -5.84696 0
442.259 -5.92226 0
443.398 -8.13679 0
445.932 -8.28759 0
446.186 -4.00929 0
443.652 -3.85846 0
444.665 -8.21217 0
446.059 -6.14842 0
444.919 -3.93385 0
443.525 -5.9976 0
444.792 -6.07299 0
445.932 -8.28759 0
448.465 -8.43856 0
448.719 -4.16028 0
446.186 -4.00929 0
447.198 -8.36305 0
448.592 -6.2994 0
447.453 -4.08476 0
446.059 -6.14842 0
447.325 -6.22389 0
448.465 -8.43856 0
450.998 -8.58968 0
451.253 -4.31143 0
448.719 -4.16028 0
449.731 -8.5141 0
451.125 -6.45054 0
449.986 -4.23583 0
448.592 -6.2994 0
449.859 -6.37495 0
450.998 -8.58968 0
453.531 -8.74096 0
453.786 -4.46272 0
451.253 -4.31143 0
452.265 -8.6653 0
453.659 -6.60183 0
452.519 -4.38706 0
451.125 -6.45054 0
452.392 -6.52616 0
453.531 -8.74096 0
456.064 -8.89238 0
456.32 -4.61416 0
453.786 -4.46272 0
454.798 -8.81665 0
456.192 -6.75326 0
455.053 -4.53843 0
453.659 -6.60183 0
454.925 -6.67752 0
456.064 -8.89238 0
458.598 -9.04393 0
458.853 -4.76574 0
456.32 -4.61416 0
457.331 -8.96814 0
458.725 -6.90482 0
457.586 -4.68993 0
456.192 -6.75326 0
457.459 -6.82902 0
458.598 -9.04393 0
461.131 -9.19561 0
461.386 -4.91743 0
458.853 -4.76574 0
459.864 -9.11976 0
461.259 -7.05651 0
460.12 -4.84157 0
458.725 -6.90482 0
459.992 -6.98065 0
461.131 -9.19561 0
463.664 -9.34741 0
463.92 -5.06925 0
461.386 -4.91743 0
462.397 -9.2715 0
463.792 -7.20832 0
462.653 -4.99333 0
461.259 -7.05651 0
462.525 -7.1324 0
463.664 -9.34741 0
466.197 -9.49932 0
466.453 -5.22118 0
463.92 -5.06925 0
464.931 -9.42335 0
466.325 -7.36024 0
465.187 -5.1452 0
463.792 -7.20832 0
465.059 -7.28427 0
466.197 -9.49932 0
468.731 -9.65133 0
468.987 -5.37321 0
466.453 -5.22118 0
467.464 -9.57531 0
468.859 -7.51226 0
467.72 -5.29718 0
466.325 -7.36024 0
467.592 -7.43624 0
468.731 -9.65133 0
471.264 -9.80344 0
471.52 -5.52533 0
468.987 -5.37321 0
469.997 -9.72738 0
471.392 -7.66438 0
470.254 -5.44926 0
468.859 -7.51226 0
470.125 -7.58831 0
471.264 -9.80344 0
473.797 -9.95564 0
474.054 -5.67755 0
471.52 -5.52533 0
472.53 -9.87953 0
473.925 -7.81658 0
472.787 -5.60143 0
471.392 -7.66438 0
472.659 -7.74047 0
473.797 -9.95564 0
476.33 -10.1079 0
476.587 -5.82984 0
474.054 -5.67755 0
475.064 -10.0318 0
476.459 -7.96887 0
475.32 -5.75368 0
473.925 -7.81658 0
475.192 -7.89272 0
476.33 -10.1079 0
478.864 -10.2603 0
479.121 -5.9822 0
476.587 -5.82984 0
477.597 -10.1841 0
478.992 -8.12122 0
477.854 -5.90601 0
476.459 -7.96887 0
477.725 -8.04504 0
478.864 -10.2603 0
481.397 -10.4127 0
481.654 -6.13463 0
479.121 -5.9822 0
480.13 -10.3365 0
481.526 -8.27365 0
480.387 -6.05841 0
478.992 -8.12122 0
480.259 -8.19743 0
481.397 -10.4127 0
483.931 -10.5651 0
484.187 -6.28711 0
481.654 -6.13463 0
482.664 -10.4889 0
484.059 -8.42612 0
482.921 -6.21086 0
481.526 -8.27365 0
482.792 -8.34988 0
483.931 -10.5651 0
486.464 -10.7177 0
486.721 -6.43965 0
484.187 -6.28711 0
485.197 -10.6414 0
486.592 -8.57865 0
485.454 -6.36337 0
484.059 -8.42612 0
485.326 -8.50238 0
486.464 -10.7177 0
488.997 -10.8702 0
489.254 -6.59222 0
486.721 -6.43965 0
487.731 -10.7939 0
489.126 -8.73122 0
487.988 -6.51593 0
486.592 -8.57865 0
487.859 -8.65493 0
488.997 -10.8702 0
491.531 -11.0228 0
491.788 -6.74482 0
489.254 -6.59222 0
490.264 -10.9465 0
491.659 -8.88383 0
490.521 -6.66852 0
489.126 -8.73122 0
490.393 -8.80752 0
491.531 -11.0228 0
494.064 -11.1755 0
494.321 -6.89743 0
491.788 -6.74482 0
492.797 -11.0991 0
494.193 -9.03644 0
493.055 -6.82113 0
491.659 -8.88383 0
492.926 -8.96013 0
494.064 -11.1755 0
496.598 -11.3281 0
496.855 -7.05 0
494.321 -6.89743 0
495.331 -11.2518 0
496.726 -9.18903 0
495.588 -6.97372 0
494.193 -9.03644 0
495.46 -9.11274 0
496.598 -11.3281 0
499.131 -11.4806 0
499.388 -7.20248 0
496.855 -7.05 0
497.864 -11.4044 0
499.26 -9.34154 0
498.122 -7.12626 0
496.726 -9.18903 0
497.993 -9.2653 0
0 12.8571 0
2.53692 12.8573 0
2.53919 17.143 0
0 17.1429 0
1.26846 12.8575 0
2.53806 15.0003 0
1.26959 17.1432 0
0 15 0
1.26903 15.0004 0
2.53692 12.8573 0
5.07374 12.8554 0
5.07848 17.1411 0
2.53919 17.143 0
3.80534 12.8566 0
5.07611 14.9984 0
3.80883 17.1423 0
2.53806 15.0003 0
3.80708 14.9996 0
5.07374 12.8554 0
7.61052 12.8516 0
7.61782 17.1373 0
5.07848 17.1411 0
6.34213 12.8537 0
7.61417 14.9946 0
6.34815 17.1394 0
5.07611 14.9984 0
6.34514 14.9967 0
7.61052 12.8516 0
10.1473 12.8461 0
10.1572 17.1318 0
7.61782 17.1373 0
8.8789 12.8491 0
10.1522 14.9891 0
8.88749 17.1348 0
7.61417 14.9946 0
8.88319 14.9921 0
10.1473 12.8461 0
12.684 12.8391 0
12.6965 17.1247 0
10.1572 17.1318 0
11.4156 12.8428 0
12.6903 14.9821 0
11.4269 17.1285 0
10.1522 14.9891 0
11.4212 14.9858 0
12.684 12.8391 0
15.2208 12.8304 0
15.2359 17.1161 0
12.6965 17.1247 0
13.9524 12.8349 0
15.2283 14.9735 0
13.9662 17.1206 0
12.6903 14.9821 0
13.9593 14.9779 0
15.2208 12.8304 0
17.7575 12.8203 0
17.7752 17.106 0
15.2359 17.1161 0
16.4891 12.8256 0
17.7664 14.9633 0
16.5055 17.1112 0
15.2283 14.9735 0
16.4973 14.9686 0
17.7575 12.8203 0
20.2943 12.8087 0
20.3145 17.0944 0
17.7752 17.106 0
19.0259 12.8147 0
20.3044 14.9517 0
19.0448 17.1004 0
17.7664 14.9633 0
19.0354 14.9577 0
20.2943 12.8087 0
22.8311 12.7957 0
22.8538 17.0813 0
20.3145 17.0944 0
21.5627 12.8024 0
22.8424 14.9387 0
21.5841 17.088 0
20.3044 14.9517 0
21.5734 14.9454 0
22.8311 12.7957 0
25.3678 12.7811 0
25.393 17.0667 0
22.8538 17.0813 0
24.0994 12.7886 0
25.3804 14.9241 0
24.1234 17.0742 0
22.8424 14.9387 0
24.1114 14.9316 0
25.3678 12.7811 0
27.9046 12.7651 0
27.9323 17.0507 0
25.393 17.0667 0
26.6362 12.7733 0
27.9185 14.9081 0
26.6627 17.0589 0
25.3804 14.9241 0
26.6494 14.9163 0
27.9046 12.7651 0
30.4414 12.7476 0
30.4715 17.0332 0
27.9323 17.0507 0
29.173 12.7565 0
30.4565 14.8906 0
29.2019 17.0421 0
27.9185 14.9081 0
29.1875 14.8995 0
30.4414 12.7476 0
32.9781 12.7287 0
33.0107 17.0143 0
30.4715 17.0332 0
31.7098 12.7383 0
32.9944 14.8716 0
31.7411 17.0239 0
30.4565 14.8906 0
31.7254 14.8813 0
32.9781 12.7287 0
35.5149 12.7083 0
35.5499 16.9939 0
33.0107 17.0143 0
34.2465 12.7187 0
35.5324 14.8512 0
34.2803 17.0043 0
32.9944 14.8716 0
34.2634 14.8616 0
35.5149 12.7083 0
38.0517 12.6865 0
38.0891 16.972 0
35.5499 16.9939 0
36.7833 12.6976 0
38.0704 14.8294 0
36.8195 16.9831 0
35.5324 14.8512 0
36.8014 14.8405 0
38.0517 12.6865 0
40.5884 12.6633 0
40.6283 16.9488 0
38.0891 16.972 0
39.32 12.6751 0
40.6083 14.8062 0
39.3587 16.9606 0
38.0704 14.8294 0
39.3394 14.818 0
40.5884 12.6633 0
43.1252 12.6386 0
43.1674 16.9241 0
40.6283 16.9488 0
41.8568 12.6511 0
43.1463 14.7815 0
41.8979 16.9366 0
40.6083 14.8062 0
41.8773 14.794 0
43.1252 12.6386 0
45.6619 12.6125 0
45.7065 16.898 0
43.1674 16.9241 0
44.3935 12.6257 0
45.6842 14.7554 0
44.437 16.9112 0
43.1463 14.7815 0
44.4153 14.7686 0
45.6619 12.6125 0
48.1986 12.585 0
48.2456 16.8705 0
45.7065 16.898 0
46.9303 12.5989 0
48.2221 14.7279 0
46.9761 16.8844 0
45.6842 14.7554 0
46.9532 14.7418 0
48.1986 12.585 0
50.7353 12.5561 0
50.7847 16.8415 0
48.2456 16.8705 0
49.467 12.5707 0
50.76 14.699 0
49.5152 16.8562 0
48.2221 14.7279 0
49.4911 14.7136 0
50.7353 12.5561 0
53.272 12.5258 0
53.3238 16.8112 0
50.7847 16.8415 0
52.0037 12.5412 0
53.2979 14.6687 0
52.0542 16.8266 0
50.76 14.699 0
52.029 14.684 0
53.272 12.5258 0
55.8087 12.4942 0
55.8628 16.7795 0
53.3238 16.8112 0
54.5404 12.5102 0
55.8358 14.637 0
54.5933 16.7956 0
53.2979 14.6687 0
54.5668 14.653 0
55.8087 12.4942 0
58.3454 12.4611 0
58.4018 16.7465 0
55.8628 16.7795 0
57.0771 12.4778 0
58.3736 14.604 0
57.1323 16.7632 0
55.8358 14.637 0
57.1047 14.6207 0
58.3454 12.4611 0
60.8821 12.4267 0
60.9408 16.712 0
58.4018 16.7465 0
59.6138 12.4441 0
60.9115 14.5695 0
59.6713 16.7294 0
58.3736 14.604 0
59.6425 14.5869 0
60.8821 12.4267 0
63.4188 12.391 0
63.4797 16.6762 0
60.9408 16.712 0
62.1504 12.409 0
63.4493 14.5337 0
62.2103 16.6943 0
60.9115 14.5695 0
62.1804 14.5518 0
63.4188 12.391 0
65.9554 12.3539 0
66.0187 16.6391 0
63.4797 16.6762 0
64.6871 12.3726 0
65.9871 14.4966 0
64.7492 16.6578 0
63.4493 14.5337 0
64.7182 14.5153 0
65.9554 12.3539 0
68.4921 12.3154 0
68.5576 16.6006 0
66.0187 16.6391 0
67.2238 12.3348 0
68.5248 14.4581 0
67.2881 16.62 0
65.9871 14.4966 0
67.2559 14.4775 0
68.4921 12.3154 0
71.0287 12.2756 0
71.0965 16.5608 0
68.5576 16.6006 0
69.7604 12.2957 0
71.0626 14.4183 0
69.827 16.5808 0
68.5248 14.4581 0
69.7937 14.4384 0
71.0287 12.2756 0
73.5653 12.2345 0
73.6353 16.5196 0
71.0965 16.5608 0
72.297 12.2552 0
73.6003 14.3772 0
72.3659 16.5403 0
71.0626 14.4183 0
72.3314 14.3979 0
73.5653 12.2345 0
76.1019 12.192 0
76.1741 16.4771 0
73.6353 16.5196 0
74.8336 12.2134 0
76.138 14.3347 0
74.9047 16.4985 0
73.6003 14.3772 0
74.8692 14.3561 0
76.1019 12.192 0
78.6385 12.1483 0
78.7129 16.4333 0
76.1741 16.4771 0
77.3702 12.1703 0
78.6757 14.2909 0
77.4435 16.4554 0
76.138 14.3347 0
77.4069 14.313 0
78.6385 12.1483 0
81.1751 12.1032 0
81.2517 16.3882 0
78.7129 16.4333 0
79.9068 12.1259 0
81.2134 14.2458 0
79.9823 16.4109 0
78.6757 14.2909 0
79.9445 14.2685 0
81.1751 12.1032 0
83.7116 12.0568 0
83.7904 16.3418 0
81.2517 16.3882 0
82.4433 12.0802 0
83.751 14.1995 0
82.5211 16.3652 0
81.2134 14.2458 0
82.4822 14.2228 0
83.7116 12.0568 0
86.2481 12.0092 0
86.3291 16.2941 0
83.7904 16.3418 0
84.9799 12.0332 0
86.2886 14.1518 0
85.0598 16.3181 0
83.751 14.1995 0
85.0198 14.1758 0
86.2481 12.0092 0
88.7847 11.9602 0
88.8678 16.2451 0
86.3291 16.2941 0
87.5164 11.9849 0
88.8262 14.1028 0
87.5985 16.2698 0
86.2886 14.1518 0
87.5574 14.1275 0
88.7847 11.9602 0
91.3211 11.91 0
91.4064 16.1949 0
88.8678 16.2451 0
90.0529 11.9353 0
91.3638 14.0526 0
90.1371 16.2202 0
88.8262 14.1028 0
90.095 14.0779 0
91.3211 11.91 0
93.8576 11.8586 0
93.945 16.1434 0
91.4064 16.1949 0
92.5894 11.8845 0
93.9013 14.0011 0
92.6757 16.1693 0
91.3638 14.0526 0
92.6326 14.027 0
93.8576 11.8586 0
96.3941 11.8058 0
96.4836 16.0906 0
93.945 16.1434 0
95.1259 11.8324 0
96.4388 13.9484 0
95.2143 16.1172 0
93.9013 14.0011 0
95.1701 13.9749 0
96.3941 11.8058 0
98.9305 11.7519 0
99.0222 16.0366 0
96.4836 16.0906 0
97.6623 11.779 0
98.9763 13.8944 0
97.7529 16.0638 0
96.4388 13.9484 0
97.7076 13.9215 0
98.9305 11.7519 0
101.467 11.6967 0
101.561 15.9813 0
99.0222 16.0366 0
100.199 11.7244 0
101.514 13.8391 0
100.291 16.0091 0
98.9763 13.8944 0
100.245 13.8669 0
101.467 11.6967 0
104.003 11.6402 0
104.099 15.9248 0
101.561 15.9813 0
102.735 11.6686 0
104.051 13.7826 0
102.83 15.9532 0
101.514 13.8391 0
102.783 13.811 0
104.003 11.6402 0
106.54 11.5825 0
106.638 15.8671 0
104.099 15.9248 0
105.272 11.6115 0
106.589 13.7249 0
105.368 15.8961 0
104.051 13.7826 0
105.32 13.7539 0
106.54 11.5825 0
109.076 11.5236 0
109.176 15.8082 0
106.638 15.8671 0
107.808 11.5532 0
109.126 13.666 0
107.907 15.8378 0
106.589 13.7249 0
107.857 13.6956 0
109.076 11.5236 0
111.612 11.4635 0
111.714 15.748 0
109.176 15.8082 0
110.344 11.4937 0
111.663 13.6059 0
110.445 15.7782 0
109.126 13.666 0
110.395 13.6361 0
111.612 11.4635 0
114.149 11.4022 0
114.253 15.6867 0
111.714 15.748 0
112.881 11.433 0
114.201 13.5446 0
112.984 15.7175 0
111.663 13.6059 0
112.932 13.5754 0
114.149 11.4022 0
116.685 11.3397 0
116.791 15.6241 0
114.253 15.6867 0
115.417 11.3711 0
116.738 13.482 0
115.522 15.6555 0
114.201 13.5446 0
115.469 13.5134 0
116.685 11.3397 0
119.221 11.276 0
119.329 15.5604 0
116.791 15.6241 0
117.953 11.308 0
119.275 13.4183 0
118.06 15.5924 0
116.738 13.482 0
118.007 13.4503 0
119.221 11.276 0
121.758 11.2112 0
121.867 15.4954 0
119.329 15.5604 0
120.489 11.2437 0
121.813 13.3534 0
120.598 15.5281 0
119.275 13.4183 0
120.544 13.386 0
121.758 11.2112 0
124.294 11.1451 0
124.406 15.4294 0
121.867 15.4954 0
123.026 11.1783 0
124.35 13.2874 0
123.137 15.4625 0
121.813 13.3534 0
123.081 13.3205 0
124.294 11.1451 0
126.83 11.0779 0
126.944 15.3621 0
124.406 15.4294 0
125.562 11.1117 0
126.887 13.2201 0
125.675 15.3959 0
124.35 13.2874 0
125.618 13.2539 0
126.83 11.0779 0
129.366 11.0096 0
129.482 15.2937 0
126.944 15.3621 0
128.098 11.0439 0
129.424 13.1517 0
128.213 15.328 0
126.887 13.2201 0
128.155 13.1861 0
129.366 11.0096 0
131.902 10.9401 0
132.02 15.2241 0
129.482 15.2937 0
130.634 10.9749 0
131.961 13.0822 0
130.751 15.2591 0
129.424 13.1517 0
130.693 13.1171 0
131.902 10.9401 0
134.438 10.8694 0
134.558 15.1534 0
132.02 15.2241 0
133.17 10.9049 0
134.498 13.0115 0
133.289 15.1889 0
131.961 13.0822 0
133.23 13.047 0
134.438 10.8694 0
136.974 10.7976 0
137.096 15.0816 0
134.558 15.1534 0
135.706 10.8337 0
137.035 12.9397 0
135.827 15.1177 0
134.498 13.0115 0
135.767 12.9758 0
136.974 10.7976 0
139.511 10.7247 0
139.634 15.0087 0
137.096 15.0816 0
138.243 10.7613 0
139.572 12.8668 0
138.365 15.0453 0
137.035 12.9397 0
138.304 12.9034 0
139.511 10.7247 0
142.047 10.6507 0
142.172 14.9346 0
139.634 15.0087 0
140.779 10.6879 0
142.109 12.7928 0
140.903 14.9718 0
139.572 12.8668 0
140.841 12.8299 0
142.047 10.6507 0
144.583 10.5756 0
144.71 14.8594 0
142.172 14.9346 0
143.315 10.6133 0
144.646 12.7176 0
143.441 14.8971 0
142.109 12.7928 0
143.378 12.7553 0
144.583 10.5756 0
147.119 10.4994 0
147.248 14.7831 0
144.71 14.8594 0
145.851 10.5376 0
147.183 12.6414 0
145.979 14.8214 0
144.646 12.7176 0
145.915 12.6796 0
147.119 10.4994 0
149.655 10.4221 0
149.786 14.7058 0
147.248 14.7831 0
148.387 10.4609 0
149.72 12.564 0
148.517 14.7446 0
147.183 12.6414 0
148.452 12.6028 0
149.655 10.4221 0
152.191 10.3437 0
152.323 14.6273 0
149.786 14.7058 0
150.923 10.383 0
152.257 12.4856 0
151.054 14.6667 0
149.72 12.564 0
150.988 12.525 0
152.191 10.3437 0
154.726 10.2642 0
154.861 14.5478 0
152.323 14.6273 0
153.459 10.3041 0
154.794 12.4061 0
153.592 14.5877 0
152.257 12.4856 0
153.525 12.446 0
154.726 10.2642 0
157.262 10.1836 0
157.399 14.4672 0
154.861 14.5478 0
155.994 10.2241 0
157.331 12.3255 0
156.13 14.5076 0
154.794 12.4061 0
156.062 12.3659 0
157.262 10.1836 0
159.798 10.102 0
159.936 14.3855 0
157.399 14.4672 0
158.53 10.143 0
159.867 12.2439 0
158.668 14.4265 0
157.331 12.3255 0
158.599 12.2848 0
159.798 10.102 0
162.334 10.0194 0
162.474 14.3028 0
159.936 14.3855 0
161.066 10.0608 0
162.404 12.1612 0
161.205 14.3443 0
159.867 12.2439 0
161.136 12.2027 0
162.334 10.0194 0
164.87 9.93568 0
165.012 14.219 0
162.474 14.3028 0
163.602 9.97767 0
164.941 12.0775 0
163.743 14.2611 0
162.404 12.1612 0
163.672 12.1195 0
164.87 9.93568 0
167.406 9.85095 0
167.549 14.1343 0
165.012 14.219 0
166.138 9.89344 0
167.477 11.9927 0
166.28 14.1768 0
164.941 12.0775 0
166.209 12.0352 0
167.406 9.85095 0
169.941 9.76518 0
170.087 14.0484 0
167.549 14.1343 0
168.674 9.80819 0
170.014 11.9069 0
168.818 14.0915 0
167.477 11.9927 0
168.746 11.9499 0
169.941 9.76518 0
172.477 9.67839 0
172.624 13.9616 0
170.087 14.0484 0
171.209 9.72191 0
172.551 11.8201 0
171.355 14.0051 0
170.014 11.9069 0
171.282 11.8636 0
172.477 9.67839 0
175.013 9.59059 0
175.161 13.8737 0
172.624 13.9616 0
173.745 9.63461 0
175.087 11.7323 0
173.893 13.9178 0
172.551 11.8201 0
173.819 11.7763 0
175.013 9.59059 0
177.548 9.50178 0
177.699 13.7848 0
175.161 13.8737 0
176.281 9.54631 0
177.624 11.6434 0
176.43 13.8294 0
175.087 11.7323 0
176.355 11.688 0
177.548 9.50178 0
180.084 9.41197 0
180.236 13.695 0
177.699 13.7848 0
178.816 9.457 0
180.16 11.5536 0
178.967 13.74 0
177.624 11.6434 0
178.892 11.5986 0
180.084 9.41197 0
182.62 9.32118 0
182.773 13.6041 0
180.236 13.695 0
181.352 9.3667 0
182.697 11.4628 0
181.505 13.6497 0
180.16 11.5536 0
181.428 11.5083 0
182.62 9.32118 0
185.155 9.2294 0
185.311 13.5123 0
182.773 13.6041 0
183.888 9.27541 0
185.233 11.371 0
184.042 13.5583 0
182.697 11.4628 0
183.965 11.417 0
185.155 9.2294 0
187.691 9.13665 0
187.848 13.4195 0
185.311 13.5123 0
186.423 9.18315 0
187.769 11.2782 0
186.579 13.466 0
185.233 11.371 0
186.501 11.3247 0
187.691 9.13665 0
190.226 9.04293 0
190.385 13.3257 0
187.848 13.4195 0
188.959 9.08991 0
190.306 11.1844 0
189.116 13.3727 0
187.769 11.2782 0
189.037 11.2314 0
190.226 9.04293 0
192.762 8.94826 0
192.922 13.231 0
190.385 13.3257 0
191.494 8.99571 0
192.842 11.0897 0
191.653 13.2785 0
190.306 11.1844 0
191.574 11.1372 0
192.762 8.94826 0
195.297 8.85263 0
195.459 13.1353 0
192.922 13.231 0
194.03 8.90056 0
195.378 10.9941 0
194.191 13.1832 0
192.842 11.0897 0
194.11 11.042 0
195.297 8.85263 0
197.833 8.75606 0
197.996 13.0387 0
195.459 13.1353 0
196.565 8.80446 0
197.914 10.8975 0
196.728 13.0871 0
195.378 10.9941 0
196.646 10.9459 0
197.833 8.75606 0
200.368 8.65856 0
200.533 12.9411 0
197.996 13.0387 0
199.101 8.70743 0
200.451 10.7999 0
199.265 12.99 0
197.914 10.8975 0
199.183 10.8488 0
200.368 8.65856 0
202.904 8.56013 0
203.07 12.8426 0
200.533 12.9411 0
201.636 8.60946 0
202.987 10.7015 0
201.802 12.892 0
200.451 10.7999 0
201.719 10.7508 0
202.904 8.56013 0
205.439 8.46078 0
205.607 12.7432 0
203.07 12.8426 0
204.171 8.51057 0
205.523 10.6021 0
204.338 12.793 0
202.987 10.7015 0
204.255 10.6519 0
205.439 8.46078 0
207.974 8.36052 0
208.144 12.6429 0
205.607 12.7432 0
206.707 8.41076 0
208.059 10.5018 0
206.875 12.6931 0
205.523 10.6021 0
206.791 10.552 0
207.974 8.36052 0
210.51 8.25935 0
210.681 12.5416 0
208.144 12.6429 0
209.242 8.31005 0
210.595 10.4006 0
209.412 12.5924 0
208.059 10.5018 0
209.327 10.4513 0
210.51 8.25935 0
213.045 8.15729 0
213.217 12.4395 0
210.681 12.5416 0
211.777 8.20844 0
213.131 10.2985 0
211.949 12.4907 0
210.595 10.4006 0
211.863 10.3497 0
213.045 8.15729 0
215.58 8.05435 0
215.754 12.3365 0
213.217 12.4395 0
214.312 8.10593 0
215.667 10.1955 0
214.486 12.3881 0
213.131 10.2985 0
214.399 10.2471 0
215.58 8.05435 0
218.115 7.95052 0
218.291 12.2326 0
215.754 12.3365 0
216.848 8.00254 0
218.203 10.0917 0
217.022 12.2847 0
215.667 10.1955 0
216.935 10.1437 0
218.115 7.95052 0
220.65 7.84582 0
220.827 12.1279 0
218.291 12.2326 0
219.383 7.89828 0
220.739 9.98694 0
219.559 12.1804 0
218.203 10.0917 0
219.471 10.0394 0
220.65 7.84582 0
223.186 7.74026 0
223.364 12.0223 0
220.827 12.1279 0
221.918 7.79315 0
223.275 9.88135 0
222.096 12.0752 0
220.739 9.98694 0
222.007 9.93425 0
223.186 7.74026 0
225.721 7.63384 0
225.901 11.9158 0
223.364 12.0223 0
224.453 7.68716 0
225.811 9.7749 0
224.632 11.9691 0
223.275 9.88135 0
224.543 9.82823 0
225.721 7.63384 0
228.256 7.52658 0
228.437 11.8084 0
225.901 11.9158 0
226.988 7.58031 0
228.346 9.6676 0
227.169 11.8622 0
225.811 9.7749 0
227.079 9.72136 0
228.256 7.52658 0
230.791 7.41847 0
230.974 11.7003 0
228.437 11.8084 0
229.523 7.47263 0
230.882 9.55946 0
229.705 11.7545 0
228.346 9.6676 0
229.614 9.61364 0
230.791 7.41847 0
233.326 7.30953 0
233.51 11.5913 0
230.974 11.7003 0
232.058 7.3641 0
233.418 9.45049 0
232.242 11.6459 0
230.882 9.55946 0
232.15 9.50508 0
233.326 7.30953 0
235.861 7.19977 0
236.046 11.4815 0
233.51 11.5913 0
234.593 7.25475 0
235.954 9.3407 0
234.778 11.5365 0
233.418 9.45049 0
234.686 9.3957 0
235.861 7.19977 0
238.396 7.08919 0
238.583 11.3708 0
236.046 11.4815 0
237.128 7.14458 0
238.489 9.23009 0
237.315 11.4262 0
235.954 9.3407 0
237.221 9.28549 0
238.396 7.08919 0
240.931 6.9778 0
241.119 11.2594 0
238.583 11.3708 0
239.663 7.03359 0
241.025 9.11867 0
239.851 11.3152 0
238.489 9.23009 0
239.757 9.17448 0
240.931 6.9778 0
243.466 6.86561 0
243.655 11.1471 0
241.119 11.2594 0
242.198 6.9218 0
243.561 9.00645 0
242.387 11.2033 0
241.025 9.11867 0
242.293 9.06266 0
243.466 6.86561 0
246.001 6.75262 0
246.192 11.0341 0
243.655 11.1471 0
244.733 6.80921 0
246.096 8.89343 0
244.923 11.0907 0
243.561 9.00645 0
244.828 8.95004 0
246.001 6.75262 0
248.535 6.63885 0
248.728 10.9202 0
246.192 11.0341 0
247.268 6.69583 0
248.632 8.77963 0
247.46 10.9773 0
246.096 8.89343 0
247.364 8.83663 0
248.535 6.63885 0
251.07 6.52431 0
251.264 10.8056 0
248.728 10.9202 0
249.803 6.58168 0
251.167 8.66506 0
249.996 10.863 0
248.632 8.77963 0
249.899 8.72244 0
251.07 6.52431 0
253.605 6.40899 0
253.8 10.6903 0
251.264 10.8056 0
252.338 6.46674 0
253.703 8.54971 0
252.532 10.748 0
251.167 8.66506 0
252.435 8.60748 0
253.605 6.40899 0
256.14 6.29291 0
256.336 10.5741 0
253.8 10.6903 0
254.873 6.35105 0
256.238 8.4336 0
255.068 10.6323 0
253.703 8.54971 0
254.97 8.49175 0
256.14 6.29291 0
258.675 6.17608 0
258.872 10.4572 0
256.336 10.5741 0
257.407 6.23459 0
258.773 8.31674 0
257.604 10.5158 0
256.238 8.4336 0
257.506 8.37526 0
258.675 6.17608 0
261.209 6.0585 0
261.408 10.3396 0
258.872 10.4572 0
259.942 6.11738 0
261.309 8.19913 0
260.14 10.3985 0
258.773 8.31674 0
260.041 8.25803 0
261.209 6.0585 0
263.744 5.94019 0
263.944 10.2212 0
261.408 10.3396 0
262.477 5.99944 0
263.844 8.08079 0
262.676 10.2805 0
261.309 8.19913 0
262.576 8.14005 0
263.744 5.94019 0
266.279 5.82114 0
266.48 10.1021 0
263.944 10.2212 0
265.011 5.88075 0
266.379 7.96171 0
265.212 10.1618 0
263.844 8.08079 0
265.112 8.02134 0
266.279 5.82114 0
268.813 5.70137 0
269.016 9.9823 0
266.48 10.1021 0
267.546 5.76135 0
268.915 7.84191 0
267.748 10.0423 0
266.379 7.96171 0
267.647 7.9019 0
268.813 5.70137 0
271.348 5.58089 0
271.551 9.86176 0
269.016 9.9823 0
270.081 5.64122 0
271.45 7.7214 0
270.284 9.92212 0
268.915 7.84191 0
270.182 7.78175 0
271.348 5.58089 0
273.883 5.4597 0
274.087 9.74052 0
271.551 9.86176 0
272.615 5.52038 0
273.985 7.60018 0
272.819 9.80123 0
271.45 7.7214 0
272.717 7.66088 0
273.883 5.4597 0
276.417 5.33781 0
276.623 9.61857 0
274.087 9.74052 0
275.15 5.39884 0
276.52 7.47826 0
275.355 9.67963 0
273.985 7.60018 0
275.252 7.53931 0
276.417 5.33781 0
278.952 5.21523 0
279.159 9.49594 0
276.623 9.61857 0
277.684 5.27661 0
279.055 7.35566 0
277.891 9.55734 0
276.52 7.47826 0
277.788 7.41705 0
278.952 5.21523 0
281.486 5.09197 0
281.694 9.37262 0
279.159 9.49594 0
280.219 5.15368 0
281.59 7.23236 0
280.426 9.43436 0
279.055 7.35566 0
280.323 7.29409 0
281.486 5.09197 0
284.021 4.96803 0
284.23 9.24862 0
281.694 9.37262 0
282.753 5.03008 0
284.125 7.1084 0
282.962 9.3107 0
281.59 7.23236 0
282.858 7.17046 0
284.021 4.96803 0
286.555 4.84342 0
286.765 9.12396 0
284.23 9.24862 0
285.288 4.90581 0
286.66 6.98376 0
285.498 9.18638 0
284.125 7.1084 0
285.393 7.04616 0
286.555 4.84342 0
289.089 4.71816 0
289.301 8.99864 0
286.765 9.12396 0
287.822 4.78087 0
289.195 6.85847 0
288.033 9.06138 0
286.66 6.98376 0
287.928 6.9212 0
289.089 4.71816 0
291.624 4.59224 0
291.837 8.87267 0
289.301 8.99864 0
290.357 4.65528 0
291.73 6.73253 0
290.569 8.93574 0
289.195 6.85847 0
290.463 6.79558 0
291.624 4.59224 0
294.158 4.46568 0
294.372 8.74606 0
291.837 8.87267 0
292.891 4.52904 0
294.265 6.60594 0
293.104 8.80944 0
291.73 6.73253 0
292.998 6.66931 0
294.158 4.46568 0
296.693 4.33848 0
296.907 8.61881 0
294.372 8.74606 0
295.425 4.40216 0
296.8 6.47871 0
295.64 8.68251 0
294.265 6.60594 0
295.533 6.5424 0
296.693 4.33848 0
299.227 4.21066 0
299.443 8.49093 0
296.907 8.61881 0
297.96 4.27465 0
299.335 6.35086 0
298.175 8.55495 0
296.8 6.47871 0
298.067 6.41486 0
299.227 4.21066 0
301.761 4.08221 0
301.978 8.36243 0
299.443 8.49093 0
300.494 4.14651 0
301.87 6.22239 0
300.71 8.42676 0
299.335 6.35086 0
300.602 6.2867 0
301.761 4.08221 0
304.296 3.95315 0
304.513 8.23332 0
301.978 8.36243 0
303.028 4.01776 0
304.404 6.0933 0
303.246 8.29795 0
301.87 6.22239 0
303.137 6.15792 0
304.296 3.95315 0
306.83 3.82349 0
307.049 8.10361 0
304.513 8.23332 0
305.563 3.8884 0
306.939 5.96361 0
305.781 8.16854 0
304.404 6.0933 0
305.672 6.02853 0
306.83 3.82349 0
309.364 3.69323 0
309.584 7.9733 0
307.049 8.10361 0
308.097 3.75844 0
309.474 5.83333 0
308.316 8.03853 0
306.939 5.96361 0
308.207 5.89855 0
309.364 3.69323 0
311.898 3.56239 0
312.119 7.8424 0
309.584 7.9733 0
310.631 3.62788 0
312.009 5.70245 0
310.851 7.90792 0
309.474 5.83333 0
310.741 5.76796 0
311.898 3.56239 0
314.432 3.43096 0
314.654 7.71092 0
312.119 7.8424 0
313.165 3.49674 0
314.543 5.571 0
313.387 7.77673 0
312.009 5.70245 0
313.276 5.6368 0
314.432 3.43096 0
316.967 3.29895 0
317.189 7.57887 0
314.654 7.71092 0
315.699 3.36503 0
317.078 5.43897 0
315.922 7.64496 0
314.543 5.571 0
315.811 5.50506 0
316.967 3.29895 0
319.501 3.16639 0
319.724 7.44625 0
317.189 7.57887 0
318.234 3.23274 0
319.613 5.30638 0
318.457 7.51263 0
317.078 5.43897 0
318.345 5.37275 0
319.501 3.16639 0
322.035 3.03326 0
322.259 7.31308 0
319.724 7.44625 0
320.768 3.09989 0
322.147 5.17323 0
320.992 7.37973 0
319.613 5.30638 0
320.88 5.23987 0
322.035 3.03326 0
324.569 2.89959 0
324.794 7.17935 0
322.259 7.31308 0
323.302 2.96649 0
324.682 5.03953 0
323.527 7.24628 0
322.147 5.17323 0
323.414 5.10645 0
324.569 2.89959 0
327.103 2.76537 0
327.329 7.04509 0
324.794 7.17935 0
325.836 2.83255 0
327.216 4.90529 0
326.062 7.11229 0
324.682 5.03953 0
325.949 4.97248 0
327.103 2.76537 0
329.637 2.63062 0
329.864 6.91029 0
327.329 7.04509 0
328.37 2.69806 0
329.751 4.77051 0
328.597 6.97776 0
327.216 4.90529 0
328.483 4.83797 0
329.637 2.63062 0
332.171 2.49535 0
332.399 6.77497 0
329.864 6.91029 0
330.904 2.56305 0
332.285 4.63521 0
331.132 6.8427 0
329.751 4.77051 0
331.018 4.70293 0
332.171 2.49535 0
334.705 2.35955 0
334.934 6.63913 0
332.399 6.77497 0
333.438 2.42751 0
334.82 4.49939 0
333.667 6.70711 0
332.285 4.63521 0
333.552 4.56737 0
334.705 2.35955 0
337.239 2.22325 0
337.469 6.50278 0
334.934 6.63913 0
335.972 2.29146 0
337.354 4.36307 0
336.202 6.57102 0
334.82 4.49939 0
336.087 4.43129 0
337.239 2.22325 0
339.773 2.08644 0
340.004 6.36593 0
337.469 6.50278 0
338.506 2.1549 0
339.888 4.22624 0
338.736 6.43441 0
337.354 4.36307 0
338.621 4.29471 0
339.773 2.08644 0
342.307 1.94914 0
342.539 6.22858 0
340.004 6.36593 0
341.04 2.01785 0
342.423 4.08891 0
341.271 6.29731 0
339.888 4.22624 0
341.156 4.15763 0
342.307 1.94914 0
344.841 1.81135 0
345.073 6.09075 0
342.539 6.22858 0
343.574 1.8803 0
344.957 3.9511 0
343.806 6.15972 0
342.423 4.08891 0
343.69 4.02006 0
344.841 1.81135 0
347.375 1.67308 0
347.608 5.95243 0
345.073 6.09075 0
346.108 1.74227 0
347.491 3.81281 0
346.341 6.02165 0
344.957 3.9511 0
346.224 3.88201 0
347.375 1.67308 0
349.909 1.53434 0
350.143 5.81365 0
347.608 5.95243 0
348.642 1.60377 0
350.026 3.67405 0
348.875 5.8831 0
347.491 3.81281 0
348.759 3.74349 0
349.909 1.53434 0
352.442 1.39514 0
352.677 5.67441 0
350.143 5.81365 0
351.176 1.4648 0
352.56 3.53482 0
351.41 5.74409 0
350.026 3.67405 0
351.293 3.60449 0
352.442 1.39514 0
354.976 1.25548 0
355.212 5.53471 0
352.677 5.67441 0
353.709 1.32537 0
355.094 3.39514 0
353.945 5.60462 0
352.56 3.53482 0
353.827 3.46504 0
354.976 1.25548 0
357.51 1.11538 0
357.747 5.39456 0
355.212 5.53471 0
356.243 1.18549 0
357.628 3.25502 0
356.479 5.46469 0
355.094 3.39514 0
356.361 3.32514 0
357.51 1.11538 0
360.044 0.974832 0
360.281 5.25398 0
357.747 5.39456 0
358.777 1.04516 0
360.163 3.11445 0
359.014 5.32432 0
357.628 3.25502 0
358.895 3.18479 0
360.044 0.974832 0
362.578 0.833856 0
362.816 5.11296 0
360.281 5.25398 0
361.311 0.904398 0
362.697 2.97345 0
361.548 5.18352 0
360.163 3.11445 0
361.43 3.04401 0
362.578 0.833856 0
365.112 0.692455 0
365.35 4.97152 0
362.816 5.11296 0
363.845 0.763208 0
365.231 2.83203 0
364.083 5.04229 0
362.697 2.97345 0
363.964 2.9028 0
365.112 0.692455 0
367.645 0.550638 0
367.885 4.82967 0
365.35 4.97152 0
366.378 0.621598 0
367.765 2.6902 0
366.617 4.90064 0
365.231 2.83203 0
366.498 2.76117 0
367.645 0.550638 0
370.179 0.408413 0
370.419 4.6874 0
367.885 4.82967 0
368.912 0.479576 0
370.299 2.54795 0
369.152 4.75858 0
367.765 2.6902 0
369.032 2.61912 0
370.179 0.408413 0
372.713 0.265788 0
372.953 4.54474 0
370.419 4.6874 0
371.446 0.33715 0
372.833 2.40531 0
371.686 4.61612 0
370.299 2.54795 0
371.566 2.47668 0
372.713 0.265788 0
375.247 0.12277 0
375.488 4.40168 0
372.953 4.54474 0
373.98 0.194327 0
375.367 2.26227 0
374.221 4.47326 0
372.833 2.40531 0
374.1 2.33384 0
375.247 0.12277 0
377.78 -0.0206332 0
378.022 4.25825 0
375.488 4.40168 0
376.513 0.0511158 0
377.901 2.11885 0
376.755 4.33001 0
375.367 2.26227 0
376.634 2.1906 0
377.78 -0.0206332 0
380.314 -0.164413 0
380.556 4.11443 0
378.022 4.25825 0
379.047 -0.0924765 0
380.435 1.97505 0
379.289 4.18638 0
377.901 2.11885 0
379.168 2.04699 0
380.314 -0.164413 0
382.848 -0.308562 0
383.091 3.97025 0
380.556 4.11443 0
381.581 -0.236442 0
382.969 1.83088 0
381.824 4.04238 0
380.435 1.97505 0
381.702 1.90301 0
382.848 -0.308562 0
385.381 -0.453072 0
385.625 3.8257 0
383.091 3.97025 0
384.114 -0.380772 0
385.503 1.68635 0
384.358 3.89802 0
382.969 1.83088 0
384.236 1.75866 0
385.381 -0.453072 0
387.915 -0.597936 0
388.159 3.6808 0
385.625 3.8257 0
386.648 -0.52546 0
388.037 1.54147 0
386.892 3.7533 0
385.503 1.68635 0
386.77 1.61396 0
387.915 -0.597936 0
390.448 -0.743145 0
390.693 3.53556 0
388.159 3.6808 0
389.182 -0.670498 0
390.571 1.39624 0
389.426 3.60823 0
388.037 1.54147 0
389.304 1.4689 0
390.448 -0.743145 0
392.982 -0.888691 0
393.228 3.38998 0
390.693 3.53556 0
391.715 -0.815876 0
393.105 1.25068 0
391.96 3.46281 0
390.571 1.39624 0
391.838 1.3235 0
392.982 -0.888691 0
395.516 -1.03457 0
395.762 3.24408 0
393.228 3.38998 0
394.249 -0.961589 0
395.639 1.10479 0
394.495 3.31707 0
393.105 1.25068 0
394.372 1.17778 0
395.516 -1.03457 0
398.049 -1.18077 0
398.296 3.09785 0
395.762 3.24408 0
396.782 -1.10763 0
398.173 0.958573 0
397.029 3.171 0
395.639 1.10479 0
396.906 1.03172 0
398.049 -1.18077 0
400.583 -1.32728 0
400.83 2.9513 0
398.296 3.09785 0
399.316 -1.25398 0
400.706 0.812044 0
399.563 3.02461 0
398.173 0.958573 0
399.44 0.885347 0
400.583 -1.32728 0
403.116 -1.4741 0
403.364 2.80445 0
400.83 2.9513 0
401.85 -1.40065 0
403.24 0.66521 0
402.097 2.87792 0
400.706 0.812044 0
401.973 0.738665 0
403.116 -1.4741 0
405.65 -1.62122 0
405.898 2.65731 0
403.364 2.80445 0
404.383 -1.54762 0
405.774 0.518077 0
404.631 2.73092 0
403.24 0.66521 0
404.507 0.59168 0
405.65 -1.62122 0
408.184 -1.76862 0
408.432 2.50987 0
405.898 2.65731 0
406.917 -1.69488 0
408.308 0.370654 0
407.165 2.58363 0
405.774 0.518077 0
407.041 0.444401 0
408.184 -1.76862 0
410.717 -1.91632 0
410.966 2.36215 0
408.432 2.50987 0
409.45 -1.84243 0
410.842 0.222949 0
409.699 2.43605 0
408.308 0.370654 0
409.575 0.296836 0
410.717 -1.91632 0
413.251 -2.06428 0
413.5 2.21416 0
410.966 2.36215 0
411.984 -1.99026 0
413.375 0.0749687 0
412.233 2.28819 0
410.842 0.222949 0
412.108 0.148993 0
413.251 -2.06428 0
415.784 -2.21251 0
416.034 2.0659 0
413.5 2.21416 0
414.517 -2.13836 0
415.909 -0.073278 0
414.767 2.14006 0
413.375 0.0749687 0
414.642 0.000878204 0
415.784 -2.21251 0
418.318 -2.36101 0
418.568 1.91739 0
416.034 2.0659 0
417.051 -2.28673 0
418.443 -0.221784 0
417.301 1.99168 0
415.909 -0.073278 0
417.176 -0.147499 0
418.318 -2.36101 0
420.851 -2.50975 0
421.102 1.76862 0
418.568 1.91739 0
419.584 -2.43535 0
420.977 -0.37054 0
419.835 1.84303 0
418.443 -0.221784 0
419.71 -0.296131 0
420.851 -2.50975 0
423.385 -2.65874 0
423.636 1.61961 0
421.102 1.76862 0
422.118 -2.58421 0
423.51 -0.51954 0
422.369 1.69414 0
420.977 -0.37054 0
422.243 -0.44501 0
423.385 -2.65874 0
425.918 -2.80796 0
426.17 1.47036 0
423.636 1.61961 0
424.651 -2.73332 0
426.044 -0.668775 0
424.903 1.54501 0
423.51 -0.51954 0
424.777 -0.594129 0
425.918 -2.80796 0
428.452 -2.95741 0
428.704 1.32089 0
426.17 1.47036 0
427.185 -2.88266 0
428.578 -0.818238 0
427.437 1.39565 0
426.044 -0.668775 0
427.311 -0.743478 0
428.452 -2.95741 0
430.985 -3.10708 0
431.237 1.1712 0
428.704 1.32089 0
429.718 -3.03222 0
431.111 -0.96792 0
429.971 1.24607 0
428.578 -0.818238 0
429.844 -0.893052 0
430.985 -3.10708 0
433.519 -3.25696 0
433.771 1.02129 0
431.237 1.1712 0
432.252 -3.182 0
433.645 -1.11781 0
432.504 1.09627 0
431.111 -0.96792 0
432.378 -1.04284 0
433.519 -3.25696 0
436.052 -3.40705 0
436.305 0.871185 0
433.771 1.02129 0
434.785 -3.33198 0
436.179 -1.26791 0
435.038 0.946264 0
433.645 -1.11781 0
434.912 -1.19284 0
436.052 -3.40705 0
438.586 -3.55733 0
438.839 0.720882 0
436.305 0.871185 0
437.319 -3.48217 0
438.712 -1.41821 0
437.572 0.796058 0
436.179 -1.26791 0
437.445 -1.34303 0
438.586 -3.55733 0
441.119 -3.70781 0
441.373 0.570392 0
438.839 0.720882 0
439.852 -3.63255 0
441.246 -1.56869 0
440.106 0.64566 0
438.712 -1.41821 0
439.979 -1.49342 0
441.119 -3.70781 0
443.652 -3.85846 0
443.906 0.419721 0
441.373 0.570392 0
442.386 -3.78311 0
443.779 -1.71935 0
442.639 0.495078 0
441.246 -1.56869 0
442.513 -1.644 0
443.652 -3.85846 0
446.186 -4.00929 0
446.44 0.268878 0
443.906 0.419721 0
444.919 -3.93385 0
446.313 -1.87019 0
445.173 0.34432 0
443.779 -1.71935 0
445.046 -1.79475 0
446.186 -4.00929 0
448.719 -4.16028 0
448.974 0.117871 0
446.44 0.268878 0
447.453 -4.08476 0
448.847 -2.02119 0
447.707 0.193394 0
446.313 -1.87019 0
447.58 -1.94567 0
448.719 -4.16028 0
451.253 -4.31143 0
451.508 -0.0332931 0
448.974 0.117871 0
449.986 -4.23583 0
451.38 -2.17234 0
450.241 0.0423079 0
448.847 -2.02119 0
450.113 -2.09675 0
451.253 -4.31143 0
453.786 -4.46272 0
454.041 -0.184605 0
451.508 -0.0332931 0
452.519 -4.38706 0
453.914 -2.32365 0
452.774 -0.108931 0
451.38 -2.17234 0
452.647 -2.24798 0
453.786 -4.46272 0
456.32 -4.61416 0
456.575 -0.336059 0
454.041 -0.184605 0
455.053 -4.53843 0
456.447 -2.4751 0
455.308 -0.260315 0
453.914 -2.32365 0
455.18 -2.39936 0
456.32 -4.61416 0
458.853 -4.76574 0
459.109 -0.487645 0
456.575 -0.336059 0
457.586 -4.68993 0
458.981 -2.62668 0
457.842 -0.411836 0
456.447 -2.4751 0
457.714 -2.55087 0
458.853 -4.76574 0
461.386 -4.91743 0
461.642 -0.639356 0
459.109 -0.487645 0
460.12 -4.84157 0
461.514 -2.77838 0
460.375 -0.563485 0
458.981 -2.62668 0
460.248 -2.70251 0
461.386 -4.91743 0
463.92 -5.06925 0
464.176 -0.791185 0
461.642 -0.639356 0
462.653 -4.99333 0
464.048 -2.93021 0
462.909 -0.715256 0
461.514 -2.77838 0
462.781 -2.85428 0
463.92 -5.06925 0
466.453 -5.22118 0
466.709 -0.943123 0
464.176 -0.791185 0
465.187 -5.1452 0
466.581 -3.08214 0
465.443 -0.86714 0
464.048 -2.93021 0
465.315 -3.00616 0
466.453 -5.22118 0
468.987 -5.37321 0
469.243 -1.09516 0
466.709 -0.943123 0
467.72 -5.29718 0
469.115 -3.23418 0
467.976 -1.01913 0
466.581 -3.08214 0
467.848 -3.15815 0
468.987 -5.37321 0
471.52 -5.52533 0
471.777 -1.2473 0
469.243 -1.09516 0
470.254 -5.44926 0
471.648 -3.38631 0
470.51 -1.17122 0
469.115 -3.23418 0
470.382 -3.31023 0
471.52 -5.52533 0
474.054 -5.67755 0
474.31 -1.39952 0
471.777 -1.2473 0
472.787 -5.60143 0
474.182 -3.53852 0
473.043 -1.3234 0
471.648 -3.38631 0
472.915 -3.4624 0
474.054 -5.67755 0
476.587 -5.82984 0
476.844 -1.55181 0
474.31 -1.39952 0
475.32 -5.75368 0
476.715 -3.69082 0
475.577 -1.47566 0
474.182 -3.53852 0
475.449 -3.61466 0
476.587 -5.82984 0
479.121 -5.9822 0
479.377 -1.70418 0
476.844 -1.55181 0
477.854 -5.90601 0
479.249 -3.84319 0
478.111 -1.62799 0
476.715 -3.69082 0
477.982 -3.76699 0
479.121 -5.9822 0
481.654 -6.13463 0
481.911 -1.85662 0
479.377 -1.70418 0
480.387 -6.05841 0
481.782 -3.99562 0
480.644 -1.78039 0
479.249 -3.84319 0
480.516 -3.91939 0
481.654 -6.13463 0
484.187 -6.28711 0
484.444 -2.00911 0
481.911 -1.85662 0
482.921 -6.21086 0
484.316 -4.14811 0
483.178 -1.93285 0
481.782 -3.99562 0
483.049 -4.07185 0
484.187 -6.28711 0
486.721 -6.43965 0
486.978 -2.16164 0
484.444 -2.00911 0
485.454 -6.36337 0
486.849 -4.30064 0
485.711 -2.08537 0
484.316 -4.14811 0
485.583 -4.22437 0
486.721 -6.43965 0
489.254 -6.59222 0
489.511 -2.31422 0
486.978 -2.16164 0
487.988 -6.51593 0
489.383 -4.45322 0
488.245 -2.23793 0
486.849 -4.30064 0
488.116 -4.37693 0
489.254 -6.59222 0
491.788 -6.74482 0
492.045 -2.46682 0
489.511 -2.31422 0
490.521 -6.66852 0
491.916 -4.60582 0
490.778 -2.39052 0
489.383 -4.45322 0
490.65 -4.52952 0
491.788 -6.74482 0
494.321 -6.89743 0
494.578 -2.61943 0
492.045 -2.46682 0
493.055 -6.82113 0
494.45 -4.75842 0
493.312 -2.54313 0
491.916 -4.60582 0
493.183 -4.68212 0
494.321 -6.89743 0
496.855 -7.05 0
497.112 -2.772 0
494.578 -2.61943 0
495.588 -6.97372 0
496.983 -4.91099 0
495.845 -2.69572 0
494.45 -4.75842 0
495.717 -4.83471 0
496.855 -7.05 0
499.388 -7.20248 0
499.645 -2.9245 0
497.112 -2.772 0
498.122 -7.12626 0
499.517 -5.06347 0
498.379 -2.84826 0
496.983 -4.91099 0
498.25 -4.98724 0
0 17.1429 0
2.53919 17.143 0
2.54152 21.4282 0
0 21.4286 0
1.26959 17.1432 0
2.54035 19.2857 0
1.27071 21.4287 0
0 19.2857 0
1.27014 19.286 0
2.53919 17.143 0
5.07848 17.1411 0
5.0833 21.4259 0
2.54152 21.4282 0
3.80883 17.1423 0
5.08087 19.2836 0
3.81238 21.4273 0
2.54035 19.2857 0
3.81059 19.2849 0
5.07848 17.1411 0
7.61782 17.1373 0
7.62523 21.4218 0
5.0833 21.4259 0
6.34815 17.1394 0
7.62149 19.2797 0
6.35425 21.424 0
5.08087 19.2836 0
6.35117 19.2819 0
7.61782 17.1373 0
10.1572 17.1318 0
10.1672 21.4162 0
7.62523 21.4218 0
8.88749 17.1348 0
10.1622 19.2742 0
8.89621 21.4192 0
7.62149 19.2797 0
8.89182 19.2771 0
10.1572 17.1318 0
12.6965 17.1247 0
12.7091 21.4091 0
10.1672 21.4162 0
11.4269 17.1285 0
12.7028 19.2671 0
11.4382 21.4128 0
10.1622 19.2742 0
11.4325 19.2708 0
12.6965 17.1247 0
15.2359 17.1161 0
15.251 21.4005 0
12.7091 21.4091 0
13.9662 17.1206 0
15.2434 19.2585 0
13.9801 21.405 0
12.7028 19.2671 0
13.9731 19.263 0
15.2359 17.1161 0
17.7752 17.106 0
17.7929 21.3904 0
15.251 21.4005 0
16.5055 17.1112 0
17.784 19.2483 0
16.522 21.3956 0
15.2434 19.2585 0
16.5137 19.2536 0
17.7752 17.106 0
20.3145 17.0944 0
20.3347 21.3788 0
17.7929 21.3904 0
19.0448 17.1004 0
20.3246 19.2367 0
19.0638 21.3847 0
17.784 19.2483 0
19.0543 19.2427 0
20.3145 17.0944 0
22.8538 17.0813 0
22.8765 21.3657 0
20.3347 21.3788 0
21.5841 17.088 0
22.8651 19.2236 0
21.6056 21.3724 0
20.3246 19.2367 0
21.5949 19.2304 0
22.8538 17.0813 0
25.393 17.0667 0
25.4183 21.3511 0
22.8765 21.3657 0
24.1234 17.0742 0
25.4057 19.2091 0
24.1474 21.3586 0
22.8651 19.2236 0
24.1354 19.2165 0
25.393 17.0667 0
27.9323 17.0507 0
27.96 21.3351 0
25.4183 21.3511 0
26.6627 17.0589 0
27.9461 19.193 0
26.6892 21.3433 0
25.4057 19.2091 0
26.6759 19.2012 0
27.9323 17.0507 0
30.4715 17.0332 0
30.5017 21.3176 0
27.96 21.3351 0
29.2019 17.0421 0
30.4866 19.1755 0
29.2309 21.3265 0
27.9461 19.193 0
29.2164 19.1845 0
30.4715 17.0332 0
33.0107 17.0143 0
33.0434 21.2986 0
30.5017 21.3176 0
31.7411 17.0239 0
33.0271 19.1566 0
31.7726 21.3083 0
30.4866 19.1755 0
31.7568 19.1662 0
33.0107 17.0143 0
35.5499 16.9939 0
35.585 21.2782 0
33.0434 21.2986 0
34.2803 17.0043 0
35.5675 19.1362 0
34.3142 21.2886 0
33.0271 19.1566 0
34.2973 19.1466 0
35.5499 16.9939 0
38.0891 16.972 0
38.1266 21.2563 0
35.585 21.2782 0
36.8195 16.9831 0
38.1079 19.1143 0
36.8558 21.2675 0
35.5675 19.1362 0
36.8377 19.1254 0
38.0891 16.972 0
40.6283 16.9488 0
40.6682 21.2331 0
38.1266 21.2563 0
39.3587 16.9606 0
40.6482 19.0911 0
39.3974 21.2449 0
38.1079 19.1143 0
39.378 19.1029 0
40.6283 16.9488 0
43.1674 16.9241 0
43.2097 21.2084 0
40.6682 21.2331 0
41.8979 16.9366 0
43.1886 19.0664 0
41.939 21.2209 0
40.6482 19.0911 0
41.9184 19.0789 0
43.1674 16.9241 0
45.7065 16.898 0
45.7512 21.1822 0
43.2097 21.2084 0
44.437 16.9112 0
45.7289 19.0403 0
44.4805 21.1955 0
43.1886 19.0664 0
44.4587 19.0535 0
45.7065 16.898 0
48.2456 16.8705 0
48.2927 21.1547 0
45.7512 21.1822 0
46.9761 16.8844 0
48.2692 19.0127 0
47.022 21.1686 0
45.7289 19.0403 0
46.999 19.0267 0
48.2456 16.8705 0
50.7847 16.8415 0
50.8341 21.1258 0
48.2927 21.1547 0
49.5152 16.8562 0
50.8094 18.9838 0
49.5634 21.1404 0
48.2692 19.0127 0
49.5393 18.9984 0
50.7847 16.8415 0
53.3238 16.8112 0
53.3755 21.0954 0
50.8341 21.1258 0
52.0542 16.8266 0
53.3496 18.9535 0
52.1048 21.1108 0
50.8094 18.9838 0
52.0795 18.9688 0
53.3238 16.8112 0
55.8628 16.7795 0
55.9169 21.0637 0
53.3755 21.0954 0
54.5933 16.7956 0
55.8898 18.9218 0
54.6462 21.0798 0
53.3496 18.9535 0
54.6197 18.9378 0
55.8628 16.7795 0
58.4018 16.7465 0
58.4582 21.0306 0
55.9169 21.0637 0
57.1323 16.7632 0
58.43 18.8887 0
57.1876 21.0473 0
55.8898 18.9218 0
57.1599 18.9054 0
58.4018 16.7465 0
60.9408 16.712 0
60.9995 20.9962 0
58.4582 21.0306 0
59.6713 16.7294 0
60.9701 18.8542 0
59.7289 21.0136 0
58.43 18.8887 0
59.7001 18.8716 0
60.9408 16.712 0
63.4797 16.6762 0
63.5407 20.9603 0
60.9995 20.9962 0
62.2103 16.6943 0
63.5102 18.8184 0
62.2701 20.9784 0
60.9701 18.8542 0
62.2402 18.8365 0
63.4797 16.6762 0
66.0187 16.6391 0
66.0819 20.9232 0
63.5407 20.9603 0
64.7492 16.6578 0
66.0503 18.7813 0
64.8113 20.9419 0
63.5102 18.8184 0
64.7803 18.8 0
66.0187 16.6391 0
68.5576 16.6006 0
68.6231 20.8846 0
66.0819 20.9232 0
67.2881 16.62 0
68.5903 18.7428 0
67.3525 20.9041 0
66.0503 18.7813 0
67.3203 18.7622 0
68.5576 16.6006 0
71.0965 16.5608 0
71.1642 20.8448 0
68.6231 20.8846 0
69.827 16.5808 0
71.1303 18.7029 0
69.8937 20.8649 0
68.5903 18.7428 0
69.8603 18.723 0
71.0965 16.5608 0
73.6353 16.5196 0
73.7053 20.8036 0
71.1642 20.8448 0
72.3659 16.5403 0
73.6703 18.6617 0
72.4348 20.8244 0
71.1303 18.7029 0
72.4003 18.6825 0
73.6353 16.5196 0
76.1741 16.4771 0
76.2464 20.7611 0
73.7053 20.8036 0
74.9047 16.4985 0
76.2102 18.6192 0
74.9759 20.7825 0
73.6703 18.6617 0
74.9403 18.6406 0
76.1741 16.4771 0
78.7129 16.4333 0
78.7874 20.7172 0
76.2464 20.7611 0
77.4435 16.4554 0
78.7501 18.5754 0
77.5169 20.7393 0
76.2102 18.6192 0
77.4802 18.5975 0
78.7129 16.4333 0
81.2517 16.3882 0
81.3283 20.6721 0
78.7874 20.7172 0
79.9823 16.4109 0
81.29 18.5303 0
80.0579 20.6948 0
78.7501 18.5754 0
80.0201 18.553 0
81.2517 16.3882 0
83.7904 16.3418 0
83.8692 20.6257 0
81.3283 20.6721 0
82.5211 16.3652 0
83.8298 18.4839 0
82.5988 20.6491 0
81.29 18.5303 0
82.5599 18.5073 0
83.7904 16.3418 0
86.3291 16.2941 0
86.4101 20.578 0
83.8692 20.6257 0
85.0598 16.3181 0
86.3696 18.4362 0
85.1397 20.602 0
83.8298 18.4839 0
85.0997 18.4602 0
86.3291 16.2941 0
88.8678 16.2451 0
88.9509 20.5289 0
86.4101 20.578 0
87.5985 16.2698 0
88.9094 18.3872 0
87.6805 20.5536 0
86.3696 18.4362 0
87.6395 18.4118 0
88.8678 16.2451 0
91.4064 16.1949 0
91.4917 20.4787 0
88.9509 20.5289 0
90.1371 16.2202 0
91.4491 18.3369 0
90.2213 20.504 0
88.9094 18.3872 0
90.1792 18.3622 0
91.4064 16.1949 0
93.945 16.1434 0
94.0325 20.4271 0
91.4917 20.4787 0
92.6757 16.1693 0
93.9887 18.2854 0
92.7621 20.453 0
91.4491 18.3369 0
92.7189 18.3113 0
93.945 16.1434 0
96.4836 16.0906 0
96.5732 20.3743 0
94.0325 20.4271 0
95.2143 16.1172 0
96.5284 18.2326 0
95.3028 20.4009 0
93.9887 18.2854 0
95.2586 18.2591 0
96.4836 16.0906 0
99.0222 16.0366 0
99.1138 20.3203 0
96.5732 20.3743 0
97.7529 16.0638 0
99.068 18.1786 0
97.8435 20.3474 0
96.5284 18.2326 0
97.7982 18.2057 0
99.0222 16.0366 0
101.561 15.9813 0
101.654 20.265 0
99.1138 20.3203 0
100.291 16.0091 0
101.608 18.1233 0
100.384 20.2928 0
99.068 18.1786 0
100.338 18.1511 0
101.561 15.9813 0
104.099 15.9248 0
104.195 20.2084 0
101.654 20.265 0
102.83 15.9532 0
104.147 18.0668 0
102.925 20.2368 0
101.608 18.1233 0
102.877 18.0952 0
104.099 15.9248 0
106.638 15.8671 0
106.735 20.1506 0
104.195 20.2084 0
105.368 15.8961 0
106.687 18.009 0
105.465 20.1797 0
104.147 18.0668 0
105.417 18.038 0
106.638 15.8671 0
109.176 15.8082 0
109.276 20.0917 0
106.735 20.1506 0
107.907 15.8378 0
109.226 17.95 0
108.006 20.1213 0
106.687 18.009 0
107.956 17.9797 0
109.176 15.8082 0
111.714 15.748 0
111.816 20.0315 0
109.276 20.0917 0
110.445 15.7782 0
111.765 17.8899 0
110.546 20.0617 0
109.226 17.95 0
110.496 17.9201 0
111.714 15.748 0
114.253 15.6867 0
114.357 19.9701 0
111.816 20.0315 0
112.984 15.7175 0
114.305 17.8285 0
113.087 20.0009 0
111.765 17.8899 0
113.035 17.8593 0
114.253 15.6867 0
116.791 15.6241 0
116.897 19.9075 0
114.357 19.9701 0
115.522 15.6555 0
116.844 17.7659 0
115.627 19.9389 0
114.305 17.8285 0
115.574 17.7974 0
116.791 15.6241 0
119.329 15.5604 0
119.437 19.8437 0
116.897 19.9075 0
118.06 15.5924 0
119.383 17.7022 0
118.167 19.8757 0
116.844 17.7659 0
118.114 17.7342 0
119.329 15.5604 0
121.867 15.4954 0
121.977 19.7787 0
119.437 19.8437 0
120.598 15.5281 0
121.922 17.6372 0
120.707 19.8114 0
119.383 17.7022 0
120.653 17.6698 0
121.867 15.4954 0
124.406 15.4294 0
124.518 19.7126 0
121.977 19.7787 0
123.137 15.4625 0
124.462 17.5711 0
123.248 19.7458 0
121.922 17.6372 0
123.192 17.6043 0
124.406 15.4294 0
126.944 15.3621 0
127.058 19.6453 0
124.518 19.7126 0
125.675 15.3959 0
127.001 17.5038 0
125.788 19.6791 0
124.462 17.5711 0
125.731 17.5376 0
126.944 15.3621 0
129.482 15.2937 0
129.598 19.5768 0
127.058 19.6453 0
128.213 15.328 0
129.54 17.4354 0
128.328 19.6112 0
127.001 17.5038 0
128.27 17.4698 0
129.482 15.2937 0
132.02 15.2241 0
132.138 19.5072 0
129.598 19.5768 0
130.751 15.2591 0
132.079 17.3658 0
130.868 19.5422 0
129.54 17.4354 0
130.809 17.4007 0
132.02 15.2241 0
134.558 15.1534 0
134.678 19.4365 0
132.138 19.5072 0
133.289 15.1889 0
134.618 17.2951 0
133.408 19.472 0
132.079 17.3658 0
133.348 17.3306 0
134.558 15.1534 0
137.096 15.0816 0
137.218 19.3646 0
134.678 19.4365 0
135.827 15.1177 0
137.157 17.2232 0
135.948 19.4007 0
134.618 17.2951 0
135.887 17.2593 0
137.096 15.0816 0
139.634 15.0087 0
139.758 19.2916 0
137.218 19.3646 0
138.365 15.0453 0
139.696 17.1503 0
138.488 19.3283 0
137.157 17.2232 0
138.426 17.1869 0
139.634 15.0087 0
142.172 14.9346 0
142.297 19.2175 0
139.758 19.2916 0
140.903 14.9718 0
142.235 17.0762 0
141.027 19.2547 0
139.696 17.1503 0
140.965 17.1134 0
142.172 14.9346 0
144.71 14.8594 0
144.837 19.1423 0
142.297 19.2175 0
143.441 14.8971 0
144.773 17.001 0
143.567 19.18 0
142.235 17.0762 0
143.504 17.0387 0
144.71 14.8594 0
147.248 14.7831 0
147.377 19.066 0
144.837 19.1423 0
145.979 14.8214 0
147.312 16.9247 0
146.107 19.1043 0
144.773 17.001 0
146.043 16.963 0
147.248 14.7831 0
149.786 14.7058 0
149.916 18.9885 0
147.377 19.066 0
148.517 14.7446 0
149.851 16.8473 0
148.647 19.0274 0
147.312 16.9247 0
148.582 16.8861 0
149.786 14.7058 0
152.323 14.6273 0
152.456 18.91 0
149.916 18.9885 0
151.054 14.6667 0
152.39 16.7688 0
151.186 18.9494 0
149.851 16.8473 0
151.12 16.8082 0
152.323 14.6273 0
154.861 14.5478 0
154.996 18.8305 0
152.456 18.91 0
153.592 14.5877 0
154.928 16.6892 0
153.726 18.8704 0
152.39 16.7688 0
153.659 16.7291 0
154.861 14.5478 0
157.399 14.4672 0
157.535 18.7498 0
154.996 18.8305 0
156.13 14.5076 0
157.467 16.6086 0
156.265 18.7903 0
154.928 16.6892 0
156.198 16.6491 0
157.399 14.4672 0
159.936 14.3855 0
160.075 18.6681 0
157.535 18.7498 0
158.668 14.4265 0
160.005 16.5269 0
158.805 18.7091 0
157.467 16.6086 0
158.736 16.5679 0
159.936 14.3855 0
162.474 14.3028 0
162.614 18.5853 0
160.075 18.6681 0
161.205 14.3443 0
162.544 16.4442 0
161.344 18.6268 0
160.005 16.5269 0
161.275 16.4857 0
162.474 14.3028 0
165.012 14.219 0
165.153 18.5015 0
162.614 18.5853 0
163.743 14.2611 0
165.082 16.3604 0
163.884 18.5436 0
162.544 16.4442 0
163.813 16.4024 0
165.012 14.219 0
167.549 14.1343 0
167.692 18.4167 0
165.153 18.5015 0
166.28 14.1768 0
167.621 16.2756 0
166.423 18.4592 0
165.082 16.3604 0
166.352 16.3181 0
167.549 14.1343 0
170.087 14.0484 0
170.232 18.3308 0
167.692 18.4167 0
168.818 14.0915 0
170.159 16.1897 0
168.962 18.3739 0
167.621 16.2756 0
168.89 16.2328 0
170.087 14.0484 0
172.624 13.9616 0
172.771 18.2439 0
170.232 18.3308 0
171.355 14.0051 0
172.697 16.1028 0
171.501 18.2875 0
170.159 16.1897 0
171.428 16.1464 0
172.624 13.9616 0
175.161 13.8737 0
175.31 18.156 0
172.771 18.2439 0
173.893 13.9178 0
175.236 16.015 0
174.04 18.2001 0
172.697 16.1028 0
173.967 16.059 0
175.161 13.8737 0
177.699 13.7848 0
177.849 18.0671 0
175.31 18.156 0
176.43 13.8294 0
177.774 15.9261 0
176.579 18.1116 0
175.236 16.015 0
176.505 15.9706 0
177.699 13.7848 0
180.236 13.695 0
180.388 17.9771 0
177.849 18.0671 0
178.967 13.74 0
180.312 15.8362 0
179.119 18.0222 0
177.774 15.9261 0
179.043 15.8812 0
180.236 13.695 0
182.773 13.6041 0
182.927 17.8862 0
180.388 17.9771 0
181.505 13.6497 0
182.85 15.7453 0
181.657 17.9318 0
180.312 15.8362 0
181.581 15.7909 0
182.773 13.6041 0
185.311 13.5123 0
185.466 17.7944 0
182.927 17.8862 0
184.042 13.5583 0
185.388 15.6534 0
184.196 17.8404 0
182.85 15.7453 0
184.119 15.6995 0
185.311 13.5123 0
187.848 13.4195 0
188.005 17.7015 0
185.466 17.7944 0
186.579 13.466 0
187.926 15.5606 0
186.735 17.748 0
185.388 15.6534 0
186.657 15.6071 0
187.848 13.4195 0
190.385 13.3257 0
190.543 17.6077 0
188.005 17.7015 0
189.116 13.3727 0
190.464 15.4668 0
189.274 17.6547 0
187.926 15.5606 0
189.195 15.5138 0
190.385 13.3257 0
192.922 13.231 0
193.082 17.5129 0
190.543 17.6077 0
191.653 13.2785 0
193.002 15.372 0
191.813 17.5604 0
190.464 15.4668 0
191.733 15.4195 0
192.922 13.231 0
195.459 13.1353 0
195.621 17.4171 0
193.082 17.5129 0
194.191 13.1832 0
195.54 15.2763 0
194.351 17.4651 0
193.002 15.372 0
194.271 15.3243 0
195.459 13.1353 0
197.996 13.0387 0
198.159 17.3204 0
195.621 17.4171 0
196.728 13.0871 0
198.078 15.1797 0
196.89 17.3689 0
195.54 15.2763 0
196.809 15.2281 0
197.996 13.0387 0
200.533 12.9411 0
200.698 17.2228 0
198.159 17.3204 0
199.265 12.99 0
200.616 15.0821 0
199.429 17.2718 0
198.078 15.1797 0
199.347 15.131 0
200.533 12.9411 0
203.07 12.8426 0
203.236 17.1243 0
200.698 17.2228 0
201.802 12.892 0
203.153 14.9835 0
201.967 17.1737 0
200.616 15.0821 0
201.884 15.0329 0
203.07 12.8426 0
205.607 12.7432 0
205.775 17.0248 0
203.236 17.1243 0
204.338 12.793 0
205.691 14.8841 0
204.506 17.0747 0
203.153 14.9835 0
204.422 14.9339 0
205.607 12.7432 0
208.144 12.6429 0
208.313 16.9244 0
205.775 17.0248 0
206.875 12.6931 0
208.229 14.7838 0
207.044 16.9747 0
205.691 14.8841 0
206.96 14.834 0
208.144 12.6429 0
210.681 12.5416 0
210.852 16.8232 0
208.313 16.9244 0
209.412 12.5924 0
210.766 14.6825 0
209.582 16.8739 0
208.229 14.7838 0
209.497 14.7332 0
210.681 12.5416 0
213.217 12.4395 0
213.39 16.721 0
210.852 16.8232 0
211.949 12.4907 0
213.304 14.5804 0
212.121 16.7722 0
210.766 14.6825 0
212.035 14.6315 0
213.217 12.4395 0
215.754 12.3365 0
215.928 16.6179 0
213.39 16.721 0
214.486 12.3881 0
215.841 14.4773 0
214.659 16.6696 0
213.304 14.5804 0
214.572 14.5289 0
215.754 12.3365 0
218.291 12.2326 0
218.466 16.514 0
215.928 16.6179 0
217.022 12.2847 0
218.379 14.3734 0
217.197 16.5661 0
215.841 14.4773 0
217.11 14.4255 0
218.291 12.2326 0
220.827 12.1279 0
221.004 16.4092 0
218.466 16.514 0
219.559 12.1804 0
220.916 14.2686 0
219.735 16.4617 0
218.379 14.3734 0
219.647 14.3211 0
220.827 12.1279 0
223.364 12.0223 0
223.542 16.3035 0
221.004 16.4092 0
222.096 12.0752 0
223.453 14.163 0
222.273 16.3565 0
220.916 14.2686 0
222.185 14.2159 0
223.364 12.0223 0
225.901 11.9158 0
226.08 16.197 0
223.542 16.3035 0
224.632 11.9691 0
225.991 14.0565 0
224.811 16.2503 0
223.453 14.163 0
224.722 14.1098 0
225.901 11.9158 0
228.437 11.8084 0
228.618 16.0896 0
226.08 16.197 0
227.169 11.8622 0
228.528 13.9491 0
227.349 16.1434 0
225.991 14.0565 0
227.259 14.0029 0
228.437 11.8084 0
230.974 11.7003 0
231.156 15.9814 0
228.618 16.0896 0
229.705 11.7545 0
231.065 13.8409 0
229.887 16.0356 0
228.528 13.9491 0
229.796 13.8951 0
230.974 11.7003 0
233.51 11.5913 0
233.694 15.8723 0
231.156 15.9814 0
232.242 11.6459 0
233.602 13.7319 0
232.425 15.927 0
231.065 13.8409 0
232.333 13.7865 0
233.51 11.5913 0
236.046 11.4815 0
236.232 15.7624 0
233.694 15.8723 0
234.778 11.5365 0
236.139 13.622 0
234.963 15.8175 0
233.602 13.7319 0
234.871 13.6771 0
236.046 11.4815 0
238.583 11.3708 0
238.77 15.6518 0
236.232 15.7624 0
237.315 11.4262 0
238.676 13.5114 0
237.501 15.7072 0
236.139 13.622 0
237.408 13.5668 0
238.583 11.3708 0
241.119 11.2594 0
241.307 15.5403 0
238.77 15.6518 0
239.851 11.3152 0
241.213 13.3999 0
240.038 15.5961 0
238.676 13.5114 0
239.945 13.4557 0
241.119 11.2594 0
243.655 11.1471 0
243.845 15.428 0
241.307 15.5403 0
242.387 11.2033 0
243.75 13.2876 0
242.576 15.4842 0
241.213 13.3999 0
242.482 13.3439 0
243.655 11.1471 0
246.192 11.0341 0
246.382 15.3149 0
243.845 15.428 0
244.923 11.0907 0
246.287 13.1745 0
245.114 15.3715 0
243.75 13.2876 0
245.019 13.2312 0
246.192 11.0341 0
248.728 10.9202 0
248.92 15.201 0
246.382 15.3149 0
247.46 10.9773 0
248.824 13.0607 0
247.651 15.258 0
246.287 13.1745 0
247.555 13.1177 0
248.728 10.9202 0
251.264 10.8056 0
251.457 15.0863 0
248.92 15.201 0
249.996 10.863 0
251.361 12.9461 0
250.189 15.1437 0
248.824 13.0607 0
250.092 13.0035 0
251.264 10.8056 0
253.8 10.6903 0
253.995 14.9709 0
251.457 15.0863 0
252.532 10.748 0
253.897 12.8307 0
252.726 15.0287 0
251.361 12.9461 0
252.629 12.8885 0
253.8 10.6903 0
256.336 10.5741 0
256.532 14.8547 0
253.995 14.9709 0
255.068 10.6323 0
256.434 12.7145 0
255.263 14.9129 0
253.897 12.8307 0
255.166 12.7727 0
256.336 10.5741 0
258.872 10.4572 0
259.069 14.7378 0
256.532 14.8547 0
257.604 10.5158 0
258.971 12.5976 0
257.801 14.7963 0
256.434 12.7145 0
257.702 12.6561 0
258.872 10.4572 0
261.408 10.3396 0
261.607 14.6201 0
259.069 14.7378 0
260.14 10.3985 0
261.507 12.4799 0
260.338 14.679 0
258.971 12.5976 0
260.239 12.5388 0
261.408 10.3396 0
263.944 10.2212 0
264.144 14.5017 0
261.607 14.6201 0
262.676 10.2805 0
264.044 12.3615 0
262.875 14.561 0
261.507 12.4799 0
262.776 12.4208 0
263.944 10.2212 0
266.48 10.1021 0
266.681 14.3825 0
264.144 14.5017 0
265.212 10.1618 0
266.58 12.2424 0
265.412 14.4422 0
264.044 12.3615 0
265.312 12.302 0
266.48 10.1021 0
269.016 9.9823 0
269.218 14.2626 0
266.681 14.3825 0
267.748 10.0423 0
269.117 12.1225 0
267.949 14.3226 0
266.58 12.2424 0
267.849 12.1826 0
269.016 9.9823 0
271.551 9.86176 0
271.755 14.142 0
269.218 14.2626 0
270.284 9.92212 0
271.653 12.002 0
270.486 14.2024 0
269.117 12.1225 0
270.385 12.0623 0
271.551 9.86176 0
274.087 9.74052 0
274.292 14.0207 0
271.755 14.142 0
272.819 9.80123 0
274.19 11.8807 0
273.023 14.0815 0
271.653 12.002 0
272.921 11.9414 0
274.087 9.74052 0
276.623 9.61857 0
276.829 13.8987 0
274.292 14.0207 0
275.355 9.67963 0
276.726 11.7587 0
275.56 13.9598 0
274.19 11.8807 0
275.458 11.8198 0
276.623 9.61857 0
279.159 9.49594 0
279.366 13.7761 0
276.829 13.8987 0
277.891 9.55734 0
279.262 11.6361 0
278.097 13.8375 0
276.726 11.7587 0
277.994 11.6975 0
279.159 9.49594 0
281.694 9.37262 0
281.902 13.6527 0
279.366 13.7761 0
280.426 9.43436 0
281.798 11.5127 0
280.634 13.7145 0
279.262 11.6361 0
280.53 11.5745 0
281.694 9.37262 0
284.23 9.24862 0
284.439 13.5286 0
281.902 13.6527 0
282.962 9.3107 0
284.335 11.3887 0
283.171 13.5908 0
281.798 11.5127 0
283.066 11.4508 0
284.23 9.24862 0
286.765 9.12396 0
286.976 13.4039 0
284.439 13.5286 0
285.498 9.18638 0
286.871 11.264 0
285.708 13.4664 0
284.335 11.3887 0
285.603 11.3264 0
286.765 9.12396 0
289.301 8.99864 0
289.513 13.2786 0
286.976 13.4039 0
288.033 9.06138 0
289.407 11.1387 0
288.244 13.3413 0
286.871 11.264 0
288.139 11.2014 0
289.301 8.99864 0
291.837 8.87267 0
292.049 13.1526 0
289.513 13.2786 0
290.569 8.93574 0
291.943 11.0127 0
290.781 13.2156 0
289.407 11.1387 0
290.675 11.0758 0
291.837 8.87267 0
294.372 8.74606 0
294.586 13.0259 0
292.049 13.1526 0
293.104 8.80944 0
294.479 10.886 0
293.317 13.0893 0
291.943 11.0127 0
293.211 10.9494 0
294.372 8.74606 0
296.907 8.61881 0
297.122 12.8986 0
294.586 13.0259 0
295.64 8.68251 0
297.015 10.7588 0
295.854 12.9623 0
294.479 10.886 0
295.747 10.8225 0
296.907 8.61881 0
299.443 8.49093 0
299.659 12.7707 0
297.122 12.8986 0
298.175 8.55495 0
299.551 10.6309 0
298.39 12.8347 0
297.015 10.7588 0
298.283 10.6949 0
299.443 8.49093 0
301.978 8.36243 0
302.195 12.6421 0
299.659 12.7707 0
300.71 8.42676 0
302.087 10.5023 0
300.927 12.7065 0
299.551 10.6309 0
300.819 10.5667 0
301.978 8.36243 0
304.513 8.23332 0
304.731 12.513 0
302.195 12.6421 0
303.246 8.29795 0
304.622 10.3732 0
303.463 12.5776 0
302.087 10.5023 0
303.354 10.4379 0
304.513 8.23332 0
307.049 8.10361 0
307.268 12.3832 0
304.731 12.513 0
305.781 8.16854 0
307.158 10.2435 0
305.999 12.4482 0
304.622 10.3732 0
305.89 10.3084 0
307.049 8.10361 0
309.584 7.9733 0
309.804 12.2529 0
307.268 12.3832 0
308.316 8.03853 0
309.694 10.1131 0
308.536 12.3181 0
307.158 10.2435 0
308.426 10.1784 0
309.584 7.9733 0
312.119 7.8424 0
312.34 12.1219 0
309.804 12.2529 0
310.851 7.90792 0
312.23 9.98222 0
311.072 12.1875 0
309.694 10.1131 0
310.962 10.0478 0
312.119 7.8424 0
314.654 7.71092 0
314.876 11.9904 0
312.34 12.1219 0
313.387 7.77673 0
314.765 9.85072 0
313.608 12.0562 0
312.23 9.98222 0
313.497 9.91654 0
314.654 7.71092 0
317.189 7.57887 0
317.412 11.8583 0
314.876 11.9904 0
315.922 7.64496 0
317.301 9.71864 0
316.144 11.9244 0
314.765 9.85072 0
316.033 9.78475 0
317.189 7.57887 0
319.724 7.44625 0
319.948 11.7256 0
317.412 11.8583 0
318.457 7.51263 0
319.836 9.586 0
318.68 11.792 0
317.301 9.71864 0
318.569 9.65239 0
319.724 7.44625 0
322.259 7.31308 0
322.484 11.5924 0
319.948 11.7256 0
320.992 7.37973 0
322.372 9.45281 0
321.216 11.6591 0
319.836 9.586 0
321.104 9.51947 0
322.259 7.31308 0
324.794 7.17935 0
325.02 11.4587 0
322.484 11.5924 0
323.527 7.24628 0
324.907 9.31906 0
323.752 11.5256 0
322.372 9.45281 0
323.64 9.386 0
324.794 7.17935 0
327.329 7.04509 0
327.556 11.3244 0
325.02 11.4587 0
326.062 7.11229 0
327.443 9.18478 0
326.288 11.3916 0
324.907 9.31906 0
326.175 9.25199 0
327.329 7.04509 0
329.864 6.91029 0
330.092 11.1895 0
327.556 11.3244 0
328.597 6.97776 0
329.978 9.04996 0
328.824 11.257 0
327.443 9.18478 0
328.71 9.11743 0
329.864 6.91029 0
332.399 6.77497 0
332.628 11.0541 0
330.092 11.1895 0
331.132 6.8427 0
332.513 8.91462 0
331.36 11.1219 0
329.978 9.04996 0
331.246 8.98235 0
332.399 6.77497 0
334.934 6.63913 0
335.163 10.9183 0
332.628 11.0541 0
333.667 6.70711 0
335.049 8.77875 0
333.896 10.9863 0
332.513 8.91462 0
333.781 8.84675 0
334.934 6.63913 0
337.469 6.50278 0
337.699 10.7819 0
335.163 10.9183 0
336.202 6.57102 0
337.584 8.64238 0
336.431 10.8501 0
335.049 8.77875 0
336.316 8.71063 0
337.469 6.50278 0
340.004 6.36593 0
340.235 10.645 0
337.699 10.7819 0
338.736 6.43441 0
340.119 8.50551 0
338.967 10.7135 0
337.584 8.64238 0
338.852 8.57401 0
340.004 6.36593 0
342.539 6.22858 0
342.77 10.5076 0
340.235 10.645 0
341.271 6.29731 0
342.654 8.36814 0
341.503 10.5764 0
340.119 8.50551 0
341.387 8.43689 0
342.539 6.22858 0
345.073 6.09075 0
345.306 10.3697 0
342.77 10.5076 0
343.806 6.15972 0
345.19 8.23029 0
344.038 10.4387 0
342.654 8.36814 0
343.922 8.29928 0
345.073 6.09075 0
347.608 5.95243 0
347.841 10.2314 0
345.306 10.3697 0
346.341 6.02165 0
347.725 8.09196 0
346.574 10.3006 0
345.19 8.23029 0
346.457 8.16119 0
347.608 5.95243 0
350.143 5.81365 0
350.377 10.0926 0
347.841 10.2314 0
348.875 5.8831 0
350.26 7.95316 0
349.109 10.162 0
347.725 8.09196 0
348.992 8.02262 0
350.143 5.81365 0
352.677 5.67441 0
352.912 9.95329 0
350.377 10.0926 0
351.41 5.74409 0
352.795 7.8139 0
351.645 10.023 0
350.26 7.95316 0
351.527 7.88359 0
352.677 5.67441 0
355.212 5.53471 0
355.448 9.81355 0
352.912 9.95329 0
353.945 5.60462 0
355.33 7.67418 0
354.18 9.88348 0
352.795 7.8139 0
354.062 7.74409 0
355.212 5.53471 0
357.747 5.39456 0
357.983 9.67337 0
355.448 9.81355 0
356.479 5.46469 0
357.865 7.53401 0
356.715 9.74352 0
355.33 7.67418 0
356.597 7.60415 0
357.747 5.39456 0
360.281 5.25398 0
360.518 9.53275 0
357.983 9.67337 0
359.014 5.32432 0
360.4 7.39341 0
359.251 9.60312 0
357.865 7.53401 0
359.132 7.46377 0
360.281 5.25398 0
362.816 5.11296 0
363.053 9.3917 0
360.518 9.53275 0
361.548 5.18352 0
362.935 7.25238 0
361.786 9.46228 0
360.4 7.39341 0
361.667 7.32295 0
362.816 5.11296 0
365.35 4.97152 0
365.589 9.25023 0
363.053 9.3917 0
364.083 5.04229 0
365.469 7.11092 0
364.321 9.32102 0
362.935 7.25238 0
364.202 7.1817 0
365.35 4.97152 0
367.885 4.82967 0
368.124 9.10834 0
365.589 9.25023 0
366.617 4.90064 0
368.004 6.96905 0
366.856 9.17934 0
365.469 7.11092 0
366.737 7.04004 0
367.885 4.82967 0
370.419 4.6874 0
370.659 8.96605 0
368.124 9.10834 0
369.152 4.75858 0
370.539 6.82677 0
369.391 9.03724 0
368.004 6.96905 0
369.272 6.89796 0
370.419 4.6874 0
372.953 4.54474 0
373.194 8.82335 0
370.659 8.96605 0
371.686 4.61612 0
373.074 6.68409 0
371.926 8.89475 0
370.539 6.82677 0
371.806 6.75548 0
372.953 4.54474 0
375.488 4.40168 0
375.729 8.68027 0
373.194 8.82335 0
374.221 4.47326 0
375.608 6.54102 0
374.462 8.75186 0
373.074 6.68409 0
374.341 6.6126 0
375.488 4.40168 0
378.022 4.25825 0
378.264 8.5368 0
375.729 8.68027 0
376.755 4.33001 0
378.143 6.39756 0
376.997 8.60858 0
375.608 6.54102 0
376.876 6.46934 0
378.022 4.25825 0
380.556 4.11443 0
380.799 8.39295 0
378.264 8.5368 0
379.289 4.18638 0
380.678 6.25373 0
379.531 8.46492 0
378.143 6.39756 0
379.41 6.32569 0
380.556 4.11443 0
383.091 3.97025 0
383.334 8.24874 0
380.799 8.39295 0
381.824 4.04238 0
383.212 6.10953 0
382.066 8.32089 0
380.678 6.25373 0
381.945 6.18168 0
383.091 3.97025 0
385.625 3.8257 0
385.869 8.10417 0
383.334 8.24874 0
384.358 3.89802 0
385.747 5.96497 0
384.601 8.1765 0
383.212 6.10953 0
384.48 6.0373 0
385.625 3.8257 0
388.159 3.6808 0
388.404 7.95925 0
385.869 8.10417 0
386.892 3.7533 0
388.281 5.82006 0
387.136 8.03175 0
385.747 5.96497 0
387.014 5.89256 0
388.159 3.6808 0
390.693 3.53556 0
390.938 7.81398 0
388.404 7.95925 0
389.426 3.60823 0
390.816 5.67481 0
389.671 7.88666 0
388.281 5.82006 0
389.549 5.74748 0
390.693 3.53556 0
393.228 3.38998 0
393.473 7.66837 0
390.938 7.81398 0
391.96 3.46281 0
393.35 5.52921 0
392.206 7.74122 0
390.816 5.67481 0
392.083 5.60205 0
393.228 3.38998 0
395.762 3.24408 0
396.008 7.52244 0
393.473 7.66837 0
394.495 3.31707 0
395.885 5.38329 0
394.74 7.59545 0
393.35 5.52921 0
394.618 5.45629 0
395.762 3.24408 0
398.296 3.09785 0
398.542 7.37619 0
396.008 7.52244 0
397.029 3.171 0
398.419 5.23705 0
397.275 7.44935 0
395.885 5.38329 0
397.152 5.31021 0
398.296 3.09785 0
400.83 2.9513 0
401.077 7.22962 0
398.542 7.37619 0
399.563 3.02461 0
400.954 5.0905 0
399.81 7.30294 0
398.419 5.23705 0
399.686 5.16381 0
400.83 2.9513 0
403.364 2.80445 0
403.612 7.08275 0
401.077 7.22962 0
402.097 2.87792 0
403.488 4.94363 0
402.344 7.15622 0
400.954 5.0905 0
402.221 5.0171 0
403.364 2.80445 0
405.898 2.65731 0
406.146 6.93558 0
403.612 7.08275 0
404.631 2.73092 0
406.022 4.79648 0
404.879 7.0092 0
403.488 4.94363 0
404.755 4.87009 0
405.898 2.65731 0
408.432 2.50987 0
408.681 6.78812 0
406.146 6.93558 0
407.165 2.58363 0
408.556 4.64903 0
407.413 6.86189 0
406.022 4.79648 0
407.289 4.72279 0
408.432 2.50987 0
410.966 2.36215 0
411.215 6.64039 0
408.681 6.78812 0
409.699 2.43605 0
411.091 4.5013 0
409.948 6.71429 0
408.556 4.64903 0
409.824 4.5752 0
410.966 2.36215 0
413.5 2.21416 0
413.75 6.49237 0
411.215 6.64039 0
412.233 2.28819 0
413.625 4.3533 0
412.482 6.56641 0
411.091 4.5013 0
412.358 4.42733 0
413.5 2.21416 0
416.034 2.0659 0
416.284 6.34409 0
413.75 6.49237 0
414.767 2.14006 0
416.159 4.20503 0
415.017 6.41827 0
413.625 4.3533 0
414.892 4.27919 0
416.034 2.0659 0
418.568 1.91739 0
418.818 6.19556 0
416.284 6.34409 0
417.301 1.99168 0
418.693 4.0565 0
417.551 6.26986 0
416.159 4.20503 0
417.426 4.1308 0
418.568 1.91739 0
421.102 1.76862 0
421.353 6.04677 0
418.818 6.19556 0
419.835 1.84303 0
421.227 3.90772 0
420.086 6.1212 0
418.693 4.0565 0
419.96 3.98214 0
421.102 1.76862 0
423.636 1.61961 0
423.887 5.89775 0
421.353 6.04677 0
422.369 1.69414 0
423.761 3.7587 0
422.62 5.97229 0
421.227 3.90772 0
422.494 3.83324 0
423.636 1.61961 0
426.17 1.47036 0
426.421 5.74848 0
423.887 5.89775 0
424.903 1.54501 0
426.296 3.60945 0
425.154 5.82314 0
423.761 3.7587 0
425.029 3.6841 0
426.17 1.47036 0
428.704 1.32089 0
428.956 5.599 0
426.421 5.74848 0
427.437 1.39565 0
428.83 3.45997 0
427.688 5.67377 0
426.296 3.60945 0
427.563 3.53473 0
428.704 1.32089 0
431.237 1.1712 0
431.49 5.44929 0
428.956 5.599 0
429.971 1.24607 0
431.364 3.31027 0
430.223 5.52417 0
428.83 3.45997 0
430.097 3.38514 0
431.237 1.1712 0
433.771 1.02129 0
434.024 5.29937 0
431.49 5.44929 0
432.504 1.09627 0
433.898 3.16035 0
432.757 5.37436 0
431.364 3.31027 0
432.631 3.23534 0
433.771 1.02129 0
436.305 0.871185 0
436.558 5.14925 0
434.024 5.29937 0
435.038 0.946264 0
436.432 3.01024 0
435.291 5.22434 0
433.898 3.16035 0
435.165 3.08532 0
436.305 0.871185 0
438.839 0.720882 0
439.092 4.99894 0
436.558 5.14925 0
437.572 0.796058 0
438.966 2.85993 0
437.825 5.07412 0
436.432 3.01024 0
437.699 2.93511 0
438.839 0.720882 0
441.373 0.570392 0
441.626 4.84843 0
439.092 4.99894 0
440.106 0.64566 0
441.499 2.70943 0
440.359 4.92371 0
438.966 2.85993 0
440.232 2.7847 0
441.373 0.570392 0
443.906 0.419721 0
444.16 4.69775 0
441.626 4.84843 0
442.639 0.495078 0
444.033 2.55876 0
442.893 4.77311 0
441.499 2.70943 0
442.766 2.63412 0
443.906 0.419721 0
446.44 0.268878 0
446.694 4.5469 0
444.16 4.69775 0
445.173 0.34432 0
446.567 2.40791 0
445.427 4.62235 0
444.033 2.55876 0
445.3 2.48335 0
446.44 0.268878 0
448.974 0.117871 0
449.228 4.39588 0
446.694 4.5469 0
447.707 0.193394 0
449.101 2.25689 0
447.961 4.47141 0
446.567 2.40791 0
447.834 2.33242 0
448.974 0.117871 0
451.508 -0.0332931 0
451.762 4.24471 0
449.228 4.39588 0
450.241 0.0423079 0
451.635 2.10572 0
450.495 4.32031 0
449.101 2.25689 0
450.368 2.18133 0
451.508 -0.0332931 0
454.041 -0.184605 0
454.296 4.09339 0
451.762 4.24471 0
452.774 -0.108931 0
454.169 1.95441 0
453.029 4.16907 0
451.635 2.10572 0
452.902 2.03008 0
454.041 -0.184605 0
456.575 -0.336059 0
456.83 3.94193 0
454.296 4.09339 0
455.308 -0.260315 0
456.703 1.80295 0
455.563 4.01768 0
454.169 1.95441 0
455.436 1.8787 0
456.575 -0.336059 0
459.109 -0.487645 0
459.364 3.79034 0
456.83 3.94193 0
457.842 -0.411836 0
459.236 1.65136 0
458.097 3.86615 0
456.703 1.80295 0
457.969 1.72717 0
459.109 -0.487645 0
461.642 -0.639356 0
461.898 3.63862 0
459.364 3.79034 0
460.375 -0.563485 0
461.77 1.49964 0
460.631 3.71449 0
459.236 1.65136 0
460.503 1.57552 0
461.642 -0.639356 0
464.176 -0.791185 0
464.432 3.48679 0
461.898 3.63862 0
462.909 -0.715256 0
464.304 1.34781 0
463.165 3.56272 0
461.77 1.49964 0
463.037 1.42374 0
464.176 -0.791185 0
466.709 -0.943123 0
466.965 3.33484 0
464.432 3.48679 0
465.443 -0.86714 0
466.837 1.19587 0
465.699 3.41083 0
464.304 1.34781 0
465.571 1.27186 0
466.709 -0.943123 0
469.243 -1.09516 0
469.499 3.1828 0
466.965 3.33484 0
467.976 -1.01913 0
469.371 1.04383 0
468.232 3.25883 0
466.837 1.19587 0
468.104 1.11986 0
469.243 -1.09516 0
471.777 -1.2473 0
472.033 3.03067 0
469.499 3.1828 0
470.51 -1.17122 0
471.905 0.891695 0
470.766 3.10674 0
469.371 1.04383 0
470.638 0.967774 0
471.777 -1.2473 0
474.31 -1.39952 0
474.567 2.87845 0
472.033 3.03067 0
473.043 -1.3234 0
474.438 0.739474 0
473.3 2.95457 0
471.905 0.891695 0
473.172 0.815595 0
474.31 -1.39952 0
476.844 -1.55181 0
477.1 2.72615 0
474.567 2.87845 0
475.577 -1.47566 0
476.972 0.587175 0
475.834 2.80231 0
474.438 0.739474 0
475.705 0.663334 0
476.844 -1.55181 0
479.377 -1.70418 0
479.634 2.57378 0
477.1 2.72615 0
478.111 -1.62799 0
479.506 0.434806 0
478.367 2.64997 0
476.972 0.587175 0
478.239 0.510999 0
479.377 -1.70418 0
481.911 -1.85662 0
482.168 2.42135 0
479.634 2.57378 0
480.644 -1.78039 0
482.039 0.282373 0
480.901 2.49757 0
479.506 0.434806 0
480.772 0.358597 0
481.911 -1.85662 0
484.444 -2.00911 0
484.701 2.26887 0
482.168 2.42135 0
483.178 -1.93285 0
484.573 0.129886 0
483.435 2.34512 0
482.039 0.282373 0
483.306 0.206136 0
484.444 -2.00911 0
486.978 -2.16164 0
487.235 2.11634 0
484.701 2.26887 0
485.711 -2.08537 0
487.106 -0.0226505 0
485.968 2.19261 0
484.573 0.129886 0
485.84 0.0536232 0
486.978 -2.16164 0
489.511 -2.31422 0
489.768 1.96376 0
487.235 2.11634 0
488.245 -2.23793 0
489.64 -0.175227 0
488.502 2.04005 0
487.106 -0.0226505 0
488.373 -0.0989343 0
489.511 -2.31422 0
492.045 -2.46682 0
492.302 1.81115 0
489.768 1.96376 0
490.778 -2.39052 0
492.173 -0.327833 0
491.035 1.88746 0
489.64 -0.175227 0
490.907 -0.251527 0
492.045 -2.46682 0
494.578 -2.61943 0
494.836 1.65852 0
492.302 1.81115 0
493.312 -2.54313 0
494.707 -0.480452 0
493.569 1.73484 0
492.173 -0.327833 0
493.44 -0.404143 0
494.578 -2.61943 0
497.112 -2.772 0
497.369 1.50588 0
494.836 1.65852 0
495.845 -2.69572 0
497.24 -0.633046 0
496.102 1.5822 0
494.707 -0.480452 0
495.974 -0.556755 0
497.112 -2.772 0
499.645 -2.9245 0
499.903 1.35332 0
497.369 1.50588 0
498.379 -2.84826 0
499.774 -0.785563 0
498.636 1.42959 0
497.24 -0.633046 0
498.507 -0.709318 0
0 21.4286 0
2.54152 21.4282 0
2.54401 25.7126 0
0 25.7143 0
1.27071 21.4287 0
2.54272 23.5706 0
1.27192 25.7137 0
0 23.5714 0
1.27132 23.5712 0
2.54152 21.4282 0
5.0833 21.4259 0
5.08851 25.7094 0
2.54401 25.7126 0
3.81238 21.4273 0
5.08581 23.5678 0
3.81623 25.7111 0
2.54272 23.5706 0
3.81423 23.5694 0
5.0833 21.4259 0
7.62523 21.4218 0
7.63306 25.705 0
5.08851 25.7094 0
6.35425 21.424 0
7.62907 23.5636 0
6.36079 25.7073 0
5.08581 23.5678 0
6.35744 23.5659 0
7.62523 21.4218 0
10.1672 21.4162 0
10.1776 25.6993 0
7.63306 25.705 0
8.89621 21.4192 0
10.1723 23.5579 0
8.90533 25.7023 0
7.62907 23.5636 0
8.90071 23.5609 0
10.1672 21.4162 0
12.7091 21.4091 0
12.722 25.6921 0
10.1776 25.6993 0
11.4382 21.4128 0
12.7156 23.5508 0
11.4498 25.6959 0
10.1723 23.5579 0
11.4439 23.5545 0
12.7091 21.4091 0
15.251 21.4005 0
15.2665 25.6835 0
12.722 25.6921 0
13.9801 21.405 0
15.2587 23.5422 0
13.9943 25.688 0
12.7156 23.5508 0
13.9871 23.5467 0
15.251 21.4005 0
17.7929 21.3904 0
17.8108 25.6734 0
15.2665 25.6835 0
16.522 21.3956 0
17.8018 23.5321 0
16.5386 25.6787 0
15.2587 23.5422 0
16.5303 23.5373 0
17.7929 21.3904 0
20.3347 21.3788 0
20.3551 25.6619 0
17.8108 25.6734 0
19.0638 21.3847 0
20.3449 23.5205 0
19.083 25.6678 0
17.8018 23.5321 0
19.0734 23.5264 0
20.3347 21.3788 0
22.8765 21.3657 0
22.8994 25.6488 0
20.3551 25.6619 0
21.6056 21.3724 0
22.888 23.5074 0
21.6273 25.6555 0
20.3449 23.5205 0
21.6164 23.5141 0
22.8765 21.3657 0
25.4183 21.3511 0
25.4437 25.6342 0
22.8994 25.6488 0
24.1474 21.3586 0
25.431 23.4928 0
24.1716 25.6417 0
22.888 23.5074 0
24.1595 23.5003 0
25.4183 21.3511 0
27.96 21.3351 0
27.9879 25.6182 0
25.4437 25.6342 0
26.6892 21.3433 0
27.9739 23.4768 0
26.7158 25.6264 0
25.431 23.4928 0
26.7024 23.485 0
27.96 21.3351 0
30.5017 21.3176 0
30.532 25.6007 0
27.9879 25.6182 0
29.2309 21.3265 0
30.5169 23.4593 0
29.26 25.6096 0
27.9739 23.4768 0
29.2454 23.4682 0
30.5017 21.3176 0
33.0434 21.2986 0
33.0761 25.5817 0
30.532 25.6007 0
31.7726 21.3083 0
33.0597 23.4403 0
31.8041 25.5914 0
30.5169 23.4593 0
31.7883 23.45 0
33.0434 21.2986 0
35.585 21.2782 0
35.6202 25.5613 0
33.0761 25.5817 0
34.3142 21.2886 0
35.6026 23.4199 0
34.3482 25.5717 0
33.0597 23.4403 0
34.3312 23.4303 0
35.585 21.2782 0
38.1266 21.2563 0
38.1642 25.5394 0
35.6202 25.5613 0
36.8558 21.2675 0
38.1454 23.398 0
36.8922 25.5505 0
35.6026 23.4199 0
36.874 23.4091 0
38.1266 21.2563 0
40.6682 21.2331 0
40.7082 25.5161 0
38.1642 25.5394 0
39.3974 21.2449 0
40.6882 23.3748 0
39.4362 25.528 0
38.1454 23.398 0
39.4168 23.3866 0
40.6682 21.2331 0
43.2097 21.2084 0
43.2521 25.4914 0
40.7082 25.5161 0
41.939 21.2209 0
43.2309 23.35 0
41.9802 25.504 0
40.6882 23.3748 0
41.9596 23.3626 0
43.2097 21.2084 0
45.7512 21.1822 0
45.796 25.4653 0
43.2521 25.4914 0
44.4805 21.1955 0
45.7736 23.3239 0
44.5241 25.4785 0
43.2309 23.35 0
44.5023 23.3372 0
45.7512 21.1822 0
48.2927 21.1547 0
48.3399 25.4377 0
45.796 25.4653 0
47.022 21.1686 0
48.3163 23.2964 0
47.068 25.4517 0
45.7736 23.3239 0
47.0449 23.3103 0
48.2927 21.1547 0
50.8341 21.1258 0
50.8837 25.4088 0
48.3399 25.4377 0
49.5634 21.1404 0
50.8589 23.2674 0
49.6118 25.4234 0
48.3163 23.2964 0
49.5876 23.2821 0
50.8341 21.1258 0
53.3755 21.0954 0
53.4274 25.3785 0
50.8837 25.4088 0
52.1048 21.1108 0
53.4014 23.2371 0
52.1555 25.3938 0
50.8589 23.2674 0
52.1302 23.2524 0
53.3755 21.0954 0
55.9169 21.0637 0
55.9711 25.3467 0
53.4274 25.3785 0
54.6462 21.0798 0
55.944 23.2054 0
54.6992 25.3628 0
53.4014 23.2371 0
54.6727 23.2214 0
55.9169 21.0637 0
58.4582 21.0306 0
58.5147 25.3136 0
55.9711 25.3467 0
57.1876 21.0473 0
58.4864 23.1723 0
57.2429 25.3303 0
55.944 23.2054 0
57.2152 23.189 0
58.4582 21.0306 0
60.9995 20.9962 0
61.0583 25.2791 0
58.5147 25.3136 0
59.7289 21.0136 0
61.0289 23.1378 0
59.7865 25.2965 0
58.4864 23.1723 0
59.7577 23.1552 0
60.9995 20.9962 0
63.5407 20.9603 0
63.6018 25.2433 0
61.0583 25.2791 0
62.2701 20.9784 0
63.5713 23.102 0
62.3301 25.2614 0
61.0289 23.1378 0
62.3001 23.1201 0
63.5407 20.9603 0
66.0819 20.9232 0
66.1453 25.2061 0
63.6018 25.2433 0
64.8113 20.9419 0
66.1136 23.0648 0
64.8736 25.2249 0
63.5713 23.102 0
64.8425 23.0835 0
66.0819 20.9232 0
68.6231 20.8846 0
68.6888 25.1676 0
66.1453 25.2061 0
67.3525 20.9041 0
68.6559 23.0262 0
67.4171 25.187 0
66.1136 23.0648 0
67.3848 23.0457 0
68.6231 20.8846 0
71.1642 20.8448 0
71.2321 25.1277 0
68.6888 25.1676 0
69.8937 20.8649 0
71.1982 22.9864 0
69.9605 25.1478 0
68.6559 23.0262 0
69.927 23.0065 0
71.1642 20.8448 0
73.7053 20.8036 0
73.7755 25.0865 0
71.2321 25.1277 0
72.4348 20.8244 0
73.7404 22.9452 0
72.5038 25.1072 0
71.1982 22.9864 0
72.4693 22.9659 0
73.7053 20.8036 0
76.2464 20.7611 0
76.3187 25.0439 0
73.7755 25.0865 0
74.9759 20.7825 0
76.2825 22.9026 0
75.0471 25.0654 0
73.7404 22.9452 0
75.0115 22.9241 0
76.2464 20.7611 0
78.7874 20.7172 0
78.8619 25.0001 0
76.3187 25.0439 0
77.5169 20.7393 0
78.8246 22.8588 0
77.5903 25.0222 0
76.2825 22.9026 0
77.5536 22.8809 0
78.7874 20.7172 0
81.3283 20.6721 0
81.4051 24.9549 0
78.8619 25.0001 0
80.0579 20.6948 0
81.3667 22.8136 0
80.1335 24.9777 0
78.8246 22.8588 0
80.0957 22.8364 0
81.3283 20.6721 0
83.8692 20.6257 0
83.9482 24.9084 0
81.4051 24.9549 0
82.5988 20.6491 0
83.9087 22.7672 0
82.6766 24.9318 0
81.3667 22.8136 0
82.6377 22.7906 0
83.8692 20.6257 0
86.4101 20.578 0
86.4912 24.8607 0
83.9482 24.9084 0
85.1397 20.602 0
86.4507 22.7195 0
85.2197 24.8847 0
83.9087 22.7672 0
85.1797 22.7435 0
86.4101 20.578 0
88.9509 20.5289 0
89.0342 24.8117 0
86.4912 24.8607 0
87.6805 20.5536 0
88.9926 22.6704 0
87.7627 24.8363 0
86.4507 22.7195 0
87.7216 22.6951 0
88.9509 20.5289 0
91.4917 20.4787 0
91.5771 24.7614 0
89.0342 24.8117 0
90.2213 20.504 0
91.5344 22.6201 0
90.3057 24.7867 0
88.9926 22.6704 0
90.2635 22.6455 0
91.4917 20.4787 0
94.0325 20.4271 0
94.12 24.7098 0
91.5771 24.7614 0
92.7621 20.453 0
94.0762 22.5686 0
92.8486 24.7357 0
91.5344 22.6201 0
92.8053 22.5945 0
94.0325 20.4271 0
96.5732 20.3743 0
96.6628 24.6569 0
94.12 24.7098 0
95.3028 20.4009 0
96.618 22.5158 0
95.3914 24.6835 0
94.0762 22.5686 0
95.3471 22.5423 0
96.5732 20.3743 0
99.1138 20.3203 0
99.2056 24.6028 0
96.6628 24.6569 0
97.8435 20.3474 0
99.1597 22.4617 0
97.9342 24.63 0
96.618 22.5158 0
97.8888 22.4889 0
99.1138 20.3203 0
101.654 20.265 0
101.748 24.5475 0
99.2056 24.6028 0
100.384 20.2928 0
101.701 22.4064 0
100.477 24.5753 0
99.1597 22.4617 0
100.43 22.4342 0
101.654 20.265 0
104.195 20.2084 0
104.291 24.4909 0
101.748 24.5475 0
102.925 20.2368 0
104.243 22.3498 0
103.02 24.5194 0
101.701 22.4064 0
102.972 22.3782 0
104.195 20.2084 0
106.735 20.1506 0
106.833 24.4331 0
104.291 24.4909 0
105.465 20.1797 0
106.784 22.292 0
105.562 24.4622 0
104.243 22.3498 0
105.514 22.3211 0
106.735 20.1506 0
109.276 20.0917 0
109.376 24.3741 0
106.833 24.4331 0
108.006 20.1213 0
109.326 22.233 0
108.105 24.4038 0
106.784 22.292 0
108.055 22.2627 0
109.276 20.0917 0
111.816 20.0315 0
111.918 24.3139 0
109.376 24.3741 0
110.546 20.0617 0
111.867 22.1728 0
110.647 24.3442 0
109.326 22.233 0
110.597 22.2031 0
111.816 20.0315 0
114.357 19.9701 0
114.461 24.2525 0
111.918 24.3139 0
113.087 20.0009 0
114.409 22.1114 0
113.19 24.2833 0
111.867 22.1728 0
113.138 22.1423 0
114.357 19.9701 0
116.897 19.9075 0
117.003 24.1898 0
114.461 24.2525 0
115.627 19.9389 0
116.95 22.0488 0
115.732 24.2213 0
114.409 22.1114 0
115.679 22.0802 0
116.897 19.9075 0
119.437 19.8437 0
119.545 24.126 0
117.003 24.1898 0
118.167 19.8757 0
119.491 21.985 0
118.274 24.1581 0
116.95 22.0488 0
118.221 22.017 0
119.437 19.8437 0
121.977 19.7787 0
122.088 24.061 0
119.545 24.126 0
120.707 19.8114 0
122.033 21.92 0
120.816 24.0937 0
119.491 21.985 0
120.762 21.9526 0
121.977 19.7787 0
124.518 19.7126 0
124.63 23.9948 0
122.088 24.061 0
123.248 19.7458 0
124.574 21.8538 0
123.359 24.0281 0
122.033 21.92 0
123.303 21.8871 0
124.518 19.7126 0
127.058 19.6453 0
127.172 23.9275 0
124.63 23.9948 0
125.788 19.6791 0
127.115 21.7865 0
125.901 23.9613 0
124.574 21.8538 0
125.844 21.8203 0
127.058 19.6453 0
129.598 19.5768 0
129.714 23.859 0
127.172 23.9275 0
128.328 19.6112 0
129.656 21.7181 0
128.443 23.8934 0
127.115 21.7865 0
128.385 21.7524 0
129.598 19.5768 0
132.138 19.5072 0
132.256 23.7894 0
129.714 23.859 0
130.868 19.5422 0
132.197 21.6484 0
130.985 23.8243 0
129.656 21.7181 0
130.926 21.6834 0
132.138 19.5072 0
134.678 19.4365 0
134.798 23.7186 0
132.256 23.7894 0
133.408 19.472 0
134.738 21.5777 0
133.527 23.7541 0
132.197 21.6484 0
133.467 21.6132 0
134.678 19.4365 0
137.218 19.3646 0
137.339 23.6467 0
134.798 23.7186 0
135.948 19.4007 0
137.279 21.5058 0
136.069 23.6828 0
134.738 21.5777 0
136.008 21.5419 0
137.218 19.3646 0
139.758 19.2916 0
139.881 23.5736 0
137.339 23.6467 0
138.488 19.3283 0
139.819 21.4328 0
138.61 23.6103 0
137.279 21.5058 0
138.549 21.4694 0
139.758 19.2916 0
142.297 19.2175 0
142.423 23.4995 0
139.881 23.5736 0
141.027 19.2547 0
142.36 21.3586 0
141.152 23.5367 0
139.819 21.4328 0
141.09 21.3958 0
142.297 19.2175 0
144.837 19.1423 0
144.964 23.4242 0
142.423 23.4995 0
143.567 19.18 0
144.901 21.2834 0
143.694 23.462 0
142.36 21.3586 0
143.63 21.3211 0
144.837 19.1423 0
147.377 19.066 0
147.506 23.3478 0
144.964 23.4242 0
146.107 19.1043 0
147.441 21.207 0
146.235 23.3862 0
144.901 21.2834 0
146.171 21.2453 0
147.377 19.066 0
149.916 18.9885 0
150.047 23.2704 0
147.506 23.3478 0
148.647 19.0274 0
149.982 21.1296 0
148.777 23.3093 0
147.441 21.207 0
148.712 21.1684 0
149.916 18.9885 0
152.456 18.91 0
152.589 23.1918 0
150.047 23.2704 0
151.186 18.9494 0
152.522 21.0511 0
151.318 23.2312 0
149.982 21.1296 0
151.252 21.0905 0
152.456 18.91 0
154.996 18.8305 0
155.13 23.1122 0
152.589 23.1918 0
153.726 18.8704 0
155.063 20.9715 0
153.86 23.1522 0
152.522 21.0511 0
153.793 21.0114 0
154.996 18.8305 0
157.535 18.7498 0
157.672 23.0315 0
155.13 23.1122 0
156.265 18.7903 0
157.603 20.8908 0
156.401 23.072 0
155.063 20.9715 0
156.333 20.9312 0
157.535 18.7498 0
160.075 18.6681 0
160.213 22.9498 0
157.672 23.0315 0
158.805 18.7091 0
160.144 20.809 0
158.942 22.9908 0
157.603 20.8908 0
158.873 20.85 0
160.075 18.6681 0
162.614 18.5853 0
162.754 22.867 0
160.213 22.9498 0
161.344 18.6268 0
162.684 20.7263 0
161.483 22.9085 0
160.144 20.809 0
161.414 20.7678 0
162.614 18.5853 0
165.153 18.5015 0
165.295 22.7831 0
162.754 22.867 0
163.884 18.5436 0
165.224 20.6424 0
164.024 22.8252 0
162.684 20.7263 0
163.954 20.6845 0
165.153 18.5015 0
167.692 18.4167 0
167.836 22.6982 0
165.295 22.7831 0
166.423 18.4592 0
167.764 20.5576 0
166.565 22.7408 0
165.224 20.6424 0
166.494 20.6001 0
167.692 18.4167 0
170.232 18.3308 0
170.377 22.6123 0
167.836 22.6982 0
168.962 18.3739 0
170.304 20.4717 0
169.106 22.6554 0
167.764 20.5576 0
169.034 20.5147 0
170.232 18.3308 0
172.771 18.2439 0
172.918 22.5253 0
170.377 22.6123 0
171.501 18.2875 0
172.844 20.3847 0
171.647 22.5689 0
170.304 20.4717 0
171.574 20.4283 0
172.771 18.2439 0
175.31 18.156 0
175.459 22.4374 0
172.918 22.5253 0
174.04 18.2001 0
175.384 20.2968 0
174.188 22.4815 0
172.844 20.3847 0
174.114 20.3409 0
175.31 18.156 0
177.849 18.0671 0
177.999 22.3484 0
175.459 22.4374 0
176.579 18.1116 0
177.924 20.2079 0
176.729 22.393 0
175.384 20.2968 0
176.654 20.2524 0
177.849 18.0671 0
180.388 17.9771 0
180.54 22.2585 0
177.999 22.3484 0
179.119 18.0222 0
180.464 20.1179 0
179.27 22.3036 0
177.924 20.2079 0
179.194 20.163 0
180.388 17.9771 0
182.927 17.8862 0
183.081 22.1675 0
180.54 22.2585 0
181.657 17.9318 0
183.004 20.027 0
181.81 22.2131 0
180.464 20.1179 0
181.734 20.0726 0
182.927 17.8862 0
185.466 17.7944 0
185.621 22.0756 0
183.081 22.1675 0
184.196 17.8404 0
185.543 19.9351 0
184.351 22.1217 0
183.004 20.027 0
184.274 19.9811 0
185.466 17.7944 0
188.005 17.7015 0
188.162 21.9827 0
185.621 22.0756 0
186.735 17.748 0
188.083 19.8422 0
186.891 22.0292 0
185.543 19.9351 0
186.813 19.8887 0
188.005 17.7015 0
190.543 17.6077 0
190.702 21.8888 0
188.162 21.9827 0
189.274 17.6547 0
190.623 19.7483 0
189.432 21.9358 0
188.083 19.8422 0
189.353 19.7954 0
190.543 17.6077 0
193.082 17.5129 0
193.242 21.794 0
190.702 21.8888 0
191.813 17.5604 0
193.162 19.6535 0
191.972 21.8415 0
190.623 19.7483 0
191.893 19.701 0
193.082 17.5129 0
195.621 17.4171 0
195.783 21.6982 0
193.242 21.794 0
194.351 17.4651 0
195.702 19.5577 0
194.513 21.7462 0
193.162 19.6535 0
194.432 19.6057 0
195.621 17.4171 0
198.159 17.3204 0
198.323 21.6014 0
195.783 21.6982 0
196.89 17.3689 0
198.241 19.461 0
197.053 21.6499 0
195.702 19.5577 0
196.971 19.5095 0
198.159 17.3204 0
200.698 17.2228 0
200.863 21.5038 0
198.323 21.6014 0
199.429 17.2718 0
200.78 19.3634 0
199.593 21.5527 0
198.241 19.461 0
199.511 19.4123 0
200.698 17.2228 0
203.236 17.1243 0
203.403 21.4052 0
200.863 21.5038 0
201.967 17.1737 0
203.32 19.2648 0
202.133 21.4546 0
200.78 19.3634 0
202.05 19.3142 0
203.236 17.1243 0
205.775 17.0248 0
205.943 21.3057 0
203.403 21.4052 0
204.506 17.0747 0
205.859 19.1653 0
204.673 21.3555 0
203.32 19.2648 0
204.589 19.2152 0
205.775 17.0248 0
208.313 16.9244 0
208.483 21.2052 0
205.943 21.3057 0
207.044 16.9747 0
208.398 19.0649 0
207.213 21.2556 0
205.859 19.1653 0
207.129 19.1153 0
208.313 16.9244 0
210.852 16.8232 0
211.023 21.1039 0
208.483 21.2052 0
209.582 16.8739 0
210.937 18.9636 0
209.753 21.1547 0
208.398 19.0649 0
209.668 19.0144 0
210.852 16.8232 0
213.39 16.721 0
213.563 21.0017 0
211.023 21.1039 0
212.121 16.7722 0
213.476 18.8614 0
212.293 21.0529 0
210.937 18.9636 0
212.207 18.9127 0
213.39 16.721 0
215.928 16.6179 0
216.102 20.8986 0
213.563 21.0017 0
214.659 16.6696 0
216.015 18.7584 0
214.832 20.9503 0
213.476 18.8614 0
214.746 18.81 0
215.928 16.6179 0
218.466 16.514 0
218.642 20.7946 0
216.102 20.8986 0
217.197 16.5661 0
218.554 18.6544 0
217.372 20.8467 0
216.015 18.7584 0
217.285 18.7065 0
218.466 16.514 0
221.004 16.4092 0
221.181 20.6898 0
218.642 20.7946 0
219.735 16.4617 0
221.093 18.5496 0
219.912 20.7423 0
218.554 18.6544 0
219.824 18.6021 0
221.004 16.4092 0
223.542 16.3035 0
223.721 20.584 0
221.181 20.6898 0
222.273 16.3565 0
223.632 18.4439 0
222.451 20.637 0
221.093 18.5496 0
222.362 18.4968 0
223.542 16.3035 0
226.08 16.197 0
226.26 20.4775 0
223.721 20.584 0
224.811 16.2503 0
226.17 18.3373 0
224.991 20.5308 0
223.632 18.4439 0
224.901 18.3907 0
226.08 16.197 0
228.618 16.0896 0
228.8 20.37 0
226.26 20.4775 0
227.349 16.1434 0
228.709 18.2299 0
227.53 20.4238 0
226.17 18.3373 0
227.44 18.2837 0
228.618 16.0896 0
231.156 15.9814 0
231.339 20.2618 0
228.8 20.37 0
229.887 16.0356 0
231.248 18.1217 0
230.069 20.316 0
228.709 18.2299 0
229.978 18.1759 0
231.156 15.9814 0
233.694 15.8723 0
233.878 20.1527 0
231.339 20.2618 0
232.425 15.927 0
233.786 18.0126 0
232.609 20.2073 0
231.248 18.1217 0
232.517 18.0672 0
233.694 15.8723 0
236.232 15.7624 0
236.417 20.0427 0
233.878 20.1527 0
234.963 15.8175 0
236.325 17.9027 0
235.148 20.0978 0
233.786 18.0126 0
235.055 17.9577 0
236.232 15.7624 0
238.77 15.6518 0
238.957 19.932 0
236.417 20.0427 0
237.501 15.7072 0
238.863 17.792 0
237.687 19.9875 0
236.325 17.9027 0
237.594 17.8474 0
238.77 15.6518 0
241.307 15.5403 0
241.496 19.8204 0
238.957 19.932 0
240.038 15.5961 0
241.401 17.6804 0
240.226 19.8763 0
238.863 17.792 0
240.132 17.7363 0
241.307 15.5403 0
243.845 15.428 0
244.035 19.7081 0
241.496 19.8204 0
242.576 15.4842 0
243.94 17.5681 0
242.765 19.7644 0
241.401 17.6804 0
242.671 17.6244 0
243.845 15.428 0
246.382 15.3149 0
246.573 19.595 0
244.035 19.7081 0
245.114 15.3715 0
246.478 17.455 0
245.304 19.6516 0
243.94 17.5681 0
245.209 17.5116 0
246.382 15.3149 0
248.92 15.201 0
249.112 19.481 0
246.573 19.595 0
247.651 15.258 0
249.016 17.3411 0
247.843 19.5381 0
246.478 17.455 0
247.747 17.3981 0
248.92 15.201 0
251.457 15.0863 0
251.651 19.3663 0
249.112 19.481 0
250.189 15.1437 0
251.554 17.2264 0
250.382 19.4238 0
249.016 17.3411 0
250.285 17.2838 0
251.457 15.0863 0
253.995 14.9709 0
254.19 19.2509 0
251.651 19.3663 0
252.726 15.0287 0
254.092 17.111 0
252.92 19.3087 0
251.554 17.2264 0
252.823 17.1688 0
253.995 14.9709 0
256.532 14.8547 0
256.728 19.1346 0
254.19 19.2509 0
255.263 14.9129 0
256.63 16.9947 0
255.459 19.1928 0
254.092 17.111 0
255.361 17.0529 0
256.532 14.8547 0
259.069 14.7378 0
259.267 19.0176 0
256.728 19.1346 0
257.801 14.7963 0
259.168 16.8778 0
257.998 19.0762 0
256.63 16.9947 0
257.899 16.9364 0
259.069 14.7378 0
261.607 14.6201 0
261.805 18.8999 0
259.267 19.0176 0
260.338 14.679 0
261.706 16.7601 0
260.536 18.9589 0
259.168 16.8778 0
260.437 16.819 0
261.607 14.6201 0
264.144 14.5017 0
264.344 18.7814 0
261.805 18.8999 0
262.875 14.561 0
264.244 16.6416 0
263.075 18.8408 0
261.706 16.7601 0
262.975 16.7009 0
264.144 14.5017 0
266.681 14.3825 0
266.882 18.6622 0
264.344 18.7814 0
265.412 14.4422 0
266.781 16.5224 0
265.613 18.7219 0
264.244 16.6416 0
265.513 16.5821 0
266.681 14.3825 0
269.218 14.2626 0
269.42 18.5423 0
266.882 18.6622 0
267.949 14.3226 0
269.319 16.4025 0
268.151 18.6024 0
266.781 16.5224 0
268.05 16.4626 0
269.218 14.2626 0
271.755 14.142 0
271.959 18.4217 0
269.42 18.5423 0
270.486 14.2024 0
271.857 16.2819 0
270.689 18.4821 0
269.319 16.4025 0
270.588 16.3423 0
271.755 14.142 0
274.292 14.0207 0
274.497 18.3003 0
271.959 18.4217 0
273.023 14.0815 0
274.394 16.1606 0
273.228 18.3611 0
271.857 16.2819 0
273.126 16.2214 0
274.292 14.0207 0
276.829 13.8987 0
277.035 18.1783 0
274.497 18.3003 0
275.56 13.9598 0
276.932 16.0386 0
275.766 18.2394 0
274.394 16.1606 0
275.663 16.0997 0
276.829 13.8987 0
279.366 13.7761 0
279.573 18.0556 0
277.035 18.1783 0
278.097 13.8375 0
279.469 15.9159 0
278.304 18.117 0
276.932 16.0386 0
278.201 15.9773 0
279.366 13.7761 0
281.902 13.6527 0
282.111 17.9322 0
279.573 18.0556 0
280.634 13.7145 0
282.007 15.7925 0
280.842 17.994 0
279.469 15.9159 0
280.738 15.8543 0
281.902 13.6527 0
284.439 13.5286 0
284.649 17.8081 0
282.111 17.9322 0
283.171 13.5908 0
284.544 15.6684 0
283.38 17.8702 0
282.007 15.7925 0
283.275 15.7306 0
284.439 13.5286 0
286.976 13.4039 0
287.186 17.6833 0
284.649 17.8081 0
285.708 13.4664 0
287.081 15.5437 0
285.918 17.7458 0
284.544 15.6684 0
285.813 15.6062 0
286.976 13.4039 0
289.513 13.2786 0
289.724 17.5579 0
287.186 17.6833 0
288.244 13.3413 0
289.618 15.4183 0
288.455 17.6207 0
287.081 15.5437 0
288.35 15.4811 0
289.513 13.2786 0
292.049 13.1526 0
292.262 17.4319 0
289.724 17.5579 0
290.781 13.2156 0
292.155 15.2923 0
290.993 17.495 0
289.618 15.4183 0
290.887 15.3554 0
292.049 13.1526 0
294.586 13.0259 0
294.799 17.3052 0
292.262 17.4319 0
293.317 13.0893 0
294.693 15.1656 0
293.531 17.3686 0
292.155 15.2923 0
293.424 15.229 0
294.586 13.0259 0
297.122 12.8986 0
297.337 17.1778 0
294.799 17.3052 0
295.854 12.9623 0
297.23 15.0383 0
296.068 17.2416 0
294.693 15.1656 0
295.961 15.102 0
297.122 12.8986 0
299.659 12.7707 0
299.875 17.0499 0
297.337 17.1778 0
298.39 12.8347 0
299.767 14.9103 0
298.606 17.1139 0
297.23 15.0383 0
298.498 14.9744 0
299.659 12.7707 0
302.195 12.6421 0
302.412 16.9213 0
299.875 17.0499 0
300.927 12.7065 0
302.303 14.7818 0
301.143 16.9857 0
299.767 14.9103 0
301.035 14.8461 0
302.195 12.6421 0
304.731 12.513 0
304.949 16.7921 0
302.412 16.9213 0
303.463 12.5776 0
304.84 14.6526 0
303.681 16.8568 0
302.303 14.7818 0
303.572 14.7173 0
304.731 12.513 0
307.268 12.3832 0
307.487 16.6623 0
304.949 16.7921 0
305.999 12.4482 0
307.377 14.5228 0
306.218 16.7273 0
304.84 14.6526 0
306.109 14.5878 0
307.268 12.3832 0
309.804 12.2529 0
310.024 16.5319 0
307.487 16.6623 0
308.536 12.3181 0
309.914 14.3924 0
308.755 16.5972 0
307.377 14.5228 0
308.645 14.4577 0
309.804 12.2529 0
312.34 12.1219 0
312.561 16.4009 0
310.024 16.5319 0
311.072 12.1875 0
312.45 14.2615 0
311.292 16.4665 0
309.914 14.3924 0
311.182 14.327 0
312.34 12.1219 0
314.876 11.9904 0
315.098 16.2694 0
312.561 16.4009 0
313.608 12.0562 0
314.987 14.1299 0
313.83 16.3352 0
312.45 14.2615 0
313.719 14.1958 0
314.876 11.9904 0
317.412 11.8583 0
317.635 16.1372 0
315.098 16.2694 0
316.144 11.9244 0
317.524 13.9978 0
316.367 16.2034 0
314.987 14.1299 0
316.255 14.064 0
317.412 11.8583 0
319.948 11.7256 0
320.172 16.0045 0
317.635 16.1372 0
318.68 11.792 0
320.06 13.8651 0
318.904 16.071 0
317.524 13.9978 0
318.792 13.9316 0
319.948 11.7256 0
322.484 11.5924 0
322.709 15.8713 0
320.172 16.0045 0
321.216 11.6591 0
322.597 13.7319 0
321.441 15.938 0
320.06 13.8651 0
321.328 13.7986 0
322.484 11.5924 0
325.02 11.4587 0
325.246 15.7375 0
322.709 15.8713 0
323.752 11.5256 0
325.133 13.5981 0
323.977 15.8045 0
322.597 13.7319 0
323.865 13.6651 0
325.02 11.4587 0
327.556 11.3244 0
327.783 15.6031 0
325.246 15.7375 0
326.288 11.3916 0
327.669 13.4638 0
326.514 15.6704 0
325.133 13.5981 0
326.401 13.531 0
327.556 11.3244 0
330.092 11.1895 0
330.319 15.4683 0
327.783 15.6031 0
328.824 11.257 0
330.206 13.329 0
329.051 15.5358 0
327.669 13.4638 0
328.937 13.3964 0
330.092 11.1895 0
332.628 11.0541 0
332.856 15.3329 0
330.319 15.4683 0
331.36 11.1219 0
332.742 13.1936 0
331.588 15.4006 0
330.206 13.329 0
331.474 13.2613 0
332.628 11.0541 0
335.163 10.9183 0
335.393 15.197 0
332.856 15.3329 0
333.896 10.9863 0
335.278 13.0577 0
334.124 15.265 0
332.742 13.1936 0
334.01 13.1257 0
335.163 10.9183 0
337.699 10.7819 0
337.929 15.0605 0
335.393 15.197 0
336.431 10.8501 0
337.814 12.9213 0
336.661 15.1288 0
335.278 13.0577 0
336.546 12.9895 0
337.699 10.7819 0
340.235 10.645 0
340.466 14.9236 0
337.929 15.0605 0
338.967 10.7135 0
340.35 12.7844 0
339.197 14.9921 0
337.814 12.9213 0
339.082 12.8529 0
340.235 10.645 0
342.77 10.5076 0
343.002 14.7862 0
340.466 14.9236 0
341.503 10.5764 0
342.886 12.647 0
341.734 14.855 0
340.35 12.7844 0
341.618 12.7157 0
342.77 10.5076 0
345.306 10.3697 0
345.539 14.6483 0
343.002 14.7862 0
344.038 10.4387 0
345.422 12.5091 0
344.27 14.7173 0
342.886 12.647 0
344.154 12.5781 0
345.306 10.3697 0
347.841 10.2314 0
348.075 14.5099 0
345.539 14.6483 0
346.574 10.3006 0
347.958 12.3707 0
346.807 14.5792 0
345.422 12.5091 0
346.69 12.4399 0
347.841 10.2314 0
350.377 10.0926 0
350.611 14.3711 0
348.075 14.5099 0
349.109 10.162 0
350.494 12.2319 0
349.343 14.4406 0
347.958 12.3707 0
349.226 12.3013 0
350.377 10.0926 0
352.912 9.95329 0
353.147 14.2318 0
350.611 14.3711 0
351.645 10.023 0
353.03 12.0926 0
351.879 14.3015 0
350.494 12.2319 0
351.762 12.1623 0
352.912 9.95329 0
355.448 9.81355 0
355.683 14.092 0
353.147 14.2318 0
354.18 9.88348 0
355.566 11.9528 0
354.415 14.1619 0
353.03 12.0926 0
354.298 12.0228 0
355.448 9.81355 0
357.983 9.67337 0
358.219 13.9518 0
355.683 14.092 0
356.715 9.74352 0
358.101 11.8126 0
356.951 14.022 0
355.566 11.9528 0
356.833 11.8828 0
357.983 9.67337 0
360.518 9.53275 0
360.756 13.8111 0
358.219 13.9518 0
359.251 9.60312 0
360.637 11.672 0
359.488 13.8815 0
358.101 11.8126 0
359.369 11.7424 0
360.518 9.53275 0
363.053 9.3917 0
363.291 13.6701 0
360.756 13.8111 0
361.786 9.46228 0
363.172 11.5309 0
362.023 13.7407 0
360.637 11.672 0
361.905 11.6015 0
363.053 9.3917 0
365.589 9.25023 0
365.827 13.5286 0
363.291 13.6701 0
364.321 9.32102 0
365.708 11.3894 0
364.559 13.5994 0
363.172 11.5309 0
364.44 11.4602 0
365.589 9.25023 0
368.124 9.10834 0
368.363 13.3867 0
365.827 13.5286 0
366.856 9.17934 0
368.244 11.2475 0
367.095 13.4577 0
365.708 11.3894 0
366.976 11.3185 0
368.124 9.10834 0
370.659 8.96605 0
370.899 13.2443 0
368.363 13.3867 0
369.391 9.03724 0
370.779 11.1052 0
369.631 13.3156 0
368.244 11.2475 0
369.511 11.1764 0
370.659 8.96605 0
373.194 8.82335 0
373.435 13.1016 0
370.899 13.2443 0
371.926 8.89475 0
373.314 10.9625 0
372.167 13.173 0
370.779 11.1052 0
372.047 11.0339 0
373.194 8.82335 0
375.729 8.68027 0
375.97 12.9585 0
373.435 13.1016 0
374.462 8.75186 0
375.85 10.8194 0
374.703 13.0301 0
373.314 10.9625 0
374.582 10.891 0
375.729 8.68027 0
378.264 8.5368 0
378.506 12.815 0
375.97 12.9585 0
376.997 8.60858 0
378.385 10.676 0
377.238 12.8868 0
375.85 10.8194 0
377.117 10.7477 0
378.264 8.5368 0
380.799 8.39295 0
381.042 12.6712 0
378.506 12.815 0
379.531 8.46492 0
380.92 10.5321 0
379.774 12.7431 0
378.385 10.676 0
379.653 10.6041 0
380.799 8.39295 0
383.334 8.24874 0
383.577 12.5269 0
381.042 12.6712 0
382.066 8.32089 0
383.455 10.3879 0
382.309 12.5991 0
380.92 10.5321 0
382.188 10.46 0
383.334 8.24874 0
385.869 8.10417 0
386.113 12.3823 0
383.577 12.5269 0
384.601 8.1765 0
385.991 10.2433 0
384.845 12.4547 0
383.455 10.3879 0
384.723 10.3156 0
385.869 8.10417 0
388.404 7.95925 0
388.648 12.2374 0
386.113 12.3823 0
387.136 8.03175 0
388.526 10.0984 0
387.38 12.3099 0
385.991 10.2433 0
387.258 10.1709 0
388.404 7.95925 0
390.938 7.81398 0
391.183 12.0921 0
388.648 12.2374 0
389.671 7.88666 0
391.061 9.95308 0
389.916 12.1648 0
388.526 10.0984 0
389.793 10.0258 0
390.938 7.81398 0
393.473 7.66837 0
393.719 11.9465 0
391.183 12.0921 0
392.206 7.74122 0
393.596 9.80746 0
392.451 12.0193 0
391.061 9.95308 0
392.328 9.88031 0
393.473 7.66837 0
396.008 7.52244 0
396.254 11.8005 0
393.719 11.9465 0
394.74 7.59545 0
396.131 9.66152 0
394.986 11.8735 0
393.596 9.80746 0
394.863 9.73453 0
396.008 7.52244 0
398.542 7.37619 0
398.789 11.6543 0
396.254 11.8005 0
397.275 7.44935 0
398.666 9.51525 0
397.522 11.7274 0
396.131 9.66152 0
397.398 9.58843 0
398.542 7.37619 0
401.077 7.22962 0
401.324 11.5077 0
398.789 11.6543 0
399.81 7.30294 0
401.201 9.36868 0
400.057 11.581 0
398.666 9.51525 0
399.933 9.44201 0
401.077 7.22962 0
403.612 7.08275 0
403.859 11.3608 0
401.324 11.5077 0
402.344 7.15622 0
403.736 9.2218 0
402.592 11.4343 0
401.201 9.36868 0
402.468 9.29528 0
403.612 7.08275 0
406.146 6.93558 0
406.394 11.2136 0
403.859 11.3608 0
404.879 7.0092 0
406.27 9.07462 0
405.127 11.2872 0
403.736 9.2218 0
405.003 9.14825 0
406.146 6.93558 0
408.681 6.78812 0
408.929 11.0661 0
406.394 11.2136 0
407.413 6.86189 0
408.805 8.92716 0
407.662 11.1399 0
406.27 9.07462 0
407.538 9.00093 0
408.681 6.78812 0
411.215 6.64039 0
411.464 10.9184 0
408.929 11.0661 0
409.948 6.71429 0
411.34 8.77941 0
410.197 10.9923 0
408.805 8.92716 0
410.072 8.85332 0
411.215 6.64039 0
413.75 6.49237 0
413.999 10.7703 0
411.464 10.9184 0
412.482 6.56641 0
413.874 8.63139 0
412.732 10.8444 0
411.34 8.77941 0
412.607 8.70543 0
413.75 6.49237 0
416.284 6.34409 0
416.534 10.6221 0
413.999 10.7703 0
415.017 6.41827 0
416.409 8.48311 0
415.267 10.6962 0
413.874 8.63139 0
415.142 8.55728 0
416.284 6.34409 0
418.818 6.19556 0
419.069 10.4735 0
416.534 10.6221 0
417.551 6.26986 0
418.944 8.33456 0
417.802 10.5478 0
416.409 8.48311 0
417.676 8.40887 0
418.818 6.19556 0
421.353 6.04677 0
421.604 10.3247 0
419.069 10.4735 0
420.086 6.1212 0
421.478 8.18577 0
420.336 10.3991 0
418.944 8.33456 0
420.211 8.2602 0
421.353 6.04677 0
423.887 5.89775 0
424.138 10.1757 0
421.604 10.3247 0
422.62 5.97229 0
424.013 8.03674 0
422.871 10.2502 0
421.478 8.18577 0
422.745 8.11128 0
423.887 5.89775 0
426.421 5.74848 0
426.673 10.0264 0
424.138 10.1757 0
425.154 5.82314 0
426.547 7.88747 0
425.406 10.1011 0
424.013 8.03674 0
425.28 7.96213 0
426.421 5.74848 0
428.956 5.599 0
429.208 9.87691 0
426.673 10.0264 0
427.688 5.67377 0
429.082 7.73798 0
427.94 9.95168 0
426.547 7.88747 0
427.814 7.81275 0
428.956 5.599 0
431.49 5.44929 0
431.742 9.72719 0
429.208 9.87691 0
430.223 5.52417 0
431.616 7.58826 0
430.475 9.80208 0
429.082 7.73798 0
430.349 7.66315 0
431.49 5.44929 0
434.024 5.29937 0
434.277 9.57727 0
431.742 9.72719 0
432.757 5.37436 0
434.15 7.43834 0
433.01 9.65226 0
431.616 7.58826 0
432.883 7.51333 0
434.024 5.29937 0
436.558 5.14925 0
436.811 9.42714 0
434.277 9.57727 0
435.291 5.22434 0
436.685 7.28822 0
435.544 9.50223 0
434.15 7.43834 0
435.418 7.36331 0
436.558 5.14925 0
439.092 4.99894 0
439.346 9.27682 0
436.811 9.42714 0
437.825 5.07412 0
439.219 7.1379 0
438.079 9.352 0
436.685 7.28822 0
437.952 7.21308 0
439.092 4.99894 0
441.626 4.84843 0
441.88 9.12631 0
439.346 9.27682 0
440.359 4.92371 0
441.753 6.98739 0
440.613 9.20159 0
439.219 7.1379 0
440.486 7.06267 0
441.626 4.84843 0
444.16 4.69775 0
444.414 8.97563 0
441.88 9.12631 0
442.893 4.77311 0
444.287 6.83671 0
443.147 9.05099 0
441.753 6.98739 0
443.02 6.91207 0
444.16 4.69775 0
446.694 4.5469 0
446.949 8.82477 0
444.414 8.97563 0
445.427 4.62235 0
446.822 6.68585 0
445.682 8.90022 0
444.287 6.83671 0
445.554 6.7613 0
446.694 4.5469 0
449.228 4.39588 0
449.483 8.67375 0
446.949 8.82477 0
447.961 4.47141 0
449.356 6.53483 0
448.216 8.74928 0
446.822 6.68585 0
448.089 6.61036 0
449.228 4.39588 0
451.762 4.24471 0
452.017 8.52258 0
449.483 8.67375 0
450.495 4.32031 0
451.89 6.38366 0
450.75 8.59818 0
449.356 6.53483 0
450.623 6.45927 0
451.762 4.24471 0
454.296 4.09339 0
454.551 8.37125 0
452.017 8.52258 0
453.029 4.16907 0
454.424 6.23234 0
453.284 8.44693 0
451.89 6.38366 0
453.157 6.30802 0
454.296 4.09339 0
456.83 3.94193 0
457.086 8.21979 0
454.551 8.37125 0
455.563 4.01768 0
456.958 6.08088 0
455.818 8.29554 0
454.424 6.23234 0
455.691 6.15662 0
456.83 3.94193 0
459.364 3.79034 0
459.62 8.0682 0
457.086 8.21979 0
458.097 3.86615 0
459.492 5.92928 0
458.353 8.14401 0
456.958 6.08088 0
458.225 6.0051 0
459.364 3.79034 0
461.898 3.63862 0
462.154 7.91649 0
459.62 8.0682 0
460.631 3.71449 0
462.026 5.77757 0
460.887 7.99236 0
459.492 5.92928 0
460.759 5.85344 0
461.898 3.63862 0
464.432 3.48679 0
464.688 7.76465 0
462.154 7.91649 0
463.165 3.56272 0
464.56 5.62573 0
463.421 7.84058 0
462.026 5.77757 0
463.293 5.70166 0
464.432 3.48679 0
466.965 3.33484 0
467.222 7.61272 0
464.688 7.76465 0
465.699 3.41083 0
467.094 5.47379 0
465.955 7.6887 0
464.56 5.62573 0
465.827 5.54978 0
466.965 3.33484 0
469.499 3.1828 0
469.756 7.46068 0
467.222 7.61272 0
468.232 3.25883 0
469.627 5.32175 0
468.489 7.53671 0
467.094 5.47379 0
468.36 5.39778 0
469.499 3.1828 0
472.033 3.03067 0
472.29 7.30855 0
469.756 7.46068 0
470.766 3.10674 0
472.161 5.16962 0
471.023 7.38462 0
469.627 5.32175 0
470.894 5.24569 0
472.033 3.03067 0
474.567 2.87845 0
474.823 7.15633 0
472.29 7.30855 0
473.3 2.95457 0
474.695 5.0174 0
473.556 7.23245 0
472.161 5.16962 0
473.428 5.09352 0
474.567 2.87845 0
477.1 2.72615 0
477.357 7.00404 0
474.823 7.15633 0
475.834 2.80231 0
477.229 4.8651 0
476.09 7.08019 0
474.695 5.0174 0
475.962 4.94126 0
477.1 2.72615 0
479.634 2.57378 0
479.891 6.85168 0
477.357 7.00404 0
478.367 2.64997 0
479.763 4.71274 0
478.624 6.92787 0
477.229 4.8651 0
478.496 4.78893 0
479.634 2.57378 0
482.168 2.42135 0
482.425 6.69926 0
479.891 6.85168 0
480.901 2.49757 0
482.296 4.56031 0
481.158 6.77548 0
479.763 4.71274 0
481.029 4.63653 0
482.168 2.42135 0
484.701 2.26887 0
484.958 6.54679 0
482.425 6.69926 0
483.435 2.34512 0
484.83 4.40784 0
483.692 6.62303 0
482.296 4.56031 0
483.563 4.48408 0
484.701 2.26887 0
487.235 2.11634 0
487.492 6.39427 0
484.958 6.54679 0
485.968 2.19261 0
487.363 4.25531 0
486.225 6.47054 0
484.83 4.40784 0
486.097 4.33158 0
487.235 2.11634 0
489.768 1.96376 0
490.026 6.24171 0
487.492 6.39427 0
488.502 2.04005 0
489.897 4.10274 0
488.759 6.318 0
487.363 4.25531 0
488.63 4.17903 0
489.768 1.96376 0
492.302 1.81115 0
492.559 6.08911 0
490.026 6.24171 0
491.035 1.88746 0
492.431 3.95014 0
491.293 6.16542 0
489.897 4.10274 0
491.164 4.02645 0
492.302 1.81115 0
494.836 1.65852 0
495.093 5.93645 0
492.559 6.08911 0
493.569 1.73484 0
494.964 3.79748 0
493.826 6.01279 0
492.431 3.95014 0
493.697 3.87382 0
494.836 1.65852 0
497.369 1.50588 0
497.626 5.7837 0
495.093 5.93645 0
496.102 1.5822 0
497.498 3.64479 0
496.36 5.86009 0
494.964 3.79748 0
496.231 3.72114 0
497.369 1.50588 0
499.903 1.35332 0
500.16 5.63088 0
497.626 5.7837 0
498.636 1.42959 0
500.031 3.49213 0
498.893 5.70728 0
497.498 3.64479 0
498.764 3.56845 0
0 25.7143 0
2.54401 25.7126 0
2.54804 29.995 0
0 30 0
1.27192 25.7137 0
2.54558 27.8541 0
1.27446 29.9969 0
0 27.8571 0
1.27262 27.8558 0
2.54401 25.7126 0
5.08851 25.7094 0
5.09474 29.9913 0
2.54804 29.995 0
3.81623 25.7111 0
5.09146 27.8505 0
3.8214 29.9932 0
2.54558 27.8541 0
3.81854 27.8524 0
5.08851 25.7094 0
7.63306 25.705 0
7.64151 29.9868 0
5.09474 29.9913 0
6.36079 25.7073 0
7.63724 27.8461 0
6.36811 29.9892 0
5.09146 27.8505 0
6.36436 27.8484 0
7.63306 25.705 0
10.1776 25.6993 0
10.1883 29.9811 0
7.64151 29.9868 0
8.90533 25.7023 0
10.1829 27.8403 0
8.91492 29.9841 0
7.63724 27.8461 0
8.91009 27.8434 0
10.1776 25.6993 0
12.722 25.6921 0
12.7352 29.974 0
10.1883 29.9811 0
11.4498 25.6959 0
12.7286 27.8332 0
11.4618 29.9777 0
10.1829 27.8403 0
11.4558 27.837 0
12.722 25.6921 0
15.2665 25.6835 0
15.2821 29.9654 0
12.7352 29.974 0
13.9943 25.688 0
15.2743 27.8246 0
14.0087 29.9699 0
12.7286 27.8332 0
14.0014 27.8291 0
15.2665 25.6835 0
17.8108 25.6734 0
17.8289 29.9553 0
15.2821 29.9654 0
16.5386 25.6787 0
17.8199 27.8145 0
16.5555 29.9605 0
15.2743 27.8246 0
16.5471 27.8197 0
17.8108 25.6734 0
20.3551 25.6619 0
20.3758 29.9437 0
17.8289 29.9553 0
19.083 25.6678 0
20.3654 27.8029 0
19.1024 29.9497 0
17.8199 27.8145 0
19.0926 27.8089 0
20.3551 25.6619 0
22.8994 25.6488 0
22.9225 29.9306 0
20.3758 29.9437 0
21.6273 25.6555 0
22.911 27.7899 0
21.6492 29.9373 0
20.3654 27.8029 0
21.6382 27.7966 0
22.8994 25.6488 0
25.4437 25.6342 0
25.4693 29.9161 0
22.9225 29.9306 0
24.1716 25.6417 0
25.4564 27.7753 0
24.1959 29.9235 0
22.911 27.7899 0
24.1837 27.7828 0
25.4437 25.6342 0
27.9879 25.6182 0
28.0159 29.9 0
25.4693 29.9161 0
26.7158 25.6264 0
28.0019 27.7593 0
26.7426 29.9082 0
25.4564 27.7753 0
26.7292 27.7675 0
27.9879 25.6182 0
30.532 25.6007 0
30.5626 29.8825 0
28.0159 29.9 0
29.26 25.6096 0
30.5473 27.7418 0
29.2892 29.8915 0
28.0019 27.7593 0
29.2746 27.7507 0
30.532 25.6007 0
33.0761 25.5817 0
33.1091 29.8636 0
30.5626 29.8825 0
31.8041 25.5914 0
33.0926 27.7228 0
31.8358 29.8732 0
30.5473 27.7418 0
31.8199 27.7325 0
33.0761 25.5817 0
35.6202 25.5613 0
35.6556 29.8432 0
33.1091 29.8636 0
34.3482 25.5717 0
35.6379 27.7024 0
34.3824 29.8535 0
33.0926 27.7228 0
34.3652 27.7128 0
35.6202 25.5613 0
38.1642 25.5394 0
38.2021 29.8213 0
35.6556 29.8432 0
36.8922 25.5505 0
38.1831 27.6805 0
36.9288 29.8324 0
35.6379 27.7024 0
36.9105 27.6916 0
38.1642 25.5394 0
40.7082 25.5161 0
40.7484 29.798 0
38.2021 29.8213 0
39.4362 25.528 0
40.7283 27.6572 0
39.4753 29.8098 0
38.1831 27.6805 0
39.4557 27.6691 0
40.7082 25.5161 0
43.2521 25.4914 0
43.2948 29.7733 0
40.7484 29.798 0
41.9802 25.504 0
43.2734 27.6325 0
42.0216 29.7858 0
40.7283 27.6572 0
42.0009 27.645 0
43.2521 25.4914 0
45.796 25.4653 0
45.841 29.7472 0
43.2948 29.7733 0
44.5241 25.4785 0
45.8185 27.6064 0
44.5679 29.7604 0
43.2734 27.6325 0
44.546 27.6196 0
45.796 25.4653 0
48.3399 25.4377 0
48.3872 29.7196 0
45.841 29.7472 0
47.068 25.4517 0
48.3635 27.5788 0
47.1142 29.7336 0
45.8185 27.6064 0
47.091 27.5928 0
48.3399 25.4377 0
50.8837 25.4088 0
50.9334 29.6906 0
48.3872 29.7196 0
49.6118 25.4234 0
50.9085 27.5499 0
49.6603 29.7053 0
48.3635 27.5788 0
49.636 27.5645 0
50.8837 25.4088 0
53.4274 25.3785 0
53.4795 29.6603 0
50.9334 29.6906 0
52.1555 25.3938 0
53.4534 27.5195 0
52.2064 29.6756 0
50.9085 27.5499 0
52.181 27.5349 0
53.4274 25.3785 0
55.9711 25.3467 0
56.0255 29.6286 0
53.4795 29.6603 0
54.6992 25.3628 0
55.9983 27.4878 0
54.7525 29.6446 0
53.4534 27.5195 0
54.7258 27.5038 0
55.9711 25.3467 0
58.5147 25.3136 0
58.5714 29.5954 0
56.0255 29.6286 0
57.2429 25.3303 0
58.5431 27.4547 0
57.2985 29.6122 0
55.9983 27.4878 0
57.2707 27.4714 0
58.5147 25.3136 0
61.0583 25.2791 0
61.1173 29.5609 0
58.5714 29.5954 0
59.7865 25.2965 0
61.0878 27.4202 0
59.8444 29.5784 0
58.5431 27.4547 0
59.8154 27.4376 0
61.0583 25.2791 0
63.6018 25.2433 0
63.6632 29.5251 0
61.1173 29.5609 0
62.3301 25.2614 0
63.6325 27.3843 0
62.3903 29.5432 0
61.0878 27.4202 0
62.3601 27.4024 0
63.6018 25.2433 0
66.1453 25.2061 0
66.2089 29.4879 0
63.6632 29.5251 0
64.8736 25.2249 0
66.1771 27.3471 0
64.936 29.5067 0
63.6325 27.3843 0
64.9048 27.3659 0
66.1453 25.2061 0
68.6888 25.1676 0
68.7546 29.4493 0
66.2089 29.4879 0
67.4171 25.187 0
68.7217 27.3086 0
67.4818 29.4688 0
66.1771 27.3471 0
67.4494 27.328 0
68.6888 25.1676 0
71.2321 25.1277 0
71.3002 29.4094 0
68.7546 29.4493 0
69.9605 25.1478 0
71.2662 27.2687 0
70.0274 29.4295 0
68.7217 27.3086 0
69.9939 27.2888 0
71.2321 25.1277 0
73.7755 25.0865 0
73.8458 29.3682 0
71.3002 29.4094 0
72.5038 25.1072 0
73.8106 27.2275 0
72.573 29.389 0
71.2662 27.2687 0
72.5384 27.2482 0
73.7755 25.0865 0
76.3187 25.0439 0
76.3913 29.3256 0
73.8458 29.3682 0
75.0471 25.0654 0
76.355 27.1849 0
75.1185 29.3471 0
73.8106 27.2275 0
75.0828 27.2064 0
76.3187 25.0439 0
78.8619 25.0001 0
78.9367 29.2818 0
76.3913 29.3256 0
77.5903 25.0222 0
78.8993 27.1411 0
77.664 29.3039 0
76.355 27.1849 0
77.6271 27.1632 0
78.8619 25.0001 0
81.4051 24.9549 0
81.482 29.2366 0
78.9367 29.2818 0
80.1335 24.9777 0
81.4435 27.0959 0
80.2094 29.2593 0
78.8993 27.1411 0
80.1714 27.1186 0
81.4051 24.9549 0
83.9482 24.9084 0
84.0273 29.1901 0
81.482 29.2366 0
82.6766 24.9318 0
83.9877 27.0494 0
82.7547 29.2135 0
81.4435 27.0959 0
82.7156 27.0728 0
83.9482 24.9084 0
86.4912 24.8607 0
86.5725 29.1423 0
84.0273 29.1901 0
85.2197 24.8847 0
86.5319 27.0017 0
85.2999 29.1664 0
83.9877 27.0494 0
85.2598 27.0257 0
86.4912 24.8607 0
89.0342 24.8117 0
89.1177 29.0933 0
86.5725 29.1423 0
87.7627 24.8363 0
89.0759 26.9526 0
87.8451 29.118 0
86.5319 27.0017 0
87.8039 26.9773 0
89.0342 24.8117 0
91.5771 24.7614 0
91.6627 29.043 0
89.1177 29.0933 0
90.3057 24.7867 0
91.6199 26.9023 0
90.3902 29.0683 0
89.0759 26.9526 0
90.3479 26.9276 0
91.5771 24.7614 0
94.12 24.7098 0
94.2077 28.9914 0
91.6627 29.043 0
92.8486 24.7357 0
94.1638 26.8507 0
92.9353 29.0173 0
91.6199 26.9023 0
92.8919 26.8767 0
94.12 24.7098 0
96.6628 24.6569 0
96.7527 28.9385 0
94.2077 28.9914 0
95.3914 24.6835 0
96.7077 26.7978 0
95.4802 28.9651 0
94.1638 26.8507 0
95.4358 26.8244 0
96.6628 24.6569 0
99.2056 24.6028 0
99.2975 28.8844 0
96.7527 28.9385 0
97.9342 24.63 0
99.2515 26.7437 0
98.0251 28.9116 0
96.7077 26.7978 0
97.9796 26.771 0
99.2056 24.6028 0
101.748 24.5475 0
101.842 28.829 0
99.2975 28.8844 0
100.477 24.5753 0
101.795 26.6884 0
100.57 28.8569 0
99.2515 26.7437 0
100.523 26.7162 0
101.748 24.5475 0
104.291 24.4909 0
104.387 28.7724 0
101.842 28.829 0
103.02 24.5194 0
104.339 26.6318 0
103.115 28.8009 0
101.795 26.6884 0
103.067 26.6603 0
104.291 24.4909 0
106.833 24.4331 0
106.932 28.7146 0
104.387 28.7724 0
105.562 24.4622 0
106.883 26.574 0
105.659 28.7437 0
104.339 26.6318 0
105.611 26.6031 0
106.833 24.4331 0
109.376 24.3741 0
109.476 28.6556 0
106.932 28.7146 0
108.105 24.4038 0
109.426 26.515 0
108.204 28.6852 0
106.883 26.574 0
108.154 26.5446 0
109.376 24.3741 0
111.918 24.3139 0
112.021 28.5953 0
109.476 28.6556 0
110.647 24.3442 0
111.97 26.4547 0
110.748 28.6256 0
109.426 26.515 0
110.698 26.485 0
111.918 24.3139 0
114.461 24.2525 0
114.565 28.5338 0
112.021 28.5953 0
113.19 24.2833 0
114.513 26.3933 0
113.293 28.5647 0
111.97 26.4547 0
113.241 26.4242 0
114.461 24.2525 0
117.003 24.1898 0
117.109 28.4712 0
114.565 28.5338 0
115.732 24.2213 0
117.056 26.3306 0
115.837 28.5027 0
114.513 26.3933 0
115.785 26.3621 0
117.003 24.1898 0
119.545 24.126 0
119.654 28.4073 0
117.109 28.4712 0
118.274 24.1581 0
119.599 26.2668 0
118.382 28.4394 0
117.056 26.3306 0
118.328 26.2989 0
119.545 24.126 0
122.088 24.061 0
122.198 28.3423 0
119.654 28.4073 0
120.816 24.0937 0
122.143 26.2018 0
120.926 28.375 0
119.599 26.2668 0
120.871 26.2344 0
122.088 24.061 0
124.63 23.9948 0
124.742 28.2761 0
122.198 28.3423 0
123.359 24.0281 0
124.686 26.1356 0
123.47 28.3093 0
122.143 26.2018 0
123.414 26.1688 0
124.63 23.9948 0
127.172 23.9275 0
127.286 28.2087 0
124.742 28.2761 0
125.901 23.9613 0
127.229 26.0682 0
126.014 28.2426 0
124.686 26.1356 0
125.957 26.1021 0
127.172 23.9275 0
129.714 23.859 0
129.83 28.1402 0
127.286 28.2087 0
128.443 23.8934 0
129.772 25.9997 0
128.558 28.1746 0
127.229 26.0682 0
128.5 26.0341 0
129.714 23.859 0
132.256 23.7894 0
132.374 28.0705 0
129.83 28.1402 0
130.985 23.8243 0
132.315 25.9301 0
131.102 28.1055 0
129.772 25.9997 0
131.043 25.965 0
132.256 23.7894 0
134.798 23.7186 0
134.918 27.9997 0
132.374 28.0705 0
133.527 23.7541 0
134.858 25.8593 0
133.646 28.0353 0
132.315 25.9301 0
133.586 25.8948 0
134.798 23.7186 0
137.339 23.6467 0
137.461 27.9278 0
134.918 27.9997 0
136.069 23.6828 0
137.4 25.7873 0
136.189 27.9639 0
134.858 25.8593 0
136.129 25.8235 0
137.339 23.6467 0
139.881 23.5736 0
140.005 27.8547 0
137.461 27.9278 0
138.61 23.6103 0
139.943 25.7143 0
138.733 27.8914 0
137.4 25.7873 0
138.672 25.751 0
139.881 23.5736 0
142.423 23.4995 0
142.549 27.7805 0
140.005 27.8547 0
141.152 23.5367 0
142.486 25.6401 0
141.277 27.8177 0
139.943 25.7143 0
141.214 25.6773 0
142.423 23.4995 0
144.964 23.4242 0
145.092 27.7052 0
142.549 27.7805 0
143.694 23.462 0
145.028 25.5648 0
143.82 27.743 0
142.486 25.6401 0
143.757 25.6026 0
144.964 23.4242 0
147.506 23.3478 0
147.635 27.6288 0
145.092 27.7052 0
146.235 23.3862 0
147.571 25.4884 0
146.364 27.6671 0
145.028 25.5648 0
146.299 25.5268 0
147.506 23.3478 0
150.047 23.2704 0
150.179 27.5513 0
147.635 27.6288 0
148.777 23.3093 0
150.113 25.411 0
148.907 27.5902 0
147.571 25.4884 0
148.842 25.4498 0
150.047 23.2704 0
152.589 23.1918 0
152.722 27.4727 0
150.179 27.5513 0
151.318 23.2312 0
152.655 25.3324 0
151.45 27.5121 0
150.113 25.411 0
151.384 25.3718 0
152.589 23.1918 0
155.13 23.1122 0
155.265 27.3931 0
152.722 27.4727 0
153.86 23.1522 0
155.198 25.2528 0
153.994 27.433 0
152.655 25.3324 0
153.927 25.2927 0
155.13 23.1122 0
157.672 23.0315 0
157.808 27.3123 0
155.265 27.3931 0
156.401 23.072 0
157.74 25.172 0
156.537 27.3528 0
155.198 25.2528 0
156.469 25.2125 0
157.672 23.0315 0
160.213 22.9498 0
160.351 27.2305 0
157.808 27.3123 0
158.942 22.9908 0
160.282 25.0903 0
159.08 27.2716 0
157.74 25.172 0
159.011 25.1313 0
160.213 22.9498 0
162.754 22.867 0
162.894 27.1477 0
160.351 27.2305 0
161.483 22.9085 0
162.824 25.0074 0
161.623 27.1892 0
160.282 25.0903 0
161.553 25.049 0
162.754 22.867 0
165.295 22.7831 0
165.437 27.0638 0
162.894 27.1477 0
164.024 22.8252 0
165.366 24.9236 0
164.166 27.1059 0
162.824 25.0074 0
164.095 24.9656 0
165.295 22.7831 0
167.836 22.6982 0
167.98 26.9789 0
165.437 27.0638 0
166.565 22.7408 0
167.908 24.8387 0
166.708 27.0215 0
165.366 24.9236 0
166.637 24.8812 0
167.836 22.6982 0
170.377 22.6123 0
170.522 26.8929 0
167.98 26.9789 0
169.106 22.6554 0
170.45 24.7527 0
169.251 26.936 0
167.908 24.8387 0
169.179 24.7958 0
170.377 22.6123 0
172.918 22.5253 0
173.065 26.8059 0
170.522 26.8929 0
171.647 22.5689 0
172.991 24.6657 0
171.794 26.8495 0
170.45 24.7527 0
171.721 24.7094 0
172.918 22.5253 0
175.459 22.4374 0
175.607 26.7179 0
173.065 26.8059 0
174.188 22.4815 0
175.533 24.5778 0
174.336 26.7621 0
172.991 24.6657 0
174.262 24.6219 0
175.459 22.4374 0
177.999 22.3484 0
178.15 26.6289 0
175.607 26.7179 0
176.729 22.393 0
178.075 24.4888 0
176.879 26.6736 0
175.533 24.5778 0
176.804 24.5334 0
177.999 22.3484 0
180.54 22.2585 0
180.692 26.5389 0
178.15 26.6289 0
179.27 22.3036 0
180.616 24.3988 0
179.421 26.584 0
178.075 24.4888 0
179.345 24.4439 0
180.54 22.2585 0
183.081 22.1675 0
183.235 26.4479 0
180.692 26.5389 0
181.81 22.2131 0
183.158 24.3078 0
181.963 26.4935 0
180.616 24.3988 0
181.887 24.3534 0
183.081 22.1675 0
185.621 22.0756 0
185.777 26.356 0
183.235 26.4479 0
184.351 22.1217 0
185.699 24.2159 0
184.506 26.4021 0
183.158 24.3078 0
184.428 24.262 0
185.621 22.0756 0
188.162 21.9827 0
188.319 26.263 0
185.777 26.356 0
186.891 22.0292 0
188.24 24.1229 0
187.048 26.3096 0
185.699 24.2159 0
186.97 24.1695 0
188.162 21.9827 0
190.702 21.8888 0
190.861 26.1691 0
188.319 26.263 0
189.432 21.9358 0
190.781 24.029 0
189.59 26.2162 0
188.24 24.1229 0
189.511 24.0761 0
190.702 21.8888 0
193.242 21.794 0
193.403 26.0742 0
190.861 26.1691 0
191.972 21.8415 0
193.323 23.9342 0
192.132 26.1218 0
190.781 24.029 0
192.052 23.9817 0
193.242 21.794 0
195.783 21.6982 0
195.945 25.9784 0
193.403 26.0742 0
194.513 21.7462 0
195.864 23.8384 0
194.674 26.0264 0
193.323 23.9342 0
194.593 23.8864 0
195.783 21.6982 0
198.323 21.6014 0
198.486 25.8816 0
195.945 25.9784 0
197.053 21.6499 0
198.405 23.7416 0
197.216 25.9301 0
195.864 23.8384 0
197.134 23.7901 0
198.323 21.6014 0
200.863 21.5038 0
201.028 25.7839 0
198.486 25.8816 0
199.593 21.5527 0
200.946 23.6439 0
199.757 25.8329 0
198.405 23.7416 0
199.675 23.6929 0
200.863 21.5038 0
203.403 21.4052 0
203.57 25.6853 0
201.028 25.7839 0
202.133 21.4546 0
203.486 23.5453 0
202.299 25.7347 0
200.946 23.6439 0
202.216 23.5948 0
203.403 21.4052 0
205.943 21.3057 0
206.111 25.5857 0
203.57 25.6853 0
204.673 21.3555 0
206.027 23.4458 0
204.841 25.6356 0
203.486 23.5453 0
204.757 23.4957 0
205.943 21.3057 0
208.483 21.2052 0
208.653 25.4853 0
206.111 25.5857 0
207.213 21.2556 0
208.568 23.3454 0
207.382 25.5356 0
206.027 23.4458 0
207.297 23.3957 0
208.483 21.2052 0
211.023 21.1039 0
211.194 25.3839 0
208.653 25.4853 0
209.753 21.1547 0
211.108 23.244 0
209.923 25.4347 0
208.568 23.3454 0
209.838 23.2948 0
211.023 21.1039 0
213.563 21.0017 0
213.735 25.2816 0
211.194 25.3839 0
212.293 21.0529 0
213.649 23.1418 0
212.465 25.3329 0
211.108 23.244 0
212.379 23.193 0
213.563 21.0017 0
216.102 20.8986 0
216.277 25.1785 0
213.735 25.2816 0
214.832 20.9503 0
216.189 23.0386 0
215.006 25.2302 0
213.649 23.1418 0
214.919 23.0903 0
216.102 20.8986 0
218.642 20.7946 0
218.818 25.0745 0
216.277 25.1785 0
217.372 20.8467 0
218.73 22.9346 0
217.547 25.1266 0
216.189 23.0386 0
217.46 22.9867 0
218.642 20.7946 0
221.181 20.6898 0
221.359 24.9696 0
218.818 25.0745 0
219.912 20.7423 0
221.27 22.8298 0
220.088 25.0221 0
218.73 22.9346 0
220 22.8823 0
221.181 20.6898 0
223.721 20.584 0
223.9 24.8638 0
221.359 24.9696 0
222.451 20.637 0
223.81 22.724 0
222.629 24.9168 0
221.27 22.8298 0
222.54 22.777 0
223.721 20.584 0
226.26 20.4775 0
226.441 24.7572 0
223.9 24.8638 0
224.991 20.5308 0
226.35 22.6174 0
225.17 24.8106 0
223.81 22.724 0
225.08 22.6708 0
226.26 20.4775 0
228.8 20.37 0
228.981 24.6497 0
226.441 24.7572 0
227.53 20.4238 0
228.891 22.51 0
227.711 24.7036 0
226.35 22.6174 0
227.621 22.5638 0
228.8 20.37 0
231.339 20.2618 0
231.522 24.5414 0
228.981 24.6497 0
230.069 20.316 0
231.431 22.4017 0
230.252 24.5957 0
228.891 22.51 0
230.161 22.4559 0
231.339 20.2618 0
233.878 20.1527 0
234.063 24.4323 0
231.522 24.5414 0
232.609 20.2073 0
233.97 22.2926 0
232.792 24.487 0
231.431 22.4017 0
232.701 22.3472 0
233.878 20.1527 0
236.417 20.0427 0
236.603 24.3223 0
234.063 24.4323 0
235.148 20.0978 0
236.51 22.1826 0
235.333 24.3774 0
233.97 22.2926 0
235.24 22.2377 0
236.417 20.0427 0
238.957 19.932 0
239.144 24.2115 0
236.603 24.3223 0
237.687 19.9875 0
239.05 22.0719 0
237.874 24.267 0
236.51 22.1826 0
237.78 22.1273 0
238.957 19.932 0
241.496 19.8204 0
241.684 24.1 0
239.144 24.2115 0
240.226 19.8763 0
241.59 21.9603 0
240.414 24.1558 0
239.05 22.0719 0
240.32 22.0162 0
241.496 19.8204 0
244.035 19.7081 0
244.224 23.9876 0
241.684 24.1 0
242.765 19.7644 0
244.129 21.8479 0
242.954 24.0439 0
241.59 21.9603 0
242.86 21.9042 0
244.035 19.7081 0
246.573 19.595 0
246.765 23.8744 0
244.224 23.9876 0
245.304 19.6516 0
246.669 21.7348 0
245.495 23.9311 0
244.129 21.8479 0
245.399 21.7914 0
246.573 19.595 0
249.112 19.481 0
249.305 23.7604 0
246.765 23.8744 0
247.843 19.5381 0
249.208 21.6208 0
248.035 23.8175 0
246.669 21.7348 0
247.939 21.6779 0
249.112 19.481 0
251.651 19.3663 0
251.845 23.6457 0
249.305 23.7604 0
250.382 19.4238 0
251.748 21.5061 0
250.575 23.7031 0
249.208 21.6208 0
250.478 21.5635 0
251.651 19.3663 0
254.19 19.2509 0
254.385 23.5302 0
251.845 23.6457 0
252.92 19.3087 0
254.287 21.3906 0
253.115 23.588 0
251.748 21.5061 0
253.018 21.4484 0
254.19 19.2509 0
256.728 19.1346 0
256.925 23.4139 0
254.385 23.5302 0
255.459 19.1928 0
256.826 21.2743 0
255.655 23.4721 0
254.287 21.3906 0
255.557 21.3326 0
256.728 19.1346 0
259.267 19.0176 0
259.465 23.2969 0
256.925 23.4139 0
257.998 19.0762 0
259.366 21.1573 0
258.195 23.3555 0
256.826 21.2743 0
258.096 21.2159 0
259.267 19.0176 0
261.805 18.8999 0
262.004 23.1791 0
259.465 23.2969 0
260.536 18.9589 0
261.905 21.0396 0
260.734 23.2381 0
259.366 21.1573 0
260.635 21.0986 0
261.805 18.8999 0
264.344 18.7814 0
264.544 23.0606 0
262.004 23.1791 0
263.075 18.8408 0
264.444 20.9211 0
263.274 23.1199 0
261.905 21.0396 0
263.174 20.9804 0
264.344 18.7814 0
266.882 18.6622 0
267.083 22.9414 0
264.544 23.0606 0
265.613 18.7219 0
266.983 20.8019 0
265.814 23.0011 0
264.444 20.9211 0
265.713 20.8616 0
266.882 18.6622 0
269.42 18.5423 0
269.623 22.8214 0
267.083 22.9414 0
268.151 18.6024 0
269.522 20.6819 0
268.353 22.8815 0
266.983 20.8019 0
268.252 20.742 0
269.42 18.5423 0
271.959 18.4217 0
272.162 22.7007 0
269.623 22.8214 0
270.689 18.4821 0
272.06 20.5613 0
270.893 22.7612 0
269.522 20.6819 0
270.791 20.6217 0
271.959 18.4217 0
274.497 18.3003 0
274.702 22.5794 0
272.162 22.7007 0
273.228 18.3611 0
274.599 20.4399 0
273.432 22.6401 0
272.06 20.5613 0
273.33 20.5007 0
274.497 18.3003 0
277.035 18.1783 0
277.241 22.4573 0
274.702 22.5794 0
275.766 18.2394 0
277.138 20.3179 0
275.971 22.5184 0
274.599 20.4399 0
275.869 20.379 0
277.035 18.1783 0
279.573 18.0556 0
279.78 22.3345 0
277.241 22.4573 0
278.304 18.117 0
279.676 20.1951 0
278.511 22.396 0
277.138 20.3179 0
278.407 20.2566 0
279.573 18.0556 0
282.111 17.9322 0
282.319 22.2111 0
279.78 22.3345 0
280.842 17.994 0
282.215 20.0717 0
281.05 22.2729 0
279.676 20.1951 0
280.946 20.1335 0
282.111 17.9322 0
284.649 17.8081 0
284.858 22.087 0
282.319 22.2111 0
283.38 17.8702 0
284.753 19.9476 0
283.589 22.1491 0
282.215 20.0717 0
283.484 20.0097 0
284.649 17.8081 0
287.186 17.6833 0
287.397 21.9622 0
284.858 22.087 0
285.918 17.7458 0
287.292 19.8228 0
286.128 22.0246 0
284.753 19.9476 0
286.023 19.8853 0
287.186 17.6833 0
289.724 17.5579 0
289.936 21.8367 0
287.397 21.9622 0
288.455 17.6207 0
289.83 19.6974 0
288.667 21.8995 0
287.292 19.8228 0
288.561 19.7602 0
289.724 17.5579 0
292.262 17.4319 0
292.475 21.7106 0
289.936 21.8367 0
290.993 17.495 0
292.368 19.5713 0
291.205 21.7738 0
289.83 19.6974 0
291.099 19.6344 0
292.262 17.4319 0
294.799 17.3052 0
295.013 21.5839 0
292.475 21.7106 0
293.531 17.3686 0
294.906 19.4446 0
293.744 21.6473 0
292.368 19.5713 0
293.637 19.508 0
294.799 17.3052 0
297.337 17.1778 0
297.552 21.4565 0
295.013 21.5839 0
296.068 17.2416 0
297.445 19.3173 0
296.283 21.5203 0
294.906 19.4446 0
296.176 19.381 0
297.337 17.1778 0
299.875 17.0499 0
300.091 21.3285 0
297.552 21.4565 0
298.606 17.1139 0
299.983 19.1893 0
298.821 21.3926 0
297.445 19.3173 0
298.714 19.2533 0
299.875 17.0499 0
302.412 16.9213 0
302.629 21.1999 0
300.091 21.3285 0
301.143 16.9857 0
302.52 19.0607 0
301.36 21.2643 0
299.983 19.1893 0
301.252 19.125 0
302.412 16.9213 0
304.949 16.7921 0
305.167 21.0707 0
302.629 21.1999 0
303.681 16.8568 0
305.058 18.9315 0
303.898 21.1354 0
302.52 19.0607 0
303.789 18.9961 0
304.949 16.7921 0
307.487 16.6623 0
307.706 20.9409 0
305.167 21.0707 0
306.218 16.7273 0
307.596 18.8016 0
306.437 21.0059 0
305.058 18.9315 0
306.327 18.8666 0
307.487 16.6623 0
310.024 16.5319 0
310.244 20.8104 0
307.706 20.9409 0
308.755 16.5972 0
310.134 18.6712 0
308.975 20.8757 0
307.596 18.8016 0
308.865 18.7365 0
310.024 16.5319 0
312.561 16.4009 0
312.782 20.6794 0
310.244 20.8104 0
311.292 16.4665 0
312.672 18.5402 0
311.513 20.745 0
310.134 18.6712 0
311.403 18.6058 0
312.561 16.4009 0
315.098 16.2694 0
315.32 20.5478 0
312.782 20.6794 0
313.83 16.3352 0
315.209 18.4087 0
314.051 20.6137 0
312.672 18.5402 0
313.94 18.4745 0
315.098 16.2694 0
317.635 16.1372 0
317.858 20.4157 0
315.32 20.5478 0
316.367 16.2034 0
317.747 18.2765 0
316.589 20.4818 0
315.209 18.4087 0
316.478 18.3427 0
317.635 16.1372 0
320.172 16.0045 0
320.396 20.283 0
317.858 20.4157 0
318.904 16.071 0
320.284 18.1438 0
319.127 20.3494 0
317.747 18.2765 0
319.015 18.2102 0
320.172 16.0045 0
322.709 15.8713 0
322.934 20.1497 0
320.396 20.283 0
321.441 15.938 0
322.822 18.0105 0
321.665 20.2164 0
320.284 18.1438 0
321.553 18.0772 0
322.709 15.8713 0
325.246 15.7375 0
325.472 20.0158 0
322.934 20.1497 0
323.977 15.8045 0
325.359 17.8767 0
324.203 20.0828 0
322.822 18.0105 0
324.09 17.9437 0
325.246 15.7375 0
327.783 15.6031 0
328.01 19.8815 0
325.472 20.0158 0
326.514 15.6704 0
327.896 17.7424 0
326.741 19.9487 0
325.359 17.8767 0
326.627 17.8096 0
327.783 15.6031 0
330.319 15.4683 0
330.547 19.7466 0
328.01 19.8815 0
329.051 15.5358 0
330.433 17.6075 0
329.278 19.8141 0
327.896 17.7424 0
329.165 17.675 0
330.319 15.4683 0
332.856 15.3329 0
333.085 19.6112 0
330.547 19.7466 0
331.588 15.4006 0
332.97 17.4721 0
331.816 19.6789 0
330.433 17.6075 0
331.702 17.5398 0
332.856 15.3329 0
335.393 15.197 0
335.622 19.4752 0
333.085 19.6112 0
334.124 15.265 0
335.507 17.3361 0
334.353 19.5432 0
332.97 17.4721 0
334.239 17.4042 0
335.393 15.197 0
337.929 15.0605 0
338.16 19.3388 0
335.622 19.4752 0
336.661 15.1288 0
338.044 17.1997 0
336.891 19.4071 0
335.507 17.3361 0
336.776 17.268 0
337.929 15.0605 0
340.466 14.9236 0
340.697 19.2018 0
338.16 19.3388 0
339.197 14.9921 0
340.581 17.0628 0
339.428 19.2704 0
338.044 17.1997 0
339.313 17.1313 0
340.466 14.9236 0
343.002 14.7862 0
343.234 19.0644 0
340.697 19.2018 0
341.734 14.855 0
343.118 16.9253 0
341.966 19.1332 0
340.581 17.0628 0
341.85 16.9941 0
343.002 14.7862 0
345.539 14.6483 0
345.771 18.9265 0
343.234 19.0644 0
344.27 14.7173 0
345.655 16.7874 0
344.503 18.9955 0
343.118 16.9253 0
344.387 16.8564 0
345.539 14.6483 0
348.075 14.5099 0
348.308 18.7881 0
345.771 18.9265 0
346.807 14.5792 0
348.192 16.649 0
347.04 18.8573 0
345.655 16.7874 0
346.923 16.7183 0
348.075 14.5099 0
350.611 14.3711 0
350.846 18.6492 0
348.308 18.7881 0
349.343 14.4406 0
350.728 16.5102 0
349.577 18.7187 0
348.192 16.649 0
349.46 16.5797 0
350.611 14.3711 0
353.147 14.2318 0
353.382 18.5098 0
350.846 18.6492 0
351.879 14.3015 0
353.265 16.3709 0
352.114 18.5796 0
350.728 16.5102 0
351.997 16.4406 0
353.147 14.2318 0
355.683 14.092 0
355.919 18.3701 0
353.382 18.5098 0
354.415 14.1619 0
355.801 16.2311 0
354.651 18.44 0
353.265 16.3709 0
354.533 16.301 0
355.683 14.092 0
358.219 13.9518 0
358.456 18.2298 0
355.919 18.3701 0
356.951 14.022 0
358.338 16.0909 0
357.188 18.3 0
355.801 16.2311 0
357.07 16.161 0
358.219 13.9518 0
360.756 13.8111 0
360.993 18.0892 0
358.456 18.2298 0
359.488 13.8815 0
360.874 15.9502 0
359.725 18.1596 0
358.338 16.0909 0
359.606 16.0206 0
360.756 13.8111 0
363.291 13.6701 0
363.53 17.9481 0
360.993 18.0892 0
362.023 13.7407 0
363.411 15.8091 0
362.261 18.0187 0
360.874 15.9502 0
362.142 15.8797 0
363.291 13.6701 0
365.827 13.5286 0
366.066 17.8066 0
363.53 17.9481 0
364.559 13.5994 0
365.947 15.6676 0
364.798 17.8774 0
363.411 15.8091 0
364.679 15.7384 0
365.827 13.5286 0
368.363 13.3867 0
368.603 17.6646 0
366.066 17.8066 0
367.095 13.4577 0
368.483 15.5257 0
367.335 17.7356 0
365.947 15.6676 0
367.215 15.5967 0
368.363 13.3867 0
370.899 13.2443 0
371.139 17.5223 0
368.603 17.6646 0
369.631 13.3156 0
371.019 15.3834 0
369.871 17.5935 0
368.483 15.5257 0
369.751 15.4546 0
370.899 13.2443 0
373.435 13.1016 0
373.676 17.3795 0
371.139 17.5223 0
372.167 13.173 0
373.555 15.2406 0
372.407 17.451 0
371.019 15.3834 0
372.287 15.312 0
373.435 13.1016 0
375.97 12.9585 0
376.212 17.2364 0
373.676 17.3795 0
374.703 13.0301 0
376.091 15.0975 0
374.944 17.308 0
373.555 15.2406 0
374.823 15.1691 0
375.97 12.9585 0
378.506 12.815 0
378.748 17.0929 0
376.212 17.2364 0
377.238 12.8868 0
378.627 14.954 0
377.48 17.1647 0
376.091 15.0975 0
377.359 15.0258 0
378.506 12.815 0
381.042 12.6712 0
381.284 16.949 0
378.748 17.0929 0
379.774 12.7431 0
381.163 14.8101 0
380.016 17.021 0
378.627 14.954 0
379.895 14.8821 0
381.042 12.6712 0
383.577 12.5269 0
383.821 16.8048 0
381.284 16.949 0
382.309 12.5991 0
383.699 14.6659 0
382.553 16.877 0
381.163 14.8101 0
382.431 14.7381 0
383.577 12.5269 0
386.113 12.3823 0
386.357 16.6602 0
383.821 16.8048 0
384.845 12.4547 0
386.235 14.5213 0
385.089 16.7325 0
383.699 14.6659 0
384.967 14.5936 0
386.113 12.3823 0
388.648 12.2374 0
388.893 16.5152 0
386.357 16.6602 0
387.38 12.3099 0
388.77 14.3763 0
387.625 16.5877 0
386.235 14.5213 0
387.502 14.4489 0
388.648 12.2374 0
391.183 12.0921 0
391.429 16.3699 0
388.893 16.5152 0
389.916 12.1648 0
391.306 14.231 0
390.161 16.4426 0
388.77 14.3763 0
390.038 14.3037 0
391.183 12.0921 0
393.719 11.9465 0
393.965 16.2243 0
391.429 16.3699 0
392.451 12.0193 0
393.842 14.0854 0
392.697 16.2971 0
391.306 14.231 0
392.574 14.1583 0
393.719 11.9465 0
396.254 11.8005 0
396.5 16.0783 0
393.965 16.2243 0
394.986 11.8735 0
396.377 13.9395 0
395.232 16.1513 0
393.842 14.0854 0
395.109 14.0125 0
396.254 11.8005 0
398.789 11.6543 0
399.036 15.932 0
396.5 16.0783 0
397.522 11.7274 0
398.913 13.7932 0
397.768 16.0052 0
396.377 13.9395 0
397.645 13.8664 0
398.789 11.6543 0
401.324 11.5077 0
401.572 15.7854 0
399.036 15.932 0
400.057 11.581 0
401.448 13.6466 0
400.304 15.8588 0
398.913 13.7932 0
400.18 13.7199 0
401.324 11.5077 0
403.859 11.3608 0
404.107 15.6385 0
401.572 15.7854 0
402.592 11.4343 0
403.983 13.4997 0
402.84 15.712 0
401.448 13.6466 0
402.716 13.5732 0
403.859 11.3608 0
406.394 11.2136 0
406.643 15.4914 0
404.107 15.6385 0
405.127 11.2872 0
406.519 13.3525 0
405.375 15.565 0
403.983 13.4997 0
405.251 13.4261 0
406.394 11.2136 0
408.929 11.0661 0
409.178 15.3439 0
406.643 15.4914 0
407.662 11.1399 0
409.054 13.205 0
407.911 15.4177 0
406.519 13.3525 0
407.786 13.2788 0
408.929 11.0661 0
411.464 10.9184 0
411.714 15.1961 0
409.178 15.3439 0
410.197 10.9923 0
411.589 13.0573 0
410.446 15.27 0
409.054 13.205 0
410.321 13.1312 0
411.464 10.9184 0
413.999 10.7703 0
414.249 15.0481 0
411.714 15.1961 0
412.732 10.8444 0
414.124 12.9092 0
412.981 15.1221 0
411.589 13.0573 0
412.857 12.9833 0
413.999 10.7703 0
416.534 10.6221 0
416.784 14.8998 0
414.249 15.0481 0
415.267 10.6962 0
416.659 12.761 0
415.517 14.974 0
414.124 12.9092 0
415.392 12.8351 0
416.534 10.6221 0
419.069 10.4735 0
419.32 14.7512 0
416.784 14.8998 0
417.802 10.5478 0
419.194 12.6124 0
418.052 14.8255 0
416.659 12.761 0
417.927 12.6867 0
419.069 10.4735 0
421.604 10.3247 0
421.855 14.6024 0
419.32 14.7512 0
420.336 10.3991 0
421.729 12.4636 0
420.587 14.6769 0
419.194 12.6124 0
420.462 12.538 0
421.604 10.3247 0
424.138 10.1757 0
424.39 14.4534 0
421.855 14.6024 0
422.871 10.2502 0
424.264 12.3146 0
423.122 14.5279 0
421.729 12.4636 0
422.997 12.3891 0
424.138 10.1757 0
426.673 10.0264 0
426.925 14.3041 0
424.39 14.4534 0
425.406 10.1011 0
426.799 12.1653 0
425.658 14.3788 0
424.264 12.3146 0
425.532 12.24 0
426.673 10.0264 0
429.208 9.87691 0
429.46 14.1546 0
426.925 14.3041 0
427.94 9.95168 0
429.334 12.0158 0
428.193 14.2294 0
426.799 12.1653 0
428.066 12.0906 0
429.208 9.87691 0
431.742 9.72719 0
431.995 14.0049 0
429.46 14.1546 0
430.475 9.80208 0
431.869 11.8661 0
430.728 14.0798 0
429.334 12.0158 0
430.601 11.941 0
431.742 9.72719 0
434.277 9.57727 0
434.53 13.855 0
431.995 14.0049 0
433.01 9.65226 0
434.403 11.7161 0
433.262 13.93 0
431.869 11.8661 0
433.136 11.7911 0
434.277 9.57727 0
436.811 9.42714 0
437.065 13.7049 0
434.53 13.855 0
435.544 9.50223 0
436.938 11.566 0
435.797 13.7799 0
434.403 11.7161 0
435.671 11.6411 0
436.811 9.42714 0
439.346 9.27682 0
439.599 13.5545 0
437.065 13.7049 0
438.079 9.352 0
439.473 11.4157 0
438.332 13.6297 0
436.938 11.566 0
438.205 11.4909 0
439.346 9.27682 0
441.88 9.12631 0
442.134 13.404 0
439.599 13.5545 0
440.613 9.20159 0
442.007 11.2652 0
440.867 13.4793 0
439.473 11.4157 0
440.74 11.3405 0
441.88 9.12631 0
444.414 8.97563 0
444.669 13.2533 0
442.134 13.404 0
443.147 9.05099 0
444.542 11.1145 0
443.401 13.3287 0
442.007 11.2652 0
443.274 11.1899 0
444.414 8.97563 0
446.949 8.82477 0
447.203 13.1025 0
444.669 13.2533 0
445.682 8.90022 0
447.076 10.9636 0
445.936 13.1779 0
444.542 11.1145 0
445.809 11.0391 0
446.949 8.82477 0
449.483 8.67375 0
449.738 12.9515 0
447.203 13.1025 0
448.216 8.74928 0
449.61 10.8126 0
448.471 13.027 0
447.076 10.9636 0
448.343 10.8882 0
449.483 8.67375 0
452.017 8.52258 0
452.272 12.8003 0
449.738 12.9515 0
450.75 8.59818 0
452.145 10.6615 0
451.005 12.8759 0
449.61 10.8126 0
450.878 10.7371 0
452.017 8.52258 0
454.551 8.37125 0
454.807 12.649 0
452.272 12.8003 0
453.284 8.44693 0
454.679 10.5101 0
453.54 12.7247 0
452.145 10.6615 0
453.412 10.5858 0
454.551 8.37125 0
457.086 8.21979 0
457.341 12.4975 0
454.807 12.649 0
455.818 8.29554 0
457.213 10.3587 0
456.074 12.5733 0
454.679 10.5101 0
455.946 10.4344 0
457.086 8.21979 0
459.62 8.0682 0
459.875 12.3459 0
457.341 12.4975 0
458.353 8.14401 0
459.748 10.2071 0
458.608 12.4218 0
457.213 10.3587 0
458.48 10.2829 0
459.62 8.0682 0
462.154 7.91649 0
462.41 12.1942 0
459.875 12.3459 0
460.887 7.99236 0
462.282 10.0554 0
461.143 12.2701 0
459.748 10.2071 0
461.015 10.1312 0
462.154 7.91649 0
464.688 7.76465 0
464.944 12.0424 0
462.41 12.1942 0
463.421 7.84058 0
464.816 9.90355 0
463.677 12.1183 0
462.282 10.0554 0
463.549 9.97948 0
464.688 7.76465 0
467.222 7.61272 0
467.478 11.8905 0
464.944 12.0424 0
465.955 7.6887 0
467.35 9.75161 0
466.211 11.9665 0
464.816 9.90355 0
466.083 9.82759 0
467.222 7.61272 0
469.756 7.46068 0
470.012 11.7385 0
467.478 11.8905 0
468.489 7.53671 0
469.884 9.59958 0
468.745 11.8145 0
467.35 9.75161 0
468.617 9.67561 0
469.756 7.46068 0
472.29 7.30855 0
472.546 11.5863 0
470.012 11.7385 0
471.023 7.38462 0
472.418 9.44745 0
471.279 11.6624 0
469.884 9.59958 0
471.151 9.52353 0
472.29 7.30855 0
474.823 7.15633 0
475.08 11.4341 0
472.546 11.5863 0
473.556 7.23245 0
474.952 9.29524 0
473.813 11.5102 0
472.418 9.44745 0
473.685 9.37136 0
474.823 7.15633 0
477.357 7.00404 0
477.614 11.2819 0
475.08 11.4341 0
476.09 7.08019 0
477.486 9.14296 0
476.347 11.358 0
474.952 9.29524 0
476.219 9.21911 0
477.357 7.00404 0
479.891 6.85168 0
480.148 11.1295 0
477.614 11.2819 0
478.624 6.92787 0
480.02 8.9906 0
478.881 11.2057 0
477.486 9.14296 0
478.753 9.06679 0
479.891 6.85168 0
482.425 6.69926 0
482.682 10.9771 0
480.148 11.1295 0
481.158 6.77548 0
482.553 8.83819 0
481.415 11.0533 0
480.02 8.9906 0
481.286 8.91441 0
482.425 6.69926 0
484.958 6.54679 0
485.216 10.8246 0
482.682 10.9771 0
483.692 6.62303 0
485.087 8.68573 0
483.949 10.9009 0
482.553 8.83819 0
483.82 8.76197 0
484.958 6.54679 0
487.492 6.39427 0
487.75 10.6721 0
485.216 10.8246 0
486.225 6.47054 0
487.621 8.53322 0
486.483 10.7484 0
485.087 8.68573 0
486.354 8.60948 0
487.492 6.39427 0
490.026 6.24171 0
490.283 10.5196 0
487.75 10.6721 0
488.759 6.318 0
490.154 8.38067 0
489.016 10.5959 0
487.621 8.53322 0
488.888 8.45695 0
490.026 6.24171 0
492.559 6.08911 0
492.817 10.367 0
490.283 10.5196 0
491.293 6.16542 0
492.688 8.22807 0
491.55 10.4433 0
490.154 8.38067 0
491.421 8.30437 0
492.559 6.08911 0
495.093 5.93645 0
495.351 10.2144 0
492.817 10.367 0
493.826 6.01279 0
495.222 8.07541 0
494.084 10.2907 0
492.688 8.22807 0
493.955 8.15175 0
495.093 5.93645 0
497.626 5.7837 0
497.884 10.0615 0
495.351 10.2144 0
496.36 5.86009 0
497.755 7.92262 0
496.617 10.138 0
495.222 8.07541 0
496.488 7.99904 0
497.626 5.7837 0
500.16 5.63088 0
500.418 9.90811 0
497.884 10.0615 0
498.893 5.70728 0
500.289 7.76953 0
499.151 9.985 0
497.755 7.92262 0
499.022 7.84612 0
      </DataArray>
    </Points>
    <Cells>
      <DataArray type="Int32" Name="connectivity" format="ascii">
0 1 2 3 4 5 6 7 8 
9 10 11 12 13 14 15 16 17 
18 19 20 21 22 23 24 25 26 
27 28 29 30 31 32 33 34 35 
36 37 38 39 40 41 42 43 44 
45 46 47 48 49 50 51 52 53 
54 55 56 57 58 59 60 61 62 
63 64 65 66 67 68 69 70 71 
72 73 74 75 76 77 78 79 80 
81 82 83 84 85 86 87 88 89 
90 91 92 93 94 95 96 97 98 
99 100 101 102 103 104 105 106 107 
108 109 110 111 112 113 114 115 116 
117 118 119 120 121 122 123 124 125 
126 127 128 129 130 131 132 133 134 
135 136 137 138 139 140 141 142 143 
144 145 146 147 148 149 150 151 152 
153 154 155 156 157 158 159 160 161 
162 163 164 165 166 167 168 169 170 
171 172 173 174 175 176 177 178 179 
180 181 182 183 184 185 186 187 188 
189 190 191 192 193 194 195 196 197 
198 199 200 201 202 203 204 205 206 
207 208 209 210 211 212 213 214 215 
216 217 218 219 220 221 222 223 224 
225 226 227 228 229 230 231 232 233 
234 235 236 237 238 239 240 241 242 
243 244 245 246 247 248 249 250 251 
252 253 254 255 256 257 258 259 260 
261 262 263 264 265 266 267 268 269 
270 271 272 273 274 275 276 277 278 
279 280 281 282 283 284 285 286 287 
288 289 290 291 292 293 294 295 296 
297 298 299 300 301 302 303 304 305 
306 307 308 309 310 311 312 313 314 
315 316 317 318 319 320 321 322 323 
324 325 326 327 328 329 330 331 332 
333 334 335 336 337 338 339 340 341 
342 343 344 345 346 347 348 349 350 
351 352 353 354 355 356 357 358 359 
360 361 362 363 364 365 366 367 368 
369 370 371 372 373 374 375 376 377 
378 379 380 381 382 383 384 385 386 
387 388 389 390 391 392 393 394 395 
396 397 398 399 400 401 402 403 404 
405 406 407 408 409 410 411 412 413 
414 415 416 417 418 419 420 421 422 
423 424 425 426 427 428 429 430 431 
432 433 434 435 436 437 438 439 440 
441 442 443 444 445 446 447 448 449 
450 451 452 453 454 455 456 457 458 
459 460 461 462 463 464 465 466 467 
468 469 470 471 472 473 474 475 476 
477 478 479 480 481 482 483 484 485 
486 487 488 489 490 491 492 493 494 
495 496 497 498 499 500 501 502 503 
504 505 506 507 508 509 510 511 512 
513 514 515 516 517 518 519 520 521 
522 523 524 525 526 527 528 529 530 
531 532 533 534 535 536 537 538 539 
540 541 542 543 544 545 546 547 548 
549 550 551 552 553 554 555 556 557 
558 559 560 561 562 563 564 565 566 
567 568 569 570 571 572 573 574 575 
576 577 578 579 580 581 582 583 584 
585 586 587 588 589 590 591 592 593 
594 595 596 597 598 599 600 601 602 
603 604 605 606 607 608 609 610 611 
612 613 614 615 616 617 618 619 620 
621 622 623 624 625 626 627 628 629 
630 631 632 633 634 635 636 637 638 
639 640 641 642 643 644 645 646 647 
648 649 650 651 652 653 654 655 656 
657 658 659 660 661 662 663 664 665 
666 667 668 669 670 671 672 673 674 
675 676 677 678 679 680 681 682 683 
684 685 686 687 688 689 690 691 692 
693 694 695 696 697 698 699 700 701 
702 703 704 705 706 707 708 709 710 
711 712 713 714 715 716 717 718 719 
720 721 722 723 724 725 726 727 728 
729 730 731 732 733 734 735 736 737 
738 739 740 741 742 743 744 745 746 
747 748 749 750 751 752 753 754 755 
756 757 758 759 760 761 762 763 764 
765 766 767 768 769 770 771 772 773 
774 775 776 777 778 779 780 781 782 
783 784 785 786 787 788 789 790 791 
792 793 794 795 796 797 798 799 800 
801 802 803 804 805 806 807 808 809 
810 811 812 813 814 815 816 817 818 
819 820 821 822 823 824 825 826 827 
828 829 830 831 832 833 834 835 836 
837 838 839 840 841 842 843 844 845 
846 847 848 849 850 851 852 853 854 
855 856 857 858 859 860 861 862 863 
864 865 866 867 868 869 870 871 872 
873 874 875 876 877 878 879 880 881 
882 883 884 885 886 887 888 889 890 
891 892 893 894 895 896 897 898 899 
900 901 902 903 904 905 906 907 908 
909 910 911 912 913 914 915 916 917 
918 919 920 921 922 923 924 925 926 
927 928 929 930 931 932 933 934 935 
936 937 938 939 940 941 942 943 944 
945 946 947 948 949 950 951 952 953 
954 955 956 957 958 959 960 961 962 
963 964 965 966 967 968 969 970 971 
972 973 974 975 976 977 978 979 980 
981 982 983 984 985 986 987 988 989 
990 991 992 993 994 995 996 997 998 
999 1000 1001 1002 1003 1004 1005 1006 1007 
1008 1009 1010 1011 1012 1013 1014 1015 1016 
1017 1018 1019 1020 1021 1022 1023 1024 1025 
1026 1027 1028 1029 1030 1031 1032 1033 1034 
1035 1036 1037 1038 1039 1040 1041 1042 1043 
1044 1045 1046 1047 1048 1049 1050 1051 1052 
1053 1054 1055 1056 1057 1058 1059 1060 1061 
1062 1063 1064 1065 1066 1067 1068 1069 1070 
1071 1072 1073 1074 1075 1076 1077 1078 1079 
1080 1081 1082 1083 1084 1085 1086 1087 1088 
1089 1090 1091 1092 1093 1094 1095 1096 1097 
1098 1099 1100 1101 1102 1103 1104 1105 1106 
1107 1108 1109 1110 1111 1112 1113 1114 1115 
1116 1117 1118 1119 1120 1121 1122 1123 1124 
1125 1126 1127 1128 1129 1130 1131 1132 1133 
1134 1135 1136 1137 1138 1139 1140 1141 1142 
1143 1144 1145 1146 1147 1148 1149 1150 1151 
1152 1153 1154 1155 1156 1157 1158 1159 1160 
1161 1162 1163 1164 1165 1166 1167 1168 1169 
1170 1171 1172 1173 1174 1175 1176 1177 1178 
1179 1180 1181 1182 1183 1184 1185 1186 1187 
1188 1189 1190 1191 1192 1193 1194 1195 1196 
1197 1198 1199 1200 1201 1202 1203 1204 1205 
1206 1207 1208 1209 1210 1211 1212 1213 1214 
1215 1216 1217 1218 1219 1220 1221 1222 1223 
1224 1225 1226 1227 1228 1229 1230 1231 1232 
1233 1234 1235 1236 1237 1238 1239 1240 1241 
1242 1243 1244 1245 1246 1247 1248 1249 1250 
1251 1252 1253 1254 1255 1256 1257 1258 1259 
1260 1261 1262 1263 1264 1265 1266 1267 1268 
1269 1270 1271 1272 1273 1274 1275 1276 1277 
1278 1279 1280 1281 1282 1283 1284 1285 1286 
1287 1288 1289 1290 1291 1292 1293 1294 1295 
1296 1297 1298 1299 1300 1301 1302 1303 1304 
1305 1306 1307 1308 1309 1310 1311 1312 1313 
1314 1315 1316 1317 1318 1319 1320 1321 1322 
1323 1324 1325 1326 1327 1328 1329 1330 1331 
1332 1333 1334 1335 1336 1337 1338 1339 1340 
1341 1342 1343 1344 1345 1346 1347 1348 1349 
1350 1351 1352 1353 1354 1355 1356 1357 1358 
1359 1360 1361 1362 1363 1364 1365 1366 1367 
1368 1369 1370 1371 1372 1373 1374 1375 1376 
1377 1378 1379 1380 1381 1382 1383 1384 1385 
1386 1387 1388 1389 1390 1391 1392 1393 1394 
1395 1396 1397 1398 1399 1400 1401 1402 1403 
1404 1405 1406 1407 1408 1409 1410 1411 1412 
1413 1414 1415 1416 1417 1418 1419 1420 1421 
1422 1423 1424 1425 1426 1427 1428 1429 1430 
1431 1432 1433 1434 1435 1436 1437 1438 1439 
1440 1441 1442 1443 1444 1445 1446 1447 1448 
1449 1450 1451 1452 1453 1454 1455 1456 1457 
1458 1459 1460 1461 1462 1463 1464 1465 1466 
1467 1468 1469 1470 1471 1472 1473 1474 1475 
1476 1477 1478 1479 1480 1481 1482 1483 1484 
1485 1486 1487 1488 1489 1490 1491 1492 1493 
1494 1495 1496 1497 1498 1499 1500 1501 1502 
1503 1504 1505 1506 1507 1508 1509 1510 1511 
1512 1513 1514 1515 1516 1517 1518 1519 1520 
1521 1522 1523 1524 1525 1526 1527 1528 1529 
1530 1531 1532 1533 1534 1535 1536 1537 1538 
1539 1540 1541 1542 1543 1544 1545 1546 1547 
1548 1549 1550 1551 1552 1553 1554 1555 1556 
1557 1558 1559 1560 1561 1562 1563 1564 1565 
1566 1567 1568 1569 1570 1571 1572 1573 1574 
1575 1576 1577 1578 1579 1580 1581 1582 1583 
1584 1585 1586 1587 1588 1589 1590 1591 1592 
1593 1594 1595 1596 1597 1598 1599 1600 1601 
1602 1603 1604 1605 1606 1607 1608 1609 1610 
1611 1612 1613 1614 1615 1616 1617 1618 1619 
1620 1621 1622 1623 1624 1625 1626 1627 1628 
1629 1630 1631 1632 1633 1634 1635 1636 1637 
1638 1639 1640 1641 1642 1643 1644 1645 1646 
1647 1648 1649 1650 1651 1652 1653 1654 1655 
1656 1657 1658 1659 1660 1661 1662 1663 1664 
1665 1666 1667 1668 1669 1670 1671 1672 1673 
1674 1675 1676 1677 1678 1679 1680 1681 1682 
1683 1684 1685 1686 1687 1688 1689 1690 1691 
1692 1693 1694 1695 1696 1697 1698 1699 1700 
1701 1702 1703 1704 1705 1706 1707 1708 1709 
1710 1711 1712 1713 1714 1715 1716 1717 1718 
1719 1720 1721 1722 1723 1724 1725 1726 1727 
1728 1729 1730 1731 1732 1733 1734 1735 1736 
1737 1738 1739 1740 1741 1742 1743 1744 1745 
1746 1747 1748 1749 1750 1751 1752 1753 1754 
1755 1756 1757 1758 1759 1760 1761 1762 1763 
1764 1765 1766 1767 1768 1769 1770 1771 1772 
1773 1774 1775 1776 1777 1778 1779 1780 1781 
1782 1783 1784 1785 1786 1787 1788 1789 1790 
1791 1792 1793 1794 1795 1796 1797 1798 1799 
1800 1801 1802 1803 1804 1805 1806 1807 1808 
1809 1810 1811 1812 1813 1814 1815 1816 1817 
1818 1819 1820 1821 1822 1823 1824 1825 1826 
1827 1828 1829 1830 1831 1832 1833 1834 1835 
1836 1837 1838 1839 1840 1841 1842 1843 1844 
1845 1846 1847 1848 1849 1850 1851 1852 1853 
1854 1855 1856 1857 1858 1859 1860 1861 1862 
1863 1864 1865 1866 1867 1868 1869 1870 1871 
1872 1873 1874 1875 1876 1877 1878 1879 1880 
1881 1882 1883 1884 1885 1886 1887 1888 1889 
1890 1891 1892 1893 1894 1895 1896 1897 1898 
1899 1900 1901 1902 1903 1904 1905 1906 1907 
1908 1909 1910 1911 1912 1913 1914 1915 1916 
1917 1918 1919 1920 1921 1922 1923 1924 1925 
1926 1927 1928 1929 1930 1931 1932 1933 1934 
1935 1936 1937 1938 1939 1940 1941 1942 1943 
1944 1945 1946 1947 1948 1949 1950 1951 1952 
1953 1954 1955 1956 1957 1958 1959 1960 1961 
1962 1963 1964 1965 1966 1967 1968 1969 1970 
1971 1972 1973 1974 1975 1976 1977 1978 1979 
1980 1981 1982 1983 1984 1985 1986 1987 1988 
1989 1990 1991 1992 1993 1994 1995 1996 1997 
1998 1999 2000 2001 2002 2003 2004 2005 2006 
2007 2008 2009 2010 2011 2012 2013 2014 2015 
2016 2017 2018 2019 2020 2021 2022 2023 2024 
2025 2026 2027 2028 2029 2030 2031 2032 2033 
2034 2035 2036 2037 2038 2039 2040 2041 2042 
2043 2044 2045 2046 2047 2048 2049 2050 2051 
2052 2053 2054 2055 2056 2057 2058 2059 2060 
2061 2062 2063 2064 2065 2066 2067 2068 2069 
2070 2071 2072 2073 2074 2075 2076 2077 2078 
2079 2080 2081 2082 2083 2084 2085 2086 2087 
2088 2089 2090 2091 2092 2093 2094 2095 2096 
2097 2098 2099 2100 2101 2102 2103 2104 2105 
2106 2107 2108 2109 2110 2111 2112 2113 2114 
2115 2116 2117 2118 2119 2120 2121 2122 2123 
2124 2125 2126 2127 2128 2129 2130 2131 2132 
2133 2134 2135 2136 2137 2138 2139 2140 2141 
2142 2143 2144 2145 2146 2147 2148 2149 2150 
2151 2152 2153 2154 2155 2156 2157 2158 2159 
2160 2161 2162 2163 2164 2165 2166 2167 2168 
2169 2170 2171 2172 2173 2174 2175 2176 2177 
2178 2179 2180 2181 2182 2183 2184 2185 2186 
2187 2188 2189 2190 2191 2192 2193 2194 2195 
2196 2197 2198 2199 2200 2201 2202 2203 2204 
2205 2206 2207 2208 2209 2210 2211 2212 2213 
2214 2215 2216 2217 2218 2219 2220 2221 2222 
2223 2224 2225 2226 2227 2228 2229 2230 2231 
2232 2233 2234 2235 2236 2237 2238 2239 2240 
2241 2242 2243 2244 2245 2246 2247 2248 2249 
2250 2251 2252 2253 2254 2255 2256 2257 2258 
2259 2260 2261 2262 2263 2264 2265 2266 2267 
2268 2269 2270 2271 2272 2273 2274 2275 2276 
2277 2278 2279 2280 2281 2282 2283 2284 2285 
2286 2287 2288 2289 2290 2291 2292 2293 2294 
2295 2296 2297 2298 2299 2300 2301 2302 2303 
2304 2305 2306 2307 2308 2309 2310 2311 2312 
2313 2314 2315 2316 2317 2318 2319 2320 2321 
2322 2323 2324 2325 2326 2327 2328 2329 2330 
2331 2332 2333 2334 2335 2336 2337 2338 2339 
2340 2341 2342 2343 2344 2345 2346 2347 2348 
2349 2350 2351 2352 2353 2354 2355 2356 2357 
2358 2359 2360 2361 2362 2363 2364 2365 2366 
2367 2368 2369 2370 2371 2372 2373 2374 2375 
2376 2377 2378 2379 2380 2381 2382 2383 2384 
2385 2386 2387 2388 2389 2390 2391 2392 2393 
2394 2395 2396 2397 2398 2399 2400 2401 2402 
2403 2404 2405 2406 2407 2408 2409 2410 2411 
2412 2413 2414 2415 2416 2417 2418 2419 2420 
2421 2422 2423 2424 2425 2426 2427 2428 2429 
2430 2431 2432 2433 2434 2435 2436 2437 2438 
2439 2440 2441 2442 2443 2444 2445 2446 2447 
2448 2449 2450 2451 2452 2453 2454 2455 2456 
2457 2458 2459 2460 2461 2462 2463 2464 2465 
2466 2467 2468 2469 2470 2471 2472 2473 2474 
2475 2476 2477 2478 2479 2480 2481 2482 2483 
2484 2485 2486 2487 2488 2489 2490 2491 2492 
2493 2494 2495 2496 2497 2498 2499 2500 2501 
2502 2503 2504 2505 2506 2507 2508 2509 2510 
2511 2512 2513 2514 2515 2516 2517 2518 2519 
2520 2521 2522 2523 2524 2525 2526 2527 2528 
2529 2530 2531 2532 2533 2534 2535 2536 2537 
2538 2539 2540 2541 2542 2543 2544 2545 2546 
2547 2548 2549 2550 2551 2552 2553 2554 2555 
2556 2557 2558 2559 2560 2561 2562 2563 2564 
2565 2566 2567 2568 2569 2570 2571 2572 2573 
2574 2575 2576 2577 2578 2579 2580 2581 2582 
2583 2584 2585 2586 2587 2588 2589 2590 2591 
2592 2593 2594 2595 2596 2597 2598 2599 2600 
2601 2602 2603 2604 2605 2606 2607 2608 2609 
2610 2611 2612 2613 2614 2615 2616 2617 2618 
2619 2620 2621 2622 2623 2624 2625 2626 2627 
2628 2629 2630 2631 2632 2633 2634 2635 2636 
2637 2638 2639 2640 2641 2642 2643 2644 2645 
2646 2647 2648 2649 2650 2651 2652 2653 2654 
2655 2656 2657 2658 2659 2660 2661 2662 2663 
2664 2665 2666 2667 2668 2669 2670 2671 2672 
2673 2674 2675 2676 2677 2678 2679 2680 2681 
2682 2683 2684 2685 2686 2687 2688 2689 2690 
2691 2692 2693 2694 2695 2696 2697 2698 2699 
2700 2701 2702 2703 2704 2705 2706 2707 2708 
2709 2710 2711 2712 2713 2714 2715 2716 2717 
2718 2719 2720 2721 2722 2723 2724 2725 2726 
2727 2728 2729 2730 2731 2732 2733 2734 2735 
2736 2737 2738 2739 2740 2741 2742 2743 2744 
2745 2746 2747 2748 2749 2750 2751 2752 2753 
2754 2755 2756 2757 2758 2759 2760 2761 2762 
2763 2764 2765 2766 2767 2768 2769 2770 2771 
2772 2773 2774 2775 2776 2777 2778 2779 2780 
2781 2782 2783 2784 2785 2786 2787 2788 2789 
2790 2791 2792 2793 2794 2795 2796 2797 2798 
2799 2800 2801 2802 2803 2804 2805 2806 2807 
2808 2809 2810 2811 2812 2813 2814 2815 2816 
2817 2818 2819 2820 2821 2822 2823 2824 2825 
2826 2827 2828 2829 2830 2831 2832 2833 2834 
2835 2836 2837 2838 2839 2840 2841 2842 2843 
2844 2845 2846 2847 2848 2849 2850 2851 2852 
2853 2854 2855 2856 2857 2858 2859 2860 2861 
2862 2863 2864 2865 2866 2867 2868 2869 2870 
2871 2872 2873 2874 2875 2876 2877 2878 2879 
2880 2881 2882 2883 2884 2885 2886 2887 2888 
2889 2890 2891 2892 2893 2894 2895 2896 2897 
2898 2899 2900 2901 2902 2903 2904 2905 2906 
2907 2908 2909 2910 2911 2912 2913 2914 2915 
2916 2917 2918 2919 2920 2921 2922 2923 2924 
2925 2926 2927 2928 2929 2930 2931 2932 2933 
2934 2935 2936 2937 2938 2939 2940 2941 2942 
2943 2944 2945 2946 2947 2948 2949 2950 2951 
2952 2953 2954 2955 2956 2957 2958 2959 2960 
2961 2962 2963 2964 2965 2966 2967 2968 2969 
2970 2971 2972 2973 2974 2975 2976 2977 2978 
2979 2980 2981 2982 2983 2984 2985 2986 2987 
2988 2989 2990 2991 2992 2993 2994 2995 2996 
2997 2998 2999 3000 3001 3002 3003 3004 3005 
3006 3007 3008 3009 3010 3011 3012 3013 3014 
3015 3016 3017 3018 3019 3020 3021 3022 3023 
3024 3025 3026 3027 3028 3029 3030 3031 3032 
3033 3034 3035 3036 3037 3038 3039 3040 3041 
3042 3043 3044 3045 3046 3047 3048 3049 3050 
3051 3052 3053 3054 3055 3056 3057 3058 3059 
3060 3061 3062 3063 3064 3065 3066 3067 3068 
3069 3070 3071 3072 3073 3074 3075 3076 3077 
3078 3079 3080 3081 3082 3083 3084 3085 3086 
3087 3088 3089 3090 3091 3092 3093 3094 3095 
3096 3097 3098 3099 3100 3101 3102 3103 3104 
3105 3106 3107 3108 3109 3110 3111 3112 3113 
3114 3115 3116 3117 3118 3119 3120 3121 3122 
3123 3124 3125 3126 3127 3128 3129 3130 3131 
3132 3133 3134 3135 3136 3137 3138 3139 3140 
3141 3142 3143 3144 3145 3146 3147 3148 3149 
3150 3151 3152 3153 3154 3155 3156 3157 3158 
3159 3160 3161 3162 3163 3164 3165 3166 3167 
3168 3169 3170 3171 3172 3173 3174 3175 3176 
3177 3178 3179 3180 3181 3182 3183 3184 3185 
3186 3187 3188 3189 3190 3191 3192 3193 3194 
3195 3196 3197 3198 3199 3200 3201 3202 3203 
3204 3205 3206 3207 3208 3209 3210 3211 3212 
3213 3214 3215 3216 3217 3218 3219 3220 3221 
3222 3223 3224 3225 3226 3227 3228 3229 3230 
3231 3232 3233 3234 3235 3236 3237 3238 3239 
3240 3241 3242 3243 3244 3245 3246 3247 3248 
3249 3250 3251 3252 3253 3254 3255 3256 3257 
3258 3259 3260 3261 3262 3263 3264 3265 3266 
3267 3268 3269 3270 3271 3272 3273 3274 3275 
3276 3277 3278 3279 3280 3281 3282 3283 3284 
3285 3286 3287 3288 3289 3290 3291 3292 3293 
3294 3295 3296 3297 3298 3299 3300 3301 3302 
3303 3304 3305 3306 3307 3308 3309 3310 3311 
3312 3313 3314 3315 3316 3317 3318 3319 3320 
3321 3322 3323 3324 3325 3326 3327 3328 3329 
3330 3331 3332 3333 3334 3335 3336 3337 3338 
3339 3340 3341 3342 3343 3344 3345 3346 3347 
3348 3349 3350 3351 3352 3353 3354 3355 3356 
3357 3358 3359 3360 3361 3362 3363 3364 3365 
3366 3367 3368 3369 3370 3371 3372 3373 3374 
3375 3376 3377 3378 3379 3380 3381 3382 3383 
3384 3385 3386 3387 3388 3389 3390 3391 3392 
3393 3394 3395 3396 3397 3398 3399 3400 3401 
3402 3403 3404 3405 3406 3407 3408 3409 3410 
3411 3412 3413 3414 3415 3416 3417 3418 3419 
3420 3421 3422 3423 3424 3425 3426 3427 3428 
3429 3430 3431 3432 3433 3434 3435 3436 3437 
3438 3439 3440 3441 3442 3443 3444 3445 3446 
3447 3448 3449 3450 3451 3452 3453 3454 3455 
3456 3457 3458 3459 3460 3461 3462 3463 3464 
3465 3466 3467 3468 3469 3470 3471 3472 3473 
3474 3475 3476 3477 3478 3479 3480 3481 3482 
3483 3484 3485 3486 3487 3488 3489 3490 3491 
3492 3493 3494 3495 3496 3497 3498 3499 3500 
3501 3502 3503 3504 3505 3506 3507 3508 3509 
3510 3511 3512 3513 3514 3515 3516 3517 3518 
3519 3520 3521 3522 3523 3524 3525 3526 3527 
3528 3529 3530 3531 3532 3533 3534 3535 3536 
3537 3538 3539 3540 3541 3542 3543 3544 3545 
3546 3547 3548 3549 3550 3551 3552 3553 3554 
3555 3556 3557 3558 3559 3560 3561 3562 3563 
3564 3565 3566 3567 3568 3569 3570 3571 3572 
3573 3574 3575 3576 3577 3578 3579 3580 3581 
3582 3583 3584 3585 3586 3587 3588 3589 3590 
3591 3592 3593 3594 3595 3596 3597 3598 3599 
3600 3601 3602 3603 3604 3605 3606 3607 3608 
3609 3610 3611 3612 3613 3614 3615 3616 3617 
3618 3619 3620 3621 3622 3623 3624 3625 3626 
3627 3628 3629 3630 3631 3632 3633 3634 3635 
3636 3637 3638 3639 3640 3641 3642 3643 3644 
3645 3646 3647 3648 3649 3650 3651 3652 3653 
3654 3655 3656 3657 3658 3659 3660 3661 3662 
3663 3664 3665 3666 3667 3668 3669 3670 3671 
3672 3673 3674 3675 3676 3677 3678 3679 3680 
3681 3682 3683 3684 3685 3686 3687 3688 3689 
3690 3691 3692 3693 3694 3695 3696 3697 3698 
3699 3700 3701 3702 3703 3704 3705 3706 3707 
3708 3709 3710 3711 3712 3713 3714 3715 3716 
3717 3718 3719 3720 3721 3722 3723 3724 3725 
3726 3727 3728 3729 3730 3731 3732 3733 3734 
3735 3736 3737 3738 3739 3740 3741 3742 3743 
3744 3745 3746 3747 3748 3749 3750 3751 3752 
3753 3754 3755 3756 3757 3758 3759 3760 3761 
3762 3763 3764 3765 3766 3767 3768 3769 3770 
3771 3772 3773 3774 3775 3776 3777 3778 3779 
3780 3781 3782 3783 3784 3785 3786 3787 3788 
3789 3790 3791 3792 3793 3794 3795 3796 3797 
3798 3799 3800 3801 3802 3803 3804 3805 3806 
3807 3808 3809 3810 3811 3812 3813 3814 3815 
3816 3817 3818 3819 3820 3821 3822 3823 3824 
3825 3826 3827 3828 3829 3830 3831 3832 3833 
3834 3835 3836 3837 3838 3839 3840 3841 3842 
3843 3844 3845 3846 3847 3848 3849 3850 3851 
3852 3853 3854 3855 3856 3857 3858 3859 3860 
3861 3862 3863 3864 3865 3866 3867 3868 3869 
3870 3871 3872 3873 3874 3875 3876 3877 3878 
3879 3880 3881 3882 3883 3884 3885 3886 3887 
3888 3889 3890 3891 3892 3893 3894 3895 3896 
3897 3898 3899 3900 3901 3902 3903 3904 3905 
3906 3907 3908 3909 3910 3911 3912 3913 3914 
3915 3916 3917 3918 3919 3920 3921 3922 3923 
3924 3925 3926 3927 3928 3929 3930 3931 3932 
3933 3934 3935 3936 3937 3938 3939 3940 3941 
3942 3943 3944 3945 3946 3947 3948 3949 3950 
3951 3952 3953 3954 3955 3956 3957 3958 3959 
3960 3961 3962 3963 3964 3965 3966 3967 3968 
3969 3970 3971 3972 3973 3974 3975 3976 3977 
3978 3979 3980 3981 3982 3983 3984 3985 3986 
3987 3988 3989 3990 3991 3992 3993 3994 3995 
3996 3997 3998 3999 4000 4001 4002 4003 4004 
4005 4006 4007 4008 4009 4010 4011 4012 4013 
4014 4015 4016 4017 4018 4019 4020 4021 4022 
4023 4024 4025 4026 4027 4028 4029 4030 4031 
4032 4033 4034 4035 4036 4037 4038 4039 4040 
4041 4042 4043 4044 4045 4046 4047 4048 4049 
4050 4051 4052 4053 4054 4055 4056 4057 4058 
4059 4060 4061 4062 4063 4064 4065 4066 4067 
4068 4069 4070 4071 4072 4073 4074 4075 4076 
4077 4078 4079 4080 4081 4082 4083 4084 4085 
4086 4087 4088 4089 4090 4091 4092 4093 4094 
4095 4096 4097 4098 4099 4100 4101 4102 4103 
4104 4105 4106 4107 4108 4109 4110 4111 4112 
4113 4114 4115 4116 4117 4118 4119 4120 4121 
4122 4123 4124 4125 4126 4127 4128 4129 4130 
4131 4132 4133 4134 4135 4136 4137 4138 4139 
4140 4141 4142 4143 4144 4145 4146 4147 4148 
4149 4150 4151 4152 4153 4154 4155 4156 4157 
4158 4159 4160 4161 4162 4163 4164 4165 4166 
4167 4168 4169 4170 4171 4172 4173 4174 4175 
4176 4177 4178 4179 4180 4181 4182 4183 4184 
4185 4186 4187 4188 4189 4190 4191 4192 4193 
4194 4195 4196 4197 4198 4199 4200 4201 4202 
4203 4204 4205 4206 4207 4208 4209 4210 4211 
4212 4213 4214 4215 4216 4217 4218 4219 4220 
4221 4222 4223 4224 4225 4226 4227 4228 4229 
4230 4231 4232 4233 4234 4235 4236 4237 4238 
4239 4240 4241 4242 4243 4244 4245 4246 4247 
4248 4249 4250 4251 4252 4253 4254 4255 4256 
4257 4258 4259 4260 4261 4262 4263 4264 4265 
4266 4267 4268 4269 4270 4271 4272 4273 4274 
4275 4276 4277 4278 4279 4280 4281 4282 4283 
4284 4285 4286 4287 4288 4289 4290 4291 4292 
4293 4294 4295 4296 4297 4298 4299 4300 4301 
4302 4303 4304 4305 4306 4307 4308 4309 4310 
4311 4312 4313 4314 4315 4316 4317 4318 4319 
4320 4321 4322 4323 4324 4325 4326 4327 4328 
4329 4330 4331 4332 4333 4334 4335 4336 4337 
4338 4339 4340 4341 4342 4343 4344 4345 4346 
4347 4348 4349 4350 4351 4352 4353 4354 4355 
4356 4357 4358 4359 4360 4361 4362 4363 4364 
4365 4366 4367 4368 4369 4370 4371 4372 4373 
4374 4375 4376 4377 4378 4379 4380 4381 4382 
4383 4384 4385 4386 4387 4388 4389 4390 4391 
4392 4393 4394 4395 4396 4397 4398 4399 4400 
4401 4402 4403 4404 4405 4406 4407 4408 4409 
4410 4411 4412 4413 4414 4415 4416 4417 4418 
4419 4420 4421 4422 4423 4424 4425 4426 4427 
4428 4429 4430 4431 4432 4433 4434 4435 4436 
4437 4438 4439 4440 4441 4442 4443 4444 4445 
4446 4447 4448 4449 4450 4451 4452 4453 4454 
4455 4456 4457 4458 4459 4460 4461 4462 4463 
4464 4465 4466 4467 4468 4469 4470 4471 4472 
4473 4474 4475 4476 4477 4478 4479 4480 4481 
4482 4483 4484 4485 4486 4487 4488 4489 4490 
4491 4492 4493 4494 4495 4496 4497 4498 4499 
4500 4501 4502 4503 4504 4505 4506 4507 4508 
4509 4510 4511 4512 4513 4514 4515 4516 4517 
4518 4519 4520 4521 4522 4523 4524 4525 4526 
4527 4528 4529 4530 4531 4532 4533 4534 4535 
4536 4537 4538 4539 4540 4541 4542 4543 4544 
4545 4546 4547 4548 4549 4550 4551 4552 4553 
4554 4555 4556 4557 4558 4559 4560 4561 4562 
4563 4564 4565 4566 4567 4568 4569 4570 4571 
4572 4573 4574 4575 4576 4577 4578 4579 4580 
4581 4582 4583 4584 4585 4586 4587 4588 4589 
4590 4591 4592 4593 4594 4595 4596 4597 4598 
4599 4600 4601 4602 4603 4604 4605 4606 4607 
4608 4609 4610 4611 4612 4613 4614 4615 4616 
4617 4618 4619 4620 4621 4622 4623 4624 4625 
4626 4627 4628 4629 4630 4631 4632 4633 4634 
4635 4636 4637 4638 4639 4640 4641 4642 4643 
4644 4645 4646 4647 4648 4649 4650 4651 4652 
4653 4654 4655 4656 4657 4658 4659 4660 4661 
4662 4663 4664 4665 4666 4667 4668 4669 4670 
4671 4672 4673 4674 4675 4676 4677 4678 4679 
4680 4681 4682 4683 4684 4685 4686 4687 4688 
4689 4690 4691 4692 4693 4694 4695 4696 4697 
4698 4699 4700 4701 4702 4703 4704 4705 4706 
4707 4708 4709 4710 4711 4712 4713 4714 4715 
4716 4717 4718 4719 4720 4721 4722 4723 4724 
4725 4726 4727 4728 4729 4730 4731 4732 4733 
4734 4735 4736 4737 4738 4739 4740 4741 4742 
4743 4744 4745 4746 4747 4748 4749 4750 4751 
4752 4753 4754 4755 4756 4757 4758 4759 4760 
4761 4762 4763 4764 4765 4766 4767 4768 4769 
4770 4771 4772 4773 4774 4775 4776 4777 4778 
4779 4780 4781 4782 4783 4784 4785 4786 4787 
4788 4789 4790 4791 4792 4793 4794 4795 4796 
4797 4798 4799 4800 4801 4802 4803 4804 4805 
4806 4807 4808 4809 4810 4811 4812 4813 4814 
4815 4816 4817 4818 4819 4820 4821 4822 4823 
4824 4825 4826 4827 4828 4829 4830 4831 4832 
4833 4834 4835 4836 4837 4838 4839 4840 4841 
4842 4843 4844 4845 4846 4847 4848 4849 4850 
4851 4852 4853 4854 4855 4856 4857 4858 4859 
4860 4861 4862 4863 4864 4865 4866 4867 4868 
4869 4870 4871 4872 4873 4874 4875 4876 4877 
4878 4879 4880 4881 4882 4883 4884 4885 4886 
4887 4888 4889 4890 4891 4892 4893 4894 4895 
4896 4897 4898 4899 4900 4901 4902 4903 4904 
4905 4906 4907 4908 4909 4910 4911 4912 4913 
4914 4915 4916 4917 4918 4919 4920 4921 4922 
4923 4924 4925 4926 4927 4928 4929 4930 4931 
4932 4933 4934 4935 4936 4937 4938 4939 4940 
4941 4942 4943 4944 4945 4946 4947 4948 4949 
4950 4951 4952 4953 4954 4955 4956 4957 4958 
4959 4960 4961 4962 4963 4964 4965 4966 4967 
4968 4969 4970 4971 4972 4973 4974 4975 4976 
4977 4978 4979 4980 4981 4982 4983 4984 4985 
4986 4987 4988 4989 4990 4991 4992 4993 4994 
4995 4996 4997 4998 4999 5000 5001 5002 5003 
5004 5005 5006 5007 5008 5009 5010 5011 5012 
5013 5014 5015 5016 5017 5018 5019 5020 5021 
5022 5023 5024 5025 5026 5027 5028 5029 5030 
5031 5032 5033 5034 5035 5036 5037 5038 5039 
5040 5041 5042 5043 5044 5045 5046 5047 5048 
5049 5050 5051 5052 5053 5054 5055 5056 5057 
5058 5059 5060 5061 5062 5063 5064 5065 5066 
5067 5068 5069 5070 5071 5072 5073 5074 5075 
5076 5077 5078 5079 5080 5081 5082 5083 5084 
5085 5086 5087 5088 5089 5090 5091 5092 5093 
5094 5095 5096 5097 5098 5099 5100 5101 5102 
5103 5104 5105 5106 5107 5108 5109 5110 5111 
5112 5113 5114 5115 5116 5117 5118 5119 5120 
5121 5122 5123 5124 5125 5126 5127 5128 5129 
5130 5131 5132 5133 5134 5135 5136 5137 5138 
5139 5140 5141 5142 5143 5144 5145 5146 5147 
5148 5149 5150 5151 5152 5153 5154 5155 5156 
5157 5158 5159 5160 5161 5162 5163 5164 5165 
5166 5167 5168 5169 5170 5171 5172 5173 5174 
5175 5176 5177 5178 5179 5180 5181 5182 5183 
5184 5185 5186 5187 5188 5189 5190 5191 5192 
5193 5194 5195 5196 5197 5198 5199 5200 5201 
5202 5203 5204 5205 5206 5207 5208 5209 5210 
5211 5212 5213 5214 5215 5216 5217 5218 5219 
5220 5221 5222 5223 5224 5225 5226 5227 5228 
5229 5230 5231 5232 5233 5234 5235 5236 5237 
5238 5239 5240 5241 5242 5243 5244 5245 5246 
5247 5248 5249 5250 5251 5252 5253 5254 5255 
5256 5257 5258 5259 5260 5261 5262 5263 5264 
5265 5266 5267 5268 5269 5270 5271 5272 5273 
5274 5275 5276 5277 5278 5279 5280 5281 5282 
5283 5284 5285 5286 5287 5288 5289 5290 5291 
5292 5293 5294 5295 5296 5297 5298 5299 5300 
5301 5302 5303 5304 5305 5306 5307 5308 5309 
5310 5311 5312 5313 5314 5315 5316 5317 5318 
5319 5320 5321 5322 5323 5324 5325 5326 5327 
5328 5329 5330 5331 5332 5333 5334 5335 5336 
5337 5338 5339 5340 5341 5342 5343 5344 5345 
5346 5347 5348 5349 5350 5351 5352 5353 5354 
5355 5356 5357 5358 5359 5360 5361 5362 5363 
5364 5365 5366 5367 5368 5369 5370 5371 5372 
5373 5374 5375 5376 5377 5378 5379 5380 5381 
5382 5383 5384 5385 5386 5387 5388 5389 5390 
5391 5392 5393 5394 5395 5396 5397 5398 5399 
5400 5401 5402 5403 5404 5405 5406 5407 5408 
5409 5410 5411 5412 5413 5414 5415 5416 5417 
5418 5419 5420 5421 5422 5423 5424 5425 5426 
5427 5428 5429 5430 5431 5432 5433 5434 5435 
5436 5437 5438 5439 5440 5441 5442 5443 5444 
5445 5446 5447 5448 5449 5450 5451 5452 5453 
5454 5455 5456 5457 5458 5459 5460 5461 5462 
5463 5464 5465 5466 5467 5468 5469 5470 5471 
5472 5473 5474 5475 5476 5477 5478 5479 5480 
5481 5482 5483 5484 5485 5486 5487 5488 5489 
5490 5491 5492 5493 5494 5495 5496 5497 5498 
5499 5500 5501 5502 5503 5504 5505 5506 5507 
5508 5509 5510 5511 5512 5513 5514 5515 5516 
5517 5518 5519 5520 5521 5522 5523 5524 5525 
5526 5527 5528 5529 5530 5531 5532 5533 5534 
5535 5536 5537 5538 5539 5540 5541 5542 5543 
5544 5545 5546 5547 5548 5549 5550 5551 5552 
5553 5554 5555 5556 5557 5558 5559 5560 5561 
5562 5563 5564 5565 5566 5567 5568 5569 5570 
5571 5572 5573 5574 5575 5576 5577 5578 5579 
5580 5581 5582 5583 5584 5585 5586 5587 5588 
5589 5590 5591 5592 5593 5594 5595 5596 5597 
5598 5599 5600 5601 5602 5603 5604 5605 5606 
5607 5608 5609 5610 5611 5612 5613 5614 5615 
5616 5617 5618 5619 5620 5621 5622 5623 5624 
5625 5626 5627 5628 5629 5630 5631 5632 5633 
5634 5635 5636 5637 5638 5639 5640 5641 5642 
5643 5644 5645 5646 5647 5648 5649 5650 5651 
5652 5653 5654 5655 5656 5657 5658 5659 5660 
5661 5662 5663 5664 5665 5666 5667 5668 5669 
5670 5671 5672 5673 5674 5675 5676 5677 5678 
5679 5680 5681 5682 5683 5684 5685 5686 5687 
5688 5689 5690 5691 5692 5693 5694 5695 5696 
5697 5698 5699 5700 5701 5702 5703 5704 5705 
5706 5707 5708 5709 5710 5711 5712 5713 5714 
5715 5716 5717 5718 5719 5720 5721 5722 5723 
5724 5725 5726 5727 5728 5729 5730 5731 5732 
5733 5734 5735 5736 5737 5738 5739 5740 5741 
5742 5743 5744 5745 5746 5747 5748 5749 5750 
5751 5752 5753 5754 5755 5756 5757 5758 5759 
5760 5761 5762 5763 5764 5765 5766 5767 5768 
5769 5770 5771 5772 5773 5774 5775 5776 5777 
5778 5779 5780 5781 5782 5783 5784 5785 5786 
5787 5788 5789 5790 5791 5792 5793 5794 5795 
5796 5797 5798 5799 5800 5801 5802 5803 5804 
5805 5806 5807 5808 5809 5810 5811 5812 5813 
5814 5815 5816 5817 5818 5819 5820 5821 5822 
5823 5824 5825 5826 5827 5828 5829 5830 5831 
5832 5833 5834 5835 5836 5837 5838 5839 5840 
5841 5842 5843 5844 5845 5846 5847 5848 5849 
5850 5851 5852 5853 5854 5855 5856 5857 5858 
5859 5860 5861 5862 5863 5864 5865 5866 5867 
5868 5869 5870 5871 5872 5873 5874 5875 5876 
5877 5878 5879 5880 5881 5882 5883 5884 5885 
5886 5887 5888 5889 5890 5891 5892 5893 5894 
5895 5896 5897 5898 5899 5900 5901 5902 5903 
5904 5905 5906 5907 5908 5909 5910 5911 5912 
5913 5914 5915 5916 5917 5918 5919 5920 5921 
5922 5923 5924 5925 5926 5927 5928 5929 5930 
5931 5932 5933 5934 5935 5936 5937 5938 5939 
5940 5941 5942 5943 5944 5945 5946 5947 5948 
5949 5950 5951 5952 5953 5954 5955 5956 5957 
5958 5959 5960 5961 5962 5963 5964 5965 5966 
5967 5968 5969 5970 5971 5972 5973 5974 5975 
5976 5977 5978 5979 5980 5981 5982 5983 5984 
5985 5986 5987 5988 5989 5990 5991 5992 5993 
5994 5995 5996 5997 5998 5999 6000 6001 6002 
6003 6004 6005 6006 6007 6008 6009 6010 6011 
6012 6013 6014 6015 6016 6017 6018 6019 6020 
6021 6022 6023 6024 6025 6026 6027 6028 6029 
6030 6031 6032 6033 6034 6035 6036 6037 6038 
6039 6040 6041 6042 6043 6044 6045 6046 6047 
6048 6049 6050 6051 6052 6053 6054 6055 6056 
6057 6058 6059 6060 6061 6062 6063 6064 6065 
6066 6067 6068 6069 6070 6071 6072 6073 6074 
6075 6076 6077 6078 6079 6080 6081 6082 6083 
6084 6085 6086 6087 6088 6089 6090 6091 6092 
6093 6094 6095 6096 6097 6098 6099 6100 6101 
6102 6103 6104 6105 6106 6107 6108 6109 6110 
6111 6112 6113 6114 6115 6116 6117 6118 6119 
6120 6121 6122 6123 6124 6125 6126 6127 6128 
6129 6130 6131 6132 6133 6134 6135 6136 6137 
6138 6139 6140 6141 6142 6143 6144 6145 6146 
6147 6148 6149 6150 6151 6152 6153 6154 6155 
6156 6157 6158 6159 6160 6161 6162 6163 6164 
6165 6166 6167 6168 6169 6170 6171 6172 6173 
6174 6175 6176 6177 6178 6179 6180 6181 6182 
6183 6184 6185 6186 6187 6188 6189 6190 6191 
6192 6193 6194 6195 6196 6197 6198 6199 6200 
6201 6202 6203 6204 6205 6206 6207 6208 6209 
6210 6211 6212 6213 6214 6215 6216 6217 6218 
6219 6220 6221 6222 6223 6224 6225 6226 6227 
6228 6229 6230 6231 6232 6233 6234 6235 6236 
6237 6238 6239 6240 6241 6242 6243 6244 6245 
6246 6247 6248 6249 6250 6251 6252 6253 6254 
6255 6256 6257 6258 6259 6260 6261 6262 6263 
6264 6265 6266 6267 6268 6269 6270 6271 6272 
6273 6274 6275 6276 6277 6278 6279 6280 6281 
6282 6283 6284 6285 6286 6287 6288 6289 6290 
6291 6292 6293 6294 6295 6296 6297 6298 6299 
6300 6301 6302 6303 6304 6305 6306 6307 6308 
6309 6310 6311 6312 6313 6314 6315 6316 6317 
6318 6319 6320 6321 6322 6323 6324 6325 6326 
6327 6328 6329 6330 6331 6332 6333 6334 6335 
6336 6337 6338 6339 6340 6341 6342 6343 6344 
6345 6346 6347 6348 6349 6350 6351 6352 6353 
6354 6355 6356 6357 6358 6359 6360 6361 6362 
6363 6364 6365 6366 6367 6368 6369 6370 6371 
6372 6373 6374 6375 6376 6377 6378 6379 6380 
6381 6382 6383 6384 6385 6386 6387 6388 6389 
6390 6391 6392 6393 6394 6395 6396 6397 6398 
6399 6400 6401 6402 6403 6404 6405 6406 6407 
6408 6409 6410 6411 6412 6413 6414 6415 6416 
6417 6418 6419 6420 6421 6422 6423 6424 6425 
6426 6427 6428 6429 6430 6431 6432 6433 6434 
6435 6436 6437 6438 6439 6440 6441 6442 6443 
6444 6445 6446 6447 6448 6449 6450 6451 6452 
6453 6454 6455 6456 6457 6458 6459 6460 6461 
6462 6463 6464 6465 6466 6467 6468 6469 6470 
6471 6472 6473 6474 6475 6476 6477 6478 6479 
6480 6481 6482 6483 6484 6485 6486 6487 6488 
6489 6490 6491 6492 6493 6494 6495 6496 6497 
6498 6499 6500 6501 6502 6503 6504 6505 6506 
6507 6508 6509 6510 6511 6512 6513 6514 6515 
6516 6517 6518 6519 6520 6521 6522 6523 6524 
6525 6526 6527 6528 6529 6530 6531 6532 6533 
6534 6535 6536 6537 6538 6539 6540 6541 6542 
6543 6544 6545 6546 6547 6548 6549 6550 6551 
6552 6553 6554 6555 6556 6557 6558 6559 6560 
6561 6562 6563 6564 6565 6566 6567 6568 6569 
6570 6571 6572 6573 6574 6575 6576 6577 6578 
6579 6580 6581 6582 6583 6584 6585 6586 6587 
6588 6589 6590 6591 6592 6593 6594 6595 6596 
6597 6598 6599 6600 6601 6602 6603 6604 6605 
6606 6607 6608 6609 6610 6611 6612 6613 6614 
6615 6616 6617 6618 6619 6620 6621 6622 6623 
6624 6625 6626 6627 6628 6629 6630 6631 6632 
6633 6634 6635 6636 6637 6638 6639 6640 6641 
6642 6643 6644 6645 6646 6647 6648 6649 6650 
6651 6652 6653 6654 6655 6656 6657 6658 6659 
6660 6661 6662 6663 6664 6665 6666 6667 6668 
6669 6670 6671 6672 6673 6674 6675 6676 6677 
6678 6679 6680 6681 6682 6683 6684 6685 6686 
6687 6688 6689 6690 6691 6692 6693 6694 6695 
6696 6697 6698 6699 6700 6701 6702 6703 6704 
6705 6706 6707 6708 6709 6710 6711 6712 6713 
6714 6715 6716 6717 6718 6719 6720 6721 6722 
6723 6724 6725 6726 6727 6728 6729 6730 6731 
6732 6733 6734 6735 6736 6737 6738 6739 6740 
6741 6742 6743 6744 6745 6746 6747 6748 6749 
6750 6751 6752 6753 6754 6755 6756 6757 6758 
6759 6760 6761 6762 6763 6764 6765 6766 6767 
6768 6769 6770 6771 6772 6773 6774 6775 6776 
6777 6778 6779 6780 6781 6782 6783 6784 6785 
6786 6787 6788 6789 6790 6791 6792 6793 6794 
6795 6796 6797 6798 6799 6800 6801 6802 6803 
6804 6805 6806 6807 6808 6809 6810 6811 6812 
6813 6814 6815 6816 6817 6818 6819 6820 6821 
6822 6823 6824 6825 6826 6827 6828 6829 6830 
6831 6832 6833 6834 6835 6836 6837 6838 6839 
6840 6841 6842 6843 6844 6845 6846 6847 6848 
6849 6850 6851 6852 6853 6854 6855 6856 6857 
6858 6859 6860 6861 6862 6863 6864 6865 6866 
6867 6868 6869 6870 6871 6872 6873 6874 6875 
6876 6877 6878 6879 6880 6881 6882 6883 6884 
6885 6886 6887 6888 6889 6890 6891 6892 6893 
6894 6895 6896 6897 6898 6899 6900 6901 6902 
6903 6904 6905 6906 6907 6908 6909 6910 6911 
6912 6913 6914 6915 6916 6917 6918 6919 6920 
6921 6922 6923 6924 6925 6926 6927 6928 6929 
6930 6931 6932 6933 6934 6935 6936 6937 6938 
6939 6940 6941 6942 6943 6944 6945 6946 6947 
6948 6949 6950 6951 6952 6953 6954 6955 6956 
6957 6958 6959 6960 6961 6962 6963 6964 6965 
6966 6967 6968 6969 6970 6971 6972 6973 6974 
6975 6976 6977 6978 6979 6980 6981 6982 6983 
6984 6985 6986 6987 6988 6989 6990 6991 6992 
6993 6994 6995 6996 6997 6998 6999 7000 7001 
7002 7003 7004 7005 7006 7007 7008 7009 7010 
7011 7012 7013 7014 7015 7016 7017 7018 7019 
7020 7021 7022 7023 7024 7025 7026 7027 7028 
7029 7030 7031 7032 7033 7034 7035 7036 7037 
7038 7039 7040 7041 7042 7043 7044 7045 7046 
7047 7048 7049 7050 7051 7052 7053 7054 7055 
7056 7057 7058 7059 7060 7061 7062 7063 7064 
7065 7066 7067 7068 7069 7070 7071 7072 7073 
7074 7075 7076 7077 7078 7079 7080 7081 7082 
7083 7084 7085 7086 7087 7088 7089 7090 7091 
7092 7093 7094 7095 7096 7097 7098 7099 7100 
7101 7102 7103 7104 7105 7106 7107 7108 7109 
7110 7111 7112 7113 7114 7115 7116 7117 7118 
7119 7120 7121 7122 7123 7124 7125 7126 7127 
7128 7129 7130 7131 7132 7133 7134 7135 7136 
7137 7138 7139 7140 7141 7142 7143 7144 7145 
7146 7147 7148 7149 7150 7151 7152 7153 7154 
7155 7156 7157 7158 7159 7160 7161 7162 7163 
7164 7165 7166 7167 7168 7169 7170 7171 7172 
7173 7174 7175 7176 7177 7178 7179 7180 7181 
7182 7183 7184 7185 7186 7187 7188 7189 7190 
7191 7192 7193 7194 7195 7196 7197 7198 7199 
7200 7201 7202 7203 7204 7205 7206 7207 7208 
7209 7210 7211 7212 7213 7214 7215 7216 7217 
7218 7219 7220 7221 7222 7223 7224 7225 7226 
7227 7228 7229 7230 7231 7232 7233 7234 7235 
7236 7237 7238 7239 7240 7241 7242 7243 7244 
7245 7246 7247 7248 7249 7250 7251 7252 7253 
7254 7255 7256 7257 7258 7259 7260 7261 7262 
7263 7264 7265 7266 7267 7268 7269 7270 7271 
7272 7273 7274 7275 7276 7277 7278 7279 7280 
7281 7282 7283 7284 7285 7286 7287 7288 7289 
7290 7291 7292 7293 7294 7295 7296 7297 7298 
7299 7300 7301 7302 7303 7304 7305 7306 7307 
7308 7309 7310 7311 7312 7313 7314 7315 7316 
7317 7318 7319 7320 7321 7322 7323 7324 7325 
7326 7327 7328 7329 7330 7331 7332 7333 7334 
7335 7336 7337 7338 7339 7340 7341 7342 7343 
7344 7345 7346 7347 7348 7349 7350 7351 7352 
7353 7354 7355 7356 7357 7358 7359 7360 7361 
7362 7363 7364 7365 7366 7367 7368 7369 7370 
7371 7372 7373 7374 7375 7376 7377 7378 7379 
7380 7381 7382 7383 7384 7385 7386 7387 7388 
7389 7390 7391 7392 7393 7394 7395 7396 7397 
7398 7399 7400 7401 7402 7403 7404 7405 7406 
7407 7408 7409 7410 7411 7412 7413 7414 7415 
7416 7417 7418 7419 7420 7421 7422 7423 7424 
7425 7426 7427 7428 7429 7430 7431 7432 7433 
7434 7435 7436 7437 7438 7439 7440 7441 7442 
7443 7444 7445 7446 7447 7448 7449 7450 7451 
7452 7453 7454 7455 7456 7457 7458 7459 7460 
7461 7462 7463 7464 7465 7466 7467 7468 7469 
7470 7471 7472 7473 7474 7475 7476 7477 7478 
7479 7480 7481 7482 7483 7484 7485 7486 7487 
7488 7489 7490 7491 7492 7493 7494 7495 7496 
7497 7498 7499 7500 7501 7502 7503 7504 7505 
7506 7507 7508 7509 7510 7511 7512 7513 7514 
7515 7516 7517 7518 7519 7520 7521 7522 7523 
7524 7525 7526 7527 7528 7529 7530 7531 7532 
7533 7534 7535 7536 7537 7538 7539 7540 7541 
7542 7543 7544 7545 7546 7547 7548 7549 7550 
7551 7552 7553 7554 7555 7556 7557 7558 7559 
7560 7561 7562 7563 7564 7565 7566 7567 7568 
7569 7570 7571 7572 7573 7574 7575 7576 7577 
7578 7579 7580 7581 7582 7583 7584 7585 7586 
7587 7588 7589 7590 7591 7592 7593 7594 7595 
7596 7597 7598 7599 7600 7601 7602 7603 7604 
7605 7606 7607 7608 7609 7610 7611 7612 7613 
7614 7615 7616 7617 7618 7619 7620 7621 7622 
7623 7624 7625 7626 7627 7628 7629 7630 7631 
7632 7633 7634 7635 7636 7637 7638 7639 7640 
7641 7642 7643 7644 7645 7646 7647 7648 7649 
7650 7651 7652 7653 7654 7655 7656 7657 7658 
7659 7660 7661 7662 7663 7664 7665 7666 7667 
7668 7669 7670 7671 7672 7673 7674 7675 7676 
7677 7678 7679 7680 7681 7682 7683 7684 7685 
7686 7687 7688 7689 7690 7691 7692 7693 7694 
7695 7696 7697 7698 7699 7700 7701 7702 7703 
7704 7705 7706 7707 7708 7709 7710 7711 7712 
7713 7714 7715 7716 7717 7718 7719 7720 7721 
7722 7723 7724 7725 7726 7727 7728 7729 7730 
7731 7732 7733 7734 7735 7736 7737 7738 7739 
7740 7741 7742 7743 7744 7745 7746 7747 7748 
7749 7750 7751 7752 7753 7754 7755 7756 7757 
7758 7759 7760 7761 7762 7763 7764 7765 7766 
7767 7768 7769 7770 7771 7772 7773 7774 7775 
7776 7777 7778 7779 7780 7781 7782 7783 7784 
7785 7786 7787 7788 7789 7790 7791 7792 7793 
7794 7795 7796 7797 7798 7799 7800 7801 7802 
7803 7804 7805 7806 7807 7808 7809 7810 7811 
7812 7813 7814 7815 7816 7817 7818 7819 7820 
7821 7822 7823 7824 7825 7826 7827 7828 7829 
7830 7831 7832 7833 7834 7835 7836 7837 7838 
7839 7840 7841 7842 7843 7844 7845 7846 7847 
7848 7849 7850 7851 7852 7853 7854 7855 7856 
7857 7858 7859 7860 7861 7862 7863 7864 7865 
7866 7867 7868 7869 7870 7871 7872 7873 7874 
7875 7876 7877 7878 7879 7880 7881 7882 7883 
7884 7885 7886 7887 7888 7889 7890 7891 7892 
7893 7894 7895 7896 7897 7898 7899 7900 7901 
7902 7903 7904 7905 7906 7907 7908 7909 7910 
7911 7912 7913 7914 7915 7916 7917 7918 7919 
7920 7921 7922 7923 7924 7925 7926 7927 7928 
7929 7930 7931 7932 7933 7934 7935 7936 7937 
7938 7939 7940 7941 7942 7943 7944 7945 7946 
7947 7948 7949 7950 7951 7952 7953 7954 7955 
7956 7957 7958 7959 7960 7961 7962 7963 7964 
7965 7966 7967 7968 7969 7970 7971 7972 7973 
7974 7975 7976 7977 7978 7979 7980 7981 7982 
7983 7984 7985 7986 7987 7988 7989 7990 7991 
7992 7993 7994 7995 7996 7997 7998 7999 8000 
8001 8002 8003 8004 8005 8006 8007 8008 8009 
8010 8011 8012 8013 8014 8015 8016 8017 8018 
8019 8020 8021 8022 8023 8024 8025 8026 8027 
8028 8029 8030 8031 8032 8033 8034 8035 8036 
8037 8038 8039 8040 8041 8042 8043 8044 8045 
8046 8047 8048 8049 8050 8051 8052 8053 8054 
8055 8056 8057 8058 8059 8060 8061 8062 8063 
8064 8065 8066 8067 8068 8069 8070 8071 8072 
8073 8074 8075 8076 8077 8078 8079 8080 8081 
8082 8083 8084 8085 8086 8087 8088 8089 8090 
8091 8092 8093 8094 8095 8096 8097 8098 8099 
8100 8101 8102 8103 8104 8105 8106 8107 8108 
8109 8110 8111 8112 8113 8114 8115 8116 8117 
8118 8119 8120 8121 8122 8123 8124 8125 8126 
8127 8128 8129 8130 8131 8132 8133 8134 8135 
8136 8137 8138 8139 8140 8141 8142 8143 8144 
8145 8146 8147 8148 8149 8150 8151 8152 8153 
8154 8155 8156 8157 8158 8159 8160 8161 8162 
8163 8164 8165 8166 8167 8168 8169 8170 8171 
8172 8173 8174 8175 8176 8177 8178 8179 8180 
8181 8182 8183 8184 8185 8186 8187 8188 8189 
8190 8191 8192 8193 8194 8195 8196 8197 8198 
8199 8200 8201 8202 8203 8204 8205 8206 8207 
8208 8209 8210 8211 8212 8213 8214 8215 8216 
8217 8218 8219 8220 8221 8222 8223 8224 8225 
8226 8227 8228 8229 8230 8231 8232 8233 8234 
8235 8236 8237 8238 8239 8240 8241 8242 8243 
8244 8245 8246 8247 8248 8249 8250 8251 8252 
8253 8254 8255 8256 8257 8258 8259 8260 8261 
8262 8263 8264 8265 8266 8267 8268 8269 8270 
8271 8272 8273 8274 8275 8276 8277 8278 8279 
8280 8281 8282 8283 8284 8285 8286 8287 8288 
8289 8290 8291 8292 8293 8294 8295 8296 8297 
8298 8299 8300 8301 8302 8303 8304 8305 8306 
8307 8308 8309 8310 8311 8312 8313 8314 8315 
8316 8317 8318 8319 8320 8321 8322 8323 8324 
8325 8326 8327 8328 8329 8330 8331 8332 8333 
8334 8335 8336 8337 8338 8339 8340 8341 8342 
8343 8344 8345 8346 8347 8348 8349 8350 8351 
8352 8353 8354 8355 8356 8357 8358 8359 8360 
8361 8362 8363 8364 8365 8366 8367 8368 8369 
8370 8371 8372 8373 8374 8375 8376 8377 8378 
8379 8380 8381 8382 8383 8384 8385 8386 8387 
8388 8389 8390 8391 8392 8393 8394 8395 8396 
8397 8398 8399 8400 8401 8402 8403 8404 8405 
8406 8407 8408 8409 8410 8411 8412 8413 8414 
8415 8416 8417 8418 8419 8420 8421 8422 8423 
8424 8425 8426 8427 8428 8429 8430 8431 8432 
8433 8434 8435 8436 8437 8438 8439 8440 8441 
8442 8443 8444 8445 8446 8447 8448 8449 8450 
8451 8452 8453 8454 8455 8456 8457 8458 8459 
8460 8461 8462 8463 8464 8465 8466 8467 8468 
8469 8470 8471 8472 8473 8474 8475 8476 8477 
8478 8479 8480 8481 8482 8483 8484 8485 8486 
8487 8488 8489 8490 8491 8492 8493 8494 8495 
8496 8497 8498 8499 8500 8501 8502 8503 8504 
8505 8506 8507 8508 8509 8510 8511 8512 8513 
8514 8515 8516 8517 8518 8519 8520 8521 8522 
8523 8524 8525 8526 8527 8528 8529 8530 8531 
8532 8533 8534 8535 8536 8537 8538 8539 8540 
8541 8542 8543 8544 8545 8546 8547 8548 8549 
8550 8551 8552 8553 8554 8555 8556 8557 8558 
8559 8560 8561 8562 8563 8564 8565 8566 8567 
8568 8569 8570 8571 8572 8573 8574 8575 8576 
8577 8578 8579 8580 8581 8582 8583 8584 8585 
8586 8587 8588 8589 8590 8591 8592 8593 8594 
8595 8596 8597 8598 8599 8600 8601 8602 8603 
8604 8605 8606 8607 8608 8609 8610 8611 8612 
8613 8614 8615 8616 8617 8618 8619 8620 8621 
8622 8623 8624 8625 8626 8627 8628 8629 8630 
8631 8632 8633 8634 8635 8636 8637 8638 8639 
8640 8641 8642 8643 8644 8645 8646 8647 8648 
8649 8650 8651 8652 8653 8654 8655 8656 8657 
8658 8659 8660 8661 8662 8663 8664 8665 8666 
8667 8668 8669 8670 8671 8672 8673 8674 8675 
8676 8677 8678 8679 8680 8681 8682 8683 8684 
8685 8686 8687 8688 8689 8690 8691 8692 8693 
8694 8695 8696 8697 8698 8699 8700 8701 8702 
8703 8704 8705 8706 8707 8708 8709 8710 8711 
8712 8713 8714 8715 8716 8717 8718 8719 8720 
8721 8722 8723 8724 8725 8726 8727 8728 8729 
8730 8731 8732 8733 8734 8735 8736 8737 8738 
8739 8740 8741 8742 8743 8744 8745 8746 8747 
8748 8749 8750 8751 8752 8753 8754 8755 8756 
8757 8758 8759 8760 8761 8762 8763 8764 8765 
8766 8767 8768 8769 8770 8771 8772 8773 8774 
8775 8776 8777 8778 8779 8780 8781 8782 8783 
8784 8785 8786 8787 8788 8789 8790 8791 8792 
8793 8794 8795 8796 8797 8798 8799 8800 8801 
8802 8803 8804 8805 8806 8807 8808 8809 8810 
8811 8812 8813 8814 8815 8816 8817 8818 8819 
8820 8821 8822 8823 8824 8825 8826 8827 8828 
8829 8830 8831 8832 8833 8834 8835 8836 8837 
8838 8839 8840 8841 8842 8843 8844 8845 8846 
8847 8848 8849 8850 8851 8852 8853 8854 8855 
8856 8857 8858 8859 8860 8861 8862 8863 8864 
8865 8866 8867 8868 8869 8870 8871 8872 8873 
8874 8875 8876 8877 8878 8879 8880 8881 8882 
8883 8884 8885 8886 8887 8888 8889 8890 8891 
8892 8893 8894 8895 8896 8897 8898 8899 8900 
8901 8902 8903 8904 8905 8906 8907 8908 8909 
8910 8911 8912 8913 8914 8915 8916 8917 8918 
8919 8920 8921 8922 8923 8924 8925 8926 8927 
8928 8929 8930 8931 8932 8933 8934 8935 8936 
8937 8938 8939 8940 8941 8942 8943 8944 8945 
8946 8947 8948 8949 8950 8951 8952 8953 8954 
8955 8956 8957 8958 8959 8960 8961 8962 8963 
8964 8965 8966 8967 8968 8969 8970 8971 8972 
8973 8974 8975 8976 8977 8978 8979 8980 8981 
8982 8983 8984 8985 8986 8987 8988 8989 8990 
8991 8992 8993 8994 8995 8996 8997 8998 8999 
9000 9001 9002 9003 9004 9005 9006 9007 9008 
9009 9010 9011 9012 9013 9014 9015 9016 9017 
9018 9019 9020 9021 9022 9023 9024 9025 9026 
9027 9028 9029 9030 9031 9032 9033 9034 9035 
9036 9037 9038 9039 9040 9041 9042 9043 9044 
9045 9046 9047 9048 9049 9050 9051 9052 9053 
9054 9055 9056 9057 9058 9059 9060 9061 9062 
9063 9064 9065 9066 9067 9068 9069 9070 9071 
9072 9073 9074 9075 9076 9077 9078 9079 9080 
9081 9082 9083 9084 9085 9086 9087 9088 9089 
9090 9091 9092 9093 9094 9095 9096 9097 9098 
9099 9100 9101 9102 9103 9104 9105 9106 9107 
9108 9109 9110 9111 9112 9113 9114 9115 9116 
9117 9118 9119 9120 9121 9122 9123 9124 9125 
9126 9127 9128 9129 9130 9131 9132 9133 9134 
9135 9136 9137 9138 9139 9140 9141 9142 9143 
9144 9145 9146 9147 9148 9149 9150 9151 9152 
9153 9154 9155 9156 9157 9158 9159 9160 9161 
9162 9163 9164 9165 9166 9167 9168 9169 9170 
9171 9172 9173 9174 9175 9176 9177 9178 9179 
9180 9181 9182 9183 9184 9185 9186 9187 9188 
9189 9190 9191 9192 9193 9194 9195 9196 9197 
9198 9199 9200 9201 9202 9203 9204 9205 9206 
9207 9208 9209 9210 9211 9212 9213 9214 9215 
9216 9217 9218 9219 9220 9221 9222 9223 9224 
9225 9226 9227 9228 9229 9230 9231 9232 9233 
9234 9235 9236 9237 9238 9239 9240 9241 9242 
9243 9244 9245 9246 9247 9248 9249 9250 9251 
9252 9253 9254 9255 9256 9257 9258 9259 9260 
9261 9262 9263 9264 9265 9266 9267 9268 9269 
9270 9271 9272 9273 9274 9275 9276 9277 9278 
9279 9280 9281 9282 9283 9284 9285 9286 9287 
9288 9289 9290 9291 9292 9293 9294 9295 9296 
9297 9298 9299 9300 9301 9302 9303 9304 9305 
9306 9307 9308 9309 9310 9311 9312 9313 9314 
9315 9316 9317 9318 9319 9320 9321 9322 9323 
9324 9325 9326 9327 9328 9329 9330 9331 9332 
9333 9334 9335 9336 9337 9338 9339 9340 9341 
9342 9343 9344 9345 9346 9347 9348 9349 9350 
9351 9352 9353 9354 9355 9356 9357 9358 9359 
9360 9361 9362 9363 9364 9365 9366 9367 9368 
9369 9370 9371 9372 9373 9374 9375 9376 9377 
9378 9379 9380 9381 9382 9383 9384 9385 9386 
9387 9388 9389 9390 9391 9392 9393 9394 9395 
9396 9397 9398 9399 9400 9401 9402 9403 9404 
9405 9406 9407 9408 9409 9410 9411 9412 9413 
9414 9415 9416 9417 9418 9419 9420 9421 9422 
9423 9424 9425 9426 9427 9428 9429 9430 9431 
9432 9433 9434 9435 9436 9437 9438 9439 9440 
9441 9442 9443 9444 9445 9446 9447 9448 9449 
9450 9451 9452 9453 9454 9455 9456 9457 9458 
9459 9460 9461 9462 9463 9464 9465 9466 9467 
9468 9469 9470 9471 9472 9473 9474 9475 9476 
9477 9478 9479 9480 9481 9482 9483 9484 9485 
9486 9487 9488 9489 9490 9491 9492 9493 9494 
9495 9496 9497 9498 9499 9500 9501 9502 9503 
9504 9505 9506 9507 9508 9509 9510 9511 9512 
9513 9514 9515 9516 9517 9518 9519 9520 9521 
9522 9523 9524 9525 9526 9527 9528 9529 9530 
9531 9532 9533 9534 9535 9536 9537 9538 9539 
9540 9541 9542 9543 9544 9545 9546 9547 9548 
9549 9550 9551 9552 9553 9554 9555 9556 9557 
9558 9559 9560 9561 9562 9563 9564 9565 9566 
9567 9568 9569 9570 9571 9572 9573 9574 9575 
9576 9577 9578 9579 9580 9581 9582 9583 9584 
9585 9586 9587 9588 9589 9590 9591 9592 9593 
9594 9595 9596 9597 9598 9599 9600 9601 9602 
9603 9604 9605 9606 9607 9608 9609 9610 9611 
9612 9613 9614 9615 9616 9617 9618 9619 9620 
9621 9622 9623 9624 9625 9626 9627 9628 9629 
9630 9631 9632 9633 9634 9635 9636 9637 9638 
9639 9640 9641 9642 9643 9644 9645 9646 9647 
9648 9649 9650 9651 9652 9653 9654 9655 9656 
9657 9658 9659 9660 9661 9662 9663 9664 9665 
9666 9667 9668 9669 9670 9671 9672 9673 9674 
9675 9676 9677 9678 9679 9680 9681 9682 9683 
9684 9685 9686 9687 9688 9689 9690 9691 9692 
9693 9694 9695 9696 9697 9698 9699 9700 9701 
9702 9703 9704 9705 9706 9707 9708 9709 9710 
9711 9712 9713 9714 9715 9716 9717 9718 9719 
9720 9721 9722 9723 9724 9725 9726 9727 9728 
9729 9730 9731 9732 9733 9734 9735 9736 9737 
9738 9739 9740 9741 9742 9743 9744 9745 9746 
9747 9748 9749 9750 9751 9752 9753 9754 9755 
9756 9757 9758 9759 9760 9761 9762 9763 9764 
9765 9766 9767 9768 9769 9770 9771 9772 9773 
9774 9775 9776 9777 9778 9779 9780 9781 9782 
9783 9784 9785 9786 9787 9788 9789 9790 9791 
9792 9793 9794 9795 9796 9797 9798 9799 9800 
9801 9802 9803 9804 9805 9806 9807 9808 9809 
9810 9811 9812 9813 9814 9815 9816 9817 9818 
9819 9820 9821 9822 9823 9824 9825 9826 9827 
9828 9829 9830 9831 9832 9833 9834 9835 9836 
9837 9838 9839 9840 9841 9842 9843 9844 9845 
9846 9847 9848 9849 9850 9851 9852 9853 9854 
9855 9856 9857 9858 9859 9860 9861 9862 9863 
9864 9865 9866 9867 9868 9869 9870 9871 9872 
9873 9874 9875 9876 9877 9878 9879 9880 9881 
9882 9883 9884 9885 9886 9887 9888 9889 9890 
9891 9892 9893 9894 9895 9896 9897 9898 9899 
9900 9901 9902 9903 9904 9905 9906 9907 9908 
9909 9910 9911 9912 9913 9914 9915 9916 9917 
9918 9919 9920 9921 9922 9923 9924 9925 9926 
9927 9928 9929 9930 9931 9932 9933 9934 9935 
9936 9937 9938 9939 9940 9941 9942 9943 9944 
9945 9946 9947 9948 9949 9950 9951 9952 9953 
9954 9955 9956 9957 9958 9959 9960 9961 9962 
9963 9964 9965 9966 9967 9968 9969 9970 9971 
9972 9973 9974 9975 9976 9977 9978 9979 9980 
9981 9982 9983 9984 9985 9986 9987 9988 9989 
9990 9991 9992 9993 9994 9995 9996 9997 9998 
9999 10000 10001 10002 10003 10004 10005 10006 10007 
10008 10009 10010 10011 10012 10013 10014 10015 10016 
10017 10018 10019 10020 10021 10022 10023 10024 10025 
10026 10027 10028 10029 10030 10031 10032 10033 10034 
10035 10036 10037 10038 10039 10040 10041 10042 10043 
10044 10045 10046 10047 10048 10049 10050 10051 10052 
10053 10054 10055 10056 10057 10058 10059 10060 10061 
10062 10063 10064 10065 10066 10067 10068 10069 10070 
10071 10072 10073 10074 10075 10076 10077 10078 10079 
10080 10081 10082 10083 10084 10085 10086 10087 10088 
10089 10090 10091 10092 10093 10094 10095 10096 10097 
10098 10099 10100 10101 10102 10103 10104 10105 10106 
10107 10108 10109 10110 10111 10112 10113 10114 10115 
10116 10117 10118 10119 10120 10121 10122 10123 10124 
10125 10126 10127 10128 10129 10130 10131 10132 10133 
10134 10135 10136 10137 10138 10139 10140 10141 10142 
10143 10144 10145 10146 10147 10148 10149 10150 10151 
10152 10153 10154 10155 10156 10157 10158 10159 10160 
10161 10162 10163 10164 10165 10166 10167 10168 10169 
10170 10171 10172 10173 10174 10175 10176 10177 10178 
10179 10180 10181 10182 10183 10184 10185 10186 10187 
10188 10189 10190 10191 10192 10193 10194 10195 10196 
10197 10198 10199 10200 10201 10202 10203 10204 10205 
10206 10207 10208 10209 10210 10211 10212 10213 10214 
10215 10216 10217 10218 10219 10220 10221 10222 10223 
10224 10225 10226 10227 10228 10229 10230 10231 10232 
10233 10234 10235 10236 10237 10238 10239 10240 10241 
10242 10243 10244 10245 10246 10247 10248 10249 10250 
10251 10252 10253 10254 10255 10256 10257 10258 10259 
10260 10261 10262 10263 10264 10265 10266 10267 10268 
10269 10270 10271 10272 10273 10274 10275 10276 10277 
10278 10279 10280 10281 10282 10283 10284 10285 10286 
10287 10288 10289 10290 10291 10292 10293 10294 10295 
10296 10297 10298 10299 10300 10301 10302 10303 10304 
10305 10306 10307 10308 10309 10310 10311 10312 10313 
10314 10315 10316 10317 10318 10319 10320 10321 10322 
10323 10324 10325 10326 10327 10328 10329 10330 10331 
10332 10333 10334 10335 10336 10337 10338 10339 10340 
10341 10342 10343 10344 10345 10346 10347 10348 10349 
10350 10351 10352 10353 10354 10355 10356 10357 10358 
10359 10360 10361 10362 10363 10364 10365 10366 10367 
10368 10369 10370 10371 10372 10373 10374 10375 10376 
10377 10378 10379 10380 10381 10382 10383 10384 10385 
10386 10387 10388 10389 10390 10391 10392 10393 10394 
10395 10396 10397 10398 10399 10400 10401 10402 10403 
10404 10405 10406 10407 10408 10409 10410 10411 10412 
10413 10414 10415 10416 10417 10418 10419 10420 10421 
10422 10423 10424 10425 10426 10427 10428 10429 10430 
10431 10432 10433 10434 10435 10436 10437 10438 10439 
10440 10441 10442 10443 10444 10445 10446 10447 10448 
10449 10450 10451 10452 10453 10454 10455 10456 10457 
10458 10459 10460 10461 10462 10463 10464 10465 10466 
10467 10468 10469 10470 10471 10472 10473 10474 10475 
10476 10477 10478 10479 10480 10481 10482 10483 10484 
10485 10486 10487 10488 10489 10490 10491 10492 10493 
10494 10495 10496 10497 10498 10499 10500 10501 10502 
10503 10504 10505 10506 10507 10508 10509 10510 10511 
10512 10513 10514 10515 10516 10517 10518 10519 10520 
10521 10522 10523 10524 10525 10526 10527 10528 10529 
10530 10531 10532 10533 10534 10535 10536 10537 10538 
10539 10540 10541 10542 10543 10544 10545 10546 10547 
10548 10549 10550 10551 10552 10553 10554 10555 10556 
10557 10558 10559 10560 10561 10562 10563 10564 10565 
10566 10567 10568 10569 10570 10571 10572 10573 10574 
10575 10576 10577 10578 10579 10580 10581 10582 10583 
10584 10585 10586 10587 10588 10589 10590 10591 10592 
10593 10594 10595 10596 10597 10598 10599 10600 10601 
10602 10603 10604 10605 10606 10607 10608 10609 10610 
10611 10612 10613 10614 10615 10616 10617 10618 10619 
10620 10621 10622 10623 10624 10625 10626 10627 10628 
10629 10630 10631 10632 10633 10634 10635 10636 10637 
10638 10639 10640 10641 10642 10643 10644 10645 10646 
10647 10648 10649 10650 10651 10652 10653 10654 10655 
10656 10657 10658 10659 10660 10661 10662 10663 10664 
10665 10666 10667 10668 10669 10670 10671 10672 10673 
10674 10675 10676 10677 10678 10679 10680 10681 10682 
10683 10684 10685 10686 10687 10688 10689 10690 10691 
10692 10693 10694 10695 10696 10697 10698 10699 10700 
10701 10702 10703 10704 10705 10706 10707 10708 10709 
10710 10711 10712 10713 10714 10715 10716 10717 10718 
10719 10720 10721 10722 10723 10724 10725 10726 10727 
10728 10729 10730 10731 10732 10733 10734 10735 10736 
10737 10738 10739 10740 10741 10742 10743 10744 10745 
10746 10747 10748 10749 10750 10751 10752 10753 10754 
10755 10756 10757 10758 10759 10760 10761 10762 10763 
10764 10765 10766 10767 10768 10769 10770 10771 10772 
10773 10774 10775 10776 10777 10778 10779 10780 10781 
10782 10783 10784 10785 10786 10787 10788 10789 10790 
10791 10792 10793 10794 10795 10796 10797 10798 10799 
10800 10801 10802 10803 10804 10805 10806 10807 10808 
10809 10810 10811 10812 10813 10814 10815 10816 10817 
10818 10819 10820 10821 10822 10823 10824 10825 10826 
10827 10828 10829 10830 10831 10832 10833 10834 10835 
10836 10837 10838 10839 10840 10841 10842 10843 10844 
10845 10846 10847 10848 10849 10850 10851 10852 10853 
10854 10855 10856 10857 10858 10859 10860 10861 10862 
10863 10864 10865 10866 10867 10868 10869 10870 10871 
10872 10873 10874 10875 10876 10877 10878 10879 10880 
10881 10882 10883 10884 10885 10886 10887 10888 10889 
10890 10891 10892 10893 10894 10895 10896 10897 10898 
10899 10900 10901 10902 10903 10904 10905 10906 10907 
10908 10909 10910 10911 10912 10913 10914 10915 10916 
10917 10918 10919 10920 10921 10922 10923 10924 10925 
10926 10927 10928 10929 10930 10931 10932 10933 10934 
10935 10936 10937 10938 10939 10940 10941 10942 10943 
10944 10945 10946 10947 10948 10949 10950 10951 10952 
10953 10954 10955 10956 10957 10958 10959 10960 10961 
10962 10963 10964 10965 10966 10967 10968 10969 10970 
10971 10972 10973 10974 10975 10976 10977 10978 10979 
10980 10981 10982 10983 10984 10985 10986 10987 10988 
10989 10990 10991 10992 10993 10994 10995 10996 10997 
10998 10999 11000 11001 11002 11003 11004 11005 11006 
11007 11008 11009 11010 11011 11012 11013 11014 11015 
11016 11017 11018 11019 11020 11021 11022 11023 11024 
11025 11026 11027 11028 11029 11030 11031 11032 11033 
11034 11035 11036 11037 11038 11039 11040 11041 11042 
11043 11044 11045 11046 11047 11048 11049 11050 11051 
11052 11053 11054 11055 11056 11057 11058 11059 11060 
11061 11062 11063 11064 11065 11066 11067 11068 11069 
11070 11071 11072 11073 11074 11075 11076 11077 11078 
11079 11080 11081 11082 11083 11084 11085 11086 11087 
11088 11089 11090 11091 11092 11093 11094 11095 11096 
11097 11098 11099 11100 11101 11102 11103 11104 11105 
11106 11107 11108 11109 11110 11111 11112 11113 11114 
11115 11116 11117 11118 11119 11120 11121 11122 11123 
11124 11125 11126 11127 11128 11129 11130 11131 11132 
11133 11134 11135 11136 11137 11138 11139 11140 11141 
11142 11143 11144 11145 11146 11147 11148 11149 11150 
11151 11152 11153 11154 11155 11156 11157 11158 11159 
11160 11161 11162 11163 11164 11165 11166 11167 11168 
11169 11170 11171 11172 11173 11174 11175 11176 11177 
11178 11179 11180 11181 11182 11183 11184 11185 11186 
11187 11188 11189 11190 11191 11192 11193 11194 11195 
11196 11197 11198 11199 11200 11201 11202 11203 11204 
11205 11206 11207 11208 11209 11210 11211 11212 11213 
11214 11215 11216 11217 11218 11219 11220 11221 11222 
11223 11224 11225 11226 11227 11228 11229 11230 11231 
11232 11233 11234 11235 11236 11237 11238 11239 11240 
11241 11242 11243 11244 11245 11246 11247 11248 11249 
11250 11251 11252 11253 11254 11255 11256 11257 11258 
11259 11260 11261 11262 11263 11264 11265 11266 11267 
11268 11269 11270 11271 11272 11273 11274 11275 11276 
11277 11278 11279 11280 11281 11282 11283 11284 11285 
11286 11287 11288 11289 11290 11291 11292 11293 11294 
11295 11296 11297 11298 11299 11300 11301 11302 11303 
11304 11305 11306 11307 11308 11309 11310 11311 11312 
11313 11314 11315 11316 11317 11318 11319 11320 11321 
11322 11323 11324 11325 11326 11327 11328 11329 11330 
11331 11332 11333 11334 11335 11336 11337 11338 11339 
11340 11341 11342 11343 11344 11345 11346 11347 11348 
11349 11350 11351 11352 11353 11354 11355 11356 11357 
11358 11359 11360 11361 11362 11363 11364 11365 11366 
11367 11368 11369 11370 11371 11372 11373 11374 11375 
11376 11377 11378 11379 11380 11381 11382 11383 11384 
11385 11386 11387 11388 11389 11390 11391 11392 11393 
11394 11395 11396 11397 11398 11399 11400 11401 11402 
11403 11404 11405 11406 11407 11408 11409 11410 11411 
11412 11413 11414 11415 11416 11417 11418 11419 11420 
11421 11422 11423 11424 11425 11426 11427 11428 11429 
11430 11431 11432 11433 11434 11435 11436 11437 11438 
11439 11440 11441 11442 11443 11444 11445 11446 11447 
11448 11449 11450 11451 11452 11453 11454 11455 11456 
11457 11458 11459 11460 11461 11462 11463 11464 11465 
11466 11467 11468 11469 11470 11471 11472 11473 11474 
11475 11476 11477 11478 11479 11480 11481 11482 11483 
11484 11485 11486 11487 11488 11489 11490 11491 11492 
11493 11494 11495 11496 11497 11498 11499 11500 11501 
11502 11503 11504 11505 11506 11507 11508 11509 11510 
11511 11512 11513 11514 11515 11516 11517 11518 11519 
11520 11521 11522 11523 11524 11525 11526 11527 11528 
11529 11530 11531 11532 11533 11534 11535 11536 11537 
11538 11539 11540 11541 11542 11543 11544 11545 11546 
11547 11548 11549 11550 11551 11552 11553 11554 11555 
11556 11557 11558 11559 11560 11561 11562 11563 11564 
11565 11566 11567 11568 11569 11570 11571 11572 11573 
11574 11575 11576 11577 11578 11579 11580 11581 11582 
11583 11584 11585 11586 11587 11588 11589 11590 11591 
11592 11593 11594 11595 11596 11597 11598 11599 11600 
11601 11602 11603 11604 11605 11606 11607 11608 11609 
11610 11611 11612 11613 11614 11615 11616 11617 11618 
11619 11620 11621 11622 11623 11624 11625 11626 11627 
11628 11629 11630 11631 11632 11633 11634 11635 11636 
11637 11638 11639 11640 11641 11642 11643 11644 11645 
11646 11647 11648 11649 11650 11651 11652 11653 11654 
11655 11656 11657 11658 11659 11660 11661 11662 11663 
11664 11665 11666 11667 11668 11669 11670 11671 11672 
11673 11674 11675 11676 11677 11678 11679 11680 11681 
11682 11683 11684 11685 11686 11687 11688 11689 11690 
11691 11692 11693 11694 11695 11696 11697 11698 11699 
11700 11701 11702 11703 11704 11705 11706 11707 11708 
11709 11710 11711 11712 11713 11714 11715 11716 11717 
11718 11719 11720 11721 11722 11723 11724 11725 11726 
11727 11728 11729 11730 11731 11732 11733 11734 11735 
11736 11737 11738 11739 11740 11741 11742 11743 11744 
11745 11746 11747 11748 11749 11750 11751 11752 11753 
11754 11755 11756 11757 11758 11759 11760 11761 11762 
11763 11764 11765 11766 11767 11768 11769 11770 11771 
11772 11773 11774 11775 11776 11777 11778 11779 11780 
11781 11782 11783 11784 11785 11786 11787 11788 11789 
11790 11791 11792 11793 11794 11795 11796 11797 11798 
11799 11800 11801 11802 11803 11804 11805 11806 11807 
11808 11809 11810 11811 11812 11813 11814 11815 11816 
11817 11818 11819 11820 11821 11822 11823 11824 11825 
11826 11827 11828 11829 11830 11831 11832 11833 11834 
11835 11836 11837 11838 11839 11840 11841 11842 11843 
11844 11845 11846 11847 11848 11849 11850 11851 11852 
11853 11854 11855 11856 11857 11858 11859 11860 11861 
11862 11863 11864 11865 11866 11867 11868 11869 11870 
11871 11872 11873 11874 11875 11876 11877 11878 11879 
11880 11881 11882 11883 11884 11885 11886 11887 11888 
11889 11890 11891 11892 11893 11894 11895 11896 11897 
11898 11899 11900 11901 11902 11903 11904 11905 11906 
11907 11908 11909 11910 11911 11912 11913 11914 11915 
11916 11917 11918 11919 11920 11921 11922 11923 11924 
11925 11926 11927 11928 11929 11930 11931 11932 11933 
11934 11935 11936 11937 11938 11939 11940 11941 11942 
11943 11944 11945 11946 11947 11948 11949 11950 11951 
11952 11953 11954 11955 11956 11957 11958 11959 11960 
11961 11962 11963 11964 11965 11966 11967 11968 11969 
11970 11971 11972 11973 11974 11975 11976 11977 11978 
11979 11980 11981 11982 11983 11984 11985 11986 11987 
11988 11989 11990 11991 11992 11993 11994 11995 11996 
11997 11998 11999 12000 12001 12002 12003 12004 12005 
12006 12007 12008 12009 12010 12011 12012 12013 12014 
12015 12016 12017 12018 12019 12020 12021 12022 12023 
12024 12025 12026 12027 12028 12029 12030 12031 12032 
12033 12034 12035 12036 12037 12038 12039 12040 12041 
12042 12043 12044 12045 12046 12047 12048 12049 12050 
12051 12052 12053 12054 12055 12056 12057 12058 12059 
12060 12061 12062 12063 12064 12065 12066 12067 12068 
12069 12070 12071 12072 12073 12074 12075 12076 12077 
12078 12079 12080 12081 12082 12083 12084 12085 12086 
12087 12088 12089 12090 12091 12092 12093 12094 12095 
12096 12097 12098 12099 12100 12101 12102 12103 12104 
12105 12106 12107 12108 12109 12110 12111 12112 12113 
12114 12115 12116 12117 12118 12119 12120 12121 12122 
12123 12124 12125 12126 12127 12128 12129 12130 12131 
12132 12133 12134 12135 12136 12137 12138 12139 12140 
12141 12142 12143 12144 12145 12146 12147 12148 12149 
12150 12151 12152 12153 12154 12155 12156 12157 12158 
12159 12160 12161 12162 12163 12164 12165 12166 12167 
12168 12169 12170 12171 12172 12173 12174 12175 12176 
12177 12178 12179 12180 12181 12182 12183 12184 12185 
12186 12187 12188 12189 12190 12191 12192 12193 12194 
12195 12196 12197 12198 12199 12200 12201 12202 12203 
12204 12205 12206 12207 12208 12209 12210 12211 12212 
12213 12214 12215 12216 12217 12218 12219 12220 12221 
12222 12223 12224 12225 12226 12227 12228 12229 12230 
12231 12232 12233 12234 12235 12236 12237 12238 12239 
12240 12241 12242 12243 12244 12245 12246 12247 12248 
12249 12250 12251 12252 12253 12254 12255 12256 12257 
12258 12259 12260 12261 12262 12263 12264 12265 12266 
12267 12268 12269 12270 12271 12272 12273 12274 12275 
12276 12277 12278 12279 12280 12281 12282 12283 12284 
12285 12286 12287 12288 12289 12290 12291 12292 12293 
12294 12295 12296 12297 12298 12299 12300 12301 12302 
12303 12304 12305 12306 12307 12308 12309 12310 12311 
12312 12313 12314 12315 12316 12317 12318 12319 12320 
12321 12322 12323 12324 12325 12326 12327 12328 12329 
12330 12331 12332 12333 12334 12335 12336 12337 12338 
12339 12340 12341 12342 12343 12344 12345 12346 12347 
12348 12349 12350 12351 12352 12353 12354 12355 12356 
12357 12358 12359 12360 12361 12362 12363 12364 12365 
12366 12367 12368 12369 12370 12371 12372 12373 12374 
12375 12376 12377 12378 12379 12380 12381 12382 12383 
12384 12385 12386 12387 12388 12389 12390 12391 12392 
12393 12394 12395 12396 12397 12398 12399 12400 12401 
12402 12403 12404 12405 12406 12407 12408 12409 12410 
      </DataArray>
      <DataArray type="Int32" Name="offsets" format="ascii">
9
18
27
36
45
54
63
72
81
90
99
108
117
126
135
144
153
162
171
180
189
198
207
216
225
234
243
252
261
270
279
288
297
306
315
324
333
342
351
360
369
378
387
396
405
414
423
432
441
450
459
468
477
486
495
504
513
522
531
540
549
558
567
576
585
594
603
612
621
630
639
648
657
666
675
684
693
702
711
720
729
738
747
756
765
774
783
792
801
810
819
828
837
846
855
864
873
882
891
900
909
918
927
936
945
954
963
972
981
990
999
1008
1017
1026
1035
1044
1053
1062
1071
1080
1089
1098
1107
1116
1125
1134
1143
1152
1161
1170
1179
1188
1197
1206
1215
1224
1233
1242
1251
1260
1269
1278
1287
1296
1305
1314
1323
1332
1341
1350
1359
1368
1377
1386
1395
1404
1413
1422
1431
1440
1449
1458
1467
1476
1485
1494
1503
1512
1521
1530
1539
1548
1557
1566
1575
1584
1593
1602
1611
1620
1629
1638
1647
1656
1665
1674
1683
1692
1701
1710
1719
1728
1737
1746
1755
1764
1773
1782
1791
1800
1809
1818
1827
1836
1845
1854
1863
1872
1881
1890
1899
1908
1917
1926
1935
1944
1953
1962
1971
1980
1989
1998
2007
2016
2025
2034
2043
2052
2061
2070
2079
2088
2097
2106
2115
2124
2133
2142
2151
2160
2169
2178
2187
2196
2205
2214
2223
2232
2241
2250
2259
2268
2277
2286
2295
2304
2313
2322
2331
2340
2349
2358
2367
2376
2385
2394
2403
2412
2421
2430
2439
2448
2457
2466
2475
2484
2493
2502
2511
2520
2529
2538
2547
2556
2565
2574
2583
2592
2601
2610
2619
2628
2637
2646
2655
2664
2673
2682
2691
2700
2709
2718
2727
2736
2745
2754
2763
2772
2781
2790
2799
2808
2817
2826
2835
2844
2853
2862
2871
2880
2889
2898
2907
2916
2925
2934
2943
2952
2961
2970
2979
2988
2997
3006
3015
3024
3033
3042
3051
3060
3069
3078
3087
3096
3105
3114
3123
3132
3141
3150
3159
3168
3177
3186
3195
3204
3213
3222
3231
3240
3249
3258
3267
3276
3285
3294
3303
3312
3321
3330
3339
3348
3357
3366
3375
3384
3393
3402
3411
3420
3429
3438
3447
3456
3465
3474
3483
3492
3501
3510
3519
3528
3537
3546
3555
3564
3573
3582
3591
3600
3609
3618
3627
3636
3645
3654
3663
3672
3681
3690
3699
3708
3717
3726
3735
3744
3753
3762
3771
3780
3789
3798
3807
3816
3825
3834
3843
3852
3861
3870
3879
3888
3897
3906
3915
3924
3933
3942
3951
3960
3969
3978
3987
3996
4005
4014
4023
4032
4041
4050
4059
4068
4077
4086
4095
4104
4113
4122
4131
4140
4149
4158
4167
4176
4185
4194
4203
4212
4221
4230
4239
4248
4257
4266
4275
4284
4293
4302
4311
4320
4329
4338
4347
4356
4365
4374
4383
4392
4401
4410
4419
4428
4437
4446
4455
4464
4473
4482
4491
4500
4509
4518
4527
4536
4545
4554
4563
4572
4581
4590
4599
4608
4617
4626
4635
4644
4653
4662
4671
4680
4689
4698
4707
4716
4725
4734
4743
4752
4761
4770
4779
4788
4797
4806
4815
4824
4833
4842
4851
4860
4869
4878
4887
4896
4905
4914
4923
4932
4941
4950
4959
4968
4977
4986
4995
5004
5013
5022
5031
5040
5049
5058
5067
5076
5085
5094
5103
5112
5121
5130
5139
5148
5157
5166
5175
5184
5193
5202
5211
5220
5229
5238
5247
5256
5265
5274
5283
5292
5301
5310
5319
5328
5337
5346
5355
5364
5373
5382
5391
5400
5409
5418
5427
5436
5445
5454
5463
5472
5481
5490
5499
5508
5517
5526
5535
5544
5553
5562
5571
5580
5589
5598
5607
5616
5625
5634
5643
5652
5661
5670
5679
5688
5697
5706
5715
5724
5733
5742
5751
5760
5769
5778
5787
5796
5805
5814
5823
5832
5841
5850
5859
5868
5877
5886
5895
5904
5913
5922
5931
5940
5949
5958
5967
5976
5985
5994
6003
6012
6021
6030
6039
6048
6057
6066
6075
6084
6093
6102
6111
6120
6129
6138
6147
6156
6165
6174
6183
6192
6201
6210
6219
6228
6237
6246
6255
6264
6273
6282
6291
6300
6309
6318
6327
6336
6345
6354
6363
6372
6381
6390
6399
6408
6417
6426
6435
6444
6453
6462
6471
6480
6489
6498
6507
6516
6525
6534
6543
6552
6561
6570
6579
6588
6597
6606
6615
6624
6633
6642
6651
6660
6669
6678
6687
6696
6705
6714
6723
6732
6741
6750
6759
6768
6777
6786
6795
6804
6813
6822
6831
6840
6849
6858
6867
6876
6885
6894
6903
6912
6921
6930
6939
6948
6957
6966
6975
6984
6993
7002
7011
7020
7029
7038
7047
7056
7065
7074
7083
7092
7101
7110
7119
7128
7137
7146
7155
7164
7173
7182
7191
7200
7209
7218
7227
7236
7245
7254
7263
7272
7281
7290
7299
7308
7317
7326
7335
7344
7353
7362
7371
7380
7389
7398
7407
7416
7425
7434
7443
7452
7461
7470
7479
7488
7497
7506
7515
7524
7533
7542
7551
7560
7569
7578
7587
7596
7605
7614
7623
7632
7641
7650
7659
7668
7677
7686
7695
7704
7713
7722
7731
7740
7749
7758
7767
7776
7785
7794
7803
7812
7821
7830
7839
7848
7857
7866
7875
7884
7893
7902
7911
7920
7929
7938
7947
7956
7965
7974
7983
7992
8001
8010
8019
8028
8037
8046
8055
8064
8073
8082
8091
8100
8109
8118
8127
8136
8145
8154
8163
8172
8181
8190
8199
8208
8217
8226
8235
8244
8253
8262
8271
8280
8289
8298
8307
8316
8325
8334
8343
8352
8361
8370
8379
8388
8397
8406
8415
8424
8433
8442
8451
8460
8469
8478
8487
8496
8505
8514
8523
8532
8541
8550
8559
8568
8577
8586
8595
8604
8613
8622
8631
8640
8649
8658
8667
8676
8685
8694
8703
8712
8721
8730
8739
8748
8757
8766
8775
8784
8793
8802
8811
8820
8829
8838
8847
8856
8865
8874
8883
8892
8901
8910
8919
8928
8937
8946
8955
8964
8973
8982
8991
9000
9009
9018
9027
9036
9045
9054
9063
9072
9081
9090
9099
9108
9117
9126
9135
9144
9153
9162
9171
9180
9189
9198
9207
9216
9225
9234
9243
9252
9261
9270
9279
9288
9297
9306
9315
9324
9333
9342
9351
9360
9369
9378
9387
9396
9405
9414
9423
9432
9441
9450
9459
9468
9477
9486
9495
9504
9513
9522
9531
9540
9549
9558
9567
9576
9585
9594
9603
9612
9621
9630
9639
9648
9657
9666
9675
9684
9693
9702
9711
9720
9729
9738
9747
9756
9765
9774
9783
9792
9801
9810
9819
9828
9837
9846
9855
9864
9873
9882
9891
9900
9909
9918
9927
9936
9945
9954
9963
9972
9981
9990
9999
10008
10017
10026
10035
10044
10053
10062
10071
10080
10089
10098
10107
10116
10125
10134
10143
10152
10161
10170
10179
10188
10197
10206
10215
10224
10233
10242
10251
10260
10269
10278
10287
10296
10305
10314
10323
10332
10341
10350
10359
10368
10377
10386
10395
10404
10413
10422
10431
10440
10449
10458
10467
10476
10485
10494
10503
10512
10521
10530
10539
10548
10557
10566
10575
10584
10593
10602
10611
10620
10629
10638
10647
10656
10665
10674
10683
10692
10701
10710
10719
10728
10737
10746
10755
10764
10773
10782
10791
10800
10809
10818
10827
10836
10845
10854
10863
10872
10881
10890
10899
10908
10917
10926
10935
10944
10953
10962
10971
10980
10989
10998
11007
11016
11025
11034
11043
11052
11061
11070
11079
11088
11097
11106
11115
11124
11133
11142
11151
11160
11169
11178
11187
11196
11205
11214
11223
11232
11241
11250
11259
11268
11277
11286
11295
11304
11313
11322
11331
11340
11349
11358
11367
11376
11385
11394
11403
11412
11421
11430
11439
11448
11457
11466
11475
11484
11493
11502
11511
11520
11529
11538
11547
11556
11565
11574
11583
11592
11601
11610
11619
11628
11637
11646
11655
11664
11673
11682
11691
11700
11709
11718
11727
11736
11745
11754
11763
11772
11781
11790
11799
11808
11817
11826
11835
11844
11853
11862
11871
11880
11889
11898
11907
11916
11925
11934
11943
11952
11961
11970
11979
11988
11997
12006
12015
12024
12033
12042
12051
12060
12069
12078
12087
12096
12105
12114
12123
12132
12141
12150
12159
12168
12177
12186
12195
12204
12213
12222
12231
12240
12249
12258
12267
12276
12285
12294
12303
12312
12321
12330
12339
12348
12357
12366
12375
12384
12393
12402
12411
      </DataArray>
      <DataArray type="UInt8" Name="types" format="ascii">
70
70
70
70
70
70
70
70
70
70
70
70
70
70
70
70
70
70
70
70
70
70
70
70
70
70
70
70
70
70
70
70
70
70
70
70
70
70
70
70
70
70
70
70
70
70
70
70
70
70
70
70
70
70
70
70
70
70
70
70
70
70
70
70
70
70
70
70
70
70
70
70
70
70
70
70
70
70
70
70
70
70
70
70
70
70
70
70
70
70
70
70
70
70
70
70
70
70
70
70
70
70
70
70
70
70
70
70
70
70
70
70
70
70
70
70
70
70
70
70
70
70
70
70
70
70
70
70
70
70
70
70
70
70
70
70
70
70
70
70
70
70
70
70
70
70
70
70
70
70
70
70
70
70
70
70
70
70
70
70
70
70
70
70
70
70
70
70
70
70
70
70
70
70
70
70
70
70
70
70
70
70
70
70
70
70
70
70
70
70
70
70
70
70
70
70
70
70
70
70
70
70
70
70
70
70
70
70
70
70
70
70
70
70
70
70
70
70
70
70
70
70
70
70
70
70
70
70
70
70
70
70
70
70
70
70
70
70
70
70
70
70
70
70
70
70
70
70
70
70
70
70
70
70
70
70
70
70
70
70
70
70
70
70
70
70
70
70
70
70
70
70
70
70
70
70
70
70
70
70
70
70
70
70
70
70
70
70
70
70
70
70
70
70
70
70
70
70
70
70
70
70
70
70
70
70
70
70
70
70
70
70
70
70
70
70
70
70
70
70
70
70
70
70
70
70
70
70
70
70
70
70
70
70
70
70
70
70
70
70
70
70
70
70
70
70
70
70
70
70
70
70
70
70
70
70
70
70
70
70
70
70
70
70
70
70
70
70
70
70
70
70
70
70
70
70
70
70
70
70
70
70
70
70
70
70
70
70
70
70
70
70
70
70
70
70
70
70
70
70
70
70
70
70
70
70
70
70
70
70
70
70
70
70
70
70
70
70
70
70
70
70
70
70
70
70
70
70
70
70
70
70
70
70
70
70
70
70
70
70
70
70
70
70
70
70
70
70
70
70
70
70
70
70
70
70
70
70
70
70
70
70
70
70
70
70
70
70
70
70
70
70
70
70
70
70
70
70
70
70
70
70
70
70
70
70
70
70
70
70
70
70
70
70
70
70
70
70
70
70
70
70
70
70
70
70
70
70
70
70
70
70
70
70
70
70
70
70
70
70
70
70
70
70
70
70
70
70
70
70
70
70
70
70
70
70
70
70
70
70
70
70
70
70
70
70
70
70
70
70
70
70
70
70
70
70
70
70
70
70
70
70
70
70
70
70
70
70
70
70
70
70
70
70
70
70
70
70
70
70
70
70
70
70
70
70
70
70
70
70
70
70
70
70
70
70
70
70
70
70
70
70
70
70
70
70
70
70
70
70
70
70
70
70
70
70
70
70
70
70
70
70
70
70
70
70
70
70
70
70
70
70
70
70
70
70
70
70
70
70
70
70
70
70
70
70
70
70
70
70
70
70
70
70
70
70
70
70
70
70
70
70
70
70
70
70
70
70
70
70
70
70
70
70
70
70
70
70
70
70
70
70
70
70
70
70
70
70
70
70
70
70
70
70
70
70
70
70
70
70
70
70
70
70
70
70
70
70
70
70
70
70
70
70
70
70
70
70
70
70
70
70
70
70
70
70
70
70
70
70
70
70
70
70
70
70
70
70
70
70
70
70
70
70
70
70
70
70
70
70
70
70
70
70
70
70
70
70
70
70
70
70
70
70
70
70
70
70
70
70
70
70
70
70
70
70
70
70
70
70
70
70
70
70
70
70
70
70
70
70
70
70
70
70
70
70
70
70
70
70
70
70
70
70
70
70
70
70
70
70
70
70
70
70
70
70
70
70
70
70
70
70
70
70
70
70
70
70
70
70
70
70
70
70
70
70
70
70
70
70
70
70
70
70
70
70
70
70
70
70
70
70
70
70
70
70
70
70
70
70
70
70
70
70
70
70
70
70
70
70
70
70
70
70
70
70
70
70
70
70
70
70
70
70
70
70
70
70
70
70
70
70
70
70
70
70
70
70
70
70
70
70
70
70
70
70
70
70
70
70
70
70
70
70
70
70
70
70
70
70
70
70
70
70
70
70
70
70
70
70
70
70
70
70
70
70
70
70
70
70
70
70
70
70
70
70
70
70
70
70
70
70
70
70
70
70
70
70
70
70
70
70
70
70
70
70
70
70
70
70
70
70
70
70
70
70
70
70
70
70
70
70
70
70
70
70
70
70
70
70
70
70
70
70
70
70
70
70
70
70
70
70
70
70
70
70
70
70
70
70
70
70
70
70
70
70
70
70
70
70
70
70
70
70
70
70
70
70
70
70
70
70
70
70
70
70
70
70
70
70
70
70
70
70
70
70
70
70
70
70
70
70
70
70
70
70
70
70
70
70
70
70
70
70
70
70
70
70
70
70
70
70
70
70
70
70
70
70
70
70
70
70
70
70
70
70
70
70
70
70
70
70
70
70
70
70
70
70
70
70
70
70
70
70
70
70
70
70
70
70
70
70
70
70
70
70
70
70
70
70
70
70
70
70
70
70
70
70
70
70
70
70
70
70
70
70
70
70
70
70
70
70
70
70
70
70
70
70
70
70
70
70
70
70
70
70
70
70
70
70
70
70
70
70
70
70
70
70
70
70
70
70
70
70
70
70
70
70
70
70
70
70
70
70
70
70
70
70
70
70
70
70
70
70
70
70
70
70
70
70
70
70
70
70
70
70
70
70
70
70
70
70
70
70
70
70
70
70
70
70
70
70
70
70
70
70
70
70
70
70
70
70
70
70
70
70
70
70
70
70
70
70
70
70
70
70
70
70
70
70
70
70
70
70
70
70
70
70
70
70
70
70
70
70
70
70
70
70
70
70
70
70
70
70
70
70
70
70
70
70
70
70
70
70
70
70
70
70
70
70
70
70
70
70
70
70
70
70
70
70
70
70
70
70
70
70
70
70
70
70
70
70
70
70
70
70
70
70
70
70
70
70
70
70
70
70
70
70
70
70
70
70
70
70
70
70
70
70
70
70
70
70
70
70
70
70
70
70
70
70
70
70
70
70
70
70
70
70
70
70
70
70
70
70
70
70
70
70
70
70
70
70
70
70
70
70
70
70
70
      </DataArray>
    </Cells>
    <PointData>
      <DataArray type="Float64" NumberOfComponents="3" Name="Displacement" format="ascii">
0 0 0
-0.0100042 -0.00497841 -0.00497841
-0.00596671 -0.00167818 -0.00167818
0 0 0
-0.00544508 -0.00310614 -0.00310614
-0.00753602 -0.00300743 -0.00300743
-0.00289501 -0.000600547 -0.000600547
0 0 0
-0.00359367 -0.00132624 -0.00132624
-0.0100042 -0.00497841 -0.00497841
-0.0186598 -0.00863868 -0.00863868
-0.0124285 -0.00484885 -0.00484885
-0.00596671 -0.00167818 -0.00167818
-0.0143441 -0.00673938 -0.00673938
-0.015388 -0.00655165 -0.00655165
-0.00916684 -0.00311034 -0.00311034
-0.00753602 -0.00300743 -0.00300743
-0.0114842 -0.00472641 -0.00472641
-0.0186598 -0.00863868 -0.00863868
-0.0273951 -0.0130554 -0.0130554
-0.0189491 -0.00920646 -0.00920646
-0.0124285 -0.00484885 -0.00484885
-0.0230117 -0.0107174 -0.0107174
-0.0231261 -0.0109851 -0.0109851
-0.0156926 -0.0068741 -0.0068741
-0.015388 -0.00655165 -0.00655165
-0.0192669 -0.00862359 -0.00862359
-0.0273951 -0.0130554 -0.0130554
-0.0362045 -0.018742 -0.018742
-0.0254385 -0.0148843 -0.0148843
-0.0189491 -0.00920646 -0.00920646
-0.0317931 -0.0157266 -0.0157266
-0.0307999 -0.0166604 -0.0166604
-0.0221991 -0.0118726 -0.0118726
-0.0231261 -0.0109851 -0.0109851
-0.0269682 -0.0136557 -0.0136557
-0.0362045 -0.018742 -0.018742
-0.0450634 -0.0258154 -0.0258154
-0.0318754 -0.0219768 -0.0219768
-0.0254385 -0.0148843 -0.0148843
-0.0406302 -0.0221005 -0.0221005
-0.0384503 -0.0237446 -0.0237446
-0.0286631 -0.0182497 -0.0182497
-0.0307999 -0.0166604 -0.0166604
-0.0346274 -0.0200212 -0.0200212
-0.0450634 -0.0258154 -0.0258154
-0.0539284 -0.0343551 -0.0343551
-0.0382735 -0.0305381 -0.0305381
-0.0318754 -0.0219768 -0.0219768
-0.0494966 -0.0299001 -0.0299001
-0.0460784 -0.0322905 -0.0322905
-0.0350789 -0.0260723 -0.0260723
-0.0384503 -0.0237446 -0.0237446
-0.0422672 -0.0278332 -0.0278332
-0.0539284 -0.0343551 -0.0343551
-0.0627849 -0.0443718 -0.0443718
-0.0446361 -0.0405834 -0.0405834
-0.0382735 -0.0305381 -0.0305381
-0.0583587 -0.0391783 -0.0391783
-0.0536842 -0.0423207 -0.0423207
-0.0414589 -0.0353749 -0.0353749
-0.0460784 -0.0322905 -0.0322905
-0.0498843 -0.0371196 -0.0371196
-0.0627849 -0.0443718 -0.0443718
-0.0716171 -0.0558748 -0.0558748
-0.050969 -0.0521166 -0.0521166
-0.0446361 -0.0405834 -0.0405834
-0.0672046 -0.0499376 -0.0499376
-0.0612637 -0.0538378 -0.0538378
-0.0478061 -0.0461642 -0.0461642
-0.0536842 -0.0423207 -0.0423207
-0.0574774 -0.0478936 -0.0478936
-0.0716171 -0.0558748 -0.0558748
-0.080419 -0.0688584 -0.0688584
-0.0572739 -0.065133 -0.065133
-0.050969 -0.0521166 -0.0521166
-0.0760221 -0.0621819 -0.0621819
-0.0688152 -0.0668379 -0.0668379
-0.0541248 -0.0584398 -0.0584398
-0.0612637 -0.0538378 -0.0538378
-0.065043 -0.0601528 -0.0601528
-0.080419 -0.0688584 -0.0688584
-0.0891863 -0.0833171 -0.0833171
-0.0635528 -0.079626 -0.079626
-0.0572739 -0.065133 -0.065133
-0.0848071 -0.0759038 -0.0759038
-0.0763371 -0.081314 -0.081314
-0.0604165 -0.0721954 -0.0721954
-0.0688152 -0.0668379 -0.0668379
-0.0725799 -0.0738919 -0.0738919
-0.0891863 -0.0833171 -0.0833171
-0.0979178 -0.0992428 -0.0992428
-0.0698068 -0.0955874 -0.0955874
-0.0635528 -0.079626 -0.079626
-0.0935566 -0.0910971 -0.0910971
-0.0838291 -0.0972582 -0.0972582
-0.0666829 -0.0874236 -0.0874236
-0.0763371 -0.081314 -0.081314
-0.0800868 -0.0891031 -0.0891031
-0.0979178 -0.0992428 -0.0992428
-0.106613 -0.116627 -0.116627
-0.0760369 -0.113009 -0.113009
-0.0698068 -0.0955874 -0.0955874
-0.10227 -0.107753 -0.107753
-0.0912913 -0.114662 -0.114662
-0.0729248 -0.104116 -0.104116
-0.0838291 -0.0972582 -0.0972582
-0.0875639 -0.105778 -0.105778
-0.106613 -0.116627 -0.116627
-0.115272 -0.135463 -0.135463
-0.082244 -0.131883 -0.131883
-0.0760369 -0.113009 -0.113009
-0.110947 -0.125864 -0.125864
-0.0987242 -0.133518 -0.133518
-0.0791433 -0.122265 -0.122265
-0.0912913 -0.114662 -0.114662
-0.0950114 -0.123909 -0.123909
-0.115272 -0.135463 -0.135463
-0.123896 -0.155741 -0.155741
-0.0884288 -0.152201 -0.152201
-0.082244 -0.131883 -0.131883
-0.119588 -0.145422 -0.145422
-0.106128 -0.153816 -0.153816
-0.0853391 -0.141862 -0.141862
-0.0987242 -0.133518 -0.133518
-0.10243 -0.143487 -0.143487
-0.123896 -0.155741 -0.155741
-0.132484 -0.177454 -0.177454
-0.0945921 -0.173955 -0.173955
-0.0884288 -0.152201 -0.152201
-0.128194 -0.166419 -0.166419
-0.113504 -0.175551 -0.175551
-0.0915131 -0.162899 -0.162899
-0.106128 -0.153816 -0.153816
-0.10982 -0.164505 -0.164505
-0.132484 -0.177454 -0.177454
-0.141039 -0.200594 -0.200594
-0.100735 -0.197137 -0.197137
-0.0945921 -0.173955 -0.173955
-0.136766 -0.188846 -0.188846
-0.120852 -0.198713 -0.198713
-0.0976659 -0.185368 -0.185368
-0.113504 -0.175551 -0.175551
-0.117182 -0.186954 -0.186954
-0.141039 -0.200594 -0.200594
-0.14956 -0.225153 -0.225153
-0.106857 -0.221739 -0.221739
-0.100735 -0.197137 -0.197137
-0.145303 -0.212697 -0.212697
-0.128174 -0.223294 -0.223294
-0.103798 -0.209261 -0.209261
-0.120852 -0.198713 -0.198713
-0.124517 -0.210827 -0.210827
-0.14956 -0.225153 -0.225153
-0.158048 -0.251123 -0.251123
-0.11296 -0.247754 -0.247754
-0.106857 -0.221739 -0.221739
-0.153808 -0.237962 -0.237962
-0.13547 -0.249288 -0.249288
-0.109911 -0.234571 -0.234571
-0.128174 -0.223294 -0.223294
-0.131825 -0.236115 -0.236115
-0.158048 -0.251123 -0.251123
-0.166505 -0.278497 -0.278497
-0.119045 -0.275174 -0.275174
-0.11296 -0.247754 -0.247754
-0.16228 -0.264635 -0.264635
-0.14274 -0.276685 -0.276685
-0.116005 -0.261289 -0.261289
-0.13547 -0.249288 -0.249288
-0.139108 -0.262811 -0.262811
-0.166505 -0.278497 -0.278497
-0.17493 -0.307266 -0.307266
-0.125112 -0.30399 -0.30399
-0.119045 -0.275174 -0.275174
-0.170721 -0.292708 -0.292708
-0.149986 -0.305479 -0.305479
-0.122081 -0.289408 -0.289408
-0.14274 -0.276685 -0.276685
-0.146366 -0.290908 -0.290908
-0.17493 -0.307266 -0.307266
-0.183325 -0.337423 -0.337423
-0.131161 -0.334195 -0.334195
-0.125112 -0.30399 -0.30399
-0.179131 -0.322172 -0.322172
-0.157208 -0.335661 -0.335661
-0.128139 -0.318919 -0.318919
-0.149986 -0.305479 -0.305479
-0.1536 -0.320397 -0.320397
-0.183325 -0.337423 -0.337423
-0.191689 -0.36896 -0.36896
-0.137194 -0.365781 -0.365781
-0.131161 -0.334195 -0.334195
-0.187511 -0.35302 -0.35302
-0.164407 -0.367223 -0.367223
-0.13418 -0.349816 -0.349816
-0.157208 -0.335661 -0.335661
-0.160811 -0.35127 -0.35127
-0.191689 -0.36896 -0.36896
-0.200025 -0.40187 -0.40187
-0.143211 -0.398741 -0.398741
-0.137194 -0.365781 -0.365781
-0.195861 -0.385244 -0.385244
-0.171583 -0.400158 -0.400158
-0.140205 -0.38209 -0.38209
-0.164407 -0.367223 -0.367223
-0.167998 -0.38352 -0.38352
-0.200025 -0.40187 -0.40187
-0.208332 -0.436143 -0.436143
-0.149213 -0.433065 -0.433065
-0.143211 -0.398741 -0.398741
-0.204182 -0.418836 -0.418836
-0.178738 -0.434459 -0.434459
-0.146214 -0.415733 -0.415733
-0.171583 -0.400158 -0.400158
-0.175163 -0.417138 -0.417138
-0.208332 -0.436143 -0.436143
-0.216611 -0.471773 -0.471773
-0.1552 -0.468748 -0.468748
-0.149213 -0.433065 -0.433065
-0.212475 -0.453789 -0.453789
-0.185871 -0.470116 -0.470116
-0.152208 -0.450738 -0.450738
-0.178738 -0.434459 -0.434459
-0.182307 -0.452118 -0.452118
-0.216611 -0.471773 -0.471773
-0.224862 -0.508752 -0.508752
-0.161173 -0.50578 -0.50578
-0.1552 -0.468748 -0.468748
-0.22074 -0.490095 -0.490095
-0.192983 -0.507122 -0.507122
-0.158188 -0.487096 -0.487096
-0.185871 -0.470116 -0.470116
-0.189429 -0.488451 -0.488451
-0.224862 -0.508752 -0.508752
-0.233087 -0.547072 -0.547072
-0.167133 -0.544155 -0.544155
-0.161173 -0.50578 -0.50578
-0.228978 -0.527745 -0.527745
-0.200075 -0.54547 -0.54547
-0.164155 -0.5248 -0.5248
-0.192983 -0.507122 -0.507122
-0.196532 -0.526129 -0.526129
-0.233087 -0.547072 -0.547072
-0.241286 -0.586725 -0.586725
-0.17308 -0.583863 -0.583863
-0.167133 -0.544155 -0.544155
-0.23719 -0.566733 -0.566733
-0.207148 -0.585152 -0.585152
-0.170108 -0.563843 -0.563843
-0.200075 -0.54547 -0.54547
-0.203614 -0.565145 -0.565145
-0.241286 -0.586725 -0.586725
-0.249459 -0.627704 -0.627704
-0.179014 -0.624898 -0.624898
-0.17308 -0.583863 -0.583863
-0.245376 -0.60705 -0.60705
-0.214202 -0.62616 -0.62616
-0.176049 -0.604215 -0.604215
-0.207148 -0.585152 -0.585152
-0.210677 -0.605491 -0.605491
-0.249459 -0.627704 -0.627704
-0.257607 -0.67 -0.67
-0.184937 -0.667252 -0.667252
-0.179014 -0.624898 -0.624898
-0.253536 -0.648688 -0.648688
-0.221237 -0.668485 -0.668485
-0.181977 -0.645911 -0.645911
-0.214202 -0.62616 -0.62616
-0.217722 -0.647158 -0.647158
-0.257607 -0.67 -0.67
-0.26573 -0.713606 -0.713606
-0.190849 -0.710916 -0.710916
-0.184937 -0.667252 -0.667252
-0.261672 -0.69164 -0.69164
-0.228255 -0.712121 -0.712121
-0.187894 -0.68892 -0.68892
-0.221237 -0.668485 -0.668485
-0.224748 -0.69014 -0.69014
-0.26573 -0.713606 -0.713606
-0.27383 -0.758514 -0.758514
-0.19675 -0.755882 -0.755882
-0.190849 -0.710916 -0.710916
-0.269783 -0.735897 -0.735897
-0.235255 -0.757059 -0.757059
-0.193801 -0.733237 -0.733237
-0.228255 -0.712121 -0.712121
-0.231757 -0.734428 -0.734428
-0.27383 -0.758514 -0.758514
-0.281906 -0.804715 -0.804715
-0.202641 -0.802144 -0.802144
-0.19675 -0.755882 -0.755882
-0.277871 -0.781453 -0.781453
-0.242238 -0.803292 -0.803292
-0.199697 -0.778852 -0.778852
-0.235255 -0.757059 -0.757059
-0.238749 -0.780014 -0.780014
-0.281906 -0.804715 -0.804715
-0.289959 -0.852204 -0.852204
-0.208523 -0.849693 -0.849693
-0.202641 -0.802144 -0.802144
-0.285936 -0.828299 -0.828299
-0.249206 -0.850811 -0.850811
-0.205583 -0.825758 -0.825758
-0.242238 -0.803292 -0.803292
-0.245724 -0.826891 -0.826891
-0.289959 -0.852204 -0.852204
-0.29799 -0.90097 -0.90097
-0.214395 -0.898522 -0.898522
-0.208523 -0.849693 -0.849693
-0.293978 -0.876428 -0.876428
-0.256157 -0.89961 -0.89961
-0.21146 -0.873948 -0.873948
-0.249206 -0.850811 -0.850811
-0.252684 -0.875051 -0.875051
-0.29799 -0.90097 -0.90097
-0.305999 -0.951008 -0.951008
-0.220259 -0.948621 -0.948621
-0.214395 -0.898522 -0.898522
-0.301998 -0.92583 -0.92583
-0.263094 -0.949679 -0.949679
-0.217328 -0.923413 -0.923413
-0.256157 -0.89961 -0.89961
-0.259627 -0.924486 -0.924486
-0.305999 -0.951008 -0.951008
-0.313987 -1.00231 -1.00231
-0.226115 -0.999985 -0.999985
-0.220259 -0.948621 -0.948621
-0.309996 -0.9765 -0.9765
-0.270015 -1.00101 -1.00101
-0.223188 -0.974146 -0.974146
-0.263094 -0.949679 -0.949679
-0.266556 -0.975188 -0.975188
-0.313987 -1.00231 -1.00231
-0.321954 -1.05486 -1.05486
-0.231963 -1.0526 -1.0526
-0.226115 -0.999985 -0.999985
-0.317973 -1.02843 -1.02843
-0.276923 -1.0536 -1.0536
-0.22904 -1.02614 -1.02614
-0.270015 -1.00101 -1.00101
-0.273471 -1.02715 -1.02715
-0.321954 -1.05486 -1.05486
-0.3299 -1.10867 -1.10867
-0.237804 -1.10647 -1.10647
-0.231963 -1.0526 -1.0526
-0.325929 -1.08161 -1.08161
-0.283816 -1.10744 -1.10744
-0.234885 -1.07938 -1.07938
-0.276923 -1.0536 -1.0536
-0.280371 -1.08036 -1.08036
-0.3299 -1.10867 -1.10867
-0.337826 -1.16371 -1.16371
-0.243639 -1.16158 -1.16158
-0.237804 -1.10647 -1.10647
-0.333865 -1.13603 -1.13603
-0.290697 -1.16251 -1.16251
-0.240722 -1.13387 -1.13387
-0.283816 -1.10744 -1.10744
-0.287258 -1.13482 -1.13482
-0.337826 -1.16371 -1.16371
-0.345732 -1.21998 -1.21998
-0.249467 -1.21792 -1.21792
-0.243639 -1.16158 -1.16158
-0.341781 -1.19169 -1.19169
-0.297564 -1.21882 -1.21882
-0.246553 -1.1896 -1.1896
-0.290697 -1.16251 -1.16251
-0.294132 -1.19051 -1.19051
-0.345732 -1.21998 -1.21998
-0.35362 -1.27748 -1.27748
-0.255289 -1.27548 -1.27548
-0.249467 -1.21792 -1.21792
-0.349678 -1.24858 -1.24858
-0.304419 -1.27635 -1.27635
-0.252379 -1.24655 -1.24655
-0.297564 -1.21882 -1.21882
-0.300993 -1.24743 -1.24743
-0.35362 -1.27748 -1.27748
-0.361488 -1.33619 -1.33619
-0.261106 -1.33426 -1.33426
-0.255289 -1.27548 -1.27548
-0.357556 -1.30668 -1.30668
-0.311261 -1.3351 -1.3351
-0.258198 -1.30472 -1.30472
-0.304419 -1.27635 -1.27635
-0.307841 -1.30557 -1.30557
-0.361488 -1.33619 -1.33619
-0.369338 -1.39611 -1.39611
-0.266918 -1.39425 -1.39425
-0.261106 -1.33426 -1.33426
-0.365415 -1.366 -1.366
-0.318092 -1.39506 -1.39506
-0.264012 -1.36411 -1.36411
-0.311261 -1.3351 -1.3351
-0.314678 -1.36493 -1.36493
-0.369338 -1.39611 -1.39611
-0.37717 -1.45724 -1.45724
-0.272725 -1.45545 -1.45545
-0.266918 -1.39425 -1.39425
-0.373256 -1.42652 -1.42652
-0.324912 -1.45621 -1.45621
-0.269822 -1.4247 -1.4247
-0.318092 -1.39506 -1.39506
-0.321503 -1.42548 -1.42548
-0.37717 -1.45724 -1.45724
-0.384985 -1.51955 -1.51955
-0.278528 -1.51783 -1.51783
-0.272725 -1.45545 -1.45545
-0.38108 -1.48824 -1.48824
-0.33172 -1.51856 -1.51856
-0.275627 -1.48649 -1.48649
-0.324912 -1.45621 -1.45621
-0.328317 -1.48724 -1.48724
-0.384985 -1.51955 -1.51955
-0.392782 -1.58305 -1.58305
-0.284327 -1.5814 -1.5814
-0.278528 -1.51783 -1.51783
-0.388886 -1.55115 -1.55115
-0.338518 -1.5821 -1.5821
-0.281428 -1.54947 -1.54947
-0.33172 -1.51856 -1.51856
-0.335121 -1.55018 -1.55018
-0.392782 -1.58305 -1.58305
-0.400563 -1.64773 -1.64773
-0.290122 -1.64615 -1.64615
-0.284327 -1.5814 -1.5814
-0.396674 -1.61524 -1.61524
-0.345306 -1.64681 -1.64681
-0.287225 -1.61363 -1.61363
-0.338518 -1.5821 -1.5821
-0.341914 -1.61431 -1.61431
-0.400563 -1.64773 -1.64773
-0.408326 -1.71357 -1.71357
-0.295914 -1.71206 -1.71206
-0.290122 -1.64615 -1.64615
-0.404447 -1.6805 -1.6805
-0.352084 -1.71269 -1.71269
-0.293018 -1.67896 -1.67896
-0.345306 -1.64681 -1.64681
-0.348696 -1.67961 -1.67961
-0.408326 -1.71357 -1.71357
-0.416074 -1.78058 -1.78058
-0.301703 -1.77914 -1.77914
-0.295914 -1.71206 -1.71206
-0.412202 -1.74693 -1.74693
-0.358853 -1.77974 -1.77974
-0.298809 -1.74546 -1.74546
-0.352084 -1.71269 -1.71269
-0.35547 -1.74607 -1.74607
-0.416074 -1.78058 -1.78058
-0.423806 -1.84874 -1.84874
-0.30749 -1.84737 -1.84737
-0.301703 -1.77914 -1.77914
-0.419942 -1.81451 -1.81451
-0.365612 -1.84793 -1.84793
-0.304597 -1.81311 -1.81311
-0.358853 -1.77974 -1.77974
-0.362233 -1.81369 -1.81369
-0.423806 -1.84874 -1.84874
-0.431522 -1.91804 -1.91804
-0.313275 -1.91675 -1.91675
-0.30749 -1.84737 -1.84737
-0.427666 -1.88325 -1.88325
-0.372362 -1.91728 -1.91728
-0.310383 -1.88192 -1.88192
-0.365612 -1.84793 -1.84793
-0.368988 -1.88246 -1.88246
-0.431522 -1.91804 -1.91804
-0.439223 -1.98849 -1.98849
-0.319057 -1.98727 -1.98727
-0.313275 -1.91675 -1.91675
-0.435374 -1.95312 -1.95312
-0.379104 -1.98776 -1.98776
-0.316166 -1.95187 -1.95187
-0.372362 -1.91728 -1.91728
-0.375734 -1.95238 -1.95238
-0.439223 -1.98849 -1.98849
-0.446909 -2.06006 -2.06006
-0.324838 -2.05892 -2.05892
-0.319057 -1.98727 -1.98727
-0.443068 -2.02413 -2.02413
-0.385837 -2.05937 -2.05937
-0.321948 -2.02295 -2.02295
-0.379104 -1.98776 -1.98776
-0.382472 -2.02342 -2.02342
-0.446909 -2.06006 -2.06006
-0.45458 -2.13276 -2.13276
-0.330618 -2.13169 -2.13169
-0.324838 -2.05892 -2.05892
-0.450746 -2.09627 -2.09627
-0.392563 -2.1321 -2.1321
-0.327728 -2.09516 -2.09516
-0.385837 -2.05937 -2.05937
-0.389201 -2.0956 -2.0956
-0.45458 -2.13276 -2.13276
-0.462237 -2.20657 -2.20657
-0.336396 -2.20557 -2.20557
-0.330618 -2.13169 -2.13169
-0.45841 -2.16952 -2.16952
-0.39928 -2.20595 -2.20595
-0.333507 -2.16849 -2.16849
-0.392563 -2.1321 -2.1321
-0.395923 -2.16889 -2.16889
-0.462237 -2.20657 -2.20657
-0.46988 -2.28148 -2.28148
-0.342174 -2.28056 -2.28056
-0.336396 -2.20557 -2.20557
-0.46606 -2.24389 -2.24389
-0.405991 -2.28091 -2.28091
-0.339285 -2.24293 -2.24293
-0.39928 -2.20595 -2.20595
-0.402636 -2.24329 -2.24329
-0.46988 -2.28148 -2.28148
-0.477508 -2.3575 -2.3575
-0.347951 -2.35666 -2.35666
-0.342174 -2.28056 -2.28056
-0.473696 -2.31935 -2.31935
-0.412693 -2.35696 -2.35696
-0.345062 -2.31847 -2.31847
-0.405991 -2.28091 -2.28091
-0.409343 -2.3188 -2.3188
-0.477508 -2.3575 -2.3575
-0.485123 -2.4346 -2.4346
-0.353728 -2.43384 -2.43384
-0.347951 -2.35666 -2.35666
-0.481318 -2.39591 -2.39591
-0.419389 -2.43411 -2.43411
-0.350839 -2.39511 -2.39511
-0.412693 -2.35696 -2.35696
-0.416042 -2.3954 -2.3954
-0.485123 -2.4346 -2.4346
-0.492725 -2.51279 -2.51279
-0.359504 -2.5121 -2.5121
-0.353728 -2.43384 -2.43384
-0.488926 -2.47356 -2.47356
-0.426078 -2.51233 -2.51233
-0.356616 -2.47284 -2.47284
-0.419389 -2.43411 -2.43411
-0.422735 -2.47308 -2.47308
-0.492725 -2.51279 -2.51279
-0.500313 -2.59206 -2.59206
-0.365281 -2.59145 -2.59145
-0.359504 -2.5121 -2.5121
-0.496521 -2.55229 -2.55229
-0.432761 -2.59164 -2.59164
-0.362393 -2.55164 -2.55164
-0.426078 -2.51233 -2.51233
-0.42942 -2.55185 -2.55185
-0.500313 -2.59206 -2.59206
-0.507889 -2.67239 -2.67239
-0.371058 -2.67185 -2.67185
-0.365281 -2.59145 -2.59145
-0.504103 -2.63209 -2.63209
-0.439437 -2.67201 -2.67201
-0.368169 -2.63152 -2.63152
-0.432761 -2.59164 -2.59164
-0.4361 -2.63169 -2.63169
-0.507889 -2.67239 -2.67239
-0.515451 -2.75378 -2.75378
-0.376836 -2.75332 -2.75332
-0.371058 -2.67185 -2.67185
-0.511672 -2.71295 -2.71295
-0.446107 -2.75344 -2.75344
-0.373947 -2.71246 -2.71246
-0.439437 -2.67201 -2.67201
-0.442773 -2.71259 -2.71259
-0.515451 -2.75378 -2.75378
-0.523001 -2.83623 -2.83623
-0.382614 -2.83585 -2.83585
-0.376836 -2.75332 -2.75332
-0.519228 -2.79487 -2.79487
-0.452771 -2.83592 -2.83592
-0.379725 -2.79445 -2.79445
-0.446107 -2.75344 -2.75344
-0.44944 -2.79455 -2.79455
-0.523001 -2.83623 -2.83623
-0.530539 -2.91971 -2.91971
-0.388393 -2.91941 -2.91941
-0.382614 -2.83585 -2.83585
-0.526772 -2.87784 -2.87784
-0.459429 -2.91945 -2.91945
-0.385503 -2.8775 -2.8775
-0.452771 -2.83592 -2.83592
-0.456101 -2.87756 -2.87756
-0.530539 -2.91971 -2.91971
-0.538064 -3.00424 -3.00424
-0.394173 -3.00401 -3.00401
-0.388393 -2.91941 -2.91941
-0.534303 -2.96185 -2.96185
-0.466082 -3.00402 -3.00402
-0.391283 -2.96158 -2.96158
-0.459429 -2.91945 -2.91945
-0.462756 -2.9616 -2.9616
-0.538064 -3.00424 -3.00424
-0.545577 -3.08979 -3.08979
-0.399954 -3.08964 -3.08964
-0.394173 -3.00401 -3.00401
-0.541822 -3.04689 -3.04689
-0.472729 -3.08961 -3.08961
-0.397063 -3.0467 -3.0467
-0.466082 -3.00402 -3.00402
-0.469406 -3.04668 -3.04668
-0.545577 -3.08979 -3.08979
-0.553078 -3.17636 -3.17636
-0.405737 -3.1763 -3.1763
-0.399954 -3.08964 -3.08964
-0.549329 -3.13295 -3.13295
-0.479371 -3.17622 -3.17622
-0.402846 -3.13284 -3.13284
-0.472729 -3.08961 -3.08961
-0.476051 -3.13279 -3.13279
-0.553078 -3.17636 -3.17636
-0.560567 -3.26395 -3.26395
-0.411521 -3.26396 -3.26396
-0.405737 -3.1763 -3.1763
-0.556824 -3.22003 -3.22003
-0.486008 -3.26385 -3.26385
-0.408629 -3.22 -3.22
-0.479371 -3.17622 -3.17622
-0.48269 -3.21991 -3.21991
-0.560567 -3.26395 -3.26395
-0.568045 -3.35254 -3.35254
-0.417307 -3.35263 -3.35263
-0.411521 -3.26396 -3.26396
-0.564308 -3.30812 -3.30812
-0.49264 -3.35248 -3.35248
-0.414414 -3.30817 -3.30817
-0.486008 -3.26385 -3.26385
-0.489324 -3.30804 -3.30804
-0.568045 -3.35254 -3.35254
-0.575511 -3.44213 -3.44213
-0.423095 -3.4423 -3.4423
-0.417307 -3.35263 -3.35263
-0.57178 -3.39721 -3.39721
-0.499266 -3.44211 -3.44211
-0.420201 -3.39734 -3.39734
-0.49264 -3.35248 -3.35248
-0.495954 -3.39717 -3.39717
-0.575511 -3.44213 -3.44213
-0.582966 -3.5327 -3.5327
-0.428884 -3.53295 -3.53295
-0.423095 -3.4423 -3.4423
-0.57924 -3.48729 -3.48729
-0.505889 -3.53272 -3.53272
-0.425989 -3.4875 -3.4875
-0.499266 -3.44211 -3.44211
-0.502578 -3.48729 -3.48729
-0.582966 -3.5327 -3.5327
-0.590409 -3.62426 -3.62426
-0.434676 -3.62459 -3.62459
-0.428884 -3.53295 -3.53295
-0.586689 -3.57836 -3.57836
-0.512506 -3.62432 -3.62432
-0.43178 -3.57865 -3.57865
-0.505889 -3.53272 -3.53272
-0.509198 -3.5784 -3.5784
-0.590409 -3.62426 -3.62426
-0.597841 -3.71679 -3.71679
-0.440469 -3.7172 -3.7172
-0.434676 -3.62459 -3.62459
-0.594126 -3.6704 -3.6704
-0.519119 -3.7169 -3.7169
-0.437572 -3.67078 -3.67078
-0.512506 -3.62432 -3.62432
-0.515813 -3.67049 -3.67049
-0.597841 -3.71679 -3.71679
-0.605262 -3.81029 -3.81029
-0.446265 -3.81078 -3.81078
-0.440469 -3.7172 -3.7172
-0.601553 -3.76342 -3.76342
-0.525727 -3.81043 -3.81043
-0.443367 -3.76387 -3.76387
-0.519119 -3.7169 -3.7169
-0.522423 -3.76354 -3.76354
-0.605262 -3.81029 -3.81029
-0.612671 -3.90474 -3.90474
-0.452063 -3.90532 -3.90532
-0.446265 -3.81078 -3.81078
-0.608968 -3.8574 -3.8574
-0.532331 -3.90493 -3.90493
-0.449164 -3.85793 -3.85793
-0.525727 -3.81043 -3.81043
-0.529029 -3.85756 -3.85756
-0.612671 -3.90474 -3.90474
-0.62007 -4.00015 -4.00015
-0.457863 -4.0008 -4.0008
-0.452063 -3.90532 -3.90532
-0.616372 -3.95233 -3.95233
-0.53893 -4.00038 -4.00038
-0.454963 -3.95294 -3.95294
-0.532331 -3.90493 -3.90493
-0.535631 -3.95254 -3.95254
-0.62007 -4.00015 -4.00015
-0.627458 -4.0965 -4.0965
-0.463666 -4.09723 -4.09723
-0.457863 -4.0008 -4.0008
-0.623765 -4.04821 -4.04821
-0.545525 -4.09677 -4.09677
-0.460764 -4.0489 -4.0489
-0.53893 -4.00038 -4.00038
-0.542228 -4.04845 -4.04845
-0.627458 -4.0965 -4.0965
-0.634835 -4.19378 -4.19378
-0.469471 -4.19459 -4.19459
-0.463666 -4.09723 -4.09723
-0.631148 -4.14502 -4.14502
-0.552116 -4.19409 -4.19409
-0.466568 -4.1458 -4.1458
-0.545525 -4.09677 -4.09677
-0.548821 -4.14531 -4.14531
-0.634835 -4.19378 -4.19378
-0.642201 -4.29199 -4.29199
-0.475278 -4.29288 -4.29288
-0.469471 -4.19459 -4.19459
-0.638519 -4.24277 -4.24277
-0.558703 -4.29234 -4.29234
-0.472374 -4.24362 -4.24362
-0.552116 -4.19409 -4.19409
-0.55541 -4.2431 -4.2431
-0.642201 -4.29199 -4.29199
-0.649556 -4.39112 -4.39112
-0.481088 -4.39209 -4.39209
-0.475278 -4.29288 -4.29288
-0.64588 -4.34144 -4.34144
-0.565285 -4.39151 -4.39151
-0.478183 -4.34237 -4.34237
-0.558703 -4.29234 -4.29234
-0.561995 -4.34181 -4.34181
-0.649556 -4.39112 -4.39112
-0.6569 -4.49116 -4.49116
-0.4869 -4.49221 -4.49221
-0.481088 -4.39209 -4.39209
-0.653229 -4.44102 -4.44102
-0.571864 -4.49159 -4.49159
-0.483994 -4.44204 -4.44204
-0.565285 -4.39151 -4.39151
-0.568575 -4.44144 -4.44144
-0.6569 -4.49116 -4.49116
-0.664234 -4.5921 -4.5921
-0.492715 -4.59324 -4.59324
-0.4869 -4.49221 -4.49221
-0.660568 -4.54152 -4.54152
-0.578438 -4.59257 -4.59257
-0.489807 -4.54261 -4.54261
-0.571864 -4.49159 -4.49159
-0.575151 -4.54197 -4.54197
-0.664234 -4.5921 -4.5921
-0.671556 -4.69394 -4.69394
-0.498533 -4.69515 -4.69515
-0.492715 -4.59324 -4.59324
-0.667896 -4.64291 -4.64291
-0.585008 -4.69445 -4.69445
-0.495624 -4.64408 -4.64408
-0.578438 -4.59257 -4.59257
-0.581724 -4.6434 -4.6434
-0.671556 -4.69394 -4.69394
-0.678868 -4.79666 -4.79666
-0.504353 -4.79796 -4.79796
-0.498533 -4.69515 -4.69515
-0.675214 -4.74519 -4.74519
-0.591574 -4.79722 -4.79722
-0.501442 -4.74645 -4.74645
-0.585008 -4.69445 -4.69445
-0.588292 -4.74572 -4.74572
-0.678868 -4.79666 -4.79666
-0.68617 -4.90027 -4.90027
-0.510175 -4.90165 -4.90165
-0.504353 -4.79796 -4.79796
-0.68252 -4.84836 -4.84836
-0.598136 -4.90086 -4.90086
-0.507264 -4.84969 -4.84969
-0.591574 -4.79722 -4.79722
-0.594855 -4.84893 -4.84893
-0.68617 -4.90027 -4.90027
-0.69346 -5.00474 -5.00474
-0.516 -5.0062 -5.0062
-0.510175 -4.90165 -4.90165
-0.689816 -4.9524 -4.9524
-0.604694 -5.00538 -5.00538
-0.513087 -4.95382 -4.95382
-0.598136 -4.90086 -4.90086
-0.601415 -4.95301 -4.95301
-0.69346 -5.00474 -5.00474
-0.70074 -5.11009 -5.11009
-0.521828 -5.11162 -5.11162
-0.516 -5.0062 -5.0062
-0.697101 -5.05731 -5.05731
-0.611247 -5.11076 -5.11076
-0.518914 -5.05881 -5.05881
-0.604694 -5.00538 -5.00538
-0.607971 -5.05797 -5.05797
-0.70074 -5.11009 -5.11009
-0.708008 -5.21628 -5.21628
-0.527658 -5.2179 -5.2179
-0.521828 -5.11162 -5.11162
-0.704375 -5.16308 -5.16308
-0.617796 -5.217 -5.217
-0.524742 -5.16466 -5.16466
-0.611247 -5.11076 -5.11076
-0.614522 -5.16378 -5.16378
-0.708008 -5.21628 -5.21628
-0.715266 -5.32333 -5.32333
-0.53349 -5.32503 -5.32503
-0.527658 -5.2179 -5.2179
-0.711638 -5.2697 -5.2697
-0.624342 -5.32409 -5.32409
-0.530574 -5.27136 -5.27136
-0.617796 -5.217 -5.217
-0.62107 -5.27044 -5.27044
-0.715266 -5.32333 -5.32333
-0.722513 -5.43121 -5.43121
-0.539325 -5.433 -5.433
-0.53349 -5.32503 -5.32503
-0.718891 -5.37717 -5.37717
-0.630882 -5.43202 -5.43202
-0.536407 -5.37891 -5.37891
-0.624342 -5.32409 -5.32409
-0.627612 -5.37795 -5.37795
-0.722513 -5.43121 -5.43121
-0.729749 -5.53993 -5.53993
-0.545162 -5.54179 -5.54179
-0.539325 -5.433 -5.433
-0.726132 -5.48547 -5.48547
-0.637419 -5.54078 -5.54078
-0.542243 -5.48729 -5.48729
-0.630882 -5.43202 -5.43202
-0.634151 -5.48629 -5.48629
-0.729749 -5.53993 -5.53993
-0.736973 -5.64948 -5.64948
-0.551001 -5.65142 -5.65142
-0.545162 -5.54179 -5.54179
-0.733362 -5.5946 -5.5946
-0.643951 -5.65036 -5.65036
-0.548081 -5.5965 -5.5965
-0.637419 -5.54078 -5.54078
-0.640685 -5.59547 -5.59547
-0.736973 -5.64948 -5.64948
-0.744187 -5.75984 -5.75984
-0.556842 -5.76186 -5.76186
-0.551001 -5.65142 -5.65142
-0.740582 -5.70456 -5.70456
-0.650478 -5.76076 -5.76076
-0.553922 -5.70654 -5.70654
-0.643951 -5.65036 -5.65036
-0.647215 -5.70546 -5.70546
-0.744187 -5.75984 -5.75984
-0.751389 -5.87101 -5.87101
-0.562686 -5.87311 -5.87311
-0.556842 -5.76186 -5.76186
-0.74779 -5.81532 -5.81532
-0.657001 -5.87198 -5.87198
-0.559764 -5.81738 -5.81738
-0.650478 -5.76076 -5.76076
-0.65374 -5.81627 -5.81627
-0.751389 -5.87101 -5.87101
-0.75858 -5.98298 -5.98298
-0.568531 -5.98516 -5.98516
-0.562686 -5.87311 -5.87311
-0.754986 -5.9269 -5.9269
-0.66352 -5.98399 -5.98399
-0.565609 -5.92904 -5.92904
-0.657001 -5.87198 -5.87198
-0.660261 -5.92788 -5.92788
-0.75858 -5.98298 -5.98298
-0.76576 -6.09575 -6.09575
-0.574379 -6.09801 -6.09801
-0.568531 -5.98516 -5.98516
-0.762172 -6.03927 -6.03927
-0.670033 -6.09679 -6.09679
-0.571455 -6.04149 -6.04149
-0.66352 -5.98399 -5.98399
-0.666777 -6.04029 -6.04029
-0.76576 -6.09575 -6.09575
-0.772928 -6.2093 -6.2093
-0.580228 -6.21164 -6.21164
-0.574379 -6.09801 -6.09801
-0.769346 -6.15243 -6.15243
-0.676542 -6.21039 -6.21039
-0.577303 -6.15472 -6.15472
-0.670033 -6.09679 -6.09679
-0.673288 -6.15349 -6.15349
-0.772928 -6.2093 -6.2093
-0.780085 -6.32363 -6.32363
-0.586079 -6.32605 -6.32605
-0.580228 -6.21164 -6.21164
-0.776508 -6.26637 -6.26637
-0.683046 -6.32476 -6.32476
-0.583153 -6.26875 -6.26875
-0.676542 -6.21039 -6.21039
-0.679794 -6.26747 -6.26747
-0.780085 -6.32363 -6.32363
-0.78723 -6.43873 -6.43873
-0.591932 -6.44123 -6.44123
-0.586079 -6.32605 -6.32605
-0.783659 -6.38108 -6.38108
-0.689544 -6.4399 -6.4399
-0.589005 -6.38354 -6.38354
-0.683046 -6.32476 -6.32476
-0.686296 -6.38223 -6.38223
-0.78723 -6.43873 -6.43873
-0.794363 -6.55459 -6.55459
-0.597785 -6.55717 -6.55717
-0.591932 -6.44123 -6.44123
-0.790798 -6.49656 -6.49656
-0.696038 -6.5558 -6.5558
-0.594858 -6.4991 -6.4991
-0.689544 -6.4399 -6.4399
-0.692792 -6.49775 -6.49775
-0.794363 -6.55459 -6.55459
-0.801484 -6.67121 -6.67121
-0.603641 -6.67386 -6.67386
-0.597785 -6.55717 -6.55717
-0.797925 -6.61281 -6.61281
-0.702526 -6.67246 -6.67246
-0.600713 -6.61542 -6.61542
-0.696038 -6.5558 -6.5558
-0.699282 -6.61403 -6.61403
-0.801484 -6.67121 -6.67121
-0.808593 -6.78857 -6.78857
-0.609497 -6.7913 -6.7913
-0.603641 -6.67386 -6.67386
-0.80504 -6.7298 -6.7298
-0.709009 -6.78986 -6.78986
-0.606569 -6.73249 -6.73249
-0.702526 -6.67246 -6.67246
-0.705768 -6.73107 -6.73107
-0.808593 -6.78857 -6.78857
-0.815689 -6.90667 -6.90667
-0.615355 -6.90948 -6.90948
-0.609497 -6.7913 -6.7913
-0.812142 -6.84753 -6.84753
-0.715486 -6.908 -6.908
-0.612426 -6.8503 -6.8503
-0.709009 -6.78986 -6.78986
-0.712248 -6.84884 -6.84884
-0.815689 -6.90667 -6.90667
-0.822773 -7.02551 -7.02551
-0.621213 -7.0284 -7.0284
-0.615355 -6.90948 -6.90948
-0.819233 -6.966 -6.966
-0.721957 -7.02688 -7.02688
-0.618284 -6.96885 -6.96885
-0.715486 -6.908 -6.908
-0.718722 -6.96735 -6.96735
-0.822773 -7.02551 -7.02551
-0.829845 -7.14506 -7.14506
-0.627072 -7.14803 -7.14803
-0.621213 -7.0284 -7.0284
-0.826311 -7.0852 -7.0852
-0.728422 -7.14647 -7.14647
-0.624142 -7.08812 -7.08812
-0.721957 -7.02688 -7.02688
-0.72519 -7.08658 -7.08658
-0.829845 -7.14506 -7.14506
-0.836904 -7.26534 -7.26534
-0.632932 -7.26838 -7.26838
-0.627072 -7.14803 -7.14803
-0.833376 -7.20511 -7.20511
-0.734882 -7.26678 -7.26678
-0.630002 -7.20812 -7.20812
-0.728422 -7.14647 -7.14647
-0.731653 -7.20654 -7.20654
-0.836904 -7.26534 -7.26534
-0.84395 -7.38632 -7.38632
-0.638792 -7.38944 -7.38944
-0.632932 -7.26838 -7.26838
-0.840429 -7.32574 -7.32574
-0.741335 -7.3878 -7.3878
-0.635862 -7.32882 -7.32882
-0.734882 -7.26678 -7.26678
-0.738109 -7.3272 -7.3272
-0.84395 -7.38632 -7.38632
-0.850983 -7.508 -7.508
-0.644652 -7.51119 -7.51119
-0.638792 -7.38944 -7.38944
-0.847468 -7.44707 -7.44707
-0.747781 -7.50952 -7.50952
-0.641722 -7.45023 -7.45023
-0.741335 -7.3878 -7.3878
-0.744559 -7.44857 -7.44857
-0.850983 -7.508 -7.508
-0.858003 -7.63037 -7.63037
-0.650512 -7.63364 -7.63364
-0.644652 -7.51119 -7.51119
-0.854495 -7.5691 -7.5691
-0.754221 -7.63193 -7.63193
-0.647582 -7.57233 -7.57233
-0.747781 -7.50952 -7.50952
-0.751002 -7.57064 -7.57064
-0.858003 -7.63037 -7.63037
-0.865009 -7.75342 -7.75342
-0.656372 -7.75677 -7.75677
-0.650512 -7.63364 -7.63364
-0.861508 -7.69181 -7.69181
-0.760655 -7.75503 -7.75503
-0.653442 -7.69512 -7.69512
-0.754221 -7.63193 -7.63193
-0.757439 -7.69339 -7.69339
-0.865009 -7.75342 -7.75342
-0.872002 -7.87715 -7.87715
-0.662232 -7.88058 -7.88058
-0.656372 -7.75677 -7.75677
-0.868507 -7.8152 -7.8152
-0.767081 -7.8788 -7.8788
-0.659302 -7.81859 -7.81859
-0.760655 -7.75503 -7.75503
-0.763869 -7.81683 -7.81683
-0.872002 -7.87715 -7.87715
-0.87898 -8.00156 -8.00156
-0.668091 -8.00505 -8.00505
-0.662232 -7.88058 -7.88058
-0.875493 -7.93927 -7.93927
-0.7735 -8.00324 -8.00324
-0.665162 -7.94273 -7.94273
-0.767081 -7.8788 -7.8788
-0.770291 -7.94093 -7.94093
-0.87898 -8.00156 -8.00156
-0.885945 -8.12662 -8.12662
-0.67395 -8.13019 -8.13019
-0.668091 -8.00505 -8.00505
-0.882464 -8.064 -8.064
-0.779911 -8.12834 -8.12834
-0.671021 -8.06754 -8.06754
-0.7735 -8.00324 -8.00324
-0.776706 -8.0657 -8.0657
-0.885945 -8.12662 -8.12662
-0.892895 -8.25233 -8.25233
-0.679807 -8.25598 -8.25598
-0.67395 -8.13019 -8.13019
-0.889422 -8.18939 -8.18939
-0.786315 -8.25409 -8.25409
-0.676879 -8.193 -8.193
-0.779911 -8.12834 -8.12834
-0.783114 -8.19113 -8.19113
-0.892895 -8.25233 -8.25233
-0.899831 -8.37869 -8.37869
-0.685664 -8.38241 -8.38241
-0.679807 -8.25598 -8.25598
-0.896365 -8.31543 -8.31543
-0.792711 -8.38048 -8.38048
-0.682736 -8.31912 -8.31912
-0.786315 -8.25409 -8.25409
-0.789514 -8.31721 -8.31721
-0.899831 -8.37869 -8.37869
-0.906752 -8.50569 -8.50569
-0.691518 -8.50948 -8.50948
-0.685664 -8.38241 -8.38241
-0.903294 -8.44211 -8.44211
-0.799099 -8.50752 -8.50752
-0.688591 -8.44587 -8.44587
-0.792711 -8.38048 -8.38048
-0.795906 -8.44392 -8.44392
-0.906752 -8.50569 -8.50569
-0.913659 -8.63331 -8.63331
-0.697371 -8.63718 -8.63718
-0.691518 -8.50948 -8.50948
-0.910207 -8.56942 -8.56942
-0.805479 -8.63518 -8.63518
-0.694445 -8.57325 -8.57325
-0.799099 -8.50752 -8.50752
-0.80229 -8.57127 -8.57127
-0.913659 -8.63331 -8.63331
-0.92055 -8.76156 -8.76156
-0.703223 -8.7655 -8.7655
-0.697371 -8.63718 -8.63718
-0.917106 -8.69736 -8.69736
-0.81185 -8.76347 -8.76347
-0.700297 -8.70126 -8.70126
-0.805479 -8.63518 -8.63518
-0.808666 -8.69925 -8.69925
-0.92055 -8.76156 -8.76156
-0.927425 -8.89042 -8.89042
-0.709072 -8.89443 -8.89443
-0.703223 -8.7655 -8.7655
-0.923989 -8.82591 -8.82591
-0.818212 -8.89236 -8.89236
-0.706148 -8.82989 -8.82989
-0.81185 -8.76347 -8.76347
-0.815032 -8.82784 -8.82784
-0.927425 -8.89042 -8.89042
-0.934285 -9.01989 -9.01989
-0.714918 -9.02397 -9.02397
-0.709072 -8.89443 -8.89443
-0.930857 -8.95508 -8.95508
-0.824566 -9.02187 -9.02187
-0.711995 -8.95913 -8.95913
-0.818212 -8.89236 -8.89236
-0.82139 -8.95704 -8.95704
-0.934285 -9.01989 -9.01989
-0.941129 -9.14995 -9.14995
-0.720762 -9.15411 -9.15411
-0.714918 -9.02397 -9.02397
-0.937709 -9.08484 -9.08484
-0.83091 -9.15197 -9.15197
-0.717841 -9.08897 -9.08897
-0.824566 -9.02187 -9.02187
-0.827739 -9.08684 -9.08684
-0.941129 -9.14995 -9.14995
-0.947957 -9.28061 -9.28061
-0.726603 -9.28484 -9.28484
-0.720762 -9.15411 -9.15411
-0.944545 -9.21521 -9.21521
-0.837244 -9.28266 -9.28266
-0.723683 -9.2194 -9.2194
-0.83091 -9.15197 -9.15197
-0.834078 -9.21724 -9.21724
-0.947957 -9.28061 -9.28061
-0.954768 -9.41184 -9.41184
-0.732441 -9.41614 -9.41614
-0.726603 -9.28484 -9.28484
-0.951364 -9.34615 -9.34615
-0.843569 -9.41393 -9.41393
-0.729523 -9.35042 -9.35042
-0.837244 -9.28266 -9.28266
-0.840408 -9.34822 -9.34822
-0.954768 -9.41184 -9.41184
-0.961562 -9.54366 -9.54366
-0.738276 -9.54803 -9.54803
-0.732441 -9.41614 -9.41614
-0.958167 -9.47768 -9.47768
-0.849883 -9.54578 -9.54578
-0.735359 -9.48201 -9.48201
-0.843569 -9.41393 -9.41393
-0.846727 -9.47979 -9.47979
-0.961562 -9.54366 -9.54366
-0.96834 -9.67603 -9.67603
-0.744106 -9.68047 -9.68047
-0.738276 -9.54803 -9.54803
-0.964953 -9.60977 -9.60977
-0.856187 -9.6782 -9.6782
-0.741191 -9.61418 -9.61418
-0.849883 -9.54578 -9.54578
-0.853037 -9.61192 -9.61192
-0.96834 -9.67603 -9.67603
-0.9751 -9.80897 -9.80897
-0.749933 -9.81348 -9.81348
-0.744106 -9.68047 -9.68047
-0.971722 -9.74243 -9.74243
-0.862481 -9.81117 -9.81117
-0.74702 -9.74691 -9.74691
-0.856187 -9.6782 -9.6782
-0.859335 -9.74461 -9.74461
-0.9751 -9.80897 -9.80897
-0.981842 -9.94246 -9.94246
-0.755755 -9.94704 -9.94704
-0.749933 -9.81348 -9.81348
-0.978473 -9.87565 -9.87565
-0.868763 -9.94469 -9.94469
-0.752845 -9.88019 -9.88019
-0.862481 -9.81117 -9.81117
-0.865623 -9.87786 -9.87786
-0.981842 -9.94246 -9.94246
-0.988567 -10.0765 -10.0765
-0.761573 -10.0811 -10.0811
-0.755755 -9.94704 -9.94704
-0.985207 -10.0094 -10.0094
-0.875034 -10.0788 -10.0788
-0.758665 -10.014 -10.014
-0.868763 -9.94469 -9.94469
-0.8719 -10.0117 -10.0117
-0.988567 -10.0765 -10.0765
-0.995273 -10.2111 -10.2111
-0.767386 -10.2158 -10.2158
-0.761573 -10.0811 -10.0811
-0.991922 -10.1437 -10.1437
-0.881294 -10.2134 -10.2134
-0.76448 -10.1484 -10.1484
-0.875034 -10.0788 -10.0788
-0.878166 -10.146 -10.146
-0.995273 -10.2111 -10.2111
-1.00196 -10.3462 -10.3462
-0.773193 -10.3509 -10.3509
-0.767386 -10.2158 -10.2158
-0.99862 -10.2785 -10.2785
-0.887542 -10.3485 -10.3485
-0.77029 -10.2833 -10.2833
-0.881294 -10.2134 -10.2134
-0.884419 -10.2809 -10.2809
-1.00196 -10.3462 -10.3462
-1.00863 -10.4818 -10.4818
-0.778995 -10.4866 -10.4866
-0.773193 -10.3509 -10.3509
-1.0053 -10.4139 -10.4139
-0.893777 -10.4841 -10.4841
-0.776095 -10.4187 -10.4187
-0.887542 -10.3485 -10.3485
-0.890661 -10.4163 -10.4163
-1.00863 -10.4818 -10.4818
-1.01528 -10.6179 -10.6179
-0.784791 -10.6228 -10.6228
-0.778995 -10.4866 -10.4866
-1.01196 -10.5498 -10.5498
-0.9 -10.6203 -10.6203
-0.781894 -10.5547 -10.5547
-0.893777 -10.4841 -10.4841
-0.89689 -10.5522 -10.5522
-1.01528 -10.6179 -10.6179
-1.02191 -10.7545 -10.7545
-0.790581 -10.7595 -10.7595
-0.784791 -10.6228 -10.6228
-1.0186 -10.6862 -10.6862
-0.906211 -10.757 -10.757
-0.787687 -10.6911 -10.6911
-0.9 -10.6203 -10.6203
-0.903107 -10.6886 -10.6886
-1.02191 -10.7545 -10.7545
-1.02852 -10.8917 -10.8917
-0.796365 -10.8967 -10.8967
-0.790581 -10.7595 -10.7595
-1.02522 -10.823 -10.823
-0.912408 -10.8941 -10.8941
-0.793474 -10.828 -10.828
-0.906211 -10.757 -10.757
-0.909311 -10.8255 -10.8255
-1.02852 -10.8917 -10.8917
-1.03511 -11.0293 -11.0293
-0.802141 -11.0344 -11.0344
-0.796365 -10.8967 -10.8967
-1.03182 -10.9604 -10.9604
-0.918592 -11.0318 -11.0318
-0.799254 -10.9655 -10.9655
-0.912408 -10.8941 -10.8941
-0.915501 -10.9629 -10.9629
-1.03511 -11.0293 -11.0293
-1.04168 -11.1674 -11.1674
-0.807911 -11.1725 -11.1725
-0.802141 -11.0344 -11.0344
-1.0384 -11.0983 -11.0983
-0.924762 -11.1699 -11.1699
-0.805027 -11.1034 -11.1034
-0.918592 -11.0318 -11.0318
-0.921678 -11.1008 -11.1008
-1.04168 -11.1674 -11.1674
-1.04823 -11.3059 -11.3059
-0.813673 -11.3112 -11.3112
-0.807911 -11.1725 -11.1725
-1.04496 -11.2366 -11.2366
-0.930917 -11.3085 -11.3085
-0.810793 -11.2418 -11.2418
-0.924762 -11.1699 -11.1699
-0.927841 -11.2391 -11.2391
-1.04823 -11.3059 -11.3059
-1.05476 -11.445 -11.445
-0.819427 -11.4503 -11.4503
-0.813673 -11.3112 -11.3112
-1.0515 -11.3754 -11.3754
-0.937059 -11.4476 -11.4476
-0.816551 -11.3807 -11.3807
-0.930917 -11.3085 -11.3085
-0.93399 -11.378 -11.378
-1.05476 -11.445 -11.445
-1.06127 -11.5845 -11.5845
-0.825173 -11.5898 -11.5898
-0.819427 -11.4503 -11.4503
-1.05802 -11.5147 -11.5147
-0.943185 -11.5871 -11.5871
-0.822301 -11.52 -11.52
-0.937059 -11.4476 -11.4476
-0.940124 -11.5173 -11.5173
-1.06127 -11.5845 -11.5845
-1.06775 -11.7244 -11.7244
-0.830911 -11.7298 -11.7298
-0.825173 -11.5898 -11.5898
-1.06451 -11.6544 -11.6544
-0.949297 -11.7271 -11.7271
-0.828043 -11.6598 -11.6598
-0.943185 -11.5871 -11.5871
-0.946243 -11.657 -11.657
-1.06775 -11.7244 -11.7244
-1.07422 -11.8648 -11.8648
-0.83664 -11.8703 -11.8703
-0.830911 -11.7298 -11.7298
-1.07099 -11.7945 -11.7945
-0.955393 -11.8675 -11.8675
-0.833776 -11.8 -11.8
-0.949297 -11.7271 -11.7271
-0.952347 -11.7972 -11.7972
-1.07422 -11.8648 -11.8648
-1.08066 -12.0056 -12.0056
-0.842359 -12.0111 -12.0111
-0.83664 -11.8703 -11.8703
-1.07744 -11.9351 -11.9351
-0.961473 -12.0083 -12.0083
-0.839501 -11.9407 -11.9407
-0.955393 -11.8675 -11.8675
-0.958435 -11.9379 -11.9379
-1.08066 -12.0056 -12.0056
-1.08707 -12.1468 -12.1468
-0.848069 -12.1524 -12.1524
-0.842359 -12.0111 -12.0111
-1.08387 -12.0762 -12.0762
-0.967537 -12.1496 -12.1496
-0.845215 -12.0817 -12.0817
-0.961473 -12.0083 -12.0083
-0.964507 -12.0789 -12.0789
-1.08707 -12.1468 -12.1468
-1.09347 -12.2885 -12.2885
-0.853769 -12.2942 -12.2942
-0.848069 -12.1524 -12.1524
-1.09027 -12.2176 -12.2176
-0.973584 -12.2913 -12.2913
-0.85092 -12.2233 -12.2233
-0.967537 -12.1496 -12.1496
-0.970562 -12.2204 -12.2204
-1.09347 -12.2885 -12.2885
-1.09984 -12.4306 -12.4306
-0.859458 -12.4363 -12.4363
-0.853769 -12.2942 -12.2942
-1.09666 -12.3595 -12.3595
-0.979614 -12.4334 -12.4334
-0.856615 -12.3652 -12.3652
-0.973584 -12.2913 -12.2913
-0.976601 -12.3623 -12.3623
-1.09984 -12.4306 -12.4306
-1.10619 -12.573 -12.573
-0.865137 -12.5788 -12.5788
-0.859458 -12.4363 -12.4363
-1.10302 -12.5018 -12.5018
-0.985627 -12.5759 -12.5759
-0.862299 -12.5075 -12.5075
-0.979614 -12.4334 -12.4334
-0.982623 -12.5046 -12.5046
-1.10619 -12.573 -12.573
-1.11251 -12.7159 -12.7159
-0.870805 -12.7217 -12.7217
-0.865137 -12.5788 -12.5788
-1.10935 -12.6444 -12.6444
-0.991622 -12.7188 -12.7188
-0.867973 -12.6502 -12.6502
-0.985627 -12.5759 -12.5759
-0.988627 -12.6473 -12.6473
-1.11251 -12.7159 -12.7159
-1.11881 -12.8592 -12.8592
-0.876461 -12.8651 -12.8651
-0.870805 -12.7217 -12.7217
-1.11566 -12.7875 -12.7875
-0.997599 -12.8621 -12.8621
-0.873635 -12.7934 -12.7934
-0.991622 -12.7188 -12.7188
-0.994613 -12.7904 -12.7904
-1.11881 -12.8592 -12.8592
-1.12508 -13.0028 -13.0028
-0.882106 -13.0087 -13.0087
-0.876461 -12.8651 -12.8651
-1.12195 -12.9309 -12.9309
-1.00356 -13.0057 -13.0057
-0.879285 -12.9369 -12.9369
-0.997599 -12.8621 -12.8621
-1.00058 -12.9339 -12.9339
-1.12508 -13.0028 -13.0028
-1.13133 -13.1468 -13.1468
-0.887738 -13.1528 -13.1528
-0.882106 -13.0087 -13.0087
-1.12821 -13.0748 -13.0748
-1.0095 -13.1498 -13.1498
-0.884924 -13.0807 -13.0807
-1.00356 -13.0057 -13.0057
-1.00653 -13.0777 -13.0777
-1.13133 -13.1468 -13.1468
-1.13755 -13.2912 -13.2912
-0.893358 -13.2972 -13.2972
-0.887738 -13.1528 -13.1528
-1.13444 -13.2189 -13.2189
-1.01542 -13.2942 -13.2942
-0.89055 -13.225 -13.225
-1.0095 -13.1498 -13.1498
-1.01246 -13.2219 -13.2219
-1.13755 -13.2912 -13.2912
-1.14374 -13.4359 -13.4359
-0.898964 -13.442 -13.442
-0.893358 -13.2972 -13.2972
-1.14065 -13.3635 -13.3635
-1.02132 -13.4389 -13.4389
-0.896163 -13.3696 -13.3696
-1.01542 -13.2942 -13.2942
-1.01837 -13.3665 -13.3665
-1.14374 -13.4359 -13.4359
-1.14991 -13.581 -13.581
-0.904557 -13.5871 -13.5871
-0.898964 -13.442 -13.442
-1.14683 -13.5084 -13.5084
-1.0272 -13.584 -13.584
-0.901763 -13.5145 -13.5145
-1.02132 -13.4389 -13.4389
-1.02426 -13.5114 -13.5114
-1.14991 -13.581 -13.581
-1.15605 -13.7264 -13.7264
-0.910137 -13.7326 -13.7326
-0.904557 -13.5871 -13.5871
-1.15299 -13.6536 -13.6536
-1.03306 -13.7294 -13.7294
-0.907349 -13.6598 -13.6598
-1.0272 -13.584 -13.584
-1.03013 -13.6567 -13.6567
-1.15605 -13.7264 -13.7264
-1.16217 -13.8721 -13.8721
-0.915702 -13.8784 -13.8784
-0.910137 -13.7326 -13.7326
-1.15911 -13.7992 -13.7992
-1.0389 -13.8752 -13.8752
-0.912921 -13.8054 -13.8054
-1.03306 -13.7294 -13.7294
-1.03598 -13.8023 -13.8023
-1.16217 -13.8721 -13.8721
-1.16825 -14.0182 -14.0182
-0.921252 -14.0245 -14.0245
-0.915702 -13.8784 -13.8784
-1.16521 -13.9451 -13.9451
-1.04472 -14.0213 -14.0213
-0.918479 -13.9514 -13.9514
-1.0389 -13.8752 -13.8752
-1.04181 -13.9482 -13.9482
-1.16825 -14.0182 -14.0182
-1.17431 -14.1646 -14.1646
-0.926788 -14.1709 -14.1709
-0.921252 -14.0245 -14.0245
-1.17129 -14.0913 -14.0913
-1.05051 -14.1677 -14.1677
-0.924022 -14.0977 -14.0977
-1.04472 -14.0213 -14.0213
-1.04762 -14.0945 -14.0945
-1.17431 -14.1646 -14.1646
-1.18034 -14.3113 -14.3113
-0.932308 -14.3177 -14.3177
-0.926788 -14.1709 -14.1709
-1.17733 -14.2379 -14.2379
-1.05629 -14.3144 -14.3144
-0.92955 -14.2443 -14.2443
-1.05051 -14.1677 -14.1677
-1.0534 -14.241 -14.241
-1.18034 -14.3113 -14.3113
-1.18634 -14.4582 -14.4582
-0.937812 -14.4647 -14.4647
-0.932308 -14.3177 -14.3177
-1.18334 -14.3847 -14.3847
-1.06204 -14.4614 -14.4614
-0.935062 -14.3912 -14.3912
-1.05629 -14.3144 -14.3144
-1.05917 -14.3879 -14.3879
-1.18634 -14.4582 -14.4582
-1.19231 -14.6055 -14.6055
-0.9433 -14.612 -14.612
-0.937812 -14.4647 -14.4647
-1.18933 -14.5318 -14.5318
-1.06777 -14.6088 -14.6088
-0.940558 -14.5383 -14.5383
-1.06204 -14.4614 -14.4614
-1.06491 -14.5351 -14.5351
-1.19231 -14.6055 -14.6055
-1.19825 -14.7531 -14.7531
-0.948771 -14.7597 -14.7597
-0.9433 -14.612 -14.612
-1.19528 -14.6793 -14.6793
-1.07348 -14.7563 -14.7563
-0.946037 -14.6858 -14.6858
-1.06777 -14.6088 -14.6088
-1.07063 -14.6825 -14.6825
-1.19825 -14.7531 -14.7531
-1.20416 -14.9009 -14.9009
-0.954225 -14.9076 -14.9076
-0.948771 -14.7597 -14.7597
-1.20121 -14.827 -14.827
-1.07916 -14.9042 -14.9042
-0.9515 -14.8336 -14.8336
-1.07348 -14.7563 -14.7563
-1.07632 -14.8303 -14.8303
-1.20416 -14.9009 -14.9009
-1.21004 -15.0491 -15.0491
-0.959661 -15.0557 -15.0557
-0.954225 -14.9076 -14.9076
-1.2071 -14.975 -14.975
-1.08482 -15.0524 -15.0524
-0.956945 -14.9816 -14.9816
-1.07916 -14.9042 -14.9042
-1.08199 -14.9783 -14.9783
-1.21004 -15.0491 -15.0491
-1.21589 -15.1974 -15.1974
-0.965079 -15.2041 -15.2041
-0.959661 -15.0557 -15.0557
-1.21297 -15.1232 -15.1232
-1.09045 -15.2008 -15.2008
-0.962373 -15.1299 -15.1299
-1.08482 -15.0524 -15.0524
-1.08764 -15.1265 -15.1265
-1.21589 -15.1974 -15.1974
-1.2217 -15.3461 -15.3461
-0.970479 -15.3528 -15.3528
-0.965079 -15.2041 -15.2041
-1.2188 -15.2717 -15.2717
-1.09606 -15.3494 -15.3494
-0.967782 -15.2784 -15.2784
-1.09045 -15.2008 -15.2008
-1.09326 -15.2751 -15.2751
-1.2217 -15.3461 -15.3461
-1.22749 -15.4949 -15.4949
-0.97586 -15.5017 -15.5017
-0.970479 -15.3528 -15.3528
-1.2246 -15.4205 -15.4205
-1.10164 -15.4983 -15.4983
-0.973172 -15.4272 -15.4272
-1.09606 -15.3494 -15.3494
-1.09885 -15.4238 -15.4238
-1.22749 -15.4949 -15.4949
-1.23324 -15.6441 -15.6441
-0.981222 -15.6509 -15.6509
-0.97586 -15.5017 -15.5017
-1.23037 -15.5695 -15.5695
-1.1072 -15.6474 -15.6474
-0.978544 -15.5763 -15.5763
-1.10164 -15.4983 -15.4983
-1.10442 -15.5728 -15.5728
-1.23324 -15.6441 -15.6441
-1.23896 -15.7934 -15.7934
-0.986564 -15.8003 -15.8003
-0.981222 -15.6509 -15.6509
-1.2361 -15.7187 -15.7187
-1.11273 -15.7968 -15.7968
-0.983896 -15.7255 -15.7255
-1.1072 -15.6474 -15.6474
-1.10996 -15.7221 -15.7221
-1.23896 -15.7934 -15.7934
-1.24464 -15.943 -15.943
-0.991886 -15.9499 -15.9499
-0.986564 -15.8003 -15.8003
-1.2418 -15.8682 -15.8682
-1.11823 -15.9464 -15.9464
-0.989228 -15.875 -15.875
-1.11273 -15.7968 -15.7968
-1.11548 -15.8716 -15.8716
-1.24464 -15.943 -15.943
-1.25029 -16.0927 -16.0927
-0.997187 -16.0997 -16.0997
-0.991886 -15.9499 -15.9499
-1.24747 -16.0178 -16.0178
-1.12371 -16.0962 -16.0962
-0.994539 -16.0248 -16.0248
-1.11823 -15.9464 -15.9464
-1.12097 -16.0213 -16.0213
-1.25029 -16.0927 -16.0927
-1.25591 -16.2427 -16.2427
-1.00247 -16.2497 -16.2497
-0.997187 -16.0997 -16.0997
-1.2531 -16.1677 -16.1677
-1.12915 -16.2462 -16.2462
-0.99983 -16.1747 -16.1747
-1.12371 -16.0962 -16.0962
-1.12643 -16.1712 -16.1712
-1.25591 -16.2427 -16.2427
-1.26149 -16.3929 -16.3929
-1.00773 -16.4 -16.4
-1.00247 -16.2497 -16.2497
-1.2587 -16.3178 -16.3178
-1.13457 -16.3964 -16.3964
-1.0051 -16.3248 -16.3248
-1.12915 -16.2462 -16.2462
-1.13187 -16.3213 -16.3213
-1.26149 -16.3929 -16.3929
-1.26704 -16.5433 -16.5433
-1.01296 -16.5504 -16.5504
-1.00773 -16.4 -16.4
-1.26427 -16.4681 -16.4681
-1.13997 -16.5468 -16.5468
-1.01035 -16.4751 -16.4751
-1.13457 -16.3964 -16.3964
-1.13727 -16.4716 -16.4716
-1.26704 -16.5433 -16.5433
-1.27255 -16.6939 -16.6939
-1.01818 -16.701 -16.701
-1.01296 -16.5504 -16.5504
-1.2698 -16.6185 -16.6185
-1.14533 -16.6974 -16.6974
-1.01557 -16.6256 -16.6256
-1.13997 -16.5468 -16.5468
-1.14265 -16.6221 -16.6221
-1.27255 -16.6939 -16.6939
-1.27802 -16.8446 -16.8446
-1.02337 -16.8517 -16.8517
-1.01818 -16.701 -16.701
-1.27529 -16.7692 -16.7692
-1.15066 -16.8481 -16.8481
-1.02078 -16.7763 -16.7763
-1.14533 -16.6974 -16.6974
-1.148 -16.7727 -16.7727
-1.27802 -16.8446 -16.8446
-1.28346 -16.9955 -16.9955
-1.02854 -17.0027 -17.0027
-1.02337 -16.8517 -16.8517
-1.28075 -16.92 -16.92
-1.15597 -16.9991 -16.9991
-1.02596 -16.9272 -16.9272
-1.15066 -16.8481 -16.8481
-1.15332 -16.9236 -16.9236
-1.28346 -16.9955 -16.9955
-1.28886 -17.1466 -17.1466
-1.03368 -17.1538 -17.1538
-1.02854 -17.0027 -17.0027
-1.28617 -17.071 -17.071
-1.16124 -17.1501 -17.1501
-1.03111 -17.0782 -17.0782
-1.15597 -16.9991 -16.9991
-1.15861 -17.0746 -17.0746
-1.28886 -17.1466 -17.1466
-1.29423 -17.2978 -17.2978
-1.0388 -17.305 -17.305
-1.03368 -17.1538 -17.1538
-1.29155 -17.2221 -17.2221
-1.16648 -17.3014 -17.3014
-1.03624 -17.2294 -17.2294
-1.16124 -17.1501 -17.1501
-1.16386 -17.2257 -17.2257
-1.29423 -17.2978 -17.2978
-1.29955 -17.4491 -17.4491
-1.0439 -17.4564 -17.4564
-1.0388 -17.305 -17.305
-1.29689 -17.3734 -17.3734
-1.17169 -17.4528 -17.4528
-1.04135 -17.3807 -17.3807
-1.16648 -17.3014 -17.3014
-1.16909 -17.3771 -17.3771
-1.29955 -17.4491 -17.4491
-1.30484 -17.6006 -17.6006
-1.04897 -17.6079 -17.6079
-1.0439 -17.4564 -17.4564
-1.3022 -17.5249 -17.5249
-1.17687 -17.6043 -17.6043
-1.04643 -17.5322 -17.5322
-1.17169 -17.4528 -17.4528
-1.17428 -17.5285 -17.5285
-1.30484 -17.6006 -17.6006
-1.31009 -17.7522 -17.7522
-1.05401 -17.7596 -17.7596
-1.04897 -17.6079 -17.6079
-1.30747 -17.6764 -17.6764
-1.18202 -17.7559 -17.7559
-1.05149 -17.6838 -17.6838
-1.17687 -17.6043 -17.6043
-1.17945 -17.6801 -17.6801
-1.31009 -17.7522 -17.7522
-1.3153 -17.904 -17.904
-1.05903 -17.9114 -17.9114
-1.05401 -17.7596 -17.7596
-1.3127 -17.8281 -17.8281
-1.18713 -17.9077 -17.9077
-1.05652 -17.8355 -17.8355
-1.18202 -17.7559 -17.7559
-1.18458 -17.8318 -17.8318
-1.3153 -17.904 -17.904
-1.32047 -18.0558 -18.0558
-1.06402 -18.0633 -18.0633
-1.05903 -17.9114 -17.9114
-1.31789 -17.9799 -17.9799
-1.19221 -18.0595 -18.0595
-1.06153 -17.9873 -17.9873
-1.18713 -17.9077 -17.9077
-1.18967 -17.9836 -17.9836
-1.32047 -18.0558 -18.0558
-1.3256 -18.2078 -18.2078
-1.06899 -18.2152 -18.2152
-1.06402 -18.0633 -18.0633
-1.32304 -18.1318 -18.1318
-1.19726 -18.2115 -18.2115
-1.06651 -18.1392 -18.1392
-1.19221 -18.0595 -18.0595
-1.19474 -18.1355 -18.1355
-1.3256 -18.2078 -18.2078
-1.33069 -18.3599 -18.3599
-1.07392 -18.3673 -18.3673
-1.06899 -18.2152 -18.2152
-1.32815 -18.2838 -18.2838
-1.20227 -18.3636 -18.3636
-1.07146 -18.2913 -18.2913
-1.19726 -18.2115 -18.2115
-1.19977 -18.2875 -18.2875
-1.33069 -18.3599 -18.3599
-1.33573 -18.512 -18.512
-1.07883 -18.5195 -18.5195
-1.07392 -18.3673 -18.3673
-1.33321 -18.4359 -18.4359
-1.20725 -18.5157 -18.5157
-1.07638 -18.4434 -18.4434
-1.20227 -18.3636 -18.3636
-1.20476 -18.4397 -18.4397
-1.33573 -18.512 -18.512
-1.34074 -18.6642 -18.6642
-1.08371 -18.6718 -18.6718
-1.07883 -18.5195 -18.5195
-1.33824 -18.5881 -18.5881
-1.21219 -18.668 -18.668
-1.08128 -18.5956 -18.5956
-1.20725 -18.5157 -18.5157
-1.20973 -18.5919 -18.5919
-1.34074 -18.6642 -18.6642
-1.3457 -18.8165 -18.8165
-1.08857 -18.8241 -18.8241
-1.08371 -18.6718 -18.6718
-1.34323 -18.7404 -18.7404
-1.2171 -18.8203 -18.8203
-1.08614 -18.7479 -18.7479
-1.21219 -18.668 -18.668
-1.21465 -18.7441 -18.7441
-1.3457 -18.8165 -18.8165
-1.35063 -18.9689 -18.9689
-1.09339 -18.9765 -18.9765
-1.08857 -18.8241 -18.8241
-1.34817 -18.8927 -18.8927
-1.22198 -18.9727 -18.9727
-1.09098 -18.9003 -18.9003
-1.2171 -18.8203 -18.8203
-1.21954 -18.8965 -18.8965
-1.35063 -18.9689 -18.9689
-1.35551 -19.1213 -19.1213
-1.09818 -19.1289 -19.1289
-1.09339 -18.9765 -18.9765
-1.35307 -19.0451 -19.0451
-1.22681 -19.1251 -19.1251
-1.09579 -19.0527 -19.0527
-1.22198 -18.9727 -18.9727
-1.2244 -19.0489 -19.0489
-1.35551 -19.1213 -19.1213
-1.36035 -19.2738 -19.2738
-1.10294 -19.2814 -19.2814
-1.09818 -19.1289 -19.1289
-1.35794 -19.1975 -19.1975
-1.23162 -19.2776 -19.2776
-1.10056 -19.2052 -19.2052
-1.22681 -19.1251 -19.1251
-1.22922 -19.2013 -19.2013
-1.36035 -19.2738 -19.2738
-1.36517 -19.4263 -19.4263
-1.10767 -19.434 -19.434
-1.10294 -19.2814 -19.2814
-1.36276 -19.35 -19.35
-1.23639 -19.4301 -19.4301
-1.10531 -19.3577 -19.3577
-1.23162 -19.2776 -19.2776
-1.23401 -19.3539 -19.3539
-1.36517 -19.4263 -19.4263
-1.36996 -19.5789 -19.5789
-1.11235 -19.5865 -19.5865
-1.10767 -19.434 -19.434
-1.36756 -19.5026 -19.5026
-1.24113 -19.5827 -19.5827
-1.11002 -19.5102 -19.5102
-1.23639 -19.4301 -19.4301
-1.23876 -19.5064 -19.5064
-1.36996 -19.5789 -19.5789
-1.37474 -19.7315 -19.7315
-1.117 -19.7392 -19.7392
-1.11235 -19.5865 -19.5865
-1.37235 -19.6552 -19.6552
-1.24584 -19.7353 -19.7353
-1.11469 -19.6629 -19.6629
-1.24113 -19.5827 -19.5827
-1.24349 -19.659 -19.659
-1.37474 -19.7315 -19.7315
-1.37958 -19.8843 -19.8843
-1.12162 -19.8919 -19.8919
-1.117 -19.7392 -19.7392
-1.37715 -19.8078 -19.8078
-1.2505 -19.8881 -19.8881
-1.11931 -19.8156 -19.8156
-1.24584 -19.7353 -19.7353
-1.24818 -19.8117 -19.8117
-1.37958 -19.8843 -19.8843
-1.38447 -20.0376 -20.0376
-1.12626 -20.0447 -20.0447
-1.12162 -19.8919 -19.8919
-1.38203 -19.9608 -19.9608
-1.25514 -20.0412 -20.0412
-1.12393 -19.9683 -19.9683
-1.2505 -19.8881 -19.8881
-1.25281 -19.9646 -19.9646
0 0 0
-0.00596671 -0.00167818 -0.00167818
-0.00347538 -0.000348888 -0.000348888
0 0 0
-0.00289501 -0.000600547 -0.000600547
-0.00467466 -0.000851567 -0.000851567
-0.00168507 0.000108985 0.000108985
0 0 0
-0.00230171 -0.000178151 -0.000178151
-0.00596671 -0.00167818 -0.00167818
-0.0124285 -0.00484885 -0.00484885
-0.00721595 -0.00267625 -0.00267625
-0.00347538 -0.000348888 -0.000348888
-0.00916684 -0.00311034 -0.00311034
-0.00973397 -0.00357499 -0.00357499
-0.00532228 -0.00128873 -0.00128873
-0.00467466 -0.000851567 -0.000851567
-0.00716375 -0.00200481 -0.00200481
-0.0124285 -0.00484885 -0.00484885
-0.0189491 -0.00920646 -0.00920646
-0.0111131 -0.0067065 -0.0067065
-0.00721595 -0.00267625 -0.00267625
-0.0156926 -0.0068741 -0.0068741
-0.0149541 -0.00778054 -0.00778054
-0.0091525 -0.00448965 -0.00448965
-0.00973397 -0.00357499 -0.00357499
-0.0123374 -0.00550152 -0.00550152
-0.0189491 -0.00920646 -0.00920646
-0.0254385 -0.0148843 -0.0148843
-0.0150437 -0.0122885 -0.0122885
-0.0111131 -0.0067065 -0.0067065
-0.0221991 -0.0118726 -0.0118726
-0.0201852 -0.0134228 -0.0134228
-0.0130785 -0.00930775 -0.00930775
-0.0149541 -0.00778054 -0.00778054
-0.0175725 -0.0104206 -0.0104206
-0.0254385 -0.0148843 -0.0148843
-0.0318754 -0.0219768 -0.0219768
-0.0189636 -0.0193815 -0.0193815
-0.0150437 -0.0122885 -0.0122885
-0.0286631 -0.0182497 -0.0182497
-0.0253782 -0.0205193 -0.0205193
-0.0170066 -0.0156473 -0.0156473
-0.0201852 -0.0134228 -0.0134228
-0.0227872 -0.0167877 -0.0167877
-0.0318754 -0.0219768 -0.0219768
-0.0382735 -0.0305381 -0.0305381
-0.022851 -0.0279697 -0.0279697
-0.0189636 -0.0193815 -0.0193815
-0.0350789 -0.0260723 -0.0260723
-0.03053 -0.0290957 -0.0290957
-0.0209116 -0.0234891 -0.0234891
-0.0253782 -0.0205193 -0.0205193
-0.027959 -0.0246217 -0.0246217
-0.0382735 -0.0305381 -0.0305381
-0.0446361 -0.0405834 -0.0405834
-0.0267085 -0.0380504 -0.0380504
-0.022851 -0.0279697 -0.0279697
-0.0414589 -0.0353749 -0.0353749
-0.0356449 -0.0391589 -0.0391589
-0.0247832 -0.0328238 -0.0328238
-0.03053 -0.0290957 -0.0290957
-0.0330917 -0.0339414 -0.0339414
-0.0446361 -0.0405834 -0.0405834
-0.050969 -0.0521166 -0.0521166
-0.0305392 -0.0496181 -0.0496181
-0.0267085 -0.0380504 -0.0380504
-0.0478061 -0.0461642 -0.0461642
-0.0407292 -0.0507095 -0.0507095
-0.0286268 -0.0436487 -0.0436487
-0.0356449 -0.0391589 -0.0391589
-0.0381905 -0.0447485 -0.0447485
-0.050969 -0.0521166 -0.0521166
-0.0572739 -0.065133 -0.065133
-0.0343491 -0.0626678 -0.0626678
-0.0305392 -0.0496181 -0.0496181
-0.0541248 -0.0584398 -0.0584398
-0.0457878 -0.0637428 -0.0637428
-0.0324465 -0.0559581 -0.0559581
-0.0407292 -0.0507095 -0.0507095
-0.0432615 -0.0570412 -0.0570412
-0.0572739 -0.065133 -0.065133
-0.0635528 -0.079626 -0.079626
-0.0381417 -0.0771926 -0.0771926
-0.0343491 -0.0626678 -0.0626678
-0.0604165 -0.0721954 -0.0721954
-0.0508241 -0.0782521 -0.0782521
-0.0362473 -0.0697463 -0.0697463
-0.0457878 -0.0637428 -0.0637428
-0.0483085 -0.0708134 -0.0708134
-0.0635528 -0.079626 -0.079626
-0.0698068 -0.0955874 -0.0955874
-0.0419204 -0.0931855 -0.0931855
-0.0381417 -0.0771926 -0.0771926
-0.0666829 -0.0874236 -0.0874236
-0.0558406 -0.0942298 -0.0942298
-0.0400327 -0.085006 -0.085006
-0.0508241 -0.0782521 -0.0782521
-0.0533347 -0.0860579 -0.0860579
-0.0698068 -0.0955874 -0.0955874
-0.0760369 -0.113009 -0.113009
-0.0456871 -0.110639 -0.110639
-0.0419204 -0.0931855 -0.0931855
-0.0729248 -0.104116 -0.104116
-0.060839 -0.111668 -0.111668
-0.0438052 -0.10173 -0.10173
-0.0558406 -0.0942298 -0.0942298
-0.058342 -0.102767 -0.102767
-0.0760369 -0.113009 -0.113009
-0.082244 -0.131883 -0.131883
-0.0494434 -0.129545 -0.129545
-0.0456871 -0.110639 -0.110639
-0.0791433 -0.122265 -0.122265
-0.0658207 -0.130559 -0.130559
-0.0475665 -0.119911 -0.119911
-0.060839 -0.111668 -0.111668
-0.0633319 -0.120932 -0.120932
-0.082244 -0.131883 -0.131883
-0.0884288 -0.152201 -0.152201
-0.0531905 -0.149896 -0.149896
-0.0494434 -0.129545 -0.129545
-0.0853391 -0.141862 -0.141862
-0.0707865 -0.150894 -0.150894
-0.0513181 -0.13954 -0.13954
-0.0658207 -0.130559 -0.130559
-0.0683055 -0.140546 -0.140546
-0.0884288 -0.152201 -0.152201
-0.0945921 -0.173955 -0.173955
-0.0569292 -0.171684 -0.171684
-0.0531905 -0.149896 -0.149896
-0.0915131 -0.162899 -0.162899
-0.0757374 -0.172666 -0.172666
-0.0550608 -0.160611 -0.160611
-0.0707865 -0.150894 -0.150894
-0.0732638 -0.161601 -0.161601
-0.0945921 -0.173955 -0.173955
-0.100735 -0.197137 -0.197137
-0.0606605 -0.194901 -0.194901
-0.0569292 -0.171684 -0.171684
-0.0976659 -0.185368 -0.185368
-0.0806743 -0.195866 -0.195866
-0.0587957 -0.183114 -0.183114
-0.0757374 -0.172666 -0.172666
-0.0782076 -0.184088 -0.184088
-0.100735 -0.197137 -0.197137
-0.106857 -0.221739 -0.221739
-0.0643851 -0.21954 -0.21954
-0.0606605 -0.194901 -0.194901
-0.103798 -0.209261 -0.209261
-0.0855977 -0.220488 -0.220488
-0.0625236 -0.207043 -0.207043
-0.0806743 -0.195866 -0.195866
-0.0831376 -0.208 -0.208
-0.106857 -0.221739 -0.221739
-0.11296 -0.247754 -0.247754
-0.0681037 -0.245592 -0.245592
-0.0643851 -0.21954 -0.21954
-0.109911 -0.234571 -0.234571
-0.0905086 -0.246522 -0.246522
-0.0662451 -0.23239 -0.23239
-0.0855977 -0.220488 -0.220488
-0.0880547 -0.233329 -0.233329
-0.11296 -0.247754 -0.247754
-0.119045 -0.275174 -0.275174
-0.071817 -0.273051 -0.273051
-0.0681037 -0.245592 -0.245592
-0.116005 -0.261289 -0.261289
-0.0954075 -0.273962 -0.273962
-0.069961 -0.259146 -0.259146
-0.0905086 -0.246522 -0.246522
-0.0929595 -0.260067 -0.260067
-0.119045 -0.275174 -0.275174
-0.125112 -0.30399 -0.30399
-0.0755258 -0.301907 -0.301907
-0.071817 -0.273051 -0.273051
-0.122081 -0.289408 -0.289408
-0.100295 -0.302799 -0.302799
-0.0736719 -0.287305 -0.287305
-0.0954075 -0.273962 -0.273962
-0.0978527 -0.288206 -0.288206
-0.125112 -0.30399 -0.30399
-0.131161 -0.334195 -0.334195
-0.0792307 -0.332153 -0.332153
-0.0755258 -0.301907 -0.301907
-0.128139 -0.318919 -0.318919
-0.105172 -0.333026 -0.333026
-0.0773787 -0.316857 -0.316857
-0.100295 -0.302799 -0.302799
-0.102735 -0.317739 -0.317739
-0.131161 -0.334195 -0.334195
-0.137194 -0.365781 -0.365781
-0.0829324 -0.363782 -0.363782
-0.0792307 -0.332153 -0.332153
-0.13418 -0.349816 -0.349816
-0.11004 -0.364634 -0.364634
-0.0810819 -0.347795 -0.347795
-0.105172 -0.333026 -0.333026
-0.107607 -0.348658 -0.348658
-0.137194 -0.365781 -0.365781
-0.143211 -0.398741 -0.398741
-0.0866315 -0.396784 -0.396784
-0.0829324 -0.363782 -0.363782
-0.140205 -0.38209 -0.38209
-0.114898 -0.397616 -0.397616
-0.0847822 -0.380112 -0.380112
-0.11004 -0.364634 -0.364634
-0.11247 -0.380954 -0.380954
-0.143211 -0.398741 -0.398741
-0.149213 -0.433065 -0.433065
-0.0903286 -0.431154 -0.431154
-0.0866315 -0.396784 -0.396784
-0.146214 -0.415733 -0.415733
-0.119747 -0.431964 -0.431964
-0.0884802 -0.413799 -0.413799
-0.114898 -0.397616 -0.397616
-0.117323 -0.41462 -0.41462
-0.149213 -0.433065 -0.433065
-0.1552 -0.468748 -0.468748
-0.0940244 -0.466882 -0.466882
-0.0903286 -0.431154 -0.431154
-0.152208 -0.450738 -0.450738
-0.124588 -0.46767 -0.46767
-0.0921766 -0.448848 -0.448848
-0.119747 -0.431964 -0.431964
-0.122169 -0.449648 -0.449648
-0.1552 -0.468748 -0.468748
-0.161173 -0.50578 -0.50578
-0.0977196 -0.503961 -0.503961
-0.0940244 -0.466882 -0.466882
-0.158188 -0.487096 -0.487096
-0.129422 -0.504727 -0.504727
-0.0958721 -0.485253 -0.485253
-0.124588 -0.46767 -0.46767
-0.127006 -0.48603 -0.48603
-0.161173 -0.50578 -0.50578
-0.167133 -0.544155 -0.544155
-0.101415 -0.542382 -0.542382
-0.0977196 -0.503961 -0.503961
-0.164155 -0.5248 -0.5248
-0.13425 -0.543126 -0.543126
-0.0995671 -0.523004 -0.523004
-0.129422 -0.504727 -0.504727
-0.131837 -0.523759 -0.523759
-0.167133 -0.544155 -0.544155
-0.17308 -0.583863 -0.583863
-0.10511 -0.582139 -0.582139
-0.101415 -0.542382 -0.542382
-0.170108 -0.563843 -0.563843
-0.139071 -0.582859 -0.582859
-0.103262 -0.562095 -0.562095
-0.13425 -0.543126 -0.543126
-0.136661 -0.562826 -0.562826
-0.17308 -0.583863 -0.583863
-0.179014 -0.624898 -0.624898
-0.108807 -0.623224 -0.623224
-0.10511 -0.582139 -0.582139
-0.176049 -0.604215 -0.604215
-0.143886 -0.62392 -0.62392
-0.106958 -0.602516 -0.602516
-0.139071 -0.582859 -0.582859
-0.141479 -0.603224 -0.603224
-0.179014 -0.624898 -0.624898
-0.184937 -0.667252 -0.667252
-0.112505 -0.665627 -0.665627
-0.108807 -0.623224 -0.623224
-0.181977 -0.645911 -0.645911
-0.148697 -0.666299 -0.666299
-0.110656 -0.644261 -0.644261
-0.143886 -0.62392 -0.62392
-0.146292 -0.644945 -0.644945
-0.184937 -0.667252 -0.667252
-0.190849 -0.710916 -0.710916
-0.116205 -0.709343 -0.709343
-0.112505 -0.665627 -0.665627
-0.187894 -0.68892 -0.68892
-0.153503 -0.709989 -0.709989
-0.114355 -0.687322 -0.687322
-0.148697 -0.666299 -0.666299
-0.1511 -0.687981 -0.687981
-0.190849 -0.710916 -0.710916
-0.19675 -0.755882 -0.755882
-0.119909 -0.754362 -0.754362
-0.116205 -0.709343 -0.709343
-0.193801 -0.733237 -0.733237
-0.158305 -0.754983 -0.754983
-0.118057 -0.73169 -0.73169
-0.153503 -0.709989 -0.709989
-0.155904 -0.732324 -0.732324
-0.19675 -0.755882 -0.755882
-0.202641 -0.802144 -0.802144
-0.123615 -0.800677 -0.800677
-0.119909 -0.754362 -0.754362
-0.199697 -0.778852 -0.778852
-0.163104 -0.801273 -0.801273
-0.121761 -0.777358 -0.777358
-0.158305 -0.754983 -0.754983
-0.160705 -0.777966 -0.777966
-0.202641 -0.802144 -0.802144
-0.208523 -0.849693 -0.849693
-0.127325 -0.84828 -0.84828
-0.123615 -0.800677 -0.800677
-0.205583 -0.825758 -0.825758
-0.1679 -0.848849 -0.848849
-0.12547 -0.824318 -0.824318
-0.163104 -0.801273 -0.801273
-0.165502 -0.8249 -0.8249
-0.208523 -0.849693 -0.849693
-0.214395 -0.898522 -0.898522
-0.13104 -0.897163 -0.897163
-0.127325 -0.84828 -0.84828
-0.21146 -0.873948 -0.873948
-0.172693 -0.897706 -0.897706
-0.129182 -0.872562 -0.872562
-0.1679 -0.848849 -0.848849
-0.170297 -0.873118 -0.873118
-0.214395 -0.898522 -0.898522
-0.220259 -0.948621 -0.948621
-0.134759 -0.947318 -0.947318
-0.13104 -0.897163 -0.897163
-0.217328 -0.923413 -0.923413
-0.177485 -0.947835 -0.947835
-0.132899 -0.922082 -0.922082
-0.172693 -0.897706 -0.897706
-0.175089 -0.922612 -0.922612
-0.220259 -0.948621 -0.948621
-0.226115 -0.999985 -0.999985
-0.138484 -0.998738 -0.998738
-0.134759 -0.947318 -0.947318
-0.223188 -0.974146 -0.974146
-0.182275 -0.999227 -0.999227
-0.136621 -0.972871 -0.972871
-0.177485 -0.947835 -0.947835
-0.17988 -0.973373 -0.973373
-0.226115 -0.999985 -0.999985
-0.231963 -1.0526 -1.0526
-0.142214 -1.05141 -1.05141
-0.138484 -0.998738 -0.998738
-0.22904 -1.02614 -1.02614
-0.187064 -1.05188 -1.05188
-0.140348 -1.02492 -1.02492
-0.182275 -0.999227 -0.999227
-0.184669 -1.0254 -1.0254
-0.231963 -1.0526 -1.0526
-0.237804 -1.10647 -1.10647
-0.14595 -1.10534 -1.10534
-0.142214 -1.05141 -1.05141
-0.234885 -1.07938 -1.07938
-0.191853 -1.10577 -1.10577
-0.144081 -1.07822 -1.07822
-0.187064 -1.05188 -1.05188
-0.189458 -1.07867 -1.07867
-0.237804 -1.10647 -1.10647
-0.243639 -1.16158 -1.16158
-0.149693 -1.16051 -1.16051
-0.14595 -1.10534 -1.10534
-0.240722 -1.13387 -1.13387
-0.196641 -1.16091 -1.16091
-0.147821 -1.13277 -1.13277
-0.191853 -1.10577 -1.10577
-0.194247 -1.13319 -1.13319
-0.243639 -1.16158 -1.16158
-0.249467 -1.21792 -1.21792
-0.153443 -1.21691 -1.21691
-0.149693 -1.16051 -1.16051
-0.246553 -1.1896 -1.1896
-0.20143 -1.21728 -1.21728
-0.151567 -1.18855 -1.18855
-0.196641 -1.16091 -1.16091
-0.199036 -1.18894 -1.18894
-0.249467 -1.21792 -1.21792
-0.255289 -1.27548 -1.27548
-0.157201 -1.27453 -1.27453
-0.153443 -1.21691 -1.21691
-0.252379 -1.24655 -1.24655
-0.20622 -1.27488 -1.27488
-0.155321 -1.24557 -1.24557
-0.20143 -1.21728 -1.21728
-0.203825 -1.24593 -1.24593
-0.255289 -1.27548 -1.27548
-0.261106 -1.33426 -1.33426
-0.160966 -1.33337 -1.33337
-0.157201 -1.27453 -1.27453
-0.258198 -1.30472 -1.30472
-0.211011 -1.33369 -1.33369
-0.159082 -1.3038 -1.3038
-0.20622 -1.27488 -1.27488
-0.208615 -1.30413 -1.30413
-0.261106 -1.33426 -1.33426
-0.266918 -1.39425 -1.39425
-0.16474 -1.39342 -1.39342
-0.160966 -1.33337 -1.33337
-0.264012 -1.36411 -1.36411
-0.215804 -1.39371 -1.39371
-0.162852 -1.36325 -1.36325
-0.211011 -1.33369 -1.33369
-0.213407 -1.36355 -1.36355
-0.266918 -1.39425 -1.39425
-0.272725 -1.45545 -1.45545
-0.168522 -1.45468 -1.45468
-0.16474 -1.39342 -1.39342
-0.269822 -1.4247 -1.4247
-0.220599 -1.45493 -1.45493
-0.16663 -1.4239 -1.4239
-0.215804 -1.39371 -1.39371
-0.218201 -1.42417 -1.42417
-0.272725 -1.45545 -1.45545
-0.278528 -1.51783 -1.51783
-0.172314 -1.51712 -1.51712
-0.168522 -1.45468 -1.45468
-0.275627 -1.48649 -1.48649
-0.225396 -1.51735 -1.51735
-0.170417 -1.48575 -1.48575
-0.220599 -1.45493 -1.45493
-0.222997 -1.48599 -1.48599
-0.278528 -1.51783 -1.51783
-0.284327 -1.5814 -1.5814
-0.176115 -1.58076 -1.58076
-0.172314 -1.51712 -1.51712
-0.281428 -1.54947 -1.54947
-0.230196 -1.58095 -1.58095
-0.174213 -1.54879 -1.54879
-0.225396 -1.51735 -1.51735
-0.227795 -1.549 -1.549
-0.284327 -1.5814 -1.5814
-0.290122 -1.64615 -1.64615
-0.179925 -1.64557 -1.64557
-0.176115 -1.58076 -1.58076
-0.287225 -1.61363 -1.61363
-0.234999 -1.64573 -1.64573
-0.178019 -1.61302 -1.61302
-0.230196 -1.58095 -1.58095
-0.232597 -1.6132 -1.6132
-0.290122 -1.64615 -1.64615
-0.295914 -1.71206 -1.71206
-0.183746 -1.71155 -1.71155
-0.179925 -1.64557 -1.64557
-0.293018 -1.67896 -1.67896
-0.239805 -1.71168 -1.71168
-0.181834 -1.67841 -1.67841
-0.234999 -1.64573 -1.64573
-0.237401 -1.67856 -1.67856
-0.295914 -1.71206 -1.71206
-0.301703 -1.77914 -1.77914
-0.187577 -1.77869 -1.77869
-0.183746 -1.71155 -1.71155
-0.298809 -1.74546 -1.74546
-0.244615 -1.77879 -1.77879
-0.18566 -1.74498 -1.74498
-0.239805 -1.71168 -1.71168
-0.24221 -1.74509 -1.74509
-0.301703 -1.77914 -1.77914
-0.30749 -1.84737 -1.84737
-0.191419 -1.84699 -1.84699
-0.187577 -1.77869 -1.77869
-0.304597 -1.81311 -1.81311
-0.24943 -1.84706 -1.84706
-0.189497 -1.8127 -1.8127
-0.244615 -1.77879 -1.77879
-0.247022 -1.81278 -1.81278
-0.30749 -1.84737 -1.84737
-0.313275 -1.91675 -1.91675
-0.195272 -1.91644 -1.91644
-0.191419 -1.84699 -1.84699
-0.310383 -1.88192 -1.88192
-0.254248 -1.91647 -1.91647
-0.193344 -1.88157 -1.88157
-0.24943 -1.84706 -1.84706
-0.251838 -1.88162 -1.88162
-0.313275 -1.91675 -1.91675
-0.319057 -1.98727 -1.98727
-0.199137 -1.98702 -1.98702
-0.195272 -1.91644 -1.91644
-0.316166 -1.95187 -1.95187
-0.259072 -1.98702 -1.98702
-0.197203 -1.95159 -1.95159
-0.254248 -1.91647 -1.91647
-0.256659 -1.95161 -1.95161
-0.319057 -1.98727 -1.98727
-0.324838 -2.05892 -2.05892
-0.203013 -2.05873 -2.05873
-0.199137 -1.98702 -1.98702
-0.321948 -2.02295 -2.02295
-0.2639 -2.05871 -2.05871
-0.201074 -2.02274 -2.02274
-0.259072 -1.98702 -1.98702
-0.261485 -2.02272 -2.02272
-0.324838 -2.05892 -2.05892
-0.330618 -2.13169 -2.13169
-0.206901 -2.13157 -2.13157
-0.203013 -2.05873 -2.05873
-0.327728 -2.09516 -2.09516
-0.268734 -2.13151 -2.13151
-0.204956 -2.09501 -2.09501
-0.2639 -2.05871 -2.05871
-0.266317 -2.09497 -2.09497
-0.330618 -2.13169 -2.13169
-0.336396 -2.20557 -2.20557
-0.210802 -2.20552 -2.20552
-0.206901 -2.13157 -2.13157
-0.333507 -2.16849 -2.16849
-0.273574 -2.20543 -2.20543
-0.20885 -2.16841 -2.16841
-0.268734 -2.13151 -2.13151
-0.271153 -2.16833 -2.16833
-0.336396 -2.20557 -2.20557
-0.342174 -2.28056 -2.28056
-0.214714 -2.28058 -2.28058
-0.210802 -2.20552 -2.20552
-0.339285 -2.24293 -2.24293
-0.278419 -2.28046 -2.28046
-0.212756 -2.24292 -2.24292
-0.273574 -2.20543 -2.20543
-0.275995 -2.24281 -2.24281
-0.342174 -2.28056 -2.28056
-0.347951 -2.35666 -2.35666
-0.21864 -2.35674 -2.35674
-0.214714 -2.28058 -2.28058
-0.345062 -2.31847 -2.31847
-0.28327 -2.35658 -2.35658
-0.216676 -2.31853 -2.31853
-0.278419 -2.28046 -2.28046
-0.280844 -2.31838 -2.31838
-0.347951 -2.35666 -2.35666
-0.353728 -2.43384 -2.43384
-0.222579 -2.434 -2.434
-0.21864 -2.35674 -2.35674
-0.350839 -2.39511 -2.39511
-0.288128 -2.4338 -2.4338
-0.220608 -2.39523 -2.39523
-0.28327 -2.35658 -2.35658
-0.285698 -2.39506 -2.39506
-0.353728 -2.43384 -2.43384
-0.359504 -2.5121 -2.5121
-0.22653 -2.51233 -2.51233
-0.222579 -2.434 -2.434
-0.356616 -2.47284 -2.47284
-0.292992 -2.5121 -2.5121
-0.224553 -2.47303 -2.47303
-0.288128 -2.4338 -2.4338
-0.290559 -2.47282 -2.47282
-0.359504 -2.5121 -2.5121
-0.365281 -2.59145 -2.59145
-0.230495 -2.59174 -2.59174
-0.22653 -2.51233 -2.51233
-0.362393 -2.55164 -2.55164
-0.297863 -2.59148 -2.59148
-0.228511 -2.5519 -2.5519
-0.292992 -2.5121 -2.5121
-0.295426 -2.55166 -2.55166
-0.365281 -2.59145 -2.59145
-0.371058 -2.67185 -2.67185
-0.234474 -2.67222 -2.67222
-0.230495 -2.59174 -2.59174
-0.368169 -2.63152 -2.63152
-0.302741 -2.67193 -2.67193
-0.232483 -2.63185 -2.63185
-0.297863 -2.59148 -2.59148
-0.300301 -2.63157 -2.63157
-0.371058 -2.67185 -2.67185
-0.376836 -2.75332 -2.75332
-0.238467 -2.75376 -2.75376
-0.234474 -2.67222 -2.67222
-0.373947 -2.71246 -2.71246
-0.307626 -2.75343 -2.75343
-0.236469 -2.71286 -2.71286
-0.302741 -2.67193 -2.67193
-0.305182 -2.71255 -2.71255
-0.376836 -2.75332 -2.75332
-0.382614 -2.83585 -2.83585
-0.242474 -2.83636 -2.83636
-0.238467 -2.75376 -2.75376
-0.379725 -2.79445 -2.79445
-0.312518 -2.83599 -2.83599
-0.240468 -2.79493 -2.79493
-0.307626 -2.75343 -2.75343
-0.310071 -2.79458 -2.79458
-0.382614 -2.83585 -2.83585
-0.388393 -2.91941 -2.91941
-0.246494 -2.91999 -2.91999
-0.242474 -2.83636 -2.83636
-0.385503 -2.8775 -2.8775
-0.317418 -2.91959 -2.91959
-0.244482 -2.87804 -2.87804
-0.312518 -2.83599 -2.83599
-0.314967 -2.87766 -2.87766
-0.388393 -2.91941 -2.91941
-0.394173 -3.00401 -3.00401
-0.25053 -3.00467 -3.00467
-0.246494 -2.91999 -2.91999
-0.391283 -2.96158 -2.96158
-0.322326 -3.00423 -3.00423
-0.24851 -2.9622 -2.9622
-0.317418 -2.91959 -2.91959
-0.319871 -2.96178 -2.96178
-0.394173 -3.00401 -3.00401
-0.399954 -3.08964 -3.08964
-0.254579 -3.09037 -3.09037
-0.25053 -3.00467 -3.00467
-0.397063 -3.0467 -3.0467
-0.327241 -3.0899 -3.0899
-0.252553 -3.04739 -3.04739
-0.322326 -3.00423 -3.00423
-0.324783 -3.04694 -3.04694
-0.399954 -3.08964 -3.08964
-0.405737 -3.1763 -3.1763
-0.258644 -3.17709 -3.17709
-0.254579 -3.09037 -3.09037
-0.402846 -3.13284 -3.13284
-0.332165 -3.17659 -3.17659
-0.25661 -3.1336 -3.1336
-0.327241 -3.0899 -3.0899
-0.329702 -3.13312 -3.13312
-0.405737 -3.1763 -3.1763
-0.411521 -3.26396 -3.26396
-0.262723 -3.26483 -3.26483
-0.258644 -3.17709 -3.17709
-0.408629 -3.22 -3.22
-0.337097 -3.26429 -3.26429
-0.260682 -3.22083 -3.22083
-0.332165 -3.17659 -3.17659
-0.33463 -3.22031 -3.22031
-0.411521 -3.26396 -3.26396
-0.417307 -3.35263 -3.35263
-0.266817 -3.35357 -3.35357
-0.262723 -3.26483 -3.26483
-0.414414 -3.30817 -3.30817
-0.342037 -3.35299 -3.35299
-0.264768 -3.30908 -3.30908
-0.337097 -3.26429 -3.26429
-0.339566 -3.30852 -3.30852
-0.417307 -3.35263 -3.35263
-0.423095 -3.4423 -3.4423
-0.270927 -3.44331 -3.44331
-0.266817 -3.35357 -3.35357
-0.420201 -3.39734 -3.39734
-0.346985 -3.4427 -3.4427
-0.26887 -3.39832 -3.39832
-0.342037 -3.35299 -3.35299
-0.34451 -3.39772 -3.39772
-0.423095 -3.4423 -3.4423
-0.428884 -3.53295 -3.53295
-0.275051 -3.53404 -3.53404
-0.270927 -3.44331 -3.44331
-0.425989 -3.4875 -3.4875
-0.351942 -3.53339 -3.53339
-0.272987 -3.48855 -3.48855
-0.346985 -3.4427 -3.4427
-0.349462 -3.48792 -3.48792
-0.428884 -3.53295 -3.53295
-0.434676 -3.62459 -3.62459
-0.279191 -3.62575 -3.62575
-0.275051 -3.53404 -3.53404
-0.43178 -3.57865 -3.57865
-0.356908 -3.62507 -3.62507
-0.277119 -3.57977 -3.57977
-0.351942 -3.53339 -3.53339
-0.354424 -3.57911 -3.57911
-0.434676 -3.62459 -3.62459
-0.440469 -3.7172 -3.7172
-0.283346 -3.71844 -3.71844
-0.279191 -3.62575 -3.62575
-0.437572 -3.67078 -3.67078
-0.361882 -3.71772 -3.71772
-0.281266 -3.67197 -3.67197
-0.356908 -3.62507 -3.62507
-0.359394 -3.67127 -3.67127
-0.440469 -3.7172 -3.7172
-0.446265 -3.81078 -3.81078
-0.287516 -3.81209 -3.81209
-0.283346 -3.71844 -3.71844
-0.443367 -3.76387 -3.76387
-0.366865 -3.81133 -3.81133
-0.285429 -3.76514 -3.76514
-0.361882 -3.71772 -3.71772
-0.364372 -3.7644 -3.7644
-0.446265 -3.81078 -3.81078
-0.452063 -3.90532 -3.90532
-0.291703 -3.9067 -3.9067
-0.287516 -3.81209 -3.81209
-0.449164 -3.85793 -3.85793
-0.371857 -3.90591 -3.90591
-0.289608 -3.85927 -3.85927
-0.366865 -3.81133 -3.81133
-0.36936 -3.8585 -3.8585
-0.452063 -3.90532 -3.90532
-0.457863 -4.0008 -4.0008
-0.295904 -4.00226 -4.00226
-0.291703 -3.9067 -3.9067
-0.454963 -3.95294 -3.95294
-0.376858 -4.00143 -4.00143
-0.293802 -3.95436 -3.95436
-0.371857 -3.90591 -3.90591
-0.374356 -3.95355 -3.95355
-0.457863 -4.0008 -4.0008
-0.463666 -4.09723 -4.09723
-0.300122 -4.09876 -4.09876
-0.295904 -4.00226 -4.00226
-0.460764 -4.0489 -4.0489
-0.381868 -4.0979 -4.0979
-0.298011 -4.05039 -4.05039
-0.376858 -4.00143 -4.00143
-0.379362 -4.04955 -4.04955
-0.463666 -4.09723 -4.09723
-0.469471 -4.19459 -4.19459
-0.304355 -4.1962 -4.1962
-0.300122 -4.09876 -4.09876
-0.466568 -4.1458 -4.1458
-0.386887 -4.1953 -4.1953
-0.302236 -4.14736 -4.14736
-0.381868 -4.0979 -4.0979
-0.384376 -4.14648 -4.14648
-0.469471 -4.19459 -4.19459
-0.475278 -4.29288 -4.29288
-0.308604 -4.29456 -4.29456
-0.304355 -4.1962 -4.1962
-0.472374 -4.24362 -4.24362
-0.391915 -4.29362 -4.29362
-0.306477 -4.24526 -4.24526
-0.386887 -4.1953 -4.1953
-0.3894 -4.24434 -4.24434
-0.475278 -4.29288 -4.29288
-0.481088 -4.39209 -4.39209
-0.312869 -4.39384 -4.39384
-0.308604 -4.29456 -4.29456
-0.478183 -4.34237 -4.34237
-0.396953 -4.39287 -4.39287
-0.310734 -4.34409 -4.34409
-0.391915 -4.29362 -4.29362
-0.394433 -4.34313 -4.34313
-0.481088 -4.39209 -4.39209
-0.4869 -4.49221 -4.49221
-0.317149 -4.49403 -4.49403
-0.312869 -4.39384 -4.39384
-0.483994 -4.44204 -4.44204
-0.401999 -4.49303 -4.49303
-0.315007 -4.44382 -4.44382
-0.396953 -4.39287 -4.39287
-0.399475 -4.44284 -4.44284
-0.4869 -4.49221 -4.49221
-0.492715 -4.59324 -4.59324
-0.321445 -4.59513 -4.59513
-0.317149 -4.49403 -4.49403
-0.489807 -4.54261 -4.54261
-0.407055 -4.59409 -4.59409
-0.319295 -4.54447 -4.54447
-0.401999 -4.49303 -4.49303
-0.404526 -4.54345 -4.54345
-0.492715 -4.59324 -4.59324
-0.498533 -4.69515 -4.69515
-0.325758 -4.69712 -4.69712
-0.321445 -4.59513 -4.59513
-0.495624 -4.64408 -4.64408
-0.412119 -4.69604 -4.69604
-0.323599 -4.64602 -4.64602
-0.407055 -4.59409 -4.59409
-0.409586 -4.64496 -4.64496
-0.498533 -4.69515 -4.69515
-0.504353 -4.79796 -4.79796
-0.330086 -4.8 -4.8
-0.325758 -4.69712 -4.69712
-0.501442 -4.74645 -4.74645
-0.417193 -4.79889 -4.79889
-0.32792 -4.74845 -4.74845
-0.412119 -4.69604 -4.69604
-0.414655 -4.74736 -4.74736
-0.504353 -4.79796 -4.79796
-0.510175 -4.90165 -4.90165
-0.334429 -4.90376 -4.90376
-0.330086 -4.8 -4.8
-0.507264 -4.84969 -4.84969
-0.422277 -4.90261 -4.90261
-0.332255 -4.85177 -4.85177
-0.417193 -4.79889 -4.79889
-0.419734 -4.85064 -4.85064
-0.510175 -4.90165 -4.90165
-0.516 -5.0062 -5.0062
-0.338789 -5.00839 -5.00839
-0.334429 -4.90376 -4.90376
-0.513087 -4.95382 -4.95382
-0.427369 -5.00721 -5.00721
-0.336607 -4.95597 -4.95597
-0.422277 -4.90261 -4.90261
-0.424822 -4.9548 -4.9548
-0.516 -5.0062 -5.0062
-0.521828 -5.11162 -5.11162
-0.343164 -5.11389 -5.11389
-0.338789 -5.00839 -5.00839
-0.518914 -5.05881 -5.05881
-0.43247 -5.11267 -5.11267
-0.340975 -5.06103 -5.06103
-0.427369 -5.00721 -5.00721
-0.429919 -5.05983 -5.05983
-0.521828 -5.11162 -5.11162
-0.527658 -5.2179 -5.2179
-0.347556 -5.22024 -5.22024
-0.343164 -5.11389 -5.11389
-0.524742 -5.16466 -5.16466
-0.437581 -5.21898 -5.21898
-0.345358 -5.16696 -5.16696
-0.43247 -5.11267 -5.11267
-0.435025 -5.16572 -5.16572
-0.527658 -5.2179 -5.2179
-0.53349 -5.32503 -5.32503
-0.351963 -5.32744 -5.32744
-0.347556 -5.22024 -5.22024
-0.530574 -5.27136 -5.27136
-0.442701 -5.32615 -5.32615
-0.349757 -5.27373 -5.27373
-0.437581 -5.21898 -5.21898
-0.44014 -5.27246 -5.27246
-0.53349 -5.32503 -5.32503
-0.539325 -5.433 -5.433
-0.356385 -5.43548 -5.43548
-0.351963 -5.32744 -5.32744
-0.536407 -5.37891 -5.37891
-0.447829 -5.43415 -5.43415
-0.354172 -5.38136 -5.38136
-0.442701 -5.32615 -5.32615
-0.445264 -5.38004 -5.38004
-0.539325 -5.433 -5.433
-0.545162 -5.54179 -5.54179
-0.360823 -5.54435 -5.54435
-0.356385 -5.43548 -5.43548
-0.542243 -5.48729 -5.48729
-0.452967 -5.54299 -5.54299
-0.358602 -5.48981 -5.48981
-0.447829 -5.43415 -5.43415
-0.450397 -5.48846 -5.48846
-0.545162 -5.54179 -5.54179
-0.551001 -5.65142 -5.65142
-0.365277 -5.65405 -5.65405
-0.360823 -5.54435 -5.54435
-0.548081 -5.5965 -5.5965
-0.458113 -5.65265 -5.65265
-0.363048 -5.5991 -5.5991
-0.452967 -5.54299 -5.54299
-0.455539 -5.59771 -5.59771
-0.551001 -5.65142 -5.65142
-0.556842 -5.76186 -5.76186
-0.369746 -5.76457 -5.76457
-0.365277 -5.65405 -5.65405
-0.553922 -5.70654 -5.70654
-0.463269 -5.76313 -5.76313
-0.36751 -5.70921 -5.70921
-0.458113 -5.65265 -5.65265
-0.46069 -5.70779 -5.70779
-0.556842 -5.76186 -5.76186
-0.562686 -5.87311 -5.87311
-0.374231 -5.87589 -5.87589
-0.369746 -5.76457 -5.76457
-0.559764 -5.81738 -5.81738
-0.468433 -5.87441 -5.87441
-0.371986 -5.82013 -5.82013
-0.463269 -5.76313 -5.76313
-0.46585 -5.81867 -5.81867
-0.562686 -5.87311 -5.87311
-0.568531 -5.98516 -5.98516
-0.37873 -5.98801 -5.98801
-0.374231 -5.87589 -5.87589
-0.565609 -5.92904 -5.92904
-0.473605 -5.9865 -5.9865
-0.376479 -5.93185 -5.93185
-0.468433 -5.87441 -5.87441
-0.471018 -5.93036 -5.93036
-0.568531 -5.98516 -5.98516
-0.574379 -6.09801 -6.09801
-0.383246 -6.10093 -6.10093
-0.37873 -5.98801 -5.98801
-0.571455 -6.04149 -6.04149
-0.478787 -6.09939 -6.09939
-0.380986 -6.04437 -6.04437
-0.473605 -5.9865 -5.9865
-0.476195 -6.04285 -6.04285
-0.574379 -6.09801 -6.09801
-0.580228 -6.21164 -6.21164
-0.387776 -6.21463 -6.21463
-0.383246 -6.10093 -6.10093
-0.577303 -6.15472 -6.15472
-0.483976 -6.21305 -6.21305
-0.385509 -6.15768 -6.15768
-0.478787 -6.09939 -6.09939
-0.48138 -6.15612 -6.15612
-0.580228 -6.21164 -6.21164
-0.586079 -6.32605 -6.32605
-0.392321 -6.32912 -6.32912
-0.387776 -6.21463 -6.21463
-0.583153 -6.26875 -6.26875
-0.489174 -6.3275 -6.3275
-0.390046 -6.27178 -6.27178
-0.483976 -6.21305 -6.21305
-0.486574 -6.27018 -6.27018
-0.586079 -6.32605 -6.32605
-0.591932 -6.44123 -6.44123
-0.396881 -6.44437 -6.44437
-0.392321 -6.32912 -6.32912
-0.589005 -6.38354 -6.38354
-0.494381 -6.44272 -6.44272
-0.394599 -6.38665 -6.38665
-0.489174 -6.3275 -6.3275
-0.491777 -6.38501 -6.38501
-0.591932 -6.44123 -6.44123
-0.597785 -6.55717 -6.55717
-0.401456 -6.56038 -6.56038
-0.396881 -6.44437 -6.44437
-0.594858 -6.4991 -6.4991
-0.499595 -6.55869 -6.55869
-0.399166 -6.50228 -6.50228
-0.494381 -6.44272 -6.44272
-0.496987 -6.50061 -6.50061
-0.597785 -6.55717 -6.55717
-0.603641 -6.67386 -6.67386
-0.406045 -6.67715 -6.67715
-0.401456 -6.56038 -6.56038
-0.600713 -6.61542 -6.61542
-0.504817 -6.67543 -6.67543
-0.403748 -6.61867 -6.61867
-0.499595 -6.55869 -6.55869
-0.502205 -6.61697 -6.61697
-0.603641 -6.67386 -6.67386
-0.609497 -6.7913 -6.7913
-0.410649 -6.79466 -6.79466
-0.406045 -6.67715 -6.67715
-0.606569 -6.73249 -6.73249
-0.510047 -6.7929 -6.7929
-0.408345 -6.73581 -6.73581
-0.504817 -6.67543 -6.67543
-0.507431 -6.73407 -6.73407
-0.609497 -6.7913 -6.7913
-0.615355 -6.90948 -6.90948
-0.415267 -6.91291 -6.91291
-0.410649 -6.79466 -6.79466
-0.612426 -6.8503 -6.8503
-0.515285 -6.91112 -6.91112
-0.412956 -6.85369 -6.85369
-0.510047 -6.7929 -6.7929
-0.512665 -6.85192 -6.85192
-0.615355 -6.90948 -6.90948
-0.621213 -7.0284 -7.0284
-0.419899 -7.03189 -7.03189
-0.415267 -6.91291 -6.91291
-0.618284 -6.96885 -6.96885
-0.520531 -7.03007 -7.03007
-0.417581 -6.97231 -6.97231
-0.515285 -6.91112 -6.91112
-0.517907 -6.9705 -6.9705
-0.621213 -7.0284 -7.0284
-0.627072 -7.14803 -7.14803
-0.424546 -7.1516 -7.1516
-0.419899 -7.03189 -7.03189
-0.624142 -7.08812 -7.08812
-0.525783 -7.14974 -7.14974
-0.422221 -7.09166 -7.09166
-0.520531 -7.03007 -7.03007
-0.523156 -7.08981 -7.08981
-0.627072 -7.14803 -7.14803
-0.632932 -7.26838 -7.26838
-0.429206 -7.27202 -7.27202
-0.424546 -7.1516 -7.1516
-0.630002 -7.20812 -7.20812
-0.531043 -7.27012 -7.27012
-0.426874 -7.21172 -7.21172
-0.525783 -7.14974 -7.14974
-0.528413 -7.20984 -7.20984
-0.632932 -7.26838 -7.26838
-0.638792 -7.38944 -7.38944
-0.43388 -7.39314 -7.39314
-0.429206 -7.27202 -7.27202
-0.635862 -7.32882 -7.32882
-0.53631 -7.39122 -7.39122
-0.431541 -7.33249 -7.33249
-0.531043 -7.27012 -7.27012
-0.533676 -7.33058 -7.33058
-0.638792 -7.38944 -7.38944
-0.644652 -7.51119 -7.51119
-0.438567 -7.51497 -7.51497
-0.43388 -7.39314 -7.39314
-0.641722 -7.45023 -7.45023
-0.541584 -7.51301 -7.51301
-0.436222 -7.45397 -7.45397
-0.53631 -7.39122 -7.39122
-0.538946 -7.45203 -7.45203
-0.644652 -7.51119 -7.51119
-0.650512 -7.63364 -7.63364
-0.443268 -7.63749 -7.63749
-0.438567 -7.51497 -7.51497
-0.647582 -7.57233 -7.57233
-0.546865 -7.63549 -7.63549
-0.440916 -7.57614 -7.57614
-0.541584 -7.51301 -7.51301
-0.544224 -7.57416 -7.57416
-0.650512 -7.63364 -7.63364
-0.656372 -7.75677 -7.75677
-0.447982 -7.76069 -7.76069
-0.443268 -7.63749 -7.63749
-0.653442 -7.69512 -7.69512
-0.552152 -7.75866 -7.75866
-0.445623 -7.699 -7.699
-0.546865 -7.63549 -7.63549
-0.549508 -7.69699 -7.69699
-0.656372 -7.75677 -7.75677
-0.662232 -7.88058 -7.88058
-0.452709 -7.88456 -7.88456
-0.447982 -7.76069 -7.76069
-0.659302 -7.81859 -7.81859
-0.557445 -7.8825 -7.8825
-0.450344 -7.82254 -7.82254
-0.552152 -7.75866 -7.75866
-0.554798 -7.8205 -7.8205
-0.662232 -7.88058 -7.88058
-0.668091 -8.00505 -8.00505
-0.457448 -8.00911 -8.00911
-0.452709 -7.88456 -7.88456
-0.665162 -7.94273 -7.94273
-0.562744 -8.00701 -8.00701
-0.455077 -7.94675 -7.94675
-0.557445 -7.8825 -7.8825
-0.560094 -7.94467 -7.94467
-0.668091 -8.00505 -8.00505
-0.67395 -8.13019 -8.13019
-0.4622 -8.13431 -8.13431
-0.457448 -8.00911 -8.00911
-0.671021 -8.06754 -8.06754
-0.56805 -8.13218 -8.13218
-0.459823 -8.07163 -8.07163
-0.562744 -8.00701 -8.00701
-0.565396 -8.06952 -8.06952
-0.67395 -8.13019 -8.13019
-0.679807 -8.25598 -8.25598
-0.466964 -8.26017 -8.26017
-0.4622 -8.13431 -8.13431
-0.676879 -8.193 -8.193
-0.573361 -8.25801 -8.25801
-0.464581 -8.19716 -8.19716
-0.56805 -8.13218 -8.13218
-0.570705 -8.19501 -8.19501
-0.679807 -8.25598 -8.25598
-0.685664 -8.38241 -8.38241
-0.471741 -8.38667 -8.38667
-0.466964 -8.26017 -8.26017
-0.682736 -8.31912 -8.31912
-0.578677 -8.38447 -8.38447
-0.469351 -8.32334 -8.32334
-0.573361 -8.25801 -8.25801
-0.576018 -8.32116 -8.32116
-0.685664 -8.38241 -8.38241
-0.691518 -8.50948 -8.50948
-0.476529 -8.51381 -8.51381
-0.471741 -8.38667 -8.38667
-0.688591 -8.44587 -8.44587
-0.583999 -8.51158 -8.51158
-0.474133 -8.45016 -8.45016
-0.578677 -8.38447 -8.38447
-0.581337 -8.44795 -8.44795
-0.691518 -8.50948 -8.50948
-0.697371 -8.63718 -8.63718
-0.481329 -8.64157 -8.64157
-0.476529 -8.51381 -8.51381
-0.694445 -8.57325 -8.57325
-0.589325 -8.63931 -8.63931
-0.478928 -8.57761 -8.57761
-0.583999 -8.51158 -8.51158
-0.586661 -8.57537 -8.57537
-0.697371 -8.63718 -8.63718
-0.703223 -8.7655 -8.7655
-0.48614 -8.76996 -8.76996
-0.481329 -8.64157 -8.64157
-0.700297 -8.70126 -8.70126
-0.594656 -8.76766 -8.76766
-0.483733 -8.70569 -8.70569
-0.589325 -8.63931 -8.63931
-0.59199 -8.70341 -8.70341
-0.703223 -8.7655 -8.7655
-0.709072 -8.89443 -8.89443
-0.490962 -8.89896 -8.89896
-0.48614 -8.76996 -8.76996
-0.706148 -8.82989 -8.82989
-0.599992 -8.89663 -8.89663
-0.48855 -8.83438 -8.83438
-0.594656 -8.76766 -8.76766
-0.597324 -8.83207 -8.83207
-0.709072 -8.89443 -8.89443
-0.714918 -9.02397 -9.02397
-0.495796 -9.02856 -9.02856
-0.490962 -8.89896 -8.89896
-0.711995 -8.95913 -8.95913
-0.605332 -9.0262 -9.0262
-0.493378 -8.96368 -8.96368
-0.599992 -8.89663 -8.89663
-0.602661 -8.96134 -8.96134
-0.714918 -9.02397 -9.02397
-0.720762 -9.15411 -9.15411
-0.500639 -9.15876 -9.15876
-0.495796 -9.02856 -9.02856
-0.717841 -9.08897 -9.08897
-0.610676 -9.15637 -9.15637
-0.498216 -9.09359 -9.09359
-0.605332 -9.0262 -9.0262
-0.608003 -9.09121 -9.09121
-0.720762 -9.15411 -9.15411
-0.726603 -9.28484 -9.28484
-0.505494 -9.28955 -9.28955
-0.500639 -9.15876 -9.15876
-0.723683 -9.2194 -9.2194
-0.616024 -9.28713 -9.28713
-0.503065 -9.22408 -9.22408
-0.610676 -9.15637 -9.15637
-0.613349 -9.22168 -9.22168
-0.726603 -9.28484 -9.28484
-0.732441 -9.41614 -9.41614
-0.510358 -9.42092 -9.42092
-0.505494 -9.28955 -9.28955
-0.729523 -9.35042 -9.35042
-0.621375 -9.41847 -9.41847
-0.507924 -9.35516 -9.35516
-0.616024 -9.28713 -9.28713
-0.618699 -9.35273 -9.35273
-0.732441 -9.41614 -9.41614
-0.738276 -9.54803 -9.54803
-0.515232 -9.55287 -9.55287
-0.510358 -9.42092 -9.42092
-0.735359 -9.48201 -9.48201
-0.626729 -9.55039 -9.55039
-0.512794 -9.48682 -9.48682
-0.621375 -9.41847 -9.41847
-0.624051 -9.48436 -9.48436
-0.738276 -9.54803 -9.54803
-0.744106 -9.68047 -9.68047
-0.520115 -9.68538 -9.68538
-0.515232 -9.55287 -9.55287
-0.741191 -9.61418 -9.61418
-0.632086 -9.68287 -9.68287
-0.517673 -9.61905 -9.61905
-0.626729 -9.55039 -9.55039
-0.629407 -9.61656 -9.61656
-0.744106 -9.68047 -9.68047
-0.749933 -9.81348 -9.81348
-0.525008 -9.81845 -9.81845
-0.520115 -9.68538 -9.68538
-0.74702 -9.74691 -9.74691
-0.637446 -9.81591 -9.81591
-0.522561 -9.75184 -9.75184
-0.632086 -9.68287 -9.68287
-0.634766 -9.74932 -9.74932
-0.749933 -9.81348 -9.81348
-0.755755 -9.94704 -9.94704
-0.52991 -9.95207 -9.95207
-0.525008 -9.81845 -9.81845
-0.752845 -9.88019 -9.88019
-0.642808 -9.9495 -9.9495
-0.527458 -9.88519 -9.88519
-0.637446 -9.81591 -9.81591
-0.640127 -9.88263 -9.88263
-0.755755 -9.94704 -9.94704
-0.761573 -10.0811 -10.0811
-0.534821 -10.0862 -10.0862
-0.52991 -9.95207 -9.95207
-0.758665 -10.014 -10.014
-0.648172 -10.0836 -10.0836
-0.532364 -10.0191 -10.0191
-0.642808 -9.9495 -9.9495
-0.64549 -10.0165 -10.0165
-0.761573 -10.0811 -10.0811
-0.767386 -10.2158 -10.2158
-0.539739 -10.2209 -10.2209
-0.534821 -10.0862 -10.0862
-0.76448 -10.1484 -10.1484
-0.653538 -10.2183 -10.2183
-0.537279 -10.1535 -10.1535
-0.648172 -10.0836 -10.0836
-0.650855 -10.1509 -10.1509
-0.767386 -10.2158 -10.2158
-0.773193 -10.3509 -10.3509
-0.544666 -10.3561 -10.3561
-0.539739 -10.2209 -10.2209
-0.77029 -10.2833 -10.2833
-0.658905 -10.3535 -10.3535
-0.542202 -10.2885 -10.2885
-0.653538 -10.2183 -10.2183
-0.656221 -10.2858 -10.2858
-0.773193 -10.3509 -10.3509
-0.778995 -10.4866 -10.4866
-0.549601 -10.4919 -10.4919
-0.544666 -10.3561 -10.3561
-0.776095 -10.4187 -10.4187
-0.664273 -10.4892 -10.4892
-0.547133 -10.424 -10.424
-0.658905 -10.3535 -10.3535
-0.661589 -10.4213 -10.4213
-0.778995 -10.4866 -10.4866
-0.784791 -10.6228 -10.6228
-0.554543 -10.6281 -10.6281
-0.549601 -10.4919 -10.4919
-0.781894 -10.5547 -10.5547
-0.669642 -10.6254 -10.6254
-0.552071 -10.56 -10.56
-0.664273 -10.4892 -10.4892
-0.666958 -10.5572 -10.5572
-0.784791 -10.6228 -10.6228
-0.790581 -10.7595 -10.7595
-0.559492 -10.7649 -10.7649
-0.554543 -10.6281 -10.6281
-0.787687 -10.6911 -10.6911
-0.675012 -10.7622 -10.7622
-0.557016 -10.6965 -10.6965
-0.669642 -10.6254 -10.6254
-0.672327 -10.6937 -10.6937
-0.790581 -10.7595 -10.7595
-0.796365 -10.8967 -10.8967
-0.564448 -10.9021 -10.9021
-0.559492 -10.7649 -10.7649
-0.793474 -10.828 -10.828
-0.680382 -10.8994 -10.8994
-0.561969 -10.8335 -10.8335
-0.675012 -10.7622 -10.7622
-0.677697 -10.8307 -10.8307
-0.796365 -10.8967 -10.8967
-0.802141 -11.0344 -11.0344
-0.56941 -11.0399 -11.0399
-0.564448 -10.9021 -10.9021
-0.799254 -10.9655 -10.9655
-0.685751 -11.0371 -11.0371
-0.566928 -10.971 -10.971
-0.680382 -10.8994 -10.8994
-0.683067 -10.9682 -10.9682
-0.802141 -11.0344 -11.0344
-0.807911 -11.1725 -11.1725
-0.574379 -11.1781 -11.1781
-0.56941 -11.0399 -11.0399
-0.805027 -11.1034 -11.1034
-0.69112 -11.1753 -11.1753
-0.571894 -11.1089 -11.1089
-0.685751 -11.0371 -11.0371
-0.688436 -11.1061 -11.1061
-0.807911 -11.1725 -11.1725
-0.813673 -11.3112 -11.3112
-0.579353 -11.3168 -11.3168
-0.574379 -11.1781 -11.1781
-0.810793 -11.2418 -11.2418
-0.696489 -11.3139 -11.3139
-0.576865 -11.2474 -11.2474
-0.69112 -11.1753 -11.1753
-0.693805 -11.2445 -11.2445
-0.813673 -11.3112 -11.3112
-0.819427 -11.4503 -11.4503
-0.584333 -11.4559 -11.4559
-0.579353 -11.3168 -11.3168
-0.816551 -11.3807 -11.3807
-0.701856 -11.4531 -11.4531
-0.581842 -11.3863 -11.3863
-0.696489 -11.3139 -11.3139
-0.699172 -11.3834 -11.3834
-0.819427 -11.4503 -11.4503
-0.825173 -11.5898 -11.5898
-0.589318 -11.5956 -11.5956
-0.584333 -11.4559 -11.4559
-0.822301 -11.52 -11.52
-0.707221 -11.5926 -11.5926
-0.586825 -11.5257 -11.5257
-0.701856 -11.4531 -11.4531
-0.704539 -11.5228 -11.5228
-0.825173 -11.5898 -11.5898
-0.830911 -11.7298 -11.7298
-0.594307 -11.7356 -11.7356
-0.589318 -11.5956 -11.5956
-0.828043 -11.6598 -11.6598
-0.712585 -11.7327 -11.7327
-0.591812 -11.6655 -11.6655
-0.707221 -11.5926 -11.5926
-0.709903 -11.6626 -11.6626
-0.830911 -11.7298 -11.7298
-0.83664 -11.8703 -11.8703
-0.599301 -11.8761 -11.8761
-0.594307 -11.7356 -11.7356
-0.833776 -11.8 -11.8
-0.717946 -11.8731 -11.8731
-0.596804 -11.8058 -11.8058
-0.712585 -11.7327 -11.7327
-0.715266 -11.8029 -11.8029
-0.83664 -11.8703 -11.8703
-0.842359 -12.0111 -12.0111
-0.604299 -12.017 -12.017
-0.599301 -11.8761 -11.8761
-0.839501 -11.9407 -11.9407
-0.723305 -12.014 -12.014
-0.6018 -11.9465 -11.9465
-0.717946 -11.8731 -11.8731
-0.720626 -11.9435 -11.9435
-0.842359 -12.0111 -12.0111
-0.848069 -12.1524 -12.1524
-0.609301 -12.1584 -12.1584
-0.604299 -12.017 -12.017
-0.845215 -12.0817 -12.0817
-0.728661 -12.1554 -12.1554
-0.606799 -12.0877 -12.0877
-0.723305 -12.014 -12.014
-0.725983 -12.0847 -12.0847
-0.848069 -12.1524 -12.1524
-0.853769 -12.2942 -12.2942
-0.614306 -12.3002 -12.3002
-0.609301 -12.1584 -12.1584
-0.85092 -12.2233 -12.2233
-0.734013 -12.2971 -12.2971
-0.611803 -12.2292 -12.2292
-0.728661 -12.1554 -12.1554
-0.731337 -12.2262 -12.2262
-0.853769 -12.2942 -12.2942
-0.859458 -12.4363 -12.4363
-0.619314 -12.4423 -12.4423
-0.614306 -12.3002 -12.3002
-0.856615 -12.3652 -12.3652
-0.739362 -12.4393 -12.4393
-0.616809 -12.3712 -12.3712
-0.734013 -12.2971 -12.2971
-0.736688 -12.3681 -12.3681
-0.859458 -12.4363 -12.4363
-0.865137 -12.5788 -12.5788
-0.624324 -12.5849 -12.5849
-0.619314 -12.4423 -12.4423
-0.862299 -12.5075 -12.5075
-0.744707 -12.5818 -12.5818
-0.621819 -12.5136 -12.5136
-0.739362 -12.4393 -12.4393
-0.742035 -12.5105 -12.5105
-0.865137 -12.5788 -12.5788
-0.870805 -12.7217 -12.7217
-0.629337 -12.7279 -12.7279
-0.624324 -12.5849 -12.5849
-0.867973 -12.6502 -12.6502
-0.750047 -12.7248 -12.7248
-0.62683 -12.6564 -12.6564
-0.744707 -12.5818 -12.5818
-0.747377 -12.6533 -12.6533
-0.870805 -12.7217 -12.7217
-0.876461 -12.8651 -12.8651
-0.634351 -12.8713 -12.8713
-0.629337 -12.7279 -12.7279
-0.873635 -12.7934 -12.7934
-0.755382 -12.8681 -12.8681
-0.631844 -12.7995 -12.7995
-0.750047 -12.7248 -12.7248
-0.752715 -12.7964 -12.7964
-0.876461 -12.8651 -12.8651
-0.882106 -13.0087 -13.0087
-0.639367 -13.015 -13.015
-0.634351 -12.8713 -12.8713
-0.879285 -12.9369 -12.9369
-0.760712 -13.0118 -13.0118
-0.636859 -12.9431 -12.9431
-0.755382 -12.8681 -12.8681
-0.758048 -12.9399 -12.9399
-0.882106 -13.0087 -13.0087
-0.887738 -13.1528 -13.1528
-0.644384 -13.1591 -13.1591
-0.639367 -13.015 -13.015
-0.884924 -13.0807 -13.0807
-0.766037 -13.1559 -13.1559
-0.641875 -13.087 -13.087
-0.760712 -13.0118 -13.0118
-0.763376 -13.0838 -13.0838
-0.887738 -13.1528 -13.1528
-0.893358 -13.2972 -13.2972
-0.649401 -13.3036 -13.3036
-0.644384 -13.1591 -13.1591
-0.89055 -13.225 -13.225
-0.771356 -13.3004 -13.3004
-0.646893 -13.2313 -13.2313
-0.766037 -13.1559 -13.1559
-0.768697 -13.2281 -13.2281
-0.893358 -13.2972 -13.2972
-0.898964 -13.442 -13.442
-0.654419 -13.4484 -13.4484
-0.649401 -13.3036 -13.3036
-0.896163 -13.3696 -13.3696
-0.776668 -13.4452 -13.4452
-0.65191 -13.3759 -13.3759
-0.771356 -13.3004 -13.3004
-0.774013 -13.3727 -13.3727
-0.898964 -13.442 -13.442
-0.904557 -13.5871 -13.5871
-0.659437 -13.5936 -13.5936
-0.654419 -13.4484 -13.4484
-0.901763 -13.5145 -13.5145
-0.781973 -13.5903 -13.5903
-0.656928 -13.5209 -13.5209
-0.776668 -13.4452 -13.4452
-0.779321 -13.5177 -13.5177
-0.904557 -13.5871 -13.5871
-0.910137 -13.7326 -13.7326
-0.664454 -13.7391 -13.7391
-0.659437 -13.5936 -13.5936
-0.907349 -13.6598 -13.6598
-0.787272 -13.7358 -13.7358
-0.661945 -13.6663 -13.6663
-0.781973 -13.5903 -13.5903
-0.784623 -13.663 -13.663
-0.910137 -13.7326 -13.7326
-0.915702 -13.8784 -13.8784
-0.66947 -13.8849 -13.8849
-0.664454 -13.7391 -13.7391
-0.912921 -13.8054 -13.8054
-0.792562 -13.8816 -13.8816
-0.666962 -13.812 -13.812
-0.787272 -13.7358 -13.7358
-0.789918 -13.8087 -13.8087
-0.915702 -13.8784 -13.8784
-0.921252 -14.0245 -14.0245
-0.674485 -14.0311 -14.0311
-0.66947 -13.8849 -13.8849
-0.918479 -13.9514 -13.9514
-0.797845 -14.0278 -14.0278
-0.671977 -13.958 -13.958
-0.792562 -13.8816 -13.8816
-0.795205 -13.9546 -13.9546
-0.921252 -14.0245 -14.0245
-0.926788 -14.1709 -14.1709
-0.679497 -14.1775 -14.1775
-0.674485 -14.0311 -14.0311
-0.924022 -14.0977 -14.0977
-0.803119 -14.1742 -14.1742
-0.676991 -14.1043 -14.1043
-0.797845 -14.0278 -14.0278
-0.800483 -14.1009 -14.1009
-0.926788 -14.1709 -14.1709
-0.932308 -14.3177 -14.3177
-0.684508 -14.3243 -14.3243
-0.679497 -14.1775 -14.1775
-0.92955 -14.2443 -14.2443
-0.808384 -14.321 -14.321
-0.682003 -14.2509 -14.2509
-0.803119 -14.1742 -14.1742
-0.805753 -14.2476 -14.2476
-0.932308 -14.3177 -14.3177
-0.937812 -14.4647 -14.4647
-0.689516 -14.4714 -14.4714
-0.684508 -14.3243 -14.3243
-0.935062 -14.3912 -14.3912
-0.813641 -14.468 -14.468
-0.687013 -14.3978 -14.3978
-0.808384 -14.321 -14.321
-0.811014 -14.3945 -14.3945
-0.937812 -14.4647 -14.4647
-0.9433 -14.612 -14.612
-0.694521 -14.6188 -14.6188
-0.689516 -14.4714 -14.4714
-0.940558 -14.5383 -14.5383
-0.818887 -14.6154 -14.6154
-0.692019 -14.5451 -14.5451
-0.813641 -14.468 -14.468
-0.816265 -14.5417 -14.5417
-0.9433 -14.612 -14.612
-0.948771 -14.7597 -14.7597
-0.699523 -14.7664 -14.7664
-0.694521 -14.6188 -14.6188
-0.946037 -14.6858 -14.6858
-0.824123 -14.763 -14.763
-0.697023 -14.6926 -14.6926
-0.818887 -14.6154 -14.6154
-0.821506 -14.6892 -14.6892
-0.948771 -14.7597 -14.7597
-0.954225 -14.9076 -14.9076
-0.704521 -14.9144 -14.9144
-0.699523 -14.7664 -14.7664
-0.9515 -14.8336 -14.8336
-0.829349 -14.9109 -14.9109
-0.702022 -14.8404 -14.8404
-0.824123 -14.763 -14.763
-0.826738 -14.8369 -14.8369
-0.954225 -14.9076 -14.9076
-0.959661 -15.0557 -15.0557
-0.709514 -15.0626 -15.0626
-0.704521 -14.9144 -14.9144
-0.956945 -14.9816 -14.9816
-0.834564 -15.0591 -15.0591
-0.707018 -14.9884 -14.9884
-0.829349 -14.9109 -14.9109
-0.831958 -14.985 -14.985
-0.959661 -15.0557 -15.0557
-0.965079 -15.2041 -15.2041
-0.714502 -15.211 -15.211
-0.709514 -15.0626 -15.0626
-0.962373 -15.1299 -15.1299
-0.839768 -15.2076 -15.2076
-0.712009 -15.1368 -15.1368
-0.834564 -15.0591 -15.0591
-0.837167 -15.1333 -15.1333
-0.965079 -15.2041 -15.2041
-0.970479 -15.3528 -15.3528
-0.719486 -15.3598 -15.3598
-0.714502 -15.211 -15.211
-0.967782 -15.2784 -15.2784
-0.844959 -15.3563 -15.3563
-0.716995 -15.2854 -15.2854
-0.839768 -15.2076 -15.2076
-0.842365 -15.2819 -15.2819
-0.970479 -15.3528 -15.3528
-0.97586 -15.5017 -15.5017
-0.724464 -15.5087 -15.5087
-0.719486 -15.3598 -15.3598
-0.973172 -15.4272 -15.4272
-0.850139 -15.5052 -15.5052
-0.721976 -15.4342 -15.4342
-0.844959 -15.3563 -15.3563
-0.847551 -15.4307 -15.4307
-0.97586 -15.5017 -15.5017
-0.981222 -15.6509 -15.6509
-0.729436 -15.6579 -15.6579
-0.724464 -15.5087 -15.5087
-0.978544 -15.5763 -15.5763
-0.855306 -15.6544 -15.6544
-0.72695 -15.5833 -15.5833
-0.850139 -15.5052 -15.5052
-0.852724 -15.5798 -15.5798
-0.981222 -15.6509 -15.6509
-0.986564 -15.8003 -15.8003
-0.734401 -15.8073 -15.8073
-0.729436 -15.6579 -15.6579
-0.983896 -15.7255 -15.7255
-0.860459 -15.8038 -15.8038
-0.731919 -15.7326 -15.7326
-0.855306 -15.6544 -15.6544
-0.857884 -15.729 -15.729
-0.986564 -15.8003 -15.8003
-0.991886 -15.9499 -15.9499
-0.739359 -15.957 -15.957
-0.734401 -15.8073 -15.8073
-0.989228 -15.875 -15.875
-0.8656 -15.9534 -15.9534
-0.736881 -15.8821 -15.8821
-0.860459 -15.8038 -15.8038
-0.863031 -15.8786 -15.8786
-0.991886 -15.9499 -15.9499
-0.997187 -16.0997 -16.0997
-0.74431 -16.1068 -16.1068
-0.739359 -15.957 -15.957
-0.994539 -16.0248 -16.0248
-0.870726 -16.1032 -16.1032
-0.741836 -16.0319 -16.0319
-0.8656 -15.9534 -15.9534
-0.868164 -16.0283 -16.0283
-0.997187 -16.0997 -16.0997
-1.00247 -16.2497 -16.2497
-0.749253 -16.2569 -16.2569
-0.74431 -16.1068 -16.1068
-0.99983 -16.1747 -16.1747
-0.875837 -16.2533 -16.2533
-0.746783 -16.1818 -16.1818
-0.870726 -16.1032 -16.1032
-0.873283 -16.1782 -16.1782
-1.00247 -16.2497 -16.2497
-1.00773 -16.4 -16.4
-0.754188 -16.4071 -16.4071
-0.749253 -16.2569 -16.2569
-1.0051 -16.3248 -16.3248
-0.880934 -16.4035 -16.4035
-0.751722 -16.332 -16.332
-0.875837 -16.2533 -16.2533
-0.878388 -16.3284 -16.3284
-1.00773 -16.4 -16.4
-1.01296 -16.5504 -16.5504
-0.759114 -16.5576 -16.5576
-0.754188 -16.4071 -16.4071
-1.01035 -16.4751 -16.4751
-0.886016 -16.554 -16.554
-0.756652 -16.4823 -16.4823
-0.880934 -16.4035 -16.4035
-0.883477 -16.4787 -16.4787
-1.01296 -16.5504 -16.5504
-1.01818 -16.701 -16.701
-0.764031 -16.7082 -16.7082
-0.759114 -16.5576 -16.5576
-1.01557 -16.6256 -16.6256
-0.891081 -16.7046 -16.7046
-0.761574 -16.6329 -16.6329
-0.886016 -16.554 -16.554
-0.88855 -16.6292 -16.6292
-1.01818 -16.701 -16.701
-1.02337 -16.8517 -16.8517
-0.768939 -16.859 -16.859
-0.764031 -16.7082 -16.7082
-1.02078 -16.7763 -16.7763
-0.896131 -16.8554 -16.8554
-0.766486 -16.7836 -16.7836
-0.891081 -16.7046 -16.7046
-0.893608 -16.7799 -16.7799
-1.02337 -16.8517 -16.8517
-1.02854 -17.0027 -17.0027
-0.773836 -17.01 -17.01
-0.768939 -16.859 -16.859
-1.02596 -16.9272 -16.9272
-0.901163 -17.0063 -17.0063
-0.771389 -16.9345 -16.9345
-0.896131 -16.8554 -16.8554
-0.898649 -16.9308 -16.9308
-1.02854 -17.0027 -17.0027
-1.03368 -17.1538 -17.1538
-0.778723 -17.1611 -17.1611
-0.773836 -17.01 -17.01
-1.03111 -17.0782 -17.0782
-0.906179 -17.1574 -17.1574
-0.776281 -17.0855 -17.0855
-0.901163 -17.0063 -17.0063
-0.903673 -17.0819 -17.0819
-1.03368 -17.1538 -17.1538
-1.0388 -17.305 -17.305
-0.783598 -17.3124 -17.3124
-0.778723 -17.1611 -17.1611
-1.03624 -17.2294 -17.2294
-0.911177 -17.3087 -17.3087
-0.781162 -17.2367 -17.2367
-0.906179 -17.1574 -17.1574
-0.90868 -17.233 -17.233
-1.0388 -17.305 -17.305
-1.0439 -17.4564 -17.4564
-0.788463 -17.4638 -17.4638
-0.783598 -17.3124 -17.3124
-1.04135 -17.3807 -17.3807
-0.916157 -17.4601 -17.4601
-0.786032 -17.3881 -17.3881
-0.911177 -17.3087 -17.3087
-0.913669 -17.3844 -17.3844
-1.0439 -17.4564 -17.4564
-1.04897 -17.6079 -17.6079
-0.793315 -17.6154 -17.6154
-0.788463 -17.4638 -17.4638
-1.04643 -17.5322 -17.5322
-0.921118 -17.6116 -17.6116
-0.79089 -17.5396 -17.5396
-0.916157 -17.4601 -17.4601
-0.91864 -17.5359 -17.5359
-1.04897 -17.6079 -17.6079
-1.05401 -17.7596 -17.7596
-0.798155 -17.767 -17.767
-0.793315 -17.6154 -17.6154
-1.05149 -17.6838 -17.6838
-0.92606 -17.7633 -17.7633
-0.795737 -17.6912 -17.6912
-0.921118 -17.6116 -17.6116
-0.923592 -17.6875 -17.6875
-1.05401 -17.7596 -17.7596
-1.05903 -17.9114 -17.9114
-0.802982 -17.9188 -17.9188
-0.798155 -17.767 -17.767
-1.05652 -17.8355 -17.8355
-0.930983 -17.9151 -17.9151
-0.80057 -17.8429 -17.8429
-0.92606 -17.7633 -17.7633
-0.928524 -17.8392 -17.8392
-1.05903 -17.9114 -17.9114
-1.06402 -18.0633 -18.0633
-0.807796 -18.0707 -18.0707
-0.802982 -17.9188 -17.9188
-1.06153 -17.9873 -17.9873
-0.935886 -18.067 -18.067
-0.805391 -17.9948 -17.9948
-0.930983 -17.9151 -17.9151
-0.933437 -17.991 -17.991
-1.06402 -18.0633 -18.0633
-1.06899 -18.2152 -18.2152
-0.812596 -18.2228 -18.2228
-0.807796 -18.0707 -18.0707
-1.06651 -18.1392 -18.1392
-0.940769 -18.219 -18.219
-0.810198 -18.1467 -18.1467
-0.935886 -18.067 -18.067
-0.93833 -18.143 -18.143
-1.06899 -18.2152 -18.2152
-1.07392 -18.3673 -18.3673
-0.817382 -18.3749 -18.3749
-0.812596 -18.2228 -18.2228
-1.07146 -18.2913 -18.2913
-0.94563 -18.3711 -18.3711
-0.814991 -18.2988 -18.2988
-0.940769 -18.219 -18.219
-0.943202 -18.295 -18.295
-1.07392 -18.3673 -18.3673
-1.07883 -18.5195 -18.5195
-0.822153 -18.5271 -18.5271
-0.817382 -18.3749 -18.3749
-1.07638 -18.4434 -18.4434
-0.95047 -18.5233 -18.5233
-0.819769 -18.451 -18.451
-0.94563 -18.3711 -18.3711
-0.948053 -18.4472 -18.4472
-1.07883 -18.5195 -18.5195
-1.08371 -18.6718 -18.6718
-0.826908 -18.6793 -18.6793
-0.822153 -18.5271 -18.5271
-1.08128 -18.5956 -18.5956
-0.955288 -18.6755 -18.6755
-0.824532 -18.6032 -18.6032
-0.95047 -18.5233 -18.5233
-0.952882 -18.5994 -18.5994
-1.08371 -18.6718 -18.6718
-1.08857 -18.8241 -18.8241
-0.831647 -18.8317 -18.8317
-0.826908 -18.6793 -18.6793
-1.08614 -18.7479 -18.7479
-0.960084 -18.8279 -18.8279
-0.82928 -18.7555 -18.7555
-0.955288 -18.6755 -18.6755
-0.957689 -18.7517 -18.7517
-1.08857 -18.8241 -18.8241
-1.09339 -18.9765 -18.9765
-0.836368 -18.9841 -18.9841
-0.831647 -18.8317 -18.8317
-1.09098 -18.9003 -18.9003
-0.964855 -18.9803 -18.9803
-0.834009 -18.9079 -18.9079
-0.960084 -18.8279 -18.8279
-0.962472 -18.9041 -18.9041
-1.09339 -18.9765 -18.9765
-1.09818 -19.1289 -19.1289
-0.841069 -19.1366 -19.1366
-0.836368 -18.9841 -18.9841
-1.09579 -19.0527 -19.0527
-0.9696 -19.1327 -19.1327
-0.838721 -19.0603 -19.0603
-0.964855 -18.9803 -18.9803
-0.967231 -19.0565 -19.0565
-1.09818 -19.1289 -19.1289
-1.10294 -19.2814 -19.2814
-0.845748 -19.2891 -19.2891
-0.841069 -19.1366 -19.1366
-1.10056 -19.2052 -19.2052
-0.974318 -19.2853 -19.2853
-0.843411 -19.2128 -19.2128
-0.9696 -19.1327 -19.1327
-0.971963 -19.209 -19.209
-1.10294 -19.2814 -19.2814
-1.10767 -19.434 -19.434
-0.850404 -19.4417 -19.4417
-0.845748 -19.2891 -19.2891
-1.10531 -19.3577 -19.3577
-0.979006 -19.4378 -19.4378
-0.848079 -19.3654 -19.3654
-0.974318 -19.2853 -19.2853
-0.976666 -19.3615 -19.3615
-1.10767 -19.434 -19.434
-1.11235 -19.5865 -19.5865
-0.855036 -19.5943 -19.5943
-0.850404 -19.4417 -19.4417
-1.11002 -19.5102 -19.5102
-0.98366 -19.5904 -19.5904
-0.852723 -19.518 -19.518
-0.979006 -19.4378 -19.4378
-0.981337 -19.5141 -19.5141
-1.11235 -19.5865 -19.5865
-1.117 -19.7392 -19.7392
-0.859648 -19.7469 -19.7469
-0.855036 -19.5943 -19.5943
-1.11469 -19.6629 -19.6629
-0.988282 -19.743 -19.743
-0.857343 -19.6706 -19.6706
-0.98366 -19.5904 -19.5904
-0.985975 -19.6667 -19.6667
-1.117 -19.7392 -19.7392
-1.12162 -19.8919 -19.8919
-0.864256 -19.8995 -19.8995
-0.859648 -19.7469 -19.7469
-1.11931 -19.8156 -19.8156
-0.992889 -19.8957 -19.8957
-0.861951 -19.8232 -19.8232
-0.988282 -19.743 -19.743
-0.990584 -19.8194 -19.8194
-1.12162 -19.8919 -19.8919
-1.12626 -20.0447 -20.0447
-0.868875 -20.0521 -20.0521
-0.864256 -19.8995 -19.8995
-1.12393 -19.9683 -19.9683
-0.997532 -20.0484 -20.0484
-0.866564 -19.9758 -19.9758
-0.992889 -19.8957 -19.8957
-0.995204 -19.9721 -19.9721
0 0 0
-0.00347538 -0.000348888 -0.000348888
-0.00115381 0.000187322 0.000187322
0 0 0
-0.00168507 0.000108985 0.000108985
-0.00230607 -1.30025e-05 -1.30025e-05
-0.000574569 0.000373576 0.000373576
0 0 0
-0.0011197 0.000284033 0.000284033
-0.00347538 -0.000348888 -0.000348888
-0.00721595 -0.00267625 -0.00267625
-0.00240127 -0.00174608 -0.00174608
-0.00115381 0.000187322 0.000187322
-0.00532228 -0.00128873 -0.00128873
-0.00478658 -0.00208115 -0.00208115
-0.00176601 -0.00053114 -0.00053114
-0.00230607 -1.30025e-05 -1.30025e-05
-0.00353077 -0.000810486 -0.000810486
-0.00721595 -0.00267625 -0.00267625
-0.0111131 -0.0067065 -0.0067065
-0.00369396 -0.00553936 -0.00553936
-0.00240127 -0.00174608 -0.00174608
-0.0091525 -0.00448965 -0.00448965
-0.00737216 -0.00596686 -0.00596686
-0.003044 -0.00342286 -0.00342286
-0.00478658 -0.00208115 -0.00208115
-0.00607008 -0.00380863 -0.00380863
-0.0111131 -0.0067065 -0.0067065
-0.0150437 -0.0122885 -0.0122885
-0.00501643 -0.0110229 -0.0110229
-0.00369396 -0.00553936 -0.00553936
-0.0130785 -0.00930775 -0.00930775
-0.00999821 -0.0114907 -0.0114907
-0.00435307 -0.0080775 -0.0080775
-0.00737216 -0.00596686 -0.00596686
-0.00868332 -0.00853099 -0.00853099
-0.0150437 -0.0122885 -0.0122885
-0.0189636 -0.0193815 -0.0193815
-0.00633986 -0.018092 -0.018092
-0.00501643 -0.0110229 -0.0110229
-0.0170066 -0.0156473 -0.0156473
-0.0126245 -0.0185716 -0.0185716
-0.00567875 -0.0143634 -0.0143634
-0.00999821 -0.0114907 -0.0114907
-0.0113128 -0.0148396 -0.0148396
-0.0189636 -0.0193815 -0.0193815
-0.022851 -0.0279697 -0.0279697
-0.00765948 -0.0266931 -0.0266931
-0.00633986 -0.018092 -0.018092
-0.0209116 -0.0234891 -0.0234891
-0.0152331 -0.0271674 -0.0271674
-0.00700043 -0.0222031 -0.0222031
-0.0126245 -0.0185716 -0.0185716
-0.0139314 -0.0226815 -0.0226815
-0.022851 -0.0279697 -0.0279697
-0.0267085 -0.0380504 -0.0380504
-0.00897042 -0.0367981 -0.0367981
-0.00765948 -0.0266931 -0.0266931
-0.0247832 -0.0328238 -0.0328238
-0.0178214 -0.0372622 -0.0372622
-0.00831597 -0.0315586 -0.0315586
-0.0152331 -0.0271674 -0.0271674
-0.0165296 -0.0320281 -0.0320281
-0.0267085 -0.0380504 -0.0380504
-0.0305392 -0.0496181 -0.0496181
-0.0102756 -0.0483932 -0.0483932
-0.00897042 -0.0367981 -0.0367981
-0.0286268 -0.0436487 -0.0436487
-0.020392 -0.0488451 -0.0488451
-0.00962357 -0.04241 -0.04241
-0.0178214 -0.0372622 -0.0372622
-0.0191086 -0.0428681 -0.0428681
-0.0305392 -0.0496181 -0.0496181
-0.0343491 -0.0626678 -0.0626678
-0.0115766 -0.0614693 -0.0614693
-0.0102756 -0.0483932 -0.0483932
-0.0324465 -0.0559581 -0.0559581
-0.0229491 -0.0619095 -0.0619095
-0.0109264 -0.0547465 -0.0547465
-0.020392 -0.0488451 -0.0488451
-0.021672 -0.0551926 -0.0551926
-0.0343491 -0.0626678 -0.0626678
-0.0381417 -0.0771926 -0.0771926
-0.0128764 -0.0760196 -0.0760196
-0.0115766 -0.0614693 -0.0614693
-0.0362473 -0.0697463 -0.0697463
-0.0254962 -0.0764482 -0.0764482
-0.0122265 -0.0685606 -0.0685606
-0.0229491 -0.0619095 -0.0619095
-0.0242237 -0.0689949 -0.0689949
-0.0381417 -0.0771926 -0.0771926
-0.0419204 -0.0931855 -0.0931855
-0.0141765 -0.0920372 -0.0920372
-0.0128764 -0.0760196 -0.0760196
-0.0400327 -0.085006 -0.085006
-0.028036 -0.0924545 -0.0924545
-0.0135263 -0.0838454 -0.0838454
-0.0254962 -0.0764482 -0.0764482
-0.0267669 -0.0842683 -0.0842683
-0.0419204 -0.0931855 -0.0931855
-0.0456871 -0.110639 -0.110639
-0.0154787 -0.109515 -0.109515
-0.0141765 -0.0920372 -0.0920372
-0.0438052 -0.10173 -0.10173
-0.0305707 -0.109921 -0.109921
-0.0148273 -0.100594 -0.100594
-0.028036 -0.0924545 -0.0924545
-0.0293039 -0.101006 -0.101006
-0.0456871 -0.110639 -0.110639
-0.0494434 -0.129545 -0.129545
-0.0167842 -0.128447 -0.128447
-0.0154787 -0.109515 -0.109515
-0.0475665 -0.119911 -0.119911
-0.0331016 -0.128841 -0.128841
-0.016131 -0.1188 -0.1188
-0.0305707 -0.109921 -0.109921
-0.0318365 -0.1192 -0.1192
-0.0494434 -0.129545 -0.129545
-0.0531905 -0.149896 -0.149896
-0.0180938 -0.148824 -0.148824
-0.0167842 -0.128447 -0.128447
-0.0513181 -0.13954 -0.13954
-0.0356299 -0.149206 -0.149206
-0.0174384 -0.138455 -0.138455
-0.0331016 -0.128841 -0.128841
-0.034366 -0.138843 -0.138843
-0.0531905 -0.149896 -0.149896
-0.0569292 -0.171684 -0.171684
-0.0194085 -0.170639 -0.170639
-0.0180938 -0.148824 -0.148824
-0.0550608 -0.160611 -0.160611
-0.0381565 -0.171008 -0.171008
-0.0187505 -0.159552 -0.159552
-0.0356299 -0.149206 -0.149206
-0.0368934 -0.159928 -0.159928
-0.0569292 -0.171684 -0.171684
-0.0606605 -0.194901 -0.194901
-0.0207291 -0.193885 -0.193885
-0.0194085 -0.170639 -0.170639
-0.0587957 -0.183114 -0.183114
-0.0406824 -0.194241 -0.194241
-0.020068 -0.182084 -0.182084
-0.0381565 -0.171008 -0.171008
-0.0394195 -0.182446 -0.182446
-0.0606605 -0.194901 -0.194901
-0.0643851 -0.21954 -0.21954
-0.0220564 -0.218554 -0.218554
-0.0207291 -0.193885 -0.193885
-0.0625236 -0.207043 -0.207043
-0.0432082 -0.218895 -0.218895
-0.0213919 -0.206042 -0.206042
-0.0406824 -0.194241 -0.194241
-0.0419453 -0.206391 -0.206391
-0.0643851 -0.21954 -0.21954
-0.0681037 -0.245592 -0.245592
-0.023391 -0.244637 -0.244637
-0.0220564 -0.218554 -0.218554
-0.0662451 -0.23239 -0.23239
-0.0457348 -0.244964 -0.244964
-0.0227227 -0.231419 -0.231419
-0.0432082 -0.218895 -0.218895
-0.0444714 -0.231753 -0.231753
-0.0681037 -0.245592 -0.245592
-0.071817 -0.273051 -0.273051
-0.0247336 -0.272127 -0.272127
-0.023391 -0.244637 -0.244637
-0.069961 -0.259146 -0.259146
-0.0482627 -0.272439 -0.272439
-0.0240613 -0.258207 -0.258207
-0.0457348 -0.244964 -0.244964
-0.0469985 -0.258526 -0.258526
-0.071817 -0.273051 -0.273051
-0.0755258 -0.301907 -0.301907
-0.0260851 -0.301016 -0.301016
-0.0247336 -0.272127 -0.272127
-0.0736719 -0.287305 -0.287305
-0.0507927 -0.301313 -0.301313
-0.0254082 -0.286397 -0.286397
-0.0482627 -0.272439 -0.272439
-0.0495274 -0.286702 -0.286702
-0.0755258 -0.301907 -0.301907
-0.0792307 -0.332153 -0.332153
-0.0274459 -0.331297 -0.331297
-0.0260851 -0.301016 -0.301016
-0.0773787 -0.316857 -0.316857
-0.0533255 -0.331577 -0.331577
-0.0267643 -0.315983 -0.315983
-0.0507927 -0.301313 -0.301313
-0.0520587 -0.316271 -0.316271
-0.0792307 -0.332153 -0.332153
-0.0829324 -0.363782 -0.363782
-0.0288169 -0.362961 -0.362961
-0.0274459 -0.331297 -0.331297
-0.0810819 -0.347795 -0.347795
-0.0558618 -0.363224 -0.363224
-0.0281301 -0.346956 -0.346956
-0.0533255 -0.331577 -0.331577
-0.0545932 -0.347228 -0.347228
-0.0829324 -0.363782 -0.363782
-0.0866315 -0.396784 -0.396784
-0.0301985 -0.396 -0.396
-0.0288169 -0.362961 -0.362961
-0.0847822 -0.380112 -0.380112
-0.0584021 -0.396246 -0.396246
-0.0295063 -0.379309 -0.379309
-0.0558618 -0.363224 -0.363224
-0.0571314 -0.379563 -0.379563
-0.0866315 -0.396784 -0.396784
-0.0903286 -0.431154 -0.431154
-0.0315916 -0.430407 -0.430407
-0.0301985 -0.396 -0.396
-0.0884802 -0.413799 -0.413799
-0.0609471 -0.430635 -0.430635
-0.0308936 -0.413033 -0.413033
-0.0584021 -0.396246 -0.396246
-0.059674 -0.41327 -0.41327
-0.0903286 -0.431154 -0.431154
-0.0940244 -0.466882 -0.466882
-0.0329967 -0.466174 -0.466174
-0.0315916 -0.430407 -0.430407
-0.0921766 -0.448848 -0.448848
-0.0634975 -0.466383 -0.466383
-0.0322926 -0.448121 -0.448121
-0.0609471 -0.430635 -0.430635
-0.0622216 -0.448339 -0.448339
-0.0940244 -0.466882 -0.466882
-0.0977196 -0.503961 -0.503961
-0.0344144 -0.503292 -0.503292
-0.0329967 -0.466174 -0.466174
-0.0958721 -0.485253 -0.485253
-0.0660539 -0.503482 -0.503482
-0.0337039 -0.484564 -0.484564
-0.0634975 -0.466383 -0.466383
-0.0647749 -0.484764 -0.484764
-0.0977196 -0.503961 -0.503961
-0.101415 -0.542382 -0.542382
-0.0358453 -0.541755 -0.541755
-0.0344144 -0.503292 -0.503292
-0.0995671 -0.523004 -0.523004
-0.0686168 -0.541925 -0.541925
-0.0351281 -0.522356 -0.522356
-0.0660539 -0.503482 -0.503482
-0.0673345 -0.522537 -0.522537
-0.101415 -0.542382 -0.542382
-0.10511 -0.582139 -0.582139
-0.03729 -0.581553 -0.581553
-0.0358453 -0.541755 -0.541755
-0.103262 -0.562095 -0.562095
-0.0711869 -0.581704 -0.581704
-0.0365659 -0.561487 -0.561487
-0.0686168 -0.541925 -0.541925
-0.0699009 -0.561648 -0.561648
-0.10511 -0.582139 -0.582139
-0.108807 -0.623224 -0.623224
-0.0387491 -0.62268 -0.62268
-0.03729 -0.581553 -0.581553
-0.106958 -0.602516 -0.602516
-0.0737647 -0.622811 -0.622811
-0.0380177 -0.601951 -0.601951
-0.0711869 -0.581704 -0.581704
-0.0724748 -0.602092 -0.602092
-0.108807 -0.623224 -0.623224
-0.112505 -0.665627 -0.665627
-0.0402232 -0.665127 -0.665127
-0.0387491 -0.62268 -0.62268
-0.110656 -0.644261 -0.644261
-0.0763508 -0.665237 -0.665237
-0.0394843 -0.643739 -0.643739
-0.0737647 -0.622811 -0.622811
-0.0750566 -0.643859 -0.643859
-0.112505 -0.665627 -0.665627
-0.116205 -0.709343 -0.709343
-0.0417128 -0.708887 -0.708887
-0.0402232 -0.665127 -0.665127
-0.114355 -0.687322 -0.687322
-0.0789457 -0.708975 -0.708975
-0.040966 -0.686844 -0.686844
-0.0763508 -0.665237 -0.665237
-0.0776471 -0.686943 -0.686943
-0.116205 -0.709343 -0.709343
-0.119909 -0.754362 -0.754362
-0.0432184 -0.753951 -0.753951
-0.0417128 -0.708887 -0.708887
-0.118057 -0.73169 -0.73169
-0.0815501 -0.754018 -0.754018
-0.0424636 -0.731257 -0.731257
-0.0789457 -0.708975 -0.708975
-0.0802467 -0.731334 -0.731334
-0.119909 -0.754362 -0.754362
-0.123615 -0.800677 -0.800677
-0.0447406 -0.800313 -0.800313
-0.0432184 -0.753951 -0.753951
-0.121761 -0.777358 -0.777358
-0.0841643 -0.800357 -0.800357
-0.0439774 -0.77697 -0.77697
-0.0815501 -0.754018 -0.754018
-0.0828559 -0.777026 -0.777026
-0.123615 -0.800677 -0.800677
-0.127325 -0.84828 -0.84828
-0.0462799 -0.847963 -0.847963
-0.0447406 -0.800313 -0.800313
-0.12547 -0.824318 -0.824318
-0.086789 -0.847984 -0.847984
-0.0455081 -0.823977 -0.823977
-0.0841643 -0.800357 -0.800357
-0.0854753 -0.82401 -0.82401
-0.127325 -0.84828 -0.84828
-0.13104 -0.897163 -0.897163
-0.0478368 -0.896894 -0.896894
-0.0462799 -0.847963 -0.847963
-0.129182 -0.872562 -0.872562
-0.0894247 -0.896892 -0.896892
-0.0470561 -0.872269 -0.872269
-0.086789 -0.847984 -0.847984
-0.0881055 -0.872279 -0.872279
-0.13104 -0.897163 -0.897163
-0.134759 -0.947318 -0.947318
-0.0494118 -0.947098 -0.947098
-0.0478368 -0.896894 -0.896894
-0.132899 -0.922082 -0.922082
-0.0920717 -0.947073 -0.947073
-0.048622 -0.921837 -0.921837
-0.0894247 -0.896892 -0.896892
-0.0907467 -0.921824 -0.921824
-0.134759 -0.947318 -0.947318
-0.138484 -0.998738 -0.998738
-0.0510054 -0.998568 -0.998568
-0.0494118 -0.947098 -0.947098
-0.136621 -0.972871 -0.972871
-0.0947307 -0.998518 -0.998518
-0.0502062 -0.972675 -0.972675
-0.0920717 -0.947073 -0.947073
-0.0933997 -0.972638 -0.972638
-0.138484 -0.998738 -0.998738
-0.142214 -1.05141 -1.05141
-0.052618 -1.05129 -1.05129
-0.0510054 -0.998568 -0.998568
-0.140348 -1.02492 -1.02492
-0.0974021 -1.05122 -1.05122
-0.0518093 -1.02477 -1.02477
-0.0947307 -0.998518 -0.998518
-0.0960648 -1.02471 -1.02471
-0.142214 -1.05141 -1.05141
-0.14595 -1.10534 -1.10534
-0.0542501 -1.10527 -1.10527
-0.052618 -1.05129 -1.05129
-0.144081 -1.07822 -1.07822
-0.100086 -1.10517 -1.10517
-0.0534315 -1.07813 -1.07813
-0.0974021 -1.05122 -1.05122
-0.0987425 -1.07804 -1.07804
-0.14595 -1.10534 -1.10534
-0.149693 -1.16051 -1.16051
-0.0559021 -1.16049 -1.16049
-0.0542501 -1.10527 -1.10527
-0.147821 -1.13277 -1.13277
-0.102784 -1.16037 -1.16037
-0.0550735 -1.13273 -1.13273
-0.100086 -1.10517 -1.10517
-0.101433 -1.13261 -1.13261
-0.149693 -1.16051 -1.16051
-0.153443 -1.21691 -1.21691
-0.0575745 -1.21694 -1.21694
-0.0559021 -1.16049 -1.16049
-0.151567 -1.18855 -1.18855
-0.105495 -1.21679 -1.21679
-0.0567357 -1.18856 -1.18856
-0.102784 -1.16037 -1.16037
-0.104138 -1.18843 -1.18843
-0.153443 -1.21691 -1.21691
-0.157201 -1.27453 -1.27453
-0.0592677 -1.27462 -1.27462
-0.0575745 -1.21694 -1.21694
-0.155321 -1.24557 -1.24557
-0.10822 -1.27444 -1.27444
-0.0584185 -1.24563 -1.24563
-0.105495 -1.21679 -1.21679
-0.106856 -1.24547 -1.24547
-0.157201 -1.27453 -1.27453
-0.160966 -1.33337 -1.33337
-0.0609821 -1.33351 -1.33351
-0.0592677 -1.27462 -1.27462
-0.159082 -1.3038 -1.3038
-0.11096 -1.33331 -1.33331
-0.0601222 -1.30392 -1.30392
-0.10822 -1.27444 -1.27444
-0.109588 -1.30373 -1.30373
-0.160966 -1.33337 -1.33337
-0.16474 -1.39342 -1.39342
-0.0627181 -1.39362 -1.39362
-0.0609821 -1.33351 -1.33351
-0.162852 -1.36325 -1.36325
-0.113715 -1.39339 -1.39339
-0.0618474 -1.36342 -1.36342
-0.11096 -1.33331 -1.33331
-0.112336 -1.3632 -1.3632
-0.16474 -1.39342 -1.39342
-0.168522 -1.45468 -1.45468
-0.0644761 -1.45493 -1.45493
-0.0627181 -1.39362 -1.39362
-0.16663 -1.4239 -1.4239
-0.116485 -1.45468 -1.45468
-0.0635943 -1.42413 -1.42413
-0.113715 -1.39339 -1.39339
-0.115098 -1.42388 -1.42388
-0.168522 -1.45468 -1.45468
-0.172314 -1.51712 -1.51712
-0.0662565 -1.51743 -1.51743
-0.0644761 -1.45493 -1.45493
-0.170417 -1.48575 -1.48575
-0.119271 -1.51715 -1.51715
-0.0653635 -1.48603 -1.48603
-0.116485 -1.45468 -1.45468
-0.117876 -1.48576 -1.48576
-0.172314 -1.51712 -1.51712
-0.176115 -1.58076 -1.58076
-0.0680596 -1.58112 -1.58112
-0.0662565 -1.51743 -1.51743
-0.174213 -1.54879 -1.54879
-0.122073 -1.58081 -1.58081
-0.0671552 -1.54913 -1.54913
-0.119271 -1.51715 -1.51715
-0.12067 -1.54883 -1.54883
-0.176115 -1.58076 -1.58076
-0.179925 -1.64557 -1.64557
-0.0698858 -1.64599 -1.64599
-0.0680596 -1.58112 -1.58112
-0.178019 -1.61302 -1.61302
-0.124891 -1.64565 -1.64565
-0.0689698 -1.61341 -1.61341
-0.122073 -1.58081 -1.58081
-0.12348 -1.61309 -1.61309
-0.179925 -1.64557 -1.64557
-0.183746 -1.71155 -1.71155
-0.0717355 -1.71203 -1.71203
-0.0698858 -1.64599 -1.64599
-0.181834 -1.67841 -1.67841
-0.127727 -1.71166 -1.71166
-0.0708077 -1.67886 -1.67886
-0.124891 -1.64565 -1.64565
-0.126307 -1.67851 -1.67851
-0.183746 -1.71155 -1.71155
-0.187577 -1.77869 -1.77869
-0.0736089 -1.77923 -1.77923
-0.0717355 -1.71203 -1.71203
-0.18566 -1.74498 -1.74498
-0.130579 -1.77884 -1.77884
-0.0726692 -1.74548 -1.74548
-0.127727 -1.71166 -1.71166
-0.129151 -1.74511 -1.74511
-0.187577 -1.77869 -1.77869
-0.191419 -1.84699 -1.84699
-0.0755064 -1.84759 -1.84759
-0.0736089 -1.77923 -1.77923
-0.189497 -1.8127 -1.8127
-0.133449 -1.84717 -1.84717
-0.0745546 -1.81326 -1.81326
-0.130579 -1.77884 -1.77884
-0.132012 -1.81286 -1.81286
-0.191419 -1.84699 -1.84699
-0.195272 -1.91644 -1.91644
-0.0774283 -1.91709 -1.91709
-0.0755064 -1.84759 -1.84759
-0.193344 -1.88157 -1.88157
-0.136336 -1.91664 -1.91664
-0.0764643 -1.8822 -1.8822
-0.133449 -1.84717 -1.84717
-0.13489 -1.88176 -1.88176
-0.195272 -1.91644 -1.91644
-0.199137 -1.98702 -1.98702
-0.0793749 -1.98773 -1.98773
-0.0774283 -1.91709 -1.91709
-0.197203 -1.95159 -1.95159
-0.139242 -1.98726 -1.98726
-0.0783985 -1.95227 -1.95227
-0.136336 -1.91664 -1.91664
-0.137787 -1.95181 -1.95181
-0.199137 -1.98702 -1.98702
-0.203013 -2.05873 -2.05873
-0.0813466 -2.05951 -2.05951
-0.0793749 -1.98773 -1.98773
-0.201074 -2.02274 -2.02274
-0.142165 -2.059 -2.059
-0.0803576 -2.02348 -2.02348
-0.139242 -1.98726 -1.98726
-0.140701 -2.02299 -2.02299
-0.203013 -2.05873 -2.05873
-0.206901 -2.13157 -2.13157
-0.0833434 -2.13241 -2.13241
-0.0813466 -2.05951 -2.05951
-0.204956 -2.09501 -2.09501
-0.145108 -2.13187 -2.13187
-0.0823418 -2.09582 -2.09582
-0.142165 -2.059 -2.059
-0.143634 -2.0953 -2.0953
-0.206901 -2.13157 -2.13157
-0.210802 -2.20552 -2.20552
-0.0853659 -2.20642 -2.20642
-0.0833434 -2.13241 -2.13241
-0.20885 -2.16841 -2.16841
-0.148069 -2.20585 -2.20585
-0.0843514 -2.16928 -2.16928
-0.145108 -2.13187 -2.13187
-0.146586 -2.16872 -2.16872
-0.210802 -2.20552 -2.20552
-0.214714 -2.28058 -2.28058
-0.0874141 -2.28154 -2.28154
-0.0853659 -2.20642 -2.20642
-0.212756 -2.24292 -2.24292
-0.15105 -2.28095 -2.28095
-0.0863867 -2.24385 -2.24385
-0.148069 -2.20585 -2.20585
-0.149557 -2.24326 -2.24326
-0.214714 -2.28058 -2.28058
-0.21864 -2.35674 -2.35674
-0.0894884 -2.35777 -2.35777
-0.0874141 -2.28154 -2.28154
-0.216676 -2.31853 -2.31853
-0.15405 -2.35714 -2.35714
-0.088448 -2.31952 -2.31952
-0.15105 -2.28095 -2.28095
-0.152547 -2.31891 -2.31891
-0.21864 -2.35674 -2.35674
-0.222579 -2.434 -2.434
-0.091589 -2.43508 -2.43508
-0.0894884 -2.35777 -2.35777
-0.220608 -2.39523 -2.39523
-0.157069 -2.43442 -2.43442
-0.0905354 -2.39629 -2.39629
-0.15405 -2.35714 -2.35714
-0.155557 -2.39564 -2.39564
-0.222579 -2.434 -2.434
-0.22653 -2.51233 -2.51233
-0.0937161 -2.51348 -2.51348
-0.091589 -2.43508 -2.43508
-0.224553 -2.47303 -2.47303
-0.160109 -2.51279 -2.51279
-0.0926492 -2.47414 -2.47414
-0.157069 -2.43442 -2.43442
-0.158586 -2.47347 -2.47347
-0.22653 -2.51233 -2.51233
-0.230495 -2.59174 -2.59174
-0.0958699 -2.59295 -2.59295
-0.0937161 -2.51348 -2.51348
-0.228511 -2.5519 -2.5519
-0.163168 -2.59223 -2.59223
-0.0947896 -2.55308 -2.55308
-0.160109 -2.51279 -2.51279
-0.161636 -2.55238 -2.55238
-0.230495 -2.59174 -2.59174
-0.234474 -2.67222 -2.67222
-0.0980507 -2.6735 -2.6735
-0.0958699 -2.59295 -2.59295
-0.232483 -2.63185 -2.63185
-0.166248 -2.67275 -2.67275
-0.0969569 -2.63309 -2.63309
-0.163168 -2.59223 -2.59223
-0.164705 -2.63236 -2.63236
-0.234474 -2.67222 -2.67222
-0.238467 -2.75376 -2.75376
-0.100259 -2.7551 -2.7551
-0.0980507 -2.6735 -2.6735
-0.236469 -2.71286 -2.71286
-0.169348 -2.75432 -2.75432
-0.0991512 -2.71417 -2.71417
-0.166248 -2.67275 -2.67275
-0.167795 -2.7134 -2.7134
-0.238467 -2.75376 -2.75376
-0.242474 -2.83636 -2.83636
-0.102494 -2.83776 -2.83776
-0.100259 -2.7551 -2.7551
-0.240468 -2.79493 -2.79493
-0.172469 -2.83694 -2.83694
-0.101373 -2.7963 -2.7963
-0.169348 -2.75432 -2.75432
-0.170906 -2.7955 -2.7955
-0.242474 -2.83636 -2.83636
-0.246494 -2.91999 -2.91999
-0.104757 -2.92146 -2.92146
-0.102494 -2.83776 -2.83776
-0.244482 -2.87804 -2.87804
-0.175611 -2.92061 -2.92061
-0.103622 -2.87948 -2.87948
-0.172469 -2.83694 -2.83694
-0.174037 -2.87865 -2.87865
-0.246494 -2.91999 -2.91999
-0.25053 -3.00467 -3.00467
-0.107047 -3.0062 -3.0062
-0.104757 -2.92146 -2.92146
-0.24851 -2.9622 -2.9622
-0.178774 -3.00532 -3.00532
-0.105898 -2.9637 -2.9637
-0.175611 -2.92061 -2.92061
-0.17719 -2.96284 -2.96284
-0.25053 -3.00467 -3.00467
-0.254579 -3.09037 -3.09037
-0.109365 -3.09196 -3.09196
-0.107047 -3.0062 -3.0062
-0.252553 -3.04739 -3.04739
-0.181958 -3.09106 -3.09106
-0.108203 -3.04895 -3.04895
-0.178774 -3.00532 -3.00532
-0.180363 -3.04806 -3.04806
-0.254579 -3.09037 -3.09037
-0.258644 -3.17709 -3.17709
-0.111712 -3.17875 -3.17875
-0.109365 -3.09196 -3.09196
-0.25661 -3.1336 -3.1336
-0.185163 -3.17781 -3.17781
-0.110535 -3.13523 -3.13523
-0.181958 -3.09106 -3.09106
-0.183558 -3.13431 -3.13431
-0.258644 -3.17709 -3.17709
-0.262723 -3.26483 -3.26483
-0.114086 -3.26656 -3.26656
-0.111712 -3.17875 -3.17875
-0.260682 -3.22083 -3.22083
-0.18839 -3.26559 -3.26559
-0.112895 -3.22253 -3.22253
-0.185163 -3.17781 -3.17781
-0.186774 -3.22157 -3.22157
-0.262723 -3.26483 -3.26483
-0.266817 -3.35357 -3.35357
-0.116489 -3.35536 -3.35536
-0.114086 -3.26656 -3.26656
-0.264768 -3.30908 -3.30908
-0.191638 -3.35436 -3.35436
-0.115284 -3.31083 -3.31083
-0.18839 -3.26559 -3.26559
-0.190011 -3.30985 -3.30985
-0.266817 -3.35357 -3.35357
-0.270927 -3.44331 -3.44331
-0.11892 -3.44517 -3.44517
-0.116489 -3.35536 -3.35536
-0.26887 -3.39832 -3.39832
-0.194908 -3.44413 -3.44413
-0.117701 -3.40014 -3.40014
-0.191638 -3.35436 -3.35436
-0.193271 -3.39912 -3.39912
-0.270927 -3.44331 -3.44331
-0.275051 -3.53404 -3.53404
-0.121379 -3.53596 -3.53596
-0.11892 -3.44517 -3.44517
-0.272987 -3.48855 -3.48855
-0.1982 -3.5349 -3.5349
-0.120146 -3.49044 -3.49044
-0.194908 -3.44413 -3.44413
-0.196552 -3.48939 -3.48939
-0.275051 -3.53404 -3.53404
-0.279191 -3.62575 -3.62575
-0.123867 -3.62774 -3.62774
-0.121379 -3.53596 -3.53596
-0.277119 -3.57977 -3.57977
-0.201514 -3.62664 -3.62664
-0.12262 -3.58173 -3.58173
-0.1982 -3.5349 -3.5349
-0.199855 -3.58065 -3.58065
-0.279191 -3.62575 -3.62575
-0.283346 -3.71844 -3.71844
-0.126384 -3.72049 -3.72049
-0.123867 -3.62774 -3.62774
-0.281266 -3.67197 -3.67197
-0.20485 -3.71936 -3.71936
-0.125122 -3.674 -3.674
-0.201514 -3.62664 -3.62664
-0.203179 -3.67288 -3.67288
-0.283346 -3.71844 -3.71844
-0.287516 -3.81209 -3.81209
-0.12893 -3.81421 -3.81421
-0.126384 -3.72049 -3.72049
-0.285429 -3.76514 -3.76514
-0.208208 -3.81305 -3.81305
-0.127653 -3.76723 -3.76723
-0.20485 -3.71936 -3.71936
-0.206526 -3.76608 -3.76608
-0.287516 -3.81209 -3.81209
-0.291703 -3.9067 -3.9067
-0.131504 -3.90889 -3.90889
-0.12893 -3.81421 -3.81421
-0.289608 -3.85927 -3.85927
-0.211589 -3.90769 -3.90769
-0.130213 -3.86143 -3.86143
-0.208208 -3.81305 -3.81305
-0.209896 -3.86025 -3.86025
-0.291703 -3.9067 -3.9067
-0.295904 -4.00226 -4.00226
-0.134107 -4.00451 -4.00451
-0.131504 -3.90889 -3.90889
-0.293802 -3.95436 -3.95436
-0.214991 -4.00328 -4.00328
-0.132802 -3.95658 -3.95658
-0.211589 -3.90769 -3.90769
-0.213287 -3.95537 -3.95537
-0.295904 -4.00226 -4.00226
-0.300122 -4.09876 -4.09876
-0.13674 -4.10108 -4.10108
-0.134107 -4.00451 -4.00451
-0.298011 -4.05039 -4.05039
-0.218416 -4.09982 -4.09982
-0.13542 -4.05268 -4.05268
-0.214991 -4.00328 -4.00328
-0.216701 -4.05143 -4.05143
-0.300122 -4.09876 -4.09876
-0.304355 -4.1962 -4.1962
-0.139401 -4.19858 -4.19858
-0.13674 -4.10108 -4.10108
-0.302236 -4.14736 -4.14736
-0.221863 -4.19729 -4.19729
-0.138067 -4.14972 -4.14972
-0.218416 -4.09982 -4.09982
-0.220137 -4.14844 -4.14844
-0.304355 -4.1962 -4.1962
-0.308604 -4.29456 -4.29456
-0.142091 -4.29702 -4.29702
-0.139401 -4.19858 -4.19858
-0.306477 -4.24526 -4.24526
-0.225333 -4.29569 -4.29569
-0.140742 -4.24768 -4.24768
-0.221863 -4.19729 -4.19729
-0.223595 -4.24637 -4.24637
-0.308604 -4.29456 -4.29456
-0.312869 -4.39384 -4.39384
-0.144811 -4.39636 -4.39636
-0.142091 -4.29702 -4.29702
-0.310734 -4.34409 -4.34409
-0.228825 -4.39501 -4.39501
-0.143447 -4.34658 -4.34658
-0.225333 -4.29569 -4.29569
-0.227076 -4.34523 -4.34523
-0.312869 -4.39384 -4.39384
-0.317149 -4.49403 -4.49403
-0.147559 -4.49663 -4.49663
-0.144811 -4.39636 -4.39636
-0.315007 -4.44382 -4.44382
-0.232339 -4.49523 -4.49523
-0.146181 -4.44638 -4.44638
-0.228825 -4.39501 -4.39501
-0.230579 -4.44501 -4.44501
-0.317149 -4.49403 -4.49403
-0.321445 -4.59513 -4.59513
-0.150337 -4.59779 -4.59779
-0.147559 -4.49663 -4.49663
-0.319295 -4.54447 -4.54447
-0.235876 -4.59636 -4.59636
-0.148945 -4.54709 -4.54709
-0.232339 -4.49523 -4.49523
-0.234105 -4.54569 -4.54569
-0.321445 -4.59513 -4.59513
-0.325758 -4.69712 -4.69712
-0.153144 -4.69985 -4.69985
-0.150337 -4.59779 -4.59779
-0.323599 -4.64602 -4.64602
-0.239436 -4.69839 -4.69839
-0.151737 -4.64871 -4.64871
-0.235876 -4.59636 -4.59636
-0.237653 -4.64727 -4.64727
-0.325758 -4.69712 -4.69712
-0.330086 -4.8 -4.8
-0.15598 -4.8028 -4.8028
-0.153144 -4.69985 -4.69985
-0.32792 -4.74845 -4.74845
-0.243018 -4.80131 -4.80131
-0.154558 -4.75121 -4.75121
-0.239436 -4.69839 -4.69839
-0.241224 -4.74974 -4.74974
-0.330086 -4.8 -4.8
-0.334429 -4.90376 -4.90376
-0.158845 -4.90662 -4.90662
-0.15598 -4.8028 -4.8028
-0.332255 -4.85177 -4.85177
-0.246622 -4.9051 -4.9051
-0.157409 -4.8546 -4.8546
-0.243018 -4.80131 -4.80131
-0.244817 -4.85309 -4.85309
-0.334429 -4.90376 -4.90376
-0.338789 -5.00839 -5.00839
-0.161739 -5.01132 -5.01132
-0.158845 -4.90662 -4.90662
-0.336607 -4.95597 -4.95597
-0.250249 -5.00976 -5.00976
-0.160289 -4.95886 -4.95886
-0.246622 -4.9051 -4.9051
-0.248433 -4.95732 -4.95732
-0.338789 -5.00839 -5.00839
-0.343164 -5.11389 -5.11389
-0.164663 -5.11688 -5.11688
-0.161739 -5.01132 -5.01132
-0.340975 -5.06103 -5.06103
-0.253899 -5.11529 -5.11529
-0.163197 -5.06399 -5.06399
-0.250249 -5.00976 -5.00976
-0.252071 -5.06242 -5.06242
-0.343164 -5.11389 -5.11389
-0.347556 -5.22024 -5.22024
-0.167615 -5.2233 -5.2233
-0.164663 -5.11688 -5.11688
-0.345358 -5.16696 -5.16696
-0.257571 -5.22168 -5.22168
-0.166135 -5.16998 -5.16998
-0.253899 -5.11529 -5.11529
-0.255732 -5.16838 -5.16838
-0.347556 -5.22024 -5.22024
-0.351963 -5.32744 -5.32744
-0.170596 -5.33057 -5.33057
-0.167615 -5.2233 -5.2233
-0.349757 -5.27373 -5.27373
-0.261265 -5.32891 -5.32891
-0.169102 -5.27683 -5.27683
-0.257571 -5.22168 -5.22168
-0.259415 -5.27519 -5.27519
-0.351963 -5.32744 -5.32744
-0.356385 -5.43548 -5.43548
-0.173607 -5.43867 -5.43867
-0.170596 -5.33057 -5.33057
-0.354172 -5.38136 -5.38136
-0.264981 -5.43699 -5.43699
-0.172098 -5.38452 -5.38452
-0.261265 -5.32891 -5.32891
-0.26312 -5.38285 -5.38285
-0.356385 -5.43548 -5.43548
-0.360823 -5.54435 -5.54435
-0.176646 -5.54761 -5.54761
-0.173607 -5.43867 -5.43867
-0.358602 -5.48981 -5.48981
-0.26872 -5.5459 -5.5459
-0.175123 -5.49304 -5.49304
-0.264981 -5.43699 -5.43699
-0.266848 -5.49134 -5.49134
-0.360823 -5.54435 -5.54435
-0.365277 -5.65405 -5.65405
-0.179714 -5.65738 -5.65738
-0.176646 -5.54761 -5.54761
-0.363048 -5.5991 -5.5991
-0.272481 -5.65563 -5.65563
-0.178176 -5.60239 -5.60239
-0.26872 -5.5459 -5.5459
-0.270598 -5.60066 -5.60066
-0.365277 -5.65405 -5.65405
-0.369746 -5.76457 -5.76457
-0.182811 -5.76796 -5.76796
-0.179714 -5.65738 -5.65738
-0.36751 -5.70921 -5.70921
-0.276264 -5.76618 -5.76618
-0.181259 -5.71257 -5.71257
-0.272481 -5.65563 -5.65563
-0.27437 -5.7108 -5.7108
-0.369746 -5.76457 -5.76457
-0.374231 -5.87589 -5.87589
-0.185936 -5.87935 -5.87935
-0.182811 -5.76796 -5.76796
-0.371986 -5.82013 -5.82013
-0.280069 -5.87753 -5.87753
-0.18437 -5.82355 -5.82355
-0.276264 -5.76618 -5.76618
-0.278164 -5.82175 -5.82175
-0.374231 -5.87589 -5.87589
-0.37873 -5.98801 -5.98801
-0.18909 -5.99154 -5.99154
-0.185936 -5.87935 -5.87935
-0.376479 -5.93185 -5.93185
-0.283896 -5.98969 -5.98969
-0.18751 -5.93534 -5.93534
-0.280069 -5.87753 -5.87753
-0.28198 -5.93351 -5.93351
-0.37873 -5.98801 -5.98801
-0.383246 -6.10093 -6.10093
-0.192273 -6.10452 -6.10452
-0.18909 -5.99154 -5.99154
-0.380986 -6.04437 -6.04437
-0.287745 -6.10264 -6.10264
-0.190678 -6.04793 -6.04793
-0.283896 -5.98969 -5.98969
-0.285817 -6.04607 -6.04607
-0.383246 -6.10093 -6.10093
-0.387776 -6.21463 -6.21463
-0.195484 -6.21829 -6.21829
-0.192273 -6.10452 -6.10452
-0.385509 -6.15768 -6.15768
-0.291615 -6.21638 -6.21638
-0.193875 -6.16131 -6.16131
-0.287745 -6.10264 -6.10264
-0.289677 -6.15941 -6.15941
-0.387776 -6.21463 -6.21463
-0.392321 -6.32912 -6.32912
-0.198723 -6.33284 -6.33284
-0.195484 -6.21829 -6.21829
-0.390046 -6.27178 -6.27178
-0.295507 -6.33089 -6.33089
-0.1971 -6.27547 -6.27547
-0.291615 -6.21638 -6.21638
-0.293559 -6.27354 -6.27354
-0.392321 -6.32912 -6.32912
-0.396881 -6.44437 -6.44437
-0.201991 -6.44815 -6.44815
-0.198723 -6.33284 -6.33284
-0.394599 -6.38665 -6.38665
-0.299421 -6.44618 -6.44618
-0.200353 -6.3904 -6.3904
-0.295507 -6.33089 -6.33089
-0.297462 -6.38844 -6.38844
-0.396881 -6.44437 -6.44437
-0.401456 -6.56038 -6.56038
-0.205286 -6.56423 -6.56423
-0.201991 -6.44815 -6.44815
-0.399166 -6.50228 -6.50228
-0.303356 -6.56223 -6.56223
-0.203635 -6.5061 -6.5061
-0.299421 -6.44618 -6.44618
-0.301386 -6.50411 -6.50411
-0.401456 -6.56038 -6.56038
-0.406045 -6.67715 -6.67715
-0.208609 -6.68106 -6.68106
-0.205286 -6.56423 -6.56423
-0.403748 -6.61867 -6.61867
-0.307313 -6.67903 -6.67903
-0.206944 -6.62255 -6.62255
-0.303356 -6.56223 -6.56223
-0.305332 -6.62053 -6.62053
-0.406045 -6.67715 -6.67715
-0.410649 -6.79466 -6.79466
-0.211961 -6.79864 -6.79864
-0.208609 -6.68106 -6.68106
-0.408345 -6.73581 -6.73581
-0.31129 -6.79657 -6.79657
-0.210282 -6.73976 -6.73976
-0.307313 -6.67903 -6.67903
-0.309299 -6.73771 -6.73771
-0.410649 -6.79466 -6.79466
-0.415267 -6.91291 -6.91291
-0.215339 -6.91696 -6.91696
-0.211961 -6.79864 -6.79864
-0.412956 -6.85369 -6.85369
-0.315289 -6.91486 -6.91486
-0.213646 -6.85771 -6.85771
-0.31129 -6.79657 -6.79657
-0.313287 -6.85562 -6.85562
-0.415267 -6.91291 -6.91291
-0.419899 -7.03189 -7.03189
-0.218745 -7.036 -7.036
-0.215339 -6.91696 -6.91696
-0.417581 -6.97231 -6.97231
-0.319308 -7.03387 -7.03387
-0.217039 -6.97639 -6.97639
-0.315289 -6.91486 -6.91486
-0.317296 -6.97427 -6.97427
-0.419899 -7.03189 -7.03189
-0.424546 -7.1516 -7.1516
-0.222179 -7.15577 -7.15577
-0.218745 -7.036 -7.036
-0.422221 -7.09166 -7.09166
-0.323348 -7.15361 -7.15361
-0.220459 -7.0958 -7.0958
-0.319308 -7.03387 -7.03387
-0.321325 -7.09365 -7.09365
-0.424546 -7.1516 -7.1516
-0.429206 -7.27202 -7.27202
-0.22564 -7.27625 -7.27625
-0.222179 -7.15577 -7.15577
-0.426874 -7.21172 -7.21172
-0.327408 -7.27406 -7.27406
-0.223906 -7.21592 -7.21592
-0.323348 -7.15361 -7.15361
-0.325375 -7.21375 -7.21375
-0.429206 -7.27202 -7.27202
-0.43388 -7.39314 -7.39314
-0.229127 -7.39744 -7.39744
-0.22564 -7.27625 -7.27625
-0.431541 -7.33249 -7.33249
-0.331489 -7.39522 -7.39522
-0.22738 -7.33676 -7.33676
-0.327408 -7.27406 -7.27406
-0.329446 -7.33455 -7.33455
-0.43388 -7.39314 -7.39314
-0.438567 -7.51497 -7.51497
-0.232642 -7.51933 -7.51933
-0.229127 -7.39744 -7.39744
-0.436222 -7.45397 -7.45397
-0.33559 -7.51708 -7.51708
-0.230881 -7.4583 -7.4583
-0.331489 -7.39522 -7.39522
-0.333537 -7.45606 -7.45606
-0.438567 -7.51497 -7.51497
-0.443268 -7.63749 -7.63749
-0.236183 -7.64191 -7.64191
-0.232642 -7.51933 -7.51933
-0.440916 -7.57614 -7.57614
-0.339711 -7.63963 -7.63963
-0.234409 -7.58054 -7.58054
-0.33559 -7.51708 -7.51708
-0.337648 -7.57827 -7.57827
-0.443268 -7.63749 -7.63749
-0.447982 -7.76069 -7.76069
-0.23975 -7.76518 -7.76518
-0.236183 -7.64191 -7.64191
-0.445623 -7.699 -7.699
-0.343851 -7.76286 -7.76286
-0.237963 -7.70346 -7.70346
-0.339711 -7.63963 -7.63963
-0.341779 -7.70116 -7.70116
-0.447982 -7.76069 -7.76069
-0.452709 -7.88456 -7.88456
-0.243344 -7.88911 -7.88911
-0.23975 -7.76518 -7.76518
-0.450344 -7.82254 -7.82254
-0.348012 -7.88677 -7.88677
-0.241544 -7.82706 -7.82706
-0.343851 -7.76286 -7.76286
-0.345929 -7.82473 -7.82473
-0.452709 -7.88456 -7.88456
-0.457448 -8.00911 -8.00911
-0.246963 -8.01372 -8.01372
-0.243344 -7.88911 -7.88911
-0.455077 -7.94675 -7.94675
-0.352191 -8.01134 -8.01134
-0.24515 -7.95133 -7.95133
-0.348012 -7.88677 -7.88677
-0.350099 -7.94897 -7.94897
-0.457448 -8.00911 -8.00911
-0.4622 -8.13431 -8.13431
-0.250609 -8.13899 -8.13899
-0.246963 -8.01372 -8.01372
-0.459823 -8.07163 -8.07163
-0.35639 -8.13658 -8.13658
-0.248783 -8.07627 -8.07627
-0.352191 -8.01134 -8.01134
-0.354288 -8.07388 -8.07388
-0.4622 -8.13431 -8.13431
-0.466964 -8.26017 -8.26017
-0.25428 -8.2649 -8.2649
-0.250609 -8.13899 -8.13899
-0.464581 -8.19716 -8.19716
-0.360608 -8.26247 -8.26247
-0.252441 -8.20186 -8.20186
-0.35639 -8.13658 -8.13658
-0.358496 -8.19944 -8.19944
-0.466964 -8.26017 -8.26017
-0.471741 -8.38667 -8.38667
-0.257976 -8.39146 -8.39146
-0.25428 -8.2649 -8.2649
-0.469351 -8.32334 -8.32334
-0.364844 -8.389 -8.389
-0.256125 -8.3281 -8.3281
-0.360608 -8.26247 -8.26247
-0.362724 -8.32565 -8.32565
-0.471741 -8.38667 -8.38667
-0.476529 -8.51381 -8.51381
-0.261697 -8.51866 -8.51866
-0.257976 -8.39146 -8.39146
-0.474133 -8.45016 -8.45016
-0.369099 -8.51617 -8.51617
-0.259834 -8.45498 -8.45498
-0.364844 -8.389 -8.389
-0.366969 -8.4525 -8.4525
-0.476529 -8.51381 -8.51381
-0.481329 -8.64157 -8.64157
-0.265444 -8.64648 -8.64648
-0.261697 -8.51866 -8.51866
-0.478928 -8.57761 -8.57761
-0.373372 -8.64396 -8.64396
-0.263568 -8.58249 -8.58249
-0.369099 -8.51617 -8.51617
-0.371233 -8.57999 -8.57999
-0.481329 -8.64157 -8.64157
-0.48614 -8.76996 -8.76996
-0.269215 -8.77493 -8.77493
-0.265444 -8.64648 -8.64648
-0.483733 -8.70569 -8.70569
-0.377663 -8.77238 -8.77238
-0.267326 -8.71063 -8.71063
-0.373372 -8.64396 -8.64396
-0.375515 -8.70809 -8.70809
-0.48614 -8.76996 -8.76996
-0.490962 -8.89896 -8.89896
-0.27301 -8.90399 -8.90399
-0.269215 -8.77493 -8.77493
-0.48855 -8.83438 -8.83438
-0.381972 -8.90141 -8.90141
-0.271109 -8.83938 -8.83938
-0.377663 -8.77238 -8.77238
-0.379815 -8.83682 -8.83682
-0.490962 -8.89896 -8.89896
-0.495796 -9.02856 -9.02856
-0.27683 -9.03365 -9.03365
-0.27301 -8.90399 -8.90399
-0.493378 -8.96368 -8.96368
-0.386298 -9.03104 -9.03104
-0.274917 -8.96874 -8.96874
-0.381972 -8.90141 -8.90141
-0.384133 -8.96615 -8.96615
-0.495796 -9.02856 -9.02856
-0.500639 -9.15876 -9.15876
-0.280673 -9.16391 -9.16391
-0.27683 -9.03365 -9.03365
-0.498216 -9.09359 -9.09359
-0.390642 -9.16127 -9.16127
-0.278748 -9.09871 -9.09871
-0.386298 -9.03104 -9.03104
-0.388468 -9.09608 -9.09608
-0.500639 -9.15876 -9.15876
-0.505494 -9.28955 -9.28955
-0.28454 -9.29476 -9.29476
-0.280673 -9.16391 -9.16391
-0.503065 -9.22408 -9.22408
-0.395003 -9.29209 -9.29209
-0.282604 -9.22926 -9.22926
-0.390642 -9.16127 -9.16127
-0.39282 -9.22661 -9.22661
-0.505494 -9.28955 -9.28955
-0.510358 -9.42092 -9.42092
-0.288431 -9.42619 -9.42619
-0.28454 -9.29476 -9.29476
-0.507924 -9.35516 -9.35516
-0.39938 -9.42349 -9.42349
-0.286482 -9.3604 -9.3604
-0.395003 -9.29209 -9.29209
-0.397189 -9.35772 -9.35772
-0.510358 -9.42092 -9.42092
-0.515232 -9.55287 -9.55287
-0.292344 -9.55819 -9.55819
-0.288431 -9.42619 -9.42619
-0.512794 -9.48682 -9.48682
-0.403774 -9.55547 -9.55547
-0.290384 -9.49212 -9.49212
-0.39938 -9.42349 -9.42349
-0.401575 -9.48941 -9.48941
-0.515232 -9.55287 -9.55287
-0.520115 -9.68538 -9.68538
-0.29628 -9.69076 -9.69076
-0.292344 -9.55819 -9.55819
-0.517673 -9.61905 -9.61905
-0.408184 -9.68801 -9.68801
-0.294309 -9.6244 -9.6244
-0.403774 -9.55547 -9.55547
-0.405977 -9.62167 -9.62167
-0.520115 -9.68538 -9.68538
-0.525008 -9.81845 -9.81845
-0.300239 -9.82388 -9.82388
-0.29628 -9.69076 -9.69076
-0.522561 -9.75184 -9.75184
-0.41261 -9.82111 -9.82111
-0.298257 -9.75725 -9.75725
-0.408184 -9.68801 -9.68801
-0.410395 -9.75449 -9.75449
-0.525008 -9.81845 -9.81845
-0.52991 -9.95207 -9.95207
-0.30422 -9.95755 -9.95755
-0.300239 -9.82388 -9.82388
-0.527458 -9.88519 -9.88519
-0.417051 -9.95475 -9.95475
-0.302227 -9.89065 -9.89065
-0.41261 -9.82111 -9.82111
-0.414828 -9.88786 -9.88786
-0.52991 -9.95207 -9.95207
-0.534821 -10.0862 -10.0862
-0.308223 -10.0918 -10.0918
-0.30422 -9.95755 -9.95755
-0.532364 -10.0191 -10.0191
-0.421508 -10.0889 -10.0889
-0.306219 -10.0246 -10.0246
-0.417051 -9.95475 -9.95475
-0.419278 -10.0218 -10.0218
-0.534821 -10.0862 -10.0862
-0.539739 -10.2209 -10.2209
-0.312248 -10.2265 -10.2265
-0.308223 -10.0918 -10.0918
-0.537279 -10.1535 -10.1535
-0.42598 -10.2237 -10.2237
-0.310233 -10.1591 -10.1591
-0.421508 -10.0889 -10.0889
-0.423742 -10.1562 -10.1562
-0.539739 -10.2209 -10.2209
-0.544666 -10.3561 -10.3561
-0.316294 -10.3618 -10.3618
-0.312248 -10.2265 -10.2265
-0.542202 -10.2885 -10.2885
-0.430466 -10.3589 -10.3589
-0.314268 -10.2941 -10.2941
-0.42598 -10.2237 -10.2237
-0.428221 -10.2912 -10.2912
-0.544666 -10.3561 -10.3561
-0.549601 -10.4919 -10.4919
-0.32036 -10.4976 -10.4976
-0.316294 -10.3618 -10.3618
-0.547133 -10.424 -10.424
-0.434967 -10.4947 -10.4947
-0.318324 -10.4296 -10.4296
-0.430466 -10.3589 -10.3589
-0.432715 -10.4267 -10.4267
-0.549601 -10.4919 -10.4919
-0.554543 -10.6281 -10.6281
-0.324448 -10.6339 -10.6339
-0.32036 -10.4976 -10.4976
-0.552071 -10.56 -10.56
-0.439482 -10.631 -10.631
-0.322402 -10.5657 -10.5657
-0.434967 -10.4947 -10.4947
-0.437222 -10.5628 -10.5628
-0.554543 -10.6281 -10.6281
-0.559492 -10.7649 -10.7649
-0.328556 -10.7707 -10.7707
-0.324448 -10.6339 -10.6339
-0.557016 -10.6965 -10.6965
-0.44401 -10.7677 -10.7677
-0.3265 -10.7022 -10.7022
-0.439482 -10.631 -10.631
-0.441744 -10.6993 -10.6993
-0.559492 -10.7649 -10.7649
-0.564448 -10.9021 -10.9021
-0.332684 -10.908 -10.908
-0.328556 -10.7707 -10.7707
-0.561969 -10.8335 -10.8335
-0.448552 -10.905 -10.905
-0.330618 -10.8393 -10.8393
-0.44401 -10.7677 -10.7677
-0.44628 -10.8363 -10.8363
-0.564448 -10.9021 -10.9021
-0.56941 -11.0399 -11.0399
-0.336832 -11.0458 -11.0458
-0.332684 -10.908 -10.908
-0.566928 -10.971 -10.971
-0.453107 -11.0428 -11.0428
-0.334755 -10.9768 -10.9768
-0.448552 -10.905 -10.905
-0.450828 -10.9738 -10.9738
-0.56941 -11.0399 -11.0399
-0.574379 -11.1781 -11.1781
-0.340999 -11.1841 -11.1841
-0.336832 -11.0458 -11.0458
-0.571894 -11.1089 -11.1089
-0.457675 -11.181 -11.181
-0.338913 -11.1149 -11.1149
-0.453107 -11.0428 -11.0428
-0.45539 -11.1119 -11.1119
-0.574379 -11.1781 -11.1781
-0.579353 -11.3168 -11.3168
-0.345185 -11.3228 -11.3228
-0.340999 -11.1841 -11.1841
-0.576865 -11.2474 -11.2474
-0.462255 -11.3197 -11.3197
-0.34309 -11.2534 -11.2534
-0.457675 -11.181 -11.181
-0.459964 -11.2503 -11.2503
-0.579353 -11.3168 -11.3168
-0.584333 -11.4559 -11.4559
-0.34939 -11.462 -11.462
-0.345185 -11.3228 -11.3228
-0.581842 -11.3863 -11.3863
-0.466848 -11.4589 -11.4589
-0.347285 -11.3923 -11.3923
-0.462255 -11.3197 -11.3197
-0.46455 -11.3893 -11.3893
-0.584333 -11.4559 -11.4559
-0.589318 -11.5956 -11.5956
-0.353613 -11.6017 -11.6017
-0.34939 -11.462 -11.462
-0.586825 -11.5257 -11.5257
-0.471452 -11.5986 -11.5986
-0.351499 -11.5318 -11.5318
-0.466848 -11.4589 -11.4589
-0.469148 -11.5287 -11.5287
-0.589318 -11.5956 -11.5956
-0.594307 -11.7356 -11.7356
-0.357855 -11.7418 -11.7418
-0.353613 -11.6017 -11.6017
-0.591812 -11.6655 -11.6655
-0.476067 -11.7386 -11.7386
-0.355732 -11.6717 -11.6717
-0.471452 -11.5986 -11.5986
-0.473758 -11.6685 -11.6685
-0.594307 -11.7356 -11.7356
-0.599301 -11.8761 -11.8761
-0.362114 -11.8823 -11.8823
-0.357855 -11.7418 -11.7418
-0.596804 -11.8058 -11.8058
-0.480694 -11.8792 -11.8792
-0.359982 -11.812 -11.812
-0.476067 -11.7386 -11.7386
-0.478379 -11.8088 -11.8088
-0.599301 -11.8761 -11.8761
-0.604299 -12.017 -12.017
-0.36639 -12.0233 -12.0233
-0.362114 -11.8823 -11.8823
-0.6018 -11.9465 -11.9465
-0.485331 -12.0201 -12.0201
-0.36425 -11.9527 -11.9527
-0.480694 -11.8792 -11.8792
-0.483011 -11.9496 -11.9496
-0.604299 -12.017 -12.017
-0.609301 -12.1584 -12.1584
-0.370683 -12.1647 -12.1647
-0.36639 -12.0233 -12.0233
-0.606799 -12.0877 -12.0877
-0.489978 -12.1615 -12.1615
-0.368534 -12.0939 -12.0939
-0.485331 -12.0201 -12.0201
-0.487653 -12.0908 -12.0908
-0.609301 -12.1584 -12.1584
-0.614306 -12.3002 -12.3002
-0.374993 -12.3065 -12.3065
-0.370683 -12.1647 -12.1647
-0.611803 -12.2292 -12.2292
-0.494636 -12.3033 -12.3033
-0.372836 -12.2355 -12.2355
-0.489978 -12.1615 -12.1615
-0.492306 -12.2323 -12.2323
-0.614306 -12.3002 -12.3002
-0.619314 -12.4423 -12.4423
-0.379319 -12.4487 -12.4487
-0.374993 -12.3065 -12.3065
-0.616809 -12.3712 -12.3712
-0.499303 -12.4455 -12.4455
-0.377154 -12.3776 -12.3776
-0.494636 -12.3033 -12.3033
-0.496968 -12.3743 -12.3743
-0.619314 -12.4423 -12.4423
-0.624324 -12.5849 -12.5849
-0.38366 -12.5914 -12.5914
-0.379319 -12.4487 -12.4487
-0.621819 -12.5136 -12.5136
-0.503979 -12.5881 -12.5881
-0.381487 -12.52 -12.52
-0.499303 -12.4455 -12.4455
-0.50164 -12.5167 -12.5167
-0.624324 -12.5849 -12.5849
-0.629337 -12.7279 -12.7279
-0.388017 -12.7344 -12.7344
-0.38366 -12.5914 -12.5914
-0.62683 -12.6564 -12.6564
-0.508664 -12.7311 -12.7311
-0.385837 -12.6628 -12.6628
-0.503979 -12.5881 -12.5881
-0.50632 -12.6595 -12.6595
-0.629337 -12.7279 -12.7279
-0.634351 -12.8713 -12.8713
-0.39239 -12.8778 -12.8778
-0.388017 -12.7344 -12.7344
-0.631844 -12.7995 -12.7995
-0.513357 -12.8745 -12.8745
-0.390202 -12.806 -12.806
-0.508664 -12.7311 -12.7311
-0.51101 -12.8027 -12.8027
-0.634351 -12.8713 -12.8713
-0.639367 -13.015 -13.015
-0.396777 -13.0216 -13.0216
-0.39239 -12.8778 -12.8778
-0.636859 -12.9431 -12.9431
-0.518059 -13.0182 -13.0182
-0.394581 -12.9496 -12.9496
-0.513357 -12.8745 -12.8745
-0.515707 -12.9463 -12.9463
-0.639367 -13.015 -13.015
-0.644384 -13.1591 -13.1591
-0.401178 -13.1657 -13.1657
-0.396777 -13.0216 -13.0216
-0.641875 -13.087 -13.087
-0.522768 -13.1624 -13.1624
-0.398975 -13.0936 -13.0936
-0.518059 -13.0182 -13.0182
-0.520412 -13.0903 -13.0903
-0.644384 -13.1591 -13.1591
-0.649401 -13.3036 -13.3036
-0.405593 -13.3102 -13.3102
-0.401178 -13.1657 -13.1657
-0.646893 -13.2313 -13.2313
-0.527484 -13.3069 -13.3069
-0.403384 -13.2379 -13.2379
-0.522768 -13.1624 -13.1624
-0.525125 -13.2346 -13.2346
-0.649401 -13.3036 -13.3036
-0.654419 -13.4484 -13.4484
-0.410021 -13.4551 -13.4551
-0.405593 -13.3102 -13.3102
-0.65191 -13.3759 -13.3759
-0.532207 -13.4517 -13.4517
-0.407806 -13.3826 -13.3826
-0.527484 -13.3069 -13.3069
-0.529845 -13.3792 -13.3792
-0.654419 -13.4484 -13.4484
-0.659437 -13.5936 -13.5936
-0.414463 -13.6003 -13.6003
-0.410021 -13.4551 -13.4551
-0.656928 -13.5209 -13.5209
-0.536937 -13.5969 -13.5969
-0.412241 -13.5276 -13.5276
-0.532207 -13.4517 -13.4517
-0.534571 -13.5243 -13.5243
-0.659437 -13.5936 -13.5936
-0.664454 -13.7391 -13.7391
-0.418918 -13.7458 -13.7458
-0.414463 -13.6003 -13.6003
-0.661945 -13.6663 -13.6663
-0.541673 -13.7424 -13.7424
-0.416689 -13.673 -13.673
-0.536937 -13.5969 -13.5969
-0.539304 -13.6696 -13.6696
-0.664454 -13.7391 -13.7391
-0.66947 -13.8849 -13.8849
-0.423384 -13.8917 -13.8917
-0.418918 -13.7458 -13.7458
-0.666962 -13.812 -13.812
-0.546414 -13.8883 -13.8883
-0.421149 -13.8187 -13.8187
-0.541673 -13.7424 -13.7424
-0.544043 -13.8153 -13.8153
-0.66947 -13.8849 -13.8849
-0.674485 -14.0311 -14.0311
-0.427863 -14.0379 -14.0379
-0.423384 -13.8917 -13.8917
-0.671977 -13.958 -13.958
-0.551161 -14.0345 -14.0345
-0.425622 -13.9648 -13.9648
-0.546414 -13.8883 -13.8883
-0.548787 -13.9613 -13.9613
-0.674485 -14.0311 -14.0311
-0.679497 -14.1775 -14.1775
-0.432353 -14.1844 -14.1844
-0.427863 -14.0379 -14.0379
-0.676991 -14.1043 -14.1043
-0.555912 -14.181 -14.181
-0.430106 -14.1111 -14.1111
-0.551161 -14.0345 -14.0345
-0.553536 -14.1077 -14.1077
-0.679497 -14.1775 -14.1775
-0.684508 -14.3243 -14.3243
-0.436854 -14.3312 -14.3312
-0.432353 -14.1844 -14.1844
-0.682003 -14.2509 -14.2509
-0.560668 -14.3278 -14.3278
-0.434602 -14.2578 -14.2578
-0.555912 -14.181 -14.181
-0.55829 -14.2543 -14.2543
-0.684508 -14.3243 -14.3243
-0.689516 -14.4714 -14.4714
-0.441365 -14.4784 -14.4784
-0.436854 -14.3312 -14.3312
-0.687013 -14.3978 -14.3978
-0.565428 -14.4749 -14.4749
-0.439108 -14.4048 -14.4048
-0.560668 -14.3278 -14.3278
-0.563048 -14.4013 -14.4013
-0.689516 -14.4714 -14.4714
-0.694521 -14.6188 -14.6188
-0.445887 -14.6258 -14.6258
-0.441365 -14.4784 -14.4784
-0.692019 -14.5451 -14.5451
-0.570192 -14.6222 -14.6222
-0.443625 -14.552 -14.552
-0.565428 -14.4749 -14.4749
-0.567809 -14.5485 -14.5485
-0.694521 -14.6188 -14.6188
-0.699523 -14.7664 -14.7664
-0.450419 -14.7735 -14.7735
-0.445887 -14.6258 -14.6258
-0.697023 -14.6926 -14.6926
-0.574958 -14.7699 -14.7699
-0.448152 -14.6996 -14.6996
-0.570192 -14.6222 -14.6222
-0.572575 -14.6961 -14.6961
-0.699523 -14.7664 -14.7664
-0.704521 -14.9144 -14.9144
-0.45496 -14.9214 -14.9214
-0.450419 -14.7735 -14.7735
-0.702022 -14.8404 -14.8404
-0.579728 -14.9179 -14.9179
-0.452688 -14.8474 -14.8474
-0.574958 -14.7699 -14.7699
-0.577343 -14.8439 -14.8439
-0.704521 -14.9144 -14.9144
-0.709514 -15.0626 -15.0626
-0.45951 -15.0697 -15.0697
-0.45496 -14.9214 -14.9214
-0.707018 -14.9884 -14.9884
-0.584499 -15.0661 -15.0661
-0.457234 -14.9955 -14.9955
-0.579728 -14.9179 -14.9179
-0.582113 -14.9919 -14.9919
-0.709514 -15.0626 -15.0626
-0.714502 -15.211 -15.211
-0.464069 -15.2181 -15.2181
-0.45951 -15.0697 -15.0697
-0.712009 -15.1368 -15.1368
-0.589273 -15.2146 -15.2146
-0.461788 -15.1439 -15.1439
-0.584499 -15.0661 -15.0661
-0.586886 -15.1403 -15.1403
-0.714502 -15.211 -15.211
-0.719486 -15.3598 -15.3598
-0.468635 -15.3669 -15.3669
-0.464069 -15.2181 -15.2181
-0.716995 -15.2854 -15.2854
-0.594048 -15.3633 -15.3633
-0.466351 -15.2925 -15.2925
-0.589273 -15.2146 -15.2146
-0.59166 -15.2889 -15.2889
-0.719486 -15.3598 -15.3598
-0.724464 -15.5087 -15.5087
-0.473209 -15.5159 -15.5159
-0.468635 -15.3669 -15.3669
-0.721976 -15.4342 -15.4342
-0.598824 -15.5123 -15.5123
-0.470921 -15.4414 -15.4414
-0.594048 -15.3633 -15.3633
-0.596436 -15.4378 -15.4378
-0.724464 -15.5087 -15.5087
-0.729436 -15.6579 -15.6579
-0.477791 -15.6651 -15.6651
-0.473209 -15.5159 -15.5159
-0.72695 -15.5833 -15.5833
-0.603601 -15.6615 -15.6615
-0.475499 -15.5905 -15.5905
-0.598824 -15.5123 -15.5123
-0.601212 -15.5868 -15.5868
-0.729436 -15.6579 -15.6579
-0.734401 -15.8073 -15.8073
-0.482379 -15.8146 -15.8146
-0.477791 -15.6651 -15.6651
-0.731919 -15.7326 -15.7326
-0.608378 -15.8109 -15.8109
-0.480084 -15.7398 -15.7398
-0.603601 -15.6615 -15.6615
-0.605989 -15.7362 -15.7362
-0.734401 -15.8073 -15.8073
-0.739359 -15.957 -15.957
-0.486973 -15.9642 -15.9642
-0.482379 -15.8146 -15.8146
-0.736881 -15.8821 -15.8821
-0.613154 -15.9606 -15.9606
-0.484675 -15.8894 -15.8894
-0.608378 -15.8109 -15.8109
-0.610766 -15.8857 -15.8857
-0.739359 -15.957 -15.957
-0.74431 -16.1068 -16.1068
-0.491574 -16.1141 -16.1141
-0.486973 -15.9642 -15.9642
-0.741836 -16.0319 -16.0319
-0.61793 -16.1104 -16.1104
-0.489273 -16.0391 -16.0391
-0.613154 -15.9606 -15.9606
-0.615542 -16.0355 -16.0355
-0.74431 -16.1068 -16.1068
-0.749253 -16.2569 -16.2569
-0.496179 -16.2642 -16.2642
-0.491574 -16.1141 -16.1141
-0.746783 -16.1818 -16.1818
-0.622704 -16.2605 -16.2605
-0.493876 -16.1891 -16.1891
-0.61793 -16.1104 -16.1104
-0.620317 -16.1855 -16.1855
-0.749253 -16.2569 -16.2569
-0.754188 -16.4071 -16.4071
-0.50079 -16.4145 -16.4145
-0.496179 -16.2642 -16.2642
-0.751722 -16.332 -16.332
-0.627477 -16.4108 -16.4108
-0.498484 -16.3393 -16.3393
-0.622704 -16.2605 -16.2605
-0.625091 -16.3356 -16.3356
-0.754188 -16.4071 -16.4071
-0.759114 -16.5576 -16.5576
-0.505405 -16.5649 -16.5649
-0.50079 -16.4145 -16.4145
-0.756652 -16.4823 -16.4823
-0.632248 -16.5612 -16.5612
-0.503097 -16.4897 -16.4897
-0.627477 -16.4108 -16.4108
-0.629863 -16.486 -16.486
-0.759114 -16.5576 -16.5576
-0.764031 -16.7082 -16.7082
-0.510025 -16.7156 -16.7156
-0.505405 -16.5649 -16.5649
-0.761574 -16.6329 -16.6329
-0.637016 -16.7119 -16.7119
-0.507715 -16.6403 -16.6403
-0.632248 -16.5612 -16.5612
-0.634632 -16.6365 -16.6365
-0.764031 -16.7082 -16.7082
-0.768939 -16.859 -16.859
-0.514648 -16.8664 -16.8664
-0.510025 -16.7156 -16.7156
-0.766486 -16.7836 -16.7836
-0.641781 -16.8627 -16.8627
-0.512336 -16.791 -16.791
-0.637016 -16.7119 -16.7119
-0.639399 -16.7873 -16.7873
-0.768939 -16.859 -16.859
-0.773836 -17.01 -17.01
-0.519274 -17.0174 -17.0174
-0.514648 -16.8664 -16.8664
-0.771389 -16.9345 -16.9345
-0.646543 -17.0137 -17.0137
-0.51696 -16.9419 -16.9419
-0.641781 -16.8627 -16.8627
-0.644163 -16.9382 -16.9382
-0.773836 -17.01 -17.01
-0.778723 -17.1611 -17.1611
-0.523903 -17.1686 -17.1686
-0.519274 -17.0174 -17.0174
-0.776281 -17.0855 -17.0855
-0.651301 -17.1648 -17.1648
-0.521588 -17.093 -17.093
-0.646543 -17.0137 -17.0137
-0.648922 -17.0892 -17.0892
-0.778723 -17.1611 -17.1611
-0.783598 -17.3124 -17.3124
-0.528534 -17.3199 -17.3199
-0.523903 -17.1686 -17.1686
-0.781162 -17.2367 -17.2367
-0.656054 -17.3161 -17.3161
-0.526218 -17.2442 -17.2442
-0.651301 -17.1648 -17.1648
-0.653678 -17.2405 -17.2405
-0.783598 -17.3124 -17.3124
-0.788463 -17.4638 -17.4638
-0.533167 -17.4713 -17.4713
-0.528534 -17.3199 -17.3199
-0.786032 -17.3881 -17.3881
-0.660803 -17.4675 -17.4675
-0.53085 -17.3956 -17.3956
-0.656054 -17.3161 -17.3161
-0.658429 -17.3918 -17.3918
-0.788463 -17.4638 -17.4638
-0.793315 -17.6154 -17.6154
-0.537801 -17.6229 -17.6229
-0.533167 -17.4713 -17.4713
-0.79089 -17.5396 -17.5396
-0.665546 -17.6191 -17.6191
-0.535484 -17.5471 -17.5471
-0.660803 -17.4675 -17.4675
-0.663175 -17.5433 -17.5433
-0.793315 -17.6154 -17.6154
-0.798155 -17.767 -17.767
-0.542436 -17.7746 -17.7746
-0.537801 -17.6229 -17.6229
-0.795737 -17.6912 -17.6912
-0.670284 -17.7708 -17.7708
-0.540119 -17.6987 -17.6987
-0.665546 -17.6191 -17.6191
-0.667916 -17.6949 -17.6949
-0.798155 -17.767 -17.767
-0.802982 -17.9188 -17.9188
-0.547072 -17.9264 -17.9264
-0.542436 -17.7746 -17.7746
-0.80057 -17.8429 -17.8429
-0.675015 -17.9226 -17.9226
-0.544754 -17.8505 -17.8505
-0.670284 -17.7708 -17.7708
-0.672651 -17.8467 -17.8467
-0.802982 -17.9188 -17.9188
-0.807796 -18.0707 -18.0707
-0.551707 -18.0783 -18.0783
-0.547072 -17.9264 -17.9264
-0.805391 -17.9948 -17.9948
-0.67974 -18.0745 -18.0745
-0.54939 -18.0023 -18.0023
-0.675015 -17.9226 -17.9226
-0.677379 -17.9986 -17.9986
-0.807796 -18.0707 -18.0707
-0.812596 -18.2228 -18.2228
-0.556342 -18.2304 -18.2304
-0.551707 -18.0783 -18.0783
-0.810198 -18.1467 -18.1467
-0.684458 -18.2265 -18.2265
-0.554025 -18.1543 -18.1543
-0.67974 -18.0745 -18.0745
-0.6821 -18.1505 -18.1505
-0.812596 -18.2228 -18.2228
-0.817382 -18.3749 -18.3749
-0.560976 -18.3825 -18.3825
-0.556342 -18.2304 -18.2304
-0.814991 -18.2988 -18.2988
-0.689168 -18.3787 -18.3787
-0.558659 -18.3064 -18.3064
-0.684458 -18.2265 -18.2265
-0.686814 -18.3026 -18.3026
-0.817382 -18.3749 -18.3749
-0.822153 -18.5271 -18.5271
-0.565609 -18.5347 -18.5347
-0.560976 -18.3825 -18.3825
-0.819769 -18.451 -18.451
-0.693869 -18.5309 -18.5309
-0.563293 -18.4586 -18.4586
-0.689168 -18.3787 -18.3787
-0.69152 -18.4548 -18.4548
-0.822153 -18.5271 -18.5271
-0.826908 -18.6793 -18.6793
-0.570239 -18.687 -18.687
-0.565609 -18.5347 -18.5347
-0.824532 -18.6032 -18.6032
-0.698562 -18.6832 -18.6832
-0.567924 -18.6108 -18.6108
-0.693869 -18.5309 -18.5309
-0.696217 -18.607 -18.607
-0.826908 -18.6793 -18.6793
-0.831647 -18.8317 -18.8317
-0.574867 -18.8393 -18.8393
-0.570239 -18.687 -18.687
-0.82928 -18.7555 -18.7555
-0.703245 -18.8355 -18.8355
-0.572553 -18.7632 -18.7632
-0.698562 -18.6832 -18.6832
-0.700905 -18.7593 -18.7593
-0.831647 -18.8317 -18.8317
-0.836368 -18.9841 -18.9841
-0.579491 -18.9918 -18.9918
-0.574867 -18.8393 -18.8393
-0.834009 -18.9079 -18.9079
-0.707917 -18.9879 -18.9879
-0.577179 -18.9155 -18.9155
-0.703245 -18.8355 -18.8355
-0.705582 -18.9117 -18.9117
-0.836368 -18.9841 -18.9841
-0.841069 -19.1366 -19.1366
-0.58411 -19.1443 -19.1443
-0.579491 -18.9918 -18.9918
-0.838721 -19.0603 -19.0603
-0.712576 -19.1404 -19.1404
-0.581801 -19.068 -19.068
-0.707917 -18.9879 -18.9879
-0.710248 -19.0642 -19.0642
-0.841069 -19.1366 -19.1366
-0.845748 -19.2891 -19.2891
-0.588724 -19.2968 -19.2968
-0.58411 -19.1443 -19.1443
-0.843411 -19.2128 -19.2128
-0.717221 -19.2929 -19.2929
-0.586418 -19.2205 -19.2205
-0.712576 -19.1404 -19.1404
-0.714901 -19.2167 -19.2167
-0.845748 -19.2891 -19.2891
-0.850404 -19.4417 -19.4417
-0.593331 -19.4494 -19.4494
-0.588724 -19.2968 -19.2968
-0.848079 -19.3654 -19.3654
-0.721851 -19.4455 -19.4455
-0.591028 -19.3731 -19.3731
-0.717221 -19.2929 -19.2929
-0.719538 -19.3692 -19.3692
-0.850404 -19.4417 -19.4417
-0.855036 -19.5943 -19.5943
-0.597932 -19.602 -19.602
-0.593331 -19.4494 -19.4494
-0.852723 -19.518 -19.518
-0.726466 -19.5981 -19.5981
-0.595632 -19.5257 -19.5257
-0.721851 -19.4455 -19.4455
-0.72416 -19.5218 -19.5218
-0.855036 -19.5943 -19.5943
-0.859648 -19.7469 -19.7469
-0.602529 -19.7546 -19.7546
-0.597932 -19.602 -19.602
-0.857343 -19.6706 -19.6706
-0.731071 -19.7507 -19.7507
-0.600231 -19.6783 -19.6783
-0.726466 -19.5981 -19.5981
-0.728769 -19.6744 -19.6744
-0.859648 -19.7469 -19.7469
-0.864256 -19.8995 -19.8995
-0.607122 -19.9071 -19.9071
-0.602529 -19.7546 -19.7546
-0.861951 -19.8232 -19.8232
-0.735674 -19.9033 -19.9033
-0.604826 -19.8309 -19.8309
-0.731071 -19.7507 -19.7507
-0.733372 -19.827 -19.827
-0.864256 -19.8995 -19.8995
-0.868875 -20.0521 -20.0521
-0.611717 -20.0596 -20.0596
-0.607122 -19.9071 -19.9071
-0.866564 -19.9758 -19.9758
-0.740278 -20.0558 -20.0558
-0.609419 -19.9834 -19.9834
-0.735674 -19.9033 -19.9033
-0.737976 -19.9796 -19.9796
0 0 0
-0.00115381 0.000187322 0.000187322
0.00112305 0.000181038 0.000181038
0 0 0
-0.000574569 0.000373576 0.000373576
-1.54506e-05 0.000251932 0.000251932
0.000558742 0.000370049 0.000370049
0 0 0
-7.98749e-06 0.000400568 0.000400568
-0.00115381 0.000187322 0.000187322
-0.00240127 -0.00174608 -0.00174608
0.00234098 -0.00175802 -0.00175802
0.00112305 0.000181038 0.000181038
-0.00176601 -0.00053114 -0.00053114
-3.01836e-05 -0.00164047 -0.00164047
0.00172057 -0.00054017 -0.00054017
-1.54506e-05 0.000251932 0.000251932
-2.27849e-05 -0.000441681 -0.000441681
-0.00240127 -0.00174608 -0.00174608
-0.00369396 -0.00553936 -0.00553936
0.0036021 -0.00555773 -0.00555773
0.00234098 -0.00175802 -0.00175802
-0.003044 -0.00342286 -0.00342286
-4.57985e-05 -0.00540438 -0.00540438
0.00296833 -0.0034379 -0.0034379
-3.01836e-05 -0.00164047 -0.00164047
-3.77962e-05 -0.00330143 -0.00330143
-0.00369396 -0.00553936 -0.00553936
-0.00501643 -0.0110229 -0.0110229
0.0048887 -0.0110487 -0.0110487
0.0036021 -0.00555773 -0.00555773
-0.00435307 -0.0080775 -0.0080775
-6.35929e-05 -0.0108762 -0.0108762
0.00424393 -0.00809945 -0.00809945
-4.57985e-05 -0.00540438 -0.00540438
-5.43595e-05 -0.00793459 -0.00793459
-0.00501643 -0.0110229 -0.0110229
-0.00633986 -0.018092 -0.018092
0.00617003 -0.0181263 -0.0181263
0.0048887 -0.0110487 -0.0110487
-0.00567875 -0.0143634 -0.0143634
-8.45218e-05 -0.0179435 -0.0179435
0.00553088 -0.0143933 -0.0143933
-6.35929e-05 -0.0108762 -0.0108762
-7.36041e-05 -0.014215 -0.014215
-0.00633986 -0.018092 -0.018092
-0.00765948 -0.0266931 -0.0266931
0.0074393 -0.0267368 -0.0267368
0.00617003 -0.0181263 -0.0181263
-0.00700043 -0.0222031 -0.0222031
-0.000109593 -0.0265494 -0.0265494
0.00680659 -0.022242 -0.022242
-8.45218e-05 -0.0179435 -0.0179435
-9.64776e-05 -0.0220565 -0.0220565
-0.00765948 -0.0266931 -0.0266931
-0.00897042 -0.0367981 -0.0367981
0.00868964 -0.0368524 -0.0368524
0.0074393 -0.0267368 -0.0267368
-0.00831597 -0.0315586 -0.0315586
-0.000139788 -0.0366614 -0.0366614
0.0080669 -0.0316076 -0.0316076
-0.000109593 -0.0265494 -0.0265494
-0.000123988 -0.0314183 -0.0314183
-0.00897042 -0.0367981 -0.0367981
-0.0102756 -0.0483932 -0.0483932
0.00992195 -0.048459 -0.048459
0.00868964 -0.0368524 -0.0368524
-0.00962357 -0.04241 -0.04241
-0.000176091 -0.0482643 -0.0482643
0.00930803 -0.0424699 -0.0424699
-0.000139788 -0.0366614 -0.0366614
-0.000157117 -0.0422771 -0.0422771
-0.0102756 -0.0483932 -0.0483932
-0.0115766 -0.0614693 -0.0614693
0.0111361 -0.0615478 -0.0615478
0.00992195 -0.048459 -0.048459
-0.0109264 -0.0547465 -0.0547465
-0.000219431 -0.0613487 -0.0613487
0.0105313 -0.0548186 -0.0548186
-0.000176091 -0.0482643 -0.0482643
-0.000196825 -0.0546218 -0.0546218
-0.0115766 -0.0614693 -0.0614693
-0.0128764 -0.0760196 -0.0760196
0.0123331 -0.0761119 -0.0761119
0.0111361 -0.0615478 -0.0615478
-0.0122265 -0.0685606 -0.0685606
-0.000270696 -0.0759075 -0.0759075
0.0117367 -0.0686459 -0.0686459
-0.000219431 -0.0613487 -0.0613487
-0.00024402 -0.0684442 -0.0684442
-0.0128764 -0.0760196 -0.0760196
-0.0141765 -0.0920372 -0.0920372
0.013513 -0.0921448 -0.0921448
0.0123331 -0.0761119 -0.0761119
-0.0135263 -0.0838454 -0.0838454
-0.000330725 -0.091934 -0.091934
0.0129252 -0.0839452 -0.0839452
-0.000270696 -0.0759075 -0.0759075
-0.000299564 -0.0837377 -0.0837377
-0.0141765 -0.0920372 -0.0920372
-0.0154787 -0.109515 -0.109515
0.0146758 -0.109639 -0.109639
0.013513 -0.0921448 -0.0921448
-0.0148273 -0.100594 -0.100594
-0.000400324 -0.109422 -0.109422
0.0140966 -0.10071 -0.10071
-0.000330725 -0.091934 -0.091934
-0.000364279 -0.100496 -0.100496
-0.0154787 -0.109515 -0.109515
-0.0167842 -0.128447 -0.128447
0.0158211 -0.128588 -0.128588
0.0146758 -0.109639 -0.109639
-0.016131 -0.1188 -0.1188
-0.000480274 -0.128363 -0.128363
0.0152507 -0.118933 -0.118933
-0.000400324 -0.109422 -0.109422
-0.000438957 -0.118711 -0.118711
-0.0167842 -0.128447 -0.128447
-0.0180938 -0.148824 -0.148824
0.0169484 -0.148985 -0.148985
0.0158211 -0.128588 -0.128588
-0.0174384 -0.138455 -0.138455
-0.000571336 -0.14875 -0.14875
0.0163871 -0.138606 -0.138606
-0.000480274 -0.128363 -0.128363
-0.000524369 -0.138376 -0.138376
-0.0180938 -0.148824 -0.148824
-0.0194085 -0.170639 -0.170639
0.0180572 -0.17082 -0.17082
0.0169484 -0.148985 -0.148985
-0.0187505 -0.159552 -0.159552
-0.000674254 -0.170577 -0.170577
0.0175052 -0.159723 -0.159723
-0.000571336 -0.14875 -0.14875
-0.000621267 -0.159484 -0.159484
-0.0194085 -0.170639 -0.170639
-0.0207291 -0.193885 -0.193885
0.0191466 -0.194088 -0.194088
0.0180572 -0.17082 -0.17082
-0.020068 -0.182084 -0.182084
-0.000789761 -0.193834 -0.193834
0.0186043 -0.182276 -0.182276
-0.000674254 -0.170577 -0.170577
-0.000730389 -0.182027 -0.182027
-0.0207291 -0.193885 -0.193885
-0.0220564 -0.218554 -0.218554
0.020216 -0.218779 -0.218779
0.0191466 -0.194088 -0.194088
-0.0213919 -0.206042 -0.206042
-0.000918578 -0.218515 -0.218515
0.0196839 -0.206256 -0.206256
-0.000789761 -0.193834 -0.193834
-0.000852461 -0.205997 -0.205997
-0.0220564 -0.218554 -0.218554
-0.023391 -0.244637 -0.244637
0.0212648 -0.244886 -0.244886
0.020216 -0.218779 -0.218779
-0.0227227 -0.231419 -0.231419
-0.00106142 -0.244611 -0.244611
0.0207431 -0.231656 -0.231656
-0.000918578 -0.218515 -0.218515
-0.0009882 -0.231387 -0.231387
-0.023391 -0.244637 -0.244637
-0.0247336 -0.272127 -0.272127
0.0222922 -0.272402 -0.272402
0.0212648 -0.244886 -0.244886
-0.0240613 -0.258207 -0.258207
-0.00121897 -0.272115 -0.272115
0.0217812 -0.258468 -0.258468
-0.00106142 -0.244611 -0.244611
-0.00113831 -0.258187 -0.258187
-0.0247336 -0.272127 -0.272127
-0.0260851 -0.301016 -0.301016
0.0232976 -0.301317 -0.301317
0.0222922 -0.272402 -0.272402
-0.0254082 -0.286397 -0.286397
-0.00139193 -0.301018 -0.301018
0.0227977 -0.286685 -0.286685
-0.00121897 -0.272115 -0.272115
-0.00130348 -0.286392 -0.286392
-0.0260851 -0.301016 -0.301016
-0.0274459 -0.331297 -0.331297
0.0242802 -0.331625 -0.331625
0.0232976 -0.301317 -0.301317
-0.0267643 -0.315983 -0.315983
-0.00158097 -0.331313 -0.331313
0.0237918 -0.316298 -0.316298
-0.00139193 -0.301018 -0.301018
-0.0014844 -0.315992 -0.315992
-0.0274459 -0.331297 -0.331297
-0.0288169 -0.362961 -0.362961
0.0252394 -0.363318 -0.363318
0.0242802 -0.331625 -0.331625
-0.0281301 -0.346956 -0.346956
-0.00178676 -0.362992 -0.362992
0.0247628 -0.347299 -0.347299
-0.00158097 -0.331313 -0.331313
-0.00168173 -0.34698 -0.34698
-0.0288169 -0.362961 -0.362961
-0.0301985 -0.396 -0.396
0.0261746 -0.396387 -0.396387
0.0252394 -0.363318 -0.363318
-0.0295063 -0.379309 -0.379309
-0.00200994 -0.396047 -0.396047
0.0257101 -0.37968 -0.37968
-0.00178676 -0.362992 -0.362992
-0.00189613 -0.379348 -0.379348
-0.0301985 -0.396 -0.396
-0.0315916 -0.430407 -0.430407
0.0270851 -0.430824 -0.430824
0.0261746 -0.396387 -0.396387
-0.0308936 -0.413033 -0.413033
-0.00225116 -0.43047 -0.43047
0.026633 -0.413435 -0.413435
-0.00200994 -0.396047 -0.396047
-0.00212825 -0.413088 -0.413088
-0.0315916 -0.430407 -0.430407
-0.0329967 -0.466174 -0.466174
0.0279703 -0.466623 -0.466623
0.0270851 -0.430824 -0.430824
-0.0322926 -0.448121 -0.448121
-0.00251104 -0.466253 -0.466253
0.0275309 -0.448554 -0.448554
-0.00225116 -0.43047 -0.43047
-0.00237873 -0.448192 -0.448192
-0.0329967 -0.466174 -0.466174
-0.0344144 -0.503292 -0.503292
0.0288295 -0.503774 -0.503774
0.0279703 -0.466623 -0.466623
-0.0337039 -0.484564 -0.484564
-0.00279019 -0.503389 -0.503389
0.0284032 -0.48503 -0.48503
-0.00251104 -0.466253 -0.466253
-0.00264817 -0.484653 -0.484653
-0.0344144 -0.503292 -0.503292
-0.0358453 -0.541755 -0.541755
0.0296623 -0.54227 -0.54227
0.0288295 -0.503774 -0.503774
-0.0351281 -0.522356 -0.522356
-0.00308923 -0.54187 -0.54187
0.0292492 -0.522855 -0.522855
-0.00279019 -0.503389 -0.503389
-0.00293719 -0.522462 -0.522462
-0.0358453 -0.541755 -0.541755
-0.03729 -0.581553 -0.581553
0.0304679 -0.582104 -0.582104
0.0296623 -0.54227 -0.54227
-0.0365659 -0.561487 -0.561487
-0.00340874 -0.581686 -0.581686
0.0300685 -0.56202 -0.56202
-0.00308923 -0.54187 -0.54187
-0.00324639 -0.561611 -0.561611
-0.03729 -0.581553 -0.581553
-0.0387491 -0.62268 -0.62268
0.0312457 -0.623267 -0.623267
0.0304679 -0.582104 -0.582104
-0.0380177 -0.601951 -0.601951
-0.00374929 -0.622832 -0.622832
0.0308603 -0.60252 -0.60252
-0.00340874 -0.581686 -0.581686
-0.00357634 -0.602094 -0.602094
-0.0387491 -0.62268 -0.62268
-0.0402232 -0.665127 -0.665127
0.0319954 -0.665751 -0.665751
0.0312457 -0.623267 -0.623267
-0.0394843 -0.643739 -0.643739
-0.00411145 -0.665299 -0.665299
0.0316241 -0.644344 -0.644344
-0.00374929 -0.622832 -0.622832
-0.00392763 -0.643901 -0.643901
-0.0402232 -0.665127 -0.665127
-0.0417128 -0.708887 -0.708887
0.0327162 -0.709548 -0.709548
0.0319954 -0.665751 -0.665751
-0.040966 -0.686844 -0.686844
-0.00449577 -0.709078 -0.709078
0.0323594 -0.687486 -0.687486
-0.00411145 -0.665299 -0.665299
-0.00430081 -0.687025 -0.687025
-0.0417128 -0.708887 -0.708887
-0.0432184 -0.753951 -0.753951
0.0334077 -0.754651 -0.754651
0.0327162 -0.709548 -0.709548
-0.0424636 -0.731257 -0.731257
-0.0049028 -0.754163 -0.754163
0.0330656 -0.731937 -0.731937
-0.00449577 -0.709078 -0.709078
-0.00469642 -0.731458 -0.731458
-0.0432184 -0.753951 -0.753951
-0.0447406 -0.800313 -0.800313
0.0340692 -0.801052 -0.801052
0.0334077 -0.754651 -0.754651
-0.0439774 -0.77697 -0.77697
-0.00533307 -0.800544 -0.800544
0.0337422 -0.77769 -0.77769
-0.0049028 -0.754163 -0.754163
-0.005115 -0.777192 -0.777192
-0.0447406 -0.800313 -0.800313
-0.0462799 -0.847963 -0.847963
0.0347004 -0.848742 -0.848742
0.0340692 -0.801052 -0.801052
-0.0455081 -0.823977 -0.823977
-0.00578708 -0.848215 -0.848215
0.0343887 -0.824736 -0.824736
-0.00533307 -0.800544 -0.800544
-0.00555707 -0.824219 -0.824219
-0.0462799 -0.847963 -0.847963
-0.0478368 -0.896894 -0.896894
0.0353007 -0.897714 -0.897714
0.0347004 -0.848742 -0.848742
-0.0470561 -0.872269 -0.872269
-0.00626534 -0.897168 -0.897168
0.0350044 -0.873068 -0.873068
-0.00578708 -0.848215 -0.848215
-0.00602315 -0.872532 -0.872532
-0.0478368 -0.896894 -0.896894
-0.0494118 -0.947098 -0.947098
0.0358695 -0.94796 -0.94796
0.0353007 -0.897714 -0.897714
-0.048622 -0.921837 -0.921837
-0.00676835 -0.947394 -0.947394
0.0355891 -0.922679 -0.922679
-0.00626534 -0.897168 -0.897168
-0.00651372 -0.922122 -0.922122
-0.0494118 -0.947098 -0.947098
-0.0510054 -0.998568 -0.998568
0.0364065 -0.999473 -0.999473
0.0358695 -0.94796 -0.94796
-0.0502062 -0.972675 -0.972675
-0.00729658 -0.998886 -0.998886
0.0361421 -0.973559 -0.973559
-0.00676835 -0.947394 -0.947394
-0.00702928 -0.972982 -0.972982
-0.0510054 -0.998568 -0.998568
-0.052618 -1.05129 -1.05129
0.0369112 -1.05224 -1.05224
0.0364065 -0.999473 -0.999473
-0.0518093 -1.02477 -1.02477
-0.00785051 -1.05164 -1.05164
0.0366629 -1.0257 -1.0257
-0.00729658 -0.998886 -0.998886
-0.0075703 -1.0251 -1.0251
-0.052618 -1.05129 -1.05129
-0.0542501 -1.10527 -1.10527
0.037383 -1.10626 -1.10626
0.0369112 -1.05224 -1.05224
-0.0534315 -1.07813 -1.07813
-0.00843059 -1.10563 -1.10563
0.0371512 -1.0791 -1.0791
-0.00785051 -1.05164 -1.05164
-0.00813725 -1.07848 -1.07848
-0.0542501 -1.10527 -1.10527
-0.0559021 -1.16049 -1.16049
0.0378216 -1.16153 -1.16153
0.037383 -1.10626 -1.10626
-0.0550735 -1.13273 -1.13273
-0.00903726 -1.16088 -1.16088
0.0376065 -1.13374 -1.13374
-0.00843059 -1.10563 -1.10563
-0.00873057 -1.1331 -1.1331
-0.0559021 -1.16049 -1.16049
-0.0575745 -1.21694 -1.21694
0.0382265 -1.21803 -1.21803
0.0378216 -1.16153 -1.16153
-0.0567357 -1.18856 -1.18856
-0.00967096 -1.21735 -1.21735
0.0380283 -1.18962 -1.18962
-0.00903726 -1.16088 -1.16088
-0.00935071 -1.18896 -1.18896
-0.0575745 -1.21694 -1.21694
-0.0592677 -1.27462 -1.27462
0.0385973 -1.27575 -1.27575
0.0382265 -1.21803 -1.21803
-0.0584185 -1.24563 -1.24563
-0.0103321 -1.27505 -1.27505
0.0384162 -1.24673 -1.24673
-0.00967096 -1.21735 -1.21735
-0.00999808 -1.24605 -1.24605
-0.0592677 -1.27462 -1.27462
-0.0609821 -1.33351 -1.33351
0.0389336 -1.33469 -1.33469
0.0385973 -1.27575 -1.27575
-0.0601222 -1.30392 -1.30392
-0.0110211 -1.33397 -1.33397
0.0387698 -1.30507 -1.30507
-0.0103321 -1.27505 -1.27505
-0.0106731 -1.30436 -1.30436
-0.0609821 -1.33351 -1.33351
-0.0627181 -1.39362 -1.39362
0.039235 -1.39485 -1.39485
0.0389336 -1.33469 -1.33469
-0.0618474 -1.36342 -1.36342
-0.0117384 -1.39411 -1.39411
0.0390887 -1.36462 -1.36462
-0.0110211 -1.33397 -1.33397
-0.0113762 -1.36389 -1.36389
-0.0627181 -1.39362 -1.39362
-0.0644761 -1.45493 -1.45493
0.0395011 -1.4562 -1.4562
0.039235 -1.39485 -1.39485
-0.0635943 -1.42413 -1.42413
-0.0124843 -1.45544 -1.45544
0.0393725 -1.42538 -1.42538
-0.0117384 -1.39411 -1.39411
-0.0121078 -1.42462 -1.42462
-0.0644761 -1.45493 -1.45493
-0.0662565 -1.51743 -1.51743
0.0397314 -1.51876 -1.51876
0.0395011 -1.4562 -1.4562
-0.0653635 -1.48603 -1.48603
-0.0132593 -1.51797 -1.51797
0.0396207 -1.48733 -1.48733
-0.0124843 -1.45544 -1.45544
-0.0128682 -1.48655 -1.48655
-0.0662565 -1.51743 -1.51743
-0.0680596 -1.58112 -1.58112
0.0399258 -1.58249 -1.58249
0.0397314 -1.51876 -1.51876
-0.0671552 -1.54913 -1.54913
-0.0140637 -1.58168 -1.58168
0.0398331 -1.55048 -1.55048
-0.0132593 -1.51797 -1.51797
-0.0136578 -1.54968 -1.54968
-0.0680596 -1.58112 -1.58112
-0.0698858 -1.64599 -1.64599
0.0400837 -1.64741 -1.64741
0.0399258 -1.58249 -1.58249
-0.0689698 -1.61341 -1.61341
-0.0148978 -1.64658 -1.64658
0.0400093 -1.61481 -1.61481
-0.0140637 -1.58168 -1.58168
-0.014477 -1.61398 -1.61398
-0.0698858 -1.64599 -1.64599
-0.0717355 -1.71203 -1.71203
0.0402049 -1.7135 -1.7135
0.0400837 -1.64741 -1.64741
-0.0708077 -1.67886 -1.67886
-0.0157619 -1.71264 -1.71264
0.0401489 -1.68031 -1.68031
-0.0148978 -1.64658 -1.64658
-0.0153261 -1.67946 -1.67946
-0.0717355 -1.71203 -1.71203
-0.0736089 -1.77923 -1.77923
0.0402891 -1.78076 -1.78076
0.0402049 -1.7135 -1.7135
-0.0726692 -1.74548 -1.74548
-0.0166566 -1.77987 -1.77987
0.0402516 -1.74698 -1.74698
-0.0157619 -1.71264 -1.71264
-0.0162054 -1.74611 -1.74611
-0.0736089 -1.77923 -1.77923
-0.0755064 -1.84759 -1.84759
0.0403358 -1.84916 -1.84916
0.0402891 -1.78076 -1.78076
-0.0745546 -1.81326 -1.81326
-0.0175819 -1.84825 -1.84825
0.0403171 -1.81482 -1.81482
-0.0166566 -1.77987 -1.77987
-0.0171154 -1.81392 -1.81392
-0.0755064 -1.84759 -1.84759
-0.0774283 -1.91709 -1.91709
0.0403448 -1.91872 -1.91872
0.0403358 -1.84916 -1.84916
-0.0764643 -1.8822 -1.8822
-0.0185383 -1.91778 -1.91778
0.040345 -1.8838 -1.8838
-0.0175819 -1.84825 -1.84825
-0.0180562 -1.88288 -1.88288
-0.0774283 -1.91709 -1.91709
-0.0793749 -1.98773 -1.98773
0.0403158 -1.98942 -1.98942
0.0403448 -1.91872 -1.91872
-0.0783985 -1.95227 -1.95227
-0.0195261 -1.98846 -1.98846
0.0403351 -1.95393 -1.95393
-0.0185383 -1.91778 -1.91778
-0.0190283 -1.95298 -1.95298
-0.0793749 -1.98773 -1.98773
-0.0813466 -2.05951 -2.05951
0.0402485 -2.06125 -2.06125
0.0403158 -1.98942 -1.98942
-0.0803576 -2.02348 -2.02348
-0.0205455 -2.06026 -2.06026
0.0402869 -2.02519 -2.02519
-0.0195261 -1.98846 -1.98846
-0.0200319 -2.02422 -2.02422
-0.0813466 -2.05951 -2.05951
-0.0833434 -2.13241 -2.13241
0.0401426 -2.1342 -2.1342
0.0402485 -2.06125 -2.06125
-0.0823418 -2.09582 -2.09582
-0.0215969 -2.13318 -2.13318
0.0402004 -2.09758 -2.09758
-0.0205455 -2.06026 -2.06026
-0.0210672 -2.09658 -2.09658
-0.0833434 -2.13241 -2.13241
-0.0853659 -2.20642 -2.20642
0.0399979 -2.20827 -2.20827
0.0401426 -2.1342 -2.1342
-0.0843514 -2.16928 -2.16928
-0.0226805 -2.20723 -2.20723
0.0400751 -2.17109 -2.17109
-0.0215969 -2.13318 -2.13318
-0.0221346 -2.17007 -2.17007
-0.0853659 -2.20642 -2.20642
-0.0874141 -2.28154 -2.28154
0.039814 -2.28344 -2.28344
0.0399979 -2.20827 -2.20827
-0.0863867 -2.24385 -2.24385
-0.0237965 -2.28238 -2.28238
0.0399109 -2.24572 -2.24572
-0.0226805 -2.20723 -2.20723
-0.0232344 -2.24466 -2.24466
-0.0874141 -2.28154 -2.28154
-0.0894884 -2.35777 -2.35777
0.0395908 -2.35972 -2.35972
0.039814 -2.28344 -2.28344
-0.088448 -2.31952 -2.31952
-0.0249452 -2.35863 -2.35863
0.0397074 -2.32145 -2.32145
-0.0237965 -2.28238 -2.28238
-0.0243667 -2.32036 -2.32036
-0.0894884 -2.35777 -2.35777
-0.091589 -2.43508 -2.43508
0.0393281 -2.43709 -2.43709
0.0395908 -2.35972 -2.35972
-0.0905354 -2.39629 -2.39629
-0.0261268 -2.43597 -2.43597
0.0394644 -2.39827 -2.39827
-0.0249452 -2.35863 -2.35863
-0.0255319 -2.39716 -2.39716
-0.091589 -2.43508 -2.43508
-0.0937161 -2.51348 -2.51348
0.0390254 -2.51555 -2.51555
0.0393281 -2.43709 -2.43709
-0.0926492 -2.47414 -2.47414
-0.0273417 -2.5144 -2.5144
0.0391817 -2.47618 -2.47618
-0.0261268 -2.43597 -2.43597
-0.0267301 -2.47505 -2.47505
-0.0937161 -2.51348 -2.51348
-0.0958699 -2.59295 -2.59295
0.0386828 -2.59508 -2.59508
0.0390254 -2.51555 -2.51555
-0.0947896 -2.55308 -2.55308
-0.0285899 -2.5939 -2.5939
0.0388591 -2.55518 -2.55518
-0.0273417 -2.5144 -2.5144
-0.0279616 -2.55401 -2.55401
-0.0958699 -2.59295 -2.59295
-0.0980507 -2.6735 -2.6735
0.0382999 -2.67568 -2.67568
0.0386828 -2.59508 -2.59508
-0.0969569 -2.63309 -2.63309
-0.0298717 -2.67447 -2.67447
0.0384964 -2.63524 -2.63524
-0.0285899 -2.5939 -2.5939
-0.0292266 -2.63405 -2.63405
-0.0980507 -2.6735 -2.6735
-0.100259 -2.7551 -2.7551
0.0378765 -2.75734 -2.75734
0.0382999 -2.67568 -2.67568
-0.0991512 -2.71417 -2.71417
-0.0311873 -2.75611 -2.75611
0.0380933 -2.71638 -2.71638
-0.0298717 -2.67447 -2.67447
-0.0305253 -2.71516 -2.71516
-0.100259 -2.7551 -2.7551
-0.102494 -2.83776 -2.83776
0.0374126 -2.84005 -2.84005
0.0378765 -2.75734 -2.75734
-0.101373 -2.7963 -2.7963
-0.0325369 -2.83879 -2.83879
0.0376496 -2.79856 -2.79856
-0.0311873 -2.75611 -2.75611
-0.0318578 -2.79732 -2.79732
-0.102494 -2.83776 -2.83776
-0.104757 -2.92146 -2.92146
0.0369078 -2.92381 -2.92381
0.0374126 -2.84005 -2.84005
-0.103622 -2.87948 -2.87948
-0.0339207 -2.92252 -2.92252
0.0371653 -2.8818 -2.8818
-0.0325369 -2.83879 -2.83879
-0.0332245 -2.88053 -2.88053
-0.104757 -2.92146 -2.92146
-0.107047 -3.0062 -3.0062
0.036362 -3.00861 -3.00861
0.0369078 -2.92381 -2.92381
-0.105898 -2.9637 -2.9637
-0.0353387 -3.00729 -3.00729
0.03664 -2.96608 -2.96608
-0.0339207 -2.92252 -2.92252
-0.0346254 -2.96478 -2.96478
-0.107047 -3.0062 -3.0062
-0.109365 -3.09196 -3.09196
0.0357751 -3.09443 -3.09443
0.036362 -3.00861 -3.00861
-0.108203 -3.04895 -3.04895
-0.0367913 -3.09309 -3.09309
0.0360737 -3.05139 -3.05139
-0.0353387 -3.00729 -3.00729
-0.0360607 -3.05006 -3.05006
-0.109365 -3.09196 -3.09196
-0.111712 -3.17875 -3.17875
0.0351469 -3.18128 -3.18128
0.0357751 -3.09443 -3.09443
-0.110535 -3.13523 -3.13523
-0.0382785 -3.17991 -3.17991
0.0354662 -3.13773 -3.13773
-0.0367913 -3.09309 -3.09309
-0.0375306 -3.13637 -3.13637
-0.111712 -3.17875 -3.17875
-0.114086 -3.26656 -3.26656
0.0344773 -3.26914 -3.26914
0.0351469 -3.18128 -3.18128
-0.112895 -3.22253 -3.22253
-0.0398005 -3.26774 -3.26774
0.0348173 -3.22508 -3.22508
-0.0382785 -3.17991 -3.17991
-0.0390352 -3.2237 -3.2237
-0.114086 -3.26656 -3.26656
-0.116489 -3.35536 -3.35536
0.0337661 -3.35801 -3.35801
0.0344773 -3.26914 -3.26914
-0.115284 -3.31083 -3.31083
-0.0413574 -3.35658 -3.35658
0.0341269 -3.31345 -3.31345
-0.0398005 -3.26774 -3.26774
-0.0405746 -3.31203 -3.31203
-0.116489 -3.35536 -3.35536
-0.11892 -3.44517 -3.44517
0.0330132 -3.44787 -3.44787
0.0337661 -3.35801 -3.35801
-0.117701 -3.40014 -3.40014
-0.0429493 -3.44641 -3.44641
0.0333949 -3.40282 -3.40282
-0.0413574 -3.35658 -3.35658
-0.042149 -3.40137 -3.40137
-0.11892 -3.44517 -3.44517
-0.121379 -3.53596 -3.53596
0.0322186 -3.53873 -3.53873
0.0330132 -3.44787 -3.44787
-0.120146 -3.49044 -3.49044
-0.0445764 -3.53724 -3.53724
0.0326211 -3.49318 -3.49318
-0.0429493 -3.44641 -3.44641
-0.0437585 -3.4917 -3.4917
-0.121379 -3.53596 -3.53596
-0.123867 -3.62774 -3.62774
0.0313821 -3.63056 -3.63056
0.0322186 -3.53873 -3.53873
-0.12262 -3.58173 -3.58173
-0.0462387 -3.62905 -3.62905
0.0318056 -3.58452 -3.58452
-0.0445764 -3.53724 -3.53724
-0.0454032 -3.58302 -3.58302
-0.123867 -3.62774 -3.62774
-0.126384 -3.72049 -3.72049
0.0305035 -3.72337 -3.72337
0.0313821 -3.63056 -3.63056
-0.125122 -3.674 -3.674
-0.0479364 -3.72183 -3.72183
0.030948 -3.67685 -3.67685
-0.0462387 -3.62905 -3.62905
-0.0470831 -3.67532 -3.67532
-0.126384 -3.72049 -3.72049
-0.12893 -3.81421 -3.81421
0.0295829 -3.81715 -3.81715
0.0305035 -3.72337 -3.72337
-0.127653 -3.76723 -3.76723
-0.0496695 -3.81558 -3.81558
0.0300485 -3.77014 -3.77014
-0.0479364 -3.72183 -3.72183
-0.0487985 -3.76858 -3.76858
-0.12893 -3.81421 -3.81421
-0.131504 -3.90889 -3.90889
0.0286202 -3.91189 -3.91189
0.0295829 -3.81715 -3.81715
-0.130213 -3.86143 -3.86143
-0.051438 -3.91029 -3.91029
0.0291068 -3.8644 -3.8644
-0.0496695 -3.81558 -3.81558
-0.0505493 -3.86281 -3.86281
-0.131504 -3.90889 -3.90889
-0.134107 -4.00451 -4.00451
0.0276152 -4.00757 -4.00757
0.0286202 -3.91189 -3.91189
-0.132802 -3.95658 -3.95658
-0.0532422 -4.00594 -4.00594
0.028123 -3.95961 -3.95961
-0.051438 -3.91029 -3.91029
-0.0523357 -3.958 -3.958
-0.134107 -4.00451 -4.00451
-0.13674 -4.10108 -4.10108
0.026568 -4.1042 -4.1042
0.0276152 -4.00757 -4.00757
-0.13542 -4.05268 -4.05268
-0.0550819 -4.10254 -4.10254
0.0270969 -4.05577 -4.05577
-0.0532422 -4.00594 -4.00594
-0.0541576 -4.05412 -4.05412
-0.13674 -4.10108 -4.10108
-0.139401 -4.19858 -4.19858
0.0254785 -4.20177 -4.20177
0.026568 -4.1042 -4.1042
-0.138067 -4.14972 -4.14972
-0.0569574 -4.20008 -4.20008
0.0260285 -4.15287 -4.15287
-0.0550819 -4.10254 -4.10254
-0.0560152 -4.15119 -4.15119
-0.139401 -4.19858 -4.19858
-0.142091 -4.29702 -4.29702
0.0243466 -4.30026 -4.30026
0.0254785 -4.20177 -4.20177
-0.140742 -4.24768 -4.24768
-0.0588685 -4.29854 -4.29854
0.0249178 -4.2509 -4.2509
-0.0569574 -4.20008 -4.20008
-0.0579085 -4.24919 -4.24919
-0.142091 -4.29702 -4.29702
-0.144811 -4.39636 -4.39636
0.0231723 -4.39967 -4.39967
0.0243466 -4.30026 -4.30026
-0.143447 -4.34658 -4.34658
-0.0608154 -4.39792 -4.39792
0.0237647 -4.34985 -4.34985
-0.0588685 -4.29854 -4.29854
-0.0598375 -4.34811 -4.34811
-0.144811 -4.39636 -4.39636
-0.147559 -4.49663 -4.49663
0.0219556 -4.49999 -4.49999
0.0231723 -4.39967 -4.39967
-0.146181 -4.44638 -4.44638
-0.062798 -4.49821 -4.49821
0.0225692 -4.44971 -4.44971
-0.0608154 -4.39792 -4.39792
-0.0618022 -4.44795 -4.44795
-0.147559 -4.49663 -4.49663
-0.150337 -4.59779 -4.59779
0.0206965 -4.60121 -4.60121
0.0219556 -4.49999 -4.49999
-0.148945 -4.54709 -4.54709
-0.0648164 -4.5994 -4.5994
0.0213313 -4.55049 -4.55049
-0.062798 -4.49821 -4.49821
-0.0638028 -4.54869 -4.54869
-0.150337 -4.59779 -4.59779
-0.153144 -4.69985 -4.69985
0.0193949 -4.70333 -4.70333
0.0206965 -4.60121 -4.60121
-0.151737 -4.64871 -4.64871
-0.0668707 -4.70149 -4.70149
0.020051 -4.65216 -4.65216
-0.0648164 -4.5994 -4.5994
-0.0658391 -4.65034 -4.65034
-0.153144 -4.69985 -4.69985
-0.15598 -4.8028 -4.8028
0.0180509 -4.80634 -4.80634
0.0193949 -4.70333 -4.70333
-0.154558 -4.75121 -4.75121
-0.0689607 -4.80447 -4.80447
0.0187282 -4.75472 -4.75472
-0.0668707 -4.70149 -4.70149
-0.0679112 -4.75287 -4.75287
-0.15598 -4.8028 -4.8028
-0.158845 -4.90662 -4.90662
0.0166645 -4.91022 -4.91022
0.0180509 -4.80634 -4.80634
-0.157409 -4.8546 -4.8546
-0.0710864 -4.90833 -4.90833
0.017363 -4.85817 -4.85817
-0.0689607 -4.80447 -4.80447
-0.0700191 -4.85629 -4.85629
-0.158845 -4.90662 -4.90662
-0.161739 -5.01132 -5.01132
0.0152357 -5.01498 -5.01498
0.0166645 -4.91022 -4.91022
-0.160289 -4.95886 -4.95886
-0.073248 -5.01306 -5.01306
0.0159554 -4.9625 -4.9625
-0.0710864 -4.90833 -4.90833
-0.0721627 -4.96059 -4.96059
-0.161739 -5.01132 -5.01132
-0.164663 -5.11688 -5.11688
0.0137645 -5.12061 -5.12061
0.0152357 -5.01498 -5.01498
-0.163197 -5.06399 -5.06399
-0.0754452 -5.11865 -5.11865
0.0145054 -5.06769 -5.06769
-0.073248 -5.01306 -5.01306
-0.0743421 -5.06575 -5.06575
-0.164663 -5.11688 -5.11688
-0.167615 -5.2233 -5.2233
0.012251 -5.22708 -5.22708
0.0137645 -5.12061 -5.12061
-0.166135 -5.16998 -5.16998
-0.0776782 -5.2251 -5.2251
0.0130131 -5.17374 -5.17374
-0.0754452 -5.11865 -5.11865
-0.0765572 -5.17177 -5.17177
-0.167615 -5.2233 -5.2233
-0.170596 -5.33057 -5.33057
0.0106952 -5.33441 -5.33441
0.012251 -5.22708 -5.22708
-0.169102 -5.27683 -5.27683
-0.0799468 -5.3324 -5.3324
0.0114784 -5.28064 -5.28064
-0.0776782 -5.2251 -5.2251
-0.078808 -5.27864 -5.27864
-0.170596 -5.33057 -5.33057
-0.173607 -5.43867 -5.43867
0.00909715 -5.44258 -5.44258
0.0106952 -5.33441 -5.33441
-0.172098 -5.38452 -5.38452
-0.082251 -5.44054 -5.44054
0.00990145 -5.38839 -5.38839
-0.0799468 -5.3324 -5.3324
-0.0810944 -5.38636 -5.38636
-0.173607 -5.43867 -5.43867
-0.176646 -5.54761 -5.54761
0.00745691 -5.55158 -5.55158
0.00909715 -5.44258 -5.44258
-0.175123 -5.49304 -5.49304
-0.0845907 -5.54951 -5.54951
0.0082823 -5.49697 -5.49697
-0.082251 -5.44054 -5.44054
-0.0834164 -5.49492 -5.49492
-0.176646 -5.54761 -5.54761
-0.179714 -5.65738 -5.65738
0.00577455 -5.6614 -5.6614
0.00745691 -5.55158 -5.55158
-0.178176 -5.60239 -5.60239
-0.0869659 -5.6593 -5.6593
0.00662099 -5.60639 -5.60639
-0.0845907 -5.54951 -5.54951
-0.0857739 -5.6043 -5.6043
-0.179714 -5.65738 -5.65738
-0.182811 -5.76796 -5.76796
0.00405014 -5.77204 -5.77204
0.00577455 -5.6614 -5.6614
-0.181259 -5.71257 -5.71257
-0.0893765 -5.76991 -5.76991
0.0049176 -5.71662 -5.71662
-0.0869659 -5.6593 -5.6593
-0.0881668 -5.71451 -5.71451
-0.182811 -5.76796 -5.76796
-0.185936 -5.87935 -5.87935
0.00228378 -5.88349 -5.88349
0.00405014 -5.77204 -5.77204
-0.18437 -5.82355 -5.82355
-0.0918225 -5.88133 -5.88133
0.0031722 -5.82766 -5.82766
-0.0893765 -5.76991 -5.76991
-0.0905951 -5.82552 -5.82552
-0.185936 -5.87935 -5.87935
-0.18909 -5.99154 -5.99154
0.000475534 -5.99574 -5.99574
0.00228378 -5.88349 -5.88349
-0.18751 -5.93534 -5.93534
-0.0943037 -5.99355 -5.99355
0.00138488 -5.93951 -5.93951
-0.0918225 -5.88133 -5.88133
-0.0930587 -5.93734 -5.93734
-0.18909 -5.99154 -5.99154
-0.192273 -6.10452 -6.10452
-0.00137449 -6.10878 -6.10878
0.000475534 -5.99574 -5.99574
-0.190678 -6.04793 -6.04793
-0.09682 -6.10657 -6.10657
-0.00044426 -6.05216 -6.05216
-0.0943037 -5.99355 -5.99355
-0.0955574 -6.04996 -6.04996
-0.192273 -6.10452 -6.10452
-0.195484 -6.21829 -6.21829
-0.00326618 -6.22261 -6.22261
-0.00137449 -6.10878 -6.10878
-0.193875 -6.16131 -6.16131
-0.0993713 -6.22037 -6.22037
-0.00231513 -6.1656 -6.1656
-0.09682 -6.10657 -6.10657
-0.0980913 -6.16337 -6.16337
-0.195484 -6.21829 -6.21829
-0.198723 -6.33284 -6.33284
-0.00519944 -6.33722 -6.33722
-0.00326618 -6.22261 -6.22261
-0.1971 -6.27547 -6.27547
-0.101958 -6.33494 -6.33494
-0.00422762 -6.27982 -6.27982
-0.0993713 -6.22037 -6.22037
-0.10066 -6.27756 -6.27756
-0.198723 -6.33284 -6.33284
-0.201991 -6.44815 -6.44815
-0.00717414 -6.45259 -6.45259
-0.00519944 -6.33722 -6.33722
-0.200353 -6.3904 -6.3904
-0.104579 -6.45029 -6.45029
-0.00618161 -6.39481 -6.39481
-0.101958 -6.33494 -6.33494
-0.103264 -6.39252 -6.39252
-0.201991 -6.44815 -6.44815
-0.205286 -6.56423 -6.56423
-0.00919015 -6.56873 -6.56873
-0.00717414 -6.45259 -6.45259
-0.203635 -6.5061 -6.5061
-0.107234 -6.5664 -6.5664
-0.00817699 -6.51056 -6.51056
-0.104579 -6.45029 -6.45029
-0.105902 -6.50825 -6.50825
-0.205286 -6.56423 -6.56423
-0.208609 -6.68106 -6.68106
-0.0112474 -6.68562 -6.68562
-0.00919015 -6.56873 -6.56873
-0.206944 -6.62255 -6.62255
-0.109925 -6.68326 -6.68326
-0.0102136 -6.62708 -6.62708
-0.107234 -6.5664 -6.5664
-0.108575 -6.62474 -6.62474
-0.208609 -6.68106 -6.68106
-0.211961 -6.79864 -6.79864
-0.0133456 -6.80325 -6.80325
-0.0112474 -6.68562 -6.68562
-0.210282 -6.73976 -6.73976
-0.112649 -6.80087 -6.80087
-0.0122914 -6.74434 -6.74434
-0.109925 -6.68326 -6.68326
-0.111283 -6.74197 -6.74197
-0.211961 -6.79864 -6.79864
-0.215339 -6.91696 -6.91696
-0.0154848 -6.92163 -6.92163
-0.0133456 -6.80325 -6.80325
-0.213646 -6.85771 -6.85771
-0.115408 -6.91921 -6.91921
-0.0144101 -6.86235 -6.86235
-0.112649 -6.80087 -6.80087
-0.114025 -6.85995 -6.85995
-0.215339 -6.91696 -6.91696
-0.218745 -7.036 -7.036
-0.0176647 -7.04073 -7.04073
-0.0154848 -6.92163 -6.92163
-0.217039 -6.97639 -6.97639
-0.118201 -7.03829 -7.03829
-0.0165696 -6.98109 -6.98109
-0.115408 -6.91921 -6.91921
-0.116801 -6.97866 -6.97866
-0.218745 -7.036 -7.036
-0.222179 -7.15577 -7.15577
-0.0198851 -7.16055 -7.16055
-0.0176647 -7.04073 -7.04073
-0.220459 -7.0958 -7.0958
-0.121028 -7.15809 -7.15809
-0.0187698 -7.10055 -7.10055
-0.118201 -7.03829 -7.03829
-0.119611 -7.0981 -7.0981
-0.222179 -7.15577 -7.15577
-0.22564 -7.27625 -7.27625
-0.022146 -7.28109 -7.28109
-0.0198851 -7.16055 -7.16055
-0.223906 -7.21592 -7.21592
-0.123889 -7.2786 -7.2786
-0.0210105 -7.22074 -7.22074
-0.121028 -7.15809 -7.15809
-0.122455 -7.21825 -7.21825
-0.22564 -7.27625 -7.27625
-0.229127 -7.39744 -7.39744
-0.0244472 -7.40234 -7.40234
-0.022146 -7.28109 -7.28109
-0.22738 -7.33676 -7.33676
-0.126784 -7.39982 -7.39982
-0.0232916 -7.34163 -7.34163
-0.123889 -7.2786 -7.2786
-0.125332 -7.33912 -7.33912
-0.229127 -7.39744 -7.39744
-0.232642 -7.51933 -7.51933
-0.0267884 -7.52429 -7.52429
-0.0244472 -7.40234 -7.40234
-0.230881 -7.4583 -7.4583
-0.129711 -7.52174 -7.52174
-0.0256128 -7.46323 -7.46323
-0.126784 -7.39982 -7.39982
-0.128243 -7.46069 -7.46069
-0.232642 -7.51933 -7.51933
-0.236183 -7.64191 -7.64191
-0.0291695 -7.64692 -7.64692
-0.0267884 -7.52429 -7.52429
-0.234409 -7.58054 -7.58054
-0.132672 -7.64434 -7.64434
-0.0279739 -7.58552 -7.58552
-0.129711 -7.52174 -7.52174
-0.131188 -7.58295 -7.58295
-0.236183 -7.64191 -7.64191
-0.23975 -7.76518 -7.76518
-0.0315902 -7.77024 -7.77024
-0.0291695 -7.64692 -7.64692
-0.237963 -7.70346 -7.70346
-0.135667 -7.76764 -7.76764
-0.0303749 -7.7085 -7.7085
-0.132672 -7.64434 -7.64434
-0.134165 -7.70591 -7.70591
-0.23975 -7.76518 -7.76518
-0.243344 -7.88911 -7.88911
-0.0340505 -7.89423 -7.89423
-0.0315902 -7.77024 -7.77024
-0.241544 -7.82706 -7.82706
-0.138694 -7.8916 -7.8916
-0.0328154 -7.83215 -7.83215
-0.135667 -7.76764 -7.76764
-0.137176 -7.82954 -7.82954
-0.243344 -7.88911 -7.88911
-0.246963 -8.01372 -8.01372
-0.03655 -8.01889 -8.01889
-0.0340505 -7.89423 -7.89423
-0.24515 -7.95133 -7.95133
-0.141753 -8.01624 -8.01624
-0.0352954 -7.95648 -7.95648
-0.138694 -7.8916 -7.8916
-0.140219 -7.95384 -7.95384
-0.246963 -8.01372 -8.01372
-0.250609 -8.13899 -8.13899
-0.0390886 -8.14421 -8.14421
-0.03655 -8.01889 -8.01889
-0.248783 -8.07627 -8.07627
-0.144845 -8.14153 -8.14153
-0.0378145 -8.08147 -8.08147
-0.141753 -8.01624 -8.01624
-0.143295 -8.0788 -8.0788
-0.250609 -8.13899 -8.13899
-0.25428 -8.2649 -8.2649
-0.0416661 -8.27019 -8.27019
-0.0390886 -8.14421 -8.14421
-0.252441 -8.20186 -8.20186
-0.147969 -8.26747 -8.26747
-0.0403725 -8.20712 -8.20712
-0.144845 -8.14153 -8.14153
-0.146403 -8.20442 -8.20442
-0.25428 -8.2649 -8.2649
-0.257976 -8.39146 -8.39146
-0.0442822 -8.3968 -8.3968
-0.0416661 -8.27019 -8.27019
-0.256125 -8.3281 -8.3281
-0.151126 -8.39406 -8.39406
-0.0429693 -8.33341 -8.33341
-0.147969 -8.26747 -8.26747
-0.149544 -8.33069 -8.33069
-0.257976 -8.39146 -8.39146
-0.261697 -8.51866 -8.51866
-0.0469366 -8.52405 -8.52405
-0.0442822 -8.3968 -8.3968
-0.259834 -8.45498 -8.45498
-0.154314 -8.52129 -8.52129
-0.0456046 -8.46035 -8.46035
-0.151126 -8.39406 -8.39406
-0.152716 -8.4576 -8.4576
-0.261697 -8.51866 -8.51866
-0.265444 -8.64648 -8.64648
-0.0496293 -8.65193 -8.65193
-0.0469366 -8.52405 -8.52405
-0.263568 -8.58249 -8.58249
-0.157533 -8.64914 -8.64914
-0.0482782 -8.58791 -8.58791
-0.154314 -8.52129 -8.52129
-0.155919 -8.58514 -8.58514
-0.265444 -8.64648 -8.64648
-0.269215 -8.77493 -8.77493
-0.0523598 -8.78043 -8.78043
-0.0496293 -8.65193 -8.65193
-0.267326 -8.71063 -8.71063
-0.160784 -8.77761 -8.77761
-0.0509898 -8.7161 -8.7161
-0.157533 -8.64914 -8.64914
-0.159155 -8.7133 -8.7133
-0.269215 -8.77493 -8.77493
-0.27301 -8.90399 -8.90399
-0.055128 -8.90954 -8.90954
-0.0523598 -8.78043 -8.78043
-0.271109 -8.83938 -8.83938
-0.164066 -8.9067 -8.9067
-0.0537392 -8.8449 -8.8449
-0.160784 -8.77761 -8.77761
-0.162421 -8.84208 -8.84208
-0.27301 -8.90399 -8.90399
-0.27683 -9.03365 -9.03365
-0.0579337 -9.03925 -9.03925
-0.055128 -8.90954 -8.90954
-0.274917 -8.96874 -8.96874
-0.167378 -9.03639 -9.03639
-0.0565262 -8.97432 -8.97432
-0.164066 -8.9067 -8.9067
-0.165718 -8.97147 -8.97147
-0.27683 -9.03365 -9.03365
-0.280673 -9.16391 -9.16391
-0.0607765 -9.16956 -9.16956
-0.0579337 -9.03925 -9.03925
-0.278748 -9.09871 -9.09871
-0.170721 -9.16667 -9.16667
-0.0593504 -9.10433 -9.10433
-0.167378 -9.03639 -9.03639
-0.169046 -9.10145 -9.10145
-0.280673 -9.16391 -9.16391
-0.28454 -9.29476 -9.29476
-0.0636561 -9.30046 -9.30046
-0.0607765 -9.16956 -9.16956
-0.282604 -9.22926 -9.22926
-0.174095 -9.29755 -9.29755
-0.0622117 -9.23494 -9.23494
-0.170721 -9.16667 -9.16667
-0.172404 -9.23204 -9.23204
-0.28454 -9.29476 -9.29476
-0.288431 -9.42619 -9.42619
-0.0665724 -9.43194 -9.43194
-0.0636561 -9.30046 -9.30046
-0.286482 -9.3604 -9.3604
-0.177498 -9.429 -9.429
-0.0651097 -9.36613 -9.36613
-0.174095 -9.29755 -9.29755
-0.175793 -9.3632 -9.3632
-0.288431 -9.42619 -9.42619
-0.292344 -9.55819 -9.55819
-0.0695251 -9.56399 -9.56399
-0.0665724 -9.43194 -9.43194
-0.290384 -9.49212 -9.49212
-0.180931 -9.56103 -9.56103
-0.0680442 -9.49789 -9.49789
-0.177498 -9.429 -9.429
-0.179211 -9.49494 -9.49494
-0.292344 -9.55819 -9.55819
-0.29628 -9.69076 -9.69076
-0.0725138 -9.69661 -9.69661
-0.0695251 -9.56399 -9.56399
-0.294309 -9.6244 -9.6244
-0.184394 -9.69362 -9.69362
-0.071015 -9.63023 -9.63023
-0.180931 -9.56103 -9.56103
-0.182659 -9.62725 -9.62725
-0.29628 -9.69076 -9.69076
-0.300239 -9.82388 -9.82388
-0.0755383 -9.82978 -9.82978
-0.0725138 -9.69661 -9.69661
-0.298257 -9.75725 -9.75725
-0.187886 -9.82677 -9.82677
-0.0740216 -9.76312 -9.76312
-0.184394 -9.69362 -9.69362
-0.186136 -9.76013 -9.76013
-0.300239 -9.82388 -9.82388
-0.30422 -9.95755 -9.95755
-0.0785983 -9.9635 -9.9635
-0.0755383 -9.82978 -9.82978
-0.302227 -9.89065 -9.89065
-0.191406 -9.96047 -9.96047
-0.0770639 -9.89657 -9.89657
-0.187886 -9.82677 -9.82677
-0.189642 -9.89355 -9.89355
-0.30422 -9.95755 -9.95755
-0.308223 -10.0918 -10.0918
-0.0816935 -10.0978 -10.0978
-0.0785983 -9.9635 -9.9635
-0.306219 -10.0246 -10.0246
-0.194955 -10.0947 -10.0947
-0.0801415 -10.0306 -10.0306
-0.191406 -9.96047 -9.96047
-0.193177 -10.0275 -10.0275
-0.308223 -10.0918 -10.0918
-0.312248 -10.2265 -10.2265
-0.0848236 -10.2326 -10.2326
-0.0816935 -10.0978 -10.0978
-0.310233 -10.1591 -10.1591
-0.198533 -10.2295 -10.2295
-0.0832542 -10.1651 -10.1651
-0.194955 -10.0947 -10.0947
-0.19674 -10.162 -10.162
-0.312248 -10.2265 -10.2265
-0.316294 -10.3618 -10.3618
-0.0879883 -10.3679 -10.3679
-0.0848236 -10.2326 -10.2326
-0.314268 -10.2941 -10.2941
-0.202138 -10.3648 -10.3648
-0.0864016 -10.3002 -10.3002
-0.198533 -10.2295 -10.2295
-0.200332 -10.2971 -10.2971
-0.316294 -10.3618 -10.3618
-0.32036 -10.4976 -10.4976
-0.0911872 -10.5037 -10.5037
-0.0879883 -10.3679 -10.3679
-0.318324 -10.4296 -10.4296
-0.205771 -10.5006 -10.5006
-0.0895835 -10.4357 -10.4357
-0.202138 -10.3648 -10.3648
-0.203951 -10.4326 -10.4326
-0.32036 -10.4976 -10.4976
-0.324448 -10.6339 -10.6339
-0.0944201 -10.6401 -10.6401
-0.0911872 -10.5037 -10.5037
-0.322402 -10.5657 -10.5657
-0.209431 -10.6369 -10.6369
-0.0927995 -10.5718 -10.5718
-0.205771 -10.5006 -10.5006
-0.207598 -10.5687 -10.5687
-0.324448 -10.6339 -10.6339
-0.328556 -10.7707 -10.7707
-0.0976867 -10.7769 -10.7769
-0.0944201 -10.6401 -10.6401
-0.3265 -10.7022 -10.7022
-0.213118 -10.7738 -10.7738
-0.0960492 -10.7084 -10.7084
-0.209431 -10.6369 -10.6369
-0.211271 -10.7053 -10.7053
-0.328556 -10.7707 -10.7707
-0.332684 -10.908 -10.908
-0.100987 -10.9143 -10.9143
-0.0976867 -10.7769 -10.7769
-0.330618 -10.8393 -10.8393
-0.216832 -10.9111 -10.9111
-0.0993325 -10.8455 -10.8455
-0.213118 -10.7738 -10.7738
-0.214972 -10.8424 -10.8424
-0.332684 -10.908 -10.908
-0.336832 -11.0458 -11.0458
-0.104319 -11.0521 -11.0521
-0.100987 -10.9143 -10.9143
-0.334755 -10.9768 -10.9768
-0.220573 -11.0489 -11.0489
-0.102649 -10.9831 -10.9831
-0.216832 -10.9111 -10.9111
-0.218699 -10.9799 -10.9799
-0.336832 -11.0458 -11.0458
-0.340999 -11.1841 -11.1841
-0.107685 -11.1904 -11.1904
-0.104319 -11.0521 -11.0521
-0.338913 -11.1149 -11.1149
-0.224339 -11.1872 -11.1872
-0.105998 -11.1212 -11.1212
-0.220573 -11.0489 -11.0489
-0.222453 -11.118 -11.118
-0.340999 -11.1841 -11.1841
-0.345185 -11.3228 -11.3228
-0.111083 -11.3292 -11.3292
-0.107685 -11.1904 -11.1904
-0.34309 -11.2534 -11.2534
-0.228131 -11.326 -11.326
-0.10938 -11.2598 -11.2598
-0.224339 -11.1872 -11.1872
-0.226232 -11.2565 -11.2565
-0.345185 -11.3228 -11.3228
-0.34939 -11.462 -11.462
-0.114512 -11.4684 -11.4684
-0.111083 -11.3292 -11.3292
-0.347285 -11.3923 -11.3923
-0.231949 -11.4652 -11.4652
-0.112794 -11.3988 -11.3988
-0.228131 -11.326 -11.326
-0.230037 -11.3955 -11.3955
-0.34939 -11.462 -11.462
-0.353613 -11.6017 -11.6017
-0.117974 -11.6081 -11.6081
-0.114512 -11.4684 -11.4684
-0.351499 -11.5318 -11.5318
-0.235791 -11.6049 -11.6049
-0.116239 -11.5382 -11.5382
-0.231949 -11.4652 -11.4652
-0.233867 -11.535 -11.535
-0.353613 -11.6017 -11.6017
-0.357855 -11.7418 -11.7418
-0.121467 -11.7483 -11.7483
-0.117974 -11.6081 -11.6081
-0.355732 -11.6717 -11.6717
-0.239658 -11.745 -11.745
-0.119716 -11.6782 -11.6782
-0.235791 -11.6049 -11.6049
-0.237721 -11.6749 -11.6749
-0.357855 -11.7418 -11.7418
-0.362114 -11.8823 -11.8823
-0.12499 -11.8889 -11.8889
-0.121467 -11.7483 -11.7483
-0.359982 -11.812 -11.812
-0.243549 -11.8855 -11.8855
-0.123225 -11.8185 -11.8185
-0.239658 -11.745 -11.745
-0.241601 -11.8152 -11.8152
-0.362114 -11.8823 -11.8823
-0.36639 -12.0233 -12.0233
-0.128544 -12.0299 -12.0299
-0.12499 -11.8889 -11.8889
-0.36425 -11.9527 -11.9527
-0.247464 -12.0265 -12.0265
-0.126763 -11.9593 -11.9593
-0.243549 -11.8855 -11.8855
-0.245504 -11.956 -11.956
-0.36639 -12.0233 -12.0233
-0.370683 -12.1647 -12.1647
-0.132129 -12.1713 -12.1713
-0.128544 -12.0299 -12.0299
-0.368534 -12.0939 -12.0939
-0.251403 -12.168 -12.168
-0.130333 -12.1006 -12.1006
-0.247464 -12.0265 -12.0265
-0.249431 -12.0972 -12.0972
-0.370683 -12.1647 -12.1647
-0.374993 -12.3065 -12.3065
-0.135743 -12.3132 -12.3132
-0.132129 -12.1713 -12.1713
-0.372836 -12.2355 -12.2355
-0.255365 -12.3098 -12.3098
-0.133932 -12.2422 -12.2422
-0.251403 -12.168 -12.168
-0.253381 -12.2388 -12.2388
-0.374993 -12.3065 -12.3065
-0.379319 -12.4487 -12.4487
-0.139386 -12.4555 -12.4555
-0.135743 -12.3132 -12.3132
-0.377154 -12.3776 -12.3776
-0.25935 -12.452 -12.452
-0.137561 -12.3843 -12.3843
-0.255365 -12.3098 -12.3098
-0.257355 -12.3809 -12.3809
-0.379319 -12.4487 -12.4487
-0.38366 -12.5914 -12.5914
-0.143059 -12.5981 -12.5981
-0.139386 -12.4555 -12.4555
-0.381487 -12.52 -12.52
-0.263357 -12.5947 -12.5947
-0.141219 -12.5267 -12.5267
-0.25935 -12.452 -12.452
-0.261351 -12.5233 -12.5233
-0.38366 -12.5914 -12.5914
-0.388017 -12.7344 -12.7344
-0.14676 -12.7412 -12.7412
-0.143059 -12.5981 -12.5981
-0.385837 -12.6628 -12.6628
-0.267387 -12.7377 -12.7377
-0.144906 -12.6696 -12.6696
-0.263357 -12.5947 -12.5947
-0.265369 -12.6662 -12.6662
-0.388017 -12.7344 -12.7344
-0.39239 -12.8778 -12.8778
-0.15049 -12.8846 -12.8846
-0.14676 -12.7412 -12.7412
-0.390202 -12.806 -12.806
-0.271438 -12.8812 -12.8812
-0.148622 -12.8128 -12.8128
-0.267387 -12.7377 -12.7377
-0.269409 -12.8094 -12.8094
-0.39239 -12.8778 -12.8778
-0.396777 -13.0216 -13.0216
-0.154248 -13.0284 -13.0284
-0.15049 -12.8846 -12.8846
-0.394581 -12.9496 -12.9496
-0.27551 -13.025 -13.025
-0.152365 -12.9565 -12.9565
-0.271438 -12.8812 -12.8812
-0.273471 -12.953 -12.953
-0.396777 -13.0216 -13.0216
-0.401178 -13.1657 -13.1657
-0.158033 -13.1726 -13.1726
-0.154248 -13.0284 -13.0284
-0.398975 -13.0936 -13.0936
-0.279603 -13.1691 -13.1691
-0.156137 -13.1005 -13.1005
-0.27551 -13.025 -13.025
-0.277554 -13.097 -13.097
-0.401178 -13.1657 -13.1657
-0.405593 -13.3102 -13.3102
-0.161845 -13.3172 -13.3172
-0.158033 -13.1726 -13.1726
-0.403384 -13.2379 -13.2379
-0.283717 -13.3136 -13.3136
-0.159936 -13.2448 -13.2448
-0.279603 -13.1691 -13.1691
-0.281657 -13.2413 -13.2413
-0.405593 -13.3102 -13.3102
-0.410021 -13.4551 -13.4551
-0.165684 -13.4621 -13.4621
-0.161845 -13.3172 -13.3172
-0.407806 -13.3826 -13.3826
-0.287851 -13.4585 -13.4585
-0.163761 -13.3896 -13.3896
-0.283717 -13.3136 -13.3136
-0.285781 -13.386 -13.386
-0.410021 -13.4551 -13.4551
-0.414463 -13.6003 -13.6003
-0.16955 -13.6073 -13.6073
-0.165684 -13.4621 -13.4621
-0.412241 -13.5276 -13.5276
-0.292004 -13.6038 -13.6038
-0.167614 -13.5346 -13.5346
-0.287851 -13.4585 -13.4585
-0.289925 -13.5311 -13.5311
-0.414463 -13.6003 -13.6003
-0.418918 -13.7458 -13.7458
-0.173441 -13.7529 -13.7529
-0.16955 -13.6073 -13.6073
-0.416689 -13.673 -13.673
-0.296177 -13.7493 -13.7493
-0.171492 -13.68 -13.68
-0.292004 -13.6038 -13.6038
-0.294088 -13.6765 -13.6765
-0.418918 -13.7458 -13.7458
-0.423384 -13.8917 -13.8917
-0.177358 -13.8988 -13.8988
-0.173441 -13.7529 -13.7529
-0.421149 -13.8187 -13.8187
-0.300369 -13.8952 -13.8952
-0.175396 -13.8258 -13.8258
-0.296177 -13.7493 -13.7493
-0.298271 -13.8222 -13.8222
-0.423384 -13.8917 -13.8917
-0.427863 -14.0379 -14.0379
-0.1813 -14.045 -14.045
-0.177358 -13.8988 -13.8988
-0.425622 -13.9648 -13.9648
-0.304579 -14.0414 -14.0414
-0.179326 -13.9719 -13.9719
-0.300369 -13.8952 -13.8952
-0.302472 -13.9683 -13.9683
-0.427863 -14.0379 -14.0379
-0.432353 -14.1844 -14.1844
-0.185267 -14.1916 -14.1916
-0.1813 -14.045 -14.045
-0.430106 -14.1111 -14.1111
-0.308808 -14.188 -14.188
-0.18328 -14.1182 -14.1182
-0.304579 -14.0414 -14.0414
-0.306691 -14.1147 -14.1147
-0.432353 -14.1844 -14.1844
-0.436854 -14.3312 -14.3312
-0.189258 -14.3384 -14.3384
-0.185267 -14.1916 -14.1916
-0.434602 -14.2578 -14.2578
-0.313054 -14.3348 -14.3348
-0.187259 -14.2649 -14.2649
-0.308808 -14.188 -14.188
-0.310929 -14.2613 -14.2613
-0.436854 -14.3312 -14.3312
-0.441365 -14.4784 -14.4784
-0.193273 -14.4855 -14.4855
-0.189258 -14.3384 -14.3384
-0.439108 -14.4048 -14.4048
-0.317317 -14.4819 -14.4819
-0.191262 -14.4119 -14.4119
-0.313054 -14.3348 -14.3348
-0.315183 -14.4083 -14.4083
-0.441365 -14.4784 -14.4784
-0.445887 -14.6258 -14.6258
-0.197311 -14.633 -14.633
-0.193273 -14.4855 -14.4855
-0.443625 -14.552 -14.552
-0.321597 -14.6293 -14.6293
-0.195289 -14.5592 -14.5592
-0.317317 -14.4819 -14.4819
-0.319455 -14.5556 -14.5556
-0.445887 -14.6258 -14.6258
-0.450419 -14.7735 -14.7735
-0.201372 -14.7807 -14.7807
-0.197311 -14.633 -14.633
-0.448152 -14.6996 -14.6996
-0.325894 -14.7771 -14.7771
-0.199339 -14.7068 -14.7068
-0.321597 -14.6293 -14.6293
-0.323744 -14.7032 -14.7032
-0.450419 -14.7735 -14.7735
-0.45496 -14.9214 -14.9214
-0.205456 -14.9287 -14.9287
-0.201372 -14.7807 -14.7807
-0.452688 -14.8474 -14.8474
-0.330207 -14.925 -14.925
-0.203412 -14.8547 -14.8547
-0.325894 -14.7771 -14.7771
-0.328048 -14.851 -14.851
-0.45496 -14.9214 -14.9214
-0.45951 -15.0697 -15.0697
-0.209563 -15.077 -15.077
-0.205456 -14.9287 -14.9287
-0.457234 -14.9955 -14.9955
-0.334535 -15.0733 -15.0733
-0.207507 -15.0028 -15.0028
-0.330207 -14.925 -14.925
-0.332369 -14.9991 -14.9991
-0.45951 -15.0697 -15.0697
-0.464069 -15.2181 -15.2181
-0.213691 -15.2255 -15.2255
-0.209563 -15.077 -15.077
-0.461788 -15.1439 -15.1439
-0.338878 -15.2218 -15.2218
-0.211624 -15.1512 -15.1512
-0.334535 -15.0733 -15.0733
-0.336705 -15.1475 -15.1475
-0.464069 -15.2181 -15.2181
-0.468635 -15.3669 -15.3669
-0.21784 -15.3742 -15.3742
-0.213691 -15.2255 -15.2255
-0.466351 -15.2925 -15.2925
-0.343236 -15.3705 -15.3705
-0.215763 -15.2998 -15.2998
-0.338878 -15.2218 -15.2218
-0.341055 -15.2961 -15.2961
-0.468635 -15.3669 -15.3669
-0.473209 -15.5159 -15.5159
-0.22201 -15.5233 -15.5233
-0.21784 -15.3742 -15.3742
-0.470921 -15.4414 -15.4414
-0.347608 -15.5195 -15.5195
-0.219923 -15.4487 -15.4487
-0.343236 -15.3705 -15.3705
-0.34542 -15.445 -15.445
-0.473209 -15.5159 -15.5159
-0.477791 -15.6651 -15.6651
-0.226201 -15.6725 -15.6725
-0.22201 -15.5233 -15.5233
-0.475499 -15.5905 -15.5905
-0.351994 -15.6688 -15.6688
-0.224103 -15.5978 -15.5978
-0.347608 -15.5195 -15.5195
-0.3498 -15.5941 -15.5941
-0.477791 -15.6651 -15.6651
-0.482379 -15.8146 -15.8146
-0.230411 -15.822 -15.822
-0.226201 -15.6725 -15.6725
-0.480084 -15.7398 -15.7398
-0.356394 -15.8182 -15.8182
-0.228304 -15.7472 -15.7472
-0.351994 -15.6688 -15.6688
-0.354192 -15.7435 -15.7435
-0.482379 -15.8146 -15.8146
-0.486973 -15.9642 -15.9642
-0.234642 -15.9717 -15.9717
-0.230411 -15.822 -15.822
-0.484675 -15.8894 -15.8894
-0.360806 -15.9679 -15.9679
-0.232524 -15.8968 -15.8968
-0.356394 -15.8182 -15.8182
-0.358598 -15.8931 -15.8931
-0.486973 -15.9642 -15.9642
-0.491574 -16.1141 -16.1141
-0.238891 -16.1216 -16.1216
-0.234642 -15.9717 -15.9717
-0.489273 -16.0391 -16.0391
-0.365231 -16.1178 -16.1178
-0.236764 -16.0466 -16.0466
-0.360806 -15.9679 -15.9679
-0.363017 -16.0428 -16.0428
-0.491574 -16.1141 -16.1141
-0.496179 -16.2642 -16.2642
-0.243159 -16.2717 -16.2717
-0.238891 -16.1216 -16.1216
-0.493876 -16.1891 -16.1891
-0.369668 -16.2679 -16.2679
-0.241023 -16.1966 -16.1966
-0.365231 -16.1178 -16.1178
-0.367448 -16.1928 -16.1928
-0.496179 -16.2642 -16.2642
-0.50079 -16.4145 -16.4145
-0.247445 -16.422 -16.422
-0.243159 -16.2717 -16.2717
-0.498484 -16.3393 -16.3393
-0.374116 -16.4182 -16.4182
-0.2453 -16.3468 -16.3468
-0.369668 -16.2679 -16.2679
-0.371891 -16.343 -16.343
-0.50079 -16.4145 -16.4145
-0.505405 -16.5649 -16.5649
-0.251749 -16.5725 -16.5725
-0.247445 -16.422 -16.422
-0.503097 -16.4897 -16.4897
-0.378576 -16.5687 -16.5687
-0.249595 -16.4972 -16.4972
-0.374116 -16.4182 -16.4182
-0.376345 -16.4934 -16.4934
-0.505405 -16.5649 -16.5649
-0.510025 -16.7156 -16.7156
-0.256071 -16.7231 -16.7231
-0.251749 -16.5725 -16.5725
-0.507715 -16.6403 -16.6403
-0.383047 -16.7194 -16.7194
-0.253908 -16.6478 -16.6478
-0.378576 -16.5687 -16.5687
-0.38081 -16.644 -16.644
-0.510025 -16.7156 -16.7156
-0.514648 -16.8664 -16.8664
-0.260409 -16.874 -16.874
-0.256071 -16.7231 -16.7231
-0.512336 -16.791 -16.791
-0.387527 -16.8702 -16.8702
-0.258238 -16.7985 -16.7985
-0.383047 -16.7194 -16.7194
-0.385286 -16.7947 -16.7947
-0.514648 -16.8664 -16.8664
-0.519274 -17.0174 -17.0174
-0.264763 -17.025 -17.025
-0.260409 -16.874 -16.874
-0.51696 -16.9419 -16.9419
-0.392018 -17.0212 -17.0212
-0.262584 -16.9495 -16.9495
-0.387527 -16.8702 -16.8702
-0.389771 -16.9457 -16.9457
-0.519274 -17.0174 -17.0174
-0.523903 -17.1686 -17.1686
-0.269134 -17.1762 -17.1762
-0.264763 -17.025 -17.025
-0.521588 -17.093 -17.093
-0.396517 -17.1723 -17.1723
-0.266947 -17.1005 -17.1005
-0.392018 -17.0212 -17.0212
-0.394266 -17.0967 -17.0967
-0.523903 -17.1686 -17.1686
-0.528534 -17.3199 -17.3199
-0.27352 -17.3275 -17.3275
-0.269134 -17.1762 -17.1762
-0.526218 -17.2442 -17.2442
-0.401026 -17.3236 -17.3236
-0.271325 -17.2518 -17.2518
-0.396517 -17.1723 -17.1723
-0.398771 -17.248 -17.248
-0.528534 -17.3199 -17.3199
-0.533167 -17.4713 -17.4713
-0.277921 -17.4789 -17.4789
-0.27352 -17.3275 -17.3275
-0.53085 -17.3956 -17.3956
-0.405543 -17.4751 -17.4751
-0.275719 -17.4032 -17.4032
-0.401026 -17.3236 -17.3236
-0.403284 -17.3994 -17.3994
-0.533167 -17.4713 -17.4713
-0.537801 -17.6229 -17.6229
-0.282337 -17.6305 -17.6305
-0.277921 -17.4789 -17.4789
-0.535484 -17.5471 -17.5471
-0.410068 -17.6267 -17.6267
-0.280127 -17.5547 -17.5547
-0.405543 -17.4751 -17.4751
-0.407805 -17.5509 -17.5509
-0.537801 -17.6229 -17.6229
-0.542436 -17.7746 -17.7746
-0.286767 -17.7822 -17.7822
-0.282337 -17.6305 -17.6305
-0.540119 -17.6987 -17.6987
-0.414601 -17.7784 -17.7784
-0.28455 -17.7063 -17.7063
-0.410068 -17.6267 -17.6267
-0.412334 -17.7025 -17.7025
-0.542436 -17.7746 -17.7746
-0.547072 -17.9264 -17.9264
-0.29121 -17.934 -17.934
-0.286767 -17.7822 -17.7822
-0.544754 -17.8505 -17.8505
-0.41914 -17.9302 -17.9302
-0.288987 -17.8581 -17.8581
-0.414601 -17.7784 -17.7784
-0.41687 -17.8543 -17.8543
-0.547072 -17.9264 -17.9264
-0.551707 -18.0783 -18.0783
-0.295667 -18.086 -18.086
-0.29121 -17.934 -17.934
-0.54939 -18.0023 -18.0023
-0.423686 -18.0821 -18.0821
-0.293437 -18.01 -18.01
-0.41914 -17.9302 -17.9302
-0.421413 -18.0062 -18.0062
-0.551707 -18.0783 -18.0783
-0.556342 -18.2304 -18.2304
-0.300136 -18.238 -18.238
-0.295667 -18.086 -18.086
-0.554025 -18.1543 -18.1543
-0.428239 -18.2342 -18.2342
-0.2979 -18.162 -18.162
-0.423686 -18.0821 -18.0821
-0.425962 -18.1581 -18.1581
-0.556342 -18.2304 -18.2304
-0.560976 -18.3825 -18.3825
-0.304618 -18.3902 -18.3902
-0.300136 -18.238 -18.238
-0.558659 -18.3064 -18.3064
-0.432797 -18.3863 -18.3863
-0.302376 -18.3141 -18.3141
-0.428239 -18.2342 -18.2342
-0.430517 -18.3102 -18.3102
-0.560976 -18.3825 -18.3825
-0.565609 -18.5347 -18.5347
-0.309112 -18.5424 -18.5424
-0.304618 -18.3902 -18.3902
-0.563293 -18.4586 -18.4586
-0.43736 -18.5385 -18.5385
-0.306864 -18.4663 -18.4663
-0.432797 -18.3863 -18.3863
-0.435078 -18.4624 -18.4624
-0.565609 -18.5347 -18.5347
-0.570239 -18.687 -18.687
-0.313618 -18.6947 -18.6947
-0.309112 -18.5424 -18.5424
-0.567924 -18.6108 -18.6108
-0.441928 -18.6908 -18.6908
-0.311364 -18.6185 -18.6185
-0.43736 -18.5385 -18.5385
-0.439644 -18.6147 -18.6147
-0.570239 -18.687 -18.687
-0.574867 -18.8393 -18.8393
-0.318135 -18.847 -18.847
-0.313618 -18.6947 -18.6947
-0.572553 -18.7632 -18.7632
-0.446501 -18.8432 -18.8432
-0.315875 -18.7708 -18.7708
-0.441928 -18.6908 -18.6908
-0.444214 -18.767 -18.767
-0.574867 -18.8393 -18.8393
-0.579491 -18.9918 -18.9918
-0.322665 -18.9995 -18.9995
-0.318135 -18.847 -18.847
-0.577179 -18.9155 -18.9155
-0.451077 -18.9956 -18.9956
-0.320399 -18.9232 -18.9232
-0.446501 -18.8432 -18.8432
-0.448789 -18.9194 -18.9194
-0.579491 -18.9918 -18.9918
-0.58411 -19.1443 -19.1443
-0.327205 -19.152 -19.152
-0.322665 -18.9995 -18.9995
-0.581801 -19.068 -19.068
-0.455658 -19.1481 -19.1481
-0.324933 -19.0757 -19.0757
-0.451077 -18.9956 -18.9956
-0.453367 -19.0719 -19.0719
-0.58411 -19.1443 -19.1443
-0.588724 -19.2968 -19.2968
-0.331758 -19.3045 -19.3045
-0.327205 -19.152 -19.152
-0.586418 -19.2205 -19.2205
-0.460241 -19.3006 -19.3006
-0.32948 -19.2282 -19.2282
-0.455658 -19.1481 -19.1481
-0.457949 -19.2244 -19.2244
-0.588724 -19.2968 -19.2968
-0.593331 -19.4494 -19.4494
-0.336323 -19.4571 -19.4571
-0.331758 -19.3045 -19.3045
-0.591028 -19.3731 -19.3731
-0.464827 -19.4532 -19.4532
-0.334039 -19.3808 -19.3808
-0.460241 -19.3006 -19.3006
-0.462534 -19.3769 -19.3769
-0.593331 -19.4494 -19.4494
-0.597932 -19.602 -19.602
-0.340898 -19.6097 -19.6097
-0.336323 -19.4571 -19.4571
-0.595632 -19.5257 -19.5257
-0.469415 -19.6058 -19.6058
-0.338609 -19.5334 -19.5334
-0.464827 -19.4532 -19.4532
-0.467121 -19.5295 -19.5295
-0.597932 -19.602 -19.602
-0.602529 -19.7546 -19.7546
-0.345477 -19.7623 -19.7623
-0.340898 -19.6097 -19.6097
-0.600231 -19.6783 -19.6783
-0.474003 -19.7584 -19.7584
-0.343187 -19.686 -19.686
-0.469415 -19.6058 -19.6058
-0.471709 -19.6821 -19.6821
-0.602529 -19.7546 -19.7546
-0.607122 -19.9071 -19.9071
-0.350055 -19.9149 -19.9149
-0.345477 -19.7623 -19.7623
-0.604826 -19.8309 -19.8309
-0.478588 -19.911 -19.911
-0.347767 -19.8386 -19.8386
-0.474003 -19.7584 -19.7584
-0.476296 -19.8347 -19.8347
-0.607122 -19.9071 -19.9071
-0.611717 -20.0596 -20.0596
-0.354621 -20.0674 -20.0674
-0.350055 -19.9149 -19.9149
-0.609419 -19.9834 -19.9834
-0.483168 -20.0635 -20.0635
-0.35234 -19.9911 -19.9911
-0.478588 -19.911 -19.911
-0.480879 -19.9872 -19.9872
0 0 0
0.00112305 0.000181038 0.000181038
0.00344589 -0.000365548 -0.000365548
0 0 0
0.000558742 0.000370049 0.000370049
0.00227575 -2.49951e-05 -2.49951e-05
0.00167035 0.000100483 0.000100483
0 0 0
0.00110431 0.0002778 0.0002778
0.00112305 0.000181038 0.000181038
0.00234098 -0.00175802 -0.00175802
0.00715553 -0.00270953 -0.00270953
0.00344589 -0.000365548 -0.000365548
0.00172057 -0.00054017 -0.00054017
0.0047264 -0.00210449 -0.00210449
0.00527764 -0.0013135 -0.0013135
0.00227575 -2.49951e-05 -2.49951e-05
0.00348568 -0.000828086 -0.000828086
0.00234098 -0.00175802 -0.00175802
0.0036021 -0.00555773 -0.00555773
0.0110188 -0.00675927 -0.00675927
0.00715553 -0.00270953 -0.00270953
0.00296833 -0.0034379 -0.0034379
0.00727947 -0.00600295 -0.00600295
0.00907556 -0.00453223 -0.00453223
0.0047264 -0.00210449 -0.00210449
0.00599408 -0.00383809 -0.00383809
0.0036021 -0.00555773 -0.00555773
0.0048887 -0.0110487 -0.0110487
0.0149116 -0.0123642 -0.0123642
0.0110188 -0.00675927 -0.00675927
0.00424393 -0.00809945 -0.00809945
0.00986885 -0.0115419 -0.0115419
0.0129659 -0.00937157 -0.00937157
0.00727947 -0.00600295 -0.00600295
0.00857293 -0.00857431 -0.00857431
0.0048887 -0.0110487 -0.0110487
0.00617003 -0.0181263 -0.0181263
0.0187877 -0.0194829 -0.0194829
0.0149116 -0.0123642 -0.0123642
0.00553088 -0.0143933 -0.0143933
0.0124523 -0.0186398 -0.0186398
0.0168535 -0.0157355 -0.0157355
0.00986885 -0.0115419 -0.0115419
0.0111629 -0.014899 -0.014899
0.00617003 -0.0181263 -0.0181263
0.0074393 -0.0267368 -0.0267368
0.0226231 -0.0280995 -0.0280995
0.0187877 -0.0194829 -0.0194829
0.00680659 -0.022242 -0.022242
0.01501 -0.0272546 -0.0272546
0.0207108 -0.0236043 -0.0236043
0.0124523 -0.0186398 -0.0186398
0.0137349 -0.022759 -0.022759
0.0074393 -0.0267368 -0.0267368
0.00868964 -0.0368524 -0.0368524
0.0264181 -0.0382114 -0.0382114
0.0226231 -0.0280995 -0.0280995
0.0080669 -0.0316076 -0.0316076
0.017537 -0.0373703 -0.0373703
0.0245255 -0.0329688 -0.0329688
0.01501 -0.0272546 -0.0272546
0.0162773 -0.0321255 -0.0321255
0.00868964 -0.0368524 -0.0368524
0.00992195 -0.048459 -0.048459
0.0301742 -0.0498137 -0.0498137
0.0264181 -0.0382114 -0.0382114
0.00930803 -0.0424699 -0.0424699
0.0200341 -0.0489763 -0.0489763
0.0283008 -0.0438266 -0.0438266
0.017537 -0.0373703 -0.0373703
0.0187892 -0.0429875 -0.0429875
0.00992195 -0.048459 -0.048459
0.0111361 -0.0615478 -0.0615478
0.0338953 -0.0629013 -0.0629013
0.0301742 -0.0498137 -0.0498137
0.0105313 -0.0548186 -0.0548186
0.0225036 -0.062066 -0.062066
0.032039 -0.0561722 -0.0561722
0.0200341 -0.0489763 -0.0489763
0.0212722 -0.0553361 -0.0553361
0.0111361 -0.0615478 -0.0615478
0.0123331 -0.0761119 -0.0761119
0.0375835 -0.0774677 -0.0774677
0.0338953 -0.0629013 -0.0629013
0.0117367 -0.0686459 -0.0686459
0.0249473 -0.0766324 -0.0766324
0.0357434 -0.0700001 -0.0700001
0.0225036 -0.062066 -0.062066
0.0237286 -0.069165 -0.069165
0.0123331 -0.0761119 -0.0761119
0.013513 -0.0921448 -0.0921448
0.0412401 -0.093506 -0.093506
0.0375835 -0.0774677 -0.0774677
0.0129252 -0.0839452 -0.0839452
0.0273662 -0.092669 -0.092669
0.0394157 -0.0853033 -0.0853033
0.0249473 -0.0766324 -0.0766324
0.0261598 -0.0844674 -0.0844674
0.013513 -0.0921448 -0.0921448
0.0146758 -0.109639 -0.109639
0.0448658 -0.111009 -0.111009
0.0412401 -0.093506 -0.093506
0.0140966 -0.10071 -0.10071
0.0297608 -0.110169 -0.110169
0.0430568 -0.102075 -0.102075
0.0273662 -0.092669 -0.092669
0.0285666 -0.101236 -0.101236
0.0146758 -0.109639 -0.109639
0.0158211 -0.128588 -0.128588
0.0484605 -0.129968 -0.129968
0.0448658 -0.111009 -0.111009
0.0152507 -0.118933 -0.118933
0.0321311 -0.129124 -0.129124
0.046667 -0.120307 -0.120307
0.0297608 -0.110169 -0.110169
0.030949 -0.119465 -0.119465
0.0158211 -0.128588 -0.128588
0.0169484 -0.148985 -0.148985
0.0520237 -0.150376 -0.150376
0.0484605 -0.129968 -0.129968
0.0163871 -0.138606 -0.138606
0.0344765 -0.149527 -0.149527
0.050246 -0.139991 -0.139991
0.0321311 -0.129124 -0.129124
0.0333069 -0.139145 -0.139145
0.0169484 -0.148985 -0.148985
0.0180572 -0.17082 -0.17082
0.0555551 -0.172225 -0.172225
0.0520237 -0.150376 -0.150376
0.0175052 -0.159723 -0.159723
0.0367966 -0.17137 -0.17137
0.0537934 -0.161121 -0.161121
0.0344765 -0.149527 -0.149527
0.0356398 -0.160269 -0.160269
0.0180572 -0.17082 -0.17082
0.0191466 -0.194088 -0.194088
0.0590538 -0.195507 -0.195507
0.0555551 -0.172225 -0.172225
0.0186043 -0.182276 -0.182276
0.0390908 -0.194645 -0.194645
0.0573085 -0.183687 -0.183687
0.0367966 -0.17137 -0.17137
0.037947 -0.182829 -0.182829
0.0191466 -0.194088 -0.194088
0.020216 -0.218779 -0.218779
0.0625193 -0.220214 -0.220214
0.0590538 -0.195507 -0.195507
0.0196839 -0.206256 -0.206256
0.0413584 -0.219345 -0.219345
0.0607908 -0.207683 -0.207683
0.0390908 -0.194645 -0.194645
0.040228 -0.206818 -0.206818
0.020216 -0.218779 -0.218779
0.0212648 -0.244886 -0.244886
0.0659509 -0.246339 -0.246339
0.0625193 -0.220214 -0.220214
0.0207431 -0.231656 -0.231656
0.0435986 -0.245462 -0.245462
0.0642394 -0.2331 -0.2331
0.0413584 -0.219345 -0.219345
0.0424819 -0.232227 -0.232227
0.0212648 -0.244886 -0.244886
0.0222922 -0.272402 -0.272402
0.0693478 -0.273873 -0.273873
0.0659509 -0.246339 -0.246339
0.0217812 -0.258468 -0.258468
0.0458108 -0.272988 -0.272988
0.0676537 -0.25993 -0.25993
0.0435986 -0.245462 -0.245462
0.0447083 -0.259049 -0.259049
0.0222922 -0.272402 -0.272402
0.0232976 -0.301317 -0.301317
0.0727093 -0.302808 -0.302808
0.0693478 -0.273873 -0.273873
0.0227977 -0.286685 -0.286685
0.0479944 -0.301914 -0.301914
0.071033 -0.288166 -0.288166
0.0458108 -0.272988 -0.272988
0.0469062 -0.287276 -0.287276
0.0232976 -0.301317 -0.301317
0.0242802 -0.331625 -0.331625
0.0760348 -0.333137 -0.333137
0.0727093 -0.302808 -0.302808
0.0237918 -0.316298 -0.316298
0.0501485 -0.332233 -0.332233
0.0743766 -0.317798 -0.317798
0.0479944 -0.301914 -0.301914
0.0490751 -0.3169 -0.3169
0.0242802 -0.331625 -0.331625
0.0252394 -0.363318 -0.363318
0.0793237 -0.364851 -0.364851
0.0760348 -0.333137 -0.333137
0.0247628 -0.347299 -0.347299
0.0522726 -0.363937 -0.363937
0.0776839 -0.348821 -0.348821
0.0501485 -0.332233 -0.332233
0.0512144 -0.347912 -0.347912
0.0252394 -0.363318 -0.363318
0.0261746 -0.396387 -0.396387
0.0825752 -0.397943 -0.397943
0.0793237 -0.364851 -0.364851
0.0257101 -0.37968 -0.37968
0.054366 -0.397019 -0.397019
0.0809541 -0.381225 -0.381225
0.0522726 -0.363937 -0.363937
0.0533232 -0.380306 -0.380306
0.0261746 -0.396387 -0.396387
0.0270851 -0.430824 -0.430824
0.0857887 -0.432405 -0.432405
0.0825752 -0.397943 -0.397943
0.026633 -0.413435 -0.413435
0.0564281 -0.431469 -0.431469
0.0841867 -0.415003 -0.415003
0.054366 -0.397019 -0.397019
0.055401 -0.414073 -0.414073
0.0270851 -0.430824 -0.430824
0.0279703 -0.466623 -0.466623
0.0889636 -0.468228 -0.468228
0.0857887 -0.432405 -0.432405
0.0275309 -0.448554 -0.448554
0.0584582 -0.467281 -0.467281
0.087381 -0.450147 -0.450147
0.0564281 -0.431469 -0.431469
0.0574472 -0.449205 -0.449205
0.0279703 -0.466623 -0.466623
0.0288295 -0.503774 -0.503774
0.0920993 -0.505406 -0.505406
0.0889636 -0.468228 -0.468228
0.0284032 -0.48503 -0.48503
0.0604557 -0.504446 -0.504446
0.0905364 -0.486648 -0.486648
0.0584582 -0.467281 -0.467281
0.0594611 -0.485695 -0.485695
0.0288295 -0.503774 -0.503774
0.0296623 -0.54227 -0.54227
0.0951951 -0.543929 -0.543929
0.0920993 -0.505406 -0.505406
0.0292492 -0.522855 -0.522855
0.0624201 -0.542957 -0.542957
0.0936522 -0.5245 -0.5245
0.0604557 -0.504446 -0.504446
0.0614421 -0.523534 -0.523534
0.0296623 -0.54227 -0.54227
0.0304679 -0.582104 -0.582104
0.0982506 -0.583791 -0.583791
0.0951951 -0.543929 -0.543929
0.0300685 -0.56202 -0.56202
0.0643507 -0.582805 -0.582805
0.096728 -0.563693 -0.563693
0.0624201 -0.542957 -0.542957
0.0633896 -0.562714 -0.562714
0.0304679 -0.582104 -0.582104
0.0312457 -0.623267 -0.623267
0.101265 -0.624983 -0.624983
0.0982506 -0.583791 -0.583791
0.0308603 -0.60252 -0.60252
0.0662469 -0.623983 -0.623983
0.099763 -0.604221 -0.604221
0.0643507 -0.582805 -0.582805
0.0653031 -0.603229 -0.603229
0.0312457 -0.623267 -0.623267
0.0319954 -0.665751 -0.665751
0.104238 -0.667497 -0.667497
0.101265 -0.624983 -0.624983
0.0316241 -0.644344 -0.644344
0.0681082 -0.666483 -0.666483
0.102757 -0.646075 -0.646075
0.0662469 -0.623983 -0.623983
0.0671819 -0.645069 -0.645069
0.0319954 -0.665751 -0.665751
0.0327162 -0.709548 -0.709548
0.107169 -0.711325 -0.711325
0.104238 -0.667497 -0.667497
0.0323594 -0.687486 -0.687486
0.069934 -0.710297 -0.710297
0.105709 -0.689247 -0.689247
0.0681082 -0.666483 -0.666483
0.0690256 -0.688226 -0.688226
0.0327162 -0.709548 -0.709548
0.0334077 -0.754651 -0.754651
0.110057 -0.75646 -0.75646
0.107169 -0.711325 -0.711325
0.0330656 -0.731937 -0.731937
0.0717239 -0.755417 -0.755417
0.108618 -0.73373 -0.73373
0.069934 -0.710297 -0.710297
0.0708335 -0.732694 -0.732694
0.0334077 -0.754651 -0.754651
0.0340692 -0.801052 -0.801052
0.112902 -0.802893 -0.802893
0.110057 -0.75646 -0.75646
0.0337422 -0.77769 -0.77769
0.0734772 -0.801835 -0.801835
0.111485 -0.779515 -0.779515
0.0717239 -0.755417 -0.755417
0.0726051 -0.778464 -0.778464
0.0340692 -0.801052 -0.801052
0.0347004 -0.848742 -0.848742
0.115703 -0.850617 -0.850617
0.112902 -0.802893 -0.802893
0.0343887 -0.824736 -0.824736
0.0751934 -0.849543 -0.849543
0.114308 -0.826595 -0.826595
0.0734772 -0.801835 -0.801835
0.07434 -0.825528 -0.825528
0.0347004 -0.848742 -0.848742
0.0353007 -0.897714 -0.897714
0.11846 -0.899624 -0.899624
0.115703 -0.850617 -0.850617
0.0350044 -0.873068 -0.873068
0.0768721 -0.898533 -0.898533
0.117087 -0.874961 -0.874961
0.0751934 -0.849543 -0.849543
0.0760375 -0.873878 -0.873878
0.0353007 -0.897714 -0.897714
0.0358695 -0.94796 -0.94796
0.121172 -0.949906 -0.949906
0.11846 -0.899624 -0.899624
0.0355891 -0.922679 -0.922679
0.0785128 -0.948798 -0.948798
0.119822 -0.924606 -0.924606
0.0768721 -0.898533 -0.898533
0.0776972 -0.923507 -0.923507
0.0358695 -0.94796 -0.94796
0.0364065 -0.999473 -0.999473
0.123839 -1.00145 -1.00145
0.121172 -0.949906 -0.949906
0.0361421 -0.973559 -0.973559
0.0801149 -1.00033 -1.00033
0.122511 -0.975522 -0.975522
0.0785128 -0.948798 -0.948798
0.0793187 -0.974406 -0.974406
0.0364065 -0.999473 -0.999473
0.0369112 -1.05224 -1.05224
0.126461 -1.05426 -1.05426
0.123839 -1.00145 -1.00145
0.0366629 -1.0257 -1.0257
0.081678 -1.05312 -1.05312
0.125156 -1.0277 -1.0277
0.0801149 -1.00033 -1.00033
0.0809013 -1.02657 -1.02657
0.0369112 -1.05224 -1.05224
0.037383 -1.10626 -1.10626
0.129036 -1.10832 -1.10832
0.126461 -1.05426 -1.05426
0.0371512 -1.0791 -1.0791
0.0832017 -1.10716 -1.10716
0.127754 -1.08113 -1.08113
0.081678 -1.05312 -1.05312
0.0824448 -1.07998 -1.07998
0.037383 -1.10626 -1.10626
0.0378216 -1.16153 -1.16153
0.131565 -1.16362 -1.16362
0.129036 -1.10832 -1.10832
0.0376065 -1.13374 -1.13374
0.0846854 -1.16244 -1.16244
0.130307 -1.13582 -1.13582
0.0832017 -1.10716 -1.10716
0.0839486 -1.13465 -1.13465
0.0378216 -1.16153 -1.16153
0.0382265 -1.21803 -1.21803
0.134047 -1.22016 -1.22016
0.131565 -1.16362 -1.16362
0.0380283 -1.18962 -1.18962
0.0861289 -1.21896 -1.21896
0.132812 -1.19174 -1.19174
0.0846854 -1.16244 -1.16244
0.0854122 -1.19055 -1.19055
0.0382265 -1.21803 -1.21803
0.0385973 -1.27575 -1.27575
0.136481 -1.27792 -1.27792
0.134047 -1.22016 -1.22016
0.0384162 -1.24673 -1.24673
0.0875315 -1.27671 -1.27671
0.13527 -1.24889 -1.24889
0.0861289 -1.21896 -1.21896
0.0868353 -1.24768 -1.24768
0.0385973 -1.27575 -1.27575
0.0389336 -1.33469 -1.33469
0.138868 -1.33691 -1.33691
0.136481 -1.27792 -1.27792
0.0387698 -1.30507 -1.30507
0.088893 -1.33567 -1.33567
0.137681 -1.30726 -1.30726
0.0875315 -1.27671 -1.27671
0.0882175 -1.30604 -1.30604
0.0389336 -1.33469 -1.33469
0.039235 -1.39485 -1.39485
0.141207 -1.3971 -1.3971
0.138868 -1.33691 -1.33691
0.0390887 -1.36462 -1.36462
0.090213 -1.39585 -1.39585
0.140043 -1.36685 -1.36685
0.088893 -1.33567 -1.33567
0.0895582 -1.36561 -1.36561
0.039235 -1.39485 -1.39485
0.0395011 -1.4562 -1.4562
0.143496 -1.4585 -1.4585
0.141207 -1.3971 -1.3971
0.0393725 -1.42538 -1.42538
0.091491 -1.45722 -1.45722
0.142358 -1.42765 -1.42765
0.090213 -1.39585 -1.39585
0.0908573 -1.42638 -1.42638
0.0395011 -1.4562 -1.4562
0.0397314 -1.51876 -1.51876
0.145737 -1.52109 -1.52109
0.143496 -1.4585 -1.4585
0.0396207 -1.48733 -1.48733
0.0927266 -1.5198 -1.5198
0.144623 -1.48965 -1.48965
0.091491 -1.45722 -1.45722
0.0921141 -1.48836 -1.48836
0.0397314 -1.51876 -1.51876
0.0399258 -1.58249 -1.58249
0.147929 -1.58488 -1.58488
0.145737 -1.52109 -1.52109
0.0398331 -1.55048 -1.55048
0.0939196 -1.58356 -1.58356
0.146839 -1.55284 -1.55284
0.0927266 -1.5198 -1.5198
0.0933285 -1.55153 -1.55153
0.0399258 -1.58249 -1.58249
0.0400837 -1.64741 -1.64741
0.15007 -1.64984 -1.64984
0.147929 -1.58488 -1.58488
0.0400093 -1.61481 -1.61481
0.0950695 -1.6485 -1.6485
0.149006 -1.61721 -1.61721
0.0939196 -1.58356 -1.58356
0.0945 -1.61588 -1.61588
0.0400837 -1.64741 -1.64741
0.0402049 -1.7135 -1.7135
0.152162 -1.71597 -1.71597
0.15007 -1.64984 -1.64984
0.0401489 -1.68031 -1.68031
0.096176 -1.71461 -1.71461
0.151123 -1.68276 -1.68276
0.0950695 -1.6485 -1.6485
0.0956282 -1.68141 -1.68141
0.0402049 -1.7135 -1.7135
0.0402891 -1.78076 -1.78076
0.154204 -1.78327 -1.78327
0.152162 -1.71597 -1.71597
0.0402516 -1.74698 -1.74698
0.0972388 -1.78189 -1.78189
0.153189 -1.74948 -1.74948
0.096176 -1.71461 -1.71461
0.0967129 -1.74811 -1.74811
0.0402891 -1.78076 -1.78076
0.0403358 -1.84916 -1.84916
0.156194 -1.85172 -1.85172
0.154204 -1.78327 -1.78327
0.0403171 -1.81482 -1.81482
0.0982576 -1.85032 -1.85032
0.155205 -1.81735 -1.81735
0.0972388 -1.78189 -1.78189
0.0977537 -1.81596 -1.81596
0.0403358 -1.84916 -1.84916
0.0403448 -1.91872 -1.91872
0.158134 -1.92133 -1.92133
0.156194 -1.85172 -1.85172
0.040345 -1.8838 -1.8838
0.0992319 -1.9199 -1.9199
0.157171 -1.88638 -1.88638
0.0982576 -1.85032 -1.85032
0.0987503 -1.88497 -1.88497
0.0403448 -1.91872 -1.91872
0.0403158 -1.98942 -1.98942
0.160022 -1.99207 -1.99207
0.158134 -1.92133 -1.92133
0.0403351 -1.95393 -1.95393
0.100162 -1.99062 -1.99062
0.159085 -1.95656 -1.95656
0.0992319 -1.9199 -1.9199
0.0997024 -1.95512 -1.95512
0.0403158 -1.98942 -1.98942
0.0402485 -2.06125 -2.06125
0.161859 -2.06394 -2.06394
0.160022 -1.99207 -1.99207
0.0402869 -2.02519 -2.02519
0.101046 -2.06248 -2.06248
0.160947 -2.02787 -2.02787
0.100162 -1.99062 -1.99062
0.10061 -2.02641 -2.02641
0.0402485 -2.06125 -2.06125
0.0401426 -2.1342 -2.1342
0.163644 -2.13694 -2.13694
0.161859 -2.06394 -2.06394
0.0402004 -2.09758 -2.09758
0.101886 -2.13545 -2.13545
0.162758 -2.1003 -2.1003
0.101046 -2.06248 -2.06248
0.101472 -2.09882 -2.09882
0.0401426 -2.1342 -2.1342
0.0399979 -2.20827 -2.20827
0.165377 -2.21106 -2.21106
0.163644 -2.13694 -2.13694
0.0400751 -2.17109 -2.17109
0.10268 -2.20955 -2.20955
0.164517 -2.17386 -2.17386
0.101886 -2.13545 -2.13545
0.102289 -2.17236 -2.17236
0.0399979 -2.20827 -2.20827
0.039814 -2.28344 -2.28344
0.167057 -2.28629 -2.28629
0.165377 -2.21106 -2.21106
0.0399109 -2.24572 -2.24572
0.103428 -2.28475 -2.28475
0.166224 -2.24854 -2.24854
0.10268 -2.20955 -2.20955
0.10306 -2.24701 -2.24701
0.039814 -2.28344 -2.28344
0.0395908 -2.35972 -2.35972
0.168685 -2.36261 -2.36261
0.167057 -2.28629 -2.28629
0.0397074 -2.32145 -2.32145
0.104131 -2.36105 -2.36105
0.167878 -2.32431 -2.32431
0.103428 -2.28475 -2.28475
0.103785 -2.32276 -2.32276
0.0395908 -2.35972 -2.35972
0.0393281 -2.43709 -2.43709
0.17026 -2.44003 -2.44003
0.168685 -2.36261 -2.36261
0.0394644 -2.39827 -2.39827
0.104787 -2.43844 -2.43844
0.169479 -2.40119 -2.40119
0.104131 -2.36105 -2.36105
0.104464 -2.39961 -2.39961
0.0393281 -2.43709 -2.43709
0.0390254 -2.51555 -2.51555
0.171781 -2.51853 -2.51853
0.17026 -2.44003 -2.44003
0.0391817 -2.47618 -2.47618
0.105396 -2.51692 -2.51692
0.171027 -2.47915 -2.47915
0.104787 -2.43844 -2.43844
0.105097 -2.47755 -2.47755
0.0390254 -2.51555 -2.51555
0.0386828 -2.59508 -2.59508
0.17325 -2.59811 -2.59811
0.171781 -2.51853 -2.51853
0.0388591 -2.55518 -2.55518
0.105959 -2.59648 -2.59648
0.172522 -2.55819 -2.55819
0.105396 -2.51692 -2.51692
0.105683 -2.55657 -2.55657
0.0386828 -2.59508 -2.59508
0.0382999 -2.67568 -2.67568
0.174665 -2.67876 -2.67876
0.17325 -2.59811 -2.59811
0.0384964 -2.63524 -2.63524
0.106475 -2.67711 -2.67711
0.173964 -2.63831 -2.63831
0.105959 -2.59648 -2.59648
0.106223 -2.63666 -2.63666
0.0382999 -2.67568 -2.67568
0.0378765 -2.75734 -2.75734
0.176026 -2.76048 -2.76048
0.174665 -2.67876 -2.67876
0.0380933 -2.71638 -2.71638
0.106944 -2.75879 -2.75879
0.175352 -2.71949 -2.71949
0.106475 -2.67711 -2.67711
0.106715 -2.71782 -2.71782
0.0378765 -2.75734 -2.75734
0.0374126 -2.84005 -2.84005
0.177333 -2.84324 -2.84324
0.176026 -2.76048 -2.76048
0.0376496 -2.79856 -2.79856
0.107365 -2.84153 -2.84153
0.176686 -2.80173 -2.80173
0.106944 -2.75879 -2.75879
0.107161 -2.80003 -2.80003
0.0374126 -2.84005 -2.84005
0.0369078 -2.92381 -2.92381
0.178586 -2.92705 -2.92705
0.177333 -2.84324 -2.84324
0.0371653 -2.8818 -2.8818
0.10774 -2.92532 -2.92532
0.177966 -2.88502 -2.88502
0.107365 -2.84153 -2.84153
0.107558 -2.8833 -2.8833
0.0369078 -2.92381 -2.92381
0.036362 -3.00861 -3.00861
0.179785 -3.0119 -3.0119
0.178586 -2.92705 -2.92705
0.03664 -2.96608 -2.96608
0.108066 -3.01014 -3.01014
0.179192 -2.96935 -2.96935
0.10774 -2.92532 -2.92532
0.107909 -2.9676 -2.9676
0.036362 -3.00861 -3.00861
0.0357751 -3.09443 -3.09443
0.180929 -3.09778 -3.09778
0.179785 -3.0119 -3.0119
0.0360737 -3.05139 -3.05139
0.108345 -3.09599 -3.09599
0.180364 -3.05471 -3.05471
0.108066 -3.01014 -3.01014
0.108211 -3.05294 -3.05294
0.0357751 -3.09443 -3.09443
0.0351469 -3.18128 -3.18128
0.182019 -3.18467 -3.18467
0.180929 -3.09778 -3.09778
0.0354662 -3.13773 -3.13773
0.108576 -3.18287 -3.18287
0.181481 -3.1411 -3.1411
0.108345 -3.09599 -3.09599
0.108466 -3.1393 -3.1393
0.0351469 -3.18128 -3.18128
0.0344773 -3.26914 -3.26914
0.183054 -3.27259 -3.27259
0.182019 -3.18467 -3.18467
0.0348173 -3.22508 -3.22508
0.108758 -3.27076 -3.27076
0.182543 -3.22851 -3.22851
0.108576 -3.18287 -3.18287
0.108673 -3.22669 -3.22669
0.0344773 -3.26914 -3.26914
0.0337661 -3.35801 -3.35801
0.184034 -3.36151 -3.36151
0.183054 -3.27259 -3.27259
0.0341269 -3.31345 -3.31345
0.108893 -3.35965 -3.35965
0.183551 -3.31692 -3.31692
0.108758 -3.27076 -3.27076
0.108832 -3.31508 -3.31508
0.0337661 -3.35801 -3.35801
0.0330132 -3.44787 -3.44787
0.184959 -3.45142 -3.45142
0.184034 -3.36151 -3.36151
0.0333949 -3.40282 -3.40282
0.108979 -3.44954 -3.44954
0.184503 -3.40634 -3.40634
0.108893 -3.35965 -3.35965
0.108942 -3.40447 -3.40447
0.0330132 -3.44787 -3.44787
0.0322186 -3.53873 -3.53873
0.185829 -3.54233 -3.54233
0.184959 -3.45142 -3.45142
0.0326211 -3.49318 -3.49318
0.109017 -3.54042 -3.54042
0.185401 -3.49675 -3.49675
0.108979 -3.44954 -3.44954
0.109004 -3.49486 -3.49486
0.0322186 -3.53873 -3.53873
0.0313821 -3.63056 -3.63056
0.186644 -3.63422 -3.63422
0.185829 -3.54233 -3.54233
0.0318056 -3.58452 -3.58452
0.109006 -3.63229 -3.63229
0.186244 -3.58815 -3.58815
0.109017 -3.54042 -3.54042
0.109018 -3.58623 -3.58623
0.0313821 -3.63056 -3.63056
0.0305035 -3.72337 -3.72337
0.187404 -3.72708 -3.72708
0.186644 -3.63422 -3.63422
0.030948 -3.67685 -3.67685
0.108947 -3.72513 -3.72513
0.187031 -3.68053 -3.68053
0.109006 -3.63229 -3.63229
0.108982 -3.67859 -3.67859
0.0305035 -3.72337 -3.72337
0.0295829 -3.81715 -3.81715
0.188108 -3.82091 -3.82091
0.187404 -3.72708 -3.72708
0.0300485 -3.77014 -3.77014
0.108838 -3.81893 -3.81893
0.187763 -3.77388 -3.77388
0.108947 -3.72513 -3.72513
0.108899 -3.77191 -3.77191
0.0295829 -3.81715 -3.81715
0.0286202 -3.91189 -3.91189
0.188757 -3.9157 -3.9157
0.188108 -3.82091 -3.82091
0.0291068 -3.8644 -3.8644
0.108682 -3.91369 -3.91369
0.188439 -3.86819 -3.86819
0.108838 -3.81893 -3.81893
0.108766 -3.86619 -3.86619
0.0286202 -3.91189 -3.91189
0.0276152 -4.00757 -4.00757
0.18935 -4.01144 -4.01144
0.188757 -3.9157 -3.9157
0.028123 -3.95961 -3.95961
0.108476 -4.00941 -4.00941
0.189061 -3.96345 -3.96345
0.108682 -3.91369 -3.91369
0.108585 -3.96143 -3.96143
0.0276152 -4.00757 -4.00757
0.026568 -4.1042 -4.1042
0.189888 -4.10812 -4.10812
0.18935 -4.01144 -4.01144
0.0270969 -4.05577 -4.05577
0.108221 -4.10606 -4.10606
0.189626 -4.05967 -4.05967
0.108476 -4.00941 -4.00941
0.108355 -4.05762 -4.05762
0.026568 -4.1042 -4.1042
0.0254785 -4.20177 -4.20177
0.19037 -4.20574 -4.20574
0.189888 -4.10812 -4.10812
0.0260285 -4.15287 -4.15287
0.107917 -4.20365 -4.20365
0.190136 -4.15682 -4.15682
0.108221 -4.10606 -4.10606
0.108075 -4.15474 -4.15474
0.0254785 -4.20177 -4.20177
0.0243466 -4.30026 -4.30026
0.190797 -4.30429 -4.30429
0.19037 -4.20574 -4.20574
0.0249178 -4.2509 -4.2509
0.107565 -4.30217 -4.30217
0.190591 -4.2549 -4.2549
0.107917 -4.20365 -4.20365
0.107747 -4.2528 -4.2528
0.0243466 -4.30026 -4.30026
0.0231723 -4.39967 -4.39967
0.191168 -4.40375 -4.40375
0.190797 -4.30429 -4.30429
0.0237647 -4.34985 -4.34985
0.107163 -4.40161 -4.40161
0.190989 -4.3539 -4.3539
0.107565 -4.30217 -4.30217
0.10737 -4.35178 -4.35178
0.0231723 -4.39967 -4.39967
0.0219556 -4.49999 -4.49999
0.191483 -4.50412 -4.50412
0.191168 -4.40375 -4.40375
0.0225692 -4.44971 -4.44971
0.106712 -4.50196 -4.50196
0.191332 -4.45382 -4.45382
0.107163 -4.40161 -4.40161
0.106944 -4.45167 -4.45167
0.0219556 -4.49999 -4.49999
0.0206965 -4.60121 -4.60121
0.191742 -4.6054 -4.6054
0.191483 -4.50412 -4.50412
0.0213313 -4.55049 -4.55049
0.106212 -4.60321 -4.60321
0.19162 -4.55465 -4.55465
0.106712 -4.50196 -4.50196
0.106469 -4.55247 -4.55247
0.0206965 -4.60121 -4.60121
0.0193949 -4.70333 -4.70333
0.191946 -4.70757 -4.70757
0.191742 -4.6054 -4.6054
0.020051 -4.65216 -4.65216
0.105664 -4.70536 -4.70536
0.191851 -4.65638 -4.65638
0.106212 -4.60321 -4.60321
0.105944 -4.65417 -4.65417
0.0193949 -4.70333 -4.70333
0.0180509 -4.80634 -4.80634
0.192094 -4.81064 -4.81064
0.191946 -4.70757 -4.70757
0.0187282 -4.75472 -4.75472
0.105066 -4.80839 -4.80839
0.192027 -4.75899 -4.75899
0.105664 -4.70536 -4.70536
0.105371 -4.75676 -4.75676
0.0180509 -4.80634 -4.80634
0.0166645 -4.91022 -4.91022
0.192187 -4.91458 -4.91458
0.192094 -4.81064 -4.81064
0.017363 -4.85817 -4.85817
0.104419 -4.91231 -4.91231
0.192147 -4.8625 -4.8625
0.105066 -4.80839 -4.80839
0.104748 -4.86024 -4.86024
0.0166645 -4.91022 -4.91022
0.0152357 -5.01498 -5.01498
0.192223 -5.01939 -5.01939
0.192187 -4.91458 -4.91458
0.0159554 -4.9625 -4.9625
0.103722 -5.01709 -5.01709
0.192212 -4.96687 -4.96687
0.104419 -4.91231 -4.91231
0.104077 -4.96459 -4.96459
0.0152357 -5.01498 -5.01498
0.0137645 -5.12061 -5.12061
0.192204 -5.12506 -5.12506
0.192223 -5.01939 -5.01939
0.0145054 -5.06769 -5.06769
0.102977 -5.12274 -5.12274
0.192221 -5.07212 -5.07212
0.103722 -5.01709 -5.01709
0.103356 -5.06981 -5.06981
0.0137645 -5.12061 -5.12061
0.012251 -5.22708 -5.22708
0.19213 -5.23159 -5.23159
0.192204 -5.12506 -5.12506
0.0130131 -5.17374 -5.17374
0.102183 -5.22925 -5.22925
0.192174 -5.17822 -5.17822
0.102977 -5.12274 -5.12274
0.102586 -5.17589 -5.17589
0.012251 -5.22708 -5.22708
0.0106952 -5.33441 -5.33441
0.191999 -5.33897 -5.33897
0.19213 -5.23159 -5.23159
0.0114784 -5.28064 -5.28064
0.10134 -5.3366 -5.3366
0.192072 -5.28518 -5.28518
0.102183 -5.22925 -5.22925
0.101768 -5.28282 -5.28282
0.0106952 -5.33441 -5.33441
0.00909715 -5.44258 -5.44258
0.191814 -5.44719 -5.44719
0.191999 -5.33897 -5.33897
0.00990145 -5.38839 -5.38839
0.100448 -5.4448 -5.4448
0.191914 -5.39298 -5.39298
0.10134 -5.3366 -5.3366
0.1009 -5.3906 -5.3906
0.00909715 -5.44258 -5.44258
0.00745691 -5.55158 -5.55158
0.191573 -5.55625 -5.55625
0.191814 -5.44719 -5.44719
0.0082823 -5.49697 -5.49697
0.0995077 -5.55382 -5.55382
0.1917 -5.50162 -5.50162
0.100448 -5.4448 -5.4448
0.0999842 -5.49921 -5.49921
0.00745691 -5.55158 -5.55158
0.00577455 -5.6614 -5.6614
0.191276 -5.66612 -5.66612
0.191573 -5.55625 -5.55625
0.00662099 -5.60639 -5.60639
0.0985182 -5.66367 -5.66367
0.191431 -5.61108 -5.61108
0.0995077 -5.55382 -5.55382
0.099019 -5.60865 -5.60865
0.00577455 -5.6614 -5.6614
0.00405014 -5.77204 -5.77204
0.190924 -5.77682 -5.77682
0.191276 -5.66612 -5.66612
0.0049176 -5.71662 -5.71662
0.09748 -5.77434 -5.77434
0.191107 -5.72137 -5.72137
0.0985182 -5.66367 -5.66367
0.0980052 -5.71891 -5.71891
0.00405014 -5.77204 -5.77204
0.00228378 -5.88349 -5.88349
0.190517 -5.88832 -5.88832
0.190924 -5.77682 -5.77682
0.0031722 -5.82766 -5.82766
0.0963933 -5.88582 -5.88582
0.190727 -5.83247 -5.83247
0.09748 -5.77434 -5.77434
0.0969427 -5.82998 -5.82998
0.00228378 -5.88349 -5.88349
0.000475534 -5.99574 -5.99574
0.190055 -6.00062 -6.00062
0.190517 -5.88832 -5.88832
0.00138488 -5.93951 -5.93951
0.095258 -5.9981 -5.9981
0.190293 -5.94437 -5.94437
0.0963933 -5.88582 -5.88582
0.0958317 -5.94186 -5.94186
0.000475534 -5.99574 -5.99574
-0.00137449 -6.10878 -6.10878
0.189537 -6.11372 -6.11372
0.190055 -6.00062 -6.00062
-0.00044426 -6.05216 -6.05216
0.0940743 -6.11116 -6.11116
0.189803 -6.05707 -6.05707
0.095258 -5.9981 -5.9981
0.0946722 -6.05453 -6.05453
-0.00137449 -6.10878 -6.10878
-0.00326618 -6.22261 -6.22261
0.188965 -6.2276 -6.2276
0.189537 -6.11372 -6.11372
-0.00231513 -6.1656 -6.1656
0.0928423 -6.22502 -6.22502
0.189258 -6.17056 -6.17056
0.0940743 -6.11116 -6.11116
0.0934643 -6.16799 -6.16799
-0.00326618 -6.22261 -6.22261
-0.00519944 -6.33722 -6.33722
0.188338 -6.34225 -6.34225
0.188965 -6.2276 -6.2276
-0.00422762 -6.27982 -6.27982
0.091562 -6.33965 -6.33965
0.188658 -6.28483 -6.28483
0.0928423 -6.22502 -6.22502
0.0922082 -6.28224 -6.28224
-0.00519944 -6.33722 -6.33722
-0.00717414 -6.45259 -6.45259
0.187656 -6.45768 -6.45768
0.188338 -6.34225 -6.34225
-0.00618161 -6.39481 -6.39481
0.0902337 -6.45505 -6.45505
0.188004 -6.39987 -6.39987
0.091562 -6.33965 -6.33965
0.0909039 -6.39726 -6.39726
-0.00717414 -6.45259 -6.45259
-0.00919015 -6.56873 -6.56873
0.186919 -6.57387 -6.57387
0.187656 -6.45768 -6.45768
-0.00817699 -6.51056 -6.51056
0.0888575 -6.57122 -6.57122
0.187294 -6.51568 -6.51568
0.0902337 -6.45505 -6.45505
0.0895516 -6.51304 -6.51304
-0.00919015 -6.56873 -6.56873
-0.0112474 -6.68562 -6.68562
0.186128 -6.69081 -6.69081
0.186919 -6.57387 -6.57387
-0.0102136 -6.62708 -6.62708
0.0874334 -6.68813 -6.68813
0.186531 -6.63225 -6.63225
0.0888575 -6.57122 -6.57122
0.0881514 -6.62958 -6.62958
-0.0112474 -6.68562 -6.68562
-0.0133456 -6.80325 -6.80325
0.185283 -6.8085 -6.8085
0.186128 -6.69081 -6.69081
-0.0122914 -6.74434 -6.74434
0.0859616 -6.80579 -6.80579
0.185713 -6.74956 -6.74956
0.0874334 -6.68813 -6.68813
0.0867035 -6.74687 -6.74687
-0.0133456 -6.80325 -6.80325
-0.0154848 -6.92163 -6.92163
0.184384 -6.92692 -6.92692
0.185283 -6.8085 -6.8085
-0.0144101 -6.86235 -6.86235
0.0844423 -6.92419 -6.92419
0.18484 -6.86762 -6.86762
0.0859616 -6.80579 -6.80579
0.0852079 -6.8649 -6.8649
-0.0154848 -6.92163 -6.92163
-0.0176647 -7.04073 -7.04073
0.18343 -7.04608 -7.04608
0.184384 -6.92692 -6.92692
-0.0165696 -6.98109 -6.98109
0.0828756 -7.04332 -7.04332
0.183914 -6.98641 -6.98641
0.0844423 -6.92419 -6.92419
0.0836649 -6.98367 -6.98367
-0.0176647 -7.04073 -7.04073
-0.0198851 -7.16055 -7.16055
0.182423 -7.16595 -7.16595
0.18343 -7.04608 -7.04608
-0.0187698 -7.10055 -7.10055
0.0812617 -7.16318 -7.16318
0.182933 -7.10592 -7.10592
0.0828756 -7.04332 -7.04332
0.0820745 -7.10316 -7.10316
-0.0198851 -7.16055 -7.16055
-0.022146 -7.28109 -7.28109
0.181362 -7.28654 -7.28654
0.182423 -7.16595 -7.16595
-0.0210105 -7.22074 -7.22074
0.0796007 -7.28374 -7.28374
0.181899 -7.22616 -7.22616
0.0812617 -7.16318 -7.16318
0.0804371 -7.22337 -7.22337
-0.022146 -7.28109 -7.28109
-0.0244472 -7.40234 -7.40234
0.180247 -7.40784 -7.40784
0.181362 -7.28654 -7.28654
-0.0232916 -7.34163 -7.34163
0.0778929 -7.40501 -7.40501
0.180811 -7.3471 -7.3471
0.0796007 -7.28374 -7.28374
0.0787526 -7.34429 -7.34429
-0.0244472 -7.40234 -7.40234
-0.0267884 -7.52429 -7.52429
0.17908 -7.52983 -7.52983
0.180247 -7.40784 -7.40784
-0.0256128 -7.46323 -7.46323
0.0761383 -7.52698 -7.52698
0.17967 -7.46875 -7.46875
0.0778929 -7.40501 -7.40501
0.0770214 -7.46591 -7.46591
-0.0267884 -7.52429 -7.52429
-0.0291695 -7.64692 -7.64692
0.177859 -7.65252 -7.65252
0.17908 -7.52983 -7.52983
-0.0279739 -7.58552 -7.58552
0.0743373 -7.64965 -7.64965
0.178476 -7.59109 -7.59109
0.0761383 -7.52698 -7.52698
0.0752436 -7.58823 -7.58823
-0.0291695 -7.64692 -7.64692
-0.0315902 -7.77024 -7.77024
0.176585 -7.77588 -7.77588
0.177859 -7.65252 -7.65252
-0.0303749 -7.7085 -7.7085
0.0724899 -7.77299 -7.77299
0.177228 -7.71412 -7.71412
0.0743373 -7.64965 -7.64965
0.0734193 -7.71123 -7.71123
-0.0315902 -7.77024 -7.77024
-0.0340505 -7.89423 -7.89423
0.175258 -7.89993 -7.89993
0.176585 -7.77588 -7.77588
-0.0328154 -7.83215 -7.83215
0.0705964 -7.89701 -7.89701
0.175928 -7.83782 -7.83782
0.0724899 -7.77299 -7.77299
0.0715489 -7.83491 -7.83491
-0.0340505 -7.89423 -7.89423
-0.03655 -8.01889 -8.01889
0.173879 -8.02463 -8.02463
0.175258 -7.89993 -7.89993
-0.0352954 -7.95648 -7.95648
0.0686569 -8.02169 -8.02169
0.174575 -7.9622 -7.9622
0.0705964 -7.89701 -7.89701
0.0696324 -7.95927 -7.95927
-0.03655 -8.01889 -8.01889
-0.0390886 -8.14421 -8.14421
0.172447 -8.15 -8.15
0.173879 -8.02463 -8.02463
-0.0378145 -8.08147 -8.08147
0.0666718 -8.14704 -8.14704
0.173169 -8.08724 -8.08724
0.0686569 -8.02169 -8.02169
0.0676701 -8.08428 -8.08428
-0.0390886 -8.14421 -8.14421
-0.0416661 -8.27019 -8.27019
0.170963 -8.27602 -8.27602
0.172447 -8.15 -8.15
-0.0403725 -8.20712 -8.20712
0.0646412 -8.27303 -8.27303
0.171712 -8.21293 -8.21293
0.0666718 -8.14704 -8.14704
0.0656622 -8.20995 -8.20995
-0.0416661 -8.27019 -8.27019
-0.0442822 -8.3968 -8.3968
0.169428 -8.40268 -8.40268
0.170963 -8.27602 -8.27602
-0.0429693 -8.33341 -8.33341
0.0625653 -8.39967 -8.39967
0.170202 -8.33927 -8.33927
0.0646412 -8.27303 -8.27303
0.0636089 -8.33627 -8.33627
-0.0442822 -8.3968 -8.3968
-0.0469366 -8.52405 -8.52405
0.16784 -8.52998 -8.52998
0.169428 -8.40268 -8.40268
-0.0456046 -8.46035 -8.46035
0.0604444 -8.52695 -8.52695
0.16864 -8.46625 -8.46625
0.0625653 -8.39967 -8.39967
0.0615105 -8.46323 -8.46323
-0.0469366 -8.52405 -8.52405
-0.0496293 -8.65193 -8.65193
0.166202 -8.6579 -8.6579
0.16784 -8.52998 -8.52998
-0.0482782 -8.58791 -8.58791
0.0582787 -8.65485 -8.65485
0.167027 -8.59386 -8.59386
0.0604444 -8.52695 -8.52695
0.0593671 -8.59082 -8.59082
-0.0496293 -8.65193 -8.65193
-0.0523598 -8.78043 -8.78043
0.164512 -8.78645 -8.78645
0.166202 -8.6579 -8.6579
-0.0509898 -8.7161 -8.7161
0.0560685 -8.78337 -8.78337
0.165363 -8.7221 -8.7221
0.0582787 -8.65485 -8.65485
0.0571791 -8.71903 -8.71903
-0.0523598 -8.78043 -8.78043
-0.055128 -8.90954 -8.90954
0.162771 -8.9156 -8.9156
0.164512 -8.78645 -8.78645
-0.0537392 -8.8449 -8.8449
0.0538139 -8.9125 -8.9125
0.163648 -8.85095 -8.85095
0.0560685 -8.78337 -8.78337
0.0549467 -8.84786 -8.84786
-0.055128 -8.90954 -8.90954
-0.0579337 -9.03925 -9.03925
0.160979 -9.04536 -9.04536
0.162771 -8.9156 -8.9156
-0.0565262 -8.97432 -8.97432
0.0515153 -9.04224 -9.04224
0.161881 -8.98041 -8.98041
0.0538139 -8.9125 -8.9125
0.0526701 -8.9773 -8.9773
-0.0579337 -9.03925 -9.03925
-0.0607765 -9.16956 -9.16956
0.159137 -9.17572 -9.17572
0.160979 -9.04536 -9.04536
-0.0593504 -9.10433 -9.10433
0.0491729 -9.17257 -9.17257
0.160065 -9.11046 -9.11046
0.0515153 -9.04224 -9.04224
0.0503496 -9.10733 -9.10733
-0.0607765 -9.16956 -9.16956
-0.0636561 -9.30046 -9.30046
0.157245 -9.30666 -9.30666
0.159137 -9.17572 -9.17572
-0.0622117 -9.23494 -9.23494
0.046787 -9.3035 -9.3035
0.158198 -9.24111 -9.24111
0.0491729 -9.17257 -9.17257
0.0479854 -9.23796 -9.23796
-0.0636561 -9.30046 -9.30046
-0.0665724 -9.43194 -9.43194
0.155303 -9.43818 -9.43818
0.157245 -9.30666 -9.30666
-0.0651097 -9.36613 -9.36613
0.0443578 -9.435 -9.435
0.156281 -9.37235 -9.37235
0.046787 -9.3035 -9.3035
0.0455778 -9.36917 -9.36917
-0.0665724 -9.43194 -9.43194
-0.0695251 -9.56399 -9.56399
0.153312 -9.57028 -9.57028
0.155303 -9.43818 -9.43818
-0.0680442 -9.49789 -9.49789
0.0418857 -9.56707 -9.56707
0.154314 -9.50416 -9.50416
0.0443578 -9.435 -9.435
0.0431271 -9.50096 -9.50096
-0.0695251 -9.56399 -9.56399
-0.0725138 -9.69661 -9.69661
0.151271 -9.70294 -9.70294
0.153312 -9.57028 -9.57028
-0.071015 -9.63023 -9.63023
0.0393708 -9.69971 -9.69971
0.152297 -9.63654 -9.63654
0.0418857 -9.56707 -9.56707
0.0406336 -9.63332 -9.63332
-0.0725138 -9.69661 -9.69661
-0.0755383 -9.82978 -9.82978
0.149181 -9.83615 -9.83615
0.151271 -9.70294 -9.70294
-0.0740216 -9.76312 -9.76312
0.0368135 -9.83291 -9.83291
0.150232 -9.76947 -9.76947
0.0393708 -9.69971 -9.69971
0.0380975 -9.76624 -9.76624
-0.0755383 -9.82978 -9.82978
-0.0785983 -9.9635 -9.9635
0.147042 -9.96992 -9.96992
0.149181 -9.83615 -9.83615
-0.0770639 -9.89657 -9.89657
0.0342142 -9.96665 -9.96665
0.148118 -9.90297 -9.90297
0.0368135 -9.83291 -9.83291
0.0355191 -9.89971 -9.89971
-0.0785983 -9.9635 -9.9635
-0.0816935 -10.0978 -10.0978
0.144855 -10.1042 -10.1042
0.147042 -9.96992 -9.96992
-0.0801415 -10.0306 -10.0306
0.0315729 -10.1009 -10.1009
0.145955 -10.037 -10.037
0.0342142 -9.96665 -9.96665
0.0328988 -10.0337 -10.0337
-0.0816935 -10.0978 -10.0978
-0.0848236 -10.2326 -10.2326
0.14262 -10.2391 -10.2391
0.144855 -10.1042 -10.1042
-0.0832542 -10.1651 -10.1651
0.0288902 -10.2358 -10.2358
0.143743 -10.1716 -10.1716
0.0315729 -10.1009 -10.1009
0.0302367 -10.1683 -10.1683
-0.0848236 -10.2326 -10.2326
-0.0879883 -10.3679 -10.3679
0.140337 -10.3744 -10.3744
0.14262 -10.2391 -10.2391
-0.0864016 -10.3002 -10.3002
0.0261662 -10.3711 -10.3711
0.141484 -10.3067 -10.3067
0.0288902 -10.2358 -10.2358
0.0275333 -10.3034 -10.3034
-0.0879883 -10.3679 -10.3679
-0.0911872 -10.5037 -10.5037
0.138006 -10.5103 -10.5103
0.140337 -10.3744 -10.3744
-0.0895835 -10.4357 -10.4357
0.0234014 -10.507 -10.507
0.139177 -10.4423 -10.4423
0.0261662 -10.3711 -10.3711
0.0247889 -10.439 -10.439
-0.0911872 -10.5037 -10.5037
-0.0944201 -10.6401 -10.6401
0.135628 -10.6467 -10.6467
0.138006 -10.5103 -10.5103
-0.0927995 -10.5718 -10.5718
0.0205959 -10.6433 -10.6433
0.136823 -10.5784 -10.5784
0.0234014 -10.507 -10.507
0.0220037 -10.5751 -10.5751
-0.0944201 -10.6401 -10.6401
-0.0976867 -10.7769 -10.7769
0.133203 -10.7836 -10.7836
0.135628 -10.6467 -10.6467
-0.0960492 -10.7084 -10.7084
0.0177502 -10.7802 -10.7802
0.134421 -10.7151 -10.7151
0.0205959 -10.6433 -10.6433
0.0191781 -10.7117 -10.7117
-0.0976867 -10.7769 -10.7769
-0.100987 -10.9143 -10.9143
0.130732 -10.921 -10.921
0.133203 -10.7836 -10.7836
-0.0993325 -10.8455 -10.8455
0.0148645 -10.9176 -10.9176
0.131973 -10.8522 -10.8522
0.0177502 -10.7802 -10.7802
0.0163123 -10.8488 -10.8488
-0.100987 -10.9143 -10.9143
-0.104319 -11.0521 -11.0521
0.128214 -11.0588 -11.0588
0.130732 -10.921 -10.921
-0.102649 -10.9831 -10.9831
0.0119392 -11.0554 -11.0554
0.129479 -10.9898 -10.9898
0.0148645 -10.9176 -10.9176
0.0134068 -10.9864 -10.9864
-0.104319 -11.0521 -11.0521
-0.107685 -11.1904 -11.1904
0.12565 -11.1972 -11.1972
0.128214 -11.0588 -11.0588
-0.105998 -11.1212 -11.1212
0.00897466 -11.1938 -11.1938
0.126938 -11.128 -11.128
0.0119392 -11.0554 -11.0554
0.0104618 -11.1245 -11.1245
-0.107685 -11.1904 -11.1904
-0.111083 -11.3292 -11.3292
0.123041 -11.336 -11.336
0.12565 -11.1972 -11.1972
-0.10938 -11.2598 -11.2598
0.00597115 -11.3326 -11.3326
0.124352 -11.2665 -11.2665
0.00897466 -11.1938 -11.1938
0.00747775 -11.2631 -11.2631
-0.111083 -11.3292 -11.3292
-0.114512 -11.4684 -11.4684
0.120387 -11.4753 -11.4753
0.123041 -11.336 -11.336
-0.112794 -11.3988 -11.3988
0.00292904 -11.4718 -11.4718
0.12172 -11.4056 -11.4056
0.00597115 -11.3326 -11.3326
0.0044549 -11.4021 -11.4021
-0.114512 -11.4684 -11.4684
-0.117974 -11.6081 -11.6081
0.117688 -11.615 -11.615
0.120387 -11.4753 -11.4753
-0.116239 -11.5382 -11.5382
-0.000151313 -11.6115 -11.6115
0.119043 -11.5451 -11.5451
0.00292904 -11.4718 -11.4718
0.00139362 -11.5416 -11.5416
-0.117974 -11.6081 -11.6081
-0.121467 -11.7483 -11.7483
0.114944 -11.7552 -11.7552
0.117688 -11.615 -11.615
-0.119716 -11.6782 -11.6782
-0.00326957 -11.7517 -11.7517
0.116321 -11.6851 -11.6851
-0.000151313 -11.6115 -11.6115
-0.00170573 -11.6816 -11.6816
-0.121467 -11.7483 -11.7483
-0.12499 -11.8889 -11.8889
0.112156 -11.8958 -11.8958
0.114944 -11.7552 -11.7552
-0.123225 -11.8185 -11.8185
-0.00642537 -11.8923 -11.8923
0.113555 -11.8255 -11.8255
-0.00326957 -11.7517 -11.7517
-0.0048428 -11.8219 -11.8219
-0.12499 -11.8889 -11.8889
-0.128544 -12.0299 -12.0299
0.109324 -12.0369 -12.0369
0.112156 -11.8958 -11.8958
-0.126763 -11.9593 -11.9593
-0.00961835 -12.0333 -12.0333
0.110746 -11.9663 -11.9663
-0.00642537 -11.8923 -11.8923
-0.00801723 -11.9628 -11.9628
-0.128544 -12.0299 -12.0299
-0.132129 -12.1713 -12.1713
0.106449 -12.1783 -12.1783
0.109324 -12.0369 -12.0369
-0.130333 -12.1006 -12.1006
-0.0128481 -12.1748 -12.1748
0.107892 -12.1076 -12.1076
-0.00961835 -12.0333 -12.0333
-0.0112287 -12.104 -12.104
-0.132129 -12.1713 -12.1713
-0.135743 -12.3132 -12.3132
0.103531 -12.3202 -12.3202
0.106449 -12.1783 -12.1783
-0.133932 -12.2422 -12.2422
-0.0161144 -12.3167 -12.3167
0.104995 -12.2492 -12.2492
-0.0128481 -12.1748 -12.1748
-0.0144767 -12.2457 -12.2457
-0.135743 -12.3132 -12.3132
-0.139386 -12.4555 -12.4555
0.10057 -12.4625 -12.4625
0.103531 -12.3202 -12.3202
-0.137561 -12.3843 -12.3843
-0.0194167 -12.4589 -12.4589
0.102056 -12.3913 -12.3913
-0.0161144 -12.3167 -12.3167
-0.0177611 -12.3878 -12.3878
-0.139386 -12.4555 -12.4555
-0.143059 -12.5981 -12.5981
0.0975665 -12.6052 -12.6052
0.10057 -12.4625 -12.4625
-0.141219 -12.5267 -12.5267
-0.0227548 -12.6016 -12.6016
0.0990734 -12.5338 -12.5338
-0.0194167 -12.4589 -12.4589
-0.0210813 -12.5302 -12.5302
-0.143059 -12.5981 -12.5981
-0.14676 -12.7412 -12.7412
0.0945213 -12.7483 -12.7483
0.0975665 -12.6052 -12.6052
-0.144906 -12.6696 -12.6696
-0.0261281 -12.7447 -12.7447
0.0960491 -12.6767 -12.6767
-0.0227548 -12.6016 -12.6016
-0.024437 -12.6731 -12.6731
-0.14676 -12.7412 -12.7412
-0.15049 -12.8846 -12.8846
0.0914345 -12.8918 -12.8918
0.0945213 -12.7483 -12.7483
-0.148622 -12.8128 -12.8128
-0.0295364 -12.8882 -12.8882
0.092983 -12.82 -12.82
-0.0261281 -12.7447 -12.7447
-0.0278279 -12.8164 -12.8164
-0.15049 -12.8846 -12.8846
-0.154248 -13.0284 -13.0284
0.0883065 -13.0356 -13.0356
0.0914345 -12.8918 -12.8918
-0.152365 -12.9565 -12.9565
-0.0329793 -13.032 -13.032
0.0898756 -12.9636 -12.9636
-0.0295364 -12.8882 -12.8882
-0.0312535 -12.96 -12.96
-0.154248 -13.0284 -13.0284
-0.158033 -13.1726 -13.1726
0.0851377 -13.1798 -13.1798
0.0883065 -13.0356 -13.0356
-0.156137 -13.1005 -13.1005
-0.0364563 -13.1762 -13.1762
0.0867271 -13.1077 -13.1077
-0.0329793 -13.032 -13.032
-0.0347135 -13.104 -13.104
-0.158033 -13.1726 -13.1726
-0.161845 -13.3172 -13.3172
0.0819285 -13.3244 -13.3244
0.0851377 -13.1798 -13.1798
-0.159936 -13.2448 -13.2448
-0.0399671 -13.3207 -13.3207
0.0835381 -13.2521 -13.2521
-0.0364563 -13.1762 -13.1762
-0.0382075 -13.2484 -13.2484
-0.161845 -13.3172 -13.3172
-0.165684 -13.4621 -13.4621
0.0786793 -13.4693 -13.4693
0.0819285 -13.3244 -13.3244
-0.163761 -13.3896 -13.3896
-0.0435112 -13.4657 -13.4657
0.0803089 -13.3968 -13.3968
-0.0399671 -13.3207 -13.3207
-0.041735 -13.3932 -13.3932
-0.165684 -13.4621 -13.4621
-0.16955 -13.6073 -13.6073
0.0753905 -13.6146 -13.6146
0.0786793 -13.4693 -13.4693
-0.167614 -13.5346 -13.5346
-0.0470884 -13.6109 -13.6109
0.0770398 -13.5419 -13.5419
-0.0435112 -13.4657 -13.4657
-0.0452957 -13.5382 -13.5382
-0.16955 -13.6073 -13.6073
-0.173441 -13.7529 -13.7529
0.0720625 -13.7602 -13.7602
0.0753905 -13.6146 -13.6146
-0.171492 -13.68 -13.68
-0.0506981 -13.7565 -13.7565
0.0737314 -13.6874 -13.6874
-0.0470884 -13.6109 -13.6109
-0.0488892 -13.6837 -13.6837
-0.173441 -13.7529 -13.7529
-0.177358 -13.8988 -13.8988
0.0686958 -13.9061 -13.9061
0.0720625 -13.7602 -13.7602
-0.175396 -13.8258 -13.8258
-0.0543399 -13.9024 -13.9024
0.070384 -13.8331 -13.8331
-0.0506981 -13.7565 -13.7565
-0.052515 -13.8294 -13.8294
-0.177358 -13.8988 -13.8988
-0.1813 -14.045 -14.045
0.0652906 -14.0524 -14.0524
0.0686958 -13.9061 -13.9061
-0.179326 -13.9719 -13.9719
-0.0580136 -14.0487 -14.0487
0.066998 -13.9792 -13.9792
-0.0543399 -13.9024 -13.9024
-0.0561728 -13.9755 -13.9755
-0.1813 -14.045 -14.045
-0.185267 -14.1916 -14.1916
0.0618475 -14.199 -14.199
0.0652906 -14.0524 -14.0524
-0.18328 -14.1182 -14.1182
-0.0617185 -14.1952 -14.1952
0.0635738 -14.1256 -14.1256
-0.0580136 -14.0487 -14.0487
-0.0598622 -14.1219 -14.1219
-0.185267 -14.1916 -14.1916
-0.189258 -14.3384 -14.3384
0.0583669 -14.3458 -14.3458
0.0618475 -14.199 -14.199
-0.187259 -14.2649 -14.2649
-0.0654544 -14.3421 -14.3421
0.0601119 -14.2723 -14.2723
-0.0617185 -14.1952 -14.1952
-0.0635826 -14.2686 -14.2686
-0.189258 -14.3384 -14.3384
-0.193273 -14.4855 -14.4855
0.0548491 -14.493 -14.493
0.0583669 -14.3458 -14.3458
-0.191262 -14.4119 -14.4119
-0.0692208 -14.4892 -14.4892
0.0566126 -14.4194 -14.4194
-0.0654544 -14.3421 -14.3421
-0.0673338 -14.4156 -14.4156
-0.193273 -14.4855 -14.4855
-0.197311 -14.633 -14.633
0.0512945 -14.6404 -14.6404
0.0548491 -14.493 -14.493
-0.195289 -14.5592 -14.5592
-0.0730173 -14.6367 -14.6367
0.0530764 -14.5667 -14.5667
-0.0692208 -14.4892 -14.4892
-0.0711153 -14.5629 -14.5629
-0.197311 -14.633 -14.633
-0.201372 -14.7807 -14.7807
0.0477037 -14.7882 -14.7882
0.0512945 -14.6404 -14.6404
-0.199339 -14.7068 -14.7068
-0.0768435 -14.7844 -14.7844
0.0495036 -14.7143 -14.7143
-0.0730173 -14.6367 -14.6367
-0.0749267 -14.7105 -14.7105
-0.201372 -14.7807 -14.7807
-0.205456 -14.9287 -14.9287
0.0440771 -14.9362 -14.9362
0.0477037 -14.7882 -14.7882
-0.203412 -14.8547 -14.8547
-0.0806989 -14.9324 -14.9324
0.0458949 -14.8622 -14.8622
-0.0768435 -14.7844 -14.7844
-0.0787676 -14.8584 -14.8584
-0.205456 -14.9287 -14.9287
-0.209563 -15.077 -15.077
0.040415 -15.0845 -15.0845
0.0440771 -14.9362 -14.9362
-0.207507 -15.0028 -15.0028
-0.0845831 -15.0807 -15.0807
0.0422504 -15.0103 -15.0103
-0.0806989 -14.9324 -14.9324
-0.0826374 -15.0065 -15.0065
-0.209563 -15.077 -15.077
-0.213691 -15.2255 -15.2255
0.0367179 -15.233 -15.233
0.040415 -15.0845 -15.0845
-0.211624 -15.1512 -15.1512
-0.0884957 -15.2292 -15.2292
0.0385708 -15.1587 -15.1587
-0.0845831 -15.0807 -15.0807
-0.0865359 -15.1549 -15.1549
-0.213691 -15.2255 -15.2255
-0.21784 -15.3742 -15.3742
0.0329862 -15.3818 -15.3818
0.0367179 -15.233 -15.233
-0.215763 -15.2998 -15.2998
-0.0924362 -15.378 -15.378
0.0348563 -15.3074 -15.3074
-0.0884957 -15.2292 -15.2292
-0.0904625 -15.3036 -15.3036
-0.21784 -15.3742 -15.3742
-0.22201 -15.5233 -15.5233
0.0292204 -15.5308 -15.5308
0.0329862 -15.3818 -15.3818
-0.219923 -15.4487 -15.4487
-0.0964043 -15.527 -15.527
0.0311075 -15.4563 -15.4563
-0.0924362 -15.378 -15.378
-0.0944168 -15.4525 -15.4525
-0.22201 -15.5233 -15.5233
-0.226201 -15.6725 -15.6725
0.0254209 -15.6801 -15.6801
0.0292204 -15.5308 -15.5308
-0.224103 -15.5978 -15.5978
-0.100399 -15.6763 -15.6763
0.0273248 -15.6054 -15.6054
-0.0964043 -15.527 -15.527
-0.0983985 -15.6016 -15.6016
-0.226201 -15.6725 -15.6725
-0.230411 -15.822 -15.822
0.0215881 -15.8296 -15.8296
0.0254209 -15.6801 -15.6801
-0.228304 -15.7472 -15.7472
-0.104421 -15.8257 -15.8257
0.0235086 -15.7548 -15.7548
-0.100399 -15.6763 -15.6763
-0.102407 -15.751 -15.751
-0.230411 -15.822 -15.822
-0.234642 -15.9717 -15.9717
0.0177226 -15.9793 -15.9793
0.0215881 -15.8296 -15.8296
-0.232524 -15.8968 -15.8968
-0.108469 -15.9754 -15.9754
0.0196594 -15.9044 -15.9044
-0.104421 -15.8257 -15.8257
-0.106442 -15.9006 -15.9006
-0.234642 -15.9717 -15.9717
-0.238891 -16.1216 -16.1216
0.0138246 -16.1292 -16.1292
0.0177226 -15.9793 -15.9793
-0.236764 -16.0466 -16.0466
-0.112543 -16.1254 -16.1254
0.0157776 -16.0542 -16.0542
-0.108469 -15.9754 -15.9754
-0.110503 -16.0504 -16.0504
-0.238891 -16.1216 -16.1216
-0.243159 -16.2717 -16.2717
0.00989477 -16.2793 -16.2793
0.0138246 -16.1292 -16.1292
-0.241023 -16.1966 -16.1966
-0.116642 -16.2755 -16.2755
0.0118637 -16.2042 -16.2042
-0.112543 -16.1254 -16.1254
-0.114589 -16.2004 -16.2004
-0.243159 -16.2717 -16.2717
-0.247445 -16.422 -16.422
0.00593344 -16.4296 -16.4296
0.00989477 -16.2793 -16.2793
-0.2453 -16.3468 -16.3468
-0.120766 -16.4258 -16.4258
0.00791801 -16.3545 -16.3545
-0.116642 -16.2755 -16.2755
-0.118701 -16.3506 -16.3506
-0.247445 -16.422 -16.422
-0.251749 -16.5725 -16.5725
0.00194109 -16.5801 -16.5801
0.00593344 -16.4296 -16.4296
-0.249595 -16.4972 -16.4972
-0.124914 -16.5763 -16.5763
0.00394112 -16.5049 -16.5049
-0.120766 -16.4258 -16.4258
-0.122837 -16.501 -16.501
-0.251749 -16.5725 -16.5725
-0.256071 -16.7231 -16.7231
-0.00208183 -16.7308 -16.7308
0.00194109 -16.5801 -16.5801
-0.253908 -16.6478 -16.6478
-0.129086 -16.727 -16.727
-6.65736e-05 -16.6555 -16.6555
-0.124914 -16.5763 -16.5763
-0.126997 -16.6516 -16.6516
-0.256071 -16.7231 -16.7231
-0.260409 -16.874 -16.874
-0.00613486 -16.8817 -16.8817
-0.00208183 -16.7308 -16.7308
-0.258238 -16.7985 -16.7985
-0.133282 -16.8778 -16.8778
-0.00410461 -16.8062 -16.8062
-0.129086 -16.727 -16.727
-0.131181 -16.8024 -16.8024
-0.260409 -16.874 -16.874
-0.264763 -17.025 -17.025
-0.0102176 -17.0327 -17.0327
-0.00613486 -16.8817 -16.8817
-0.262584 -16.9495 -16.9495
-0.1375 -17.0288 -17.0288
-0.00817253 -16.9572 -16.9572
-0.133282 -16.8778 -16.8778
-0.135388 -16.9533 -16.9533
-0.264763 -17.025 -17.025
-0.269134 -17.1762 -17.1762
-0.0143295 -17.1839 -17.1839
-0.0102176 -17.0327 -17.0327
-0.266947 -17.1005 -17.1005
-0.141742 -17.18 -17.18
-0.0122699 -17.1083 -17.1083
-0.1375 -17.0288 -17.0288
-0.139618 -17.1044 -17.1044
-0.269134 -17.1762 -17.1762
-0.27352 -17.3275 -17.3275
-0.0184701 -17.3352 -17.3352
-0.0143295 -17.1839 -17.1839
-0.271325 -17.2518 -17.2518
-0.146005 -17.3313 -17.3313
-0.0163962 -17.2595 -17.2595
-0.141742 -17.18 -17.18
-0.143871 -17.2556 -17.2556
-0.27352 -17.3275 -17.3275
-0.277921 -17.4789 -17.4789
-0.022639 -17.4866 -17.4866
-0.0184701 -17.3352 -17.3352
-0.275719 -17.4032 -17.4032
-0.15029 -17.4828 -17.4828
-0.0205511 -17.4109 -17.4109
-0.146005 -17.3313 -17.3313
-0.148145 -17.407 -17.407
-0.277921 -17.4789 -17.4789
-0.282337 -17.6305 -17.6305
-0.0268358 -17.6382 -17.6382
-0.022639 -17.4866 -17.4866
-0.280127 -17.5547 -17.5547
-0.154596 -17.6344 -17.6344
-0.024734 -17.5624 -17.5624
-0.15029 -17.4828 -17.4828
-0.152441 -17.5585 -17.5585
-0.282337 -17.6305 -17.6305
-0.286767 -17.7822 -17.7822
-0.0310599 -17.79 -17.79
-0.0268358 -17.6382 -17.6382
-0.28455 -17.7063 -17.7063
-0.158923 -17.7861 -17.7861
-0.0289445 -17.7141 -17.7141
-0.154596 -17.6344 -17.6344
-0.156757 -17.7102 -17.7102
-0.286767 -17.7822 -17.7822
-0.29121 -17.934 -17.934
-0.035311 -17.9418 -17.9418
-0.0310599 -17.79 -17.79
-0.288987 -17.8581 -17.8581
-0.163271 -17.9379 -17.9379
-0.0331821 -17.8659 -17.8659
-0.158923 -17.7861 -17.7861
-0.161095 -17.862 -17.862
-0.29121 -17.934 -17.934
-0.295667 -18.086 -18.086
-0.0395885 -18.0937 -18.0937
-0.035311 -17.9418 -17.9418
-0.293437 -18.01 -18.01
-0.167638 -18.0898 -18.0898
-0.0374464 -18.0177 -18.0177
-0.163271 -17.9379 -17.9379
-0.165452 -18.0139 -18.0139
-0.295667 -18.086 -18.086
-0.300136 -18.238 -18.238
-0.043892 -18.2458 -18.2458
-0.0395885 -18.0937 -18.0937
-0.2979 -18.162 -18.162
-0.172025 -18.2419 -18.2419
-0.041737 -18.1697 -18.1697
-0.167638 -18.0898 -18.0898
-0.169829 -18.1659 -18.1659
-0.300136 -18.238 -18.238
-0.304618 -18.3902 -18.3902
-0.0482211 -18.3979 -18.3979
-0.043892 -18.2458 -18.2458
-0.302376 -18.3141 -18.3141
-0.17643 -18.394 -18.394
-0.0460534 -18.3218 -18.3218
-0.172025 -18.2419 -18.2419
-0.174225 -18.3179 -18.3179
-0.304618 -18.3902 -18.3902
-0.309112 -18.5424 -18.5424
-0.0525756 -18.5501 -18.5501
-0.0482211 -18.3979 -18.3979
-0.306864 -18.4663 -18.4663
-0.180855 -18.5462 -18.5462
-0.0503952 -18.474 -18.474
-0.17643 -18.394 -18.394
-0.17864 -18.4701 -18.4701
-0.309112 -18.5424 -18.5424
-0.313618 -18.6947 -18.6947
-0.0569553 -18.7024 -18.7024
-0.0525756 -18.5501 -18.5501
-0.311364 -18.6185 -18.6185
-0.185297 -18.6985 -18.6985
-0.0547623 -18.6263 -18.6263
-0.180855 -18.5462 -18.5462
-0.183074 -18.6224 -18.6224
-0.313618 -18.6947 -18.6947
-0.318135 -18.847 -18.847
-0.0613601 -18.8548 -18.8548
-0.0569553 -18.7024 -18.7024
-0.315875 -18.7708 -18.7708
-0.189759 -18.8509 -18.8509
-0.0591545 -18.7786 -18.7786
-0.185297 -18.6985 -18.6985
-0.187526 -18.7747 -18.7747
-0.318135 -18.847 -18.847
-0.322665 -18.9995 -18.9995
-0.0657905 -19.0072 -19.0072
-0.0613601 -18.8548 -18.8548
-0.320399 -18.9232 -18.9232
-0.194239 -19.0033 -19.0033
-0.063572 -18.931 -18.931
-0.189759 -18.8509 -18.8509
-0.191997 -18.9271 -18.9271
-0.322665 -18.9995 -18.9995
-0.327205 -19.152 -19.152
-0.0702474 -19.1597 -19.1597
-0.0657905 -19.0072 -19.0072
-0.324933 -19.0757 -19.0757
-0.19874 -19.1558 -19.1558
-0.0680156 -19.0835 -19.0835
-0.194239 -19.0033 -19.0033
-0.196487 -19.0796 -19.0796
-0.327205 -19.152 -19.152
-0.331758 -19.3045 -19.3045
-0.0747321 -19.3122 -19.3122
-0.0702474 -19.1597 -19.1597
-0.32948 -19.2282 -19.2282
-0.20326 -19.3084 -19.3084
-0.0724861 -19.236 -19.236
-0.19874 -19.1558 -19.1558
-0.200997 -19.2321 -19.2321
-0.331758 -19.3045 -19.3045
-0.336323 -19.4571 -19.4571
-0.0792464 -19.4648 -19.4648
-0.0747321 -19.3122 -19.3122
-0.334039 -19.3808 -19.3808
-0.207802 -19.4609 -19.4609
-0.0769855 -19.3885 -19.3885
-0.20326 -19.3084 -19.3084
-0.205528 -19.3846 -19.3846
-0.336323 -19.4571 -19.4571
-0.340898 -19.6097 -19.6097
-0.0837895 -19.6174 -19.6174
-0.0792464 -19.4648 -19.4648
-0.338609 -19.5334 -19.5334
-0.212362 -19.6135 -19.6135
-0.0815144 -19.5411 -19.5411
-0.207802 -19.4609 -19.4609
-0.21008 -19.5372 -19.5372
-0.340898 -19.6097 -19.6097
-0.345477 -19.7623 -19.7623
-0.0883567 -19.7701 -19.7701
-0.0837895 -19.6174 -19.6174
-0.343187 -19.686 -19.686
-0.216935 -19.7662 -19.7662
-0.0860712 -19.6937 -19.6937
-0.212362 -19.6135 -19.6135
-0.214648 -19.6899 -19.6899
-0.345477 -19.7623 -19.7623
-0.350055 -19.9149 -19.9149
-0.0929266 -19.9227 -19.9227
-0.0883567 -19.7701 -19.7701
-0.347767 -19.8386 -19.8386
-0.221506 -19.9188 -19.9188
-0.0906427 -19.8464 -19.8464
-0.216935 -19.7662 -19.7662
-0.219221 -19.8425 -19.8425
-0.350055 -19.9149 -19.9149
-0.354621 -20.0674 -20.0674
-0.0974782 -20.0753 -20.0753
-0.0929266 -19.9227 -19.9227
-0.35234 -19.9911 -19.9911
-0.226066 -20.0713 -20.0713
-0.0952059 -19.999 -19.999
-0.221506 -19.9188 -19.9188
-0.223788 -19.995 -19.995
0 0 0
0.00344589 -0.000365548 -0.000365548
0.00593801 -0.00169826 -0.00169826
0 0 0
0.00167035 0.000100483 0.000100483
0.0046462 -0.000871285 -0.000871285
0.00288208 -0.000610485 -0.000610485
0 0 0
0.00228783 -0.000188602 -0.000188602
0.00344589 -0.000365548 -0.000365548
0.00715553 -0.00270953 -0.00270953
0.0123652 -0.00489674 -0.00489674
0.00593801 -0.00169826 -0.00169826
0.00527764 -0.0013135 -0.0013135
0.00967253 -0.00361613 -0.00361613
0.0091211 -0.00314312 -0.00314312
0.0046462 -0.000871285 -0.000871285
0.00711929 -0.00203456 -0.00203456
0.00715553 -0.00270953 -0.00270953
0.0110188 -0.00675927 -0.00675927
0.0188494 -0.00928922 -0.00928922
0.0123652 -0.00489674 -0.00489674
0.00907556 -0.00453223 -0.00453223
0.0148573 -0.00784875 -0.00784875
0.0156114 -0.00693881 -0.00693881
0.00967253 -0.00361613 -0.00361613
0.0122585 -0.00555557 -0.00555557
0.0110188 -0.00675927 -0.00675927
0.0149116 -0.0123642 -0.0123642
0.0252984 -0.0150058 -0.0150058
0.0188494 -0.00928922 -0.00928922
0.0129659 -0.00937157 -0.00937157
0.0200493 -0.013522 -0.013522
0.02208 -0.0119743 -0.0119743
0.0148573 -0.00784875 -0.00784875
0.0174568 -0.0105038 -0.0105038
0.0149116 -0.0123642 -0.0123642
0.0187877 -0.0194829 -0.0194829
0.0316883 -0.0221405 -0.0221405
0.0252984 -0.0150058 -0.0150058
0.0168535 -0.0157355 -0.0157355
0.0251972 -0.0206527 -0.0206527
0.0285004 -0.0183918 -0.0183918
0.0200493 -0.013522 -0.013522
0.0226297 -0.0169036 -0.0169036
0.0187877 -0.0194829 -0.0194829
0.0226231 -0.0280995 -0.0280995
0.0380306 -0.0307483 -0.0307483
0.0316883 -0.0221405 -0.0221405
0.0207108 -0.0236043 -0.0236043
0.0302954 -0.0292668 -0.0292668
0.034865 -0.0262587 -0.0262587
0.0251972 -0.0206527 -0.0206527
0.0277524 -0.0247735 -0.0247735
0.0226231 -0.0280995 -0.0280995
0.0264181 -0.0382114 -0.0382114
0.0443268 -0.0408451 -0.0408451
0.0380306 -0.0307483 -0.0307483
0.0245255 -0.0329688 -0.0329688
0.0353463 -0.0393713 -0.0393713
0.0411842 -0.0356102 -0.0356102
0.0302954 -0.0292668 -0.0292668
0.0328265 -0.0341326 -0.0341326
0.0264181 -0.0382114 -0.0382114
0.0301742 -0.0498137 -0.0498137
0.050581 -0.0524354 -0.0524354
0.0443268 -0.0408451 -0.0408451
0.0283008 -0.0438266 -0.0438266
0.0403542 -0.0509678 -0.0509678
0.0474591 -0.0464537 -0.0464537
0.0353463 -0.0393713 -0.0393713
0.0378554 -0.0449833 -0.0449833
0.0301742 -0.0498137 -0.0498137
0.0338953 -0.0629013 -0.0629013
0.0567933 -0.065515 -0.065515
0.050581 -0.0524354 -0.0524354
0.032039 -0.0561722 -0.0561722
0.0453224 -0.0640516 -0.0640516
0.0536924 -0.0587894 -0.0587894
0.0403542 -0.0509678 -0.0509678
0.0428432 -0.0573241 -0.0573241
0.0338953 -0.0629013 -0.0629013
0.0375835 -0.0774677 -0.0774677
0.062964 -0.0800774 -0.0800774
0.0567933 -0.065515 -0.065515
0.0357434 -0.0700001 -0.0700001
0.0502525 -0.0786164 -0.0786164
0.0598838 -0.0726113 -0.0726113
0.0453224 -0.0640516 -0.0640516
0.0477921 -0.0711493 -0.0711493
0.0375835 -0.0774677 -0.0774677
0.0412401 -0.093506 -0.093506
0.0690926 -0.0961147 -0.0961147
0.062964 -0.0800774 -0.0800774
0.0394157 -0.0853033 -0.0853033
0.0551455 -0.0946548 -0.0946548
0.0660336 -0.0879122 -0.0879122
0.0502525 -0.0786164 -0.0786164
0.0527037 -0.0864519 -0.0864519
0.0412401 -0.093506 -0.093506
0.0448658 -0.111009 -0.111009
0.0751785 -0.113619 -0.113619
0.0690926 -0.0961147 -0.0961147
0.0430568 -0.102075 -0.102075
0.0600015 -0.112159 -0.112159
0.0721409 -0.104684 -0.104684
0.0551455 -0.0946548 -0.0946548
0.0575782 -0.103224 -0.103224
0.0448658 -0.111009 -0.111009
0.0484605 -0.129968 -0.129968
0.0812209 -0.132582 -0.132582
0.0751785 -0.113619 -0.113619
0.046667 -0.120307 -0.120307
0.0648202 -0.131121 -0.131121
0.0782052 -0.122919 -0.122919
0.0600015 -0.112159 -0.112159
0.0624155 -0.121458 -0.121458
0.0484605 -0.129968 -0.129968
0.0520237 -0.150376 -0.150376
0.0872191 -0.152995 -0.152995
0.0812209 -0.132582 -0.132582
0.050246 -0.139991 -0.139991
0.069601 -0.151532 -0.151532
0.0842256 -0.142608 -0.142608
0.0648202 -0.131121 -0.131121
0.0672153 -0.141146 -0.141146
0.0520237 -0.150376 -0.150376
0.0555551 -0.172225 -0.172225
0.0931723 -0.174851 -0.174851
0.0872191 -0.152995 -0.152995
0.0537934 -0.161121 -0.161121
0.0743433 -0.173385 -0.173385
0.0902013 -0.163743 -0.163743
0.069601 -0.151532 -0.151532
0.071977 -0.162279 -0.162279
0.0555551 -0.172225 -0.172225
0.0590538 -0.195507 -0.195507
0.0990797 -0.198141 -0.198141
0.0931723 -0.174851 -0.174851
0.0573085 -0.183687 -0.183687
0.0790465 -0.196672 -0.196672
0.0961317 -0.186317 -0.186317
0.0743433 -0.173385 -0.173385
0.0766998 -0.18485 -0.18485
0.0590538 -0.195507 -0.195507
0.0625193 -0.220214 -0.220214
0.104941 -0.222858 -0.222858
0.0990797 -0.198141 -0.198141
0.0607908 -0.207683 -0.207683
0.0837098 -0.221385 -0.221385
0.102016 -0.210322 -0.210322
0.0790465 -0.196672 -0.196672
0.0813832 -0.208851 -0.208851
0.0625193 -0.220214 -0.220214
0.0659509 -0.246339 -0.246339
0.110754 -0.248993 -0.248993
0.104941 -0.222858 -0.222858
0.0642394 -0.2331 -0.2331
0.0883325 -0.247516 -0.247516
0.107853 -0.235749 -0.235749
0.0837098 -0.221385 -0.221385
0.0860262 -0.234274 -0.234274
0.0659509 -0.246339 -0.246339
0.0693478 -0.273873 -0.273873
0.11652 -0.276539 -0.276539
0.110754 -0.248993 -0.248993
0.0676537 -0.25993 -0.25993
0.0929139 -0.275056 -0.275056
0.113643 -0.26259 -0.26259
0.0883325 -0.247516 -0.247516
0.0906284 -0.26111 -0.26111
0.0693478 -0.273873 -0.273873
0.0727093 -0.302808 -0.302808
0.122237 -0.305487 -0.305487
0.11652 -0.276539 -0.276539
0.071033 -0.288166 -0.288166
0.0974533 -0.303999 -0.303999
0.119385 -0.290838 -0.290838
0.0929139 -0.275056 -0.275056
0.0951889 -0.289353 -0.289353
0.0727093 -0.302808 -0.302808
0.0760348 -0.333137 -0.333137
0.127905 -0.33583 -0.33583
0.122237 -0.305487 -0.305487
0.0743766 -0.317798 -0.317798
0.10195 -0.334336 -0.334336
0.125078 -0.320485 -0.320485
0.0974533 -0.303999 -0.303999
0.0997071 -0.318994 -0.318994
0.0760348 -0.333137 -0.333137
0.0793237 -0.364851 -0.364851
0.133523 -0.36756 -0.36756
0.127905 -0.33583 -0.33583
0.0776839 -0.348821 -0.348821
0.106404 -0.366058 -0.366058
0.13072 -0.351522 -0.351522
0.10195 -0.334336 -0.334336
0.104182 -0.350024 -0.350024
0.0793237 -0.364851 -0.364851
0.0825752 -0.397943 -0.397943
0.13909 -0.400668 -0.400668
0.133523 -0.36756 -0.36756
0.0809541 -0.381225 -0.381225
0.110813 -0.399159 -0.399159
0.136313 -0.383942 -0.383942
0.106404 -0.366058 -0.366058
0.108614 -0.382437 -0.382437
0.0825752 -0.397943 -0.397943
0.0857887 -0.432405 -0.432405
0.144606 -0.435147 -0.435147
0.13909 -0.400668 -0.400668
0.0841867 -0.415003 -0.415003
0.115178 -0.433631 -0.433631
0.141855 -0.417737 -0.417737
0.110813 -0.399159 -0.399159
0.113001 -0.416224 -0.416224
0.0857887 -0.432405 -0.432405
0.0889636 -0.468228 -0.468228
0.150071 -0.470989 -0.470989
0.144606 -0.435147 -0.435147
0.087381 -0.450147 -0.450147
0.119497 -0.469464 -0.469464
0.147345 -0.452898 -0.452898
0.115178 -0.433631 -0.433631
0.117343 -0.451378 -0.451378
0.0889636 -0.468228 -0.468228
0.0920993 -0.505406 -0.505406
0.155482 -0.508186 -0.508186
0.150071 -0.470989 -0.470989
0.0905364 -0.486648 -0.486648
0.123771 -0.506652 -0.506652
0.152783 -0.489419 -0.489419
0.119497 -0.469464 -0.469464
0.12164 -0.48789 -0.48789
0.0920993 -0.505406 -0.505406
0.0951951 -0.543929 -0.543929
0.160841 -0.54673 -0.54673
0.155482 -0.508186 -0.508186
0.0936522 -0.5245 -0.5245
0.127998 -0.545187 -0.545187
0.158168 -0.52729 -0.52729
0.123771 -0.506652 -0.506652
0.125891 -0.525752 -0.525752
0.0951951 -0.543929 -0.543929
0.0982506 -0.583791 -0.583791
0.166145 -0.586613 -0.586613
0.160841 -0.54673 -0.54673
0.096728 -0.563693 -0.563693
0.132179 -0.58506 -0.58506
0.1635 -0.566505 -0.566505
0.127998 -0.545187 -0.545187
0.130094 -0.564957 -0.564957
0.0982506 -0.583791 -0.583791
0.101265 -0.624983 -0.624983
0.171396 -0.627828 -0.627828
0.166145 -0.586613 -0.586613
0.099763 -0.604221 -0.604221
0.136311 -0.626264 -0.626264
0.168778 -0.607055 -0.607055
0.132179 -0.58506 -0.58506
0.134251 -0.605496 -0.605496
0.101265 -0.624983 -0.624983
0.104238 -0.667497 -0.667497
0.176592 -0.670365 -0.670365
0.171396 -0.627828 -0.627828
0.102757 -0.646075 -0.646075
0.140395 -0.668791 -0.668791
0.174001 -0.648931 -0.648931
0.136311 -0.626264 -0.626264
0.138359 -0.647362 -0.647362
0.104238 -0.667497 -0.667497
0.107169 -0.711325 -0.711325
0.181732 -0.714218 -0.714218
0.176592 -0.670365 -0.670365
0.105709 -0.689247 -0.689247
0.144431 -0.712632 -0.712632
0.179169 -0.692128 -0.692128
0.140395 -0.668791 -0.668791
0.142419 -0.690547 -0.690547
0.107169 -0.711325 -0.711325
0.110057 -0.75646 -0.75646
0.186816 -0.759378 -0.759378
0.181732 -0.714218 -0.714218
0.108618 -0.73373 -0.73373
0.148417 -0.75778 -0.75778
0.184281 -0.736635 -0.736635
0.144431 -0.712632 -0.712632
0.14643 -0.735043 -0.735043
0.110057 -0.75646 -0.75646
0.112902 -0.802893 -0.802893
0.191844 -0.805837 -0.805837
0.186816 -0.759378 -0.759378
0.111485 -0.779515 -0.779515
0.152354 -0.804228 -0.804228
0.189337 -0.782446 -0.782446
0.148417 -0.75778 -0.75778
0.150392 -0.780842 -0.780842
0.112902 -0.802893 -0.802893
0.115703 -0.850617 -0.850617
0.196815 -0.853588 -0.853588
0.191844 -0.805837 -0.805837
0.114308 -0.826595 -0.826595
0.15624 -0.851966 -0.851966
0.194337 -0.829552 -0.829552
0.152354 -0.804228 -0.804228
0.154303 -0.827936 -0.827936
0.115703 -0.850617 -0.850617
0.11846 -0.899624 -0.899624
0.201728 -0.902623 -0.902623
0.196815 -0.853588 -0.853588
0.117087 -0.874961 -0.874961
0.160075 -0.900987 -0.900987
0.199279 -0.877946 -0.877946
0.15624 -0.851966 -0.851966
0.158164 -0.876317 -0.876317
0.11846 -0.899624 -0.899624
0.121172 -0.949906 -0.949906
0.206583 -0.952933 -0.952933
0.201728 -0.902623 -0.902623
0.119822 -0.924606 -0.924606
0.163859 -0.951284 -0.951284
0.204163 -0.927619 -0.927619
0.160075 -0.900987 -0.900987
0.161973 -0.925977 -0.925977
0.121172 -0.949906 -0.949906
0.123839 -1.00145 -1.00145
0.21138 -1.00451 -1.00451
0.206583 -0.952933 -0.952933
0.122511 -0.975522 -0.975522
0.167591 -1.00285 -1.00285
0.208989 -0.978564 -0.978564
0.163859 -0.951284 -0.951284
0.165731 -0.976908 -0.976908
0.123839 -1.00145 -1.00145
0.126461 -1.05426 -1.05426
0.216118 -1.05735 -1.05735
0.21138 -1.00451 -1.00451
0.125156 -1.0277 -1.0277
0.171271 -1.05567 -1.05567
0.213757 -1.03077 -1.03077
0.167591 -1.00285 -1.00285
0.169437 -1.0291 -1.0291
0.126461 -1.05426 -1.05426
0.129036 -1.10832 -1.10832
0.220797 -1.11144 -1.11144
0.216118 -1.05735 -1.05735
0.127754 -1.08113 -1.08113
0.174898 -1.10975 -1.10975
0.218465 -1.08424 -1.08424
0.171271 -1.05567 -1.05567
0.173091 -1.08255 -1.08255
0.129036 -1.10832 -1.10832
0.131565 -1.16362 -1.16362
0.225416 -1.16677 -1.16677
0.220797 -1.11144 -1.11144
0.130307 -1.13582 -1.13582
0.178472 -1.16506 -1.16506
0.223114 -1.13895 -1.13895
0.174898 -1.10975 -1.10975
0.176691 -1.13725 -1.13725
0.131565 -1.16362 -1.16362
0.134047 -1.22016 -1.22016
0.229974 -1.22334 -1.22334
0.225416 -1.16677 -1.16677
0.132812 -1.19174 -1.19174
0.181992 -1.22162 -1.22162
0.227702 -1.1949 -1.1949
0.178472 -1.16506 -1.16506
0.180238 -1.19319 -1.19319
0.134047 -1.22016 -1.22016
0.136481 -1.27792 -1.27792
0.234472 -1.28114 -1.28114
0.229974 -1.22334 -1.22334
0.13527 -1.24889 -1.24889
0.185458 -1.2794 -1.2794
0.232231 -1.25209 -1.25209
0.181992 -1.22162 -1.22162
0.183732 -1.25036 -1.25036
0.136481 -1.27792 -1.27792
0.138868 -1.33691 -1.33691
0.238909 -1.34016 -1.34016
0.234472 -1.28114 -1.28114
0.137681 -1.30726 -1.30726
0.18887 -1.3384 -1.3384
0.236698 -1.31049 -1.31049
0.185458 -1.2794 -1.2794
0.187171 -1.30875 -1.30875
0.138868 -1.33691 -1.33691
0.141207 -1.3971 -1.3971
0.243284 -1.40039 -1.40039
0.238909 -1.34016 -1.34016
0.140043 -1.36685 -1.36685
0.192226 -1.39861 -1.39861
0.241104 -1.37012 -1.37012
0.18887 -1.3384 -1.3384
0.190555 -1.36836 -1.36836
0.141207 -1.3971 -1.3971
0.143496 -1.4585 -1.4585
0.247597 -1.46182 -1.46182
0.243284 -1.40039 -1.40039
0.142358 -1.42765 -1.42765
0.195528 -1.46003 -1.46003
0.245448 -1.43095 -1.43095
0.192226 -1.39861 -1.39861
0.193884 -1.42917 -1.42917
0.143496 -1.4585 -1.4585
0.145737 -1.52109 -1.52109
0.251848 -1.52445 -1.52445
0.247597 -1.46182 -1.46182
0.144623 -1.48965 -1.48965
0.198774 -1.52264 -1.52264
0.24973 -1.49298 -1.49298
0.195528 -1.46003 -1.46003
0.197158 -1.49119 -1.49119
0.145737 -1.52109 -1.52109
0.147929 -1.58488 -1.58488
0.256036 -1.58827 -1.58827
0.251848 -1.52445 -1.52445
0.146839 -1.55284 -1.55284
0.201964 -1.58645 -1.58645
0.25395 -1.55621 -1.55621
0.198774 -1.52264 -1.52264
0.200376 -1.5544 -1.5544
0.147929 -1.58488 -1.58488
0.15007 -1.64984 -1.64984
0.260162 -1.65327 -1.65327
0.256036 -1.58827 -1.58827
0.149006 -1.61721 -1.61721
0.205098 -1.65143 -1.65143
0.258107 -1.62062 -1.62062
0.201964 -1.58645 -1.58645
0.203538 -1.61879 -1.61879
0.15007 -1.64984 -1.64984
0.152162 -1.71597 -1.71597
0.264224 -1.71944 -1.71944
0.260162 -1.65327 -1.65327
0.151123 -1.68276 -1.68276
0.208175 -1.71758 -1.71758
0.262201 -1.68621 -1.68621
0.205098 -1.65143 -1.65143
0.206643 -1.68436 -1.68436
0.152162 -1.71597 -1.71597
0.154204 -1.78327 -1.78327
0.268222 -1.78677 -1.78677
0.264224 -1.71944 -1.71944
0.153189 -1.74948 -1.74948
0.211194 -1.7849 -1.7849
0.266231 -1.75296 -1.75296
0.208175 -1.71758 -1.71758
0.209692 -1.75109 -1.75109
0.154204 -1.78327 -1.78327
0.156194 -1.85172 -1.85172
0.272157 -1.85527 -1.85527
0.268222 -1.78677 -1.78677
0.155205 -1.81735 -1.81735
0.214157 -1.85337 -1.85337
0.270197 -1.82088 -1.82088
0.211194 -1.7849 -1.7849
0.212683 -1.81899 -1.81899
0.156194 -1.85172 -1.85172
0.158134 -1.92133 -1.92133
0.276027 -1.92491 -1.92491
0.272157 -1.85527 -1.85527
0.157171 -1.88638 -1.88638
0.217062 -1.923 -1.923
0.2741 -1.88994 -1.88994
0.214157 -1.85337 -1.85337
0.215617 -1.88804 -1.88804
0.158134 -1.92133 -1.92133
0.160022 -1.99207 -1.99207
0.279832 -1.99569 -1.99569
0.276027 -1.92491 -1.92491
0.159085 -1.95656 -1.95656
0.219909 -1.99376 -1.99376
0.277937 -1.96016 -1.96016
0.217062 -1.923 -1.923
0.218493 -1.95824 -1.95824
0.160022 -1.99207 -1.99207
0.161859 -2.06394 -2.06394
0.283573 -2.06761 -2.06761
0.279832 -1.99569 -1.99569
0.160947 -2.02787 -2.02787
0.222698 -2.06566 -2.06566
0.281711 -2.03151 -2.03151
0.219909 -1.99376 -1.99376
0.221311 -2.02957 -2.02957
0.161859 -2.06394 -2.06394
0.163644 -2.13694 -2.13694
0.287248 -2.14065 -2.14065
0.283573 -2.06761 -2.06761
0.162758 -2.1003 -2.1003
0.225428 -2.13868 -2.13868
0.285419 -2.10399 -2.10399
0.222698 -2.06566 -2.06566
0.22407 -2.10203 -2.10203
0.163644 -2.13694 -2.13694
0.165377 -2.21106 -2.21106
0.290858 -2.2148 -2.2148
0.287248 -2.14065 -2.14065
0.164517 -2.17386 -2.17386
0.228099 -2.21281 -2.21281
0.289061 -2.17759 -2.17759
0.225428 -2.13868 -2.13868
0.226771 -2.17561 -2.17561
0.165377 -2.21106 -2.21106
0.167057 -2.28629 -2.28629
0.294403 -2.29007 -2.29007
0.290858 -2.2148 -2.2148
0.166224 -2.24854 -2.24854
0.230712 -2.28806 -2.28806
0.292639 -2.2523 -2.2523
0.228099 -2.21281 -2.21281
0.229413 -2.2503 -2.2503
0.167057 -2.28629 -2.28629
0.168685 -2.36261 -2.36261
0.297881 -2.36644 -2.36644
0.294403 -2.29007 -2.29007
0.167878 -2.32431 -2.32431
0.233265 -2.36441 -2.36441
0.29615 -2.32812 -2.32812
0.230712 -2.28806 -2.28806
0.231996 -2.3261 -2.3261
0.168685 -2.36261 -2.36261
0.17026 -2.44003 -2.44003
0.301293 -2.4439 -2.4439
0.297881 -2.36644 -2.36644
0.169479 -2.40119 -2.40119
0.235758 -2.44185 -2.44185
0.299595 -2.40503 -2.40503
0.233265 -2.36441 -2.36441
0.234519 -2.40299 -2.40299
0.17026 -2.44003 -2.44003
0.171781 -2.51853 -2.51853
0.304639 -2.52245 -2.52245
0.301293 -2.4439 -2.4439
0.171027 -2.47915 -2.47915
0.238192 -2.52037 -2.52037
0.302974 -2.48304 -2.48304
0.235758 -2.44185 -2.44185
0.236983 -2.48098 -2.48098
0.171781 -2.51853 -2.51853
0.17325 -2.59811 -2.59811
0.307918 -2.60207 -2.60207
0.304639 -2.52245 -2.52245
0.172522 -2.55819 -2.55819
0.240566 -2.59998 -2.59998
0.306287 -2.56212 -2.56212
0.238192 -2.52037 -2.52037
0.239386 -2.56004 -2.56004
0.17325 -2.59811 -2.59811
0.174665 -2.67876 -2.67876
0.31113 -2.68276 -2.68276
0.307918 -2.60207 -2.60207
0.173964 -2.63831 -2.63831
0.242879 -2.68065 -2.68065
0.309533 -2.64228 -2.64228
0.240566 -2.59998 -2.59998
0.24173 -2.64018 -2.64018
0.174665 -2.67876 -2.67876
0.176026 -2.76048 -2.76048
0.314276 -2.76452 -2.76452
0.31113 -2.68276 -2.68276
0.175352 -2.71949 -2.71949
0.245133 -2.76238 -2.76238
0.312711 -2.72351 -2.72351
0.242879 -2.68065 -2.68065
0.244014 -2.72138 -2.72138
0.176026 -2.76048 -2.76048
0.177333 -2.84324 -2.84324
0.317354 -2.84733 -2.84733
0.314276 -2.76452 -2.76452
0.176686 -2.80173 -2.80173
0.247325 -2.84517 -2.84517
0.315823 -2.80579 -2.80579
0.245133 -2.76238 -2.76238
0.246236 -2.80365 -2.80365
0.177333 -2.84324 -2.84324
0.178586 -2.92705 -2.92705
0.320365 -2.93118 -2.93118
0.317354 -2.84733 -2.84733
0.177966 -2.88502 -2.88502
0.249457 -2.929 -2.929
0.318868 -2.88912 -2.88912
0.247325 -2.84517 -2.84517
0.248399 -2.88696 -2.88696
0.178586 -2.92705 -2.92705
0.179785 -3.0119 -3.0119
0.323308 -3.01607 -3.01607
0.320365 -2.93118 -2.93118
0.179192 -2.96935 -2.96935
0.251528 -3.01388 -3.01388
0.321845 -2.9735 -2.9735
0.249457 -2.929 -2.929
0.2505 -2.97131 -2.97131
0.179785 -3.0119 -3.0119
0.180929 -3.09778 -3.09778
0.326183 -3.102 -3.102
0.323308 -3.01607 -3.01607
0.180364 -3.05471 -3.05471
0.253538 -3.09978 -3.09978
0.324754 -3.05891 -3.05891
0.251528 -3.01388 -3.01388
0.252541 -3.0567 -3.0567
0.180929 -3.09778 -3.09778
0.182019 -3.18467 -3.18467
0.328991 -3.18894 -3.18894
0.326183 -3.102 -3.102
0.181481 -3.1411 -3.1411
0.255487 -3.1867 -3.1867
0.327595 -3.14534 -3.14534
0.253538 -3.09978 -3.09978
0.25452 -3.14311 -3.14311
0.182019 -3.18467 -3.18467
0.183054 -3.27259 -3.27259
0.33173 -3.2769 -3.2769
0.328991 -3.18894 -3.18894
0.182543 -3.22851 -3.22851
0.257374 -3.27463 -3.27463
0.330369 -3.23279 -3.23279
0.255487 -3.1867 -3.1867
0.256438 -3.23054 -3.23054
0.183054 -3.27259 -3.27259
0.184034 -3.36151 -3.36151
0.334402 -3.36586 -3.36586
0.33173 -3.2769 -3.2769
0.183551 -3.31692 -3.31692
0.2592 -3.36358 -3.36358
0.333075 -3.32125 -3.32125
0.257374 -3.27463 -3.27463
0.258295 -3.31898 -3.31898
0.184034 -3.36151 -3.36151
0.184959 -3.45142 -3.45142
0.337005 -3.45582 -3.45582
0.334402 -3.36586 -3.36586
0.184503 -3.40634 -3.40634
0.260964 -3.45352 -3.45352
0.335712 -3.41072 -3.41072
0.2592 -3.36358 -3.36358
0.26009 -3.40842 -3.40842
0.184959 -3.45142 -3.45142
0.185829 -3.54233 -3.54233
0.33954 -3.54678 -3.54678
0.337005 -3.45582 -3.45582
0.185401 -3.49675 -3.49675
0.262667 -3.54445 -3.54445
0.338281 -3.50118 -3.50118
0.260964 -3.45352 -3.45352
0.261823 -3.49886 -3.49886
0.185829 -3.54233 -3.54233
0.186644 -3.63422 -3.63422
0.342006 -3.63871 -3.63871
0.33954 -3.54678 -3.54678
0.186244 -3.58815 -3.58815
0.264307 -3.63636 -3.63636
0.340781 -3.59262 -3.59262
0.262667 -3.54445 -3.54445
0.263495 -3.59028 -3.59028
0.186644 -3.63422 -3.63422
0.187404 -3.72708 -3.72708
0.344404 -3.73162 -3.73162
0.342006 -3.63871 -3.63871
0.187031 -3.68053 -3.68053
0.265886 -3.72925 -3.72925
0.343214 -3.68505 -3.68505
0.264307 -3.63636 -3.63636
0.265104 -3.68268 -3.68268
0.187404 -3.72708 -3.72708
0.188108 -3.82091 -3.82091
0.346733 -3.8255 -3.8255
0.344404 -3.73162 -3.73162
0.187763 -3.77388 -3.77388
0.267403 -3.8231 -3.8231
0.345577 -3.77844 -3.77844
0.265886 -3.72925 -3.72925
0.266652 -3.77606 -3.77606
0.188108 -3.82091 -3.82091
0.188757 -3.9157 -3.9157
0.348993 -3.92034 -3.92034
0.346733 -3.8255 -3.8255
0.188439 -3.86819 -3.86819
0.268857 -3.91792 -3.91792
0.347872 -3.8728 -3.8728
0.267403 -3.8231 -3.8231
0.268138 -3.87039 -3.87039
0.188757 -3.9157 -3.9157
0.18935 -4.01144 -4.01144
0.351185 -4.01612 -4.01612
0.348993 -3.92034 -3.92034
0.189061 -3.96345 -3.96345
0.27025 -4.01368 -4.01368
0.350098 -3.96811 -3.96811
0.268857 -3.91792 -3.91792
0.269561 -3.96568 -3.96568
0.18935 -4.01144 -4.01144
0.189888 -4.10812 -4.10812
0.353308 -4.11285 -4.11285
0.351185 -4.01612 -4.01612
0.189626 -4.05967 -4.05967
0.27158 -4.11039 -4.11039
0.352255 -4.06437 -4.06437
0.27025 -4.01368 -4.01368
0.270923 -4.06192 -4.06192
0.189888 -4.10812 -4.10812
0.19037 -4.20574 -4.20574
0.355362 -4.21051 -4.21051
0.353308 -4.11285 -4.11285
0.190136 -4.15682 -4.15682
0.272848 -4.20803 -4.20803
0.354344 -4.16157 -4.16157
0.27158 -4.11039 -4.11039
0.272222 -4.15909 -4.15909
0.19037 -4.20574 -4.20574
0.190797 -4.30429 -4.30429
0.357347 -4.3091 -4.3091
0.355362 -4.21051 -4.21051
0.190591 -4.2549 -4.2549
0.274054 -4.3066 -4.3066
0.356363 -4.25969 -4.25969
0.272848 -4.20803 -4.20803
0.273459 -4.2572 -4.2572
0.190797 -4.30429 -4.30429
0.191168 -4.40375 -4.40375
0.359263 -4.40861 -4.40861
0.357347 -4.3091 -4.3091
0.190989 -4.3539 -4.3539
0.275197 -4.40608 -4.40608
0.358314 -4.35875 -4.35875
0.274054 -4.3066 -4.3066
0.274634 -4.35623 -4.35623
0.191168 -4.40375 -4.40375
0.191483 -4.50412 -4.50412
0.36111 -4.50904 -4.50904
0.359263 -4.40861 -4.40861
0.191332 -4.45382 -4.45382
0.276279 -4.50648 -4.50648
0.360195 -4.45871 -4.45871
0.275197 -4.40608 -4.40608
0.275746 -4.45617 -4.45617
0.191483 -4.50412 -4.50412
0.191742 -4.6054 -4.6054
0.362888 -4.61036 -4.61036
0.36111 -4.50904 -4.50904
0.19162 -4.55465 -4.55465
0.277297 -4.60778 -4.60778
0.362008 -4.55959 -4.55959
0.276279 -4.50648 -4.50648
0.276796 -4.55702 -4.55702
0.191742 -4.6054 -4.6054
0.191946 -4.70757 -4.70757
0.364597 -4.71258 -4.71258
0.362888 -4.61036 -4.61036
0.191851 -4.65638 -4.65638
0.278254 -4.70998 -4.70998
0.363751 -4.66136 -4.66136
0.277297 -4.60778 -4.60778
0.277783 -4.65877 -4.65877
0.191946 -4.70757 -4.70757
0.192094 -4.81064 -4.81064
0.366237 -4.81569 -4.81569
0.364597 -4.71258 -4.71258
0.192027 -4.75899 -4.75899
0.279148 -4.81307 -4.81307
0.365426 -4.76402 -4.76402
0.278254 -4.70998 -4.70998
0.278709 -4.76141 -4.76141
0.192094 -4.81064 -4.81064
0.192187 -4.91458 -4.91458
0.367808 -4.91968 -4.91968
0.366237 -4.81569 -4.81569
0.192147 -4.8625 -4.8625
0.27998 -4.91703 -4.91703
0.367031 -4.86757 -4.86757
0.279148 -4.81307 -4.81307
0.279572 -4.86494 -4.86494
0.192187 -4.91458 -4.91458
0.192223 -5.01939 -5.01939
0.36931 -5.02453 -5.02453
0.367808 -4.91968 -4.91968
0.192212 -4.96687 -4.96687
0.280749 -5.02187 -5.02187
0.368568 -4.972 -4.972
0.27998 -4.91703 -4.91703
0.280372 -4.96934 -4.96934
0.192223 -5.01939 -5.01939
0.192204 -5.12506 -5.12506
0.370744 -5.13026 -5.13026
0.36931 -5.02453 -5.02453
0.192221 -5.07212 -5.07212
0.281456 -5.12757 -5.12757
0.370036 -5.07729 -5.07729
0.280749 -5.02187 -5.02187
0.28111 -5.07461 -5.07461
0.192204 -5.12506 -5.12506
0.19213 -5.23159 -5.23159
0.372108 -5.23684 -5.23684
0.370744 -5.13026 -5.13026
0.192174 -5.17822 -5.17822
0.282101 -5.23412 -5.23412
0.371434 -5.18344 -5.18344
0.281456 -5.12757 -5.12757
0.281786 -5.18074 -5.18074
0.19213 -5.23159 -5.23159
0.191999 -5.33897 -5.33897
0.373403 -5.34426 -5.34426
0.372108 -5.23684 -5.23684
0.192072 -5.28518 -5.28518
0.282684 -5.34153 -5.34153
0.372764 -5.29044 -5.29044
0.282101 -5.23412 -5.23412
0.2824 -5.28772 -5.28772
0.191999 -5.33897 -5.33897
0.191814 -5.44719 -5.44719
0.37463 -5.45253 -5.45253
0.373403 -5.34426 -5.34426
0.191914 -5.39298 -5.39298
0.283204 -5.44977 -5.44977
0.374025 -5.39829 -5.39829
0.282684 -5.34153 -5.34153
0.282952 -5.39555 -5.39555
0.191814 -5.44719 -5.44719
0.191573 -5.55625 -5.55625
0.375788 -5.56163 -5.56163
0.37463 -5.45253 -5.45253
0.1917 -5.50162 -5.50162
0.283662 -5.55885 -5.55885
0.375218 -5.50697 -5.50697
0.283204 -5.44977 -5.44977
0.283441 -5.50421 -5.50421
0.191573 -5.55625 -5.55625
0.191276 -5.66612 -5.66612
0.376877 -5.67155 -5.67155
0.375788 -5.56163 -5.56163
0.191431 -5.61108 -5.61108
0.284059 -5.66875 -5.66875
0.376341 -5.61649 -5.61649
0.283662 -5.55885 -5.55885
0.283868 -5.6137 -5.6137
0.191276 -5.66612 -5.66612
0.190924 -5.77682 -5.77682
0.377898 -5.78229 -5.78229
0.376877 -5.67155 -5.67155
0.191107 -5.72137 -5.72137
0.284393 -5.77947 -5.77947
0.377396 -5.72682 -5.72682
0.284059 -5.66875 -5.66875
0.284234 -5.72401 -5.72401
0.190924 -5.77682 -5.77682
0.190517 -5.88832 -5.88832
0.37885 -5.89384 -5.89384
0.377898 -5.78229 -5.78229
0.190727 -5.83247 -5.83247
0.284666 -5.89099 -5.89099
0.378383 -5.83796 -5.83796
0.284393 -5.77947 -5.77947
0.284537 -5.83513 -5.83513
0.190517 -5.88832 -5.88832
0.190055 -6.00062 -6.00062
0.379734 -6.00619 -6.00619
0.37885 -5.89384 -5.89384
0.190293 -5.94437 -5.94437
0.284876 -6.00332 -6.00332
0.3793 -5.94991 -5.94991
0.284666 -5.89099 -5.89099
0.284779 -5.94706 -5.94706
0.190055 -6.00062 -6.00062
0.189537 -6.11372 -6.11372
0.380549 -6.11933 -6.11933
0.379734 -6.00619 -6.00619
0.189803 -6.05707 -6.05707
0.285025 -6.11644 -6.11644
0.38015 -6.06266 -6.06266
0.284876 -6.00332 -6.00332
0.284958 -6.05978 -6.05978
0.189537 -6.11372 -6.11372
0.188965 -6.2276 -6.2276
0.381296 -6.23325 -6.23325
0.380549 -6.11933 -6.11933
0.189258 -6.17056 -6.17056
0.285113 -6.23034 -6.23034
0.380931 -6.17619 -6.17619
0.285025 -6.11644 -6.11644
0.285077 -6.17329 -6.17329
0.188965 -6.2276 -6.2276
0.188338 -6.34225 -6.34225
0.381975 -6.34796 -6.34796
0.381296 -6.23325 -6.23325
0.188658 -6.28483 -6.28483
0.285139 -6.34502 -6.34502
0.381644 -6.29051 -6.29051
0.285113 -6.23034 -6.23034
0.285133 -6.28758 -6.28758
0.188338 -6.34225 -6.34225
0.187656 -6.45768 -6.45768
0.382586 -6.46343 -6.46343
0.381975 -6.34796 -6.34796
0.188004 -6.39987 -6.39987
0.285103 -6.46047 -6.46047
0.382289 -6.4056 -6.4056
0.285139 -6.34502 -6.34502
0.285128 -6.40265 -6.40265
0.187656 -6.45768 -6.45768
0.186919 -6.57387 -6.57387
0.383129 -6.57966 -6.57966
0.382586 -6.46343 -6.46343
0.187294 -6.51568 -6.51568
0.285006 -6.57668 -6.57668
0.382866 -6.52145 -6.52145
0.285103 -6.46047 -6.46047
0.285062 -6.51848 -6.51848
0.186919 -6.57387 -6.57387
0.186128 -6.69081 -6.69081
0.383605 -6.69665 -6.69665
0.383129 -6.57966 -6.57966
0.186531 -6.63225 -6.63225
0.284849 -6.69365 -6.69365
0.383376 -6.63806 -6.63806
0.285006 -6.57668 -6.57668
0.284935 -6.63507 -6.63507
0.186128 -6.69081 -6.69081
0.185283 -6.8085 -6.8085
0.384013 -6.81438 -6.81438
0.383605 -6.69665 -6.69665
0.185713 -6.74956 -6.74956
0.28463 -6.81136 -6.81136
0.383817 -6.75542 -6.75542
0.284849 -6.69365 -6.69365
0.284747 -6.75241 -6.75241
0.185283 -6.8085 -6.8085
0.184384 -6.92692 -6.92692
0.384353 -6.93285 -6.93285
0.384013 -6.81438 -6.81438
0.18484 -6.86762 -6.86762
0.28435 -6.9298 -6.9298
0.384191 -6.87352 -6.87352
0.28463 -6.81136 -6.81136
0.284498 -6.87049 -6.87049
0.184384 -6.92692 -6.92692
0.18343 -7.04608 -7.04608
0.384626 -7.05204 -7.05204
0.384353 -6.93285 -6.93285
0.183914 -6.98641 -6.98641
0.28401 -7.04898 -7.04898
0.384498 -6.99235 -6.99235
0.28435 -6.9298 -6.9298
0.284188 -6.9893 -6.9893
0.18343 -7.04608 -7.04608
0.182423 -7.16595 -7.16595
0.384832 -7.17196 -7.17196
0.384626 -7.05204 -7.05204
0.182933 -7.10592 -7.10592
0.28361 -7.16888 -7.16888
0.384738 -7.11191 -7.11191
0.28401 -7.04898 -7.04898
0.283817 -7.10884 -7.10884
0.182423 -7.16595 -7.16595
0.181362 -7.28654 -7.28654
0.384971 -7.2926 -7.2926
0.384832 -7.17196 -7.17196
0.181899 -7.22616 -7.22616
0.283149 -7.28949 -7.28949
0.38491 -7.23219 -7.23219
0.28361 -7.16888 -7.16888
0.283387 -7.2291 -7.2291
0.181362 -7.28654 -7.28654
0.180247 -7.40784 -7.40784
0.385044 -7.41394 -7.41394
0.384971 -7.2926 -7.2926
0.180811 -7.3471 -7.3471
0.282627 -7.41081 -7.41081
0.385016 -7.35318 -7.35318
0.283149 -7.28949 -7.28949
0.282895 -7.35006 -7.35006
0.180247 -7.40784 -7.40784
0.17908 -7.52983 -7.52983
0.385049 -7.53597 -7.53597
0.385044 -7.41394 -7.41394
0.17967 -7.46875 -7.46875
0.282046 -7.53283 -7.53283
0.385055 -7.47487 -7.47487
0.282627 -7.41081 -7.41081
0.282344 -7.47173 -7.47173
0.17908 -7.52983 -7.52983
0.177859 -7.65252 -7.65252
0.384988 -7.6587 -7.6587
0.385049 -7.53597 -7.53597
0.178476 -7.59109 -7.59109
0.281405 -7.65553 -7.65553
0.385027 -7.59725 -7.59725
0.282046 -7.53283 -7.53283
0.281733 -7.5941 -7.5941
0.177859 -7.65252 -7.65252
0.176585 -7.77588 -7.77588
0.384861 -7.78211 -7.78211
0.384988 -7.6587 -7.6587
0.177228 -7.71412 -7.71412
0.280705 -7.77892 -7.77892
0.384933 -7.72032 -7.72032
0.281405 -7.65553 -7.65553
0.281063 -7.71714 -7.71714
0.176585 -7.77588 -7.77588
0.175258 -7.89993 -7.89993
0.384668 -7.90619 -7.90619
0.384861 -7.78211 -7.78211
0.175928 -7.83782 -7.83782
0.279945 -7.90299 -7.90299
0.384773 -7.84407 -7.84407
0.280705 -7.77892 -7.77892
0.280332 -7.84087 -7.84087
0.175258 -7.89993 -7.89993
0.173879 -8.02463 -8.02463
0.38441 -8.03094 -8.03094
0.384668 -7.90619 -7.90619
0.174575 -7.9622 -7.9622
0.279126 -8.02772 -8.02772
0.384547 -7.96849 -7.96849
0.279945 -7.90299 -7.90299
0.279543 -7.96527 -7.96527
0.173879 -8.02463 -8.02463
0.172447 -8.15 -8.15
0.384085 -8.15635 -8.15635
0.38441 -8.03094 -8.03094
0.173169 -8.08724 -8.08724
0.278248 -8.15311 -8.15311
0.384256 -8.09357 -8.09357
0.279126 -8.02772 -8.02772
0.278694 -8.09033 -8.09033
0.172447 -8.15 -8.15
0.170963 -8.27602 -8.27602
0.383695 -8.28241 -8.28241
0.384085 -8.15635 -8.15635
0.171712 -8.21293 -8.21293
0.277311 -8.27915 -8.27915
0.383898 -8.2193 -8.2193
0.278248 -8.15311 -8.15311
0.277787 -8.21605 -8.21605
0.170963 -8.27602 -8.27602
0.169428 -8.40268 -8.40268
0.38324 -8.40911 -8.40911
0.383695 -8.28241 -8.28241
0.170202 -8.33927 -8.33927
0.276316 -8.40583 -8.40583
0.383476 -8.34568 -8.34568
0.277311 -8.27915 -8.27915
0.276821 -8.34241 -8.34241
0.169428 -8.40268 -8.40268
0.16784 -8.52998 -8.52998
0.382721 -8.53645 -8.53645
0.38324 -8.40911 -8.40911
0.16864 -8.46625 -8.46625
0.275262 -8.53315 -8.53315
0.382989 -8.4727 -8.4727
0.276316 -8.40583 -8.40583
0.275796 -8.46941 -8.46941
0.16784 -8.52998 -8.52998
0.166202 -8.6579 -8.6579
0.382136 -8.66441 -8.66441
0.382721 -8.53645 -8.53645
0.167027 -8.59386 -8.59386
0.27415 -8.66109 -8.66109
0.382436 -8.60035 -8.60035
0.275262 -8.53315 -8.53315
0.274714 -8.59704 -8.59704
0.166202 -8.6579 -8.6579
0.164512 -8.78645 -8.78645
0.381487 -8.793 -8.793
0.382136 -8.66441 -8.66441
0.165363 -8.7221 -8.7221
0.272981 -8.78966 -8.78966
0.381819 -8.72863 -8.72863
0.27415 -8.66109 -8.66109
0.273573 -8.7253 -8.7253
0.164512 -8.78645 -8.78645
0.162771 -8.9156 -8.9156
0.380774 -8.92219 -8.92219
0.381487 -8.793 -8.793
0.163648 -8.85095 -8.85095
0.271754 -8.91883 -8.91883
0.381138 -8.85752 -8.85752
0.272981 -8.78966 -8.78966
0.272375 -8.85417 -8.85417
0.162771 -8.9156 -8.9156
0.160979 -9.04536 -9.04536
0.379997 -9.05199 -9.05199
0.380774 -8.92219 -8.92219
0.161881 -8.98041 -8.98041
0.27047 -9.04861 -9.04861
0.380393 -8.98701 -8.98701
0.271754 -8.91883 -8.91883
0.271119 -8.98365 -8.98365
0.160979 -9.04536 -9.04536
0.159137 -9.17572 -9.17572
0.379156 -9.18238 -9.18238
0.379997 -9.05199 -9.05199
0.160065 -9.11046 -9.11046
0.269128 -9.17898 -9.17898
0.379584 -9.11711 -9.11711
0.27047 -9.04861 -9.04861
0.269806 -9.11372 -9.11372
0.159137 -9.17572 -9.17572
0.157245 -9.30666 -9.30666
0.378251 -9.31336 -9.31336
0.379156 -9.18238 -9.18238
0.158198 -9.24111 -9.24111
0.26773 -9.30995 -9.30995
0.378711 -9.2478 -9.2478
0.269128 -9.17898 -9.17898
0.268436 -9.24439 -9.24439
0.157245 -9.30666 -9.30666
0.155303 -9.43818 -9.43818
0.377284 -9.44492 -9.44492
0.378251 -9.31336 -9.31336
0.156281 -9.37235 -9.37235
0.266275 -9.44149 -9.44149
0.377776 -9.37907 -9.37907
0.26773 -9.30995 -9.30995
0.26701 -9.37565 -9.37565
0.155303 -9.43818 -9.43818
0.153312 -9.57028 -9.57028
0.376254 -9.57705 -9.57705
0.377284 -9.44492 -9.44492
0.154314 -9.50416 -9.50416
0.264764 -9.5736 -9.5736
0.376777 -9.51092 -9.51092
0.266275 -9.44149 -9.44149
0.265527 -9.50747 -9.50747
0.153312 -9.57028 -9.57028
0.151271 -9.70294 -9.70294
0.375161 -9.70975 -9.70975
0.376254 -9.57705 -9.57705
0.152297 -9.63654 -9.63654
0.263197 -9.70628 -9.70628
0.375715 -9.64333 -9.64333
0.264764 -9.5736 -9.5736
0.263988 -9.63987 -9.63987
0.151271 -9.70294 -9.70294
0.149181 -9.83615 -9.83615
0.374006 -9.843 -9.843
0.375161 -9.70975 -9.70975
0.150232 -9.76947 -9.76947
0.261575 -9.83952 -9.83952
0.374591 -9.7763 -9.7763
0.263197 -9.70628 -9.70628
0.262393 -9.77283 -9.77283
0.149181 -9.83615 -9.83615
0.147042 -9.96992 -9.96992
0.372788 -9.9768 -9.9768
0.374006 -9.843 -9.843
0.148118 -9.90297 -9.90297
0.259897 -9.9733 -9.9733
0.373405 -9.90983 -9.90983
0.261575 -9.83952 -9.83952
0.260743 -9.90634 -9.90634
0.147042 -9.96992 -9.96992
0.144855 -10.1042 -10.1042
0.37151 -10.1111 -10.1111
0.372788 -9.9768 -9.9768
0.145955 -10.037 -10.037
0.258164 -10.1076 -10.1076
0.372157 -10.0439 -10.0439
0.259897 -9.9733 -9.9733
0.259037 -10.0404 -10.0404
0.144855 -10.1042 -10.1042
0.14262 -10.2391 -10.2391
0.370169 -10.246 -10.246
0.37151 -10.1111 -10.1111
0.143743 -10.1716 -10.1716
0.256376 -10.2425 -10.2425
0.370847 -10.1785 -10.1785
0.258164 -10.1076 -10.1076
0.257276 -10.175 -10.175
0.14262 -10.2391 -10.2391
0.140337 -10.3744 -10.3744
0.368768 -10.3814 -10.3814
0.370169 -10.246 -10.246
0.141484 -10.3067 -10.3067
0.254533 -10.3779 -10.3779
0.369476 -10.3136 -10.3136
0.256376 -10.2425 -10.2425
0.255461 -10.3101 -10.3101
0.140337 -10.3744 -10.3744
0.138006 -10.5103 -10.5103
0.367306 -10.5173 -10.5173
0.368768 -10.3814 -10.3814
0.139177 -10.4423 -10.4423
0.252637 -10.5138 -10.5138
0.368044 -10.4493 -10.4493
0.254533 -10.3779 -10.3779
0.253592 -10.4457 -10.4457
0.138006 -10.5103 -10.5103
0.135628 -10.6467 -10.6467
0.365783 -10.6537 -10.6537
0.367306 -10.5173 -10.5173
0.136823 -10.5784 -10.5784
0.250687 -10.6502 -10.6502
0.366552 -10.5855 -10.5855
0.252637 -10.5138 -10.5138
0.251668 -10.5819 -10.5819
0.135628 -10.6467 -10.6467
0.133203 -10.7836 -10.7836
0.3642 -10.7907 -10.7907
0.365783 -10.6537 -10.6537
0.134421 -10.7151 -10.7151
0.248683 -10.7871 -10.7871
0.364999 -10.7221 -10.7221
0.250687 -10.6502 -10.6502
0.249691 -10.7186 -10.7186
0.133203 -10.7836 -10.7836
0.130732 -10.921 -10.921
0.362557 -10.9281 -10.9281
0.3642 -10.7907 -10.7907
0.131973 -10.8522 -10.8522
0.246626 -10.9245 -10.9245
0.363386 -10.8593 -10.8593
0.248683 -10.7871 -10.7871
0.247661 -10.8557 -10.8557
0.130732 -10.921 -10.921
0.128214 -11.0588 -11.0588
0.360855 -11.066 -11.066
0.362557 -10.9281 -10.9281
0.129479 -10.9898 -10.9898
0.244516 -11.0624 -11.0624
0.361714 -10.997 -10.997
0.246626 -10.9245 -10.9245
0.245577 -10.9934 -10.9934
0.128214 -11.0588 -11.0588
0.12565 -11.1972 -11.1972
0.359094 -11.2044 -11.2044
0.360855 -11.066 -11.066
0.126938 -11.128 -11.128
0.242353 -11.2007 -11.2007
0.359982 -11.1351 -11.1351
0.244516 -11.0624 -11.0624
0.243441 -11.1315 -11.1315
0.12565 -11.1972 -11.1972
0.123041 -11.336 -11.336
0.357274 -11.3432 -11.3432
0.359094 -11.2044 -11.2044
0.124352 -11.2665 -11.2665
0.240139 -11.3396 -11.3396
0.358191 -11.2737 -11.2737
0.242353 -11.2007 -11.2007
0.241252 -11.2701 -11.2701
0.123041 -11.336 -11.336
0.120387 -11.4753 -11.4753
0.355395 -11.4825 -11.4825
0.357274 -11.3432 -11.3432
0.12172 -11.4056 -11.4056
0.237872 -11.4789 -11.4789
0.356342 -11.4128 -11.4128
0.240139 -11.3396 -11.3396
0.239012 -11.4091 -11.4091
0.120387 -11.4753 -11.4753
0.117688 -11.615 -11.615
0.353458 -11.6223 -11.6223
0.355395 -11.4825 -11.4825
0.119043 -11.5451 -11.5451
0.235554 -11.6186 -11.6186
0.354434 -11.5523 -11.5523
0.237872 -11.4789 -11.4789
0.236719 -11.5487 -11.5487
0.117688 -11.615 -11.615
0.114944 -11.7552 -11.7552
0.351464 -11.7625 -11.7625
0.353458 -11.6223 -11.6223
0.116321 -11.6851 -11.6851
0.233185 -11.7588 -11.7588
0.352468 -11.6923 -11.6923
0.235554 -11.6186 -11.6186
0.234376 -11.6886 -11.6886
0.114944 -11.7552 -11.7552
0.112156 -11.8958 -11.8958
0.349412 -11.9031 -11.9031
0.351464 -11.7625 -11.7625
0.113555 -11.8255 -11.8255
0.230765 -11.8994 -11.8994
0.350445 -11.8328 -11.8328
0.233185 -11.7588 -11.7588
0.231981 -11.8291 -11.8291
0.112156 -11.8958 -11.8958
0.109324 -12.0369 -12.0369
0.347303 -12.0442 -12.0442
0.349412 -11.9031 -11.9031
0.110746 -11.9663 -11.9663
0.228294 -12.0405 -12.0405
0.348364 -11.9736 -11.9736
0.230765 -11.8994 -11.8994
0.229536 -11.9699 -11.9699
0.109324 -12.0369 -12.0369
0.106449 -12.1783 -12.1783
0.345137 -12.1857 -12.1857
0.347303 -12.0442 -12.0442
0.107892 -12.1076 -12.1076
0.225774 -12.182 -12.182
0.346227 -12.1149 -12.1149
0.228294 -12.0405 -12.0405
0.22704 -12.1112 -12.1112
0.106449 -12.1783 -12.1783
0.103531 -12.3202 -12.3202
0.342915 -12.3276 -12.3276
0.345137 -12.1857 -12.1857
0.104995 -12.2492 -12.2492
0.223204 -12.3239 -12.3239
0.344033 -12.2566 -12.2566
0.225774 -12.182 -12.182
0.224495 -12.2529 -12.2529
0.103531 -12.3202 -12.3202
0.10057 -12.4625 -12.4625
0.340637 -12.4699 -12.4699
0.342915 -12.3276 -12.3276
0.102056 -12.3913 -12.3913
0.220584 -12.4662 -12.4662
0.341783 -12.3987 -12.3987
0.223204 -12.3239 -12.3239
0.2219 -12.395 -12.395
0.10057 -12.4625 -12.4625
0.0975665 -12.6052 -12.6052
0.338303 -12.6127 -12.6127
0.340637 -12.4699 -12.4699
0.0990734 -12.5338 -12.5338
0.217916 -12.6089 -12.6089
0.339477 -12.5413 -12.5413
0.220584 -12.4662 -12.4662
0.219256 -12.5375 -12.5375
0.0975665 -12.6052 -12.6052
0.0945213 -12.7483 -12.7483
0.335915 -12.7558 -12.7558
0.338303 -12.6127 -12.6127
0.0960491 -12.6767 -12.6767
0.215199 -12.752 -12.752
0.337116 -12.6842 -12.6842
0.217916 -12.6089 -12.6089
0.216563 -12.6804 -12.6804
0.0945213 -12.7483 -12.7483
0.0914345 -12.8918 -12.8918
0.333471 -12.8993 -12.8993
0.335915 -12.7558 -12.7558
0.092983 -12.82 -12.82
0.212433 -12.8955 -12.8955
0.3347 -12.8275 -12.8275
0.215199 -12.752 -12.752
0.213822 -12.8237 -12.8237
0.0914345 -12.8918 -12.8918
0.0883065 -13.0356 -13.0356
0.330973 -13.0431 -13.0431
0.333471 -12.8993 -12.8993
0.0898756 -12.9636 -12.9636
0.20962 -13.0393 -13.0393
0.332229 -12.9711 -12.9711
0.212433 -12.8955 -12.8955
0.211033 -12.9674 -12.9674
0.0883065 -13.0356 -13.0356
0.0851377 -13.1798 -13.1798
0.328421 -13.1874 -13.1874
0.330973 -13.0431 -13.0431
0.0867271 -13.1077 -13.1077
0.20676 -13.1836 -13.1836
0.329704 -13.1152 -13.1152
0.20962 -13.0393 -13.0393
0.208196 -13.1114 -13.1114
0.0851377 -13.1798 -13.1798
0.0819285 -13.3244 -13.3244
0.325815 -13.332 -13.332
0.328421 -13.1874 -13.1874
0.0835381 -13.2521 -13.2521
0.203852 -13.3281 -13.3281
0.327125 -13.2596 -13.2596
0.20676 -13.1836 -13.1836
0.205312 -13.2558 -13.2558
0.0819285 -13.3244 -13.3244
0.0786793 -13.4693 -13.4693
0.323156 -13.4769 -13.4769
0.325815 -13.332 -13.332
0.0803089 -13.3968 -13.3968
0.200898 -13.4731 -13.4731
0.324492 -13.4044 -13.4044
0.203852 -13.3281 -13.3281
0.202381 -13.4006 -13.4006
0.0786793 -13.4693 -13.4693
0.0753905 -13.6146 -13.6146
0.320444 -13.6222 -13.6222
0.323156 -13.4769 -13.4769
0.0770398 -13.5419 -13.5419
0.197898 -13.6184 -13.6184
0.321807 -13.5495 -13.5495
0.200898 -13.4731 -13.4731
0.199404 -13.5457 -13.5457
0.0753905 -13.6146 -13.6146
0.0720625 -13.7602 -13.7602
0.31768 -13.7678 -13.7678
0.320444 -13.6222 -13.6222
0.0737314 -13.6874 -13.6874
0.194852 -13.764 -13.764
0.319069 -13.695 -13.695
0.197898 -13.6184 -13.6184
0.19638 -13.6911 -13.6911
0.0720625 -13.7602 -13.7602
0.0686958 -13.9061 -13.9061
0.314864 -13.9138 -13.9138
0.31768 -13.7678 -13.7678
0.070384 -13.8331 -13.8331
0.19176 -13.9099 -13.9099
0.316278 -13.8407 -13.8407
0.194852 -13.764 -13.764
0.193312 -13.8369 -13.8369
0.0686958 -13.9061 -13.9061
0.0652906 -14.0524 -14.0524
0.311996 -14.06 -14.06
0.314864 -13.9138 -13.9138
0.066998 -13.9792 -13.9792
0.188624 -14.0562 -14.0562
0.313436 -13.9869 -13.9869
0.19176 -13.9099 -13.9099
0.190197 -13.983 -13.983
0.0652906 -14.0524 -14.0524
0.0618475 -14.199 -14.199
0.309077 -14.2066 -14.2066
0.311996 -14.06 -14.06
0.0635738 -14.1256 -14.1256
0.185442 -14.2027 -14.2027
0.310543 -14.1333 -14.1333
0.188624 -14.0562 -14.0562
0.187038 -14.1294 -14.1294
0.0618475 -14.199 -14.199
0.0583669 -14.3458 -14.3458
0.306107 -14.3535 -14.3535
0.309077 -14.2066 -14.2066
0.0601119 -14.2723 -14.2723
0.182217 -14.3496 -14.3496
0.307598 -14.28 -14.28
0.185442 -14.2027 -14.2027
0.183835 -14.2762 -14.2762
0.0583669 -14.3458 -14.3458
0.0548491 -14.493 -14.493
0.303087 -14.5007 -14.5007
0.306107 -14.3535 -14.3535
0.0566126 -14.4194 -14.4194
0.178948 -14.4968 -14.4968
0.304603 -14.4271 -14.4271
0.182217 -14.3496 -14.3496
0.180588 -14.4232 -14.4232
0.0548491 -14.493 -14.493
0.0512945 -14.6404 -14.6404
0.300016 -14.6482 -14.6482
0.303087 -14.5007 -14.5007
0.0530764 -14.5667 -14.5667
0.175635 -14.6443 -14.6443
0.301558 -14.5744 -14.5744
0.178948 -14.4968 -14.4968
0.177297 -14.5705 -14.5705
0.0512945 -14.6404 -14.6404
0.0477037 -14.7882 -14.7882
0.296896 -14.7959 -14.7959
0.300016 -14.6482 -14.6482
0.0495036 -14.7143 -14.7143
0.17228 -14.792 -14.792
0.298462 -14.722 -14.722
0.175635 -14.6443 -14.6443
0.173963 -14.7181 -14.7181
0.0477037 -14.7882 -14.7882
0.0440771 -14.9362 -14.9362
0.293727 -14.9439 -14.9439
0.296896 -14.7959 -14.7959
0.0458949 -14.8622 -14.8622
0.168882 -14.94 -14.94
0.295318 -14.8699 -14.8699
0.17228 -14.792 -14.792
0.170586 -14.866 -14.866
0.0440771 -14.9362 -14.9362
0.040415 -15.0845 -15.0845
0.29051 -15.0922 -15.0922
0.293727 -14.9439 -14.9439
0.0422504 -15.0103 -15.0103
0.165442 -15.0883 -15.0883
0.292125 -15.018 -15.018
0.168882 -14.94 -14.94
0.167168 -15.0141 -15.0141
0.040415 -15.0845 -15.0845
0.0367179 -15.233 -15.233
0.287244 -15.2408 -15.2408
0.29051 -15.0922 -15.0922
0.0385708 -15.1587 -15.1587
0.161961 -15.2369 -15.2369
0.288883 -15.1665 -15.1665
0.165442 -15.0883 -15.0883
0.163707 -15.1626 -15.1626
0.0367179 -15.233 -15.233
0.0329862 -15.3818 -15.3818
0.28393 -15.3896 -15.3896
0.287244 -15.2408 -15.2408
0.0348563 -15.3074 -15.3074
0.158438 -15.3857 -15.3857
0.285593 -15.3151 -15.3151
0.161961 -15.2369 -15.2369
0.160205 -15.3112 -15.3112
0.0329862 -15.3818 -15.3818
0.0292204 -15.5308 -15.5308
0.280569 -15.5386 -15.5386
0.28393 -15.3896 -15.3896
0.0311075 -15.4563 -15.4563
0.154875 -15.5347 -15.5347
0.282256 -15.4641 -15.4641
0.158438 -15.3857 -15.3857
0.156661 -15.4601 -15.4601
0.0292204 -15.5308 -15.5308
0.0254209 -15.6801 -15.6801
0.277161 -15.6879 -15.6879
0.280569 -15.5386 -15.5386
0.0273248 -15.6054 -15.6054
0.151271 -15.684 -15.684
0.278871 -15.6132 -15.6132
0.154875 -15.5347 -15.5347
0.153078 -15.6093 -15.6093
0.0254209 -15.6801 -15.6801
0.0215881 -15.8296 -15.8296
0.273707 -15.8374 -15.8374
0.277161 -15.6879 -15.6879
0.0235086 -15.7548 -15.7548
0.147627 -15.8335 -15.8335
0.27544 -15.7626 -15.7626
0.151271 -15.684 -15.684
0.149454 -15.7587 -15.7587
0.0215881 -15.8296 -15.8296
0.0177226 -15.9793 -15.9793
0.270206 -15.9871 -15.9871
0.273707 -15.8374 -15.8374
0.0196594 -15.9044 -15.9044
0.143944 -15.9832 -15.9832
0.271962 -15.9122 -15.9122
0.147627 -15.8335 -15.8335
0.145791 -15.9083 -15.9083
0.0177226 -15.9793 -15.9793
0.0138246 -16.1292 -16.1292
0.26666 -16.137 -16.137
0.270206 -15.9871 -15.9871
0.0157776 -16.0542 -16.0542
0.140222 -16.1331 -16.1331
0.268439 -16.062 -16.062
0.143944 -15.9832 -15.9832
0.142088 -16.0581 -16.0581
0.0138246 -16.1292 -16.1292
0.00989477 -16.2793 -16.2793
0.263069 -16.2871 -16.2871
0.26666 -16.137 -16.137
0.0118637 -16.2042 -16.2042
0.136461 -16.2832 -16.2832
0.26487 -16.2121 -16.2121
0.140222 -16.1331 -16.1331
0.138346 -16.2081 -16.2081
0.00989477 -16.2793 -16.2793
0.00593344 -16.4296 -16.4296
0.259433 -16.4375 -16.4375
0.263069 -16.2871 -16.2871
0.00791801 -16.3545 -16.3545
0.132663 -16.4335 -16.4335
0.261256 -16.3623 -16.3623
0.136461 -16.2832 -16.2832
0.134567 -16.3583 -16.3583
0.00593344 -16.4296 -16.4296
0.00194109 -16.5801 -16.5801
0.255752 -16.588 -16.588
0.259433 -16.4375 -16.4375
0.00394112 -16.5049 -16.5049
0.128826 -16.584 -16.584
0.257598 -16.5127 -16.5127
0.132663 -16.4335 -16.4335
0.130749 -16.5088 -16.5088
0.00194109 -16.5801 -16.5801
-0.00208183 -16.7308 -16.7308
0.252028 -16.7387 -16.7387
0.255752 -16.588 -16.588
-6.65736e-05 -16.6555 -16.6555
0.124953 -16.7347 -16.7347
0.253896 -16.6633 -16.6633
0.128826 -16.584 -16.584
0.126894 -16.6594 -16.6594
-0.00208183 -16.7308 -16.7308
-0.00613486 -16.8817 -16.8817
0.248261 -16.8895 -16.8895
0.252028 -16.7387 -16.7387
-0.00410461 -16.8062 -16.8062
0.121042 -16.8856 -16.8856
0.25015 -16.8141 -16.8141
0.124953 -16.7347 -16.7347
0.123002 -16.8101 -16.8101
-0.00613486 -16.8817 -16.8817
-0.0102176 -17.0327 -17.0327
0.244451 -17.0405 -17.0405
0.248261 -16.8895 -16.8895
-0.00817253 -16.9572 -16.9572
0.117096 -17.0366 -17.0366
0.246361 -16.965 -16.965
0.121042 -16.8856 -16.8856
0.119074 -16.9611 -16.9611
-0.0102176 -17.0327 -17.0327
-0.0143295 -17.1839 -17.1839
0.240598 -17.1917 -17.1917
0.244451 -17.0405 -17.0405
-0.0122699 -17.1083 -17.1083
0.113113 -17.1878 -17.1878
0.242529 -17.1161 -17.1161
0.117096 -17.0366 -17.0366
0.115109 -17.1122 -17.1122
-0.0143295 -17.1839 -17.1839
-0.0184701 -17.3352 -17.3352
0.236703 -17.343 -17.343
0.240598 -17.1917 -17.1917
-0.0163962 -17.2595 -17.2595
0.109096 -17.3391 -17.3391
0.238655 -17.2674 -17.2674
0.113113 -17.1878 -17.1878
0.111109 -17.2634 -17.2634
-0.0184701 -17.3352 -17.3352
-0.022639 -17.4866 -17.4866
0.232766 -17.4945 -17.4945
0.236703 -17.343 -17.343
-0.0205511 -17.4109 -17.4109
0.105043 -17.4906 -17.4906
0.23474 -17.4187 -17.4187
0.109096 -17.3391 -17.3391
0.107074 -17.4148 -17.4148
-0.022639 -17.4866 -17.4866
-0.0268358 -17.6382 -17.6382
0.228789 -17.6461 -17.6461
0.232766 -17.4945 -17.4945
-0.024734 -17.5624 -17.5624
0.100956 -17.6421 -17.6421
0.230783 -17.5703 -17.5703
0.105043 -17.4906 -17.4906
0.103004 -17.5663 -17.5663
-0.0268358 -17.6382 -17.6382
-0.0310599 -17.79 -17.79
0.224771 -17.7978 -17.7978
0.228789 -17.6461 -17.6461
-0.0289445 -17.7141 -17.7141
0.0968346 -17.7939 -17.7939
0.226785 -17.7219 -17.7219
0.100956 -17.6421 -17.6421
0.0988994 -17.718 -17.718
-0.0310599 -17.79 -17.79
-0.035311 -17.9418 -17.9418
0.220713 -17.9496 -17.9496
0.224771 -17.7978 -17.7978
-0.0331821 -17.8659 -17.8659
0.0926799 -17.9457 -17.9457
0.222747 -17.8737 -17.8737
0.0968346 -17.7939 -17.7939
0.0947614 -17.8698 -17.8698
-0.035311 -17.9418 -17.9418
-0.0395885 -18.0937 -18.0937
0.216615 -18.1016 -18.1016
0.220713 -17.9496 -17.9496
-0.0374464 -18.0177 -18.0177
0.0884922 -18.0976 -18.0976
0.218669 -18.0256 -18.0256
0.0926799 -17.9457 -17.9457
0.0905902 -18.0217 -18.0217
-0.0395885 -18.0937 -18.0937
-0.043892 -18.2458 -18.2458
0.212478 -18.2536 -18.2536
0.216615 -18.1016 -18.1016
-0.041737 -18.1697 -18.1697
0.0842719 -18.2497 -18.2497
0.214551 -18.1776 -18.1776
0.0884922 -18.0976 -18.0976
0.0863861 -18.1736 -18.1736
-0.043892 -18.2458 -18.2458
-0.0482211 -18.3979 -18.3979
0.208302 -18.4057 -18.4057
0.212478 -18.2536 -18.2536
-0.0460534 -18.3218 -18.3218
0.0800194 -18.4018 -18.4018
0.210395 -18.3297 -18.3297
0.0842719 -18.2497 -18.2497
0.0821497 -18.3257 -18.3257
-0.0482211 -18.3979 -18.3979
-0.0525756 -18.5501 -18.5501
0.204088 -18.558 -18.558
0.208302 -18.4057 -18.4057
-0.0503952 -18.474 -18.474
0.0757351 -18.554 -18.554
0.2062 -18.4818 -18.4818
0.0800194 -18.4018 -18.4018
0.0778812 -18.4779 -18.4779
-0.0525756 -18.5501 -18.5501
-0.0569553 -18.7024 -18.7024
0.199836 -18.7102 -18.7102
0.204088 -18.558 -18.558
-0.0547623 -18.6263 -18.6263
0.0714193 -18.7063 -18.7063
0.201967 -18.6341 -18.6341
0.0757351 -18.554 -18.554
0.0735811 -18.6302 -18.6302
-0.0569553 -18.7024 -18.7024
-0.0613601 -18.8548 -18.8548
0.195547 -18.8626 -18.8626
0.199836 -18.7102 -18.7102
-0.0591545 -18.7786 -18.7786
0.0670721 -18.8587 -18.8587
0.197697 -18.7864 -18.7864
0.0714193 -18.7063 -18.7063
0.0692496 -18.7825 -18.7825
-0.0613601 -18.8548 -18.8548
-0.0657905 -19.0072 -19.0072
0.191221 -19.015 -19.015
0.195547 -18.8626 -18.8626
-0.063572 -18.931 -18.931
0.0626934 -19.0111 -19.0111
0.193389 -18.9388 -18.9388
0.0670721 -18.8587 -18.8587
0.0648867 -18.9349 -18.9349
-0.0657905 -19.0072 -19.0072
-0.0702474 -19.1597 -19.1597
0.186859 -19.1675 -19.1675
0.191221 -19.015 -19.015
-0.0680156 -19.0835 -19.0835
0.0582825 -19.1636 -19.1636
0.189045 -19.0913 -19.0913
0.0626934 -19.0111 -19.0111
0.0604921 -19.0873 -19.0873
-0.0702474 -19.1597 -19.1597
-0.0747321 -19.3122 -19.3122
0.182458 -19.32 -19.32
0.186859 -19.1675 -19.1675
-0.0724861 -19.236 -19.236
0.0538381 -19.3161 -19.3161
0.184663 -19.2437 -19.2437
0.0582825 -19.1636 -19.1636
0.0560646 -19.2398 -19.2398
-0.0747321 -19.3122 -19.3122
-0.0792464 -19.4648 -19.4648
0.17802 -19.4726 -19.4726
0.182458 -19.32 -19.32
-0.0769855 -19.3885 -19.3885
0.049358 -19.4687 -19.4687
0.180244 -19.3963 -19.3963
0.0538381 -19.3161 -19.3161
0.0516028 -19.3924 -19.3924
-0.0792464 -19.4648 -19.4648
-0.0837895 -19.6174 -19.6174
0.173539 -19.6252 -19.6252
0.17802 -19.4726 -19.4726
-0.0815144 -19.5411 -19.5411
0.0448389 -19.6213 -19.6213
0.175785 -19.5489 -19.5489
0.049358 -19.4687 -19.4687
0.0471033 -19.545 -19.545
-0.0837895 -19.6174 -19.6174
-0.0883567 -19.7701 -19.7701
0.169011 -19.7778 -19.7778
0.173539 -19.6252 -19.6252
-0.0860712 -19.6937 -19.6937
0.0402818 -19.7739 -19.7739
0.171282 -19.7015 -19.7015
0.0448389 -19.6213 -19.6213
0.0425649 -19.6976 -19.6976
-0.0883567 -19.7701 -19.7701
-0.0929266 -19.9227 -19.9227
0.164436 -19.9306 -19.9306
0.169011 -19.7778 -19.7778
-0.0906427 -19.8464 -19.8464
0.0357036 -19.9266 -19.9266
0.166728 -19.8542 -19.8542
0.0402818 -19.7739 -19.7739
0.0379917 -19.8503 -19.8503
-0.0929266 -19.9227 -19.9227
-0.0974782 -20.0753 -20.0753
0.159883 -20.0834 -20.0834
0.164436 -19.9306 -19.9306
-0.0952059 -19.999 -19.999
0.0311673 -20.0793 -20.0793
0.162148 -20.007 -20.007
0.0357036 -19.9266 -19.9266
0.0334273 -20.003 -20.003
0 0 0
0.00593801 -0.00169826 -0.00169826
0.00996953 -0.0050008 -0.0050008
0 0 0
0.00288208 -0.000610485 -0.000610485
0.00750474 -0.00302577 -0.00302577
0.00542135 -0.00311195 -0.00311195
0 0 0
0.00358013 -0.00133238 -0.00133238
0.00593801 -0.00169826 -0.00169826
0.0123652 -0.00489674 -0.00489674
0.0185974 -0.00870129 -0.00870129
0.00996953 -0.0050008 -0.0050008
0.0091211 -0.00314312 -0.00314312
0.0153228 -0.00660643 -0.00660643
0.0142973 -0.00678116 -0.00678116
0.00750474 -0.00302577 -0.00302577
0.0114358 -0.00476162 -0.00476162
0.0123652 -0.00489674 -0.00489674
0.0188494 -0.00928922 -0.00928922
0.027294 -0.0131642 -0.0131642
0.0185974 -0.00870129 -0.00870129
0.0156114 -0.00693881 -0.00693881
0.0230243 -0.0110817 -0.0110817
0.0229311 -0.0108025 -0.0108025
0.0153228 -0.00660643 -0.00660643
0.019184 -0.00869893 -0.00869893
0.0188494 -0.00928922 -0.00928922
0.0252984 -0.0150058 -0.0150058
0.0360567 -0.0189012 -0.0189012
0.027294 -0.0131642 -0.0131642
0.02208 -0.0119743 -0.0119743
0.0306558 -0.0168025 -0.0168025
0.0316696 -0.01586 -0.01586
0.0230243 -0.0110817 -0.0110817
0.0268461 -0.0137746 -0.0137746
0.0252984 -0.0150058 -0.0150058
0.0316883 -0.0221405 -0.0221405
0.0448609 -0.0260312 -0.0260312
0.0360567 -0.0189012 -0.0189012
0.0285004 -0.0183918 -0.0183918
0.0382562 -0.0239363 -0.0239363
0.0404561 -0.0222872 -0.0222872
0.0306558 -0.0168025 -0.0168025
0.0344593 -0.0201875 -0.0201875
0.0316883 -0.0221405 -0.0221405
0.0380306 -0.0307483 -0.0307483
0.0536626 -0.0346344 -0.0346344
0.0448609 -0.0260312 -0.0260312
0.034865 -0.0262587 -0.0262587
0.0458252 -0.0325373 -0.0325373
0.0492636 -0.0301468 -0.0301468
0.0382562 -0.0239363 -0.0239363
0.0420448 -0.0280517 -0.0280517
0.0380306 -0.0307483 -0.0307483
0.0443268 -0.0408451 -0.0408451
0.0624457 -0.0447225 -0.0447225
0.0536626 -0.0346344 -0.0346344
0.0411842 -0.0356102 -0.0356102
0.0533616 -0.0426288 -0.0426288
0.0580575 -0.0394923 -0.0394923
0.0458252 -0.0325373 -0.0325373
0.0495978 -0.0373961 -0.0373961
0.0443268 -0.0408451 -0.0408451
0.050581 -0.0524354 -0.0524354
0.0711928 -0.0563054 -0.0563054
0.0624457 -0.0447225 -0.0447225
0.0474591 -0.0464537 -0.0464537
0.0608594 -0.0542142 -0.0542142
0.0668244 -0.0503271 -0.0503271
0.0533616 -0.0426288 -0.0426288
0.0571156 -0.0482349 -0.0482349
0.050581 -0.0524354 -0.0524354
0.0567933 -0.065515 -0.065515
0.0798963 -0.0693777 -0.0693777
0.0711928 -0.0563054 -0.0563054
0.0536924 -0.0587894 -0.0587894
0.0683156 -0.0672901 -0.0672901
0.0755504 -0.0626557 -0.0626557
0.0608594 -0.0542142 -0.0542142
0.064593 -0.0605662 -0.0605662
0.0567933 -0.065515 -0.065515
0.062964 -0.0800774 -0.0800774
0.0885503 -0.0839342 -0.0839342
0.0798963 -0.0693777 -0.0693777
0.0598838 -0.0726113 -0.0726113
0.0757269 -0.0818498 -0.0818498
0.0842298 -0.0764709 -0.0764709
0.0683156 -0.0672901 -0.0672901
0.072027 -0.074385 -0.074385
0.062964 -0.0800774 -0.0800774
0.0690926 -0.0961147 -0.0961147
0.0971516 -0.0999668 -0.0999668
0.0885503 -0.0839342 -0.0839342
0.0660336 -0.0879122 -0.0879122
0.0830912 -0.0978854 -0.0978854
0.0928577 -0.0917665 -0.0917665
0.0757269 -0.0818498 -0.0818498
0.079415 -0.0896836 -0.0896836
0.0690926 -0.0961147 -0.0961147
0.0751785 -0.113619 -0.113619
0.105698 -0.117468 -0.117468
0.0971516 -0.0999668 -0.0999668
0.0721409 -0.104684 -0.104684
0.0904071 -0.115389 -0.115389
0.101432 -0.108534 -0.108534
0.0830912 -0.0978854 -0.0978854
0.0867553 -0.106454 -0.106454
0.0751785 -0.113619 -0.113619
0.0812209 -0.132582 -0.132582
0.114188 -0.136428 -0.136428
0.105698 -0.117468 -0.117468
0.0782052 -0.122919 -0.122919
0.0976733 -0.134351 -0.134351
0.10995 -0.126766 -0.126766
0.0904071 -0.115389 -0.115389
0.0940465 -0.124688 -0.124688
0.0812209 -0.132582 -0.132582
0.0872191 -0.152995 -0.152995
0.122621 -0.156841 -0.156841
0.114188 -0.136428 -0.136428
0.0842256 -0.142608 -0.142608
0.104889 -0.154765 -0.154765
0.118412 -0.146454 -0.146454
0.0976733 -0.134351 -0.134351
0.101287 -0.144377 -0.144377
0.0872191 -0.152995 -0.152995
0.0931723 -0.174851 -0.174851
0.130996 -0.178697 -0.178697
0.122621 -0.156841 -0.156841
0.0902013 -0.163743 -0.163743
0.112053 -0.176622 -0.176622
0.126816 -0.167589 -0.167589
0.104889 -0.154765 -0.154765
0.108477 -0.165513 -0.165513
0.0931723 -0.174851 -0.174851
0.0990797 -0.198141 -0.198141
0.139311 -0.201989 -0.201989
0.130996 -0.178697 -0.178697
0.0961317 -0.186317 -0.186317
0.119164 -0.199914 -0.199914
0.135161 -0.190164 -0.190164
0.112053 -0.176622 -0.176622
0.115615 -0.188089 -0.188089
0.0990797 -0.198141 -0.198141
0.104941 -0.222858 -0.222858
0.147567 -0.226709 -0.226709
0.139311 -0.201989 -0.201989
0.102016 -0.210322 -0.210322
0.126223 -0.224633 -0.224633
0.143447 -0.214171 -0.214171
0.119164 -0.199914 -0.199914
0.1227 -0.212095 -0.212095
0.104941 -0.222858 -0.222858
0.110754 -0.248993 -0.248993
0.155763 -0.252848 -0.252848
0.147567 -0.226709 -0.226709
0.107853 -0.235749 -0.235749
0.133227 -0.250771 -0.250771
0.151673 -0.239602 -0.239602
0.126223 -0.224633 -0.224633
0.129732 -0.237525 -0.237525
0.110754 -0.248993 -0.248993
0.11652 -0.276539 -0.276539
0.163897 -0.280399 -0.280399
0.155763 -0.252848 -0.252848
0.113643 -0.26259 -0.26259
0.140178 -0.27832 -0.27832
0.159837 -0.266448 -0.266448
0.133227 -0.250771 -0.250771
0.136709 -0.264369 -0.264369
0.11652 -0.276539 -0.276539
0.122237 -0.305487 -0.305487
0.171969 -0.309354 -0.309354
0.163897 -0.280399 -0.280399
0.119385 -0.290838 -0.290838
0.147072 -0.307272 -0.307272
0.167941 -0.294702 -0.294702
0.140178 -0.27832 -0.27832
0.143632 -0.292621 -0.292621
0.122237 -0.305487 -0.305487
0.127905 -0.33583 -0.33583
0.179979 -0.339704 -0.339704
0.171969 -0.309354 -0.309354
0.125078 -0.320485 -0.320485
0.153911 -0.33762 -0.33762
0.175982 -0.324355 -0.324355
0.147072 -0.307272 -0.307272
0.150499 -0.322272 -0.322272
0.127905 -0.33583 -0.33583
0.133523 -0.36756 -0.36756
0.187925 -0.371443 -0.371443
0.179979 -0.339704 -0.339704
0.13072 -0.351522 -0.351522
0.160693 -0.369355 -0.369355
0.18396 -0.355401 -0.355401
0.153911 -0.33762 -0.33762
0.157309 -0.353314 -0.353314
0.133523 -0.36756 -0.36756
0.13909 -0.400668 -0.400668
0.195808 -0.404561 -0.404561
0.187925 -0.371443 -0.371443
0.136313 -0.383942 -0.383942
0.167418 -0.402469 -0.402469
0.191874 -0.38783 -0.38783
0.160693 -0.369355 -0.369355
0.164063 -0.38574 -0.38574
0.13909 -0.400668 -0.400668
0.144606 -0.435147 -0.435147
0.203626 -0.439051 -0.439051
0.195808 -0.404561 -0.404561
0.141855 -0.417737 -0.417737
0.174085 -0.436954 -0.436954
0.199725 -0.421635 -0.421635
0.167418 -0.402469 -0.402469
0.170759 -0.41954 -0.41954
0.144606 -0.435147 -0.435147
0.150071 -0.470989 -0.470989
0.211378 -0.474905 -0.474905
0.203626 -0.439051 -0.439051
0.147345 -0.452898 -0.452898
0.180694 -0.472803 -0.472803
0.20751 -0.456808 -0.456808
0.174085 -0.436954 -0.436954
0.177397 -0.454708 -0.454708
0.150071 -0.470989 -0.470989
0.155482 -0.508186 -0.508186
0.219065 -0.512115 -0.512115
0.211378 -0.474905 -0.474905
0.152783 -0.489419 -0.489419
0.187243 -0.510007 -0.510007
0.21523 -0.493341 -0.493341
0.180694 -0.472803 -0.472803
0.183976 -0.491236 -0.491236
0.155482 -0.508186 -0.508186
0.160841 -0.54673 -0.54673
0.226686 -0.550673 -0.550673
0.219065 -0.512115 -0.512115
0.158168 -0.52729 -0.52729
0.193733 -0.548559 -0.548559
0.222884 -0.531226 -0.531226
0.187243 -0.510007 -0.510007
0.190496 -0.529115 -0.529115
0.160841 -0.54673 -0.54673
0.166145 -0.586613 -0.586613
0.23424 -0.590571 -0.590571
0.226686 -0.550673 -0.550673
0.1635 -0.566505 -0.566505
0.200162 -0.58845 -0.58845
0.230471 -0.570455 -0.570455
0.193733 -0.548559 -0.548559
0.196955 -0.568338 -0.568338
0.166145 -0.586613 -0.586613
0.171396 -0.627828 -0.627828
0.241726 -0.631801 -0.631801
0.23424 -0.590571 -0.590571
0.168778 -0.607055 -0.607055
0.206531 -0.629673 -0.629673
0.237991 -0.61102 -0.61102
0.200162 -0.58845 -0.58845
0.203354 -0.608896 -0.608896
0.171396 -0.627828 -0.627828
0.176592 -0.670365 -0.670365
0.249144 -0.674355 -0.674355
0.241726 -0.631801 -0.631801
0.174001 -0.648931 -0.648931
0.212837 -0.67222 -0.67222
0.245443 -0.652913 -0.652913
0.206531 -0.629673 -0.629673
0.209692 -0.650782 -0.650782
0.176592 -0.670365 -0.670365
0.181732 -0.714218 -0.714218
0.256493 -0.718226 -0.718226
0.249144 -0.674355 -0.674355
0.179169 -0.692128 -0.692128
0.219082 -0.716083 -0.716083
0.252827 -0.696127 -0.696127
0.212837 -0.67222 -0.67222
0.215968 -0.693987 -0.693987
0.181732 -0.714218 -0.714218
0.186816 -0.759378 -0.759378
0.263773 -0.763405 -0.763405
0.256493 -0.718226 -0.718226
0.184281 -0.736635 -0.736635
0.225264 -0.761253 -0.761253
0.260142 -0.740652 -0.740652
0.219082 -0.716083 -0.716083
0.222181 -0.738505 -0.738505
0.186816 -0.759378 -0.759378
0.191844 -0.805837 -0.805837
0.270983 -0.809884 -0.809884
0.263773 -0.763405 -0.763405
0.189337 -0.782446 -0.782446
0.231384 -0.807723 -0.807723
0.267387 -0.786482 -0.786482
0.225264 -0.761253 -0.761253
0.228332 -0.784326 -0.784326
0.191844 -0.805837 -0.805837
0.196815 -0.853588 -0.853588
0.278123 -0.857655 -0.857655
0.270983 -0.809884 -0.809884
0.194337 -0.829552 -0.829552
0.237439 -0.855485 -0.855485
0.274562 -0.833608 -0.833608
0.231384 -0.807723 -0.807723
0.234419 -0.831443 -0.831443
0.196815 -0.853588 -0.853588
0.201728 -0.902623 -0.902623
0.285193 -0.906711 -0.906711
0.278123 -0.857655 -0.857655
0.199279 -0.877946 -0.877946
0.24343 -0.904531 -0.904531
0.281667 -0.882023 -0.882023
0.237439 -0.855485 -0.855485
0.240443 -0.879848 -0.879848
0.201728 -0.902623 -0.902623
0.206583 -0.952933 -0.952933
0.292191 -0.957043 -0.957043
0.285193 -0.906711 -0.906711
0.204163 -0.927619 -0.927619
0.249357 -0.954853 -0.954853
0.288701 -0.931718 -0.931718
0.24343 -0.904531 -0.904531
0.246402 -0.929533 -0.929533
0.206583 -0.952933 -0.952933
0.21138 -1.00451 -1.00451
0.299117 -1.00864 -1.00864
0.292191 -0.957043 -0.957043
0.208989 -0.978564 -0.978564
0.255219 -1.00644 -1.00644
0.295663 -0.982685 -0.982685
0.249357 -0.954853 -0.954853
0.252296 -0.98049 -0.98049
0.21138 -1.00451 -1.00451
0.216118 -1.05735 -1.05735
0.305971 -1.06151 -1.06151
0.299117 -1.00864 -1.00864
0.213757 -1.03077 -1.03077
0.261015 -1.05929 -1.05929
0.302553 -1.03492 -1.03492
0.255219 -1.00644 -1.00644
0.258125 -1.03271 -1.03271
0.216118 -1.05735 -1.05735
0.220797 -1.11144 -1.11144
0.312752 -1.11562 -1.11562
0.305971 -1.06151 -1.06151
0.218465 -1.08424 -1.08424
0.266745 -1.1134 -1.1134
0.309371 -1.08841 -1.08841
0.261015 -1.05929 -1.05929
0.263888 -1.08619 -1.08619
0.220797 -1.11144 -1.11144
0.225416 -1.16677 -1.16677
0.31946 -1.17098 -1.17098
0.312752 -1.11562 -1.11562
0.223114 -1.13895 -1.13895
0.272408 -1.16874 -1.16874
0.316116 -1.14314 -1.14314
0.266745 -1.1134 -1.1134
0.269585 -1.14091 -1.14091
0.225416 -1.16677 -1.16677
0.229974 -1.22334 -1.22334
0.326095 -1.22757 -1.22757
0.31946 -1.17098 -1.17098
0.227702 -1.1949 -1.1949
0.278005 -1.22533 -1.22533
0.322787 -1.19912 -1.19912
0.272408 -1.16874 -1.16874
0.275215 -1.19688 -1.19688
0.229974 -1.22334 -1.22334
0.234472 -1.28114 -1.28114
0.332656 -1.2854 -1.2854
0.326095 -1.22757 -1.22757
0.232231 -1.25209 -1.25209
0.283534 -1.28314 -1.28314
0.329385 -1.25633 -1.25633
0.278005 -1.22533 -1.22533
0.280778 -1.25408 -1.25408
0.234472 -1.28114 -1.28114
0.238909 -1.34016 -1.34016
0.339142 -1.34444 -1.34444
0.332656 -1.2854 -1.2854
0.236698 -1.31049 -1.31049
0.288996 -1.34217 -1.34217
0.335908 -1.31477 -1.31477
0.283534 -1.28314 -1.28314
0.286273 -1.3125 -1.3125
0.238909 -1.34016 -1.34016
0.243284 -1.40039 -1.40039
0.345554 -1.4047 -1.4047
0.339142 -1.34444 -1.34444
0.241104 -1.37012 -1.37012
0.294389 -1.40241 -1.40241
0.342357 -1.37442 -1.37442
0.288996 -1.34217 -1.34217
0.291701 -1.37214 -1.37214
0.243284 -1.40039 -1.40039
0.247597 -1.46182 -1.46182
0.35189 -1.46616 -1.46616
0.345554 -1.4047 -1.4047
0.245448 -1.43095 -1.43095
0.299714 -1.46386 -1.46386
0.348731 -1.43528 -1.43528
0.294389 -1.40241 -1.40241
0.29706 -1.43299 -1.43299
0.247597 -1.46182 -1.46182
0.251848 -1.52445 -1.52445
0.358151 -1.52882 -1.52882
0.35189 -1.46616 -1.46616
0.24973 -1.49298 -1.49298
0.30497 -1.52651 -1.52651
0.35503 -1.49734 -1.49734
0.299714 -1.46386 -1.46386
0.302351 -1.49504 -1.49504
0.251848 -1.52445 -1.52445
0.256036 -1.58827 -1.58827
0.364336 -1.59267 -1.59267
0.358151 -1.52882 -1.52882
0.25395 -1.55621 -1.55621
0.310157 -1.59034 -1.59034
0.361253 -1.5606 -1.5606
0.30497 -1.52651 -1.52651
0.307572 -1.55828 -1.55828
0.256036 -1.58827 -1.58827
0.260162 -1.65327 -1.65327
0.370445 -1.6577 -1.6577
0.364336 -1.59267 -1.59267
0.258107 -1.62062 -1.62062
0.315274 -1.65536 -1.65536
0.3674 -1.62504 -1.62504
0.310157 -1.59034 -1.59034
0.312724 -1.6227 -1.6227
0.260162 -1.65327 -1.65327
0.264224 -1.71944 -1.71944
0.376477 -1.7239 -1.7239
0.370445 -1.6577 -1.6577
0.262201 -1.68621 -1.68621
0.320321 -1.72154 -1.72154
0.37347 -1.69065 -1.69065
0.315274 -1.65536 -1.65536
0.317806 -1.6883 -1.6883
0.264224 -1.71944 -1.71944
0.268222 -1.78677 -1.78677
0.382432 -1.79127 -1.79127
0.376477 -1.7239 -1.7239
0.266231 -1.75296 -1.75296
0.325298 -1.7889 -1.7889
0.379464 -1.75744 -1.75744
0.320321 -1.72154 -1.72154
0.322818 -1.75508 -1.75508
0.268222 -1.78677 -1.78677
0.272157 -1.85527 -1.85527
0.38831 -1.85979 -1.85979
0.382432 -1.79127 -1.79127
0.270197 -1.82088 -1.82088
0.330204 -1.85741 -1.85741
0.38538 -1.82539 -1.82539
0.325298 -1.7889 -1.7889
0.327759 -1.82301 -1.82301
0.272157 -1.85527 -1.85527
0.276027 -1.92491 -1.92491
0.39411 -1.92947 -1.92947
0.38831 -1.85979 -1.85979
0.2741 -1.88994 -1.88994
0.335039 -1.92707 -1.92707
0.391219 -1.89449 -1.89449
0.330204 -1.85741 -1.85741
0.33263 -1.89209 -1.89209
0.276027 -1.92491 -1.92491
0.279832 -1.99569 -1.99569
0.399832 -2.00028 -2.00028
0.39411 -1.92947 -1.92947
0.277937 -1.96016 -1.96016
0.339803 -1.99787 -1.99787
0.396981 -1.96473 -1.96473
0.335039 -1.92707 -1.92707
0.33743 -1.96232 -1.96232
0.279832 -1.99569 -1.99569
0.283573 -2.06761 -2.06761
0.405476 -2.07223 -2.07223
0.399832 -2.00028 -2.00028
0.281711 -2.03151 -2.03151
0.344495 -2.0698 -2.0698
0.402664 -2.03612 -2.03612
0.339803 -1.99787 -1.99787
0.342158 -2.03369 -2.03369
0.283573 -2.06761 -2.06761
0.287248 -2.14065 -2.14065
0.411042 -2.14531 -2.14531
0.405476 -2.07223 -2.07223
0.285419 -2.10399 -2.10399
0.349116 -2.14286 -2.14286
0.408269 -2.10863 -2.10863
0.344495 -2.0698 -2.0698
0.346815 -2.10619 -2.10619
0.287248 -2.14065 -2.14065
0.290858 -2.2148 -2.2148
0.416529 -2.2195 -2.2195
0.411042 -2.14531 -2.14531
0.289061 -2.17759 -2.17759
0.353665 -2.21703 -2.21703
0.413796 -2.18226 -2.18226
0.349116 -2.14286 -2.14286
0.351399 -2.17981 -2.17981
0.290858 -2.2148 -2.2148
0.294403 -2.29007 -2.29007
0.421937 -2.2948 -2.2948
0.416529 -2.2195 -2.2195
0.292639 -2.2523 -2.2523
0.358141 -2.29232 -2.29232
0.419243 -2.25701 -2.25701
0.353665 -2.21703 -2.21703
0.355912 -2.25454 -2.25454
0.294403 -2.29007 -2.29007
0.297881 -2.36644 -2.36644
0.427266 -2.3712 -2.3712
0.421937 -2.2948 -2.2948
0.29615 -2.32812 -2.32812
0.362544 -2.3687 -2.3687
0.424612 -2.33286 -2.33286
0.358141 -2.29232 -2.29232
0.360352 -2.33037 -2.33037
0.297881 -2.36644 -2.36644
0.301293 -2.4439 -2.4439
0.432516 -2.4487 -2.4487
0.427266 -2.3712 -2.3712
0.299595 -2.40503 -2.40503
0.366875 -2.44618 -2.44618
0.429901 -2.40981 -2.40981
0.362544 -2.3687 -2.3687
0.364719 -2.40731 -2.40731
0.301293 -2.4439 -2.4439
0.304639 -2.52245 -2.52245
0.437685 -2.52728 -2.52728
0.432516 -2.4487 -2.4487
0.302974 -2.48304 -2.48304
0.371133 -2.52475 -2.52475
0.43511 -2.48786 -2.48786
0.366875 -2.44618 -2.44618
0.369013 -2.48533 -2.48533
0.304639 -2.52245 -2.52245
0.307918 -2.60207 -2.60207
0.442775 -2.60694 -2.60694
0.437685 -2.52728 -2.52728
0.306287 -2.56212 -2.56212
0.375318 -2.60439 -2.60439
0.44024 -2.56698 -2.56698
0.371133 -2.52475 -2.52475
0.373234 -2.56444 -2.56444
0.307918 -2.60207 -2.60207
0.31113 -2.68276 -2.68276
0.447785 -2.68767 -2.68767
0.442775 -2.60694 -2.60694
0.309533 -2.64228 -2.64228
0.379429 -2.6851 -2.6851
0.44529 -2.64717 -2.64717
0.375318 -2.60439 -2.60439
0.377382 -2.64461 -2.64461
0.31113 -2.68276 -2.68276
0.314276 -2.76452 -2.76452
0.452714 -2.76946 -2.76946
0.447785 -2.68767 -2.68767
0.312711 -2.72351 -2.72351
0.383466 -2.76688 -2.76688
0.45026 -2.72844 -2.72844
0.379429 -2.6851 -2.6851
0.381457 -2.72586 -2.72586
0.314276 -2.76452 -2.76452
0.317354 -2.84733 -2.84733
0.457563 -2.85231 -2.85231
0.452714 -2.76946 -2.76946
0.315823 -2.80579 -2.80579
0.38743 -2.84971 -2.84971
0.455149 -2.81076 -2.81076
0.383466 -2.76688 -2.76688
0.385457 -2.80816 -2.80816
0.317354 -2.84733 -2.84733
0.320365 -2.93118 -2.93118
0.462331 -2.9362 -2.9362
0.457563 -2.85231 -2.85231
0.318868 -2.88912 -2.88912
0.391319 -2.93358 -2.93358
0.459957 -2.89413 -2.89413
0.38743 -2.84971 -2.84971
0.389384 -2.89151 -2.89151
0.320365 -2.93118 -2.93118
0.323308 -3.01607 -3.01607
0.467019 -3.02113 -3.02113
0.462331 -2.9362 -2.9362
0.321845 -2.9735 -2.9735
0.395134 -3.01849 -3.01849
0.464685 -2.97854 -2.97854
0.391319 -2.93358 -2.93358
0.393236 -2.97591 -2.97591
0.323308 -3.01607 -3.01607
0.326183 -3.102 -3.102
0.471625 -3.10709 -3.10709
0.467019 -3.02113 -3.02113
0.324754 -3.05891 -3.05891
0.398875 -3.10443 -3.10443
0.469332 -3.06398 -3.06398
0.395134 -3.01849 -3.01849
0.397014 -3.06133 -3.06133
0.326183 -3.102 -3.102
0.328991 -3.18894 -3.18894
0.476151 -3.19408 -3.19408
0.471625 -3.10709 -3.10709
0.327595 -3.14534 -3.14534
0.402542 -3.1914 -3.1914
0.473898 -3.15046 -3.15046
0.398875 -3.10443 -3.10443
0.400718 -3.14779 -3.14779
0.328991 -3.18894 -3.18894
0.33173 -3.2769 -3.2769
0.480595 -3.28207 -3.28207
0.476151 -3.19408 -3.19408
0.330369 -3.23279 -3.23279
0.406134 -3.27938 -3.27938
0.478383 -3.23795 -3.23795
0.402542 -3.1914 -3.1914
0.404347 -3.23526 -3.23526
0.33173 -3.2769 -3.2769
0.334402 -3.36586 -3.36586
0.484957 -3.37108 -3.37108
0.480595 -3.28207 -3.28207
0.333075 -3.32125 -3.32125
0.409651 -3.36836 -3.36836
0.482786 -3.32645 -3.32645
0.406134 -3.27938 -3.27938
0.407901 -3.32374 -3.32374
0.334402 -3.36586 -3.36586
0.337005 -3.45582 -3.45582
0.489238 -3.46108 -3.46108
0.484957 -3.37108 -3.37108
0.335712 -3.41072 -3.41072
0.413093 -3.45834 -3.45834
0.487108 -3.41595 -3.41595
0.409651 -3.36836 -3.36836
0.411381 -3.41323 -3.41323
0.337005 -3.45582 -3.45582
0.33954 -3.54678 -3.54678
0.493438 -3.55207 -3.55207
0.489238 -3.46108 -3.46108
0.338281 -3.50118 -3.50118
0.41646 -3.54932 -3.54932
0.491348 -3.50645 -3.50645
0.413093 -3.45834 -3.45834
0.414786 -3.50371 -3.50371
0.33954 -3.54678 -3.54678
0.342006 -3.63871 -3.63871
0.497555 -3.64404 -3.64404
0.493438 -3.55207 -3.55207
0.340781 -3.59262 -3.59262
0.419752 -3.64127 -3.64127
0.495507 -3.59793 -3.59793
0.41646 -3.54932 -3.54932
0.418115 -3.59517 -3.59517
0.342006 -3.63871 -3.63871
0.344404 -3.73162 -3.73162
0.501591 -3.73699 -3.73699
0.497555 -3.64404 -3.64404
0.343214 -3.68505 -3.68505
0.422969 -3.7342 -3.7342
0.499583 -3.6904 -3.6904
0.419752 -3.64127 -3.64127
0.42137 -3.68762 -3.68762
0.344404 -3.73162 -3.73162
0.346733 -3.8255 -3.8255
0.505545 -3.83091 -3.83091
0.501591 -3.73699 -3.73699
0.345577 -3.77844 -3.77844
0.42611 -3.8281 -3.8281
0.503578 -3.78383 -3.78383
0.422969 -3.7342 -3.7342
0.424549 -3.78103 -3.78103
0.346733 -3.8255 -3.8255
0.348993 -3.92034 -3.92034
0.509417 -3.92579 -3.92579
0.505545 -3.83091 -3.83091
0.347872 -3.8728 -3.8728
0.429176 -3.92296 -3.92296
0.507491 -3.87823 -3.87823
0.42611 -3.8281 -3.8281
0.427653 -3.87541 -3.87541
0.348993 -3.92034 -3.92034
0.351185 -4.01612 -4.01612
0.513207 -4.02161 -4.02161
0.509417 -3.92579 -3.92579
0.350098 -3.96811 -3.96811
0.432167 -4.01876 -4.01876
0.511322 -3.97358 -3.97358
0.429176 -3.92296 -3.92296
0.430681 -3.97074 -3.97074
0.351185 -4.01612 -4.01612
0.353308 -4.11285 -4.11285
0.516915 -4.11838 -4.11838
0.513207 -4.02161 -4.02161
0.352255 -4.06437 -4.06437
0.435082 -4.11551 -4.11551
0.515071 -4.06988 -4.06988
0.432167 -4.01876 -4.01876
0.433634 -4.06702 -4.06702
0.353308 -4.11285 -4.11285
0.355362 -4.21051 -4.21051
0.52054 -4.21608 -4.21608
0.516915 -4.11838 -4.11838
0.354344 -4.16157 -4.16157
0.437922 -4.2132 -4.2132
0.518738 -4.16712 -4.16712
0.435082 -4.11551 -4.11551
0.436512 -4.16424 -4.16424
0.355362 -4.21051 -4.21051
0.357347 -4.3091 -4.3091
0.524084 -4.31472 -4.31472
0.52054 -4.21608 -4.21608
0.356363 -4.25969 -4.25969
0.440686 -4.31181 -4.31181
0.522322 -4.26528 -4.26528
0.437922 -4.2132 -4.2132
0.439314 -4.26239 -4.26239
0.357347 -4.3091 -4.3091
0.359263 -4.40861 -4.40861
0.527545 -4.41427 -4.41427
0.524084 -4.31472 -4.31472
0.358314 -4.35875 -4.35875
0.443375 -4.41134 -4.41134
0.525824 -4.36438 -4.36438
0.440686 -4.31181 -4.31181
0.44204 -4.36146 -4.36146
0.359263 -4.40861 -4.40861
0.36111 -4.50904 -4.50904
0.530924 -4.51473 -4.51473
0.527545 -4.41427 -4.41427
0.360195 -4.45871 -4.45871
0.445988 -4.51178 -4.51178
0.529245 -4.46438 -4.46438
0.443375 -4.41134 -4.41134
0.444691 -4.46145 -4.46145
0.36111 -4.50904 -4.50904
0.362888 -4.61036 -4.61036
0.53422 -4.61609 -4.61609
0.530924 -4.51473 -4.51473
0.362008 -4.55959 -4.55959
0.448525 -4.61313 -4.61313
0.532582 -4.5653 -4.5653
0.445988 -4.51178 -4.51178
0.447266 -4.56234 -4.56234
0.362888 -4.61036 -4.61036
0.364597 -4.71258 -4.71258
0.537435 -4.71835 -4.71835
0.53422 -4.61609 -4.61609
0.363751 -4.66136 -4.66136
0.450987 -4.71537 -4.71537
0.535838 -4.66711 -4.66711
0.448525 -4.61313 -4.61313
0.449766 -4.66414 -4.66414
0.364597 -4.71258 -4.71258
0.366237 -4.81569 -4.81569
0.540567 -4.8215 -4.8215
0.537435 -4.71835 -4.71835
0.365426 -4.76402 -4.76402
0.453373 -4.8185 -4.8185
0.539011 -4.76982 -4.76982
0.450987 -4.71537 -4.71537
0.45219 -4.76682 -4.76682
0.366237 -4.81569 -4.81569
0.367808 -4.91968 -4.91968
0.543617 -4.92553 -4.92553
0.540567 -4.8215 -4.8215
0.367031 -4.86757 -4.86757
0.455684 -4.92251 -4.92251
0.542102 -4.8734 -4.8734
0.453373 -4.8185 -4.8185
0.454538 -4.87039 -4.87039
0.367808 -4.91968 -4.91968
0.36931 -5.02453 -5.02453
0.546584 -5.03043 -5.03043
0.543617 -4.92553 -4.92553
0.368568 -4.972 -4.972
0.457919 -5.02739 -5.02739
0.545111 -4.97787 -4.97787
0.455684 -4.92251 -4.92251
0.456811 -4.97484 -4.97484
0.36931 -5.02453 -5.02453
0.370744 -5.13026 -5.13026
0.54947 -5.13619 -5.13619
0.546584 -5.03043 -5.03043
0.370036 -5.07729 -5.07729
0.460078 -5.13313 -5.13313
0.548037 -5.0832 -5.0832
0.457919 -5.02739 -5.02739
0.459008 -5.08015 -5.08015
0.370744 -5.13026 -5.13026
0.372108 -5.23684 -5.23684
0.552273 -5.24281 -5.24281
0.54947 -5.13619 -5.13619
0.371434 -5.18344 -5.18344
0.462162 -5.23973 -5.23973
0.550882 -5.18939 -5.18939
0.460078 -5.13313 -5.13313
0.461129 -5.18632 -5.18632
0.372108 -5.23684 -5.23684
0.373403 -5.34426 -5.34426
0.554994 -5.35027 -5.35027
0.552273 -5.24281 -5.24281
0.372764 -5.29044 -5.29044
0.46417 -5.34718 -5.34718
0.553644 -5.29644 -5.29644
0.462162 -5.23973 -5.23973
0.463175 -5.29335 -5.29335
0.373403 -5.34426 -5.34426
0.37463 -5.45253 -5.45253
0.557633 -5.45858 -5.45858
0.554994 -5.35027 -5.35027
0.374025 -5.39829 -5.39829
0.466103 -5.45546 -5.45546
0.556324 -5.40432 -5.40432
0.46417 -5.34718 -5.34718
0.465146 -5.40122 -5.40122
0.37463 -5.45253 -5.45253
0.375788 -5.56163 -5.56163
0.56019 -5.56772 -5.56772
0.557633 -5.45858 -5.45858
0.375218 -5.50697 -5.50697
0.46796 -5.56458 -5.56458
0.558922 -5.51305 -5.51305
0.466103 -5.45546 -5.45546
0.467041 -5.50992 -5.50992
0.375788 -5.56163 -5.56163
0.376877 -5.67155 -5.67155
0.562666 -5.67768 -5.67768
0.56019 -5.56772 -5.56772
0.376341 -5.61649 -5.61649
0.469743 -5.67453 -5.67453
0.561438 -5.6226 -5.6226
0.46796 -5.56458 -5.56458
0.468861 -5.61945 -5.61945
0.376877 -5.67155 -5.67155
0.377898 -5.78229 -5.78229
0.565059 -5.78846 -5.78846
0.562666 -5.67768 -5.67768
0.377396 -5.72682 -5.72682
0.47145 -5.78529 -5.78529
0.563872 -5.73297 -5.73297
0.469743 -5.67453 -5.67453
0.470605 -5.72981 -5.72981
0.377898 -5.78229 -5.78229
0.37885 -5.89384 -5.89384
0.56737 -5.90005 -5.90005
0.565059 -5.78846 -5.78846
0.378383 -5.83796 -5.83796
0.473081 -5.89686 -5.89686
0.566225 -5.84415 -5.84415
0.47145 -5.78529 -5.78529
0.472275 -5.84097 -5.84097
0.37885 -5.89384 -5.89384
0.379734 -6.00619 -6.00619
0.5696 -6.01244 -6.01244
0.56737 -5.90005 -5.90005
0.3793 -5.94991 -5.94991
0.474638 -6.00923 -6.00923
0.568495 -5.95614 -5.95614
0.473081 -5.89686 -5.89686
0.473869 -5.95294 -5.95294
0.379734 -6.00619 -6.00619
0.380549 -6.11933 -6.11933
0.571748 -6.12562 -6.12562
0.5696 -6.01244 -6.01244
0.38015 -6.06266 -6.06266
0.47612 -6.12239 -6.12239
0.570684 -6.06893 -6.06893
0.474638 -6.00923 -6.00923
0.475388 -6.06571 -6.06571
0.380549 -6.11933 -6.11933
0.381296 -6.23325 -6.23325
0.573815 -6.23958 -6.23958
0.571748 -6.12562 -6.12562
0.380931 -6.17619 -6.17619
0.477527 -6.23633 -6.23633
0.572792 -6.1825 -6.1825
0.47612 -6.12239 -6.12239
0.476833 -6.17926 -6.17926
0.381296 -6.23325 -6.23325
0.381975 -6.34796 -6.34796
0.5758 -6.35432 -6.35432
0.573815 -6.23958 -6.23958
0.381644 -6.29051 -6.29051
0.478859 -6.35106 -6.35106
0.574818 -6.29686 -6.29686
0.477527 -6.23633 -6.23633
0.478202 -6.2936 -6.2936
0.381975 -6.34796 -6.34796
0.382586 -6.46343 -6.46343
0.577704 -6.46983 -6.46983
0.5758 -6.35432 -6.35432
0.382289 -6.4056 -6.4056
0.480116 -6.46655 -6.46655
0.576763 -6.41198 -6.41198
0.478859 -6.35106 -6.35106
0.479497 -6.40871 -6.40871
0.382586 -6.46343 -6.46343
0.383129 -6.57966 -6.57966
0.579527 -6.5861 -6.5861
0.577704 -6.46983 -6.46983
0.382866 -6.52145 -6.52145
0.4813 -6.5828 -6.5828
0.578626 -6.52787 -6.52787
0.480116 -6.46655 -6.46655
0.480717 -6.52458 -6.52458
0.383129 -6.57966 -6.57966
0.383605 -6.69665 -6.69665
0.581269 -6.70313 -6.70313
0.579527 -6.5861 -6.5861
0.383376 -6.63806 -6.63806
0.482408 -6.69981 -6.69981
0.580408 -6.64452 -6.64452
0.4813 -6.5828 -6.5828
0.481863 -6.64121 -6.64121
0.383605 -6.69665 -6.69665
0.384013 -6.81438 -6.81438
0.58293 -6.8209 -6.8209
0.581269 -6.70313 -6.70313
0.383817 -6.75542 -6.75542
0.483443 -6.81756 -6.81756
0.58211 -6.76192 -6.76192
0.482408 -6.69981 -6.69981
0.482935 -6.75859 -6.75859
0.384013 -6.81438 -6.81438
0.384353 -6.93285 -6.93285
0.584511 -6.9394 -6.9394
0.58293 -6.8209 -6.8209
0.384191 -6.87352 -6.87352
0.484403 -6.93605 -6.93605
0.583731 -6.88006 -6.88006
0.483443 -6.81756 -6.81756
0.483932 -6.87671 -6.87671
0.384353 -6.93285 -6.93285
0.384626 -7.05204 -7.05204
0.586011 -7.05864 -7.05864
0.584511 -6.9394 -6.9394
0.384498 -6.99235 -6.99235
0.485289 -7.05526 -7.05526
0.585271 -6.99893 -6.99893
0.484403 -6.93605 -6.93605
0.484855 -6.99556 -6.99556
0.384626 -7.05204 -7.05204
0.384832 -7.17196 -7.17196
0.58743 -7.1786 -7.1786
0.586011 -7.05864 -7.05864
0.384738 -7.11191 -7.11191
0.486102 -7.1752 -7.1752
0.58673 -7.11853 -7.11853
0.485289 -7.05526 -7.05526
0.485705 -7.11514 -7.11514
0.384832 -7.17196 -7.17196
0.384971 -7.2926 -7.2926
0.588769 -7.29927 -7.29927
0.58743 -7.1786 -7.1786
0.38491 -7.23219 -7.23219
0.486841 -7.29585 -7.29585
0.58811 -7.23884 -7.23884
0.486102 -7.1752 -7.1752
0.486481 -7.23544 -7.23544
0.384971 -7.2926 -7.2926
0.385044 -7.41394 -7.41394
0.590028 -7.42064 -7.42064
0.588769 -7.29927 -7.29927
0.385016 -7.35318 -7.35318
0.487507 -7.41721 -7.41721
0.589409 -7.35987 -7.35987
0.486841 -7.29585 -7.29585
0.487183 -7.35645 -7.35645
0.385044 -7.41394 -7.41394
0.385049 -7.53597 -7.53597
0.591208 -7.54272 -7.54272
0.590028 -7.42064 -7.42064
0.385055 -7.47487 -7.47487
0.488099 -7.53927 -7.53927
0.590628 -7.48159 -7.48159
0.487507 -7.41721 -7.41721
0.487812 -7.47815 -7.47815
0.385049 -7.53597 -7.53597
0.384988 -7.6587 -7.6587
0.592307 -7.66548 -7.66548
0.591208 -7.54272 -7.54272
0.385027 -7.59725 -7.59725
0.488619 -7.66202 -7.66202
0.591767 -7.60401 -7.60401
0.488099 -7.53927 -7.53927
0.488368 -7.60056 -7.60056
0.384988 -7.6587 -7.6587
0.384861 -7.78211 -7.78211
0.593327 -7.78892 -7.78892
0.592307 -7.66548 -7.66548
0.384933 -7.72032 -7.72032
0.489065 -7.78544 -7.78544
0.592827 -7.72712 -7.72712
0.488619 -7.66202 -7.66202
0.488851 -7.72364 -7.72364
0.384861 -7.78211 -7.78211
0.384668 -7.90619 -7.90619
0.594268 -7.91304 -7.91304
0.593327 -7.78892 -7.78892
0.384773 -7.84407 -7.84407
0.489439 -7.90955 -7.90955
0.593808 -7.8509 -7.8509
0.489065 -7.78544 -7.78544
0.489261 -7.84741 -7.84741
0.384668 -7.90619 -7.90619
0.38441 -8.03094 -8.03094
0.59513 -8.03783 -8.03783
0.594268 -7.91304 -7.91304
0.384547 -7.96849 -7.96849
0.489741 -8.03431 -8.03431
0.594709 -7.97535 -7.97535
0.489439 -7.90955 -7.90955
0.489599 -7.97185 -7.97185
0.38441 -8.03094 -8.03094
0.384085 -8.15635 -8.15635
0.595913 -8.16327 -8.16327
0.59513 -8.03783 -8.03783
0.384256 -8.09357 -8.09357
0.48997 -8.15974 -8.15974
0.595531 -8.10047 -8.10047
0.489741 -8.03431 -8.03431
0.489864 -8.09695 -8.09695
0.384085 -8.15635 -8.15635
0.383695 -8.28241 -8.28241
0.596617 -8.28936 -8.28936
0.595913 -8.16327 -8.16327
0.383898 -8.2193 -8.2193
0.490127 -8.28582 -8.28582
0.596275 -8.22624 -8.22624
0.48997 -8.15974 -8.15974
0.490058 -8.2227 -8.2227
0.383695 -8.28241 -8.28241
0.38324 -8.40911 -8.40911
0.597243 -8.4161 -8.4161
0.596617 -8.28936 -8.28936
0.383476 -8.34568 -8.34568
0.490213 -8.41254 -8.41254
0.59694 -8.35265 -8.35265
0.490127 -8.28582 -8.28582
0.490179 -8.3491 -8.3491
0.38324 -8.40911 -8.40911
0.382721 -8.53645 -8.53645
0.597791 -8.54347 -8.54347
0.597243 -8.4161 -8.4161
0.382989 -8.4727 -8.4727
0.490227 -8.53989 -8.53989
0.597527 -8.47971 -8.47971
0.490213 -8.41254 -8.41254
0.490229 -8.47614 -8.47614
0.382721 -8.53645 -8.53645
0.382136 -8.66441 -8.66441
0.598261 -8.67147 -8.67147
0.597791 -8.54347 -8.54347
0.382436 -8.60035 -8.60035
0.490169 -8.66787 -8.66787
0.598036 -8.60739 -8.60739
0.490227 -8.53989 -8.53989
0.490207 -8.6038 -8.6038
0.382136 -8.66441 -8.66441
0.381487 -8.793 -8.793
0.598653 -8.80008 -8.80008
0.598261 -8.67147 -8.67147
0.381819 -8.72863 -8.72863
0.490041 -8.79647 -8.79647
0.598466 -8.7357 -8.7357
0.490169 -8.66787 -8.66787
0.490114 -8.7321 -8.7321
0.381487 -8.793 -8.793
0.380774 -8.92219 -8.92219
0.598967 -8.92931 -8.92931
0.598653 -8.80008 -8.80008
0.381138 -8.85752 -8.85752
0.489841 -8.92568 -8.92568
0.59882 -8.86462 -8.86462
0.490041 -8.79647 -8.79647
0.48995 -8.861 -8.861
0.380774 -8.92219 -8.92219
0.379997 -9.05199 -9.05199
0.599205 -9.05914 -9.05914
0.598967 -8.92931 -8.92931
0.380393 -8.98701 -8.98701
0.489571 -9.0555 -9.0555
0.599096 -8.99415 -8.99415
0.489841 -8.92568 -8.92568
0.489715 -8.99051 -8.99051
0.379997 -9.05199 -9.05199
0.379156 -9.18238 -9.18238
0.599365 -9.18956 -9.18956
0.599205 -9.05914 -9.05914
0.379584 -9.11711 -9.11711
0.489231 -9.18591 -9.18591
0.599295 -9.12427 -9.12427
0.489571 -9.0555 -9.0555
0.48941 -9.12063 -9.12063
0.379156 -9.18238 -9.18238
0.378251 -9.31336 -9.31336
0.599449 -9.32057 -9.32057
0.599365 -9.18956 -9.18956
0.378711 -9.2478 -9.2478
0.488821 -9.3169 -9.3169
0.599417 -9.25499 -9.25499
0.489231 -9.18591 -9.18591
0.489035 -9.25133 -9.25133
0.378251 -9.31336 -9.31336
0.377284 -9.44492 -9.44492
0.599456 -9.45216 -9.45216
0.599449 -9.32057 -9.32057
0.377776 -9.37907 -9.37907
0.488341 -9.44848 -9.44848
0.599462 -9.38629 -9.38629
0.488821 -9.3169 -9.3169
0.488589 -9.38262 -9.38262
0.377284 -9.44492 -9.44492
0.376254 -9.57705 -9.57705
0.599388 -9.58432 -9.58432
0.599456 -9.45216 -9.45216
0.376777 -9.51092 -9.51092
0.487791 -9.58063 -9.58063
0.599431 -9.51817 -9.51817
0.488341 -9.44848 -9.44848
0.488075 -9.51448 -9.51448
0.376254 -9.57705 -9.57705
0.375161 -9.70975 -9.70975
0.599243 -9.71705 -9.71705
0.599388 -9.58432 -9.58432
0.375715 -9.64333 -9.64333
0.487172 -9.71334 -9.71334
0.599325 -9.65061 -9.65061
0.487791 -9.58063 -9.58063
0.48749 -9.64691 -9.64691
0.375161 -9.70975 -9.70975
0.374006 -9.843 -9.843
0.599023 -9.85033 -9.85033
0.599243 -9.71705 -9.71705
0.374591 -9.7763 -9.7763
0.486485 -9.8466 -9.8466
0.599142 -9.78362 -9.78362
0.487172 -9.71334 -9.71334
0.486837 -9.7799 -9.7799
0.374006 -9.843 -9.843
0.372788 -9.9768 -9.9768
0.598727 -9.98416 -9.98416
0.599023 -9.85033 -9.85033
0.373405 -9.90983 -9.90983
0.485728 -9.98042 -9.98042
0.598885 -9.91717 -9.91717
0.486485 -9.8466 -9.8466
0.486115 -9.91344 -9.91344
0.372788 -9.9768 -9.9768
0.37151 -10.1111 -10.1111
0.598357 -10.1185 -10.1185
0.598727 -9.98416 -9.98416
0.372157 -10.0439 -10.0439
0.484904 -10.1148 -10.1148
0.598552 -10.0513 -10.0513
0.485728 -9.98042 -9.98042
0.485325 -10.0475 -10.0475
0.37151 -10.1111 -10.1111
0.370169 -10.246 -10.246
0.597912 -10.2534 -10.2534
0.598357 -10.1185 -10.1185
0.370847 -10.1785 -10.1785
0.484011 -10.2497 -10.2497
0.598144 -10.1859 -10.1859
0.484904 -10.1148 -10.1148
0.484466 -10.1821 -10.1821
0.370169 -10.246 -10.246
0.368768 -10.3814 -10.3814
0.597393 -10.3888 -10.3888
0.597912 -10.2534 -10.2534
0.369476 -10.3136 -10.3136
0.483051 -10.3851 -10.3851
0.597662 -10.3211 -10.3211
0.484011 -10.2497 -10.2497
0.483539 -10.3173 -10.3173
0.368768 -10.3814 -10.3814
0.367306 -10.5173 -10.5173
0.596799 -10.5248 -10.5248
0.597393 -10.3888 -10.3888
0.368044 -10.4493 -10.4493
0.482023 -10.521 -10.521
0.597105 -10.4568 -10.4568
0.483051 -10.3851 -10.3851
0.482545 -10.453 -10.453
0.367306 -10.5173 -10.5173
0.365783 -10.6537 -10.6537
0.596132 -10.6612 -10.6612
0.596799 -10.5248 -10.5248
0.366552 -10.5855 -10.5855
0.480928 -10.6574 -10.6574
0.596475 -10.5929 -10.5929
0.482023 -10.521 -10.521
0.481484 -10.5892 -10.5892
0.365783 -10.6537 -10.6537
0.3642 -10.7907 -10.7907
0.595391 -10.7982 -10.7982
0.596132 -10.6612 -10.6612
0.364999 -10.7221 -10.7221
0.479766 -10.7944 -10.7944
0.595771 -10.7296 -10.7296
0.480928 -10.6574 -10.6574
0.480355 -10.7258 -10.7258
0.3642 -10.7907 -10.7907
0.362557 -10.9281 -10.9281
0.594578 -10.9356 -10.9356
0.595391 -10.7982 -10.7982
0.363386 -10.8593 -10.8593
0.478538 -10.9318 -10.9318
0.594994 -10.8668 -10.8668
0.479766 -10.7944 -10.7944
0.47916 -10.863 -10.863
0.362557 -10.9281 -10.9281
0.360855 -11.066 -11.066
0.593691 -11.0735 -11.0735
0.594578 -10.9356 -10.9356
0.361714 -10.997 -10.997
0.477243 -11.0697 -11.0697
0.594144 -11.0045 -11.0045
0.478538 -10.9318 -10.9318
0.477899 -11.0007 -11.0007
0.360855 -11.066 -11.066
0.359094 -11.2044 -11.2044
0.592733 -11.2119 -11.2119
0.593691 -11.0735 -11.0735
0.359982 -11.1351 -11.1351
0.475883 -11.2081 -11.2081
0.593221 -11.1427 -11.1427
0.477243 -11.0697 -11.0697
0.476572 -11.1388 -11.1388
0.359094 -11.2044 -11.2044
0.357274 -11.3432 -11.3432
0.591702 -11.3508 -11.3508
0.592733 -11.2119 -11.2119
0.358191 -11.2737 -11.2737
0.474458 -11.347 -11.347
0.592226 -11.2813 -11.2813
0.475883 -11.2081 -11.2081
0.475179 -11.2775 -11.2775
0.357274 -11.3432 -11.3432
0.355395 -11.4825 -11.4825
0.590599 -11.4902 -11.4902
0.591702 -11.3508 -11.3508
0.356342 -11.4128 -11.4128
0.472967 -11.4863 -11.4863
0.591159 -11.4204 -11.4204
0.474458 -11.347 -11.347
0.473721 -11.4166 -11.4166
0.355395 -11.4825 -11.4825
0.353458 -11.6223 -11.6223
0.589425 -11.6299 -11.6299
0.590599 -11.4902 -11.4902
0.354434 -11.5523 -11.5523
0.471412 -11.6261 -11.6261
0.590021 -11.56 -11.56
0.472967 -11.4863 -11.4863
0.472198 -11.5561 -11.5561
0.353458 -11.6223 -11.6223
0.351464 -11.7625 -11.7625
0.58818 -11.7702 -11.7702
0.589425 -11.6299 -11.6299
0.352468 -11.6923 -11.6923
0.469792 -11.7663 -11.7663
0.588811 -11.7 -11.7
0.471412 -11.6261 -11.6261
0.47061 -11.6961 -11.6961
0.351464 -11.7625 -11.7625
0.349412 -11.9031 -11.9031
0.586864 -11.9108 -11.9108
0.58818 -11.7702 -11.7702
0.350445 -11.8328 -11.8328
0.468108 -11.9069 -11.9069
0.587531 -11.8404 -11.8404
0.469792 -11.7663 -11.7663
0.468958 -11.8366 -11.8366
0.349412 -11.9031 -11.9031
0.347303 -12.0442 -12.0442
0.585478 -12.0519 -12.0519
0.586864 -11.9108 -11.9108
0.348364 -11.9736 -11.9736
0.46636 -12.048 -12.048
0.58618 -11.9813 -11.9813
0.468108 -11.9069 -11.9069
0.467242 -11.9774 -11.9774
0.347303 -12.0442 -12.0442
0.345137 -12.1857 -12.1857
0.584022 -12.1934 -12.1934
0.585478 -12.0519 -12.0519
0.346227 -12.1149 -12.1149
0.46455 -12.1895 -12.1895
0.584759 -12.1226 -12.1226
0.46636 -12.048 -12.048
0.465463 -12.1187 -12.1187
0.345137 -12.1857 -12.1857
0.342915 -12.3276 -12.3276
0.582497 -12.3354 -12.3354
0.584022 -12.1934 -12.1934
0.344033 -12.2566 -12.2566
0.462676 -12.3315 -12.3315
0.583268 -12.2644 -12.2644
0.46455 -12.1895 -12.1895
0.463621 -12.2604 -12.2604
0.342915 -12.3276 -12.3276
0.340637 -12.4699 -12.4699
0.580902 -12.4777 -12.4777
0.582497 -12.3354 -12.3354
0.341783 -12.3987 -12.3987
0.460739 -12.4738 -12.4738
0.581708 -12.4065 -12.4065
0.462676 -12.3315 -12.3315
0.461715 -12.4026 -12.4026
0.340637 -12.4699 -12.4699
0.338303 -12.6127 -12.6127
0.579239 -12.6205 -12.6205
0.580902 -12.4777 -12.4777
0.339477 -12.5413 -12.5413
0.458741 -12.6165 -12.6165
0.580079 -12.549 -12.549
0.460739 -12.4738 -12.4738
0.459748 -12.5451 -12.5451
0.338303 -12.6127 -12.6127
0.335915 -12.7558 -12.7558
0.577507 -12.7636 -12.7636
0.579239 -12.6205 -12.6205
0.337116 -12.6842 -12.6842
0.45668 -12.7596 -12.7596
0.578381 -12.692 -12.692
0.458741 -12.6165 -12.6165
0.457718 -12.688 -12.688
0.335915 -12.7558 -12.7558
0.333471 -12.8993 -12.8993
0.575706 -12.9071 -12.9071
0.577507 -12.7636 -12.7636
0.3347 -12.8275 -12.8275
0.454558 -12.9031 -12.9031
0.576615 -12.8353 -12.8353
0.45668 -12.7596 -12.7596
0.455627 -12.8313 -12.8313
0.333471 -12.8993 -12.8993
0.330973 -13.0431 -13.0431
0.573839 -13.051 -13.051
0.575706 -12.9071 -12.9071
0.332229 -12.9711 -12.9711
0.452376 -13.047 -13.047
0.574781 -12.979 -12.979
0.454558 -12.9031 -12.9031
0.453475 -12.975 -12.975
0.330973 -13.0431 -13.0431
0.328421 -13.1874 -13.1874
0.571904 -13.1952 -13.1952
0.573839 -13.051 -13.051
0.329704 -13.1152 -13.1152
0.450132 -13.1912 -13.1912
0.57288 -13.123 -13.123
0.452376 -13.047 -13.047
0.451261 -13.1191 -13.1191
0.328421 -13.1874 -13.1874
0.325815 -13.332 -13.332
0.569902 -13.3398 -13.3398
0.571904 -13.1952 -13.1952
0.327125 -13.2596 -13.2596
0.447828 -13.3358 -13.3358
0.570911 -13.2675 -13.2675
0.450132 -13.1912 -13.1912
0.448987 -13.2635 -13.2635
0.325815 -13.332 -13.332
0.323156 -13.4769 -13.4769
0.567833 -13.4848 -13.4848
0.569902 -13.3398 -13.3398
0.324492 -13.4044 -13.4044
0.445464 -13.4808 -13.4808
0.568876 -13.4123 -13.4123
0.447828 -13.3358 -13.3358
0.446654 -13.4083 -13.4083
0.323156 -13.4769 -13.4769
0.320444 -13.6222 -13.6222
0.565699 -13.6301 -13.6301
0.567833 -13.4848 -13.4848
0.321807 -13.5495 -13.5495
0.443041 -13.6261 -13.6261
0.566774 -13.5574 -13.5574
0.445464 -13.4808 -13.4808
0.44426 -13.5534 -13.5534
0.320444 -13.6222 -13.6222
0.31768 -13.7678 -13.7678
0.563499 -13.7757 -13.7757
0.565699 -13.6301 -13.6301
0.319069 -13.695 -13.695
0.440559 -13.7717 -13.7717
0.564607 -13.7029 -13.7029
0.443041 -13.6261 -13.6261
0.441807 -13.6989 -13.6989
0.31768 -13.7678 -13.7678
0.314864 -13.9138 -13.9138
0.561233 -13.9217 -13.9217
0.563499 -13.7757 -13.7757
0.316278 -13.8407 -13.8407
0.438018 -13.9177 -13.9177
0.562374 -13.8487 -13.8487
0.440559 -13.7717 -13.7717
0.439296 -13.8447 -13.8447
0.314864 -13.9138 -13.9138
0.311996 -14.06 -14.06
0.558903 -14.068 -14.068
0.561233 -13.9217 -13.9217
0.313436 -13.9869 -13.9869
0.435419 -14.064 -14.064
0.560076 -13.9948 -13.9948
0.438018 -13.9177 -13.9177
0.436726 -13.9908 -13.9908
0.311996 -14.06 -14.06
0.309077 -14.2066 -14.2066
0.556508 -14.2146 -14.2146
0.558903 -14.068 -14.068
0.310543 -14.1333 -14.1333
0.432762 -14.2106 -14.2106
0.557713 -14.1412 -14.1412
0.435419 -14.064 -14.064
0.434097 -14.1372 -14.1372
0.309077 -14.2066 -14.2066
0.306107 -14.3535 -14.3535
0.554049 -14.3615 -14.3615
0.556508 -14.2146 -14.2146
0.307598 -14.28 -14.28
0.430047 -14.3574 -14.3574
0.555287 -14.288 -14.288
0.432762 -14.2106 -14.2106
0.431412 -14.284 -14.284
0.306107 -14.3535 -14.3535
0.303087 -14.5007 -14.5007
0.551527 -14.5086 -14.5086
0.554049 -14.3615 -14.3615
0.304603 -14.4271 -14.4271
0.427276 -14.5046 -14.5046
0.552796 -14.435 -14.435
0.430047 -14.3574 -14.3574
0.428669 -14.431 -14.431
0.303087 -14.5007 -14.5007
0.300016 -14.6482 -14.6482
0.548941 -14.6561 -14.6561
0.551527 -14.5086 -14.5086
0.301558 -14.5744 -14.5744
0.424448 -14.6521 -14.6521
0.550242 -14.5823 -14.5823
0.427276 -14.5046 -14.5046
0.425869 -14.5783 -14.5783
0.300016 -14.6482 -14.6482
0.296896 -14.7959 -14.7959
0.546293 -14.8039 -14.8039
0.548941 -14.6561 -14.6561
0.298462 -14.722 -14.722
0.421564 -14.7999 -14.7999
0.547625 -14.73 -14.73
0.424448 -14.6521 -14.6521
0.423013 -14.726 -14.726
0.296896 -14.7959 -14.7959
0.293727 -14.9439 -14.9439
0.543582 -14.9519 -14.9519
0.546293 -14.8039 -14.8039
0.295318 -14.8699 -14.8699
0.418624 -14.9479 -14.9479
0.544945 -14.8779 -14.8779
0.421564 -14.7999 -14.7999
0.420101 -14.8738 -14.8738
0.293727 -14.9439 -14.9439
0.29051 -15.0922 -15.0922
0.540809 -15.1002 -15.1002
0.543582 -14.9519 -14.9519
0.292125 -15.018 -15.018
0.415628 -15.0962 -15.0962
0.542203 -15.026 -15.026
0.418624 -14.9479 -14.9479
0.417133 -15.022 -15.022
0.29051 -15.0922 -15.0922
0.287244 -15.2408 -15.2408
0.537975 -15.2488 -15.2488
0.540809 -15.1002 -15.1002
0.288883 -15.1665 -15.1665
0.412578 -15.2447 -15.2447
0.5394 -15.1745 -15.1745
0.415628 -15.0962 -15.0962
0.41411 -15.1704 -15.1704
0.287244 -15.2408 -15.2408
0.28393 -15.3896 -15.3896
0.535079 -15.3976 -15.3976
0.537975 -15.2488 -15.2488
0.285593 -15.3151 -15.3151
0.409474 -15.3935 -15.3935
0.536535 -15.3231 -15.3231
0.412578 -15.2447 -15.2447
0.411033 -15.3191 -15.3191
0.28393 -15.3896 -15.3896
0.280569 -15.5386 -15.5386
0.532124 -15.5466 -15.5466
0.535079 -15.3976 -15.3976
0.282256 -15.4641 -15.4641
0.406315 -15.5426 -15.5426
0.533609 -15.4721 -15.4721
0.409474 -15.3935 -15.3935
0.407901 -15.468 -15.468
0.280569 -15.5386 -15.5386
0.277161 -15.6879 -15.6879
0.529107 -15.6959 -15.6959
0.532124 -15.5466 -15.5466
0.278871 -15.6132 -15.6132
0.403103 -15.6919 -15.6919
0.530623 -15.6212 -15.6212
0.406315 -15.5426 -15.5426
0.404716 -15.6172 -15.6172
0.277161 -15.6879 -15.6879
0.273707 -15.8374 -15.8374
0.526032 -15.8454 -15.8454
0.529107 -15.6959 -15.6959
0.27544 -15.7626 -15.7626
0.399838 -15.8414 -15.8414
0.527577 -15.7706 -15.7706
0.403103 -15.6919 -15.6919
0.401477 -15.7666 -15.7666
0.273707 -15.8374 -15.8374
0.270206 -15.9871 -15.9871
0.522896 -15.9951 -15.9951
0.526032 -15.8454 -15.8454
0.271962 -15.9122 -15.9122
0.39652 -15.9911 -15.9911
0.524471 -15.9202 -15.9202
0.399838 -15.8414 -15.8414
0.398186 -15.9162 -15.9162
0.270206 -15.9871 -15.9871
0.26666 -16.137 -16.137
0.519702 -16.145 -16.145
0.522896 -15.9951 -15.9951
0.268439 -16.062 -16.062
0.39315 -16.141 -16.141
0.521307 -16.07 -16.07
0.39652 -15.9911 -15.9911
0.394842 -16.066 -16.066
0.26666 -16.137 -16.137
0.263069 -16.2871 -16.2871
0.51645 -16.2951 -16.2951
0.519702 -16.145 -16.145
0.26487 -16.2121 -16.2121
0.389728 -16.2911 -16.2911
0.518084 -16.2201 -16.2201
0.39315 -16.141 -16.141
0.391446 -16.216 -16.216
0.263069 -16.2871 -16.2871
0.259433 -16.4375 -16.4375
0.51314 -16.4455 -16.4455
0.51645 -16.2951 -16.2951
0.261256 -16.3623 -16.3623
0.386255 -16.4414 -16.4414
0.514802 -16.3703 -16.3703
0.389728 -16.2911 -16.2911
0.387998 -16.3663 -16.3663
0.259433 -16.4375 -16.4375
0.255752 -16.588 -16.588
0.509772 -16.596 -16.596
0.51314 -16.4455 -16.4455
0.257598 -16.5127 -16.5127
0.382731 -16.592 -16.592
0.511463 -16.5207 -16.5207
0.386255 -16.4414 -16.4414
0.384499 -16.5167 -16.5167
0.255752 -16.588 -16.588
0.252028 -16.7387 -16.7387
0.506347 -16.7467 -16.7467
0.509772 -16.596 -16.596
0.253896 -16.6633 -16.6633
0.379156 -16.7426 -16.7426
0.508066 -16.6713 -16.6713
0.382731 -16.592 -16.592
0.38095 -16.6673 -16.6673
0.252028 -16.7387 -16.7387
0.248261 -16.8895 -16.8895
0.502865 -16.8975 -16.8975
0.506347 -16.7467 -16.7467
0.25015 -16.8141 -16.8141
0.375532 -16.8935 -16.8935
0.504613 -16.8221 -16.8221
0.379156 -16.7426 -16.7426
0.37735 -16.818 -16.818
0.248261 -16.8895 -16.8895
0.244451 -17.0405 -17.0405
0.499328 -17.0485 -17.0485
0.502865 -16.8975 -16.8975
0.246361 -16.965 -16.965
0.371858 -17.0445 -17.0445
0.501104 -16.973 -16.973
0.375532 -16.8935 -16.8935
0.373701 -16.969 -16.969
0.244451 -17.0405 -17.0405
0.240598 -17.1917 -17.1917
0.495734 -17.1997 -17.1997
0.499328 -17.0485 -17.0485
0.242529 -17.1161 -17.1161
0.368134 -17.1957 -17.1957
0.497538 -17.1241 -17.1241
0.371858 -17.0445 -17.0445
0.370002 -17.1201 -17.1201
0.240598 -17.1917 -17.1917
0.236703 -17.343 -17.343
0.492086 -17.351 -17.351
0.495734 -17.1997 -17.1997
0.238655 -17.2674 -17.2674
0.364363 -17.347 -17.347
0.493917 -17.2753 -17.2753
0.368134 -17.1957 -17.1957
0.366255 -17.2713 -17.2713
0.236703 -17.343 -17.343
0.232766 -17.4945 -17.4945
0.488382 -17.5025 -17.5025
0.492086 -17.351 -17.351
0.23474 -17.4187 -17.4187
0.360543 -17.4985 -17.4985
0.490241 -17.4267 -17.4267
0.364363 -17.347 -17.347
0.362459 -17.4227 -17.4227
0.232766 -17.4945 -17.4945
0.228789 -17.6461 -17.6461
0.484625 -17.6541 -17.6541
0.488382 -17.5025 -17.5025
0.230783 -17.5703 -17.5703
0.356675 -17.6501 -17.6501
0.48651 -17.5782 -17.5782
0.360543 -17.4985 -17.4985
0.358615 -17.5742 -17.5742
0.228789 -17.6461 -17.6461
0.224771 -17.7978 -17.7978
0.480813 -17.8058 -17.8058
0.484625 -17.6541 -17.6541
0.226785 -17.7219 -17.7219
0.35276 -17.8018 -17.8018
0.482725 -17.7299 -17.7299
0.356675 -17.6501 -17.6501
0.354723 -17.7259 -17.7259
0.224771 -17.7978 -17.7978
0.220713 -17.9496 -17.9496
0.476948 -17.9576 -17.9576
0.480813 -17.8058 -17.8058
0.222747 -17.8737 -17.8737
0.348799 -17.9536 -17.9536
0.478887 -17.8817 -17.8817
0.35276 -17.8018 -17.8018
0.350785 -17.8777 -17.8777
0.220713 -17.9496 -17.9496
0.216615 -18.1016 -18.1016
0.47303 -18.1095 -18.1095
0.476948 -17.9576 -17.9576
0.218669 -18.0256 -18.0256
0.344791 -18.1055 -18.1055
0.474996 -18.0335 -18.0335
0.348799 -17.9536 -17.9536
0.3468 -18.0295 -18.0295
0.216615 -18.1016 -18.1016
0.212478 -18.2536 -18.2536
0.46906 -18.2615 -18.2615
0.47303 -18.1095 -18.1095
0.214551 -18.1776 -18.1776
0.340737 -18.2576 -18.2576
0.471051 -18.1855 -18.1855
0.344791 -18.1055 -18.1055
0.342769 -18.1815 -18.1815
0.212478 -18.2536 -18.2536
0.208302 -18.4057 -18.4057
0.465037 -18.4137 -18.4137
0.46906 -18.2615 -18.2615
0.210395 -18.3297 -18.3297
0.336638 -18.4097 -18.4097
0.467055 -18.3376 -18.3376
0.340737 -18.2576 -18.2576
0.338693 -18.3336 -18.3336
0.208302 -18.4057 -18.4057
0.204088 -18.558 -18.558
0.460964 -18.5659 -18.5659
0.465037 -18.4137 -18.4137
0.2062 -18.4818 -18.4818
0.332494 -18.5619 -18.5619
0.463007 -18.4898 -18.4898
0.336638 -18.4097 -18.4097
0.334572 -18.4858 -18.4858
0.204088 -18.558 -18.558
0.199836 -18.7102 -18.7102
0.45684 -18.7181 -18.7181
0.460964 -18.5659 -18.5659
0.201967 -18.6341 -18.6341
0.328307 -18.7142 -18.7142
0.458908 -18.642 -18.642
0.332494 -18.5619 -18.5619
0.330406 -18.638 -18.638
0.199836 -18.7102 -18.7102
0.195547 -18.8626 -18.8626
0.452666 -18.8705 -18.8705
0.45684 -18.7181 -18.7181
0.197697 -18.7864 -18.7864
0.324075 -18.8665 -18.8665
0.454759 -18.7943 -18.7943
0.328307 -18.7142 -18.7142
0.326196 -18.7904 -18.7904
0.195547 -18.8626 -18.8626
0.191221 -19.015 -19.015
0.448444 -19.0229 -19.0229
0.452666 -18.8705 -18.8705
0.193389 -18.9388 -18.9388
0.319802 -19.019 -19.019
0.450561 -18.9467 -18.9467
0.324075 -18.8665 -18.8665
0.321944 -18.9427 -18.9427
0.191221 -19.015 -19.015
0.186859 -19.1675 -19.1675
0.444175 -19.1754 -19.1754
0.448444 -19.0229 -19.0229
0.189045 -19.0913 -19.0913
0.315488 -19.1714 -19.1714
0.446315 -19.0991 -19.0991
0.319802 -19.019 -19.019
0.31765 -19.0952 -19.0952
0.186859 -19.1675 -19.1675
0.182458 -19.32 -19.32
0.439865 -19.3279 -19.3279
0.444175 -19.1754 -19.1754
0.184663 -19.2437 -19.2437
0.311134 -19.3239 -19.3239
0.442025 -19.2516 -19.2516
0.315488 -19.1714 -19.1714
0.313316 -19.2477 -19.2477
0.182458 -19.32 -19.32
0.17802 -19.4726 -19.4726
0.435518 -19.4804 -19.4804
0.439865 -19.3279 -19.3279
0.180244 -19.3963 -19.3963
0.306743 -19.4765 -19.4765
0.437695 -19.4041 -19.4041
0.311134 -19.3239 -19.3239
0.308943 -19.4002 -19.4002
0.17802 -19.4726 -19.4726
0.173539 -19.6252 -19.6252
0.431145 -19.633 -19.633
0.435518 -19.4804 -19.4804
0.175785 -19.5489 -19.5489
0.302318 -19.6291 -19.6291
0.433334 -19.5567 -19.5567
0.306743 -19.4765 -19.4765
0.304535 -19.5528 -19.5528
0.173539 -19.6252 -19.6252
0.169011 -19.7778 -19.7778
0.426765 -19.7856 -19.7856
0.431145 -19.633 -19.633
0.171282 -19.7015 -19.7015
0.297851 -19.7817 -19.7817
0.428954 -19.7093 -19.7093
0.302318 -19.6291 -19.6291
0.30009 -19.7054 -19.7054
0.169011 -19.7778 -19.7778
0.164436 -19.9306 -19.9306
0.422419 -19.9385 -19.9385
0.426765 -19.7856 -19.7856
0.166728 -19.8542 -19.8542
0.293328 -19.9345 -19.9345
0.424583 -19.862 -19.862
0.297851 -19.7817 -19.7817
0.295601 -19.8581 -19.8581
0.164436 -19.9306 -19.9306
0.159883 -20.0834 -20.0834
0.418069 -20.0919 -20.0919
0.422419 -19.9385 -19.9385
0.162148 -20.007 -20.007
0.288742 -20.0876 -20.0876
0.420269 -20.015 -20.015
0.293328 -19.9345 -19.9345
0.291029 -20.011 -20.011
      </DataArray> 
      <DataArray type="Float64" NumberOfComponents="4" Name="CauchyStress" format="ascii">
-10561.4 -3182.77 0 -2492.79
-6815.67 128.809 0 107.262
-5101.2 -553.897 0 -276.651
-4819.59 -1452.16 0 -189.715
-7576.31 153.265 0 -340.883
-6350.87 -391.685 0 -356.766
-5006.82 -1043.73 0 -323.607
-5658.96 -1705.52 0 -608.249
-6272.68 -859.632 0 -566.237
-6815.67 128.809 0 107.262
-6756.24 73.5528 0 40.5998
-5176.03 -167.355 0 -125.815
-5101.2 -553.897 0 -276.651
-6764.15 -24.8727 0 52.1001
-6111.26 -58.398 0 -50.8816
-5172.14 -286.007 0 -196.229
-6350.87 -391.685 0 -356.766
-6188.08 -141.339 0 -138.421
-6756.24 73.5528 0 40.5998
-6882.53 -24.4914 0 27.4569
-5110.51 -33.8111 0 -39.2544
-5176.03 -167.355 0 -125.815
-6828.99 47.3517 0 42.3256
-6031.55 -3.826 0 6.2059
-5136.64 -84.6586 0 -69.3264
-6111.26 -58.398 0 -50.8816
-6067.84 -23.2915 0 -18.3865
-6882.53 -24.4914 0 27.4569
-6912.55 6.9098 0 15.7509
-5065.97 -5.39606 0 -18.2593
-5110.51 -33.8111 0 -39.2544
-6899.52 -22.4403 0 12.5797
-5994.73 3.164 0 16.8695
-5090.75 -13.0138 0 -25.5413
-6031.55 -3.826 0 6.2059
-6006.03 3.57418 0 17.8503
-6912.55 6.9098 0 15.7509
-6936.99 -8.20044 0 22.4409
-5021.45 5.11959 0 -14.9988
-5065.97 -5.39606 0 -18.2593
-6930.15 4.7584 0 22.059
-5977.63 2.42559 0 11.8387
-5040.09 1.40384 0 -14.7925
-5994.73 3.164 0 16.8695
-5987.96 2.10495 0 13.1391
-6936.99 -8.20044 0 22.4409
-6926.3 0.979685 0 24.4058
-4990.71 3.11903 0 -18.7942
-5021.45 5.11959 0 -14.9988
-6932.31 -5.99639 0 21.6722
-5956.39 0.956216 0 7.62548
-5006.57 4.66741 0 -17.0774
-5977.63 2.42559 0 11.8387
-5966.39 2.14992 0 10.1394
-6926.3 0.979685 0 24.4058
-6909.95 -1.94337 0 29.4431
-4960.94 1.20339 0 -21.4677
-4990.71 3.11903 0 -18.7942
-6920.14 0.707585 0 27.7171
-5933.77 -0.652468 0 5.07202
-4974.91 2.20475 0 -20.146
-5956.39 0.956216 0 7.62548
-5946 -0.112788 0 5.78099
-6909.95 -1.94337 0 29.4431
-6881.66 0.0846029 0 32.9923
-4934.43 -1.3472 0 -23.1088
-4960.94 1.20339 0 -21.4677
-6896.18 -1.39927 0 30.8149
-5907.26 -1.53537 0 4.6136
-4947.85 -0.158576 0 -22.579
-5933.77 -0.652468 0 5.07202
-5920.58 -1.05427 0 4.71233
-6881.66 0.0846029 0 32.9923
-6850.58 -0.50593 0 37.1287
-4907.9 -2.85935 0 -23.03
-4934.43 -1.3472 0 -23.1088
-6866.7 0.0433991 0 35.2644
-5879.1 -2.2016 0 5.67
-4920.98 -2.17895 0 -23.1985
-5907.26 -1.53537 0 4.6136
-5893.52 -1.95151 0 4.94773
-6850.58 -0.50593 0 37.1287
-6816.14 -0.130244 0 40.8555
-4881.93 -3.91217 0 -21.9925
-4907.9 -2.85935 0 -23.03
-6833.5 -0.411352 0 38.9062
-5849.33 -2.50756 0 7.63323
-4894.97 -3.46107 0 -22.6392
-5879.1 -2.2016 0 5.67
-5864.27 -2.35952 0 6.57439
-6816.14 -0.130244 0 40.8555
-6780.8 -0.278799 0 44.6341
-4855.85 -4.44928 0 -20.2139
-4881.93 -3.91217 0 -21.9925
-6798.6 -0.150639 0 42.8001
-5818.9 -2.7028 0 10.1656
-4868.86 -4.22154 0 -21.1602
-5849.33 -2.50756 0 7.63323
-5834.22 -2.62969 0 8.84516
-6780.8 -0.278799 0 44.6341
-6744.67 -0.255166 0 48.2738
-4829.84 -4.73004 0 -18.0766
-4855.85 -4.44928 0 -20.2139
-6762.77 -0.285252 0 46.4417
-5787.97 -2.77725 0 12.96
-4842.86 -4.61969 0 -19.1836
-5818.9 -2.7028 0 10.1656
-5803.45 -2.7435 0 11.5411
-6744.67 -0.255166 0 48.2738
-6708.34 -0.329138 0 51.8654
-4803.76 -4.82958 0 -15.7309
-4829.84 -4.73004 0 -18.0766
-6726.53 -0.280828 0 50.0882
-5756.85 -2.81465 0 15.8859
-4816.79 -4.79413 0 -16.9178
-5787.97 -2.77725 0 12.96
-5772.43 -2.80245 0 14.4139
-6708.34 -0.329138 0 51.8654
-6671.88 -0.377506 0 55.3797
-4777.68 -4.84235 0 -13.3122
-4803.76 -4.82958 0 -15.7309
-6690.12 -0.356647 0 53.6264
-5725.61 -2.82098 0 18.84
-4790.72 -4.84482 0 -14.5273
-5756.85 -2.81465 0 15.8859
-5741.23 -2.81855 0 17.3626
-6671.88 -0.377506 0 55.3797
-6635.4 -0.443555 0 58.8325
-4751.57 -4.80573 0 -10.875
-4777.68 -4.84235 0 -13.3122
-6653.64 -0.408085 0 57.1161
-5694.33 -2.8195 0 21.783
-4764.62 -4.8277 0 -12.0925
-5725.61 -2.82098 0 18.84
-5709.98 -2.82153 0 20.3151
-6635.4 -0.443555 0 58.8325
-6598.91 -0.508455 0 62.2211
-4725.46 -4.7486 0 -8.45749
-4751.57 -4.80573 0 -10.875
-6617.15 -0.476371 0 60.5338
-5663.03 -2.8135 0 24.6879
-4738.52 -4.77899 0 -9.66281
-5694.33 -2.8195 0 21.783
-5678.68 -2.8163 0 23.241
-6598.91 -0.508455 0 62.2211
-6562.43 -0.577765 0 65.548
-4699.35 -4.68278 0 -6.07373
-4725.46 -4.7486 0 -8.45749
-6580.67 -0.542426 0 63.8927
-5631.73 -2.80835 0 27.5458
-4712.41 -4.71614 0 -7.26062
-5663.03 -2.8135 0 24.6879
-5647.38 -2.81089 0 26.1232
-6562.43 -0.577765 0 65.548
-6525.95 -0.649389 0 68.8137
-4673.23 -4.61552 0 -3.73182
-4699.35 -4.68278 0 -6.07373
-6544.19 -0.613377 0 67.1883
-5600.43 -2.80495 0 30.3517
-4686.29 -4.64915 0 -4.89737
-5631.73 -2.80835 0 27.5458
-5616.08 -2.80628 0 28.9554
-6525.95 -0.649389 0 68.8137
-6489.48 -0.723599 0 72.0185
-4647.11 -4.54948 0 -1.43387
-4673.23 -4.61552 0 -3.73182
-6507.71 -0.686133 0 70.4237
-5569.12 -2.80418 0 33.1047
-4660.17 -4.58223 0 -2.57725
-5600.43 -2.80495 0 30.3517
-5584.77 -2.80426 0 31.7349
-6489.48 -0.723599 0 72.0185
-6453.01 -0.80036 0 75.1631
-4620.98 -4.48595 0 0.819399
-4647.11 -4.54948 0 -1.43387
-6471.24 -0.761691 0 73.5983
-5537.82 -2.80609 0 35.8046
-4634.05 -4.51738 0 -0.301673
-5569.12 -2.80418 0 33.1047
-5553.47 -2.80478 0 34.4613
-6453.01 -0.80036 0 75.1631
-6416.53 -0.87946 0 78.2476
-4594.86 -4.42518 0 3.02841
-4620.98 -4.48595 0 0.819399
-6434.77 -0.839614 0 76.7128
-5506.51 -2.81065 0 38.4521
-4607.92 -4.45521 0 1.92941
-5537.82 -2.80609 0 35.8046
-5522.17 -2.80805 0 37.1349
-6416.53 -0.87946 0 78.2476
-6380.06 -0.960916 0 81.2725
-4568.73 -4.36716 0 5.19368
-4594.86 -4.42518 0 3.02841
-6398.3 -0.919906 0 79.7675
-5475.21 -2.81774 0 41.0476
-4581.8 -4.39584 0 4.11647
-5506.51 -2.81065 0 38.4521
-5490.86 -2.81389 0 39.7563
-6380.06 -0.960916 0 81.2725
-6343.58 -1.04456 0 84.2381
-4542.61 -4.31174 0 7.31582
-4568.73 -4.36716 0 5.19368
-6361.82 -1.00247 0 82.7627
-5443.9 -2.82721 0 43.5917
-4555.67 -4.33914 0 6.26011
-5475.21 -2.81774 0 41.0476
-5459.55 -2.82219 0 42.326
-6343.58 -1.04456 0 84.2381
-6307.1 -1.13032 0 87.1446
-4516.48 -4.25872 0 9.39533
-4542.61 -4.31174 0 7.31582
-6325.34 -1.08718 0 85.6987
-5412.59 -2.83892 0 46.0849
-4529.54 -4.28494 0 8.36088
-5443.9 -2.82721 0 43.5917
-5428.24 -2.83279 0 44.8447
-6307.1 -1.13032 0 87.1446
-6270.62 -1.21806 0 89.9925
-4490.34 -4.20794 0 11.4326
-4516.48 -4.25872 0 9.39533
-6288.86 -1.17395 0 88.5759
-5381.27 -2.85274 0 48.5277
-4503.41 -4.23306 0 10.4192
-5412.59 -2.83892 0 46.0849
-5396.93 -2.84557 0 47.3126
-6270.62 -1.21806 0 89.9925
-6234.14 -1.30769 0 92.7821
-4464.21 -4.15927 0 13.4281
-4490.34 -4.20794 0 11.4326
-6252.38 -1.26265 0 91.3946
-5349.96 -2.86857 0 50.9204
-4477.28 -4.18335 0 12.4356
-5381.27 -2.85274 0 48.5277
-5365.62 -2.86041 0 49.7303
-6234.14 -1.30769 0 92.7821
-6197.65 -1.3991 0 95.5137
-4438.08 -4.11257 0 15.3821
-4464.21 -4.15927 0 13.4281
-6215.89 -1.35318 0 94.1551
-5318.64 -2.88628 0 53.2633
-4451.14 -4.13568 0 14.4103
-5349.96 -2.86857 0 50.9204
-5334.3 -2.87719 0 52.0981
-6197.65 -1.3991 0 95.5137
-6161.16 -1.49216 0 98.1876
-4411.94 -4.06774 0 17.2948
-4438.08 -4.11257 0 15.3821
-6179.4 -1.44543 0 96.8578
-5287.32 -2.90578 0 55.5568
-4425.01 -4.08993 0 16.3436
-5318.64 -2.88628 0 53.2633
-5302.98 -2.89581 0 54.4162
-6161.16 -1.49216 0 98.1876
-6124.66 -1.58677 0 100.804
-4385.8 -4.0247 0 19.1666
-4411.94 -4.06774 0 17.2948
-6142.91 -1.53928 0 99.503
-5256 -2.92696 0 57.8011
-4398.87 -4.046 0 18.2358
-5287.32 -2.90578 0 55.5568
-5271.66 -2.91616 0 56.6851
-6124.66 -1.58677 0 100.804
-6088.16 -1.68283 0 103.364
-4359.66 -3.98334 0 20.9977
-4385.8 -4.0247 0 19.1666
-6106.41 -1.63462 0 102.091
-5224.67 -2.94974 0 59.9966
-4372.73 -4.00381 0 20.0872
-5256 -2.92696 0 57.8011
-5240.34 -2.93816 0 58.9049
-6088.16 -1.68283 0 103.364
-6051.66 -1.78022 0 105.867
-4333.52 -3.9436 0 22.7883
-4359.66 -3.98334 0 20.9977
-6069.92 -1.73136 0 104.622
-5193.35 -2.97402 0 62.1435
-4346.59 -3.96327 0 21.898
-5224.67 -2.94974 0 59.9966
-5209.01 -2.9617 0 61.0761
-6051.66 -1.78022 0 105.867
-6015.16 -1.87884 0 108.313
-4307.38 -3.90539 0 24.5386
-4333.52 -3.9436 0 22.7883
-6033.41 -1.82938 0 107.097
-5162.02 -2.99971 0 64.2421
-4320.45 -3.92431 0 23.6685
-5193.35 -2.97402 0 62.1435
-5177.68 -2.9867 0 63.1988
-6015.16 -1.87884 0 108.313
-5978.66 -1.97858 0 110.704
-4281.23 -3.86865 0 26.249
-4307.38 -3.90539 0 24.5386
-5996.91 -1.92858 0 109.516
-5130.69 -3.02672 0 66.2927
-4294.31 -3.88684 0 25.3988
-5162.02 -2.99971 0 64.2421
-5146.35 -3.01306 0 65.2734
-5978.66 -1.97858 0 110.704
-5942.15 -2.07936 0 113.039
-4255.09 -3.83329 0 27.9196
-4281.23 -3.86865 0 26.249
-5960.4 -2.02885 0 111.878
-5099.36 -3.05497 0 68.2957
-4268.16 -3.8508 0 27.0892
-5130.69 -3.02672 0 66.2927
-5115.02 -3.0407 0 67.3001
-5942.15 -2.07936 0 113.039
-5905.64 -2.18106 0 115.319
-4228.94 -3.79925 0 29.5507
-4255.09 -3.83329 0 27.9196
-5923.9 -2.1301 0 114.186
-5068.02 -3.08437 0 70.2512
-4242.02 -3.81611 0 28.7401
-5099.36 -3.05497 0 68.2957
-5083.69 -3.06953 0 69.2793
-5905.64 -2.18106 0 115.319
-5869.13 -2.28359 0 117.543
-4202.8 -3.76646 0 31.1425
-4228.94 -3.79925 0 29.5507
-5887.39 -2.23223 0 116.438
-5036.69 -3.11483 0 72.1596
-4215.87 -3.7827 0 30.3515
-5068.02 -3.08437 0 70.2512
-5052.36 -3.09947 0 71.2113
-5869.13 -2.28359 0 117.543
-5832.62 -2.38685 0 119.713
-4176.65 -3.73485 0 32.6953
-4202.8 -3.76646 0 31.1425
-5850.87 -2.33513 0 118.635
-5005.35 -3.14628 0 74.0212
-4189.72 -3.75051 0 31.9237
-5036.69 -3.11483 0 72.1596
-5021.02 -3.13044 0 73.0962
-5832.62 -2.38685 0 119.713
-5796.1 -2.49075 0 121.829
-4150.5 -3.70435 0 34.2092
-4176.65 -3.73485 0 32.6953
-5814.36 -2.43873 0 120.778
-4974.02 -3.17863 0 75.8362
-4163.57 -3.71947 0 33.4571
-5005.35 -3.14628 0 74.0212
-4989.68 -3.16235 0 74.9345
-5796.1 -2.49075 0 121.829
-5759.59 -2.5952 0 123.891
-4124.35 -3.6749 0 35.6847
-4150.5 -3.70435 0 34.2092
-5777.85 -2.54291 0 122.867
-4942.68 -3.21181 0 77.6049
-4137.42 -3.6895 0 34.9518
-4974.02 -3.17863 0 75.8362
-4958.35 -3.19512 0 76.7263
-5759.59 -2.5952 0 123.891
-5723.07 -2.70009 0 125.899
-4098.2 -3.64644 0 37.1218
-4124.35 -3.6749 0 35.6847
-5741.33 -2.64759 0 124.902
-4911.34 -3.24573 0 79.3277
-4111.27 -3.66055 0 36.408
-4942.68 -3.21181 0 77.6049
-4927.01 -3.22868 0 78.4721
-5723.07 -2.70009 0 125.899
-5686.55 -2.80536 0 127.854
-4072.05 -3.61889 0 38.5208
-4098.2 -3.64644 0 37.1218
-5704.81 -2.75269 0 126.884
-4880 -3.28032 0 81.0048
-4085.12 -3.63255 0 37.826
-4911.34 -3.24573 0 79.3277
-4895.67 -3.26294 0 80.172
-5686.55 -2.80536 0 127.854
-5650.03 -2.9109 0 129.756
-4045.9 -3.5922 0 39.882
-4072.05 -3.61889 0 38.5208
-5668.29 -2.8581 0 128.812
-4848.65 -3.3155 0 82.6366
-4058.97 -3.60544 0 39.2061
-4880 -3.28032 0 81.0048
-4864.33 -3.29784 0 81.8264
-5650.03 -2.9109 0 129.756
-5613.51 -3.01663 0 131.606
-4019.74 -3.5663 0 41.2057
-4045.9 -3.5922 0 39.882
-5631.77 -2.96375 0 130.688
-4817.31 -3.3512 0 84.2232
-4032.82 -3.57915 0 40.5485
-4848.65 -3.3155 0 82.6366
-4832.98 -3.33329 0 83.4355
-5613.51 -3.01663 0 131.606
-5576.98 -3.12247 0 133.403
-3993.59 -3.54113 0 42.4919
-4019.74 -3.5663 0 41.2057
-5595.25 -3.06954 0 132.511
-4785.97 -3.38735 0 85.7651
-4006.67 -3.55363 0 41.8534
-4817.31 -3.3512 0 84.2232
-4801.64 -3.36923 0 84.9997
-5576.98 -3.12247 0 133.403
-5540.46 -3.22833 0 135.148
-3967.44 -3.51664 0 43.7411
-3993.59 -3.54113 0 42.4919
-5558.72 -3.1754 0 134.282
-4754.62 -3.42388 0 87.2624
-3980.51 -3.52881 0 43.1211
-4785.97 -3.38735 0 85.7651
-4770.3 -3.40557 0 86.5193
-5540.46 -3.22833 0 135.148
-5503.93 -3.33414 0 136.842
-3941.28 -3.49277 0 44.9534
-3967.44 -3.51664 0 43.7411
-5522.2 -3.28125 0 136.002
-4723.28 -3.46071 0 88.7155
-3954.36 -3.50463 0 44.3519
-4754.62 -3.42388 0 87.2624
-4738.95 -3.44226 0 87.9945
-5503.93 -3.33414 0 136.842
-5467.41 -3.4398 0 138.485
-3915.13 -3.46946 0 46.1291
-3941.28 -3.49277 0 44.9534
-5485.67 -3.38699 0 137.67
-4691.93 -3.49779 0 90.1247
-3928.21 -3.48105 0 45.5458
-4723.28 -3.46071 0 88.7155
-4707.61 -3.47922 0 89.4256
-5467.41 -3.4398 0 138.485
-5430.88 -3.54525 0 140.076
-3888.98 -3.44665 0 47.2684
-3915.13 -3.46946 0 46.1291
-5449.14 -3.49256 0 139.287
-4660.59 -3.53503 0 91.4902
-3902.05 -3.45799 0 46.7033
-4691.93 -3.49779 0 90.1247
-4676.26 -3.51639 0 90.8129
-5430.88 -3.54525 0 140.076
-5394.35 -3.65041 0 141.617
-3862.82 -3.42429 0 48.3716
-3888.98 -3.44665 0 47.2684
-5412.62 -3.59787 0 140.853
-4629.24 -3.57238 0 92.8124
-3875.9 -3.43541 0 47.8245
-4660.59 -3.53503 0 91.4902
-4644.92 -3.55369 0 92.1567
-5394.35 -3.65041 0 141.617
-5357.82 -3.7552 0 143.108
-3836.67 -3.40232 0 49.4389
-3862.82 -3.42429 0 48.3716
-5376.09 -3.70286 0 142.369
-4597.9 -3.60977 0 94.0915
-3849.75 -3.41326 0 48.9097
-4629.24 -3.57238 0 92.8124
-4613.57 -3.59107 0 93.4573
-5357.82 -3.7552 0 143.108
-5321.29 -3.85955 0 144.549
-3810.52 -3.3807 0 50.4706
-3836.67 -3.40232 0 49.4389
-5339.56 -3.80744 0 143.835
-4566.55 -3.64714 0 95.3279
-3823.59 -3.39147 0 49.9592
-4597.9 -3.60977 0 94.0915
-4582.22 -3.62846 0 94.7151
-5321.29 -3.85955 0 144.549
-5284.76 -3.96339 0 145.941
-3784.36 -3.35937 0 51.4668
-3810.52 -3.3807 0 50.4706
-5303.03 -3.91154 0 145.251
-4535.2 -3.68442 0 96.5218
-3797.44 -3.37 0 50.9731
-4566.55 -3.64714 0 95.3279
-4550.87 -3.66579 0 95.9302
-5284.76 -3.96339 0 145.941
-5248.23 -4.06665 0 147.283
-3758.21 -3.33829 0 52.4279
-3784.36 -3.35937 0 51.4668
-5266.5 -4.0151 0 146.618
-4503.85 -3.72157 0 97.6735
-3771.28 -3.3488 0 51.9517
-4535.2 -3.68442 0 96.5218
-4519.53 -3.70302 0 97.1029
-5248.23 -4.06665 0 147.283
-5211.7 -4.16925 0 148.576
-3732.05 -3.31739 0 53.3541
-3758.21 -3.33829 0 52.4279
-5229.97 -4.11803 0 147.936
-4472.51 -3.75851 0 98.7834
-3745.13 -3.32782 0 52.8953
-4503.85 -3.72157 0 97.6735
-4488.18 -3.74007 0 98.2337
-5211.7 -4.16925 0 148.576
-5175.17 -4.27114 0 149.821
-3705.9 -3.29664 0 54.2456
-3732.05 -3.31739 0 53.3541
-5193.44 -4.22029 0 149.205
-4441.16 -3.79519 0 99.8516
-3718.98 -3.307 0 53.8041
-4472.51 -3.75851 0 98.7834
-4456.83 -3.77688 0 99.3227
-5175.17 -4.27114 0 149.821
-5138.64 -4.37224 0 151.018
-3679.75 -3.27599 0 55.1026
-3705.9 -3.29664 0 54.2456
-5156.9 -4.32179 0 150.425
-4409.81 -3.83155 0 100.879
-3692.82 -3.2863 0 54.6784
-4441.16 -3.79519 0 99.8516
-4425.48 -3.81341 0 100.37
-5138.64 -4.37224 0 151.018
-5102.11 -4.47249 0 152.167
-3653.59 -3.25539 0 55.9255
-3679.75 -3.27599 0 55.1026
-5120.37 -4.42247 0 151.598
-4378.46 -3.86754 0 101.864
-3666.67 -3.26568 0 55.5183
-4409.81 -3.83155 0 100.879
-4394.14 -3.8496 0 101.377
-5102.11 -4.47249 0 152.167
-5065.57 -4.57183 0 153.268
-3627.44 -3.23479 0 56.7144
-3653.59 -3.25539 0 55.9255
-5083.84 -4.52228 0 152.723
-4347.12 -3.90311 0 102.81
-3640.52 -3.24509 0 56.3242
-4378.46 -3.86754 0 101.864
-4362.79 -3.88538 0 102.342
-5065.57 -4.57183 0 153.268
-5029.04 -4.6702 0 154.322
-3601.29 -3.21416 0 57.4697
-3627.44 -3.23479 0 56.7144
-5047.31 -4.62114 0 153.801
-4315.77 -3.9382 0 103.714
-3614.36 -3.22448 0 57.0962
-4347.12 -3.90311 0 102.81
-4331.44 -3.92072 0 103.267
-5029.04 -4.6702 0 154.322
-4992.51 -4.76753 0 155.329
-3575.14 -3.19344 0 58.1914
-3601.29 -3.21416 0 57.4697
-5010.78 -4.719 0 154.832
-4284.42 -3.97276 0 104.579
-3588.21 -3.20381 0 57.8347
-4315.77 -3.9382 0 103.714
-4300.1 -3.95555 0 104.152
-4992.51 -4.76753 0 155.329
-4955.98 -4.86377 0 156.29
-3548.98 -3.17261 0 58.88
-3575.14 -3.19344 0 58.1914
-4974.24 -4.81579 0 155.816
-4253.08 -4.00674 0 105.404
-3562.06 -3.18305 0 58.5398
-4284.42 -3.97276 0 104.579
-4268.75 -3.98983 0 104.996
-4955.98 -4.86377 0 156.29
-4919.45 -4.95887 0 157.205
-3522.83 -3.15161 0 59.5356
-3548.98 -3.17261 0 58.88
-4937.71 -4.91147 0 156.754
-4221.73 -4.04009 0 106.189
-3535.91 -3.16213 0 59.2119
-4253.08 -4.00674 0 105.404
-4237.4 -4.0235 0 105.801
-4919.45 -4.95887 0 157.205
-4882.92 -5.05276 0 158.074
-3496.68 -3.13041 0 60.1584
-3522.83 -3.15161 0 59.5356
-4901.18 -5.00597 0 157.645
-4190.38 -4.07277 0 106.935
-3509.76 -3.14104 0 59.8511
-4221.73 -4.04009 0 106.189
-4206.06 -4.05652 0 106.567
-4882.92 -5.05276 0 158.074
-4846.38 -5.14539 0 158.898
-3470.53 -3.10897 0 60.7488
-3496.68 -3.13041 0 60.1584
-4864.65 -5.09924 0 158.492
-4159.04 -4.10472 0 107.642
-3483.61 -3.11972 0 60.4577
-4190.38 -4.07277 0 106.935
-4174.71 -4.08884 0 107.293
-4846.38 -5.14539 0 158.898
-4809.85 -5.23672 0 159.676
-3444.38 -3.08725 0 61.3069
-3470.53 -3.10897 0 60.7488
-4828.12 -5.19122 0 159.293
-4127.69 -4.13591 0 108.31
-3457.46 -3.09815 0 61.0319
-4159.04 -4.10472 0 107.642
-4143.37 -4.12042 0 107.981
-4809.85 -5.23672 0 159.676
-4773.32 -5.32668 0 160.41
-3418.23 -3.06522 0 61.833
-3444.38 -3.08725 0 61.3069
-4791.59 -5.28187 0 160.049
-4096.35 -4.16629 0 108.94
-3431.31 -3.07628 0 61.574
-4127.69 -4.13591 0 108.31
-4112.02 -4.1512 0 108.63
-4773.32 -5.32668 0 160.41
-4736.79 -5.41523 0 161.099
-3392.09 -3.04283 0 62.3274
-3418.23 -3.06522 0 61.833
-4755.06 -5.37113 0 160.76
-4065 -4.19581 0 109.532
-3405.16 -3.05407 0 62.0842
-4096.35 -4.16629 0 108.94
-4080.68 -4.18116 0 109.241
-4736.79 -5.41523 0 161.099
-4700.26 -5.50232 0 161.744
-3365.94 -3.02006 0 62.7903
-3392.09 -3.04283 0 62.3274
-4718.53 -5.45896 0 161.427
-4033.66 -4.22443 0 110.086
-3379.01 -3.0315 0 62.5628
-4065 -4.19581 0 109.532
-4049.33 -4.21023 0 109.814
-4700.26 -5.50232 0 161.744
-4663.73 -5.5879 0 162.346
-3339.79 -2.99687 0 63.2219
-3365.94 -3.02006 0 62.7903
-4682 -5.5453 0 162.051
-4002.32 -4.25212 0 110.603
-3352.87 -3.00852 0 63.01
-4033.66 -4.22443 0 110.086
-4017.99 -4.23839 0 110.349
-4663.73 -5.5879 0 162.346
-4627.2 -5.67192 0 162.904
-3313.65 -2.97322 0 63.6224
-3339.79 -2.99687 0 63.2219
-4645.47 -5.63011 0 162.63
-3970.98 -4.27883 0 111.082
-3326.72 -2.9851 0 63.426
-4002.32 -4.25212 0 110.603
-3986.65 -4.2656 0 110.847
-4627.2 -5.67192 0 162.904
-4590.67 -5.75435 0 163.419
-3287.5 -2.94909 0 63.9922
-3313.65 -2.97322 0 63.6224
-4608.94 -5.71334 0 163.167
-3939.64 -4.30453 0 111.524
-3300.57 -2.96122 0 63.8112
-3970.98 -4.27883 0 111.082
-3955.31 -4.29181 0 111.308
-4590.67 -5.75435 0 163.419
-4554.15 -5.83514 0 163.891
-3261.36 -2.92445 0 64.3315
-3287.5 -2.94909 0 63.9922
-4572.41 -5.79496 0 163.66
-3908.3 -4.32918 0 111.93
-3274.43 -2.93684 0 64.1656
-3939.64 -4.30453 0 111.524
-3923.97 -4.31699 0 111.732
-4554.15 -5.83514 0 163.891
-4517.62 -5.91425 0 164.321
-3235.22 -2.89926 0 64.6404
-3261.36 -2.92445 0 64.3315
-4535.88 -5.87491 0 164.111
-3876.96 -4.35274 0 112.299
-3248.29 -2.91193 0 64.4897
-3908.3 -4.32918 0 111.93
-3892.63 -4.3411 0 112.119
-4517.62 -5.91425 0 164.321
-4481.09 -5.99163 0 164.709
-3209.07 -2.8735 0 64.9193
-3235.22 -2.89926 0 64.6404
-4499.36 -5.95316 0 164.52
-3845.62 -4.37518 0 112.633
-3222.14 -2.88646 0 64.7836
-3876.96 -4.35274 0 112.299
-3861.29 -4.3641 0 112.471
-4481.09 -5.99163 0 164.709
-4444.57 -6.06725 0 165.055
-3182.93 -2.84714 0 65.1684
-3209.07 -2.8735 0 64.9193
-4462.83 -6.02966 0 164.887
-3814.28 -4.39646 0 112.93
-3196 -2.8604 0 65.0476
-3845.62 -4.37518 0 112.633
-3829.95 -4.38597 0 112.786
-4444.57 -6.06725 0 165.055
-4408.04 -6.14107 0 165.36
-3156.79 -2.82014 0 65.3879
-3182.93 -2.84714 0 65.1684
-4426.31 -6.10439 0 165.212
-3782.94 -4.41656 0 113.193
-3169.86 -2.83372 0 65.2819
-3814.28 -4.39646 0 112.93
-3798.61 -4.40666 0 113.066
-4408.04 -6.14107 0 165.36
-4371.52 -6.21305 0 165.623
-3130.65 -2.79249 0 65.5782
-3156.79 -2.82014 0 65.3879
-4389.78 -6.17729 0 165.497
-3751.61 -4.43544 0 113.419
-3143.72 -2.8064 0 65.4867
-3782.94 -4.41656 0 113.193
-3767.28 -4.42615 0 113.31
-4371.52 -6.21305 0 165.623
-4335 -6.28316 0 165.846
-3104.51 -2.76417 0 65.7393
-3130.65 -2.79249 0 65.5782
-4353.26 -6.24834 0 165.74
-3720.27 -4.45307 0 113.612
-3117.58 -2.77842 0 65.6623
-3751.61 -4.43544 0 113.419
-3735.94 -4.44441 0 113.52
-4335 -6.28316 0 165.846
-4298.47 -6.35136 0 166.029
-3078.38 -2.73513 0 65.8716
-3104.51 -2.76417 0 65.7393
-4316.74 -6.3175 0 165.943
-3688.94 -4.46942 0 113.769
-3091.45 -2.74974 0 65.809
-3720.27 -4.45307 0 113.612
-3704.61 -4.4614 0 113.695
-4298.47 -6.35136 0 166.029
-4261.95 -6.41763 0 166.172
-3052.24 -2.70537 0 65.9753
-3078.38 -2.73513 0 65.8716
-4280.21 -6.38474 0 166.105
-3657.61 -4.48446 0 113.892
-3065.31 -2.72034 0 65.927
-3688.94 -4.46942 0 113.769
-3673.27 -4.4771 0 113.835
-4261.95 -6.41763 0 166.172
-4225.43 -6.48192 0 166.275
-3026.11 -2.67485 0 66.0507
-3052.24 -2.70537 0 65.9753
-4243.69 -6.45002 0 166.228
-3626.27 -4.49817 0 113.981
-3039.17 -2.69021 0 66.0165
-3657.61 -4.48446 0 113.892
-3641.94 -4.49148 0 113.941
-4225.43 -6.48192 0 166.275
-4188.91 -6.54421 0 166.339
-2999.97 -2.64357 0 66.0979
-3026.11 -2.67485 0 66.0507
-4207.17 -6.51332 0 166.312
-3594.94 -4.51052 0 114.037
-3013.04 -2.65931 0 66.0778
-3626.27 -4.49817 0 113.981
-3610.61 -4.50451 0 114.013
-4188.91 -6.54421 0 166.339
-4152.4 -6.60447 0 166.363
-2973.84 -2.61149 0 66.1173
-2999.97 -2.64357 0 66.0979
-4170.65 -6.5746 0 166.356
-3563.61 -4.52148 0 114.059
-2986.91 -2.62763 0 66.1111
-3594.94 -4.51052 0 114.037
-3579.28 -4.51617 0 114.052
-4152.4 -6.60447 0 166.363
-4115.88 -6.66267 0 166.35
-2947.71 -2.57859 0 66.1091
-2973.84 -2.61149 0 66.1173
-4134.14 -6.63383 0 166.361
-3532.29 -4.53104 0 114.048
-2960.77 -2.59514 0 66.1166
-3563.61 -4.52148 0 114.059
-3547.95 -4.52644 0 114.058
-4115.88 -6.66267 0 166.35
-4079.36 -6.71879 0 166.297
-2921.58 -2.54487 0 66.0735
-2947.71 -2.57859 0 66.1091
-4097.62 -6.69099 0 166.328
-3500.96 -4.53916 0 114.004
-2934.64 -2.56184 0 66.0947
-3532.29 -4.53104 0 114.048
-3516.62 -4.53528 0 114.03
-4079.36 -6.71879 0 166.297
-4042.85 -6.7728 0 166.207
-2895.45 -2.51029 0 66.0108
-2921.58 -2.54487 0 66.0735
-4061.1 -6.74606 0 166.257
-3469.63 -4.54583 0 113.928
-2908.51 -2.52768 0 66.0455
-3500.96 -4.53916 0 114.004
-3485.3 -4.54268 0 113.97
-4042.85 -6.7728 0 166.207
-4006.33 -6.82467 0 166.08
-2869.32 -2.47484 0 65.9212
-2895.45 -2.51029 0 66.0108
-4024.59 -6.799 0 166.148
-3438.31 -4.55102 0 113.819
-2882.39 -2.49267 0 65.9693
-3469.63 -4.54583 0 113.928
-3453.97 -4.54861 0 113.877
-4006.33 -6.82467 0 166.08
-3969.82 -6.87438 0 165.915
-2843.2 -2.43851 0 65.8049
-2869.32 -2.47484 0 65.9212
-3988.08 -6.84979 0 166.002
-3406.98 -4.55472 0 113.678
-2856.26 -2.45679 0 65.8663
-3438.31 -4.55102 0 113.819
-3422.65 -4.55306 0 113.753
-3969.82 -6.87438 0 165.915
-3933.31 -6.92191 0 165.713
-2817.07 -2.40128 0 65.6623
-2843.2 -2.43851 0 65.8049
-3951.56 -6.89842 0 165.818
-3375.66 -4.55691 0 113.506
-2830.13 -2.42001 0 65.7369
-3406.98 -4.55472 0 113.678
-3391.32 -4.55601 0 113.596
-3933.31 -6.92191 0 165.713
-3896.8 -6.96724 0 165.474
-2790.95 -2.36313 0 65.4934
-2817.07 -2.40128 0 65.6623
-3915.05 -6.94485 0 165.598
-3344.34 -4.55756 0 113.302
-2804.01 -2.38232 0 65.5811
-3375.66 -4.55691 0 113.506
-3360 -4.55743 0 113.408
-3896.8 -6.96724 0 165.474
-3860.29 -7.01035 0 165.199
-2764.82 -2.32405 0 65.2987
-2790.95 -2.36313 0 65.4934
-3878.54 -6.98907 0 165.341
-3313.02 -4.55667 0 113.067
-2777.88 -2.34371 0 65.3993
-3344.34 -4.55756 0 113.302
-3328.68 -4.55731 0 113.189
-3860.29 -7.01035 0 165.199
-3823.78 -7.05121 0 164.889
-2738.7 -2.28403 0 65.0783
-2764.82 -2.32405 0 65.2987
-3842.04 -7.03106 0 165.049
-3281.7 -4.55421 0 112.802
-2751.76 -2.30416 0 65.1917
-3313.02 -4.55667 0 113.067
-3297.36 -4.55564 0 112.938
-3823.78 -7.05121 0 164.889
-3787.28 -7.08983 0 164.542
-2712.58 -2.24305 0 64.8325
-2738.7 -2.28403 0 65.0783
-3805.53 -7.0708 0 164.72
-3250.39 -4.55017 0 112.506
-2725.64 -2.26366 0 64.9586
-3281.7 -4.55421 0 112.802
-3266.04 -4.55239 0 112.658
-3787.28 -7.08983 0 164.542
-3750.77 -7.12616 0 164.161
-2686.46 -2.2011 0 64.5615
-2712.58 -2.24305 0 64.8325
-3769.02 -7.10828 0 164.356
-3219.07 -4.54454 0 112.179
-2699.52 -2.2222 0 64.7001
-3250.39 -4.55017 0 112.506
-3234.73 -4.54755 0 112.346
-3750.77 -7.12616 0 164.161
-3714.27 -7.16021 0 163.745
-2660.35 -2.15817 0 64.2655
-2686.46 -2.2011 0 64.5615
-3732.52 -7.14347 0 163.957
-3187.76 -4.5373 0 111.823
-2673.4 -2.17976 0 64.4166
-3219.07 -4.54454 0 112.179
-3203.41 -4.54112 0 112.005
-3714.27 -7.16021 0 163.745
-3677.76 -7.19195 0 163.294
-2634.23 -2.11426 0 63.9449
-2660.35 -2.15817 0 64.2655
-3696.01 -7.17637 0 163.524
-3156.44 -4.52844 0 111.437
-2647.29 -2.13634 0 64.1083
-3187.76 -4.5373 0 111.823
-3172.1 -4.53307 0 111.634
-3677.76 -7.19195 0 163.294
-3641.26 -7.22138 0 162.809
-2608.12 -2.06935 0 63.5998
-2634.23 -2.11426 0 63.9449
-3659.51 -7.20696 0 163.055
-3125.13 -4.51795 0 111.022
-2621.17 -2.09193 0 63.7754
-3156.44 -4.52844 0 111.437
-3140.79 -4.5234 0 111.234
-3641.26 -7.22138 0 162.809
-3604.76 -7.24848 0 162.29
-2582 -2.02343 0 63.2305
-2608.12 -2.06935 0 63.5998
-3623.01 -7.23522 0 162.553
-3093.82 -4.50582 0 110.578
-2595.06 -2.04651 0 63.4181
-3125.13 -4.51795 0 111.022
-3109.48 -4.51209 0 110.804
-3604.76 -7.24848 0 162.29
-3568.26 -7.27323 0 161.737
-2555.89 -1.97649 0 62.8372
-2582 -2.02343 0 63.2305
-3586.51 -7.26115 0 162.018
-3062.51 -4.49204 0 110.105
-2568.95 -2.00008 0 63.0368
-3093.82 -4.50582 0 110.578
-3078.17 -4.49914 0 110.345
-3568.26 -7.27323 0 161.737
-3531.77 -7.29564 0 161.151
-2529.78 -1.92853 0 62.4202
-2555.89 -1.97649 0 62.8372
-3550.01 -7.28473 0 161.448
-3031.21 -4.4766 0 109.604
-2542.83 -1.95264 0 62.6316
-3062.51 -4.49204 0 110.105
-3046.86 -4.48453 0 109.858
-3531.77 -7.29564 0 161.151
-3495.27 -7.31569 0 160.533
-2503.67 -1.87954 0 61.9797
-2529.78 -1.92853 0 62.4202
-3513.52 -7.30596 0 160.846
-2999.9 -4.45949 0 109.074
-2516.72 -1.90417 0 62.2028
-3031.21 -4.4766 0 109.604
-3015.55 -4.46825 0 109.342
-3495.27 -7.31569 0 160.533
-3458.78 -7.33337 0 159.882
-2477.56 -1.82952 0 61.5159
-2503.67 -1.87954 0 61.9797
-3477.02 -7.32482 0 160.211
-2968.59 -4.44071 0 108.517
-2490.62 -1.85466 0 61.7507
-2999.9 -4.45949 0 109.074
-2984.25 -4.45031 0 108.799
-3458.78 -7.33337 0 159.882
-3422.28 -7.34867 0 159.199
-2451.46 -1.77846 0 61.0292
-2477.56 -1.82952 0 61.5159
-3440.53 -7.34132 0 159.544
-2937.29 -4.42025 0 107.932
-2464.51 -1.80412 0 61.2754
-2968.59 -4.44071 0 108.517
-2952.94 -4.43069 0 108.228
-3422.28 -7.34867 0 159.199
-3385.79 -7.3616 0 158.484
-2425.35 -1.72635 0 60.5197
-2451.46 -1.77846 0 61.0292
-3404.04 -7.35543 0 158.845
-2905.99 -4.3981 0 107.319
-2438.4 -1.75254 0 60.7773
-2937.29 -4.42025 0 107.932
-2921.64 -4.40939 0 107.629
-3385.79 -7.3616 0 158.484
-3349.3 -7.37214 0 157.737
-2399.25 -1.6732 0 59.9877
-2425.35 -1.72635 0 60.5197
-3367.54 -7.36717 0 158.114
-2874.69 -4.37427 0 106.68
-2412.3 -1.69991 0 60.2565
-2905.99 -4.3981 0 107.319
-2890.34 -4.3864 0 107.003
-3349.3 -7.37214 0 157.737
-3312.81 -7.38029 0 156.959
-2373.15 -1.61899 0 59.4334
-2399.25 -1.6732 0 59.9877
-3331.05 -7.37651 0 157.352
-2843.39 -4.34874 0 106.014
-2386.2 -1.64623 0 59.7133
-2874.69 -4.37427 0 106.68
-2859.04 -4.36171 0 106.35
-3312.81 -7.38029 0 156.959
-3276.32 -7.38605 0 156.151
-2347.04 -1.56373 0 58.8571
-2373.15 -1.61899 0 59.4334
-3294.57 -7.38347 0 156.559
-2812.09 -4.32151 0 105.322
-2360.09 -1.59149 0 59.148
-2843.39 -4.34874 0 106.014
-2827.74 -4.33534 0 105.671
-3276.32 -7.38605 0 156.151
-3239.84 -7.38941 0 155.312
-2320.94 -1.50742 0 58.259
-2347.04 -1.56373 0 58.8571
-3258.08 -7.38803 0 155.735
-2780.8 -4.29259 0 104.603
-2333.99 -1.53571 0 58.5608
-2812.09 -4.32151 0 105.322
-2796.44 -4.30726 0 104.966
-3239.84 -7.38941 0 155.312
-3203.35 -7.39038 0 154.443
-2294.85 -1.45005 0 57.6394
-2320.94 -1.50742 0 58.259
-3221.59 -7.39019 0 154.881
-2749.5 -4.26197 0 103.859
-2307.9 -1.47887 0 57.9519
-2780.8 -4.29259 0 104.603
-2765.15 -4.27749 0 104.234
-3203.35 -7.39038 0 154.443
-3166.87 -7.38895 0 153.544
-2268.75 -1.39163 0 56.9985
-2294.85 -1.45005 0 57.6394
-3185.11 -7.38996 0 153.997
-2718.21 -4.22965 0 103.089
-2281.8 -1.42097 0 57.3216
-2749.5 -4.26197 0 103.859
-2733.86 -4.24602 0 103.477
-3166.87 -7.38895 0 153.544
-3130.38 -7.38512 0 152.616
-2242.65 -1.33215 0 56.3365
-2268.75 -1.39163 0 56.9985
-3148.63 -7.38734 0 153.084
-2686.92 -4.19563 0 102.293
-2255.7 -1.36202 0 56.6701
-2718.21 -4.22965 0 103.089
-2702.56 -4.21285 0 102.694
-3130.38 -7.38512 0 152.616
-3093.9 -7.37891 0 151.658
-2216.56 -1.27162 0 55.6537
-2242.65 -1.33215 0 56.3365
-3112.14 -7.38231 0 152.141
-2655.63 -4.15992 0 101.473
-2229.61 -1.30202 0 55.9977
-2686.92 -4.19563 0 102.293
-2671.27 -4.17799 0 101.886
-3093.9 -7.37891 0 151.658
-3057.42 -7.37029 0 150.672
-2190.47 -1.21003 0 54.9504
-2216.56 -1.27162 0 55.6537
-3075.66 -7.3749 0 151.169
-2624.34 -4.12251 0 100.628
-2203.51 -1.24096 0 55.3046
-2655.63 -4.15992 0 101.473
-2639.98 -4.14143 0 101.054
-3057.42 -7.37029 0 150.672
-3020.94 -7.3593 0 149.657
-2164.38 -1.1474 0 54.2267
-2190.47 -1.21003 0 54.9504
-3039.18 -7.36509 0 150.168
-2593.05 -4.08341 0 99.7591
-2177.42 -1.17884 0 54.591
-2624.34 -4.12251 0 100.628
-2608.69 -4.10317 0 100.197
-3020.94 -7.3593 0 149.657
-2984.47 -7.34591 0 148.615
-2138.29 -1.08371 0 53.4829
-2164.38 -1.1474 0 54.2267
-3002.71 -7.3529 0 149.14
-2561.76 -4.04262 0 98.8658
-2151.33 -1.11569 0 53.8573
-2593.05 -4.08341 0 99.7591
-2577.41 -4.06322 0 99.3154
-2984.47 -7.34591 0 148.615
-2947.99 -7.33015 0 147.544
-2112.2 -1.01899 0 52.7192
-2138.29 -1.08371 0 53.4829
-2966.23 -7.33833 0 148.083
-2530.48 -4.00015 0 97.9486
-2125.24 -1.05148 0 53.1035
-2561.76 -4.04262 0 98.8658
-2546.12 -4.02159 0 98.4102
-2947.99 -7.33015 0 147.544
-2911.52 -7.31202 0 146.446
-2086.11 -0.953222 0 51.936
-2112.2 -1.01899 0 52.7192
-2929.75 -7.32138 0 146.999
-2499.19 -3.95599 0 97.008
-2099.16 -0.986235 0 52.3301
-2530.48 -4.00015 0 97.9486
-2514.84 -3.97828 0 97.4812
-2911.52 -7.31202 0 146.446
-2875.04 -7.29152 0 145.321
-2060.03 -0.886423 0 51.1334
-2086.11 -0.953222 0 51.936
-2893.28 -7.30206 0 145.887
-2467.91 -3.91017 0 96.0441
-2073.07 -0.919952 0 51.5371
-2499.19 -3.95599 0 97.008
-2483.55 -3.93329 0 96.529
-2875.04 -7.29152 0 145.321
-2838.57 -7.26866 0 144.17
-2033.94 -0.818595 0 50.3117
-2060.03 -0.886423 0 51.1334
-2856.81 -7.28038 0 144.749
-2436.63 -3.86268 0 95.0574
-2046.98 -0.852637 0 50.725
-2467.91 -3.91017 0 96.0441
-2452.27 -3.88663 0 95.5536
-2838.57 -7.26866 0 144.17
-2802.1 -7.24345 0 142.992
-2007.86 -0.749744 0 49.4711
-2033.94 -0.818595 0 50.3117
-2820.34 -7.25635 0 143.584
-2405.35 -3.81353 0 94.0479
-2020.9 -0.784297 0 49.8938
-2436.63 -3.86268 0 95.0574
-2420.99 -3.83831 0 94.5555
-2802.1 -7.24345 0 142.992
-2765.63 -7.2159 0 141.787
-1981.78 -0.679877 0 48.6119
-2007.86 -0.749744 0 49.4711
-2783.87 -7.22997 0 142.393
-2374.07 -3.76272 0 93.0162
-1994.82 -0.714937 0 49.0439
-2405.35 -3.81353 0 94.0479
-2389.71 -3.78833 0 93.5348
-2765.63 -7.2159 0 141.787
-2729.17 -7.18602 0 140.558
-1955.7 -0.609 0 47.7343
-1981.78 -0.679877 0 48.6119
-2747.4 -7.20125 0 141.176
-2342.8 -3.71028 0 91.9624
-1968.74 -0.644564 0 48.1754
-2374.07 -3.76272 0 93.0162
-2358.44 -3.73671 0 92.492
-2729.17 -7.18602 0 140.558
-2692.7 -7.15382 0 139.302
-1929.62 -0.537123 0 46.8386
-1955.7 -0.609 0 47.7343
-2710.93 -7.17021 0 139.933
-2311.52 -3.6562 0 90.8868
-1942.66 -0.573186 0 47.2887
-2342.8 -3.71028 0 91.9624
-2327.16 -3.68344 0 91.4273
-2692.7 -7.15382 0 139.302
-2656.23 -7.11932 0 138.022
-1903.54 -0.464252 0 45.9249
-1929.62 -0.537123 0 46.8386
-2674.47 -7.13686 0 138.665
-2280.25 -3.6005 0 89.7897
-1916.58 -0.500811 0 46.384
-2311.52 -3.6562 0 90.8868
-2295.88 -3.62855 0 90.3409
-2656.23 -7.11932 0 138.022
-2619.77 -7.08251 0 136.717
-1877.46 -0.390398 0 44.9936
-1903.54 -0.464252 0 45.9249
-2638 -7.1012 0 137.373
-2248.97 -3.54319 0 88.6715
-1890.5 -0.427447 0 45.4614
-2280.25 -3.6005 0 89.7897
-2264.61 -3.57204 0 89.2332
-2619.77 -7.08251 0 136.717
-2583.31 -7.04343 0 135.388
-1851.39 -0.315568 0 44.0448
-1877.46 -0.390398 0 44.9936
-2601.54 -7.06326 0 136.055
-2217.7 -3.48427 0 87.5323
-1864.43 -0.353104 0 44.5214
-2248.97 -3.54319 0 88.6715
-2233.34 -3.51393 0 88.1045
-2583.31 -7.04343 0 135.388
-2546.84 -7.00207 0 134.034
-1825.32 -0.239774 0 43.0789
-1851.39 -0.315568 0 44.0448
-2565.07 -7.02303 0 134.714
-2186.43 -3.42376 0 86.3726
-1838.35 -0.277791 0 43.564
-2217.7 -3.48427 0 87.5323
-2202.07 -3.45422 0 86.955
-2546.84 -7.00207 0 134.034
-2510.38 -6.95847 0 132.657
-1799.24 -0.163026 0 42.096
-1825.32 -0.239774 0 43.0789
-2528.61 -6.98055 0 133.349
-2155.16 -3.36168 0 85.1925
-1812.28 -0.201519 0 42.5896
-2186.43 -3.42376 0 86.3726
-2170.8 -3.39292 0 85.7851
-2510.38 -6.95847 0 132.657
-2473.92 -6.91262 0 131.257
-1773.17 -0.0853348 0 41.0965
-1799.24 -0.163026 0 42.096
-2492.15 -6.93582 0 131.96
-2123.9 -3.29804 0 83.9924
-1786.21 -0.124298 0 41.5983
-2155.16 -3.36168 0 85.1925
-2139.53 -3.33006 0 84.595
-2473.92 -6.91262 0 131.257
-2437.46 -6.86455 0 129.833
-1747.1 -0.00671176 0 40.0804
-1773.17 -0.0853348 0 41.0965
-2455.69 -6.88887 0 130.548
-2092.63 -3.23284 0 82.7726
-1760.14 -0.046139 0 40.5905
-2123.9 -3.29804 0 83.9924
-2108.26 -3.26563 0 83.385
-2437.46 -6.86455 0 129.833
-2401.01 -6.81428 0 128.387
-1721.03 0.0728309 0 39.0482
-1747.1 -0.00671176 0 40.0804
-2419.24 -6.83969 0 129.113
-2061.36 -3.16611 0 81.5334
-1734.07 0.0329454 0 39.5663
-2092.63 -3.23284 0 82.7726
-2077 -3.19967 0 82.1554
-2401.01 -6.81428 0 128.387
-2364.55 -6.76182 0 126.919
-1694.96 0.153281 0 38
-1721.03 0.0728309 0 39.0482
-2382.78 -6.78832 0 127.656
-2030.1 -3.09786 0 80.2749
-1708 0.112943 0 38.5261
-2061.36 -3.16611 0 81.5334
-2045.73 -3.13218 0 80.9065
-2364.55 -6.76182 0 126.919
-2328.1 -6.70719 0 125.428
-1668.9 0.234624 0 36.936
-1694.96 0.153281 0 38
-2346.32 -6.73478 0 126.176
-1998.84 -3.02811 0 78.9977
-1681.93 0.193842 0 37.4699
-2030.1 -3.09786 0 80.2749
-2014.47 -3.06317 0 79.6386
-2328.1 -6.70719 0 125.428
-2291.64 -6.65041 0 123.916
-1642.83 0.316849 0 35.8566
-1668.9 0.234624 0 36.936
-2309.87 -6.67907 0 124.675
-1967.57 -2.95687 0 77.7018
-1655.87 0.275627 0 36.3982
-1998.84 -3.02811 0 78.9977
-1983.2 -2.99267 0 78.352
-2291.64 -6.65041 0 123.916
-2255.19 -6.5915 0 122.383
-1616.77 0.39994 0 34.7619
-1642.83 0.316849 0 35.8566
-2273.41 -6.62122 0 123.152
-1936.31 -2.88415 0 76.3877
-1629.8 0.358287 0 35.3111
-1967.57 -2.95687 0 77.7018
-1951.94 -2.92069 0 77.047
-2255.19 -6.5915 0 122.383
-2218.74 -6.53048 0 120.829
-1590.71 0.483883 0 33.6522
-1616.77 0.39994 0 34.7619
-2236.96 -6.56126 0 121.608
-1905.05 -2.80999 0 75.0556
-1603.74 0.441805 0 34.2089
-1936.31 -2.88415 0 76.3877
-1920.68 -2.84725 0 75.7238
-2218.74 -6.53048 0 120.829
-2182.28 -6.46737 0 119.253
-1564.64 0.568663 0 32.5278
-1590.71 0.483883 0 33.6522
-2200.51 -6.49919 0 120.044
-1873.79 -2.73438 0 73.7057
-1577.67 0.526169 0 33.0918
-1905.05 -2.80999 0 75.0556
-1889.42 -2.77236 0 74.3828
-2182.28 -6.46737 0 119.253
-2145.83 -6.40219 0 117.658
-1538.58 0.654264 0 31.3888
-1564.64 0.568663 0 32.5278
-2164.06 -6.43504 0 118.458
-1842.54 -2.65736 0 72.3385
-1551.61 0.611362 0 31.9601
-1873.79 -2.73438 0 73.7057
-1858.16 -2.69605 0 73.0243
-2145.83 -6.40219 0 117.658
-2109.38 -6.33497 0 116.043
-1512.52 0.740672 0 30.2355
-1538.58 0.654264 0 31.3888
-2127.61 -6.36884 0 116.853
-1811.28 -2.57894 0 70.9541
-1525.55 0.697369 0 30.8139
-1842.54 -2.65736 0 72.3385
-1826.91 -2.61832 0 71.6484
-2109.38 -6.33497 0 116.043
-2072.94 -6.26572 0 114.408
-1486.46 0.827869 0 29.0682
-1512.52 0.740672 0 30.2355
-2091.16 -6.3006 0 115.228
-1780.02 -2.49914 0 69.5529
-1499.49 0.784173 0 29.6536
-1811.28 -2.57894 0 70.9541
-1795.65 -2.53921 0 70.2556
-2072.94 -6.26572 0 114.408
-2036.49 -6.19448 0 112.754
-1460.41 0.91584 0 27.8871
-1486.46 0.827869 0 29.0682
-2054.71 -6.23035 0 113.583
-1748.77 -2.41798 0 68.1352
-1473.43 0.871759 0 28.4794
-1780.02 -2.49914 0 69.5529
-1764.4 -2.45873 0 68.8461
-2036.49 -6.19448 0 112.754
-2000.04 -6.12125 0 111.081
-1434.35 1.00457 0 26.6925
-1460.41 0.91584 0 27.8871
-2018.26 -6.15811 0 111.919
-1717.51 -2.33548 0 66.7012
-1447.38 0.960109 0 27.2915
-1748.77 -2.41798 0 68.1352
-1733.14 -2.3769 0 67.4202
-2000.04 -6.12125 0 111.081
-1963.6 -6.04608 0 109.389
-1408.29 1.09403 0 25.4845
-1434.35 1.00457 0 26.6925
-1981.82 -6.08391 0 110.237
-1686.26 -2.25167 0 65.2512
-1421.32 1.04921 0 26.0902
-1717.51 -2.33548 0 66.7012
-1701.89 -2.29374 0 65.9781
-1963.6 -6.04608 0 109.389
-1927.15 -5.96898 0 107.679
-1382.24 1.18421 0 24.2635
-1408.29 1.09403 0 25.4845
-1945.37 -6.00777 0 108.536
-1655.01 -2.16656 0 63.7855
-1395.26 1.13903 0 24.8756
-1686.26 -2.25167 0 65.2512
-1670.64 -2.20928 0 64.5203
-1927.15 -5.96898 0 107.679
-1890.71 -5.88999 0 105.951
-1356.18 1.2751 0 23.0296
-1382.24 1.18421 0 24.2635
-1908.93 -5.92972 0 106.817
-1623.76 -2.08018 0 62.3045
-1369.21 1.22957 0 23.6481
-1655.01 -2.16656 0 63.7855
-1639.38 -2.12353 0 63.0469
-1890.71 -5.88999 0 105.951
-1854.26 -5.80911 0 104.205
-1330.13 1.36667 0 21.7831
-1356.18 1.2751 0 23.0296
-1872.48 -5.84978 0 105.08
-1592.51 -1.99254 0 60.8084
-1343.16 1.3208 0 22.4079
-1623.76 -2.08018 0 62.3045
-1608.13 -2.03651 0 61.5583
-1854.26 -5.80911 0 104.205
-1817.82 -5.72639 0 102.442
-1304.08 1.4589 0 20.5243
-1330.13 1.36667 0 21.7831
-1836.04 -5.76798 0 103.326
-1561.26 -1.90368 0 59.2974
-1317.1 1.4127 0 21.1552
-1592.51 -1.99254 0 60.8084
-1576.88 -1.94826 0 60.0547
-1817.82 -5.72639 0 102.442
-1781.38 -5.64186 0 100.662
-1278.03 1.55178 0 19.2534
-1304.08 1.4589 0 20.5243
-1799.6 -5.68435 0 101.554
-1530.01 -1.81361 0 57.772
-1291.05 1.50526 0 19.8903
-1561.26 -1.90368 0 59.2974
-1545.63 -1.85879 0 58.5365
-1781.38 -5.64186 0 100.662
-1744.93 -5.55553 0 98.8661
-1251.98 1.64528 0 17.9705
-1278.03 1.55178 0 19.2534
-1763.15 -5.59891 0 99.7663
-1498.76 -1.72236 0 56.2323
-1265 1.59846 0 18.6134
-1530.01 -1.81361 0 57.772
-1514.39 -1.76813 0 57.0039
-1744.93 -5.55553 0 98.8661
-1708.49 -5.46743 0 97.0535
-1225.93 1.73939 0 16.6761
-1251.98 1.64528 0 17.9705
-1726.71 -5.5117 0 97.9618
-1467.51 -1.62996 0 54.6787
-1238.95 1.69226 0 17.3248
-1498.76 -1.72236 0 56.2323
-1483.14 -1.6763 0 55.4572
-1708.49 -5.46743 0 97.0535
-1672.05 -5.37761 0 95.2249
-1199.88 1.83408 0 15.3703
-1225.93 1.73939 0 16.6761
-1690.27 -5.42273 0 96.1412
-1436.27 -1.53642 0 53.1114
-1212.9 1.78666 0 16.0246
-1467.51 -1.62996 0 54.6787
-1451.89 -1.58333 0 53.8967
-1672.05 -5.37761 0 95.2249
-1635.61 -5.28607 0 93.3808
-1173.83 1.92933 0 14.0533
-1199.88 1.83408 0 15.3703
-1653.83 -5.33205 0 94.3048
-1405.02 -1.44178 0 51.5307
-1186.85 1.88164 0 14.7132
-1436.27 -1.53642 0 53.1114
-1420.64 -1.48924 0 52.3227
-1635.61 -5.28607 0 93.3808
-1599.17 -5.19287 0 91.5215
-1147.78 2.02513 0 12.7254
-1173.83 1.92933 0 14.0533
-1617.39 -5.23968 0 92.453
-1373.78 -1.34605 0 49.937
-1160.81 1.97716 0 13.3907
-1405.02 -1.44178 0 51.5307
-1389.4 -1.39405 0 50.7355
-1599.17 -5.19287 0 91.5215
-1562.73 -5.09802 0 89.6472
-1121.74 2.12144 0 11.3869
-1147.78 2.02513 0 12.7254
-1580.95 -5.14564 0 90.5862
-1342.53 -1.24927 0 48.3305
-1134.76 2.07322 0 12.0575
-1373.78 -1.34605 0 49.937
-1358.15 -1.29779 0 49.1354
-1562.73 -5.09802 0 89.6472
-1526.29 -5.00155 0 87.7584
-1095.69 2.21825 0 10.0379
-1121.74 2.12144 0 11.3869
-1544.51 -5.04998 0 88.7046
-1311.29 -1.15147 0 46.7115
-1108.71 2.16979 0 10.7137
-1342.53 -1.24927 0 48.3305
-1326.91 -1.2005 0 47.5226
-1526.29 -5.00155 0 87.7584
-1489.85 -4.9035 0 85.8553
-1069.65 2.31554 0 8.6788
-1095.69 2.21825 0 10.0379
-1508.07 -4.95272 0 86.8086
-1280.04 -1.05266 0 45.0803
-1082.67 2.26684 0 9.35963
-1311.29 -1.15147 0 46.7115
-1295.67 -1.10219 0 45.8974
-1489.85 -4.9035 0 85.8553
-1453.41 -4.8039 0 83.9384
-1043.6 2.41328 0 7.30971
-1069.65 2.31554 0 8.6788
-1471.63 -4.85389 0 84.8986
-1248.8 -0.952875 0 43.4372
-1056.62 2.36435 0 7.99549
-1280.04 -1.05266 0 45.0803
-1264.42 -1.00289 0 44.2602
-1453.41 -4.8039 0 83.9384
-1416.97 -4.70279 0 82.0079
-1017.56 2.51145 0 5.93092
-1043.6 2.41328 0 7.30971
-1435.19 -4.75353 0 82.9748
-1217.56 -0.852144 0 41.7825
-1030.58 2.46231 0 6.62152
-1248.8 -0.952875 0 43.4372
-1233.18 -0.902626 0 42.6113
-1416.97 -4.70279 0 82.0079
-1380.54 -4.60018 0 80.0642
-991.513 2.61002 0 4.54268
-1017.56 2.51145 0 5.93092
-1398.76 -4.65167 0 81.0377
-1186.32 -0.750495 0 40.1164
-1004.53 2.56068 0 5.23797
-1217.56 -0.852144 0 41.7825
-1201.94 -0.801433 0 40.9508
-1380.54 -4.60018 0 80.0642
-1344.1 -4.49613 0 78.1076
-965.47 2.70898 0 3.14521
-991.513 2.61002 0 4.54268
-1362.32 -4.54833 0 79.0875
-1155.08 -0.647955 0 38.4393
-978.492 2.65945 0 3.84508
-1186.32 -0.750495 0 40.1164
-1170.7 -0.699334 0 39.2792
-1344.1 -4.49613 0 78.1076
-1307.66 -4.39065 0 76.1385
-939.428 2.8083 0 1.73876
-965.47 2.70898 0 3.14521
-1325.88 -4.44356 0 77.1246
-1123.83 -0.544552 0 36.7514
-952.449 2.75859 0 2.44309
-1155.08 -0.647955 0 38.4393
-1139.45 -0.596359 0 37.5967
-1307.66 -4.39065 0 76.1385
-1271.22 -4.28379 0 74.1571
-913.386 2.90795 0 0.323575
-939.428 2.8083 0 1.73876
-1289.44 -4.33739 0 75.1493
-1092.59 -0.440317 0 35.053
-926.407 2.85808 0 1.03224
-1123.83 -0.544552 0 36.7514
-1108.21 -0.492537 0 35.9035
-1271.22 -4.28379 0 74.1571
-1234.79 -4.17557 0 72.1639
-887.345 3.00791 0 -1.10011
-913.386 2.90795 0 0.323575
-1253 -4.22985 0 73.162
-1061.35 -0.335278 0 33.3445
-900.365 2.95789 0 -0.387218
-1092.59 -0.440317 0 35.053
-1076.97 -0.387896 0 34.2
-1234.79 -4.17557 0 72.1639
-1198.35 -4.06604 0 70.1592
-861.304 3.10815 0 -2.53204
-887.345 3.00791 0 -1.10011
-1216.57 -4.12097 0 71.163
-1030.11 -0.229464 0 31.6261
-874.324 3.058 0 -1.81506
-1061.35 -0.335278 0 33.3445
-1045.73 -0.282466 0 32.4865
-1198.35 -4.06604 0 70.1592
-1161.91 -3.95523 0 68.1433
-835.263 3.20866 0 -3.97199
-861.304 3.10815 0 -2.53204
-1180.13 -4.01079 0 69.1526
-998.871 -0.122907 0 29.898
-848.284 3.15837 0 -3.25103
-1030.11 -0.229464 0 31.6261
-1014.49 -0.176277 0 30.7632
-1161.91 -3.95523 0 68.1433
-1125.47 -3.84316 0 66.1165
-809.223 3.30939 0 -5.4197
-835.263 3.20866 0 -3.97199
-1143.69 -3.89935 0 67.1312
-967.631 -0.0156371 0 28.1607
-822.243 3.259 0 -4.69489
-998.871 -0.122907 0 29.898
-983.251 -0.0693594 0 29.0305
-1125.47 -3.84316 0 66.1165
-1089.04 -3.72989 0 64.0792
-783.184 3.41034 0 -6.87494
-809.223 3.30939 0 -5.4197
-1107.25 -3.78668 0 65.0991
-936.392 0.0923153 0 26.4143
-796.203 3.35984 0 -6.1464
-967.631 -0.0156371 0 28.1607
-952.011 0.0382558 0 27.2886
-1089.04 -3.72989 0 64.0792
-1052.6 -3.61544 0 62.0317
-757.144 3.51145 0 -8.33746
-783.184 3.41034 0 -6.87494
-1070.82 -3.67281 0 63.0567
-905.152 0.200918 0 24.6592
-770.164 3.46087 0 -7.60531
-936.392 0.0923153 0 26.4143
-920.772 0.146538 0 25.5378
-1052.6 -3.61544 0 62.0317
-1016.16 -3.49985 0 59.9744
-731.105 3.61272 0 -9.80701
-757.144 3.51145 0 -8.33746
-1034.38 -3.55778 0 61.0043
-873.912 0.31014 0 22.8957
-744.125 3.56207 0 -9.07137
-905.152 0.200918 0 24.6592
-889.532 0.255454 0 23.7785
-1016.16 -3.49985 0 59.9744
-979.721 -3.38316 0 57.9075
-705.066 3.71412 0 -11.2833
-731.105 3.61272 0 -9.80701
-997.94 -3.44164 0 58.9421
-842.673 0.419948 0 21.124
-718.086 3.66341 0 -10.5443
-873.912 0.31014 0 22.8957
-858.293 0.364973 0 22.0108
-979.721 -3.38316 0 57.9075
-943.283 -3.26539 0 55.8315
-679.028 3.8156 0 -12.7662
-705.066 3.71412 0 -11.2833
-961.502 -3.32441 0 56.8707
-811.434 0.53031 0 19.3445
-692.047 3.76485 0 -12.024
-842.673 0.419948 0 21.124
-827.053 0.475062 0 20.2352
-943.283 -3.26539 0 55.8315
-906.845 -3.1466 0 53.7467
-652.989 3.91716 0 -14.2554
-679.028 3.8156 0 -12.7662
-925.064 -3.20613 0 54.7902
-780.194 0.641194 0 17.5574
-666.009 3.86637 0 -13.51
-811.434 0.53031 0 19.3445
-795.814 0.585689 0 18.4519
-906.845 -3.1466 0 53.7467
-870.406 -3.02682 0 51.6534
-626.951 4.01876 0 -15.7506
-652.989 3.91716 0 -14.2554
-888.625 -3.08683 0 52.7011
-748.955 0.752569 0 15.7631
-639.97 3.96795 0 -15.0022
-780.194 0.641194 0 17.5574
-764.575 0.696822 0 16.6611
-870.406 -3.02682 0 51.6534
-833.967 -2.90609 0 49.5519
-600.914 4.12039 0 -17.2516
-626.951 4.01876 0 -15.7506
-852.186 -2.96657 0 50.6037
-717.716 0.864405 0 13.9618
-613.932 4.06957 0 -16.5004
-748.955 0.752569 0 15.7631
-733.336 0.808431 0 14.8633
-833.967 -2.90609 0 49.5519
-797.528 -2.78443 0 47.4427
-574.876 4.22205 0 -18.7582
-600.914 4.12039 0 -17.2516
-815.747 -2.84537 0 48.4983
-686.477 0.976677 0 12.1538
-587.895 4.17122 0 -18.0042
-717.716 0.864405 0 13.9618
-702.096 0.920488 0 13.0586
-797.528 -2.78443 0 47.4427
-761.089 -2.66191 0 45.3259
-548.838 4.32376 0 -20.2701
-574.876 4.22205 0 -18.7582
-779.308 -2.72328 0 46.3852
-655.238 1.08937 0 10.3394
-561.857 4.2729 0 -19.5135
-686.477 0.976677 0 12.1538
-670.857 1.03297 0 11.2474
-761.089 -2.66191 0 45.3259
-724.649 -2.53854 0 43.2021
-522.801 4.42554 0 -21.7873
-548.838 4.32376 0 -20.2701
-742.869 -2.60033 0 44.2649
-623.998 1.20247 0 8.51872
-535.82 4.37463 0 -21.0281
-655.238 1.08937 0 10.3394
-639.618 1.14587 0 9.4298
-724.649 -2.53854 0 43.2021
-688.209 -2.4144 0 41.0714
-496.764 4.52744 0 -23.3097
-522.801 4.42554 0 -21.7873
-706.429 -2.47657 0 42.1375
-592.759 1.31599 0 6.69207
-509.782 4.47647 0 -22.5479
-623.998 1.20247 0 8.51872
-608.379 1.25917 0 7.60614
-688.209 -2.4144 0 41.0714
-651.768 -2.28951 0 38.9342
-470.726 4.62952 0 -24.8371
-496.764 4.52744 0 -23.3097
-669.989 -2.35205 0 40.0036
-561.519 1.42992 0 4.85953
-483.745 4.57846 0 -24.0727
-592.759 1.31599 0 6.69207
-577.139 1.3729 0 5.77653
-651.768 -2.28951 0 38.9342
-615.326 -2.16393 0 36.7908
-444.689 4.73173 0 -26.3695
-470.726 4.62952 0 -24.8371
-633.547 -2.22679 0 37.8633
-530.278 1.54429 0 3.02124
-457.708 4.68062 0 -25.6027
-561.519 1.42992 0 4.85953
-545.899 1.48704 0 3.9411
-615.326 -2.16393 0 36.7908
-578.881 -2.03777 0 34.6415
-418.651 4.83383 0 -27.9068
-444.689 4.73173 0 -26.3695
-597.103 -2.10097 0 35.717
-499.036 1.65899 0 1.1773
-431.67 4.78282 0 -27.1375
-530.278 1.54429 0 3.02124
-514.657 1.60161 0 2.09996
-578.881 -2.03777 0 34.6415
-542.432 -1.91083 0 32.4865
-392.614 4.93484 0 -29.4483
-418.651 4.83383 0 -27.9068
-560.657 -1.97427 0 33.5646
-467.792 1.77388 0 -0.671689
-405.633 4.88459 0 -28.6771
-499.036 1.65899 0 1.1773
-483.415 1.71641 0 0.253404
-542.432 -1.91083 0 32.4865
-505.979 -1.78391 0 30.3258
-366.575 5.03276 0 -30.9924
-392.614 4.93484 0 -29.4483
-524.206 -1.84769 0 31.4071
-436.548 1.88807 0 -2.52465
-379.595 4.98437 0 -30.2202
-467.792 1.77388 0 -0.671689
-452.17 1.83118 0 -1.59783
-505.979 -1.78391 0 30.3258
-469.52 -1.65463 0 28.1603
-340.538 5.1222 0 -32.5341
-366.575 5.03276 0 -30.9924
-487.75 -1.71884 0 29.2433
-405.304 2.00043 0 -4.37772
-353.556 5.07909 0 -31.7641
-436.548 1.88807 0 -2.52465
-420.926 1.9445 0 -3.45141
-469.52 -1.65463 0 28.1603
-433.069 -1.52878 0 25.9883
-314.497 5.19455 0 -34.065
-340.538 5.1222 0 -32.5341
-451.292 -1.59322 0 27.076
-374.07 2.10653 0 -6.2241
-327.518 5.16132 0 -33.3016
-405.304 2.00043 0 -4.37772
-389.685 2.05483 0 -5.30267
-433.069 -1.52878 0 25.9883
-396.629 -1.3899 0 23.8159
-288.458 5.2281 0 -35.5619
-314.497 5.19455 0 -34.065
-414.847 -1.45685 0 24.9004
-342.855 2.20125 0 -8.04603
-301.476 5.21805 0 -34.82
-374.07 2.10653 0 -6.2241
-358.46 2.15524 0 -7.1391
-396.629 -1.3899 0 23.8159
-360.289 -1.27364 0 21.6332
-262.4 5.19729 0 -36.9948
-288.458 5.2281 0 -35.5619
-378.439 -1.33955 0 22.7291
-311.704 2.26781 0 -9.81373
-275.435 5.22355 0 -36.2886
-342.855 2.20125 0 -8.04603
-327.266 2.24072 0 -8.94098
-360.289 -1.27364 0 21.6332
-324.073 -1.08613 0 19.4726
-236.342 5.03004 0 -38.2835
-262.4 5.19729 0 -36.9948
-342.163 -1.16648 0 20.5422
-280.654 2.28834 0 -11.4653
-249.365 5.13508 0 -37.6654
-311.704 2.26781 0 -9.81373
-296.168 2.28197 0 -10.6561
-324.073 -1.08613 0 19.4726
-288.39 -1.02175 0 17.2863
-210.172 4.68501 0 -39.3529
-236.342 5.03004 0 -38.2835
-306.134 -1.09343 0 18.3961
-249.873 2.21109 0 -12.8955
-223.289 4.88832 0 -38.8496
-280.654 2.28834 0 -11.4653
-265.207 2.27423 0 -12.2261
-288.39 -1.02175 0 17.2863
-253.303 -0.596282 0 15.223
-183.948 3.9585 0 -39.9915
-210.172 4.68501 0 -39.3529
-270.76 -0.738311 0 16.2039
-219.436 1.98433 0 -13.9445
-197.046 4.37095 0 -39.7487
-249.873 2.21109 0 -12.8955
-234.626 2.1012 0 -13.4634
-253.303 -0.596282 0 15.223
-220.343 -0.780697 0 13.0664
-157.137 2.96065 0 -40.1407
-183.948 3.9585 0 -39.9915
-236.461 -0.886398 0 14.2176
-189.867 1.47895 0 -14.2967
-170.693 3.5181 0 -40.1218
-219.436 1.98433 0 -13.9445
-204.459 1.82143 0 -14.2789
-220.343 -0.780697 0 13.0664
-189.527 0.746329 0 11.4316
-129.859 1.23924 0 -39.4854
-157.137 2.96065 0 -40.1407
-204.59 0.347165 0 12.0162
-161.006 0.584192 0 -13.756
-143.491 2.12689 0 -39.9509
-189.867 1.47895 0 -14.2967
-175.461 0.991216 0 -14.0648
-189.527 0.746329 0 11.4316
-165.738 -0.578094 0 9.4457
-99.8521 0.365589 0 -38.7702
-129.859 1.23924 0 -39.4854
-176.606 -0.87545 0 10.7801
-134.194 -0.90616 0 -11.5833
-115.494 0.749081 0 -39.0366
-161.006 0.584192 0 -13.756
-147.045 0.138825 0 -13.1366
-165.738 -0.578094 0 9.4457
-149.256 4.98216 0 10.2133
-67.4941 0.468694 0 -39.1191
-99.8521 0.365589 0 -38.7702
-155.909 4.24876 0 8.51096
-106.282 -2.80779 0 -9.19584
-83.7703 -0.317587 0 -38.6873
-134.194 -0.90616 0 -11.5833
-121.106 -2.24251 0 -9.86415
-149.256 4.98216 0 10.2133
-159.314 -6.26745 0 14.488
-27.2469 14.6374 0 -47.8924
-67.4941 0.468694 0 -39.1191
-151.019 -4.38963 0 12.5966
-75.9334 -2.06902 0 -8.55247
-49.0845 5.32609 0 -41.6787
-106.282 -2.80779 0 -9.19584
-90.8356 -2.53636 0 -9.21666
-159.314 -6.26745 0 14.488
-217.96 -29.8743 0 51.6148
2.8308 70.3763 0 -72.1426
-27.2469 14.6374 0 -47.8924
-175.241 5.44148 0 21.8519
-7.87022 39.9957 0 -41.8258
-9.24476 29.6477 0 -57.3417
-75.9334 -2.06902 0 -8.55247
-52.4828 5.37823 0 -15.6369
-217.96 -29.8743 0 51.6148
-36.8576 357.938 0 -184.056
-7.05671 266.526 0 -59.7983
2.8308 70.3763 0 -72.1426
-227.907 -61.0971 0 26.7659
16.8259 340.139 0 -103.158
6.48649 152.922 0 -80.4812
-7.87022 39.9957 0 -41.8258
20.7606 122.164 0 -75.7281
-4819.59 -1452.16 0 -189.715
-5101.2 -553.897 0 -276.651
-3026.2 -533.177 0 -6.0553
-2788.09 -838.385 0 256.637
-5006.82 -1043.73 0 -323.607
-4000.48 -612.537 0 -113.375
-2949.88 -675.421 0 97.8136
-3951.28 -1189.66 0 42.6177
-3909.56 -849.127 0 -34.6229
-5101.2 -553.897 0 -276.651
-5176.03 -167.355 0 -125.815
-3082.87 -237.119 0 -86.3669
-3026.2 -533.177 0 -6.0553
-5172.14 -286.007 0 -196.229
-4142.09 -242.553 0 -130.331
-3051.47 -374.239 0 -58.167
-4000.48 -612.537 0 -113.375
-4110.2 -413.553 0 -148.527
-5176.03 -167.355 0 -125.815
-5110.51 -33.8111 0 -39.2544
-3111.68 -88.4256 0 -100.281
-3082.87 -237.119 0 -86.3669
-5136.64 -84.6586 0 -69.3264
-4131.58 -74.7384 0 -83.2281
-3110.55 -147.632 0 -99.7318
-4142.09 -242.553 0 -130.331
-4139.56 -134.088 0 -100.542
-5110.51 -33.8111 0 -39.2544
-5065.97 -5.39606 0 -18.2593
-3087.87 -19.945 0 -90.5974
-3111.68 -88.4256 0 -100.281
-5090.75 -13.0138 0 -25.5413
-4092.12 -10.8414 0 -59.2367
-3098.66 -45.9381 0 -94.939
-4131.58 -74.7384 0 -83.2281
-4114.64 -35.6625 0 -70.3962
-5065.97 -5.39606 0 -18.2593
-5021.45 5.11959 0 -14.9988
-3060.19 -0.354307 0 -83.6207
-3087.87 -19.945 0 -90.5974
-5040.09 1.40384 0 -14.7925
-4049.97 4.29669 0 -50.4111
-3076.32 -6.83667 0 -87.1217
-4092.12 -10.8414 0 -59.2367
-4069.22 0.872532 0 -52.5275
-5021.45 5.11959 0 -14.9988
-4990.71 3.11903 0 -18.7942
-3028.34 4.22462 0 -78.4581
-3060.19 -0.354307 0 -83.6207
-5006.57 4.66741 0 -17.0774
-4014.96 6.03974 0 -48.9123
-3042.73 3.35563 0 -80.4742
-4049.97 4.29669 0 -50.4111
-4032.1 5.73762 0 -49.6531
-4990.71 3.11903 0 -18.7942
-4960.94 1.20339 0 -21.4677
-3002.68 1.59177 0 -75.7974
-3028.34 4.22462 0 -78.4581
-4974.91 2.20475 0 -20.146
-3985 2.61842 0 -49.2246
-3015.54 3.17341 0 -77.0791
-4014.96 6.03974 0 -48.9123
-3999.18 4.72887 0 -48.8023
-4960.94 1.20339 0 -21.4677
-4934.43 -1.3472 0 -23.1088
-2979.55 -1.44036 0 -73.7343
-3002.68 1.59177 0 -75.7974
-4947.85 -0.158576 0 -22.579
-3959.01 -0.617385 0 -49.4788
-2990.39 0.11196 0 -74.6417
-3985 2.61842 0 -49.2246
-3971.72 0.833297 0 -49.5191
-4934.43 -1.3472 0 -23.1088
-4907.9 -2.85935 0 -23.03
-2959.91 -4.21657 0 -72.1509
-2979.55 -1.44036 0 -73.7343
-4920.98 -2.17895 0 -23.1985
-3935.29 -3.24089 0 -49.0972
-2969.59 -2.96125 0 -72.9491
-3959.01 -0.617385 0 -49.4788
-3946.89 -2.00496 0 -49.332
-4907.9 -2.85935 0 -23.03
-4881.93 -3.91217 0 -21.9925
-2941.77 -5.95924 0 -70.5966
-2959.91 -4.21657 0 -72.1509
-4894.97 -3.46107 0 -22.6392
-3912.95 -4.85185 0 -48.0883
-2950.59 -5.18108 0 -71.3566
-3935.29 -3.24089 0 -49.0972
-3924.02 -4.17161 0 -48.6823
-4881.93 -3.91217 0 -21.9925
-4855.85 -4.44928 0 -20.2139
-2924.91 -7.02671 0 -69.0896
-2941.77 -5.95924 0 -70.5966
-4868.86 -4.22154 0 -21.1602
-3891.33 -5.80345 0 -46.6383
-2933.28 -6.58054 0 -69.8496
-3912.95 -4.85185 0 -48.0883
-3902.07 -5.39173 0 -47.399
-4855.85 -4.44928 0 -20.2139
-4829.84 -4.73004 0 -18.0766
-2908.57 -7.53919 0 -67.5653
-2924.91 -7.02671 0 -69.0896
-4842.86 -4.61969 0 -19.1836
-3870.1 -6.26545 0 -44.9099
-2916.67 -7.33149 0 -68.3251
-3891.33 -5.80345 0 -46.6383
-3880.69 -6.08487 0 -45.8038
-4829.84 -4.73004 0 -18.0766
-4803.76 -4.82958 0 -15.7309
-2892.59 -7.74306 0 -66.05
-2908.57 -7.53919 0 -67.5653
-4816.79 -4.79413 0 -16.9178
-3849.04 -6.45308 0 -43.0381
-2900.56 -7.67424 0 -66.8081
-3870.1 -6.26545 0 -44.9099
-3859.55 -6.38423 0 -43.9843
-4803.76 -4.82958 0 -15.7309
-4777.68 -4.84235 0 -13.3122
-2876.76 -7.7521 0 -64.543
-2892.59 -7.74306 0 -66.05
-4790.72 -4.84482 0 -14.5273
-3828.07 -6.47664 0 -41.1023
-2884.66 -7.7639 0 -65.2941
-3849.04 -6.45308 0 -43.0381
-3838.55 -6.48024 0 -42.0753
-4777.68 -4.84235 0 -13.3122
-4751.57 -4.80573 0 -10.875
-2861 -7.66472 0 -63.0562
-2876.76 -7.7521 0 -64.543
-4764.62 -4.8277 0 -12.0925
-3807.13 -6.41842 0 -39.1534
-2868.88 -7.71773 0 -63.7971
-3828.07 -6.47664 0 -41.1023
-3817.6 -6.45447 0 -40.127
-4751.57 -4.80573 0 -10.875
-4725.46 -4.7486 0 -8.45749
-2845.27 -7.52628 0 -61.5924
-2861 -7.66472 0 -63.0562
-4738.52 -4.77899 0 -9.66281
-3786.21 -6.31895 0 -37.2175
-2853.13 -7.5994 0 -62.321
-3807.13 -6.41842 0 -39.1534
-3796.67 -6.37217 0 -38.1829
-4725.46 -4.7486 0 -8.45749
-4699.35 -4.68278 0 -6.07373
-2829.55 -7.36704 0 -60.1551
-2845.27 -7.52628 0 -61.5924
-4712.41 -4.71614 0 -7.26062
-3765.29 -6.20277 0 -35.3084
-2837.41 -7.44841 0 -60.8704
-3786.21 -6.31895 0 -37.2175
-3775.75 -6.26204 0 -36.259
-4699.35 -4.68278 0 -6.07373
-4673.23 -4.61552 0 -3.73182
-2813.83 -7.19998 0 -58.745
-2829.55 -7.36704 0 -60.1551
-4686.29 -4.64915 0 -4.89737
-3744.36 -6.08097 0 -33.4323
-2821.69 -7.28388 0 -59.4466
-3765.29 -6.20277 0 -35.3084
-3754.82 -6.14216 0 -34.3661
-4673.23 -4.61552 0 -3.73182
-4647.11 -4.54948 0 -1.43387
-2798.11 -7.03233 0 -57.3624
-2813.83 -7.19998 0 -58.745
-4660.17 -4.58223 0 -2.57725
-3723.44 -5.95924 0 -31.5914
-2805.97 -7.11605 0 -58.0503
-3744.36 -6.08097 0 -33.4323
-3733.9 -6.01992 0 -32.5073
-4647.11 -4.54948 0 -1.43387
-4620.98 -4.48595 0 0.819399
-2782.39 -6.86663 0 -56.0071
-2798.11 -7.03233 0 -57.3624
-4634.05 -4.51738 0 -0.301673
-3702.51 -5.83967 0 -29.7865
-2790.25 -6.94913 0 -56.6814
-3723.44 -5.95924 0 -31.5914
-3712.97 -5.89912 0 -30.6845
-4620.98 -4.48595 0 0.819399
-4594.86 -4.42518 0 3.02841
-2766.66 -6.70393 0 -54.6786
-2782.39 -6.86663 0 -56.0071
-4607.92 -4.45521 0 1.92941
-3681.58 -5.72303 0 -28.0172
-2774.52 -6.7849 0 -55.3395
-3702.51 -5.83967 0 -29.7865
-3692.04 -5.78098 0 -28.8974
-4594.86 -4.42518 0 3.02841
-4568.73 -4.36716 0 5.19368
-2750.93 -6.54428 0 -53.3765
-2766.66 -6.70393 0 -54.6786
-4581.8 -4.39584 0 4.11647
-3660.64 -5.60935 0 -26.283
-2758.8 -6.62373 0 -54.0243
-3681.58 -5.72303 0 -28.0172
-3671.11 -5.66583 0 -27.1457
-4568.73 -4.36716 0 5.19368
-4542.61 -4.31174 0 7.31582
-2735.2 -6.38752 0 -52.1005
-2750.93 -6.54428 0 -53.3765
-4555.67 -4.33914 0 6.26011
-3639.71 -5.49846 0 -24.5836
-2743.07 -6.46556 0 -52.7353
-3660.64 -5.60935 0 -26.283
-3650.17 -5.55357 0 -25.429
-4542.61 -4.31174 0 7.31582
-4516.48 -4.25872 0 9.39533
-2719.47 -6.23337 0 -50.8501
-2735.2 -6.38752 0 -52.1005
-4529.54 -4.28494 0 8.36088
-3618.77 -5.39012 0 -22.9183
-2727.34 -6.31014 0 -51.4721
-3639.71 -5.49846 0 -24.5836
-3629.24 -5.44398 0 -23.7467
-4516.48 -4.25872 0 9.39533
-4490.34 -4.20794 0 11.4326
-2703.74 -6.08158 0 -49.625
-2719.47 -6.23337 0 -50.8501
-4503.41 -4.23306 0 10.4192
-3597.83 -5.28412 0 -21.2869
-2711.61 -6.1572 0 -50.2344
-3618.77 -5.39012 0 -22.9183
-3608.3 -5.33684 0 -22.0984
-4490.34 -4.20794 0 11.4326
-4464.21 -4.15927 0 13.4281
-2688.01 -5.93196 0 -48.4251
-2703.74 -6.08158 0 -49.625
-4477.28 -4.18335 0 12.4356
-3576.89 -5.18029 0 -19.689
-2695.87 -6.00651 0 -49.022
-3597.83 -5.28412 0 -21.2869
-3587.36 -5.23195 0 -20.4838
-4464.21 -4.15927 0 13.4281
-4438.08 -4.11257 0 15.3821
-2672.28 -5.78434 0 -47.2502
-2688.01 -5.93196 0 -48.4251
-4451.14 -4.13568 0 14.4103
-3555.95 -5.07848 0 -18.1243
-2680.14 -5.85791 0 -47.8345
-3576.89 -5.18029 0 -19.689
-3566.42 -5.12914 0 -18.9025
-4438.08 -4.11257 0 15.3821
-4411.94 -4.06774 0 17.2948
-2656.54 -5.63862 0 -46.0999
-2672.28 -5.78434 0 -47.2502
-4425.01 -4.08993 0 16.3436
-3535.01 -4.97858 0 -16.5926
-2664.41 -5.71125 0 -46.672
-3555.95 -5.07848 0 -18.1243
-3545.48 -5.0283 0 -17.3543
-4411.94 -4.06774 0 17.2948
-4385.8 -4.0247 0 19.1666
-2640.81 -5.4947 0 -44.9743
-2656.54 -5.63862 0 -46.0999
-4398.87 -4.046 0 18.2358
-3514.07 -4.8805 0 -15.0937
-2648.67 -5.56644 0 -45.534
-3535.01 -4.97858 0 -16.5926
-3524.54 -4.92932 0 -15.8391
-4385.8 -4.0247 0 19.1666
-4359.66 -3.98334 0 20.9977
-2625.07 -5.3525 0 -43.873
-2640.81 -5.4947 0 -44.9743
-4372.73 -4.00381 0 20.0872
-3493.13 -4.78415 0 -13.6274
-2632.94 -5.42339 0 -44.4206
-3514.07 -4.8805 0 -15.0937
-3503.6 -4.83211 0 -14.3565
-4359.66 -3.98334 0 20.9977
-4333.52 -3.9436 0 22.7883
-2609.34 -5.21198 0 -42.796
-2625.07 -5.3525 0 -43.873
-4346.59 -3.96327 0 21.898
-3472.18 -4.68948 0 -12.1934
-2617.21 -5.28204 0 -43.3315
-3493.13 -4.78415 0 -13.6274
-3482.66 -4.73661 0 -12.9064
-4333.52 -3.9436 0 22.7883
-4307.38 -3.90539 0 24.5386
-2593.6 -5.07309 0 -41.7432
-2609.34 -5.21198 0 -42.796
-4320.45 -3.92431 0 23.6685
-3451.24 -4.59641 0 -10.7916
-2601.47 -5.14234 0 -42.2666
-3472.18 -4.68948 0 -12.1934
-3461.71 -4.64274 0 -11.4885
-4307.38 -3.90539 0 24.5386
-4281.23 -3.86865 0 26.249
-2577.87 -4.93576 0 -40.7144
-2593.6 -5.07309 0 -41.7432
-4294.31 -3.88684 0 25.3988
-3430.29 -4.50488 0 -9.42187
-2585.73 -5.00423 0 -41.2258
-3451.24 -4.59641 0 -10.7916
-3440.77 -4.55046 0 -10.1028
-4281.23 -3.86865 0 26.249
-4255.09 -3.83329 0 27.9196
-2562.13 -4.79997 0 -39.7093
-2577.87 -4.93576 0 -40.7144
-4268.16 -3.8508 0 27.0892
-3409.35 -4.41484 0 -8.0839
-2570 -4.86768 0 -40.2089
-3430.29 -4.50488 0 -9.42187
-3419.82 -4.45968 0 -8.74892
-4255.09 -3.83329 0 27.9196
-4228.94 -3.79925 0 29.5507
-2546.39 -4.66566 0 -38.728
-2562.13 -4.79997 0 -39.7093
-4242.02 -3.81611 0 28.7401
-3388.4 -4.32624 0 -6.77753
-2554.26 -4.73263 0 -39.2157
-3409.35 -4.41484 0 -8.0839
-3398.87 -4.37037 0 -7.42677
-4228.94 -3.79925 0 29.5507
-4202.8 -3.76646 0 31.1425
-2530.65 -4.53281 0 -37.7703
-2546.39 -4.66566 0 -38.728
-4215.87 -3.7827 0 30.3515
-3367.45 -4.23901 0 -5.50259
-2538.52 -4.59906 0 -38.2462
-3388.4 -4.32624 0 -6.77753
-3377.92 -4.28245 0 -6.13615
-4202.8 -3.76646 0 31.1425
-4176.65 -3.73485 0 32.6953
-2514.92 -4.40136 0 -36.8359
-2530.65 -4.53281 0 -37.7703
-4189.72 -3.75051 0 31.9237
-3346.5 -4.1531 0 -4.25888
-2522.79 -4.46691 0 -37.3002
-3367.45 -4.23901 0 -5.50259
-3356.98 -4.19589 0 -4.87684
-4176.65 -3.73485 0 32.6953
-4150.5 -3.70435 0 34.2092
-2499.18 -4.27128 0 -35.9249
-2514.92 -4.40136 0 -36.8359
-4163.57 -3.71947 0 33.4571
-3325.55 -4.06846 0 -3.04621
-2507.05 -4.33615 0 -36.3775
-3346.5 -4.1531 0 -4.25888
-3336.03 -4.11062 0 -3.64868
-4150.5 -3.70435 0 34.2092
-4124.35 -3.6749 0 35.6847
-2483.44 -4.14253 0 -35.0369
-2499.18 -4.27128 0 -35.9249
-4137.42 -3.6895 0 34.9518
-3304.6 -3.98503 0 -1.86438
-2491.31 -4.20674 0 -35.478
-3325.55 -4.06846 0 -3.04621
-3315.08 -4.02659 0 -2.45145
-4124.35 -3.6749 0 35.6847
-4098.2 -3.64644 0 37.1218
-2467.7 -4.01507 0 -34.172
-2483.44 -4.14253 0 -35.0369
-4111.27 -3.66055 0 36.408
-3283.65 -3.90277 0 -0.713208
-2475.57 -4.07864 0 -34.6016
-3304.6 -3.98503 0 -1.86438
-3294.13 -3.94376 0 -1.28498
-4098.2 -3.64644 0 37.1218
-4072.05 -3.61889 0 38.5208
-2451.97 -3.88886 0 -33.3299
-2467.7 -4.01507 0 -34.172
-4085.12 -3.63255 0 37.826
-3262.7 -3.82162 0 0.407504
-2459.83 -3.95181 0 -33.7481
-3283.65 -3.90277 0 -0.713208
-3273.18 -3.86206 0 -0.149057
-4072.05 -3.61889 0 38.5208
-4045.9 -3.5922 0 39.882
-2436.23 -3.76387 0 -32.5105
-2451.97 -3.88886 0 -33.3299
-4058.97 -3.60544 0 39.2061
-3241.75 -3.74154 0 1.49795
-2444.1 -3.82622 0 -32.9174
-3262.7 -3.82162 0 0.407504
-3252.23 -3.78145 0 0.956498
-4045.9 -3.5922 0 39.882
-4019.74 -3.5663 0 41.2057
-2420.49 -3.64006 0 -31.7136
-2436.23 -3.76387 0 -32.5105
-4032.82 -3.57915 0 40.5485
-3220.8 -3.66246 0 2.55832
-2428.36 -3.70182 0 -32.1092
-3241.75 -3.74154 0 1.49795
-3231.28 -3.70188 0 2.03188
-4019.74 -3.5663 0 41.2057
-3993.59 -3.54113 0 42.4919
-2404.75 -3.51739 0 -30.9392
-2420.49 -3.64006 0 -31.7136
-4006.67 -3.55363 0 41.8534
-3199.85 -3.58436 0 3.58881
-2412.62 -3.57859 0 -31.3236
-3220.8 -3.66246 0 2.55832
-3210.33 -3.62329 0 3.07729
-3993.59 -3.54113 0 42.4919
-3967.44 -3.51664 0 43.7411
-2389.01 -3.39583 0 -30.187
-2404.75 -3.51739 0 -30.9392
-3980.51 -3.52881 0 43.1211
-3178.9 -3.50717 0 4.58962
-2396.88 -3.45648 0 -30.5603
-3199.85 -3.58436 0 3.58881
-3189.38 -3.54566 0 4.09291
-3967.44 -3.51664 0 43.7411
-3941.28 -3.49277 0 44.9534
-2373.27 -3.27535 0 -29.4569
-2389.01 -3.39583 0 -30.187
-3954.36 -3.50463 0 44.3519
-3157.95 -3.43086 0 5.56093
-2381.14 -3.33546 0 -29.8192
-3178.9 -3.50717 0 4.58962
-3168.43 -3.46891 0 5.07895
-3941.28 -3.49277 0 44.9534
-3915.13 -3.46946 0 46.1291
-2357.54 -3.1559 0 -28.7488
-2373.27 -3.27535 0 -29.4569
-3928.21 -3.48105 0 45.5458
-3137 -3.35537 0 6.50295
-2365.41 -3.2155 0 -29.1001
-3157.95 -3.43086 0 5.56093
-3147.47 -3.39302 0 6.03559
-3915.13 -3.46946 0 46.1291
-3888.98 -3.44665 0 47.2684
-2341.8 -3.03746 0 -28.0625
-2357.54 -3.1559 0 -28.7488
-3902.05 -3.45799 0 46.7033
-3116.05 -3.28067 0 7.41586
-2349.67 -3.09656 0 -28.4029
-3137 -3.35537 0 6.50295
-3126.52 -3.31793 0 6.96303
-3888.98 -3.44665 0 47.2684
-3862.82 -3.42429 0 48.3716
-2326.06 -2.91999 0 -27.3979
-2341.8 -3.03746 0 -28.0625
-3875.9 -3.43541 0 47.8245
-3095.1 -3.2067 0 8.29986
-2333.93 -2.97861 0 -27.7275
-3116.05 -3.28067 0 7.41586
-3105.57 -3.2436 0 7.86146
-3862.82 -3.42429 0 48.3716
-3836.67 -3.40232 0 49.4389
-2310.32 -2.80346 0 -26.7549
-2326.06 -2.91999 0 -27.3979
-3849.75 -3.41326 0 48.9097
-3074.15 -3.13343 0 9.15514
-2318.19 -2.86161 0 -27.0737
-3095.1 -3.2067 0 8.29986
-3084.62 -3.16998 0 8.73108
-3836.67 -3.40232 0 49.4389
-3810.52 -3.3807 0 50.4706
-2294.59 -2.68784 0 -26.1332
-2310.32 -2.80346 0 -26.7549
-3823.59 -3.39147 0 49.9592
-3053.19 -3.06081 0 9.9819
-2302.46 -2.74554 0 -26.4414
-3074.15 -3.13343 0 9.15514
-3063.67 -3.09704 0 9.57208
-3810.52 -3.3807 0 50.4706
-3784.36 -3.35937 0 51.4668
-2278.85 -2.5731 0 -25.5328
-2294.59 -2.68784 0 -26.1332
-3797.44 -3.37 0 50.9731
-3032.24 -2.98881 0 10.7803
-2286.72 -2.63036 0 -25.8303
-3053.19 -3.06081 0 9.9819
-3042.72 -3.02474 0 10.3847
-3784.36 -3.35937 0 51.4668
-3758.21 -3.33829 0 52.4279
-2263.11 -2.45921 0 -24.9534
-2278.85 -2.5731 0 -25.5328
-3771.28 -3.3488 0 51.9517
-3011.29 -2.91738 0 11.5506
-2270.98 -2.51605 0 -25.2405
-3032.24 -2.98881 0 10.7803
-3021.77 -2.95302 0 11.169
-3758.21 -3.33829 0 52.4279
-3732.05 -3.31739 0 53.3541
-2247.38 -2.34613 0 -24.3951
-2263.11 -2.45921 0 -24.9534
-3745.13 -3.32782 0 52.8953
-2990.34 -2.84648 0 12.293
-2255.25 -2.40257 0 -24.6716
-3011.29 -2.91738 0 11.5506
-3000.82 -2.88186 0 11.9253
-3732.05 -3.31739 0 53.3541
-3705.9 -3.29664 0 54.2456
-2231.64 -2.23385 0 -23.8575
-2247.38 -2.34613 0 -24.3951
-3718.98 -3.307 0 53.8041
-2969.39 -2.77607 0 13.0076
-2239.51 -2.28989 0 -24.1237
-2990.34 -2.84648 0 12.293
-2979.87 -2.81121 0 12.6538
-3705.9 -3.29664 0 54.2456
-3679.75 -3.27599 0 55.1026
-2215.91 -2.12232 0 -23.3406
-2231.64 -2.23385 0 -23.8575
-3692.82 -3.2863 0 54.6784
-2948.45 -2.70612 0 13.6947
-2223.78 -2.17799 0 -23.5965
-2969.39 -2.77607 0 13.0076
-2958.92 -2.74104 0 13.3546
-3679.75 -3.27599 0 55.1026
-3653.59 -3.25539 0 55.9255
-2200.17 -2.01153 0 -22.8442
-2215.91 -2.12232 0 -23.3406
-3666.67 -3.26568 0 55.5183
-2927.5 -2.63659 0 14.3544
-2208.04 -2.06684 0 -23.0898
-2948.45 -2.70612 0 13.6947
-2937.97 -2.6713 0 14.0279
-3653.59 -3.25539 0 55.9255
-3627.44 -3.23479 0 56.7144
-2184.44 -1.90145 0 -22.3682
-2200.17 -2.01153 0 -22.8442
-3640.52 -3.24509 0 56.3242
-2906.55 -2.56744 0 14.9869
-2192.31 -1.95641 0 -22.6037
-2927.5 -2.63659 0 14.3544
-2917.02 -2.60197 0 14.6741
-3627.44 -3.23479 0 56.7144
-3601.29 -3.21416 0 57.4697
-2168.71 -1.79205 0 -21.9124
-2184.44 -1.90145 0 -22.3682
-3614.36 -3.22448 0 57.0962
-2885.6 -2.49865 0 15.5925
-2176.57 -1.84667 0 -22.1378
-2906.55 -2.56744 0 14.9869
-2896.07 -2.533 0 15.2931
-3601.29 -3.21416 0 57.4697
-3575.14 -3.19344 0 58.1914
-2152.97 -1.6833 0 -21.4767
-2168.71 -1.79205 0 -21.9124
-3588.21 -3.20381 0 57.8347
-2864.65 -2.43016 0 16.1713
-2160.84 -1.73759 0 -21.6921
-2885.6 -2.49865 0 15.5925
-2875.13 -2.46437 0 15.8853
-3575.14 -3.19344 0 58.1914
-3548.98 -3.17261 0 58.88
-2137.24 -1.57518 0 -21.0609
-2152.97 -1.6833 0 -21.4767
-3562.06 -3.18305 0 58.5398
-2843.71 -2.36196 0 16.7236
-2145.11 -1.62916 0 -21.2663
-2864.65 -2.43016 0 16.1713
-2854.18 -2.39603 0 16.4508
-3548.98 -3.17261 0 58.88
-3522.83 -3.15161 0 59.5356
-2121.51 -1.46767 0 -20.6649
-2137.24 -1.57518 0 -21.0609
-3535.91 -3.16213 0 59.2119
-2822.76 -2.29401 0 17.2494
-2129.37 -1.52135 0 -20.8605
-2843.71 -2.36196 0 16.7236
-2833.23 -2.32796 0 16.9898
-3522.83 -3.15161 0 59.5356
-3496.68 -3.13041 0 60.1584
-2105.78 -1.36073 0 -20.2886
-2121.51 -1.46767 0 -20.6649
-3509.76 -3.14104 0 59.8511
-2801.81 -2.22627 0 17.7491
-2113.64 -1.41413 0 -20.4743
-2822.76 -2.29401 0 17.2494
-2812.29 -2.26012 0 17.5025
-3496.68 -3.13041 0 60.1584
-3470.53 -3.10897 0 60.7488
-2090.05 -1.25436 0 -19.9318
-2105.78 -1.36073 0 -20.2886
-3483.61 -3.11972 0 60.4577
-2780.87 -2.15872 0 18.2227
-2097.91 -1.30748 0 -20.1078
-2801.81 -2.22627 0 17.7491
-2791.34 -2.19248 0 17.9891
-3470.53 -3.10897 0 60.7488
-3444.38 -3.08725 0 61.3069
-2074.32 -1.14852 0 -19.5943
-2090.05 -1.25436 0 -19.9318
-3457.46 -3.09815 0 61.0319
-2759.92 -2.09133 0 18.6706
-2082.18 -1.20137 0 -19.7606
-2780.87 -2.15872 0 18.2227
-2770.4 -2.12501 0 18.4499
-3444.38 -3.08725 0 61.3069
-3418.23 -3.06522 0 61.833
-2058.59 -1.04319 0 -19.276
-2074.32 -1.14852 0 -19.5943
-3431.31 -3.07628 0 61.574
-2738.98 -2.02406 0 19.0929
-2066.45 -1.09579 0 -19.4327
-2759.92 -2.09133 0 18.6706
-2749.45 -2.05768 0 18.8849
-3418.23 -3.06522 0 61.833
-3392.09 -3.04283 0 62.3274
-2042.86 -0.938361 0 -18.9768
-2058.59 -1.04319 0 -19.276
-3405.16 -3.05407 0 62.0842
-2718.04 -1.95689 0 19.4897
-2050.72 -0.990718 0 -19.124
-2738.98 -2.02406 0 19.0929
-2728.51 -1.99046 0 19.2944
-3392.09 -3.04283 0 62.3274
-3365.94 -3.02006 0 62.7903
-2027.13 -0.833999 0 -18.6965
-2042.86 -0.938361 0 -18.9768
-3379.01 -3.0315 0 62.5628
-2697.1 -1.88979 0 19.8613
-2034.99 -0.886122 0 -18.8343
-2718.04 -1.95689 0 19.4897
-2707.57 -1.92333 0 19.6787
-3365.94 -3.02006 0 62.7903
-3339.79 -2.99687 0 63.2219
-2011.4 -0.730087 0 -18.4349
-2027.13 -0.833999 0 -18.6965
-3352.87 -3.00852 0 63.01
-2676.15 -1.82273 0 20.2079
-2019.27 -0.781987 0 -18.5634
-2697.1 -1.88979 0 19.8613
-2686.62 -1.85625 0 20.0377
-3339.79 -2.99687 0 63.2219
-3313.65 -2.97322 0 63.6224
-1995.68 -0.626606 0 -18.192
-2011.4 -0.730087 0 -18.4349
-3326.72 -2.9851 0 63.426
-2655.21 -1.75568 0 20.5297
-2003.54 -0.678293 0 -18.3111
-2676.15 -1.82273 0 20.2079
-2665.68 -1.7892 0 20.3719
-3313.65 -2.97322 0 63.6224
-3287.5 -2.94909 0 63.9922
-1979.95 -0.523537 0 -17.9676
-1995.68 -0.626606 0 -18.192
-3300.57 -2.96122 0 63.8112
-2634.27 -1.68863 0 20.8269
-1987.81 -0.575021 0 -18.0775
-2655.21 -1.75568 0 20.5297
-2644.74 -1.72216 0 20.6814
-3287.5 -2.94909 0 63.9922
-3261.36 -2.92445 0 64.3315
-1964.23 -0.420861 0 -17.7615
-1979.95 -0.523537 0 -17.9676
-3274.43 -2.93684 0 64.1656
-2613.34 -1.62155 0 21.0996
-1972.09 -0.472151 0 -17.8622
-2634.27 -1.68863 0 20.8269
-2623.8 -1.6551 0 20.9663
-3261.36 -2.92445 0 64.3315
-3235.22 -2.89926 0 64.6404
-1948.5 -0.318561 0 -17.5736
-1964.23 -0.420861 0 -17.7615
-3248.29 -2.91193 0 64.4897
-2592.4 -1.55441 0 21.3481
-1956.37 -0.369665 0 -17.6652
-2613.34 -1.62155 0 21.0996
-2602.87 -1.58799 0 21.2268
-3235.22 -2.89926 0 64.6404
-3209.07 -2.8735 0 64.9193
-1932.78 -0.216619 0 -17.4037
-1948.5 -0.318561 0 -17.5736
-3222.14 -2.88646 0 64.7836
-2571.46 -1.48718 0 21.5725
-1940.64 -0.267546 0 -17.4864
-2592.4 -1.55441 0 21.3481
-2581.93 -1.52081 0 21.4633
-3209.07 -2.8735 0 64.9193
-3182.93 -2.84714 0 65.1684
-1917.06 -0.115018 0 -17.2517
-1932.78 -0.216619 0 -17.4037
-3196 -2.8604 0 65.0476
-2550.52 -1.41986 0 21.773
-1924.92 -0.165777 0 -17.3255
-2571.46 -1.48718 0 21.5725
-2560.99 -1.45353 0 21.6757
-3182.93 -2.84714 0 65.1684
-3156.79 -2.82014 0 65.3879
-1901.34 -0.0137416 0 -17.1175
-1917.06 -0.115018 0 -17.2517
-3169.86 -2.83372 0 65.2819
-2529.59 -1.35241 0 21.9499
-1909.2 -0.0643401 0 -17.1824
-2550.52 -1.41986 0 21.773
-2540.06 -1.38615 0 21.8644
-3156.79 -2.82014 0 65.3879
-3130.65 -2.79249 0 65.5782
-1885.62 0.0872256 0 -17.0008
-1901.34 -0.0137416 0 -17.1175
-3143.72 -2.8064 0 65.4867
-2508.66 -1.28481 0 22.1034
-1893.48 0.0367797 0 -17.057
-2529.59 -1.35241 0 21.9499
-2519.12 -1.31863 0 22.0296
-3130.65 -2.79249 0 65.5782
-3104.51 -2.76417 0 65.7393
-1869.9 0.187899 0 -16.9017
-1885.62 0.0872256 0 -17.0008
-3117.58 -2.77842 0 65.6623
-2487.72 -1.21705 0 22.2336
-1877.76 0.137598 0 -16.9491
-2508.66 -1.28481 0 22.1034
-2498.19 -1.25095 0 22.1714
-3104.51 -2.76417 0 65.7393
-3078.38 -2.73513 0 65.8716
-1854.18 0.288293 0 -16.8198
-1869.9 0.187899 0 -16.9017
-3091.45 -2.74974 0 65.809
-2466.79 -1.1491 0 22.3407
-1862.04 0.23813 0 -16.8586
-2487.72 -1.21705 0 22.2336
-2477.26 -1.1831 0 22.29
-3078.38 -2.73513 0 65.8716
-3052.24 -2.70537 0 65.9753
-1838.46 0.388422 0 -16.7551
-1854.18 0.288293 0 -16.8198
-3065.31 -2.72034 0 65.927
-2445.86 -1.08094 0 22.4249
-1846.32 0.33839 0 -16.7853
-2466.79 -1.1491 0 22.3407
-2456.33 -1.11505 0 22.3856
-3052.24 -2.70537 0 65.9753
-3026.11 -2.67485 0 66.0507
-1822.75 0.4883 0 -16.7074
-1838.46 0.388422 0 -16.7551
-3039.17 -2.69021 0 66.0165
-2424.93 -1.01257 0 22.4864
-1830.6 0.438392 0 -16.7291
-2445.86 -1.08094 0 22.4249
-2435.4 -1.04678 0 22.4585
-3026.11 -2.67485 0 66.0507
-2999.97 -2.64357 0 66.0979
-1807.03 0.587939 0 -16.6766
-1822.75 0.4883 0 -16.7074
-3013.04 -2.65931 0 66.0778
-2404 -0.943952 0 22.5255
-1814.89 0.538149 0 -16.6899
-2424.93 -1.01257 0 22.4864
-2414.47 -0.978291 0 22.5087
-2999.97 -2.64357 0 66.0979
-2973.84 -2.61149 0 66.1173
-1791.32 0.687353 0 -16.6625
-1807.03 0.587939 0 -16.6766
-2986.91 -2.62763 0 66.1111
-2383.07 -0.875079 0 22.5422
-1799.17 0.637674 0 -16.6675
-2404 -0.943952 0 22.5255
-2393.54 -0.909548 0 22.5366
-2973.84 -2.61149 0 66.1173
-2947.71 -2.57859 0 66.1091
-1775.6 0.786553 0 -16.6651
-1791.32 0.687353 0 -16.6625
-2960.77 -2.59514 0 66.1166
-2362.15 -0.805933 0 22.5368
-1783.46 0.736979 0 -16.6617
-2383.07 -0.875079 0 22.5422
-2372.61 -0.840541 0 22.5423
-2947.71 -2.57859 0 66.1091
-2921.58 -2.54487 0 66.0735
-1759.89 0.88555 0 -16.684
-1775.6 0.786553 0 -16.6651
-2934.64 -2.56184 0 66.0947
-2341.22 -0.7365 0 22.5096
-1767.75 0.836076 0 -16.6725
-2362.15 -0.805933 0 22.5368
-2351.68 -0.771253 0 22.5259
-2921.58 -2.54487 0 66.0735
-2895.45 -2.51029 0 66.0108
-1744.18 0.984357 0 -16.7192
-1759.89 0.88555 0 -16.684
-2908.51 -2.52768 0 66.0455
-2320.3 -0.666763 0 22.4606
-1752.04 0.934977 0 -16.6996
-2341.22 -0.7365 0 22.5096
-2330.76 -0.70167 0 22.4878
-2895.45 -2.51029 0 66.0108
-2869.32 -2.47484 0 65.9212
-1728.47 1.08298 0 -16.7706
-1744.18 0.984357 0 -16.7192
-2882.39 -2.49267 0 65.9693
-2299.38 -0.59671 0 22.3901
-1736.32 1.03369 0 -16.7429
-2320.3 -0.666763 0 22.4606
-2309.84 -0.631777 0 22.428
-2869.32 -2.47484 0 65.9212
-2843.2 -2.43851 0 65.8049
-1712.76 1.18144 0 -16.838
-1728.47 1.08298 0 -16.7706
-2856.26 -2.45679 0 65.8663
-2278.45 -0.526327 0 22.2983
-1720.61 1.13223 0 -16.8023
-2299.38 -0.59671 0 22.3901
-2288.91 -0.56156 0 22.3468
-2843.2 -2.43851 0 65.8049
-2817.07 -2.40128 0 65.6623
-1697.05 1.27973 0 -16.9213
-1712.76 1.18144 0 -16.838
-2830.13 -2.42001 0 65.7369
-2257.53 -0.455601 0 22.1853
-1704.91 1.2306 0 -16.8777
-2278.45 -0.526327 0 22.2983
-2267.99 -0.491007 0 22.2444
-2817.07 -2.40128 0 65.6623
-2790.95 -2.36313 0 65.4934
-1681.34 1.37787 0 -17.0202
-1697.05 1.27973 0 -16.9213
-2804.01 -2.38232 0 65.5811
-2236.61 -0.38452 0 22.0514
-1689.2 1.32882 0 -16.9688
-2257.53 -0.455601 0 22.1853
-2247.07 -0.420105 0 22.121
-2790.95 -2.36313 0 65.4934
-2764.82 -2.32405 0 65.2987
-1665.64 1.47587 0 -17.1347
-1681.34 1.37787 0 -17.0202
-2777.88 -2.34371 0 65.3993
-2215.7 -0.313073 0 21.8968
-1673.49 1.42689 0 -17.0755
-2236.61 -0.38452 0 22.0514
-2226.15 -0.348843 0 21.9767
-2764.82 -2.32405 0 65.2987
-2738.7 -2.28403 0 65.0783
-1649.93 1.57373 0 -17.2647
-1665.64 1.47587 0 -17.1347
-2751.76 -2.30416 0 65.1917
-2194.78 -0.241249 0 21.7216
-1657.79 1.52482 0 -17.1978
-2215.7 -0.313073 0 21.8968
-2205.24 -0.277209 0 21.8118
-2738.7 -2.28403 0 65.0783
-2712.58 -2.24305 0 64.8325
-1634.23 1.67147 0 -17.4099
-1649.93 1.57373 0 -17.2647
-2725.64 -2.26366 0 64.9586
-2173.86 -0.169038 0 21.5261
-1642.08 1.62262 0 -17.3354
-2194.78 -0.241249 0 21.7216
-2184.32 -0.205193 0 21.6264
-2712.58 -2.24305 0 64.8325
-2686.46 -2.2011 0 64.5615
-1618.53 1.76908 0 -17.5702
-1634.23 1.67147 0 -17.4099
-2699.52 -2.2222 0 64.7001
-2152.95 -0.0964314 0 21.3104
-1626.38 1.72029 0 -17.4881
-2173.86 -0.169038 0 21.5261
-2163.41 -0.132785 0 21.4208
-2686.46 -2.2011 0 64.5615
-2660.35 -2.15817 0 64.2655
-1602.83 1.86658 0 -17.7455
-1618.53 1.76908 0 -17.5702
-2673.4 -2.17976 0 64.4166
-2132.04 -0.0234192 0 21.0748
-1610.68 1.81785 0 -17.656
-2152.95 -0.0964314 0 21.3104
-2142.49 -0.0599765 0 21.1951
-2660.35 -2.15817 0 64.2655
-2634.23 -2.11426 0 63.9449
-1587.12 1.96398 0 -17.9356
-1602.83 1.86658 0 -17.7455
-2647.29 -2.13634 0 64.1083
-2111.12 0.0500065 0 20.8194
-1594.97 1.91529 0 -17.8387
-2132.04 -0.0234192 0 21.0748
-2121.58 0.0132415 0 20.9495
-2634.23 -2.11426 0 63.9449
-2608.12 -2.06935 0 63.5998
-1571.43 2.06127 0 -18.1405
-1587.12 1.96398 0 -17.9356
-2621.17 -2.09193 0 63.7754
-2090.21 0.123853 0 20.5444
-1579.27 2.01263 0 -18.0362
-2111.12 0.0500065 0 20.8194
-2100.67 0.0868767 0 20.6843
-2608.12 -2.06935 0 63.5998
-2582 -2.02343 0 63.2305
-1555.73 2.15846 0 -18.3599
-1571.43 2.06127 0 -18.1405
-2595.06 -2.04651 0 63.4181
-2069.3 0.198128 0 20.25
-1563.58 2.10987 0 -18.2484
-2090.21 0.123853 0 20.5444
-2079.76 0.160937 0 20.3996
-2582 -2.02343 0 63.2305
-2555.89 -1.97649 0 62.8372
-1540.03 2.25556 0 -18.5936
-1555.73 2.15846 0 -18.3599
-2568.95 -2.00008 0 63.0368
-2048.4 0.272837 0 19.9365
-1547.88 2.20702 0 -18.475
-2069.3 0.198128 0 20.25
-2058.85 0.235428 0 20.0956
-2555.89 -1.97649 0 62.8372
-2529.78 -1.92853 0 62.4202
-1524.33 2.35257 0 -18.8417
-1540.03 2.25556 0 -18.5936
-2542.83 -1.95264 0 62.6316
-2027.49 0.347986 0 19.6039
-1532.18 2.30408 0 -18.7159
-2048.4 0.272837 0 19.9365
-2037.94 0.310356 0 19.7726
-2529.78 -1.92853 0 62.4202
-2503.67 -1.87954 0 61.9797
-1508.64 2.4495 0 -19.1038
-1524.33 2.35257 0 -18.8417
-2516.72 -1.90417 0 62.2028
-2006.58 0.423581 0 19.2526
-1516.49 2.40105 0 -18.971
-2027.49 0.347986 0 19.6039
-2017.04 0.385728 0 19.4306
-2503.67 -1.87954 0 61.9797
-2477.56 -1.82952 0 61.5159
-1492.95 2.54635 0 -19.3799
-1508.64 2.4495 0 -19.1038
-2490.62 -1.85466 0 61.7507
-1985.68 0.499626 0 18.8826
-1500.79 2.49794 0 -19.2401
-2006.58 0.423581 0 19.2526
-1996.13 0.461547 0 19.0699
-2477.56 -1.82952 0 61.5159
-2451.46 -1.77846 0 61.0292
-1477.25 2.64312 0 -19.6698
-1492.95 2.54635 0 -19.3799
-2464.51 -1.80412 0 61.2754
-1964.78 0.576124 0 18.4943
-1485.1 2.59475 0 -19.5231
-1985.68 0.499626 0 18.8826
-1975.23 0.537818 0 18.6908
-2451.46 -1.77846 0 61.0292
-2425.35 -1.72635 0 60.5197
-1461.56 2.73982 0 -19.9734
-1477.25 2.64312 0 -19.6698
-2438.4 -1.75254 0 60.7773
-1943.87 0.653081 0 18.0877
-1469.41 2.69148 0 -19.8199
-1964.78 0.576124 0 18.4943
-1954.33 0.614545 0 18.2933
-2425.35 -1.72635 0 60.5197
-2399.25 -1.6732 0 59.9877
-1445.87 2.83644 0 -20.2905
-1461.56 2.73982 0 -19.9734
-2412.3 -1.69991 0 60.2565
-1922.97 0.730498 0 17.6631
-1453.72 2.78814 0 -20.1303
-1943.87 0.653081 0 18.0877
-1933.42 0.691731 0 17.8777
-2399.25 -1.6732 0 59.9877
-2373.15 -1.61899 0 59.4334
-1430.18 2.933 0 -20.621
-1445.87 2.83644 0 -20.2905
-2386.2 -1.64623 0 59.7133
-1902.08 0.808377 0 17.2207
-1438.03 2.88473 0 -20.4541
-1922.97 0.730498 0 17.6631
-1912.52 0.76938 0 17.4441
-2373.15 -1.61899 0 59.4334
-2347.04 -1.56373 0 58.8571
-1414.49 3.02948 0 -20.9647
-1430.18 2.933 0 -20.621
-2360.09 -1.59149 0 59.148
-1881.18 0.886722 0 16.7607
-1422.34 2.98125 0 -20.7912
-1902.08 0.808377 0 17.2207
-1891.63 0.847492 0 16.9929
-2347.04 -1.56373 0 58.8571
-2320.94 -1.50742 0 58.259
-1398.81 3.1259 0 -21.3215
-1414.49 3.02948 0 -20.9647
-2333.99 -1.53571 0 58.5608
-1860.28 0.965532 0 16.2832
-1406.65 3.0777 0 -21.1415
-1881.18 0.886722 0 16.7607
-1870.73 0.926069 0 16.5241
-2320.94 -1.50742 0 58.259
-2294.85 -1.45005 0 57.6394
-1383.12 3.22225 0 -21.6913
-1398.81 3.1259 0 -21.3215
-2307.9 -1.47887 0 57.9519
-1839.39 1.04481 0 15.7885
-1390.96 3.17408 0 -21.5048
-1860.28 0.965532 0 16.2832
-1849.83 1.00511 0 16.038
-2294.85 -1.45005 0 57.6394
-2268.75 -1.39163 0 56.9985
-1367.44 3.31853 0 -22.0739
-1383.12 3.22225 0 -21.6913
-2281.8 -1.42097 0 57.3216
-1818.49 1.12455 0 15.2767
-1375.28 3.2704 0 -21.881
-1839.39 1.04481 0 15.7885
-1828.94 1.08462 0 15.5347
-2268.75 -1.39163 0 56.9985
-2242.65 -1.33215 0 56.3365
-1351.75 3.41474 0 -22.4691
-1367.44 3.31853 0 -22.0739
-2255.7 -1.36202 0 56.6701
-1797.6 1.20476 0 14.7481
-1359.59 3.36665 0 -22.2699
-1818.49 1.12455 0 15.2767
-1808.05 1.1646 0 15.0145
-2242.65 -1.33215 0 56.3365
-2216.56 -1.27162 0 55.6537
-1336.07 3.51089 0 -22.8768
-1351.75 3.41474 0 -22.4691
-2229.61 -1.30202 0 55.9977
-1776.71 1.28544 0 14.2028
-1343.91 3.46283 0 -22.6714
-1797.6 1.20476 0 14.7481
-1787.15 1.24504 0 14.4775
-2216.56 -1.27162 0 55.6537
-2190.47 -1.21003 0 54.9504
-1320.39 3.60697 0 -23.2969
-1336.07 3.51089 0 -22.8768
-2203.51 -1.24096 0 55.3046
-1755.82 1.36658 0 13.641
-1328.23 3.55894 0 -23.0853
-1776.71 1.28544 0 14.2028
-1766.26 1.32595 0 13.9239
-2190.47 -1.21003 0 54.9504
-2164.38 -1.1474 0 54.2267
-1304.71 3.70297 0 -23.7292
-1320.39 3.60697 0 -23.2969
-2177.42 -1.17884 0 54.591
-1734.93 1.44818 0 13.063
-1312.55 3.65498 0 -23.5115
-1755.82 1.36658 0 13.641
-1745.37 1.40732 0 13.354
-2164.38 -1.1474 0 54.2267
-2138.29 -1.08371 0 53.4829
-1289.03 3.7989 0 -24.1736
-1304.71 3.70297 0 -23.7292
-2151.33 -1.11569 0 53.8573
-1714.04 1.53025 0 12.4688
-1296.87 3.75095 0 -23.9499
-1734.93 1.44818 0 13.063
-1724.49 1.48916 0 12.7679
-2138.29 -1.08371 0 53.4829
-2112.2 -1.01899 0 52.7192
-1273.35 3.89476 0 -24.6299
-1289.03 3.7989 0 -24.1736
-2125.24 -1.05148 0 53.1035
-1693.16 1.61277 0 11.8588
-1281.19 3.84684 0 -24.4002
-1714.04 1.53025 0 12.4688
-1703.6 1.57145 0 12.1658
-2112.2 -1.01899 0 52.7192
-2086.11 -0.953222 0 51.936
-1257.68 3.99054 0 -25.098
-1273.35 3.89476 0 -24.6299
-2099.16 -0.986235 0 52.3301
-1672.27 1.69574 0 11.2331
-1265.51 3.94266 0 -24.8624
-1693.16 1.61277 0 11.8588
-1682.71 1.6542 0 11.5479
-2086.11 -0.953222 0 51.936
-2060.03 -0.886423 0 51.1334
-1242 4.08625 0 -25.5777
-1257.68 3.99054 0 -25.098
-2073.07 -0.919952 0 51.5371
-1651.39 1.77917 0 10.5919
-1249.84 4.03841 0 -25.3364
-1672.27 1.69574 0 11.2331
-1661.83 1.7374 0 10.9145
-2060.03 -0.886423 0 51.1334
-2033.94 -0.818595 0 50.3117
-1226.33 4.18186 0 -26.0689
-1242 4.08625 0 -25.5777
-2046.98 -0.852637 0 50.725
-1630.51 1.86304 0 9.93543
-1234.16 4.13407 0 -25.8219
-1651.39 1.77917 0 10.5919
-1640.95 1.82105 0 10.2656
-2033.94 -0.818595 0 50.3117
-2007.86 -0.749744 0 49.4711
-1210.65 4.2774 0 -26.5715
-1226.33 4.18186 0 -26.0689
-2020.9 -0.784297 0 49.8938
-1609.63 1.94735 0 9.26381
-1218.49 4.22964 0 -26.3188
-1630.51 1.86304 0 9.93543
-1620.07 1.90514 0 9.6015
-2007.86 -0.749744 0 49.4711
-1981.78 -0.679877 0 48.6119
-1194.98 4.37284 0 -27.0852
-1210.65 4.2774 0 -26.5715
-1994.82 -0.714937 0 49.0439
-1588.75 2.03209 0 8.57728
-1202.82 4.32513 0 -26.8269
-1609.63 1.94735 0 9.26381
-1599.19 1.98967 0 8.9224
-1981.78 -0.679877 0 48.6119
-1955.7 -0.609 0 47.7343
-1179.31 4.46818 0 -27.61
-1194.98 4.37284 0 -27.0852
-1968.74 -0.644564 0 48.1754
-1567.87 2.11727 0 7.87601
-1187.14 4.42052 0 -27.3462
-1588.75 2.03209 0 8.57728
-1578.31 2.07463 0 8.22847
-1955.7 -0.609 0 47.7343
-1929.62 -0.537123 0 46.8386
-1163.64 4.56343 0 -28.1458
-1179.31 4.46818 0 -27.61
-1942.66 -0.573186 0 47.2887
-1546.99 2.20287 0 7.16022
-1171.47 4.51582 0 -27.8765
-1567.87 2.11727 0 7.87601
-1557.43 2.16002 0 7.51992
-1929.62 -0.537123 0 46.8386
-1903.54 -0.464252 0 45.9249
-1147.97 4.65857 0 -28.6923
-1163.64 4.56343 0 -28.1458
-1916.58 -0.500811 0 46.384
-1526.11 2.28889 0 6.43009
-1155.8 4.61101 0 -28.4177
-1546.99 2.20287 0 7.16022
-1536.55 2.24583 0 6.79694
-1903.54 -0.464252 0 45.9249
-1877.46 -0.390398 0 44.9936
-1132.3 4.7536 0 -29.2494
-1147.97 4.65857 0 -28.6923
-1890.5 -0.427447 0 45.4614
-1505.24 2.37531 0 5.68582
-1140.13 4.7061 0 -28.9695
-1526.11 2.28889 0 6.43009
-1515.68 2.33205 0 6.05971
-1877.46 -0.390398 0 44.9936
-1851.39 -0.315568 0 44.0448
-1116.63 4.84852 0 -29.817
-1132.3 4.7536 0 -29.2494
-1864.43 -0.353104 0 44.5214
-1484.37 2.46214 0 4.92759
-1124.47 4.80108 0 -29.5319
-1505.24 2.37531 0 5.68582
-1494.8 2.41868 0 5.30844
-1851.39 -0.315568 0 44.0448
-1825.32 -0.239774 0 43.0789
-1100.97 4.94332 0 -30.3949
-1116.63 4.84852 0 -29.817
-1838.35 -0.277791 0 43.564
-1463.49 2.54936 0 4.15561
-1108.8 4.89593 0 -30.1047
-1484.37 2.46214 0 4.92759
-1473.93 2.5057 0 4.54331
-1825.32 -0.239774 0 43.0789
-1799.24 -0.163026 0 42.096
-1085.3 5.03798 0 -30.983
-1100.97 4.94332 0 -30.3949
-1812.28 -0.201519 0 42.5896
-1442.62 2.63697 0 3.37007
-1093.14 4.99067 0 -30.6877
-1463.49 2.54936 0 4.15561
-1453.06 2.59312 0 3.76452
-1799.24 -0.163026 0 42.096
-1773.17 -0.0853348 0 41.0965
-1069.64 5.13252 0 -31.5812
-1085.3 5.03798 0 -30.983
-1786.21 -0.124298 0 41.5983
-1421.75 2.72496 0 2.57115
-1077.47 5.08527 0 -31.2808
-1442.62 2.63697 0 3.37007
-1432.19 2.68092 0 2.97227
-1773.17 -0.0853348 0 41.0965
-1747.1 -0.00671176 0 40.0804
-1053.98 5.22691 0 -32.1892
-1069.64 5.13252 0 -31.5812
-1760.14 -0.046139 0 40.5905
-1400.88 2.81332 0 1.75906
-1061.81 5.17973 0 -31.884
-1421.75 2.72496 0 2.57115
-1411.32 2.76909 0 2.16674
-1747.1 -0.00671176 0 40.0804
-1721.03 0.0728309 0 39.0482
-1038.32 5.32116 0 -32.807
-1053.98 5.22691 0 -32.1892
-1734.07 0.0329454 0 39.5663
-1380.02 2.90203 0 0.933978
-1046.15 5.27405 0 -32.4969
-1400.88 2.81332 0 1.75906
-1390.45 2.85763 0 1.34813
-1721.03 0.0728309 0 39.0482
-1694.96 0.153281 0 38
-1022.65 5.41524 0 -33.4344
-1038.32 5.32116 0 -32.807
-1708 0.112943 0 38.5261
-1359.15 2.99109 0 0.0961097
-1030.49 5.36822 0 -33.1195
-1380.02 2.90203 0 0.933978
-1369.58 2.94652 0 0.516631
-1694.96 0.153281 0 38
-1668.9 0.234624 0 36.936
-1007 5.50917 0 -34.0713
-1022.65 5.41524 0 -33.4344
-1681.93 0.193842 0 37.4699
-1338.28 3.08049 0 -0.754356
-1014.82 5.46223 0 -33.7517
-1359.15 2.99109 0 0.0961097
-1348.72 3.03575 0 -0.32756
-1668.9 0.234624 0 36.936
-1642.83 0.316849 0 35.8566
-991.337 5.60292 0 -34.7175
-1007 5.50917 0 -34.0713
-1655.87 0.275627 0 36.3982
-1317.42 3.17022 0 -1.61723
-999.166 5.55607 0 -34.3932
-1338.28 3.08049 0 -0.754356
-1327.85 3.12531 0 -1.18425
-1642.83 0.316849 0 35.8566
-1616.77 0.39994 0 34.7619
-975.679 5.6965 0 -35.3729
-991.337 5.60292 0 -34.7175
-1629.8 0.358287 0 35.3111
-1296.56 3.26026 0 -2.49231
-983.508 5.64973 0 -35.044
-1317.42 3.17022 0 -1.61723
-1306.99 3.2152 0 -2.05325
-1616.77 0.39994 0 34.7619
-1590.71 0.483883 0 33.6522
-960.022 5.78988 0 -36.0373
-975.679 5.6965 0 -35.3729
-1603.74 0.441806 0 34.2089
-1275.69 3.35061 0 -3.3794
-967.851 5.74321 0 -35.7039
-1296.56 3.26026 0 -2.49231
-1286.13 3.3054 0 -2.93436
-1590.71 0.483883 0 33.6522
-1564.64 0.568663 0 32.5278
-944.367 5.88307 0 -36.7105
-960.022 5.78988 0 -36.0373
-1577.67 0.526169 0 33.0918
-1254.83 3.44125 0 -4.27833
-952.194 5.8365 0 -36.3728
-1275.69 3.35061 0 -3.3794
-1265.26 3.39589 0 -3.8274
-1564.64 0.568663 0 32.5278
-1538.58 0.654264 0 31.3888
-928.712 5.97605 0 -37.3925
-944.367 5.88307 0 -36.7105
-1551.61 0.611362 0 31.9601
-1233.97 3.53217 0 -5.18888
-936.539 5.92959 0 -37.0505
-1254.83 3.44125 0 -4.27833
-1244.4 3.48668 0 -4.73216
-1538.58 0.654264 0 31.3888
-1512.52 0.740672 0 30.2355
-913.058 6.06882 0 -38.0832
-928.712 5.97605 0 -37.3925
-1525.55 0.697369 0 30.8139
-1213.11 3.62336 0 -6.11087
-920.885 6.02246 0 -37.7368
-1233.97 3.53217 0 -5.18888
-1223.54 3.57773 0 -5.64846
-1512.52 0.740672 0 30.2355
-1486.46 0.827869 0 29.0682
-897.405 6.16135 0 -38.7822
-913.058 6.06882 0 -38.0832
-1499.49 0.784173 0 29.6536
-1192.26 3.7148 0 -7.04411
-905.232 6.11511 0 -38.4316
-1213.11 3.62336 0 -6.11087
-1202.69 3.66905 0 -6.5761
-1486.46 0.827869 0 29.0682
-1460.41 0.91584 0 27.8871
-881.753 6.25366 0 -39.4896
-897.405 6.16135 0 -38.7822
-1473.43 0.871759 0 28.4794
-1171.4 3.80649 0 -7.9884
-889.579 6.20754 0 -39.1349
-1192.26 3.7148 0 -7.04411
-1181.83 3.76061 0 -7.51489
-1460.41 0.91584 0 27.8871
-1434.35 1.00457 0 26.6925
-866.102 6.34571 0 -40.2051
-881.753 6.25366 0 -39.4896
-1447.38 0.960109 0 27.2915
-1150.54 3.8984 0 -8.94355
-873.928 6.29972 0 -39.8463
-1171.4 3.80649 0 -7.9884
-1160.97 3.85241 0 -8.46463
-1434.35 1.00457 0 26.6925
-1408.29 1.09403 0 25.4845
-850.452 6.43751 0 -40.9286
-866.102 6.34571 0 -40.2051
-1421.32 1.04921 0 26.0902
-1129.69 3.99052 0 -9.90937
-858.277 6.39165 0 -40.5659
-1150.54 3.8984 0 -8.94355
-1140.12 3.94444 0 -9.42514
-1408.29 1.09403 0 25.4845
-1382.24 1.18421 0 24.2635
-834.803 6.52905 0 -41.66
-850.452 6.43751 0 -40.9286
-1395.26 1.13903 0 24.8756
-1108.84 4.08285 0 -10.8857
-842.627 6.48331 0 -41.2934
-1129.69 3.99052 0 -9.90937
-1119.26 4.03666 0 -10.3962
-1382.24 1.18421 0 24.2635
-1356.18 1.2751 0 23.0296
-819.154 6.6203 0 -42.3992
-834.803 6.52905 0 -41.66
-1369.21 1.22957 0 23.6481
-1087.98 4.17536 0 -11.8722
-826.978 6.57471 0 -42.0286
-1108.84 4.08285 0 -10.8857
-1098.41 4.12908 0 -11.3777
-1356.18 1.2751 0 23.0296
-1330.13 1.36667 0 21.7831
-803.507 6.71127 0 -43.1459
-819.154 6.6203 0 -42.3992
-1343.16 1.3208 0 22.4079
-1067.13 4.26804 0 -12.8689
-811.33 6.66582 0 -42.7716
-1087.98 4.17536 0 -11.8722
-1077.56 4.22168 0 -12.3693
-1330.13 1.36667 0 21.7831
-1304.08 1.4589 0 20.5243
-787.86 6.80193 0 -43.9
-803.507 6.71127 0 -43.1459
-1317.1 1.4127 0 21.1552
-1046.28 4.36087 0 -13.8754
-795.683 6.75664 0 -43.522
-1067.13 4.26804 0 -12.8689
-1056.7 4.31443 0 -13.3709
-1304.08 1.4589 0 20.5243
-1278.03 1.55178 0 19.2534
-772.214 6.89228 0 -44.6615
-787.86 6.80193 0 -43.9
-1291.05 1.50526 0 19.8903
-1025.43 4.45384 0 -14.8917
-780.037 6.84715 0 -44.2799
-1046.28 4.36087 0 -13.8754
-1035.85 4.40734 0 -14.3824
-1278.03 1.55178 0 19.2534
-1251.98 1.64528 0 17.9705
-756.569 6.98231 0 -45.4301
-772.214 6.89228 0 -44.6615
-1265 1.59846 0 18.6134
-1004.58 4.54693 0 -15.9175
-764.392 6.93734 0 -45.0449
-1025.43 4.45384 0 -14.8917
-1015 4.50037 0 -15.4034
-1251.98 1.64528 0 17.9705
-1225.93 1.73939 0 16.6761
-740.925 7.072 0 -46.2057
-756.569 6.98231 0 -45.4301
-1238.95 1.69226 0 17.3248
-983.73 4.64013 0 -16.9525
-748.747 7.02719 0 -45.817
-1004.58 4.54693 0 -15.9175
-994.154 4.59352 0 -16.4338
-1225.93 1.73939 0 16.6761
-1199.88 1.83408 0 15.3703
-725.281 7.16134 0 -46.9881
-740.925 7.072 0 -46.2057
-1212.9 1.78666 0 16.0246
-962.882 4.73342 0 -17.9967
-733.103 7.11671 0 -46.596
-983.73 4.64013 0 -16.9525
-973.306 4.68677 0 -17.4735
-1199.88 1.83408 0 15.3703
-1173.83 1.92933 0 14.0533
-709.639 7.25032 0 -47.7773
-725.281 7.16134 0 -46.9881
-1186.85 1.88164 0 14.7132
-942.035 4.82679 0 -19.0499
-717.46 7.20587 0 -47.3819
-962.882 4.73342 0 -17.9967
-952.459 4.7801 0 -18.5222
-1173.83 1.92933 0 14.0533
-1147.78 2.02513 0 12.7254
-693.997 7.33892 0 -48.573
-709.639 7.25032 0 -47.7773
-1160.81 1.97716 0 13.3907
-921.189 4.92021 0 -20.1117
-701.818 7.29467 0 -48.1743
-942.035 4.82679 0 -19.0499
-931.612 4.87349 0 -19.5797
-1147.78 2.02513 0 12.7254
-1121.74 2.12144 0 11.3869
-678.355 7.42714 0 -49.3752
-693.997 7.33892 0 -48.573
-1134.76 2.07322 0 12.0575
-900.344 5.01367 0 -21.1822
-686.176 7.38308 0 -48.9733
-921.189 4.92021 0 -20.1117
-910.766 4.96693 0 -20.6459
-1121.74 2.12144 0 11.3869
-1095.69 2.21825 0 10.0379
-662.715 7.51495 0 -50.1836
-678.355 7.42714 0 -49.3752
-1108.71 2.16979 0 10.7137
-879.499 5.10715 0 -22.2609
-670.535 7.47109 0 -49.7786
-900.344 5.01367 0 -21.1822
-889.921 5.0604 0 -21.7205
-1095.69 2.21825 0 10.0379
-1069.65 2.31554 0 8.6788
-647.075 7.60235 0 -50.9982
-662.715 7.51495 0 -50.1836
-1082.67 2.26684 0 9.35963
-858.655 5.20063 0 -23.3479
-654.895 7.55871 0 -50.5902
-879.499 5.10715 0 -22.2609
-869.077 5.15389 0 -22.8034
-1069.65 2.31554 0 8.6788
-1043.6 2.41328 0 7.30971
-631.436 7.68933 0 -51.8188
-647.075 7.60235 0 -50.9982
-1056.62 2.36435 0 7.99549
-837.812 5.2941 0 -24.4427
-639.256 7.6459 0 -51.4078
-858.655 5.20063 0 -23.3479
-848.233 5.24737 0 -23.8943
-1043.6 2.41328 0 7.30971
-1017.56 2.51145 0 5.93092
-615.798 7.77586 0 -52.6452
-631.436 7.68933 0 -51.8188
-1030.58 2.46231 0 6.62152
-816.969 5.38753 0 -25.5454
-623.617 7.73265 0 -52.2313
-837.812 5.2941 0 -24.4427
-827.39 5.34082 0 -24.9931
-1017.56 2.51145 0 5.93092
-991.513 2.61002 0 4.54268
-600.16 7.86194 0 -53.4773
-615.798 7.77586 0 -52.6452
-1004.53 2.56068 0 5.23797
-796.127 5.48092 0 -26.6557
-607.979 7.81896 0 -53.0606
-816.969 5.38753 0 -25.5454
-806.548 5.43423 0 -26.0996
-991.513 2.61002 0 4.54268
-965.47 2.70898 0 3.14521
-584.523 7.94755 0 -54.315
-600.16 7.86194 0 -53.4773
-978.492 2.65945 0 3.84508
-775.286 5.57423 0 -27.7733
-592.341 7.9048 0 -53.8955
-796.127 5.48092 0 -26.6557
-785.706 5.52758 0 -27.2136
-965.47 2.70898 0 3.14521
-939.428 2.8083 0 1.73876
-568.886 8.03267 0 -55.1581
-584.523 7.94755 0 -54.315
-952.449 2.75859 0 2.44309
-754.445 5.66745 0 -28.8982
-576.704 7.99017 0 -54.7359
-775.286 5.57423 0 -27.7733
-764.865 5.62085 0 -28.3348
-939.428 2.8083 0 1.73876
-913.386 2.90795 0 0.323575
-553.25 8.11729 0 -56.0065
-568.886 8.03267 0 -55.1581
-926.407 2.85808 0 1.03224
-733.605 5.76056 0 -30.03
-561.068 8.07505 0 -55.5816
-754.445 5.66745 0 -28.8982
-744.025 5.71402 0 -29.4632
-913.386 2.90795 0 0.323575
-887.345 3.00791 0 -1.10011
-537.615 8.2014 0 -56.86
-553.25 8.11729 0 -56.0065
-900.365 2.95789 0 -0.387218
-712.765 5.85355 0 -31.1686
-545.433 8.15941 0 -56.4326
-733.605 5.76056 0 -30.03
-723.185 5.80707 0 -30.5985
-887.345 3.00791 0 -1.10011
-861.304 3.10815 0 -2.53204
-521.98 8.28498 0 -57.7184
-537.615 8.2014 0 -56.86
-874.324 3.058 0 -1.81506
-691.926 5.94638 0 -32.3139
-529.798 8.24326 0 -57.2886
-712.765 5.85355 0 -31.1686
-702.346 5.89998 0 -31.7405
-861.304 3.10815 0 -2.53204
-835.263 3.20866 0 -3.97199
-506.346 8.36801 0 -58.5817
-521.98 8.28498 0 -57.7184
-848.284 3.15837 0 -3.25103
-671.088 6.03904 0 -33.4656
-514.163 8.32656 0 -58.1495
-691.926 5.94638 0 -32.3139
-681.507 5.99273 0 -32.889
-835.263 3.20866 0 -3.97199
-809.223 3.30939 0 -5.4197
-490.712 8.45047 0 -59.4497
-506.346 8.36801 0 -58.5817
-822.243 3.259 0 -4.69489
-650.25 6.1315 0 -34.6235
-498.529 8.40931 0 -59.0152
-671.088 6.03904 0 -33.4656
-660.669 6.0853 0 -34.0438
-809.223 3.30939 0 -5.4197
-783.184 3.41034 0 -6.87494
-475.079 8.53234 0 -60.3222
-490.712 8.45047 0 -59.4497
-796.203 3.35984 0 -6.1464
-629.412 6.22375 0 -35.7875
-482.896 8.49148 0 -59.8854
-650.25 6.1315 0 -34.6235
-639.831 6.17766 0 -35.2048
-783.184 3.41034 0 -6.87494
-757.144 3.51145 0 -8.33746
-459.447 8.61362 0 -61.1992
-475.079 8.53234 0 -60.3222
-770.164 3.46087 0 -7.60531
-608.575 6.31576 0 -36.9573
-467.263 8.57306 0 -60.7602
-629.412 6.22375 0 -35.7875
-618.994 6.26979 0 -36.3716
-757.144 3.51145 0 -8.33746
-731.105 3.61272 0 -9.80701
-443.814 8.69426 0 -62.0803
-459.447 8.61362 0 -61.1992
-744.125 3.56207 0 -9.07137
-587.739 6.4075 0 -38.1327
-451.63 8.65402 0 -61.6392
-608.575 6.31576 0 -36.9573
-598.157 6.36166 0 -37.5443
-731.105 3.61272 0 -9.80701
-705.066 3.71412 0 -11.2833
-428.183 8.77426 0 -62.9656
-443.814 8.69426 0 -62.0803
-718.086 3.66341 0 -10.5443
-566.902 6.49895 0 -39.3135
-435.998 8.73434 0 -62.5224
-587.739 6.4075 0 -38.1327
-577.321 6.45327 0 -38.7224
-705.066 3.71412 0 -11.2833
-679.028 3.8156 0 -12.7662
-412.551 8.8536 0 -63.8547
-428.183 8.77426 0 -62.9656
-692.047 3.76485 0 -12.024
-546.067 6.5901 0 -40.4996
-420.367 8.81402 0 -63.4097
-566.902 6.49895 0 -39.3135
-556.484 6.54457 0 -39.9059
-679.028 3.8156 0 -12.7662
-652.989 3.91716 0 -14.2554
-396.92 8.93227 0 -64.7477
-412.551 8.8536 0 -63.8547
-666.009 3.86637 0 -13.51
-525.231 6.68091 0 -41.6907
-404.736 8.89302 0 -64.3007
-546.067 6.5901 0 -40.4996
-535.649 6.63554 0 -41.0945
-652.989 3.91716 0 -14.2554
-626.951 4.01876 0 -15.7506
-381.29 9.01026 0 -65.6443
-396.92 8.93227 0 -64.7477
-639.97 3.96795 0 -15.0022
-504.396 6.77138 0 -42.8866
-389.105 8.97135 0 -65.1955
-525.231 6.68091 0 -41.6907
-514.813 6.72619 0 -42.2881
-626.951 4.01876 0 -15.7506
-600.914 4.12039 0 -17.2516
-365.66 9.08758 0 -66.5444
-381.29 9.01026 0 -65.6443
-613.932 4.06957 0 -16.5004
-483.561 6.86151 0 -44.0872
-373.475 9.049 0 -66.0939
-504.396 6.77138 0 -42.8866
-493.978 6.81648 0 -43.4864
-600.914 4.12039 0 -17.2516
-574.876 4.22205 0 -18.7582
-350.03 9.16429 0 -67.4478
-365.66 9.08758 0 -66.5444
-587.895 4.17122 0 -18.0042
-462.726 6.95131 0 -45.2923
-357.845 9.12601 0 -66.9957
-483.561 6.86151 0 -44.0872
-473.144 6.90645 0 -44.6892
-574.876 4.22205 0 -18.7582
-548.838 4.32376 0 -20.2701
-334.4 9.24045 0 -68.3545
-350.03 9.16429 0 -67.4478
-561.857 4.2729 0 -19.5135
-441.892 7.04085 0 -46.5017
-342.215 9.20243 0 -67.9007
-462.726 6.95131 0 -45.2923
-452.309 6.99611 0 -45.8964
-548.838 4.32376 0 -20.2701
-522.801 4.42554 0 -21.7873
-318.771 9.31619 0 -69.2643
-334.4 9.24045 0 -68.3545
-535.82 4.37463 0 -21.0281
-421.058 7.13019 0 -47.7153
-326.586 9.27836 0 -68.809
-441.892 7.04085 0 -46.5017
-431.475 7.08554 0 -47.1079
-522.801 4.42554 0 -21.7873
-496.764 4.52744 0 -23.3097
-303.143 9.39166 0 -70.1772
-318.771 9.31619 0 -69.2643
-509.782 4.47647 0 -22.5479
-400.225 7.21945 0 -48.933
-310.957 9.35394 0 -69.7203
-421.058 7.13019 0 -47.7153
-410.641 7.17482 0 -48.3236
-496.764 4.52744 0 -23.3097
-470.726 4.62952 0 -24.8371
-287.515 9.46699 0 -71.0932
-303.143 9.39166 0 -70.1772
-483.745 4.57846 0 -24.0727
-379.391 7.3087 0 -50.1549
-295.329 9.42934 0 -70.6348
-400.225 7.21945 0 -48.933
-389.808 7.26407 0 -49.5434
-470.726 4.62952 0 -24.8371
-444.689 4.73173 0 -26.3695
-271.887 9.54223 0 -72.0125
-287.515 9.46699 0 -71.0932
-457.708 4.68062 0 -25.6027
-358.558 7.39791 0 -51.3809
-279.701 9.50463 0 -71.5525
-379.391 7.3087 0 -50.1549
-368.975 7.35333 0 -50.7674
-444.689 4.73173 0 -26.3695
-418.651 4.83383 0 -27.9068
-256.261 9.61682 0 -72.9353
-271.887 9.54223 0 -72.0125
-431.67 4.78282 0 -27.1375
-337.726 7.4866 0 -52.611
-264.074 9.57968 0 -72.4735
-358.558 7.39791 0 -51.3809
-348.142 7.44237 0 -51.9954
-418.651 4.83383 0 -27.9068
-392.614 4.93484 0 -29.4483
-240.634 9.68938 0 -73.8621
-256.261 9.61682 0 -72.9353
-405.633 4.88459 0 -28.6771
-316.893 7.57336 0 -53.8449
-248.448 9.65352 0 -73.3982
-337.726 7.4866 0 -52.611
-327.31 7.53042 0 -53.2276
-392.614 4.93484 0 -29.4483
-366.575 5.03276 0 -30.9924
-225.005 9.75566 0 -74.7934
-240.634 9.68938 0 -73.8621
-379.595 4.98437 0 -30.2202
-296.059 7.65444 0 -55.0814
-232.82 9.72377 0 -74.3272
-316.893 7.57336 0 -53.8449
-306.477 7.61492 0 -54.4629
-366.575 5.03276 0 -30.9924
-340.538 5.1222 0 -32.5341
-209.366 9.80804 0 -75.7307
-225.005 9.75566 0 -74.7934
-353.556 5.07909 0 -31.7641
-275.22 7.7225 0 -56.3176
-217.188 9.78437 0 -75.2611
-296.059 7.65444 0 -55.0814
-285.641 7.69106 0 -55.6999
-340.538 5.1222 0 -32.5341
-314.497 5.19455 0 -34.065
-193.707 9.82823 0 -76.6752
-209.366 9.80804 0 -75.7307
-327.518 5.16132 0 -33.3016
-254.366 7.76112 0 -57.5472
-201.539 9.82391 0 -76.2021
-275.22 7.7225 0 -56.3176
-264.796 7.74655 0 -56.9336
-314.497 5.19455 0 -34.065
-288.458 5.2281 0 -35.5619
-177.991 9.79013 0 -77.6321
-193.707 9.82823 0 -76.6752
-301.476 5.21805 0 -34.82
-233.48 7.74411 0 -58.758
-185.86 9.81902 0 -77.1513
-254.366 7.76112 0 -57.5472
-243.928 7.76319 0 -58.1568
-288.458 5.2281 0 -35.5619
-262.4 5.19729 0 -36.9948
-162.177 9.63547 0 -78.6039
-177.991 9.79013 0 -77.6321
-275.435 5.22355 0 -36.2886
-212.519 7.6174 0 -59.9279
-170.097 9.73216 0 -78.1166
-233.48 7.74411 0 -58.758
-223.013 7.69662 0 -59.3486
-262.4 5.19729 0 -36.9948
-236.342 5.03004 0 -38.2835
-146.128 9.30631 0 -79.6133
-162.177 9.63547 0 -78.6039
-249.365 5.13508 0 -37.6654
-191.413 7.31463 0 -61.0208
-154.198 9.49836 0 -79.1008
-212.519 7.6174 0 -59.9279
-201.988 7.49951 0 -60.4902
-236.342 5.03004 0 -38.2835
-210.172 4.68501 0 -39.3529
-129.732 8.66953 0 -80.6709
-146.128 9.30631 0 -79.6133
-223.289 4.88832 0 -38.8496
-170.009 6.70217 0 -61.991
-137.973 9.03348 0 -80.1377
-191.413 7.31463 0 -61.0208
-180.765 7.04483 0 -61.5182
-210.172 4.68501 0 -39.3529
-183.948 3.9585 0 -39.9915
-112.579 7.71975 0 -81.8768
-129.732 8.66953 0 -80.6709
-197.046 4.37095 0 -39.7487
-148.089 5.70743 0 -62.783
-121.3 8.23617 0 -81.2416
-170.009 6.70217 0 -61.991
-159.12 6.28282 0 -62.4269
-183.948 3.9585 0 -39.9915
-157.137 2.96065 0 -40.1407
-94.5288 6.35119 0 -83.2889
-112.579 7.71975 0 -81.8768
-170.693 3.5181 0 -40.1218
-125.168 4.16698 0 -63.4314
-103.643 7.0688 0 -82.5605
-148.089 5.70743 0 -62.783
-136.817 4.95445 0 -63.0901
-157.137 2.96065 0 -40.1407
-129.859 1.23924 0 -39.4854
-74.7352 5.35614 0 -85.3074
-94.5288 6.35119 0 -83.2889
-143.491 2.12689 0 -39.9509
-100.787 2.54682 0 -64.1016
-84.9726 5.74906 0 -84.1701
-125.168 4.16698 0 -63.4314
-113.14 3.41845 0 -63.801
-129.859 1.23924 0 -39.4854
-99.8521 0.365589 0 -38.7702
-53.9506 5.70865 0 -88.082
-74.7352 5.35614 0 -85.3074
-115.494 0.749081 0 -39.0366
-73.703 1.70367 0 -65.6875
-64.2934 5.14416 0 -86.6149
-100.787 2.54682 0 -64.1016
-87.8077 1.67123 0 -64.5715
-99.8521 0.365589 0 -38.7702
-67.4941 0.468694 0 -39.1191
-32.0892 12.6607 0 -92.2149
-53.9506 5.70865 0 -88.082
-83.7703 -0.317587 0 -38.6873
-44.2943 6.69734 0 -69.7408
-43.3262 7.97559 0 -89.9084
-73.703 1.70367 0 -65.6875
-59.0013 3.28323 0 -67.4859
-67.4941 0.468694 0 -39.1191
-27.2469 14.6374 0 -47.8924
-15.6718 32.8247 0 -94.2679
-32.0892 12.6607 0 -92.2149
-49.0845 5.32609 0 -41.6787
-13.3679 28.642 0 -79.194
-22.386 20.0575 0 -93.9847
-44.2943 6.69734 0 -69.7408
-29.4676 13.3814 0 -73.1698
-27.2469 14.6374 0 -47.8924
2.8308 70.3763 0 -72.1426
-5.09978 81.3026 0 -83.8145
-15.6718 32.8247 0 -94.2679
-9.24476 29.6477 0 -57.3417
-2.96577 91.8076 0 -82.7639
-10.0924 53.954 0 -91.7721
-13.3679 28.642 0 -79.194
-2.24807 55.0085 0 -84.2998
2.8308 70.3763 0 -72.1426
-7.05671 266.526 0 -59.7983
0.983629 132.43 0 -39.0786
-5.09978 81.3026 0 -83.8145
6.48649 152.922 0 -80.4812
-9.78263 188.59 0 -32.818
-0.862711 110.292 0 -66.7969
-2.96577 91.8076 0 -82.7639
-7.18561 139.618 0 -67.6609
-2788.09 -838.385 0 256.637
-3026.2 -533.177 0 -6.0553
-987.157 -172.614 0 133.277
-1011.86 -303.421 0 400.76
-2949.88 -675.421 0 97.8136
-2006.89 -352.614 0 79.7407
-970.156 -239.03 0 252.898
-1859.46 -558.432 0 366.373
-1964.35 -471.094 0 182.187
-3026.2 -533.177 0 -6.0553
-3082.87 -237.119 0 -86.3669
-1039.39 -107.971 0 -26.3387
-987.157 -172.614 0 133.277
-3051.47 -374.239 0 -58.167
-2053.99 -187.346 0 -47.4906
-1027.57 -136.676 0 39.3669
-2006.89 -352.614 0 79.7407
-2028.15 -256.883 0 10.7345
-3082.87 -237.119 0 -86.3669
-3111.68 -88.4256 0 -100.281
-1042.77 -49.033 0 -98.2654
-1039.39 -107.971 0 -26.3387
-3110.55 -147.632 0 -99.7318
-2078.35 -79.855 0 -101.399
-1037.41 -75.4177 0 -69.7784
-2053.99 -187.346 0 -47.4906
-2072.96 -128.343 0 -84.9874
-3111.68 -88.4256 0 -100.281
-3087.87 -19.945 0 -90.5974
-1045.55 -21.7806 0 -123.511
-1042.77 -49.033 0 -98.2654
-3098.66 -45.9381 0 -94.939
-2071.72 -27.121 0 -112.381
-1048.72 -33.0245 0 -115.278
-2078.35 -79.855 0 -101.399
-2076.67 -47.3044 0 -108.429
-3087.87 -19.945 0 -90.5974
-3060.19 -0.354307 0 -83.6207
-1034.33 -7.77323 0 -125.684
-1045.55 -21.7806 0 -123.511
-3076.32 -6.83667 0 -87.1217
-2052.78 -5.05067 0 -109.421
-1038.58 -12.8603 0 -126.031
-2071.72 -27.121 0 -112.381
-2063.36 -13.5227 0 -112.332
-3060.19 -0.354307 0 -83.6207
-3028.34 4.22462 0 -78.4581
-1024.93 -5.39157 0 -120.573
-1034.33 -7.77323 0 -125.684
-3042.73 3.35563 0 -80.4742
-2031.12 -0.168896 0 -103.549
-1030.64 -5.98448 0 -123.593
-2052.78 -5.05067 0 -109.421
-2041.59 -1.12563 0 -106.153
-3028.34 4.22462 0 -78.4581
-3002.68 1.59177 0 -75.7974
-1013.95 -5.42026 0 -114.137
-1024.93 -5.39157 0 -120.573
-3015.54 3.17341 0 -77.0791
-2011.61 -0.944792 0 -98.2082
-1018.72 -5.0771 0 -117.232
-2031.12 -0.168896 0 -103.549
-2021.07 -0.247462 0 -100.898
-3002.68 1.59177 0 -75.7974
-2979.55 -1.44036 0 -73.7343
-1005.52 -6.9742 0 -108.92
-1013.95 -5.42026 0 -114.137
-2990.39 0.11196 0 -74.6417
-1994.88 -3.49598 0 -94.1389
-1009.84 -6.21969 0 -111.354
-2011.61 -0.944792 0 -98.2082
-2002.86 -2.13111 0 -95.9276
-2979.55 -1.44036 0 -73.7343
-2959.91 -4.21657 0 -72.1509
-997.778 -8.08005 0 -105.143
-1005.52 -6.9742 0 -108.92
-2969.59 -2.96125 0 -72.9491
-1980.55 -5.68659 0 -91.157
-1001.36 -7.54439 0 -106.842
-1994.88 -3.49598 0 -94.1389
-1987.48 -4.68742 0 -92.5695
-2959.91 -4.21657 0 -72.1509
-2941.77 -5.95924 0 -70.5966
-991.3 -8.92798 0 -102.616
-997.778 -8.08005 0 -105.143
-2950.59 -5.18108 0 -71.3566
-1967.85 -7.24642 0 -88.9724
-994.519 -8.57129 0 -103.754
-1980.55 -5.68659 0 -91.157
-1974.03 -6.54544 0 -89.9657
-2941.77 -5.95924 0 -70.5966
-2924.91 -7.02671 0 -69.0896
-985.264 -9.31893 0 -100.925
-991.3 -8.92798 0 -102.616
-2933.28 -6.58054 0 -69.8496
-1956.18 -8.13912 0 -87.2844
-988.188 -9.15812 0 -101.684
-1967.85 -7.24642 0 -88.9724
-1961.92 -7.76783 0 -88.0892
-2924.91 -7.02671 0 -69.0896
-2908.57 -7.53919 0 -67.5653
-979.666 -9.46752 0 -99.7692
-985.264 -9.31893 0 -100.925
-2916.67 -7.33149 0 -68.3251
-1945.09 -8.57848 0 -85.9057
-982.453 -9.42536 0 -100.297
-1956.18 -8.13912 0 -87.2844
-1950.58 -8.40424 0 -86.562
-2908.57 -7.53919 0 -67.5653
-2892.59 -7.74306 0 -66.05
-974.219 -9.42209 0 -98.9233
-979.666 -9.46752 0 -99.7692
-2900.56 -7.67424 0 -66.8081
-1934.31 -8.7149 0 -84.7031
-976.918 -9.45991 0 -99.317
-1945.09 -8.57848 0 -85.9057
-1939.67 -8.6764 0 -85.2898
-2892.59 -7.74306 0 -66.05
-2876.76 -7.7521 0 -64.543
-968.889 -9.28254 0 -98.2537
-974.219 -9.42209 0 -98.9233
-2884.66 -7.7639 0 -65.2941
-1923.7 -8.67986 0 -83.6058
-971.551 -9.3627 0 -98.5729
-1934.31 -8.7149 0 -84.7031
-1928.99 -8.71315 0 -84.1438
-2876.76 -7.7521 0 -64.543
-2861 -7.66472 0 -63.0562
-963.592 -9.08517 0 -97.6792
-968.889 -9.28254 0 -98.2537
-2868.88 -7.71773 0 -63.7971
-1913.15 -8.54971 0 -82.5703
-966.235 -9.18807 0 -97.9579
-1923.7 -8.67986 0 -83.6058
-1918.42 -8.6233 0 -83.0825
-2861 -7.66472 0 -63.0562
-2845.27 -7.52628 0 -61.5924
-958.316 -8.86424 0 -97.1569
-963.592 -9.08517 0 -97.6792
-2853.13 -7.5994 0 -62.321
-1902.64 -8.37345 0 -81.5752
-960.954 -8.97697 0 -97.4134
-1913.15 -8.54971 0 -82.5703
-1907.89 -8.46542 0 -82.0685
-2845.27 -7.52628 0 -61.5924
-2829.55 -7.36704 0 -60.1551
-953.043 -8.63273 0 -96.6635
-958.316 -8.86424 0 -97.1569
-2837.41 -7.44841 0 -60.8704
-1892.14 -8.17661 0 -80.6087
-955.679 -8.74899 0 -96.9075
-1902.64 -8.37345 0 -81.5752
-1897.39 -8.2766 0 -81.089
-2829.55 -7.36704 0 -60.1551
-2813.83 -7.19998 0 -58.745
-947.77 -8.39976 0 -96.1878
-953.043 -8.63273 0 -96.6635
-2821.69 -7.28388 0 -59.4466
-1881.63 -7.97298 0 -79.6652
-950.407 -8.51625 0 -96.4239
-1892.14 -8.17661 0 -80.6087
-1886.88 -8.07515 0 -80.1343
-2813.83 -7.19998 0 -58.745
-2798.11 -7.03233 0 -57.3624
-942.495 -8.16831 0 -95.7245
-947.77 -8.39976 0 -96.1878
-2805.97 -7.11605 0 -58.0503
-1871.13 -7.76883 0 -78.7418
-945.133 -8.28368 0 -95.9548
-1881.63 -7.97298 0 -79.6652
-1876.38 -7.87075 0 -79.2012
-2798.11 -7.03233 0 -57.3624
-2782.39 -6.86663 0 -56.0071
-937.217 -7.93994 0 -95.2712
-942.495 -8.16831 0 -95.7245
-2790.25 -6.94913 0 -56.6814
-1860.62 -7.56687 0 -77.8371
-939.856 -8.05374 0 -95.4967
-1871.13 -7.76883 0 -78.7418
-1865.88 -7.6675 0 -78.2872
-2782.39 -6.86663 0 -56.0071
-2766.66 -6.70393 0 -54.6786
-931.938 -7.71478 0 -94.8269
-937.217 -7.93994 0 -95.2712
-2774.52 -6.7849 0 -55.3395
-1850.11 -7.36794 0 -76.9504
-934.578 -7.82696 0 -95.048
-1860.62 -7.56687 0 -77.8371
-1855.37 -7.46701 0 -77.3915
-2766.66 -6.70393 0 -54.6786
-2750.93 -6.54428 0 -53.3765
-926.658 -7.49267 0 -94.3911
-931.938 -7.71478 0 -94.8269
-2758.8 -6.62373 0 -54.0243
-1839.6 -7.17211 0 -76.0811
-929.298 -7.60337 0 -94.6079
-1850.11 -7.36794 0 -76.9504
-1844.86 -7.26965 0 -76.5136
-2750.93 -6.54428 0 -53.3765
-2735.2 -6.38752 0 -52.1005
-921.376 -7.27326 0 -93.9637
-926.658 -7.49267 0 -94.3911
-2743.07 -6.46556 0 -52.7353
-1829.09 -6.97914 0 -75.2291
-924.017 -7.38265 0 -94.1764
-1839.6 -7.17211 0 -76.0811
-1834.35 -7.07529 0 -75.653
-2735.2 -6.38752 0 -52.1005
-2719.47 -6.23337 0 -50.8501
-916.095 -7.05624 0 -93.5447
-921.376 -7.27326 0 -93.9637
-2727.34 -6.31014 0 -51.4721
-1818.58 -6.78873 0 -74.3941
-918.735 -7.16447 0 -93.7532
-1829.09 -6.97914 0 -75.2291
-1823.84 -6.88363 0 -74.8095
-2719.47 -6.23337 0 -50.8501
-2703.74 -6.08158 0 -49.625
-910.813 -6.84132 0 -93.134
-916.095 -7.05624 0 -93.5447
-2711.61 -6.1572 0 -50.2344
-1808.07 -6.60062 0 -73.576
-913.454 -6.94853 0 -93.3383
-1818.58 -6.78873 0 -74.3941
-1813.32 -6.6944 0 -73.983
-2703.74 -6.08158 0 -49.625
-2688.01 -5.93196 0 -48.4251
-905.53 -6.62832 0 -92.7315
-910.813 -6.84132 0 -93.134
-2695.87 -6.00651 0 -49.022
-1797.55 -6.41459 0 -72.7746
-908.171 -6.73459 0 -92.9317
-1808.07 -6.60062 0 -73.576
-1802.81 -6.50736 0 -73.1732
-2688.01 -5.93196 0 -48.4251
-2672.28 -5.78434 0 -47.2502
-900.248 -6.41708 0 -92.3373
-905.53 -6.62832 0 -92.7315
-2680.14 -5.85791 0 -47.8345
-1787.04 -6.2305 0 -71.9897
-902.889 -6.52249 0 -92.5334
-1797.55 -6.41459 0 -72.7746
-1792.3 -6.32231 0 -72.3801
-2672.28 -5.78434 0 -47.2502
-2656.54 -5.63862 0 -46.0999
-894.966 -6.2075 0 -91.9512
-900.248 -6.41708 0 -92.3373
-2664.41 -5.71125 0 -46.672
-1776.53 -6.04821 0 -71.2214
-897.607 -6.31209 0 -92.1432
-1787.04 -6.2305 0 -71.9897
-1781.78 -6.13913 0 -71.6035
-2656.54 -5.63862 0 -46.0999
-2640.81 -5.4947 0 -44.9743
-889.684 -5.99951 0 -91.5733
-894.966 -6.2075 0 -91.9512
-2648.67 -5.56644 0 -45.534
-1766.01 -5.86765 0 -70.4694
-892.325 -6.10331 0 -91.7613
-1776.53 -6.04821 0 -71.2214
-1771.27 -5.95772 0 -70.8433
-2640.81 -5.4947 0 -44.9743
-2625.07 -5.3525 0 -43.873
-884.402 -5.79307 0 -91.2035
-889.684 -5.99951 0 -91.5733
-2632.94 -5.42339 0 -44.4206
-1755.5 -5.68876 0 -69.7336
-887.043 -5.8961 0 -91.3874
-1766.01 -5.86765 0 -70.4694
-1760.76 -5.778 0 -70.0995
-2625.07 -5.3525 0 -43.873
-2609.34 -5.21198 0 -42.796
-879.12 -5.58814 0 -90.8417
-884.402 -5.79307 0 -91.2035
-2617.21 -5.28204 0 -43.3315
-1744.98 -5.51148 0 -69.014
-881.761 -5.69041 0 -91.0216
-1755.5 -5.68876 0 -69.7336
-1750.24 -5.59992 0 -69.3718
-2609.34 -5.21198 0 -42.796
-2593.6 -5.07309 0 -41.7432
-873.838 -5.38469 0 -90.4879
-879.12 -5.58814 0 -90.8417
-2601.47 -5.14234 0 -42.2666
-1734.47 -5.33579 0 -68.3105
-876.479 -5.48623 0 -90.6638
-1744.98 -5.51148 0 -69.014
-1739.73 -5.42344 0 -68.6602
-2593.6 -5.07309 0 -41.7432
-2577.87 -4.93576 0 -40.7144
-868.556 -5.18271 0 -90.142
-873.838 -5.38469 0 -90.4879
-2585.73 -5.00423 0 -41.2258
-1723.95 -5.16165 0 -67.6229
-871.197 -5.28352 0 -90.314
-1734.47 -5.33579 0 -68.3105
-1729.21 -5.24853 0 -67.9647
-2577.87 -4.93576 0 -40.7144
-2562.13 -4.79997 0 -39.7093
-863.274 -4.98219 0 -89.8041
-868.556 -5.18271 0 -90.142
-2570 -4.86768 0 -40.2089
-1713.44 -4.98903 0 -66.9512
-865.915 -5.08227 0 -89.9721
-1723.95 -5.16165 0 -67.6229
-1718.7 -5.07515 0 -67.2851
-2562.13 -4.79997 0 -39.7093
-2546.39 -4.66566 0 -38.728
-857.992 -4.78311 0 -89.474
-863.274 -4.98219 0 -89.8041
-2554.26 -4.73263 0 -39.2157
-1702.92 -4.8179 0 -66.2953
-860.633 -4.88247 0 -89.6381
-1713.44 -4.98903 0 -66.9512
-1708.18 -4.90328 0 -66.6213
-2546.39 -4.66566 0 -38.728
-2530.65 -4.53281 0 -37.7703
-852.711 -4.58546 0 -89.1517
-857.992 -4.78311 0 -89.474
-2538.52 -4.59906 0 -38.2462
-1692.41 -4.64823 0 -65.6551
-855.352 -4.68411 0 -89.3119
-1702.92 -4.8179 0 -66.2953
-1697.67 -4.73288 0 -65.9733
-2530.65 -4.53281 0 -37.7703
-2514.92 -4.40136 0 -36.8359
-847.43 -4.38922 0 -88.8372
-852.711 -4.58546 0 -89.1517
-2522.79 -4.46691 0 -37.3002
-1681.89 -4.48001 0 -65.0305
-850.07 -4.48716 0 -88.9935
-1692.41 -4.64823 0 -65.6551
-1687.15 -4.56394 0 -65.3409
-2514.92 -4.40136 0 -36.8359
-2499.18 -4.27128 0 -35.9249
-842.148 -4.19439 0 -88.5304
-847.43 -4.38922 0 -88.8372
-2507.05 -4.33615 0 -36.3775
-1671.38 -4.31319 0 -64.4214
-844.789 -4.29163 0 -88.6828
-1681.89 -4.48001 0 -65.0305
-1676.64 -4.39643 0 -64.724
-2499.18 -4.27128 0 -35.9249
-2483.44 -4.14253 0 -35.0369
-836.867 -4.00096 0 -88.2313
-842.148 -4.19439 0 -88.5304
-2491.31 -4.20674 0 -35.478
-1660.86 -4.14777 0 -63.8277
-839.508 -4.0975 0 -88.3799
-1671.38 -4.31319 0 -64.4214
-1666.12 -4.23031 0 -64.1226
-2483.44 -4.14253 0 -35.0369
-2467.7 -4.01507 0 -34.172
-831.586 -3.8089 0 -87.9398
-836.867 -4.00096 0 -88.2313
-2475.57 -4.07864 0 -34.6016
-1650.35 -3.98371 0 -63.2493
-834.227 -3.90476 0 -88.0846
-1660.86 -4.14777 0 -63.8277
-1655.61 -4.06558 0 -63.5366
-2467.7 -4.01507 0 -34.172
-2451.97 -3.88886 0 -33.3299
-826.306 -3.61822 0 -87.6558
-831.586 -3.8089 0 -87.9398
-2459.83 -3.95181 0 -33.7481
-1639.83 -3.821 0 -62.6861
-828.946 -3.71339 0 -87.7969
-1650.35 -3.98371 0 -63.2493
-1645.09 -3.90219 0 -62.9658
-2451.97 -3.88886 0 -33.3299
-2436.23 -3.76387 0 -32.5105
-821.025 -3.42889 0 -87.3795
-826.306 -3.61822 0 -87.6558
-2444.1 -3.82622 0 -32.9174
-1629.32 -3.65959 0 -62.138
-823.665 -3.52338 0 -87.5167
-1639.83 -3.821 0 -62.6861
-1634.58 -3.74013 0 -62.4102
-2436.23 -3.76387 0 -32.5105
-2420.49 -3.64006 0 -31.7136
-815.745 -3.24091 0 -87.1105
-821.025 -3.42889 0 -87.3795
-2428.36 -3.70182 0 -32.1092
-1618.8 -3.49948 0 -61.605
-818.385 -3.33473 0 -87.2441
-1629.32 -3.65959 0 -62.138
-1624.06 -3.57937 0 -61.8696
-2420.49 -3.64006 0 -31.7136
-2404.75 -3.51739 0 -30.9392
-810.465 -3.05426 0 -86.8491
-815.745 -3.24091 0 -87.1105
-2412.62 -3.57859 0 -31.3236
-1608.29 -3.34063 0 -61.0868
-813.105 -3.14742 0 -86.9789
-1618.8 -3.49948 0 -61.605
-1613.55 -3.41989 0 -61.3441
-2404.75 -3.51739 0 -30.9392
-2389.01 -3.39583 0 -30.187
-805.185 -2.86893 0 -86.595
-810.465 -3.05426 0 -86.8491
-2396.88 -3.45648 0 -30.5603
-1597.77 -3.18302 0 -60.5836
-807.825 -2.96143 0 -86.7211
-1608.29 -3.34063 0 -61.0868
-1603.03 -3.26167 0 -60.8334
-2389.01 -3.39583 0 -30.187
-2373.27 -3.27535 0 -29.4569
-799.905 -2.68492 0 -86.3482
-805.185 -2.86893 0 -86.595
-2381.14 -3.33546 0 -29.8192
-1587.26 -3.02663 0 -60.095
-802.545 -2.77676 0 -86.4707
-1597.77 -3.18302 0 -60.5836
-1592.52 -3.10467 0 -60.3374
-2373.27 -3.27535 0 -29.4569
-2357.54 -3.1559 0 -28.7488
-794.626 -2.5022 0 -86.1088
-799.905 -2.68492 0 -86.3482
-2365.41 -3.2155 0 -29.1001
-1576.75 -2.87144 0 -59.6211
-797.266 -2.5934 0 -86.2276
-1587.26 -3.02663 0 -60.095
-1582 -2.94889 0 -59.8562
-2357.54 -3.1559 0 -28.7488
-2341.8 -3.03746 0 -28.0625
-789.347 -2.32077 0 -85.8766
-794.626 -2.5022 0 -86.1088
-2349.67 -3.09656 0 -28.4029
-1566.23 -2.71742 0 -59.1617
-791.986 -2.41132 0 -85.9918
-1576.75 -2.87144 0 -59.6211
-1571.49 -2.79429 0 -59.3896
-2341.8 -3.03746 0 -28.0625
-2326.06 -2.91999 0 -27.3979
-784.068 -2.14062 0 -85.6516
-789.347 -2.32077 0 -85.8766
-2333.93 -2.97861 0 -27.7275
-1555.72 -2.56456 0 -58.7167
-786.707 -2.23054 0 -85.7632
-1566.23 -2.71742 0 -59.1617
-1560.98 -2.64085 0 -58.9374
-2326.06 -2.91999 0 -27.3979
-2310.32 -2.80346 0 -26.7549
-778.79 -1.96173 0 -85.4337
-784.068 -2.14062 0 -85.6516
-2318.19 -2.86161 0 -27.0737
-1545.21 -2.41282 0 -58.2861
-781.429 -2.05102 0 -85.5417
-1555.72 -2.56456 0 -58.7167
-1550.46 -2.48855 0 -58.4996
-2310.32 -2.80346 0 -26.7549
-2294.59 -2.68784 0 -26.1332
-773.511 -1.78411 0 -85.223
-778.79 -1.96173 0 -85.4337
-2302.46 -2.74554 0 -26.4414
-1534.69 -2.2622 0 -57.8698
-776.151 -1.87276 0 -85.3275
-1545.21 -2.41282 0 -58.2861
-1539.95 -2.33738 0 -58.0762
-2294.59 -2.68784 0 -26.1332
-2278.85 -2.5731 0 -25.5328
-768.234 -1.60772 0 -85.0193
-773.511 -1.78411 0 -85.223
-2286.72 -2.63036 0 -25.8303
-1524.18 -2.11267 0 -57.4676
-770.873 -1.69576 0 -85.1202
-1534.69 -2.2622 0 -57.8698
-1529.44 -2.1873 0 -57.6669
-2278.85 -2.5731 0 -25.5328
-2263.11 -2.45921 0 -24.9534
-762.956 -1.43258 0 -84.8226
-768.234 -1.60772 0 -85.0193
-2270.98 -2.51605 0 -25.2405
-1513.67 -1.9642 0 -57.0795
-765.595 -1.52 0 -84.9201
-1524.18 -2.11267 0 -57.4676
-1518.92 -2.0383 0 -57.2718
-2263.11 -2.45921 0 -24.9534
-2247.38 -2.34613 0 -24.3951
-757.679 -1.25865 0 -84.6329
-762.956 -1.43258 0 -84.8226
-2255.25 -2.40257 0 -24.6716
-1503.16 -1.81679 0 -56.7053
-760.318 -1.34546 0 -84.7269
-1513.67 -1.9642 0 -57.0795
-1508.41 -1.89036 0 -56.8906
-2247.38 -2.34613 0 -24.3951
-2231.64 -2.23385 0 -23.8575
-752.402 -1.08595 0 -84.4501
-757.679 -1.25865 0 -84.6329
-2239.51 -2.28989 0 -24.1237
-1492.65 -1.6704 0 -56.345
-755.041 -1.17215 0 -84.5406
-1503.16 -1.81679 0 -56.7053
-1497.9 -1.74347 0 -56.5234
-2231.64 -2.23385 0 -23.8575
-2215.91 -2.12232 0 -23.3406
-747.126 -0.914451 0 -84.2741
-752.402 -1.08595 0 -84.4501
-2223.78 -2.17799 0 -23.5965
-1482.13 -1.52503 0 -55.9984
-749.764 -1.00005 0 -84.3612
-1492.65 -1.6704 0 -56.345
-1487.39 -1.59759 0 -56.17
-2215.91 -2.12232 0 -23.3406
-2200.17 -2.01153 0 -22.8442
-741.85 -0.74415 0 -84.105
-747.126 -0.914451 0 -84.2741
-2208.04 -2.06684 0 -23.0898
-1471.62 -1.38064 0 -55.6656
-744.488 -0.829151 0 -84.1887
-1482.13 -1.52503 0 -55.9984
-1476.88 -1.45271 0 -55.8303
-2200.17 -2.01153 0 -22.8442
-2184.44 -1.90145 0 -22.3682
-736.574 -0.575038 0 -83.9427
-741.85 -0.74415 0 -84.105
-2192.31 -1.95641 0 -22.6037
-1461.11 -1.23724 0 -55.3463
-739.212 -0.659446 0 -84.023
-1471.62 -1.38064 0 -55.6656
-1466.37 -1.30882 0 -55.5042
-2184.44 -1.90145 0 -22.3682
-2168.71 -1.79205 0 -21.9124
-731.299 -0.407106 0 -83.787
-736.574 -0.575038 0 -83.9427
-2176.57 -1.84667 0 -22.1378
-1450.61 -1.09479 0 -55.0405
-733.936 -0.490925 0 -83.864
-1461.11 -1.23724 0 -55.3463
-1455.86 -1.1659 0 -55.1917
-2168.71 -1.79205 0 -21.9124
-2152.97 -1.6833 0 -21.4767
-726.024 -0.240345 0 -83.6381
-731.299 -0.407106 0 -83.787
-2160.84 -1.73759 0 -21.6921
-1440.1 -0.953281 0 -54.748
-728.661 -0.323579 0 -83.7117
-1450.61 -1.09479 0 -55.0405
-1445.35 -1.02392 0 -54.8926
-2152.97 -1.6833 0 -21.4767
-2137.24 -1.57518 0 -21.0609
-720.749 -0.0747466 0 -83.4958
-726.024 -0.240345 0 -83.6381
-2145.11 -1.62916 0 -21.2663
-1429.59 -0.812696 0 -54.4689
-723.386 -0.157401 0 -83.5661
-1440.1 -0.953281 0 -54.748
-1434.84 -0.882874 0 -54.6068
-2137.24 -1.57518 0 -21.0609
-2121.51 -1.46767 0 -20.6649
-715.475 0.089697 0 -83.36
-720.749 -0.0747466 0 -83.4958
-2129.37 -1.52135 0 -20.8605
-1419.08 -0.673019 0 -54.2029
-718.112 0.00761908 0 -83.4271
-1429.59 -0.812696 0 -54.4689
-1424.33 -0.742745 0 -54.3343
-2121.51 -1.46767 0 -20.6649
-2105.78 -1.36073 0 -20.2886
-710.202 0.252994 0 -83.2308
-715.475 0.089697 0 -83.36
-2113.64 -1.41413 0 -20.4743
-1408.57 -0.534232 0 -53.9501
-712.838 0.171488 0 -83.2946
-1419.08 -0.673019 0 -54.2029
-1413.83 -0.603515 0 -54.0749
-2105.78 -1.36073 0 -20.2886
-2090.05 -1.25436 0 -19.9318
-704.928 0.415152 0 -83.1081
-710.202 0.252994 0 -83.2308
-2097.91 -1.30748 0 -20.1078
-1398.07 -0.396322 0 -53.7102
-707.565 0.334215 0 -83.1687
-1408.57 -0.534232 0 -53.9501
-1403.32 -0.465168 0 -53.8285
-2090.05 -1.25436 0 -19.9318
-2074.32 -1.14852 0 -19.5943
-699.656 0.576179 0 -82.9918
-704.928 0.415152 0 -83.1081
-2082.18 -1.20137 0 -19.7606
-1387.56 -0.259272 0 -53.4832
-702.292 0.495806 0 -83.0492
-1398.07 -0.396322 0 -53.7102
-1392.81 -0.32769 0 -53.5951
-2074.32 -1.14852 0 -19.5943
-2058.59 -1.04319 0 -19.276
-694.383 0.736081 0 -82.8819
-699.656 0.576179 0 -82.9918
-2066.45 -1.09579 0 -19.4327
-1377.05 -0.123068 0 -53.2691
-697.019 0.65627 0 -82.9361
-1387.56 -0.259272 0 -53.4832
-1382.31 -0.191065 0 -53.3746
-2058.59 -1.04319 0 -19.276
-2042.86 -0.938361 0 -18.9768
-689.111 0.894867 0 -82.7784
-694.383 0.736081 0 -82.8819
-2050.72 -0.990718 0 -19.124
-1366.55 0.0123045 0 -53.0676
-691.747 0.815613 0 -82.8294
-1377.05 -0.123068 0 -53.2691
-1371.8 -0.0552786 0 -53.1668
-2042.86 -0.938361 0 -18.9768
-2027.13 -0.833999 0 -18.6965
-683.84 1.05254 0 -82.6812
-689.111 0.894867 0 -82.7784
-2034.99 -0.886122 0 -18.8343
-1356.05 0.146859 0 -52.8787
-686.476 0.973843 0 -82.729
-1366.55 0.0123045 0 -53.0676
-1361.3 0.0796831 0 -52.9716
-2027.13 -0.833999 0 -18.6965
-2011.4 -0.730087 0 -18.4349
-678.569 1.20912 0 -82.5902
-683.84 1.05254 0 -82.6812
-2019.27 -0.781987 0 -18.5634
-1345.54 0.280609 0 -52.7024
-681.204 1.13097 0 -82.6349
-1356.05 0.146859 0 -52.8787
-1350.79 0.213834 0 -52.789
-2011.4 -0.730087 0 -18.4349
-1995.68 -0.626606 0 -18.192
-673.299 1.36459 0 -82.5054
-678.569 1.20912 0 -82.5902
-2003.54 -0.678293 0 -18.3111
-1335.04 0.413569 0 -52.5385
-675.934 1.28699 0 -82.547
-1345.54 0.280609 0 -52.7024
-1340.29 0.347187 0 -52.6189
-1995.68 -0.626606 0 -18.192
-1979.95 -0.523537 0 -17.9676
-668.029 1.51898 0 -82.4267
-673.299 1.36459 0 -82.5054
-1987.81 -0.575021 0 -18.0775
-1324.54 0.54575 0 -52.3869
-670.664 1.44192 0 -82.4653
-1335.04 0.413569 0 -52.5385
-1329.79 0.479756 0 -52.4611
-1979.95 -0.523537 0 -17.9676
-1964.23 -0.420861 0 -17.7615
-662.759 1.67228 0 -82.3542
-668.029 1.51898 0 -82.4267
-1972.09 -0.472151 0 -17.8622
-1314.04 0.677165 0 -52.2475
-665.394 1.59577 0 -82.3897
-1324.54 0.54575 0 -52.3869
-1319.29 0.611553 0 -52.3156
-1964.23 -0.420861 0 -17.7615
-1948.5 -0.318561 0 -17.5736
-657.49 1.82451 0 -82.2877
-662.759 1.67228 0 -82.3542
-1956.37 -0.369665 0 -17.6652
-1303.53 0.807827 0 -52.1202
-660.125 1.74853 0 -82.3202
-1314.04 0.677165 0 -52.2475
-1308.79 0.742589 0 -52.1823
-1948.5 -0.318561 0 -17.5736
-1932.78 -0.216619 0 -17.4037
-652.222 1.97566 0 -82.2272
-657.49 1.82451 0 -82.2877
-1940.64 -0.267546 0 -17.4864
-1293.03 0.937746 0 -52.005
-654.856 1.90022 0 -82.2567
-1303.53 0.807827 0 -52.1202
-1298.28 0.872878 0 -52.0611
-1932.78 -0.216619 0 -17.4037
-1917.06 -0.115018 0 -17.2517
-646.954 2.12575 0 -82.1727
-652.222 1.97566 0 -82.2272
-1924.92 -0.165777 0 -17.3255
-1282.54 1.06693 0 -51.9016
-649.588 2.05084 0 -82.1992
-1293.03 0.937746 0 -52.005
-1287.78 1.00243 0 -51.9518
-1917.06 -0.115018 0 -17.2517
-1901.34 -0.0137416 0 -17.1175
-641.686 2.27477 0 -82.1241
-646.954 2.12575 0 -82.1727
-1909.2 -0.0643401 0 -17.1824
-1272.04 1.1954 0 -51.8102
-644.32 2.20039 0 -82.1477
-1282.54 1.06693 0 -51.9016
-1277.29 1.13126 0 -51.8544
-1901.34 -0.0137416 0 -17.1175
-1885.62 0.0872256 0 -17.0008
-636.42 2.42275 0 -82.0814
-641.686 2.27477 0 -82.1241
-1893.48 0.0367797 0 -17.057
-1261.54 1.32316 0 -51.7304
-639.053 2.34889 0 -82.102
-1272.04 1.1954 0 -51.8102
-1266.79 1.25937 0 -51.7688
-1885.62 0.0872256 0 -17.0008
-1869.9 0.187899 0 -16.9017
-631.153 2.56967 0 -82.0445
-636.42 2.42275 0 -82.0814
-1877.76 0.137598 0 -16.9491
-1251.04 1.45022 0 -51.6623
-633.786 2.49634 0 -82.0622
-1261.54 1.32316 0 -51.7304
-1256.29 1.38678 0 -51.6949
-1869.9 0.187899 0 -16.9017
-1854.18 0.288293 0 -16.8198
-625.887 2.71554 0 -82.0133
-631.153 2.56967 0 -82.0445
-1862.04 0.23813 0 -16.8586
-1240.55 1.57659 0 -51.6058
-628.52 2.64273 0 -82.0282
-1251.04 1.45022 0 -51.6623
-1245.79 1.51349 0 -51.6326
-1854.18 0.288293 0 -16.8198
-1838.46 0.388422 0 -16.7551
-620.622 2.86038 0 -81.9879
-625.887 2.71554 0 -82.0133
-1846.32 0.33839 0 -16.7853
-1230.05 1.70228 0 -51.5607
-623.255 2.78809 0 -81.9999
-1240.55 1.57659 0 -51.6058
-1235.3 1.63952 0 -51.5818
-1838.46 0.388422 0 -16.7551
-1822.75 0.4883 0 -16.7074
-615.357 3.00418 0 -81.9682
-620.622 2.86038 0 -81.9879
-1830.6 0.438392 0 -16.7291
-1219.56 1.8273 0 -51.5269
-617.99 2.93241 0 -81.9773
-1230.05 1.70228 0 -51.5607
-1224.8 1.76487 0 -51.5424
-1822.75 0.4883 0 -16.7074
-1807.03 0.587939 0 -16.6766
-610.093 3.14694 0 -81.954
-615.357 3.00418 0 -81.9682
-1814.89 0.538149 0 -16.6899
-1209.06 1.95165 0 -51.5044
-612.725 3.07569 0 -81.9604
-1219.56 1.8273 0 -51.5269
-1214.31 1.88956 0 -51.5143
-1807.03 0.587939 0 -16.6766
-1791.32 0.687353 0 -16.6625
-604.829 3.28868 0 -81.9455
-610.093 3.14694 0 -81.954
-1799.17 0.637674 0 -16.6675
-1198.57 2.07536 0 -51.4931
-607.461 3.21794 0 -81.9491
-1209.06 1.95165 0 -51.5044
-1203.81 2.01359 0 -51.4974
-1791.32 0.687353 0 -16.6625
-1775.6 0.786553 0 -16.6651
-599.566 3.4294 0 -81.9425
-604.829 3.28868 0 -81.9455
-1783.46 0.736979 0 -16.6617
-1188.08 2.19841 0 -51.4928
-602.198 3.35917 0 -81.9433
-1198.57 2.07536 0 -51.4931
-1193.32 2.13697 0 -51.4915
-1775.6 0.786553 0 -16.6651
-1759.89 0.88555 0 -16.684
-594.304 3.5691 0 -81.945
-599.566 3.4294 0 -81.9425
-1767.75 0.836076 0 -16.6725
-1177.58 2.32083 0 -51.5035
-596.935 3.49937 0 -81.9431
-1188.08 2.19841 0 -51.4928
-1182.83 2.2597 0 -51.4968
-1759.89 0.88555 0 -16.684
-1744.18 0.984357 0 -16.7192
-589.042 3.70778 0 -81.9529
-594.304 3.5691 0 -81.945
-1752.04 0.934977 0 -16.6996
-1167.09 2.44262 0 -51.525
-591.673 3.63856 0 -81.9483
-1177.58 2.32083 0 -51.5035
-1172.34 2.38181 0 -51.5129
-1744.18 0.984357 0 -16.7192
-1728.47 1.08298 0 -16.7706
-583.78 3.84545 0 -81.9662
-589.042 3.70778 0 -81.9529
-1736.32 1.03369 0 -16.7429
-1156.6 2.56379 0 -51.5573
-586.411 3.77674 0 -81.9589
-1167.09 2.44262 0 -51.525
-1161.85 2.50328 0 -51.5398
-1728.47 1.08298 0 -16.7706
-1712.76 1.18144 0 -16.838
-578.52 3.98211 0 -81.9848
-583.78 3.84545 0 -81.9662
-1720.61 1.13223 0 -16.8023
-1146.12 2.68433 0 -51.6003
-581.15 3.9139 0 -81.9749
-1156.6 2.56379 0 -51.5573
-1151.36 2.62414 0 -51.5775
-1712.76 1.18144 0 -16.838
-1697.05 1.27973 0 -16.9213
-573.259 4.11776 0 -82.0088
-578.52 3.98211 0 -81.9848
-1704.91 1.2306 0 -16.8777
-1135.63 2.80427 0 -51.6538
-575.889 4.05006 0 -81.9962
-1146.12 2.68433 0 -51.6003
-1140.87 2.74438 0 -51.6258
-1697.05 1.27973 0 -16.9213
-1681.34 1.37787 0 -17.0202
-568 4.25242 0 -82.038
-573.259 4.11776 0 -82.0088
-1689.2 1.32882 0 -16.9688
-1125.14 2.9236 0 -51.7179
-570.629 4.18521 0 -82.0227
-1135.63 2.80427 0 -51.6538
-1130.38 2.86401 0 -51.6846
-1681.34 1.37787 0 -17.0202
-1665.64 1.47587 0 -17.1347
-562.74 4.38607 0 -82.0723
-568 4.25242 0 -82.038
-1673.49 1.42689 0 -17.0755
-1114.65 3.04234 0 -51.7923
-565.37 4.31937 0 -82.0545
-1125.14 2.9236 0 -51.7179
-1119.9 2.98304 0 -51.7538
-1665.64 1.47587 0 -17.1347
-1649.93 1.57373 0 -17.2647
-557.482 4.51873 0 -82.1119
-562.74 4.38607 0 -82.0723
-1657.79 1.52482 0 -17.1978
-1104.17 3.16048 0 -51.877
-560.111 4.45252 0 -82.0915
-1114.65 3.04234 0 -51.7923
-1109.41 3.10148 0 -51.8334
-1649.93 1.57373 0 -17.2647
-1634.23 1.67147 0 -17.4099
-552.224 4.65039 0 -82.1565
-557.482 4.51873 0 -82.1119
-1642.08 1.62262 0 -17.3354
-1093.68 3.27803 0 -51.9719
-554.853 4.58468 0 -82.1336
-1104.17 3.16048 0 -51.877
-1098.93 3.21933 0 -51.9232
-1634.23 1.67147 0 -17.4099
-1618.53 1.76908 0 -17.5702
-546.967 4.78106 0 -82.2062
-552.224 4.65039 0 -82.1565
-1626.38 1.72029 0 -17.4881
-1083.2 3.395 0 -52.0769
-549.595 4.71585 0 -82.1807
-1093.68 3.27803 0 -51.9719
-1088.44 3.33659 0 -52.0231
-1618.53 1.76908 0 -17.5702
-1602.83 1.86658 0 -17.7455
-541.71 4.91074 0 -82.2609
-546.967 4.78106 0 -82.2062
-1610.68 1.81785 0 -17.656
-1072.72 3.51139 0 -52.1919
-544.338 4.84602 0 -82.2329
-1083.2 3.395 0 -52.0769
-1077.96 3.45326 0 -52.1331
-1602.83 1.86658 0 -17.7455
-1587.12 1.96398 0 -17.9356
-536.454 5.03943 0 -82.3205
-541.71 4.91074 0 -82.2609
-1594.97 1.91529 0 -17.8387
-1062.23 3.6272 0 -52.3168
-539.082 4.97521 0 -82.2901
-1072.72 3.51139 0 -52.1919
-1067.48 3.56937 0 -52.2531
-1587.12 1.96398 0 -17.9356
-1571.43 2.06127 0 -18.1405
-531.198 5.16714 0 -82.3851
-536.454 5.03943 0 -82.3205
-1579.27 2.01263 0 -18.0362
-1051.75 3.74245 0 -52.4514
-533.826 5.10341 0 -82.3522
-1062.23 3.6272 0 -52.3168
-1056.99 3.68489 0 -52.3829
-1571.43 2.06127 0 -18.1405
-1555.73 2.15846 0 -18.3599
-525.943 5.29387 0 -82.4545
-531.198 5.16714 0 -82.3851
-1563.58 2.10987 0 -18.2484
-1041.27 3.85712 0 -52.5958
-528.57 5.23063 0 -82.4192
-1051.75 3.74245 0 -52.4514
-1046.51 3.79985 0 -52.5224
-1555.73 2.15846 0 -18.3599
-1540.03 2.25556 0 -18.5936
-520.689 5.41961 0 -82.5288
-525.943 5.29387 0 -82.4545
-1547.88 2.20702 0 -18.475
-1030.79 3.97123 0 -52.7498
-523.316 5.35686 0 -82.491
-1041.27 3.85712 0 -52.5958
-1036.03 3.91425 0 -52.6716
-1540.03 2.25556 0 -18.5936
-1524.33 2.35257 0 -18.8417
-515.435 5.54438 0 -82.6078
-520.689 5.41961 0 -82.5288
-1532.18 2.30408 0 -18.7159
-1020.32 4.08478 0 -52.9133
-518.062 5.48212 0 -82.5677
-1030.79 3.97123 0 -52.7498
-1025.55 4.02808 0 -52.8304
-1524.33 2.35257 0 -18.8417
-1508.64 2.4495 0 -19.1038
-510.182 5.66816 0 -82.6915
-515.435 5.54438 0 -82.6078
-1516.49 2.40105 0 -18.971
-1009.84 4.19778 0 -53.0862
-512.808 5.60639 0 -82.649
-1020.32 4.08478 0 -52.9133
-1015.08 4.14135 0 -52.9986
-1508.64 2.4495 0 -19.1038
-1492.95 2.54635 0 -19.3799
-504.929 5.79097 0 -82.7799
-510.182 5.66816 0 -82.6915
-1500.79 2.49794 0 -19.2401
-999.362 4.31021 0 -53.2685
-507.555 5.72969 0 -82.7351
-1009.84 4.19778 0 -53.0862
-1004.6 4.25406 0 -53.1762
-1492.95 2.54635 0 -19.3799
-1477.25 2.64312 0 -19.6698
-499.677 5.9128 0 -82.8729
-504.929 5.79097 0 -82.7799
-1485.1 2.59475 0 -19.5231
-988.886 4.42209 0 -53.4599
-502.303 5.852 0 -82.8258
-999.362 4.31021 0 -53.2685
-994.124 4.36622 0 -53.3631
-1477.25 2.64312 0 -19.6698
-1461.56 2.73982 0 -19.9734
-494.426 6.03365 0 -82.9705
-499.677 5.9128 0 -82.8729
-1469.41 2.69148 0 -19.8199
-978.411 4.53342 0 -53.6605
-497.051 5.97335 0 -82.9211
-988.886 4.42209 0 -53.4599
-983.649 4.47783 0 -53.5591
-1461.56 2.73982 0 -19.9734
-1445.87 2.83644 0 -20.2905
-489.175 6.15353 0 -83.0726
-494.426 6.03365 0 -82.9705
-1453.72 2.78814 0 -20.1303
-967.937 4.6442 0 -53.8701
-491.8 6.09371 0 -83.021
-978.411 4.53342 0 -53.6605
-973.174 4.58888 0 -53.7642
-1445.87 2.83644 0 -20.2905
-1430.18 2.933 0 -20.621
-483.925 6.27244 0 -83.1792
-489.175 6.15353 0 -83.0726
-1438.03 2.88473 0 -20.4541
-957.464 4.75443 0 -54.0887
-486.55 6.21311 0 -83.1254
-967.937 4.6442 0 -53.8701
-962.701 4.69939 0 -53.9783
-1430.18 2.933 0 -20.621
-1414.49 3.02948 0 -20.9647
-478.675 6.39037 0 -83.2903
-483.925 6.27244 0 -83.1792
-1422.34 2.98125 0 -20.7912
-946.992 4.86411 0 -54.3161
-481.3 6.33153 0 -83.2342
-957.464 4.75443 0 -54.0887
-952.228 4.80934 0 -54.2013
-1414.49 3.02948 0 -20.9647
-1398.81 3.1259 0 -21.3215
-473.426 6.50733 0 -83.4057
-478.675 6.39037 0 -83.2903
-1406.65 3.0777 0 -21.1415
-936.521 4.97324 0 -54.5522
-476.05 6.44897 0 -83.3474
-946.992 4.86411 0 -54.3161
-941.757 4.91875 0 -54.433
-1398.81 3.1259 0 -21.3215
-1383.12 3.22225 0 -21.6913
-468.178 6.62332 0 -83.5254
-473.426 6.50733 0 -83.4057
-1390.96 3.17408 0 -21.5048
-926.051 5.08183 0 -54.7969
-470.802 6.56545 0 -83.465
-936.521 4.97324 0 -54.5522
-931.286 5.02761 0 -54.6735
-1383.12 3.22225 0 -21.6913
-1367.44 3.31853 0 -22.0739
-462.93 6.73833 0 -83.6495
-468.178 6.62332 0 -83.5254
-1375.28 3.2704 0 -21.881
-915.582 5.18987 0 -55.0502
-465.554 6.68095 0 -83.5869
-926.051 5.08183 0 -54.7969
-920.816 5.13592 0 -54.9225
-1367.44 3.31853 0 -22.0739
-1351.75 3.41474 0 -22.4691
-457.683 6.85237 0 -83.7778
-462.93 6.73833 0 -83.6495
-1359.59 3.36665 0 -22.2699
-905.113 5.29736 0 -55.312
-460.306 6.79547 0 -83.7131
-915.582 5.18987 0 -55.0502
-910.347 5.24368 0 -55.1801
-1351.75 3.41474 0 -22.4691
-1336.07 3.51089 0 -22.8768
-452.436 6.96544 0 -83.9103
-457.683 6.85237 0 -83.7778
-1343.91 3.46283 0 -22.6714
-894.646 5.4043 0 -55.5821
-455.059 6.90903 0 -83.8435
-905.113 5.29736 0 -55.312
-899.879 5.3509 0 -55.446
-1336.07 3.51089 0 -22.8768
-1320.39 3.60697 0 -23.2969
-447.19 7.07753 0 -84.0469
-452.436 6.96544 0 -83.9103
-1328.23 3.55894 0 -23.0853
-884.179 5.51069 0 -55.8605
-449.813 7.02161 0 -83.9781
-894.646 5.4043 0 -55.5821
-889.412 5.45757 0 -55.7203
-1320.39 3.60697 0 -23.2969
-1304.71 3.70297 0 -23.7292
-441.945 7.18866 0 -84.1876
-447.19 7.07753 0 -84.0469
-1312.55 3.65498 0 -23.5115
-873.713 5.61654 0 -56.147
-444.567 7.13322 0 -84.1167
-884.179 5.51069 0 -55.8605
-878.946 5.56368 0 -56.0027
-1304.71 3.70297 0 -23.7292
-1289.03 3.7989 0 -24.1736
-436.7 7.2988 0 -84.3324
-441.945 7.18866 0 -84.1876
-1296.87 3.75095 0 -23.9499
-863.249 5.72183 0 -56.4416
-439.322 7.24385 0 -84.2595
-873.713 5.61654 0 -56.147
-868.481 5.66925 0 -56.2933
-1289.03 3.7989 0 -24.1736
-1273.35 3.89476 0 -24.6299
-431.456 7.40797 0 -84.4811
-436.7 7.2988 0 -84.3324
-1281.19 3.84684 0 -24.4002
-852.785 5.82657 0 -56.7441
-434.078 7.35351 0 -84.4063
-863.249 5.72183 0 -56.4416
-858.016 5.77427 0 -56.5918
-1273.35 3.89476 0 -24.6299
-1257.68 3.99054 0 -25.098
-426.212 7.51617 0 -84.6339
-431.456 7.40797 0 -84.4811
-1265.51 3.94266 0 -24.8624
-842.322 5.93076 0 -57.0545
-428.834 7.4622 0 -84.557
-852.785 5.82657 0 -56.7441
-847.553 5.87874 0 -56.8983
-1257.68 3.99054 0 -25.098
-1242 4.08625 0 -25.5777
-420.969 7.62339 0 -84.7905
-426.212 7.51617 0 -84.6339
-1249.84 4.03841 0 -25.3364
-831.859 6.0344 0 -57.3727
-423.59 7.5699 0 -84.7117
-842.322 5.93076 0 -57.0545
-837.09 5.98265 0 -57.2127
-1242 4.08625 0 -25.5777
-1226.33 4.18186 0 -26.0689
-415.727 7.72964 0 -84.951
-420.969 7.62339 0 -84.7905
-1234.16 4.13407 0 -25.8219
-821.398 6.13747 0 -57.6986
-418.348 7.67664 0 -84.8703
-831.859 6.0344 0 -57.3727
-826.629 6.086 0 -57.5347
-1226.33 4.18186 0 -26.0689
-1210.65 4.2774 0 -26.5715
-410.485 7.8349 0 -85.1153
-415.727 7.72964 0 -84.951
-1218.49 4.22964 0 -26.3188
-810.938 6.23999 0 -58.032
-413.106 7.78239 0 -85.0327
-821.398 6.13747 0 -57.6986
-816.168 6.1888 0 -57.8644
-1210.65 4.2774 0 -26.5715
-1194.98 4.37284 0 -27.0852
-405.244 7.93919 0 -85.2834
-410.485 7.8349 0 -85.1153
-1202.82 4.32513 0 -26.8269
-800.478 6.34194 0 -58.373
-407.864 7.88717 0 -85.1989
-810.938 6.23999 0 -58.032
-805.708 6.29103 0 -58.2016
-1194.98 4.37284 0 -27.0852
-1179.31 4.46818 0 -27.61
-400.003 8.04249 0 -85.4551
-405.244 7.93919 0 -85.2834
-1187.14 4.42052 0 -27.3462
-790.02 6.44333 0 -58.7213
-402.623 7.99096 0 -85.3688
-800.478 6.34194 0 -58.373
-795.249 6.39271 0 -58.5462
-1179.31 4.46818 0 -27.61
-1163.64 4.56343 0 -28.1458
-394.763 8.14481 0 -85.6306
-400.003 8.04249 0 -85.4551
-1171.47 4.51582 0 -27.8765
-779.562 6.54415 0 -59.0769
-397.383 8.09377 0 -85.5424
-790.02 6.44333 0 -58.7213
-784.791 6.49381 0 -58.8982
-1163.64 4.56343 0 -28.1458
-1147.97 4.65857 0 -28.6923
-389.523 8.24615 0 -85.8096
-394.763 8.14481 0 -85.6306
-1155.8 4.61101 0 -28.4177
-769.105 6.6444 0 -59.4397
-392.143 8.1956 0 -85.7197
-779.562 6.54415 0 -59.0769
-774.333 6.59434 0 -59.2574
-1147.97 4.65857 0 -28.6923
-1132.3 4.7536 0 -29.2494
-384.284 8.3465 0 -85.9923
-389.523 8.24615 0 -85.8096
-1140.13 4.7061 0 -28.9695
-758.649 6.74407 0 -59.8096
-386.904 8.29645 0 -85.9005
-769.105 6.6444 0 -59.4397
-763.877 6.69431 0 -59.6237
-1132.3 4.7536 0 -29.2494
-1116.63 4.84852 0 -29.817
-379.046 8.44587 0 -86.1784
-384.284 8.3465 0 -85.9923
-1124.47 4.80108 0 -29.5319
-748.194 6.84317 0 -60.1865
-381.665 8.39631 0 -86.0849
-758.649 6.74407 0 -59.8096
-753.421 6.79369 0 -59.9971
-1116.63 4.84852 0 -29.817
-1100.97 4.94332 0 -30.3949
-373.808 8.54424 0 -86.3681
-379.046 8.44587 0 -86.1784
-1108.8 4.89593 0 -30.1047
-737.74 6.94168 0 -60.5703
-376.427 8.49518 0 -86.2728
-748.194 6.84317 0 -60.1865
-742.967 6.89249 0 -60.3775
-1100.97 4.94332 0 -30.3949
-1085.3 5.03798 0 -30.983
-368.571 8.64162 0 -86.5611
-373.808 8.54424 0 -86.3681
-1093.14 4.99067 0 -30.6877
-727.286 7.0396 0 -60.9609
-371.19 8.59306 0 -86.4642
-737.74 6.94168 0 -60.5703
-732.513 6.99071 0 -60.7647
-1085.3 5.03798 0 -30.983
-1069.64 5.13252 0 -31.5812
-363.335 8.73801 0 -86.7576
-368.571 8.64162 0 -86.5611
-1077.47 5.08527 0 -31.2808
-716.834 7.13694 0 -61.3582
-365.953 8.68994 0 -86.6589
-727.286 7.0396 0 -60.9609
-722.06 7.08834 0 -61.1587
-1069.64 5.13252 0 -31.5812
-1053.98 5.22691 0 -32.1892
-358.099 8.83341 0 -86.9574
-363.335 8.73801 0 -86.7576
-1061.81 5.17973 0 -31.884
-706.382 7.23367 0 -61.7621
-360.717 8.78584 0 -86.8571
-716.834 7.13694 0 -61.3582
-711.608 7.18538 0 -61.5593
-1053.98 5.22691 0 -32.1892
-1038.32 5.32116 0 -32.807
-352.863 8.9278 0 -87.1604
-358.099 8.83341 0 -86.9574
-1046.15 5.27405 0 -32.4969
-695.931 7.32981 0 -62.1726
-355.481 8.88073 0 -87.0585
-706.382 7.23367 0 -61.7621
-701.156 7.28182 0 -61.9665
-1038.32 5.32116 0 -32.807
-1022.65 5.41524 0 -33.4344
-347.628 9.0212 0 -87.3667
-352.863 8.9278 0 -87.1604
-1030.49 5.36822 0 -33.1195
-685.481 7.42535 0 -62.5894
-350.246 8.97463 0 -87.2632
-695.931 7.32981 0 -62.1726
-690.706 7.37765 0 -62.3802
-1022.65 5.41524 0 -33.4344
-1007 5.50917 0 -34.0713
-342.394 9.11359 0 -87.5762
-347.628 9.0212 0 -87.3667
-1014.82 5.46223 0 -33.7517
-675.032 7.52027 0 -63.0126
-345.011 9.06752 0 -87.4711
-685.481 7.42535 0 -62.5894
-680.256 7.47288 0 -62.8003
-1007 5.50917 0 -34.0713
-991.337 5.60292 0 -34.7175
-337.16 9.20498 0 -87.7888
-342.394 9.11359 0 -87.5762
-999.166 5.55607 0 -34.3932
-664.583 7.61457 0 -63.4421
-339.777 9.15941 0 -87.6821
-675.032 7.52027 0 -63.0126
-669.807 7.5675 0 -63.2266
-991.337 5.60292 0 -34.7175
-975.679 5.6965 0 -35.3729
-331.927 9.29535 0 -88.0045
-337.16 9.20498 0 -87.7888
-983.508 5.64973 0 -35.044
-654.136 7.70826 0 -63.8776
-334.543 9.25029 0 -87.8963
-664.583 7.61457 0 -63.4421
-659.359 7.66149 0 -63.6591
-975.679 5.6965 0 -35.3729
-960.022 5.78988 0 -36.0373
-326.694 9.38472 0 -88.2233
-331.927 9.29535 0 -88.0045
-967.851 5.74321 0 -35.7039
-643.689 7.80131 0 -64.3192
-329.31 9.34016 0 -88.1135
-654.136 7.70826 0 -63.8776
-648.912 7.75486 0 -64.0977
-960.022 5.78988 0 -36.0373
-944.367 5.88307 0 -36.7105
-321.462 9.47307 0 -88.4451
-326.694 9.38472 0 -88.2233
-952.194 5.8365 0 -36.3728
-633.243 7.89374 0 -64.7668
-324.078 9.42902 0 -88.3338
-643.689 7.80131 0 -64.3192
-638.466 7.84761 0 -64.5423
-944.367 5.88307 0 -36.7105
-928.712 5.97605 0 -37.3925
-316.23 9.56041 0 -88.6698
-321.462 9.47307 0 -88.4451
-936.539 5.92959 0 -37.0505
-622.797 7.98552 0 -65.2202
-318.846 9.51687 0 -88.557
-633.243 7.89374 0 -64.7668
-628.02 7.93971 0 -64.9928
-928.712 5.97605 0 -37.3925
-913.058 6.06882 0 -38.0832
-310.999 9.64672 0 -88.8974
-316.23 9.56041 0 -88.6698
-920.885 6.02246 0 -37.7368
-612.353 8.07666 0 -65.6793
-313.615 9.60369 0 -88.7832
-622.797 7.98552 0 -65.2202
-617.575 8.03118 0 -65.449
-913.058 6.06882 0 -38.0832
-897.405 6.16135 0 -38.7822
-305.769 9.73202 0 -89.1278
-310.999 9.64672 0 -88.8974
-905.232 6.11511 0 -38.4316
-601.909 8.16715 0 -66.1441
-308.384 9.6895 0 -89.0123
-612.353 8.07666 0 -65.6793
-607.131 8.12199 0 -65.911
-897.405 6.16135 0 -38.7822
-881.753 6.25366 0 -39.4896
-300.539 9.81628 0 -89.3611
-305.769 9.73202 0 -89.1278
-889.579 6.20754 0 -39.1349
-591.466 8.25698 0 -66.6144
-303.154 9.77428 0 -89.2441
-601.909 8.16715 0 -66.1441
-596.687 8.21215 0 -66.3786
-881.753 6.25366 0 -39.4896
-866.102 6.34571 0 -40.2051
-295.309 9.89952 0 -89.5971
-300.539 9.81628 0 -89.3611
-873.928 6.29972 0 -39.8463
-581.024 8.34614 0 -67.0902
-297.924 9.85803 0 -89.4788
-591.466 8.25698 0 -66.6144
-586.245 8.30165 0 -66.8517
-866.102 6.34571 0 -40.2051
-850.452 6.43751 0 -40.9286
-290.08 9.98172 0 -89.8359
-295.309 9.89952 0 -89.5971
-858.277 6.39165 0 -40.5659
-570.582 8.43464 0 -67.5714
-292.695 9.94075 0 -89.7162
-581.024 8.34614 0 -67.0902
-575.803 8.39047 0 -67.3302
-850.452 6.43751 0 -40.9286
-834.803 6.52905 0 -41.66
-284.852 10.0629 0 -90.0773
-290.08 9.98172 0 -89.8359
-842.627 6.48331 0 -41.2934
-560.142 8.52245 0 -68.0578
-287.466 10.0224 0 -89.9563
-570.582 8.43464 0 -67.5714
-565.362 8.47863 0 -67.814
-834.803 6.52905 0 -41.66
-819.154 6.6203 0 -42.3992
-279.624 10.143 0 -90.3213
-284.852 10.0629 0 -90.0773
-826.978 6.57471 0 -42.0286
-549.702 8.60957 0 -68.5495
-282.238 10.1031 0 -90.199
-560.142 8.52245 0 -68.0578
-554.922 8.5661 0 -68.303
-819.154 6.6203 0 -42.3992
-803.507 6.71127 0 -43.1459
-274.397 10.2221 0 -90.5679
-279.624 10.143 0 -90.3213
-811.33 6.66582 0 -42.7716
-539.262 8.696 0 -69.0461
-277.01 10.1827 0 -90.4443
-549.702 8.60957 0 -68.5495
-544.482 8.65287 0 -68.7972
-803.507 6.71127 0 -43.1459
-787.86 6.80193 0 -43.9
-269.17 10.3001 0 -90.817
-274.397 10.2221 0 -90.5679
-795.683 6.75664 0 -43.522
-528.824 8.78173 0 -69.5478
-271.783 10.2612 0 -90.6921
-539.262 8.696 0 -69.0461
-534.043 8.73896 0 -69.2963
-787.86 6.80193 0 -43.9
-772.214 6.89228 0 -44.6615
-263.943 10.3771 0 -91.0686
-269.17 10.3001 0 -90.817
-780.037 6.84715 0 -44.2799
-518.386 8.86675 0 -70.0543
-266.556 10.3387 0 -90.9425
-528.824 8.78173 0 -69.5478
-523.605 8.82433 0 -69.8005
-772.214 6.89228 0 -44.6615
-756.569 6.98231 0 -45.4301
-258.717 10.453 0 -91.3226
-263.943 10.3771 0 -91.0686
-764.392 6.93734 0 -45.0449
-507.949 8.95105 0 -70.5657
-261.33 10.4152 0 -91.1953
-518.386 8.86675 0 -70.0543
-513.167 8.90899 0 -70.3094
-756.569 6.98231 0 -45.4301
-740.925 7.072 0 -46.2057
-253.492 10.5279 0 -91.5789
-258.717 10.453 0 -91.3226
-748.747 7.02719 0 -45.817
-497.512 9.03463 0 -71.0817
-256.105 10.4906 0 -91.4505
-507.949 8.95105 0 -70.5657
-502.73 8.99293 0 -70.8231
-740.925 7.072 0 -46.2057
-725.281 7.16134 0 -46.9881
-248.267 10.6017 0 -91.8376
-253.492 10.5279 0 -91.5789
-733.103 7.11671 0 -46.596
-487.076 9.11747 0 -71.6023
-250.879 10.5649 0 -91.708
-497.512 9.03463 0 -71.0817
-492.294 9.07614 0 -71.3414
-725.281 7.16134 0 -46.9881
-709.639 7.25032 0 -47.7773
-243.043 10.6744 0 -92.0986
-248.267 10.6017 0 -91.8376
-717.46 7.20587 0 -47.3819
-476.641 9.19957 0 -72.1274
-245.655 10.6382 0 -91.9678
-487.076 9.11747 0 -71.6023
-481.858 9.15862 0 -71.8643
-709.639 7.25032 0 -47.7773
-693.997 7.33892 0 -48.573
-237.819 10.7461 0 -92.3618
-243.043 10.6744 0 -92.0986
-701.818 7.29467 0 -48.1743
-466.206 9.28092 0 -72.6569
-240.431 10.7104 0 -92.2299
-476.641 9.19957 0 -72.1274
-471.424 9.24034 0 -72.3916
-693.997 7.33892 0 -48.573
-678.355 7.42714 0 -49.3752
-232.595 10.8167 0 -92.6272
-237.819 10.7461 0 -92.3618
-686.176 7.38308 0 -48.9733
-455.772 9.36151 0 -73.1907
-235.207 10.7815 0 -92.4943
-466.206 9.28092 0 -72.6569
-460.989 9.32131 0 -72.9233
-678.355 7.42714 0 -49.3752
-662.715 7.51495 0 -50.1836
-227.372 10.8862 0 -92.8948
-232.595 10.8167 0 -92.6272
-670.535 7.47109 0 -49.7786
-445.339 9.44134 0 -73.7287
-229.984 10.8515 0 -92.7607
-455.772 9.36151 0 -73.1907
-450.556 9.40152 0 -73.4592
-662.715 7.51495 0 -50.1836
-647.075 7.60235 0 -50.9982
-222.149 10.9546 0 -93.1644
-227.372 10.8862 0 -92.8948
-654.895 7.55871 0 -50.5902
-434.907 9.52038 0 -74.2709
-224.761 10.9205 0 -93.0293
-445.339 9.44134 0 -73.7287
-440.123 9.48096 0 -73.9993
-647.075 7.60235 0 -50.9982
-631.436 7.68933 0 -51.8188
-216.927 11.0219 0 -93.436
-222.149 10.9546 0 -93.1644
-639.256 7.6459 0 -51.4078
-424.474 9.59864 0 -74.817
-219.538 10.9884 0 -93.3
-434.907 9.52038 0 -74.2709
-429.69 9.55961 0 -74.5434
-631.436 7.68933 0 -51.8188
-615.798 7.77586 0 -52.6452
-211.706 11.0881 0 -93.7097
-216.927 11.0219 0 -93.436
-623.617 7.73265 0 -52.2313
-414.043 9.67611 0 -75.3671
-214.316 11.0552 0 -93.5726
-424.474 9.59864 0 -74.817
-419.259 9.63747 0 -75.0916
-615.798 7.77586 0 -52.6452
-600.16 7.86194 0 -53.4773
-206.484 11.1533 0 -93.9853
-211.706 11.0881 0 -93.7097
-607.979 7.81896 0 -53.0606
-403.612 9.75277 0 -75.921
-209.095 11.1208 0 -93.8473
-414.043 9.67611 0 -75.3671
-408.827 9.71454 0 -75.6436
-600.16 7.86194 0 -53.4773
-584.523 7.94755 0 -54.315
-201.264 11.2173 0 -94.2628
-206.484 11.1533 0 -93.9853
-592.341 7.9048 0 -53.8955
-393.182 9.82861 0 -76.4786
-203.874 11.1854 0 -94.1238
-403.612 9.75277 0 -75.921
-398.397 9.79079 0 -76.1993
-584.523 7.94755 0 -54.315
-568.886 8.03267 0 -55.1581
-196.043 11.2802 0 -94.5421
-201.264 11.2173 0 -94.2628
-576.704 7.99017 0 -54.7359
-382.752 9.90363 0 -77.0398
-198.653 11.2489 0 -94.4022
-393.182 9.82861 0 -76.4786
-387.967 9.86623 0 -76.7588
-568.886 8.03267 0 -55.1581
-553.25 8.11729 0 -56.0065
-190.823 11.342 0 -94.8233
-196.043 11.2802 0 -94.5421
-561.068 8.07505 0 -55.5816
-372.323 9.97782 0 -77.6046
-193.433 11.3113 0 -94.6825
-382.752 9.90363 0 -77.0398
-377.537 9.94083 0 -77.3218
-553.25 8.11729 0 -56.0065
-537.615 8.2014 0 -56.86
-185.604 11.4027 0 -95.1062
-190.823 11.342 0 -94.8233
-545.433 8.15941 0 -56.4326
-361.894 10.0512 0 -78.1729
-188.213 11.3725 0 -94.9645
-372.323 9.97782 0 -77.6046
-367.108 10.0146 0 -77.8883
-537.615 8.2014 0 -56.86
-521.98 8.28498 0 -57.7184
-180.385 11.4623 0 -95.3908
-185.604 11.4027 0 -95.1062
-529.798 8.24326 0 -57.2886
-351.466 10.1236 0 -78.7444
-182.994 11.4326 0 -95.2483
-361.894 10.0512 0 -78.1729
-356.68 10.0875 0 -78.4582
-521.98 8.28498 0 -57.7184
-506.346 8.36801 0 -58.5817
-175.166 11.5207 0 -95.677
-180.385 11.4623 0 -95.3908
-514.163 8.32656 0 -58.1495
-341.039 10.1953 0 -79.3192
-177.775 11.4916 0 -95.5337
-351.466 10.1236 0 -78.7444
-346.252 10.1596 0 -79.0314
-506.346 8.36801 0 -58.5817
-490.712 8.45047 0 -59.4497
-169.948 11.578 0 -95.9649
-175.166 11.5207 0 -95.677
-498.529 8.40931 0 -59.0152
-330.611 10.266 0 -79.8972
-172.557 11.5495 0 -95.8208
-341.039 10.1953 0 -79.3192
-335.825 10.2307 0 -79.6078
-490.712 8.45047 0 -59.4497
-475.079 8.53234 0 -60.3222
-164.73 11.6341 0 -96.2543
-169.948 11.578 0 -95.9649
-482.896 8.49148 0 -59.8854
-320.185 10.3358 0 -80.4782
-167.339 11.6062 0 -96.1094
-330.611 10.266 0 -79.8972
-325.398 10.301 0 -80.1873
-475.079 8.53234 0 -60.3222
-459.447 8.61362 0 -61.1992
-159.512 11.689 0 -96.5453
-164.73 11.6341 0 -96.2543
-467.263 8.57306 0 -60.7602
-309.759 10.4047 0 -81.0622
-162.121 11.6617 0 -96.3996
-320.185 10.3358 0 -80.4782
-314.972 10.3704 0 -80.7698
-459.447 8.61362 0 -61.1992
-443.814 8.69426 0 -62.0803
-154.295 11.7428 0 -96.8377
-159.512 11.689 0 -96.5453
-451.63 8.65402 0 -61.6392
-299.333 10.4727 0 -81.649
-156.903 11.7161 0 -96.6913
-309.759 10.4047 0 -81.0622
-304.546 10.4388 0 -81.3552
-443.814 8.69426 0 -62.0803
-428.183 8.77426 0 -62.9656
-149.078 11.7954 0 -97.1315
-154.295 11.7428 0 -96.8377
-435.998 8.73434 0 -62.5224
-288.908 10.5398 0 -82.2385
-151.686 11.7693 0 -96.9844
-299.333 10.4727 0 -81.649
-294.12 10.5064 0 -81.9434
-428.183 8.77426 0 -62.9656
-412.551 8.8536 0 -63.8547
-143.862 11.8468 0 -97.4266
-149.078 11.7954 0 -97.1315
-420.367 8.81402 0 -63.4097
-278.483 10.6059 0 -82.8307
-146.47 11.8212 0 -97.2789
-288.908 10.5398 0 -82.2385
-283.695 10.5729 0 -82.5343
-412.551 8.8536 0 -63.8547
-396.92 8.93227 0 -64.7477
-138.645 11.897 0 -97.7231
-143.862 11.8468 0 -97.4266
-404.736 8.89302 0 -64.3007
-268.058 10.671 0 -83.4255
-141.253 11.872 0 -97.5747
-278.483 10.6059 0 -82.8307
-273.27 10.6385 0 -83.1278
-396.92 8.93227 0 -64.7477
-381.29 9.01026 0 -65.6443
-133.429 11.946 0 -98.0208
-138.645 11.897 0 -97.7231
-389.105 8.97135 0 -65.1955
-257.634 10.7351 0 -84.0226
-136.037 11.9216 0 -97.8718
-268.058 10.671 0 -83.4255
-262.846 10.7032 0 -83.7237
-381.29 9.01026 0 -65.6443
-365.66 9.08758 0 -66.5444
-128.214 11.9938 0 -98.3197
-133.429 11.946 0 -98.0208
-373.475 9.049 0 -66.0939
-247.21 10.7984 0 -84.6221
-130.821 11.9701 0 -98.1701
-257.634 10.7351 0 -84.0226
-252.422 10.7669 0 -84.3221
-365.66 9.08758 0 -66.5444
-350.03 9.16429 0 -67.4478
-122.998 12.0406 0 -98.6197
-128.214 11.9938 0 -98.3197
-357.845 9.12601 0 -66.9957
-236.787 10.8607 0 -85.2239
-125.606 12.0173 0 -98.4695
-247.21 10.7984 0 -84.6221
-241.999 10.8297 0 -84.9227
-350.03 9.16429 0 -67.4478
-334.4 9.24045 0 -68.3545
-117.783 12.0864 0 -98.9207
-122.998 12.0406 0 -98.6197
-342.215 9.20243 0 -67.9007
-226.364 10.9223 0 -85.8277
-120.39 12.0636 0 -98.7701
-236.787 10.8607 0 -85.2239
-231.575 10.8916 0 -85.5255
-334.4 9.24045 0 -68.3545
-318.771 9.31619 0 -69.2643
-112.568 12.1313 0 -99.2228
-117.783 12.0864 0 -98.9207
-326.586 9.27836 0 -68.809
-215.941 10.9833 0 -86.4337
-115.175 12.1089 0 -99.0716
-226.364 10.9223 0 -85.8277
-221.152 10.9529 0 -86.1304
-318.771 9.31619 0 -69.2643
-303.143 9.39166 0 -70.1772
-107.353 12.1757 0 -99.5258
-112.568 12.1313 0 -99.2228
-310.957 9.35394 0 -69.7203
-205.519 11.0438 0 -87.0416
-109.961 12.1536 0 -99.3742
-215.941 10.9833 0 -86.4337
-210.73 11.0136 0 -86.7374
-303.143 9.39166 0 -70.1772
-287.515 9.46699 0 -71.0932
-102.139 12.2199 0 -99.8297
-107.353 12.1757 0 -99.5258
-295.329 9.42934 0 -70.6348
-195.097 11.1041 0 -87.6517
-104.746 12.1978 0 -99.6776
-205.519 11.0438 0 -87.0416
-200.308 11.074 0 -87.3464
-287.515 9.46699 0 -71.0932
-271.887 9.54223 0 -72.0125
-96.9263 12.2642 0 -100.135
-102.139 12.2199 0 -99.8297
-279.701 9.50463 0 -71.5525
-184.676 11.1644 0 -88.264
-99.5326 12.242 0 -99.9822
-195.097 11.1041 0 -87.6517
-189.887 11.1343 0 -87.9575
-271.887 9.54223 0 -72.0125
-256.261 9.61682 0 -72.9353
-91.7143 12.3092 0 -100.442
-96.9263 12.2642 0 -100.135
-264.074 9.57968 0 -72.4735
-174.257 11.2244 0 -88.8793
-94.3202 12.2866 0 -100.288
-184.676 11.1644 0 -88.264
-179.466 11.1945 0 -88.5712
-256.261 9.61682 0 -72.9353
-240.634 9.68938 0 -73.8621
-86.504 12.3546 0 -100.753
-91.7143 12.3092 0 -100.442
-248.448 9.65352 0 -73.3982
-163.837 11.2829 0 -89.4987
-89.1088 12.3319 0 -100.597
-174.257 11.2244 0 -88.8793
-169.047 11.2539 0 -89.1883
-240.634 9.68938 0 -73.8621
-225.005 9.75566 0 -74.7934
-81.2942 12.4001 0 -101.073
-86.504 12.3546 0 -100.753
-232.82 9.72377 0 -74.3272
-153.416 11.3369 0 -90.1253
-83.8993 12.3774 0 -100.912
-163.837 11.2829 0 -89.4987
-158.627 11.3108 0 -89.8109
-225.005 9.75566 0 -74.7934
-209.366 9.80804 0 -75.7307
-76.0851 12.4425 0 -101.409
-81.2942 12.4001 0 -101.073
-217.188 9.78437 0 -75.2611
-142.989 11.3794 0 -90.7645
-78.6892 12.422 0 -101.238
-153.416 11.3369 0 -90.1253
-148.204 11.3602 0 -90.4426
-209.366 9.80804 0 -75.7307
-193.707 9.82823 0 -76.6752
-70.8674 12.4781 0 -101.78
-76.0851 12.4425 0 -101.409
-201.539 9.82391 0 -76.2021
-132.543 11.3972 0 -91.4275
-73.4787 12.4616 0 -101.588
-142.989 11.3794 0 -90.7645
-137.769 11.3929 0 -91.0924
-193.707 9.82823 0 -76.6752
-177.991 9.79013 0 -77.6321
-65.6385 12.4925 0 -102.215
-70.8674 12.4781 0 -101.78
-185.86 9.81902 0 -77.1513
-122.053 11.3646 0 -92.1344
-68.2533 12.4892 0 -101.987
-132.543 11.3972 0 -91.4275
-127.305 11.389 0 -91.773
-177.991 9.79013 0 -77.6321
-162.177 9.63547 0 -78.6039
-60.3575 12.4763 0 -102.773
-65.6385 12.4925 0 -102.215
-170.097 9.73216 0 -78.1166
-111.469 11.2444 0 -92.9218
-63.0102 12.4895 0 -102.474
-122.053 11.3646 0 -92.1344
-116.776 11.3201 0 -92.5165
-162.177 9.63547 0 -78.6039
-146.128 9.30631 0 -79.6133
-55.0165 12.3866 0 -103.541
-60.3575 12.4763 0 -102.773
-154.198 9.49836 0 -79.1008
-100.704 10.9729 0 -93.8509
-57.6902 12.443 0 -103.124
-111.469 11.2444 0 -92.9218
-106.117 11.1295 0 -93.3604
-146.128 9.30631 0 -79.6133
-129.732 8.66953 0 -80.6709
-49.4791 12.232 0 -104.662
-55.0165 12.3866 0 -103.541
-137.973 9.03348 0 -80.1377
-89.6114 10.4987 0 -95.0189
-52.2923 12.3183 0 -104.045
-100.704 10.9729 0 -93.8509
-95.2082 10.7704 0 -94.4037
-129.732 8.66953 0 -80.6709
-112.579 7.71975 0 -81.8768
-43.7697 11.9362 0 -106.295
-49.4791 12.232 0 -104.662
-121.3 8.23617 0 -81.2416
-77.9668 9.76403 0 -96.5686
-46.6261 12.0992 0 -105.406
-89.6114 10.4987 0 -95.0189
-83.879 10.1496 0 -95.7222
-112.579 7.71975 0 -81.8768
-94.5288 6.35119 0 -83.2889
-37.5499 11.7239 0 -108.615
-43.7697 11.9362 0 -106.295
-103.643 7.0688 0 -82.5605
-65.5227 8.95933 0 -98.6624
-40.7817 11.8071 0 -107.355
-77.9668 9.76403 0 -96.5686
-71.8535 9.37059 0 -97.5615
-94.5288 6.35119 0 -83.2889
-74.7352 5.35614 0 -85.3074
-31.1824 11.6442 0 -111.497
-37.5499 11.7239 0 -108.615
-84.9726 5.74906 0 -84.1701
-52.0453 8.54107 0 -101.427
-34.297 11.6214 0 -110.017
-65.5227 8.95933 0 -98.6624
-58.9486 8.582 0 -99.9083
-74.7352 5.35614 0 -85.3074
-53.9506 5.70865 0 -88.082
-24.1724 13.0229 0 -114.267
-31.1824 11.6442 0 -111.497
-64.2934 5.14416 0 -86.6149
-37.9318 10.2786 0 -104.593
-27.8947 12.0784 0 -112.958
-52.0453 8.54107 0 -101.427
-44.9829 9.06145 0 -103.088
-53.9506 5.70865 0 -88.082
-32.0892 12.6607 0 -92.2149
-18.2367 16.4142 0 -114.473
-24.1724 13.0229 0 -114.267
-43.3262 7.97559 0 -89.9084
-24.3564 16.7466 0 -106.728
-20.7659 14.3202 0 -114.952
-37.9318 10.2786 0 -104.593
-31.0612 12.4957 0 -105.788
-32.0892 12.6607 0 -92.2149
-15.6718 32.8247 0 -94.2679
-11.9978 24.5638 0 -107.774
-18.2367 16.4142 0 -114.473
-22.386 20.0575 0 -93.9847
-14.8475 32.1642 0 -102.748
-15.5318 20.0501 0 -112.298
-24.3564 16.7466 0 -106.728
-18.6026 23.5426 0 -106.304
-15.6718 32.8247 0 -94.2679
-5.09978 81.3026 0 -83.8145
-8.74577 31.7977 0 -87.2957
-11.9978 24.5638 0 -107.774
-10.0924 53.954 0 -91.7721
-7.95956 55.3176 0 -83.8441
-9.3031 28.51 0 -99.7552
-14.8475 32.1642 0 -102.748
-11.7556 42.5865 0 -95.2598
-5.09978 81.3026 0 -83.8145
0.983629 132.43 0 -39.0786
-6.39491 40.2775 0 -48.6588
-8.74577 31.7977 0 -87.2957
-0.862711 110.292 0 -66.7969
-1.22721 83.0821 0 -46.7588
-8.36413 35.5806 0 -70.3277
-7.95956 55.3176 0 -83.8441
-4.04946 69.7873 0 -68.0164
-1011.86 -303.421 0 400.76
-987.157 -172.614 0 133.277
962.048 159.223 0 131.646
985.228 295.717 0 399.244
-970.156 -239.03 0 252.898
-13.3358 -6.84749 0 150.175
944.404 227.998 0 251.618
-14.235 -3.83709 0 408.307
-13.6362 -5.74156 0 282.453
-987.157 -172.614 0 133.277
-1039.39 -107.971 0 -26.3387
1015.04 91.8074 0 -29.2052
962.048 159.223 0 131.646
-1027.57 -136.676 0 39.3669
-13.0343 -8.23727 0 -19.3592
1002.92 121.654 0 37.1158
-13.3358 -6.84749 0 150.175
-13.2015 -7.63329 0 45.795
-1039.39 -107.971 0 -26.3387
-1042.77 -49.033 0 -98.2654
1018.86 31.2883 0 -102.477
1015.04 91.8074 0 -29.2052
-1037.41 -75.4177 0 -69.7784
-12.856 -9.13489 0 -97.9317
1013.27 58.3883 0 -73.3019
-13.0343 -8.23727 0 -19.3592
-12.9074 -8.73114 0 -64.0129
-1042.77 -49.033 0 -98.2654
-1045.55 -21.7806 0 -123.511
1022.03 2.75824 0 -128.982
1018.86 31.2883 0 -102.477
-1048.72 -33.0245 0 -115.278
-12.7102 -9.74416 0 -128.29
1025 14.6157 0 -120.143
-12.856 -9.13489 0 -97.9317
-12.8073 -9.46295 0 -118.79
-1045.55 -21.7806 0 -123.511
-1034.33 -7.77323 0 -125.684
1011.17 -12.2666 0 -132.277
1022.03 2.75824 0 -128.982
-1038.58 -12.8603 0 -126.031
-12.5382 -10.2352 0 -133.472
1015.26 -6.70949 0 -132.076
-12.7102 -9.74416 0 -128.29
-12.6125 -10.0059 0 -132.156
-1034.33 -7.77323 0 -125.684
-1024.93 -5.39157 0 -120.573
1002.01 -15.345 0 -128.191
1011.17 -12.2666 0 -132.277
-1030.64 -5.98448 0 -123.593
-12.4008 -10.5635 0 -128.983
1007.62 -14.4463 0 -130.705
-12.5382 -10.2352 0 -133.472
-12.4694 -10.4197 0 -132.107
-1024.93 -5.39157 0 -120.573
-1013.95 -5.42026 0 -114.137
991.153 -15.6672 0 -122.765
1002.01 -15.345 0 -128.191
-1018.72 -5.0771 0 -117.232
-12.3153 -10.7432 0 -122.625
995.879 -15.8772 0 -125.353
-12.4008 -10.5635 0 -128.983
-12.3476 -10.6727 0 -125.592
-1013.95 -5.42026 0 -114.137
-1005.52 -6.9742 0 -108.92
982.76 -14.1638 0 -118.571
991.153 -15.6672 0 -122.765
-1009.84 -6.21969 0 -111.354
-12.281 -10.7717 0 -117.253
987.066 -14.9263 0 -120.491
-12.3153 -10.7432 0 -122.625
-12.2945 -10.7743 0 -119.82
-1005.52 -6.9742 0 -108.92
-997.778 -8.08005 0 -105.143
974.985 -12.8787 0 -115.84
982.76 -14.1638 0 -118.571
-1001.36 -7.54439 0 -106.842
-12.2807 -10.6876 0 -113.515
978.586 -13.5285 0 -117.013
-12.281 -10.7717 0 -117.253
-12.2769 -10.7419 0 -115.14
-997.778 -8.08005 0 -105.143
-991.3 -8.92798 0 -102.616
968.455 -11.6931 0 -114.372
974.985 -12.8787 0 -115.84
-994.519 -8.57129 0 -103.754
-12.297 -10.52 0 -111.16
971.701 -12.2344 0 -114.979
-12.2807 -10.6876 0 -113.515
-12.2882 -10.6122 0 -112.208
-991.3 -8.92798 0 -102.616
-985.264 -9.31893 0 -100.925
962.367 -10.8656 0 -113.742
968.455 -11.6931 0 -114.372
-988.188 -9.15812 0 -101.684
-12.3167 -10.3011 0 -109.792
965.315 -11.2541 0 -113.971
-12.297 -10.52 0 -111.16
-12.3069 -10.4155 0 -110.368
-985.264 -9.31893 0 -100.925
-979.666 -9.46752 0 -99.7692
956.729 -10.2251 0 -113.642
962.367 -10.8656 0 -113.742
-982.453 -9.42536 0 -100.297
-12.3315 -10.0519 0 -109.038
959.533 -10.518 0 -113.644
-12.3167 -10.3011 0 -109.792
-12.3252 -10.1791 0 -109.361
-979.666 -9.46752 0 -99.7692
-974.219 -9.42209 0 -98.9233
951.262 -9.7529 0 -113.837
956.729 -10.2251 0 -113.642
-976.918 -9.45991 0 -99.317
-12.3375 -9.78872 0 -108.648
953.968 -9.97582 0 -113.712
-12.3315 -10.0519 0 -109.038
-12.3357 -9.92138 0 -108.808
-974.219 -9.42209 0 -98.9233
-968.889 -9.28254 0 -98.2537
945.93 -9.36723 0 -114.192
951.262 -9.7529 0 -113.837
-971.551 -9.3627 0 -98.5729
-12.3335 -9.52087 0 -108.455
948.59 -9.54985 0 -114.001
-12.3375 -9.78872 0 -108.648
-12.3368 -9.65495 0 -108.535
-968.889 -9.28254 0 -98.2537
-963.592 -9.08517 0 -97.6792
940.651 -9.04207 0 -114.621
945.93 -9.36723 0 -114.192
-966.235 -9.18807 0 -97.9579
-12.3204 -9.25409 0 -108.366
943.283 -9.1997 0 -114.4
-12.3335 -9.52087 0 -108.455
-12.328 -9.38713 0 -108.401
-963.592 -9.08517 0 -97.6792
-958.316 -8.86424 0 -97.1569
935.407 -8.74822 0 -115.082
940.651 -9.04207 0 -114.621
-960.954 -8.97697 0 -97.4134
-12.2994 -8.99106 0 -108.328
938.027 -8.89175 0 -114.85
-12.3204 -9.25409 0 -108.366
-12.3108 -9.12201 0 -108.343
-958.316 -8.86424 0 -97.1569
-953.043 -8.63273 0 -96.6635
930.177 -8.4745 0 -115.552
935.407 -8.74822 0 -115.082
-955.679 -8.74899 0 -96.9075
-12.2724 -8.7329 0 -108.313
932.79 -8.60962 0 -115.317
-12.2994 -8.99106 0 -108.328
-12.2866 -8.86135 0 -108.319
-953.043 -8.63273 0 -96.6635
-947.77 -8.39976 0 -96.1878
924.956 -8.21186 0 -116.019
930.177 -8.4745 0 -115.552
-950.407 -8.51625 0 -96.4239
-12.2409 -8.47965 0 -108.307
927.566 -8.34201 0 -115.786
-12.2724 -8.7329 0 -108.313
-12.2571 -8.60568 0 -108.309
-947.77 -8.39976 0 -96.1878
-942.495 -8.16831 0 -95.7245
919.739 -7.9565 0 -116.479
924.956 -8.21186 0 -116.019
-945.133 -8.28368 0 -95.9548
-12.2062 -8.23096 0 -108.305
922.347 -8.0835 0 -116.25
-12.2409 -8.47965 0 -108.307
-12.2239 -8.35477 0 -108.306
-942.495 -8.16831 0 -95.7245
-937.217 -7.93994 0 -95.2712
914.523 -7.70573 0 -116.93
919.739 -7.9565 0 -116.479
-939.856 -8.05374 0 -95.4967
-12.1695 -7.98622 0 -108.304
917.131 -7.83062 0 -116.706
-12.2062 -8.23096 0 -108.305
-12.1881 -8.10813 0 -108.305
-937.217 -7.93994 0 -95.2712
-931.938 -7.71478 0 -94.8269
909.307 -7.45826 0 -117.372
914.523 -7.70573 0 -116.93
-934.578 -7.82696 0 -95.048
-12.1315 -7.74486 0 -108.303
911.915 -7.58165 0 -117.152
-12.1695 -7.98622 0 -108.304
-12.1506 -7.86516 0 -108.303
-931.938 -7.71478 0 -94.8269
-926.658 -7.49267 0 -94.3911
904.092 -7.21323 0 -117.805
909.307 -7.45826 0 -117.372
-929.298 -7.60337 0 -94.6079
-12.0928 -7.50635 0 -108.301
906.7 -7.33547 0 -117.59
-12.1315 -7.74486 0 -108.303
-12.1122 -7.62528 0 -108.302
-926.658 -7.49267 0 -94.3911
-921.376 -7.27326 0 -93.9637
898.876 -6.97017 0 -118.228
904.092 -7.21323 0 -117.805
-924.017 -7.38265 0 -94.1764
-12.0538 -7.27024 0 -108.299
901.484 -7.09148 0 -118.017
-12.0928 -7.50635 0 -108.301
-12.0733 -7.38802 0 -108.3
-921.376 -7.27326 0 -93.9637
-916.095 -7.05624 0 -93.5447
893.66 -6.72874 0 -118.642
898.876 -6.97017 0 -118.228
-918.735 -7.16447 0 -93.7532
-12.0147 -7.03621 0 -108.296
896.268 -6.84927 0 -118.436
-12.0538 -7.27024 0 -108.299
-12.0342 -7.15298 0 -108.297
-916.095 -7.05624 0 -93.5447
-910.813 -6.84132 0 -93.134
888.444 -6.48874 0 -119.048
893.66 -6.72874 0 -118.642
-913.454 -6.94853 0 -93.3383
-11.9757 -6.804 0 -108.293
891.052 -6.60857 0 -118.846
-12.0147 -7.03621 0 -108.296
-11.9952 -6.91989 0 -108.295
-910.813 -6.84132 0 -93.134
-905.53 -6.62832 0 -92.7315
883.227 -6.25003 0 -119.445
888.444 -6.48874 0 -119.048
-908.171 -6.73459 0 -92.9317
-11.9369 -6.57343 0 -108.29
885.836 -6.36923 0 -119.247
-11.9757 -6.804 0 -108.293
-11.9563 -6.68852 0 -108.292
-905.53 -6.62832 0 -92.7315
-900.248 -6.41708 0 -92.3373
878.01 -6.01253 0 -119.833
883.227 -6.25003 0 -119.445
-902.889 -6.52249 0 -92.5334
-11.8983 -6.34439 0 -108.287
880.619 -6.13113 0 -119.64
-11.9369 -6.57343 0 -108.29
-11.9176 -6.45873 0 -108.289
-900.248 -6.41708 0 -92.3373
-894.966 -6.2075 0 -91.9512
872.792 -5.77618 0 -120.213
878.01 -6.01253 0 -119.833
-897.607 -6.31209 0 -92.1432
-11.86 -6.11679 0 -108.284
875.401 -5.89421 0 -120.024
-11.8983 -6.34439 0 -108.287
-11.8791 -6.23042 0 -108.285
-894.966 -6.2075 0 -91.9512
-889.684 -5.99951 0 -91.5733
867.574 -5.54097 0 -120.585
872.792 -5.77618 0 -120.213
-892.325 -6.10331 0 -91.7613
-11.8219 -5.89059 0 -108.28
870.183 -5.65844 0 -120.4
-11.86 -6.11679 0 -108.284
-11.8409 -6.00352 0 -108.282
-889.684 -5.99951 0 -91.5733
-884.402 -5.79307 0 -91.2035
862.356 -5.30689 0 -120.949
867.574 -5.54097 0 -120.585
-887.043 -5.8961 0 -91.3874
-11.7841 -5.66574 0 -108.277
864.965 -5.42379 0 -120.768
-11.8219 -5.89059 0 -108.28
-11.803 -5.778 0 -108.279
-884.402 -5.79307 0 -91.2035
-879.12 -5.58814 0 -90.8417
857.137 -5.07392 0 -121.304
862.356 -5.30689 0 -120.949
-881.761 -5.69041 0 -91.0216
-11.7466 -5.44225 0 -108.274
859.746 -5.19026 0 -121.127
-11.7841 -5.66574 0 -108.277
-11.7653 -5.55383 0 -108.275
-879.12 -5.58814 0 -90.8417
-873.838 -5.38469 0 -90.4879
851.918 -4.8421 0 -121.651
857.137 -5.07392 0 -121.304
-876.479 -5.48623 0 -90.6638
-11.7093 -5.22009 0 -108.27
854.527 -4.95787 0 -121.478
-11.7466 -5.44225 0 -108.274
-11.7279 -5.331 0 -108.272
-873.838 -5.38469 0 -90.4879
-868.556 -5.18271 0 -90.142
846.698 -4.61141 0 -121.99
851.918 -4.8421 0 -121.651
-871.197 -5.28352 0 -90.314
-11.6722 -4.99926 0 -108.266
849.308 -4.72661 0 -121.821
-11.7093 -5.22009 0 -108.27
-11.6907 -5.10951 0 -108.268
-868.556 -5.18271 0 -90.142
-863.274 -4.98219 0 -89.8041
841.479 -4.38189 0 -122.321
846.698 -4.61141 0 -121.99
-865.915 -5.08227 0 -89.9721
-11.6354 -4.77977 0 -108.262
844.088 -4.49651 0 -122.156
-11.6722 -4.99926 0 -108.266
-11.6538 -4.88935 0 -108.264
-863.274 -4.98219 0 -89.8041
-857.992 -4.78311 0 -89.474
836.258 -4.15355 0 -122.644
841.479 -4.38189 0 -122.321
-860.633 -4.88247 0 -89.6381
-11.5988 -4.56162 0 -108.259
838.869 -4.26757 0 -122.483
-11.6354 -4.77977 0 -108.262
-11.617 -4.67053 0 -108.261
-857.992 -4.78311 0 -89.474
-852.711 -4.58546 0 -89.1517
831.038 -3.92639 0 -122.959
836.258 -4.15355 0 -122.644
-855.352 -4.68411 0 -89.3119
-11.5624 -4.3448 0 -108.255
833.648 -4.03982 0 -122.802
-11.5988 -4.56162 0 -108.259
-11.5805 -4.45304 0 -108.257
-852.711 -4.58546 0 -89.1517
-847.43 -4.38922 0 -88.8372
825.818 -3.70045 0 -123.265
831.038 -3.92639 0 -122.959
-850.07 -4.48716 0 -88.9935
-11.5262 -4.12933 0 -108.251
828.428 -3.81327 0 -123.113
-11.5624 -4.3448 0 -108.255
-11.5443 -4.2369 0 -108.253
-847.43 -4.38922 0 -88.8372
-842.148 -4.19439 0 -88.5304
820.597 -3.47573 0 -123.565
825.818 -3.70045 0 -123.265
-844.789 -4.29163 0 -88.6828
-11.4903 -3.91519 0 -108.247
823.207 -3.58794 0 -123.416
-11.5262 -4.12933 0 -108.251
-11.5082 -4.02209 0 -108.249
-842.148 -4.19439 0 -88.5304
-836.867 -4.00096 0 -88.2313
815.376 -3.25225 0 -123.856
820.597 -3.47573 0 -123.565
-839.508 -4.0975 0 -88.3799
-11.4546 -3.7024 0 -108.242
817.986 -3.36383 0 -123.711
-11.4903 -3.91519 0 -108.247
-11.4724 -3.80863 0 -108.245
-836.867 -4.00096 0 -88.2313
-831.586 -3.8089 0 -87.9398
810.155 -3.03002 0 -124.139
815.376 -3.25225 0 -123.856
-834.227 -3.90476 0 -88.0846
-11.4191 -3.49096 0 -108.238
812.765 -3.14098 0 -123.999
-11.4546 -3.7024 0 -108.242
-11.4368 -3.59651 0 -108.24
-831.586 -3.8089 0 -87.9398
-826.306 -3.61822 0 -87.6558
804.933 -2.80905 0 -124.415
810.155 -3.03002 0 -124.139
-828.946 -3.71339 0 -87.7969
-11.3838 -3.28086 0 -108.234
807.544 -2.91938 0 -124.278
-11.4191 -3.49096 0 -108.238
-11.4014 -3.38574 0 -108.236
-826.306 -3.61822 0 -87.6558
-821.025 -3.42889 0 -87.3795
799.712 -2.58937 0 -124.683
804.933 -2.80905 0 -124.415
-823.665 -3.52338 0 -87.5167
-11.3487 -3.0721 0 -108.23
802.323 -2.69905 0 -124.55
-11.3838 -3.28086 0 -108.234
-11.3662 -3.17631 0 -108.232
-821.025 -3.42889 0 -87.3795
-815.745 -3.24091 0 -87.1105
794.49 -2.37098 0 -124.944
799.712 -2.58937 0 -124.683
-818.385 -3.33473 0 -87.2441
-11.3139 -2.86469 0 -108.225
797.101 -2.48001 0 -124.814
-11.3487 -3.0721 0 -108.23
-11.3313 -2.96823 0 -108.227
-815.745 -3.24091 0 -87.1105
-810.465 -3.05426 0 -86.8491
789.269 -2.15389 0 -125.197
794.49 -2.37098 0 -124.944
-813.105 -3.14742 0 -86.9789
-11.2793 -2.65863 0 -108.221
791.879 -2.26227 0 -125.071
-11.3139 -2.86469 0 -108.225
-11.2966 -2.76149 0 -108.223
-810.465 -3.05426 0 -86.8491
-805.185 -2.86893 0 -86.595
784.047 -1.93812 0 -125.442
789.269 -2.15389 0 -125.197
-807.825 -2.96143 0 -86.7211
-11.2449 -2.45392 0 -108.216
786.658 -2.04584 0 -125.32
-11.2793 -2.65863 0 -108.221
-11.262 -2.5561 0 -108.218
-805.185 -2.86893 0 -86.595
-799.905 -2.68492 0 -86.3482
778.825 -1.72368 0 -125.68
784.047 -1.93812 0 -125.442
-802.545 -2.77676 0 -86.4707
-11.2107 -2.25055 0 -108.212
781.436 -1.83073 0 -125.562
-11.2449 -2.45392 0 -108.216
-11.2278 -2.35206 0 -108.214
-799.905 -2.68492 0 -86.3482
-794.626 -2.5022 0 -86.1088
773.602 -1.51058 0 -125.911
778.825 -1.72368 0 -125.68
-797.266 -2.5934 0 -86.2276
-11.1767 -2.04853 0 -108.207
776.214 -1.61696 0 -125.796
-11.2107 -2.25055 0 -108.212
-11.1937 -2.14937 0 -108.209
-794.626 -2.5022 0 -86.1088
-789.347 -2.32077 0 -85.8766
768.38 -1.29883 0 -126.134
773.602 -1.51058 0 -125.911
-791.986 -2.41132 0 -85.9918
-11.143 -1.84785 0 -108.202
770.991 -1.40453 0 -126.023
-11.1767 -2.04853 0 -108.207
-11.1598 -1.94802 0 -108.205
-789.347 -2.32077 0 -85.8766
-784.068 -2.14062 0 -85.6516
763.158 -1.08844 0 -126.35
768.38 -1.29883 0 -126.134
-786.707 -2.23054 0 -85.7632
-11.1094 -1.64853 0 -108.197
765.769 -1.19346 0 -126.243
-11.143 -1.84785 0 -108.202
-11.1262 -1.74802 0 -108.2
-784.068 -2.14062 0 -85.6516
-778.79 -1.96173 0 -85.4337
757.936 -0.879425 0 -126.558
763.158 -1.08844 0 -126.35
-781.429 -2.05102 0 -85.5417
-11.0761 -1.45055 0 -108.193
760.547 -0.98376 0 -126.455
-11.1094 -1.64853 0 -108.197
-11.0927 -1.54937 0 -108.195
-778.79 -1.96173 0 -85.4337
-773.511 -1.78411 0 -85.223
752.713 -0.671794 0 -126.759
757.936 -0.879425 0 -126.558
-776.151 -1.87276 0 -85.3275
-11.043 -1.25392 0 -108.188
755.324 -0.775436 0 -126.66
-11.0761 -1.45055 0 -108.193
-11.0595 -1.35206 0 -108.19
-773.511 -1.78411 0 -85.223
-768.234 -1.60772 0 -85.0193
747.491 -0.465558 0 -126.954
752.713 -0.671794 0 -126.759
-770.873 -1.69576 0 -85.1202
-11.0101 -1.05863 0 -108.183
750.102 -0.568501 0 -126.857
-11.043 -1.25392 0 -108.188
-11.0265 -1.15611 0 -108.185
-768.234 -1.60772 0 -85.0193
-762.956 -1.43258 0 -84.8226
742.268 -0.260725 0 -127.141
747.491 -0.465558 0 -126.954
-765.595 -1.52 0 -84.9201
-10.9775 -0.864695 0 -108.178
744.879 -0.362965 0 -127.048
-11.0101 -1.05863 0 -108.183
-10.9938 -0.961495 0 -108.18
-762.956 -1.43258 0 -84.8226
-757.679 -1.25865 0 -84.6329
737.046 -0.0573074 0 -127.321
742.268 -0.260725 0 -127.141
-760.318 -1.34546 0 -84.7269
-10.945 -0.672105 0 -108.173
739.657 -0.158839 0 -127.232
-10.9775 -0.864695 0 -108.178
-10.9612 -0.768232 0 -108.175
-757.679 -1.25865 0 -84.6329
-752.402 -1.08595 0 -84.4501
731.823 0.144687 0 -127.494
737.046 -0.0573074 0 -127.321
-755.041 -1.17215 0 -84.5406
-10.9128 -0.480863 0 -108.168
734.434 0.0438683 0 -127.408
-10.945 -0.672105 0 -108.173
-10.9289 -0.576316 0 -108.17
-752.402 -1.08595 0 -84.4501
-747.126 -0.914451 0 -84.2741
726.601 0.345248 0 -127.66
731.823 0.144687 0 -127.494
-749.764 -1.00005 0 -84.3612
-10.8808 -0.290969 0 -108.163
729.212 0.245147 0 -127.578
-10.9128 -0.480863 0 -108.168
-10.8968 -0.385748 0 -108.165
-747.126 -0.914451 0 -84.2741
-741.85 -0.74415 0 -84.105
721.378 0.544366 0 -127.819
726.601 0.345248 0 -127.66
-744.488 -0.829151 0 -84.1887
-10.849 -0.102422 0 -108.158
723.989 0.444988 0 -127.74
-10.8808 -0.290969 0 -108.163
-10.8649 -0.196527 0 -108.16
-741.85 -0.74415 0 -84.105
-736.574 -0.575038 0 -83.9427
716.156 0.742033 0 -127.972
721.378 0.544366 0 -127.819
-739.212 -0.659446 0 -84.023
-10.8175 0.0847776 0 -108.153
718.767 0.643382 0 -127.896
-10.849 -0.102422 0 -108.158
-10.8332 -0.00865373 0 -108.155
-736.574 -0.575038 0 -83.9427
-731.299 -0.407106 0 -83.787
710.933 0.93824 0 -128.117
716.156 0.742033 0 -127.972
-733.936 -0.490925 0 -83.864
-10.7861 0.27063 0 -108.147
713.544 0.84032 0 -128.045
-10.8175 0.0847776 0 -108.153
-10.8018 0.177872 0 -108.15
-731.299 -0.407106 0 -83.787
-726.024 -0.240345 0 -83.6381
705.711 1.13298 0 -128.256
710.933 0.93824 0 -128.117
-728.661 -0.323579 0 -83.7117
-10.755 0.455135 0 -108.142
708.322 1.03579 0 -128.187
-10.7861 0.27063 0 -108.147
-10.7705 0.363051 0 -108.145
-726.024 -0.240345 0 -83.6381
-720.749 -0.0747466 0 -83.4958
700.488 1.32624 0 -128.388
705.711 1.13298 0 -128.256
-723.386 -0.157401 0 -83.5661
-10.7241 0.638292 0 -108.137
703.099 1.22979 0 -128.323
-10.755 0.455135 0 -108.142
-10.7395 0.546882 0 -108.14
-720.749 -0.0747465 0 -83.4958
-715.475 0.089697 0 -83.36
695.266 1.51801 0 -128.513
700.488 1.32624 0 -128.388
-718.112 0.00761909 0 -83.4271
-10.6934 0.820102 0 -108.132
697.877 1.42231 0 -128.451
-10.7241 0.638292 0 -108.137
-10.7087 0.729365 0 -108.134
-715.475 0.089697 0 -83.36
-710.202 0.252994 0 -83.2308
690.044 1.7083 0 -128.632
695.266 1.51801 0 -128.513
-712.838 0.171488 0 -83.2946
-10.6629 1.00056 0 -108.126
692.655 1.61334 0 -128.574
-10.6934 0.820102 0 -108.132
-10.6781 0.910502 0 -108.129
-710.202 0.252994 0 -83.2308
-704.928 0.415152 0 -83.1081
684.821 1.89708 0 -128.744
690.044 1.7083 0 -128.632
-707.565 0.334215 0 -83.1687
-10.6327 1.17968 0 -108.121
687.432 1.80288 0 -128.689
-10.6629 1.00056 0 -108.126
-10.6478 1.09029 0 -108.124
-704.928 0.415152 0 -83.1081
-699.656 0.576179 0 -82.9918
679.599 2.08435 0 -128.85
684.821 1.89708 0 -128.744
-702.292 0.495806 0 -83.0492
-10.6026 1.35745 0 -108.116
682.21 1.9909 0 -128.798
-10.6327 1.17968 0 -108.121
-10.6176 1.26873 0 -108.118
-699.656 0.576179 0 -82.9918
-694.383 0.736081 0 -82.8819
674.377 2.27011 0 -128.95
679.599 2.08435 0 -128.85
-697.019 0.65627 0 -82.9361
-10.5728 1.53387 0 -108.11
676.988 2.17742 0 -128.901
-10.6026 1.35745 0 -108.116
-10.5877 1.44583 0 -108.113
-694.383 0.736081 0 -82.8819
-689.111 0.894867 0 -82.7784
669.155 2.45434 0 -129.043
674.377 2.27011 0 -128.95
-691.747 0.815613 0 -82.8294
-10.5432 1.70894 0 -108.105
671.766 2.36242 0 -128.997
-10.5728 1.53387 0 -108.11
-10.558 1.62157 0 -108.108
-689.111 0.894867 0 -82.7784
-683.84 1.05254 0 -82.6812
663.933 2.63705 0 -129.129
669.155 2.45434 0 -129.043
-686.476 0.973843 0 -82.729
-10.5139 1.88267 0 -108.099
666.544 2.54589 0 -129.087
-10.5432 1.70894 0 -108.105
-10.5285 1.79597 0 -108.102
-683.84 1.05254 0 -82.6812
-678.569 1.20912 0 -82.5902
658.712 2.81821 0 -129.209
663.933 2.63705 0 -129.129
-681.204 1.13097 0 -82.6349
-10.4847 2.05505 0 -108.094
661.322 2.72782 0 -129.17
-10.5139 1.88267 0 -108.099
-10.4993 1.96903 0 -108.097
-678.569 1.20912 0 -82.5902
-673.299 1.36459 0 -82.5054
653.49 2.99784 0 -129.283
658.712 2.81821 0 -129.209
-675.934 1.28699 0 -82.547
-10.4558 2.22608 0 -108.088
656.101 2.90822 0 -129.247
-10.4847 2.05505 0 -108.094
-10.4702 2.14073 0 -108.091
-673.299 1.36459 0 -82.5054
-668.029 1.51898 0 -82.4267
648.268 3.17591 0 -129.351
653.49 2.99784 0 -129.283
-670.664 1.44192 0 -82.4653
-10.4271 2.39576 0 -108.083
650.879 3.08707 0 -129.318
-10.4558 2.22608 0 -108.088
-10.4414 2.31109 0 -108.086
-668.029 1.51898 0 -82.4267
-662.759 1.67228 0 -82.3542
643.047 3.35243 0 -129.413
648.268 3.17591 0 -129.351
-665.394 1.59577 0 -82.3897
-10.3986 2.5641 0 -108.077
645.658 3.26437 0 -129.383
-10.4271 2.39576 0 -108.083
-10.4128 2.4801 0 -108.08
-662.759 1.67228 0 -82.3542
-657.49 1.82451 0 -82.2877
637.826 3.52739 0 -129.469
643.047 3.35243 0 -129.413
-660.125 1.74853 0 -82.3202
-10.3703 2.73109 0 -108.072
640.436 3.44011 0 -129.442
-10.3986 2.5641 0 -108.077
-10.3844 2.64777 0 -108.075
-657.49 1.82451 0 -82.2877
-652.222 1.97566 0 -82.2272
632.604 3.70078 0 -129.518
637.826 3.52739 0 -129.469
-654.856 1.90022 0 -82.2567
-10.3423 2.89674 0 -108.066
635.215 3.61428 0 -129.494
-10.3703 2.73109 0 -108.072
-10.3563 2.81408 0 -108.069
-652.222 1.97566 0 -82.2272
-646.954 2.12575 0 -82.1727
627.383 3.8726 0 -129.562
632.604 3.70078 0 -129.518
-649.588 2.05084 0 -82.1992
-10.3144 3.06103 0 -108.061
629.994 3.78689 0 -129.541
-10.3423 2.89674 0 -108.066
-10.3283 2.97905 0 -108.064
-646.954 2.12575 0 -82.1727
-641.686 2.27477 0 -82.1241
622.163 4.04284 0 -129.599
627.383 3.8726 0 -129.562
-644.32 2.20039 0 -82.1477
-10.2868 3.22399 0 -108.055
624.773 3.95792 0 -129.581
-10.3144 3.06103 0 -108.061
-10.3006 3.14268 0 -108.058
-641.686 2.27477 0 -82.1241
-636.42 2.42275 0 -82.0814
616.942 4.2115 0 -129.631
622.163 4.04284 0 -129.599
-639.053 2.34889 0 -82.102
-10.2594 3.38559 0 -108.05
619.552 4.12737 0 -129.616
-10.2868 3.22399 0 -108.055
-10.2731 3.30496 0 -108.052
-636.42 2.42275 0 -82.0814
-631.153 2.56967 0 -82.0445
611.721 4.37856 0 -129.657
616.942 4.2115 0 -129.631
-633.786 2.49634 0 -82.0622
-10.2323 3.54585 0 -108.044
614.331 4.29523 0 -129.645
-10.2594 3.38559 0 -108.05
-10.2458 3.46589 0 -108.047
-631.153 2.56967 0 -82.0445
-625.887 2.71554 0 -82.0133
606.501 4.54404 0 -129.677
611.721 4.37856 0 -129.657
-628.52 2.64273 0 -82.0282
-10.2053 3.70476 0 -108.038
609.111 4.4615 0 -129.668
-10.2323 3.54585 0 -108.044
-10.2188 3.62547 0 -108.041
-625.887 2.71554 0 -82.0133
-620.622 2.86038 0 -81.9879
601.281 4.70792 0 -129.692
606.501 4.54404 0 -129.677
-623.255 2.78809 0 -81.9999
-10.1786 3.86232 0 -108.033
603.891 4.62618 0 -129.685
-10.2053 3.70476 0 -108.038
-10.1919 3.78371 0 -108.036
-620.622 2.86038 0 -81.9879
-615.357 3.00418 0 -81.9682
596.061 4.87019 0 -129.7
601.281 4.70792 0 -129.692
-617.99 2.93241 0 -81.9773
-10.1521 4.01854 0 -108.027
598.671 4.78925 0 -129.697
-10.1786 3.86232 0 -108.033
-10.1653 3.9406 0 -108.03
-615.357 3.00418 0 -81.9682
-610.093 3.14694 0 -81.954
590.841 5.03086 0 -129.703
596.061 4.87019 0 -129.7
-612.725 3.07569 0 -81.9604
-10.1258 4.17341 0 -108.022
593.451 4.95073 0 -129.703
-10.1521 4.01854 0 -108.027
-10.1389 4.09614 0 -108.024
-610.093 3.14694 0 -81.954
-604.829 3.28868 0 -81.9455
585.621 5.18992 0 -129.701
590.841 5.03086 0 -129.703
-607.461 3.21794 0 -81.9491
-10.0998 4.32693 0 -108.016
588.231 5.11059 0 -129.703
-10.1258 4.17341 0 -108.022
-10.1128 4.25034 0 -108.019
-604.829 3.28868 0 -81.9455
-599.566 3.4294 0 -81.9425
580.401 5.34736 0 -129.693
585.621 5.18992 0 -129.701
-602.198 3.35917 0 -81.9433
-10.0739 4.47911 0 -108.01
583.011 5.26884 0 -129.698
-10.0998 4.32693 0 -108.016
-10.0868 4.40319 0 -108.013
-599.566 3.4294 0 -81.9425
-594.304 3.5691 0 -81.945
575.182 5.50319 0 -129.679
580.401 5.34736 0 -129.693
-596.935 3.49937 0 -81.9431
-10.0483 4.62995 0 -108.005
577.792 5.42548 0 -129.687
-10.0739 4.47911 0 -108.01
-10.0611 4.5547 0 -108.008
-594.304 3.5691 0 -81.945
-589.042 3.70778 0 -81.9529
569.963 5.65739 0 -129.66
575.182 5.50319 0 -129.679
-591.673 3.63856 0 -81.9483
-10.0229 4.77943 0 -107.999
572.572 5.58049 0 -129.67
-10.0483 4.62995 0 -108.005
-10.0356 4.70486 0 -108.002
-589.042 3.70778 0 -81.9529
-583.78 3.84545 0 -81.9662
564.744 5.80997 0 -129.636
569.963 5.65739 0 -129.66
-586.411 3.77674 0 -81.9589
-9.99775 4.92757 0 -107.994
567.353 5.73388 0 -129.649
-10.0229 4.77943 0 -107.999
-10.0103 4.85367 0 -107.996
-583.78 3.84545 0 -81.9662
-578.52 3.98211 0 -81.9848
559.525 5.96092 0 -129.606
564.744 5.80997 0 -129.636
-581.15 3.9139 0 -81.9749
-9.97281 5.07437 0 -107.988
562.135 5.88565 0 -129.622
-9.99775 4.92757 0 -107.994
-9.98525 5.00114 0 -107.991
-578.52 3.98211 0 -81.9848
-573.259 4.11776 0 -82.0088
554.307 6.11024 0 -129.571
559.525 5.96092 0 -129.606
-575.889 4.05006 0 -81.9962
-9.94808 5.21982 0 -107.982
556.916 6.03578 0 -129.589
-9.97281 5.07437 0 -107.988
-9.96042 5.14726 0 -107.985
-573.259 4.11776 0 -82.0088
-568 4.25242 0 -82.038
549.088 6.25792 0 -129.531
554.307 6.11024 0 -129.571
-570.629 4.18521 0 -82.0227
-9.92358 5.36392 0 -107.977
551.697 6.18429 0 -129.552
-9.94808 5.21982 0 -107.982
-9.9358 5.29204 0 -107.98
-568 4.25242 0 -82.038
-562.74 4.38607 0 -82.0723
543.87 6.40397 0 -129.486
549.088 6.25792 0 -129.531
-565.37 4.31937 0 -82.0545
-9.8993 5.50668 0 -107.971
546.479 6.33115 0 -129.509
-9.92358 5.36392 0 -107.977
-9.91141 5.43547 0 -107.974
-562.74 4.38607 0 -82.0723
-557.482 4.51873 0 -82.1119
538.652 6.54838 0 -129.435
543.87 6.40397 0 -129.486
-560.111 4.45252 0 -82.0915
-9.87524 5.64809 0 -107.966
541.261 6.47638 0 -129.461
-9.8993 5.50668 0 -107.971
-9.88724 5.57755 0 -107.969
-557.482 4.51873 0 -82.1119
-552.224 4.65039 0 -82.1565
533.434 6.69114 0 -129.379
538.652 6.54838 0 -129.435
-554.853 4.58468 0 -82.1336
-9.85141 5.78816 0 -107.96
536.043 6.61997 0 -129.408
-9.87524 5.64809 0 -107.966
-9.8633 5.71829 0 -107.963
-552.224 4.65039 0 -82.1565
-546.967 4.78106 0 -82.2062
528.217 6.83226 0 -129.319
533.434 6.69114 0 -129.379
-549.595 4.71585 0 -82.1807
-9.8278 5.92688 0 -107.955
530.826 6.76191 0 -129.35
-9.85141 5.78816 0 -107.96
-9.83957 5.85769 0 -107.957
-546.967 4.78106 0 -82.2062
-541.71 4.91074 0 -82.2609
523 6.97174 0 -129.253
528.217 6.83226 0 -129.319
-544.338 4.84602 0 -82.2329
-9.80441 6.06425 0 -107.949
525.608 6.90221 0 -129.287
-9.8278 5.92688 0 -107.955
-9.81607 5.99573 0 -107.952
-541.71 4.91074 0 -82.2609
-536.454 5.03943 0 -82.3205
517.783 7.10957 0 -129.183
523 6.97174 0 -129.253
-539.082 4.97521 0 -82.2901
-9.78124 6.20029 0 -107.944
520.391 7.04086 0 -129.219
-9.80441 6.06425 0 -107.949
-9.7928 6.13244 0 -107.946
-536.454 5.03943 0 -82.3205
-531.198 5.16714 0 -82.3851
512.566 7.24574 0 -129.107
517.783 7.10957 0 -129.183
-533.826 5.10341 0 -82.3522
-9.7583 6.33497 0 -107.938
515.174 7.17786 0 -129.146
-9.78124 6.20029 0 -107.944
-9.76975 6.2678 0 -107.941
-531.198 5.16714 0 -82.3851
-525.943 5.29387 0 -82.4545
507.349 7.38027 0 -129.027
512.566 7.24574 0 -129.107
-528.57 5.23063 0 -82.4192
-9.73558 6.46831 0 -107.933
509.957 7.31321 0 -129.068
-9.7583 6.33497 0 -107.938
-9.74692 6.40181 0 -107.935
-525.943 5.29387 0 -82.4545
-520.689 5.41961 0 -82.5288
502.133 7.51314 0 -128.942
507.349 7.38027 0 -129.027
-523.316 5.35686 0 -82.491
-9.71309 6.60031 0 -107.927
504.741 7.44691 0 -128.985
-9.73558 6.46831 0 -107.933
-9.72431 6.53448 0 -107.93
-520.689 5.41961 0 -82.5288
-515.435 5.54438 0 -82.6078
496.916 7.64436 0 -128.852
502.133 7.51314 0 -128.942
-518.062 5.48212 0 -82.5677
-9.69082 6.73096 0 -107.922
499.524 7.57895 0 -128.898
-9.71309 6.60031 0 -107.927
-9.70193 6.6658 0 -107.924
-515.435 5.54438 0 -82.6078
-510.182 5.66816 0 -82.6915
491.7 7.77392 0 -128.758
496.916 7.64436 0 -128.852
-512.808 5.60639 0 -82.649
-9.66877 6.86027 0 -107.916
494.308 7.70934 0 -128.805
-9.69082 6.73096 0 -107.922
-9.67977 6.79578 0 -107.919
-510.182 5.66816 0 -82.6915
-504.929 5.79097 0 -82.7799
486.485 7.90182 0 -128.658
491.7 7.77392 0 -128.758
-507.555 5.72969 0 -82.7351
-9.64695 6.98823 0 -107.911
489.093 7.83808 0 -128.709
-9.66877 6.86027 0 -107.916
-9.65783 6.92442 0 -107.914
-504.929 5.79097 0 -82.7799
-499.677 5.9128 0 -82.8729
481.269 8.02807 0 -128.555
486.485 7.90182 0 -128.658
-502.303 5.852 0 -82.8258
-9.62535 7.11485 0 -107.906
483.877 7.96515 0 -128.607
-9.64695 6.98823 0 -107.911
-9.63612 7.05171 0 -107.908
-499.677 5.9128 0 -82.8729
-494.426 6.03365 0 -82.9705
476.054 8.15266 0 -128.447
481.269 8.02807 0 -128.555
-497.051 5.97335 0 -82.9211
-9.60398 7.24012 0 -107.9
478.661 8.09057 0 -128.501
-9.62535 7.11485 0 -107.906
-9.61464 7.17766 0 -107.903
-494.426 6.03365 0 -82.9705
-489.175 6.15353 0 -83.0726
470.839 8.27559 0 -128.334
476.054 8.15266 0 -128.447
-491.8 6.09371 0 -83.021
-9.58283 7.36405 0 -107.895
473.446 8.21433 0 -128.391
-9.60398 7.24012 0 -107.9
-9.59337 7.30226 0 -107.898
-489.175 6.15353 0 -83.0726
-483.925 6.27244 0 -83.1792
465.624 8.39686 0 -128.217
470.839 8.27559 0 -128.334
-486.55 6.21311 0 -83.1254
-9.5619 7.48664 0 -107.89
468.231 8.33643 0 -128.276
-9.58283 7.36405 0 -107.895
-9.57234 7.42552 0 -107.892
-483.925 6.27244 0 -83.1792
-478.675 6.39037 0 -83.2903
460.409 8.51647 0 -128.095
465.624 8.39686 0 -128.217
-481.3 6.33153 0 -83.2342
-9.5412 7.60788 0 -107.884
463.016 8.45687 0 -128.157
-9.5619 7.48664 0 -107.89
-9.55152 7.54743 0 -107.887
-478.675 6.39037 0 -83.2903
-473.426 6.50733 0 -83.4057
455.195 8.63442 0 -127.969
460.409 8.51647 0 -128.095
-476.05 6.44897 0 -83.3474
-9.52072 7.72778 0 -107.879
457.802 8.57565 0 -128.033
-9.5412 7.60788 0 -107.884
-9.53094 7.668 0 -107.882
-473.426 6.50733 0 -83.4057
-468.178 6.62332 0 -83.5254
449.981 8.75071 0 -127.839
455.195 8.63442 0 -127.969
-470.802 6.56545 0 -83.465
-9.50047 7.84634 0 -107.874
452.588 8.69277 0 -127.905
-9.52072 7.72778 0 -107.879
-9.51057 7.78723 0 -107.876
-468.178 6.62332 0 -83.5254
-462.93 6.73833 0 -83.6495
444.767 8.86534 0 -127.705
449.981 8.75071 0 -127.839
-465.554 6.68095 0 -83.5869
-9.48045 7.96355 0 -107.869
447.374 8.80823 0 -127.773
-9.50047 7.84634 0 -107.874
-9.49043 7.90511 0 -107.871
-462.93 6.73833 0 -83.6495
-457.683 6.85237 0 -83.7778
439.553 8.97831 0 -127.566
444.767 8.86534 0 -127.705
-460.306 6.79547 0 -83.7131
-9.46065 8.07941 0 -107.864
442.16 8.92203 0 -127.636
-9.48045 7.96355 0 -107.869
-9.47052 8.02165 0 -107.866
-457.683 6.85237 0 -83.7778
-452.436 6.96544 0 -83.9103
434.339 9.08962 0 -127.424
439.553 8.97831 0 -127.566
-455.059 6.90903 0 -83.8435
-9.44107 8.19394 0 -107.858
436.946 9.03417 0 -127.496
-9.46065 8.07941 0 -107.864
-9.45083 8.13684 0 -107.861
-452.436 6.96544 0 -83.9103
-447.19 7.07753 0 -84.0469
429.126 9.19927 0 -127.277
434.339 9.08962 0 -127.424
-449.813 7.02161 0 -83.9781
-9.42172 8.30712 0 -107.853
431.733 9.14465 0 -127.351
-9.44107 8.19394 0 -107.858
-9.43137 8.2507 0 -107.856
-447.19 7.07753 0 -84.0469
-441.945 7.18866 0 -84.1876
423.913 9.30727 0 -127.126
429.126 9.19927 0 -127.277
-444.567 7.13322 0 -84.1167
-9.40259 8.41896 0 -107.848
426.519 9.25348 0 -127.202
-9.42172 8.30712 0 -107.853
-9.41213 8.3632 0 -107.851
-441.945 7.18866 0 -84.1876
-436.7 7.2988 0 -84.3324
418.7 9.4136 0 -126.971
423.913 9.30727 0 -127.126
-439.322 7.24385 0 -84.2595
-9.38369 8.52945 0 -107.843
421.306 9.36064 0 -127.049
-9.40259 8.41896 0 -107.848
-9.39312 8.47437 0 -107.846
-436.7 7.2988 0 -84.3324
-431.456 7.40797 0 -84.4811
413.487 9.51828 0 -126.813
418.7 9.4136 0 -126.971
-434.078 7.35351 0 -84.4063
-9.36502 8.6386 0 -107.838
416.094 9.46615 0 -126.893
-9.38369 8.52945 0 -107.843
-9.37433 8.58419 0 -107.841
-431.456 7.40797 0 -84.4811
-426.212 7.51617 0 -84.6339
408.275 9.62131 0 -126.65
413.487 9.51828 0 -126.813
-428.834 7.4622 0 -84.557
-9.34657 8.74641 0 -107.833
410.881 9.57 0 -126.732
-9.36502 8.6386 0 -107.838
-9.35577 8.69267 0 -107.836
-426.212 7.51617 0 -84.6339
-420.969 7.62339 0 -84.7905
403.063 9.72268 0 -126.484
408.275 9.62131 0 -126.65
-423.59 7.5699 0 -84.7117
-9.32835 8.85288 0 -107.828
405.669 9.6722 0 -126.567
-9.34657 8.74641 0 -107.833
-9.33743 8.79981 0 -107.831
-420.969 7.62339 0 -84.7905
-415.727 7.72964 0 -84.951
397.851 9.8224 0 -126.314
403.063 9.72268 0 -126.484
-418.348 7.67664 0 -84.8703
-9.31035 8.958 0 -107.824
400.457 9.77274 0 -126.399
-9.32835 8.85288 0 -107.828
-9.31932 8.9056 0 -107.826
-415.727 7.72964 0 -84.951
-410.485 7.8349 0 -85.1153
392.639 9.92046 0 -126.14
397.851 9.8224 0 -126.314
-413.106 7.78239 0 -85.0327
-9.29258 9.06178 0 -107.819
395.245 9.87164 0 -126.227
-9.31035 8.958 0 -107.824
-9.30144 9.01006 0 -107.821
-410.485 7.8349 0 -85.1153
-405.244 7.93919 0 -85.2834
387.427 10.0169 0 -125.962
392.639 9.92046 0 -126.14
-407.864 7.88717 0 -85.1989
-9.27504 9.16422 0 -107.814
390.033 9.96887 0 -126.051
-9.29258 9.06178 0 -107.819
-9.28378 9.11317 0 -107.816
-405.244 7.93919 0 -85.2834
-400.003 8.04249 0 -85.4551
382.216 10.1116 0 -125.781
387.427 10.0169 0 -125.962
-402.623 7.99096 0 -85.3688
-9.25772 9.26531 0 -107.809
384.822 10.0645 0 -125.872
-9.27503 9.16422 0 -107.814
-9.26635 9.21493 0 -107.812
-400.003 8.04249 0 -85.4551
-394.763 8.14481 0 -85.6306
377.005 10.2048 0 -125.596
382.216 10.1116 0 -125.781
-397.383 8.09377 0 -85.5424
-9.24063 9.36507 0 -107.804
379.61 10.1584 0 -125.689
-9.25772 9.26531 0 -107.809
-9.24914 9.31536 0 -107.807
-394.763 8.14481 0 -85.6306
-389.523 8.24615 0 -85.8096
371.794 10.2962 0 -125.408
377.005 10.2048 0 -125.596
-392.143 8.1956 0 -85.7197
-9.22376 9.46348 0 -107.8
374.399 10.2507 0 -125.502
-9.24063 9.36507 0 -107.804
-9.23216 9.41444 0 -107.802
-389.523 8.24615 0 -85.8096
-384.284 8.3465 0 -85.9923
366.583 10.3861 0 -125.216
371.794 10.2962 0 -125.408
-386.904 8.29645 0 -85.9005
-9.20712 9.56055 0 -107.795
369.188 10.3414 0 -125.312
-9.22376 9.46348 0 -107.8
-9.21541 9.51218 0 -107.797
-384.284 8.3465 0 -85.9923
-379.046 8.44587 0 -86.1784
361.372 10.4742 0 -125.02
366.583 10.3861 0 -125.216
-381.665 8.39631 0 -86.0849
-9.19071 9.65628 0 -107.791
363.978 10.4304 0 -125.118
-9.20712 9.56055 0 -107.795
-9.19889 9.60858 0 -107.793
-379.046 8.44587 0 -86.1784
-373.808 8.54424 0 -86.3681
356.162 10.5608 0 -124.822
361.372 10.4742 0 -125.02
-376.427 8.49518 0 -86.2728
-9.17452 9.75066 0 -107.786
358.767 10.5177 0 -124.921
-9.19071 9.65628 0 -107.791
-9.18259 9.70364 0 -107.788
-373.808 8.54424 0 -86.3681
-368.571 8.64162 0 -86.5611
350.952 10.6457 0 -124.62
356.162 10.5608 0 -124.822
-371.19 8.59306 0 -86.4642
-9.15857 9.84371 0 -107.782
353.557 10.6035 0 -124.721
-9.17452 9.75066 0 -107.786
-9.16652 9.79735 0 -107.784
-368.571 8.64162 0 -86.5611
-363.335 8.73801 0 -86.7576
345.742 10.729 0 -124.414
350.952 10.6457 0 -124.62
-365.953 8.68994 0 -86.6589
-9.14284 9.93541 0 -107.777
348.347 10.6875 0 -124.517
-9.15857 9.84371 0 -107.782
-9.15067 9.88973 0 -107.779
-363.335 8.73801 0 -86.7576
-358.099 8.83341 0 -86.9574
340.532 10.8106 0 -124.206
345.742 10.729 0 -124.414
-360.717 8.78584 0 -86.8571
-9.12733 10.0258 0 -107.773
343.137 10.77 0 -124.311
-9.14284 9.93541 0 -107.777
-9.13506 9.98076 0 -107.775
-358.099 8.83341 0 -86.9574
-352.863 8.9278 0 -87.1604
335.322 10.8906 0 -123.994
340.532 10.8106 0 -124.206
-355.481 8.88073 0 -87.0585
-9.11206 10.1148 0 -107.768
337.927 10.8508 0 -124.1
-9.12733 10.0258 0 -107.773
-9.11967 10.0704 0 -107.771
-352.863 8.9278 0 -87.1604
-347.628 9.0212 0 -87.3667
330.113 10.969 0 -123.779
335.322 10.8906 0 -123.994
-350.246 8.97463 0 -87.2632
-9.09701 10.2025 0 -107.764
332.718 10.93 0 -123.887
-9.11206 10.1148 0 -107.768
-9.1045 10.1588 0 -107.766
-347.628 9.0212 0 -87.3667
-342.394 9.11359 0 -87.5762
324.904 11.0458 0 -123.561
330.113 10.969 0 -123.779
-345.011 9.06752 0 -87.4711
-9.08218 10.2888 0 -107.76
327.508 11.0076 0 -123.671
-9.09701 10.2025 0 -107.764
-9.08957 10.2458 0 -107.762
-342.394 9.11359 0 -87.5762
-337.16 9.20498 0 -87.7888
319.694 11.1209 0 -123.34
324.904 11.0458 0 -123.561
-339.777 9.15941 0 -87.6821
-9.06759 10.3738 0 -107.756
322.299 11.0836 0 -123.451
-9.08218 10.2888 0 -107.76
-9.07486 10.3315 0 -107.758
-337.16 9.20498 0 -87.7888
-331.927 9.29535 0 -88.0045
314.485 11.1944 0 -123.116
319.694 11.1209 0 -123.34
-334.543 9.25029 0 -87.8963
-9.05322 10.4575 0 -107.751
317.09 11.1579 0 -123.229
-9.06759 10.3738 0 -107.756
-9.06038 10.4158 0 -107.754
-331.927 9.29535 0 -88.0045
-326.694 9.38472 0 -88.2233
309.277 11.2664 0 -122.889
314.485 11.1944 0 -123.116
-329.31 9.34016 0 -88.1135
-9.03908 10.5398 0 -107.747
311.881 11.2306 0 -123.003
-9.05322 10.4575 0 -107.751
-9.04613 10.4988 0 -107.749
-326.694 9.38472 0 -88.2233
-321.462 9.47307 0 -88.4451
304.068 11.3366 0 -122.66
309.277 11.2664 0 -122.889
-324.078 9.42902 0 -88.3338
-9.02517 10.6208 0 -107.743
306.672 11.3017 0 -122.775
-9.03908 10.5398 0 -107.747
-9.0321 10.5804 0 -107.745
-321.462 9.47307 0 -88.4451
-316.23 9.56041 0 -88.6698
298.86 11.4053 0 -122.427
304.068 11.3366 0 -122.66
-318.846 9.51687 0 -88.557
-9.01149 10.7004 0 -107.739
301.464 11.3712 0 -122.544
-9.02517 10.6208 0 -107.743
-9.0183 10.6607 0 -107.741
-316.23 9.56041 0 -88.6698
-310.999 9.64672 0 -88.8974
293.651 11.4724 0 -122.191
298.86 11.4053 0 -122.427
-313.615 9.60369 0 -88.7832
-8.99804 10.7787 0 -107.735
296.255 11.4391 0 -122.31
-9.01149 10.7004 0 -107.739
-9.00474 10.7397 0 -107.737
-310.999 9.64672 0 -88.8974
-305.769 9.73202 0 -89.1278
288.443 11.5379 0 -121.953
293.651 11.4724 0 -122.191
-308.384 9.6895 0 -89.0123
-8.98481 10.8556 0 -107.732
291.047 11.5053 0 -122.073
-8.99804 10.7787 0 -107.735
-8.99139 10.8173 0 -107.733
-305.769 9.73202 0 -89.1278
-300.539 9.81628 0 -89.3611
283.235 11.6018 0 -121.712
288.443 11.5379 0 -121.953
-303.154 9.77428 0 -89.2441
-8.97181 10.9312 0 -107.728
285.839 11.57 0 -121.833
-8.98481 10.8556 0 -107.732
-8.97828 10.8936 0 -107.73
-300.539 9.81628 0 -89.3611
-295.309 9.89952 0 -89.5971
278.027 11.664 0 -121.469
283.235 11.6018 0 -121.712
-297.924 9.85803 0 -89.4788
-8.95904 11.0055 0 -107.724
280.631 11.6331 0 -121.591
-8.97181 10.9312 0 -107.728
-8.9654 10.9685 0 -107.726
-295.309 9.89952 0 -89.5971
-290.08 9.98172 0 -89.8359
272.819 11.7247 0 -121.223
278.027 11.664 0 -121.469
-292.695 9.94075 0 -89.7162
-8.9465 11.0785 0 -107.72
275.423 11.6946 0 -121.346
-8.95904 11.0055 0 -107.724
-8.95274 11.0422 0 -107.722
-290.08 9.98172 0 -89.8359
-284.852 10.0629 0 -90.0773
267.612 11.7838 0 -120.974
272.819 11.7247 0 -121.223
-287.466 10.0224 0 -89.9563
-8.93419 11.15 0 -107.717
270.216 11.7545 0 -121.099
-8.9465 11.0785 0 -107.72
-8.94031 11.1144 0 -107.718
-284.852 10.0629 0 -90.0773
-279.624 10.143 0 -90.3213
262.404 11.8413 0 -120.723
267.612 11.7838 0 -120.974
-282.238 10.1031 0 -90.199
-8.9221 11.2203 0 -107.713
265.008 11.8128 0 -120.849
-8.93419 11.15 0 -107.717
-8.92812 11.1853 0 -107.715
-279.624 10.143 0 -90.3213
-274.397 10.2221 0 -90.5679
257.197 11.8973 0 -120.469
262.404 11.8413 0 -120.723
-277.01 10.1827 0 -90.4443
-8.91025 11.2892 0 -107.709
259.801 11.8695 0 -120.596
-8.9221 11.2203 0 -107.713
-8.91615 11.2549 0 -107.711
-274.397 10.2221 0 -90.5679
-269.17 10.3001 0 -90.817
251.99 11.9516 0 -120.213
257.197 11.8973 0 -120.469
-271.783 10.2612 0 -90.6921
-8.89862 11.3568 0 -107.706
254.593 11.9247 0 -120.341
-8.91025 11.2892 0 -107.709
-8.9044 11.3232 0 -107.708
-269.17 10.3001 0 -90.817
-263.943 10.3771 0 -91.0686
246.783 12.0044 0 -119.955
251.99 11.9516 0 -120.213
-266.556 10.3387 0 -90.9425
-8.88722 11.423 0 -107.703
249.386 11.9782 0 -120.084
-8.89862 11.3568 0 -107.706
-8.89289 11.3901 0 -107.704
-263.943 10.3771 0 -91.0686
-258.717 10.453 0 -91.3226
241.576 12.0556 0 -119.694
246.783 12.0044 0 -119.955
-261.33 10.4152 0 -91.1953
-8.87605 11.4879 0 -107.699
244.179 12.0302 0 -119.825
-8.88722 11.423 0 -107.703
-8.88161 11.4556 0 -107.701
-258.717 10.453 0 -91.3226
-253.492 10.5279 0 -91.5789
236.369 12.1053 0 -119.431
241.576 12.0556 0 -119.694
-256.105 10.4906 0 -91.4505
-8.86511 11.5515 0 -107.696
238.972 12.0807 0 -119.563
-8.87605 11.4879 0 -107.699
-8.87055 11.5199 0 -107.698
-253.492 10.5279 0 -91.5789
-248.267 10.6017 0 -91.8376
231.162 12.1534 0 -119.166
236.369 12.1053 0 -119.431
-250.879 10.5649 0 -91.708
-8.8544 11.6137 0 -107.693
233.765 12.1295 0 -119.299
-8.86511 11.5515 0 -107.696
-8.85973 11.5827 0 -107.694
-248.267 10.6017 0 -91.8376
-243.043 10.6744 0 -92.0986
225.955 12.1999 0 -118.898
231.162 12.1534 0 -119.166
-245.655 10.6382 0 -91.9678
-8.84392 11.6746 0 -107.689
228.558 12.1768 0 -119.032
-8.8544 11.6137 0 -107.693
-8.84913 11.6443 0 -107.691
-243.043 10.6744 0 -92.0986
-237.819 10.7461 0 -92.3618
220.748 12.2449 0 -118.629
225.955 12.1999 0 -118.898
-240.431 10.7104 0 -92.2299
-8.83366 11.7341 0 -107.686
223.352 12.2226 0 -118.764
-8.84392 11.6746 0 -107.689
-8.83876 11.7045 0 -107.688
-237.819 10.7461 0 -92.3618
-232.595 10.8167 0 -92.6272
215.542 12.2883 0 -118.358
220.748 12.2449 0 -118.629
-235.207 10.7815 0 -92.4943
-8.82364 11.7923 0 -107.683
218.145 12.2668 0 -118.494
-8.83366 11.7341 0 -107.686
-8.82863 11.7634 0 -107.685
-232.595 10.8167 0 -92.6272
-227.372 10.8862 0 -92.8948
210.335 12.3302 0 -118.084
215.542 12.2883 0 -118.358
-229.984 10.8515 0 -92.7607
-8.81385 11.8491 0 -107.68
212.939 12.3095 0 -118.221
-8.82364 11.7923 0 -107.683
-8.81872 11.8209 0 -107.682
-227.372 10.8862 0 -92.8948
-222.149 10.9546 0 -93.1644
205.129 12.3706 0 -117.809
210.335 12.3302 0 -118.084
-224.761 10.9205 0 -93.0293
-8.80428 11.9047 0 -107.677
207.732 12.3506 0 -117.947
-8.81385 11.8491 0 -107.68
-8.80904 11.8771 0 -107.679
-222.149 10.9546 0 -93.1644
-216.927 11.0219 0 -93.436
199.923 12.4094 0 -117.531
205.129 12.3706 0 -117.809
-219.538 10.9884 0 -93.3
-8.79495 11.9588 0 -107.675
202.526 12.3902 0 -117.67
-8.80428 11.9047 0 -107.677
-8.79959 11.9319 0 -107.676
-216.927 11.0219 0 -93.436
-211.706 11.0881 0 -93.7097
194.716 12.4467 0 -117.252
199.923 12.4094 0 -117.531
-214.316 11.0552 0 -93.5726
-8.78585 12.0117 0 -107.672
197.32 12.4282 0 -117.392
-8.79495 11.9588 0 -107.675
-8.79037 11.9854 0 -107.673
-211.706 11.0881 0 -93.7097
-206.484 11.1533 0 -93.9853
189.51 12.4825 0 -116.971
194.716 12.4467 0 -117.252
-209.095 11.1208 0 -93.8473
-8.77697 12.0632 0 -107.669
192.113 12.4648 0 -117.112
-8.78585 12.0117 0 -107.672
-8.78138 12.0376 0 -107.67
-206.484 11.1533 0 -93.9853
-201.264 11.2173 0 -94.2628
184.304 12.5167 0 -116.688
189.51 12.4825 0 -116.971
-203.874 11.1854 0 -94.1238
-8.76833 12.1134 0 -107.666
186.907 12.4998 0 -116.83
-8.77697 12.0632 0 -107.669
-8.77262 12.0884 0 -107.668
-201.264 11.2173 0 -94.2628
-196.043 11.2802 0 -94.5421
179.098 12.5495 0 -116.403
184.304 12.5167 0 -116.688
-198.653 11.2489 0 -94.4022
-8.75991 12.1622 0 -107.664
181.701 12.5333 0 -116.546
-8.76833 12.1134 0 -107.666
-8.76409 12.1379 0 -107.665
-196.043 11.2802 0 -94.5421
-190.823 11.342 0 -94.8233
173.892 12.5807 0 -116.117
179.098 12.5495 0 -116.403
-193.433 11.3113 0 -94.6825
-8.75173 12.2097 0 -107.661
176.495 12.5653 0 -116.261
-8.75991 12.1622 0 -107.664
-8.75579 12.1861 0 -107.662
-190.823 11.342 0 -94.8233
-185.604 11.4027 0 -95.1062
168.686 12.6104 0 -115.829
173.892 12.5807 0 -116.117
-188.213 11.3725 0 -94.9645
-8.74378 12.2558 0 -107.659
171.289 12.5957 0 -115.974
-8.75173 12.2097 0 -107.661
-8.74772 12.2329 0 -107.66
-185.604 11.4027 0 -95.1062
-180.385 11.4623 0 -95.3908
163.48 12.6386 0 -115.54
168.686 12.6104 0 -115.829
-182.994 11.4326 0 -95.2483
-8.73605 12.3006 0 -107.656
166.083 12.6247 0 -115.685
-8.74378 12.2558 0 -107.659
-8.73988 12.2784 0 -107.658
-180.385 11.4623 0 -95.3908
-175.166 11.5207 0 -95.677
158.274 12.6653 0 -115.249
163.48 12.6386 0 -115.54
-177.775 11.4916 0 -95.5337
-8.72855 12.3441 0 -107.654
160.877 12.6521 0 -115.395
-8.73605 12.3006 0 -107.656
-8.73227 12.3225 0 -107.655
-175.166 11.5207 0 -95.677
-169.948 11.578 0 -95.9649
153.068 12.6905 0 -114.957
158.274 12.6653 0 -115.249
-172.557 11.5495 0 -95.8208
-8.72127 12.3861 0 -107.652
155.671 12.6781 0 -115.103
-8.72855 12.3441 0 -107.654
-8.72488 12.3653 0 -107.653
-169.948 11.578 0 -95.9649
-164.73 11.6341 0 -96.2543
147.862 12.7142 0 -114.663
153.068 12.6905 0 -114.957
-167.339 11.6062 0 -96.1094
-8.71421 12.4269 0 -107.65
150.465 12.7025 0 -114.81
-8.72127 12.3861 0 -107.652
-8.71771 12.4067 0 -107.651
-164.73 11.6341 0 -96.2543
-159.512 11.689 0 -96.5453
142.656 12.7364 0 -114.368
147.862 12.7142 0 -114.663
-162.121 11.6617 0 -96.3996
-8.70736 12.4663 0 -107.647
145.259 12.7255 0 -114.516
-8.71421 12.4269 0 -107.65
-8.71076 12.4467 0 -107.649
-159.512 11.689 0 -96.5453
-154.295 11.7428 0 -96.8377
137.45 12.7571 0 -114.071
142.656 12.7364 0 -114.368
-156.903 11.7161 0 -96.6913
-8.70071 12.5043 0 -107.645
140.053 12.7469 0 -114.22
-8.70736 12.4663 0 -107.647
-8.70401 12.4854 0 -107.646
-154.295 11.7428 0 -96.8377
-149.078 11.7954 0 -97.1315
132.244 12.7763 0 -113.774
137.45 12.7571 0 -114.071
-151.686 11.7693 0 -96.9844
-8.69425 12.5409 0 -107.643
134.847 12.7669 0 -113.923
-8.70071 12.5043 0 -107.645
-8.69746 12.5228 0 -107.644
-149.078 11.7954 0 -97.1315
-143.862 11.8468 0 -97.4266
127.038 12.794 0 -113.475
132.244 12.7763 0 -113.774
-146.47 11.8212 0 -97.2789
-8.68796 12.5762 0 -107.642
129.641 12.7853 0 -113.624
-8.69425 12.5409 0 -107.643
-8.69108 12.5587 0 -107.642
-143.862 11.8468 0 -97.4266
-138.645 11.897 0 -97.7231
121.832 12.8102 0 -113.174
127.038 12.794 0 -113.475
-141.253 11.872 0 -97.5747
-8.68181 12.6101 0 -107.64
124.435 12.8023 0 -113.325
-8.68796 12.5762 0 -107.642
-8.68487 12.5933 0 -107.641
-138.645 11.897 0 -97.7231
-133.429 11.946 0 -98.0208
116.626 12.8249 0 -112.873
121.832 12.8102 0 -113.174
-136.037 11.9216 0 -97.8718
-8.67579 12.6426 0 -107.638
119.229 12.8177 0 -113.024
-8.68181 12.6101 0 -107.64
-8.67879 12.6265 0 -107.639
-133.429 11.946 0 -98.0208
-128.214 11.9938 0 -98.3197
111.421 12.8382 0 -112.571
116.626 12.8249 0 -112.873
-130.821 11.9701 0 -98.1701
-8.66987 12.6738 0 -107.636
114.024 12.8317 0 -112.722
-8.67579 12.6426 0 -107.638
-8.67282 12.6583 0 -107.637
-128.214 11.9938 0 -98.3197
-122.998 12.0406 0 -98.6197
106.215 12.85 0 -112.267
111.421 12.8382 0 -112.571
-125.606 12.0173 0 -98.4695
-8.66402 12.7037 0 -107.634
108.818 12.8443 0 -112.419
-8.66987 12.6738 0 -107.636
-8.66694 12.6889 0 -107.635
-122.998 12.0406 0 -98.6197
-117.783 12.0864 0 -98.9207
101.01 12.8606 0 -111.963
106.215 12.85 0 -112.267
-120.39 12.0636 0 -98.7701
-8.65824 12.7324 0 -107.633
103.613 12.8554 0 -112.115
-8.66402 12.7037 0 -107.634
-8.66112 12.7182 0 -107.634
-117.783 12.0864 0 -98.9207
-112.568 12.1313 0 -99.2228
95.8048 12.87 0 -111.657
101.01 12.8606 0 -111.963
-115.175 12.1089 0 -99.0716
-8.65255 12.7602 0 -107.631
98.4073 12.8654 0 -111.81
-8.65824 12.7324 0 -107.633
-8.65538 12.7464 0 -107.632
-112.568 12.1313 0 -99.2228
-107.353 12.1757 0 -99.5258
90.5998 12.8786 0 -111.351
95.8048 12.87 0 -111.657
-109.961 12.1536 0 -99.3742
-8.64704 12.7873 0 -107.629
93.2023 12.8744 0 -111.504
-8.65255 12.7602 0 -107.631
-8.64977 12.7738 0 -107.63
-107.353 12.1757 0 -99.5258
-102.139 12.2199 0 -99.8297
85.3948 12.8868 0 -111.043
90.5998 12.8786 0 -111.351
-104.746 12.1978 0 -99.6776
-8.64188 12.8141 0 -107.627
87.9973 12.8827 0 -111.197
-8.64704 12.7873 0 -107.629
-8.6444 12.8007 0 -107.628
-102.139 12.2199 0 -99.8297
-96.9263 12.2642 0 -100.135
80.1895 12.8957 0 -110.733
85.3948 12.8868 0 -111.043
-99.5326 12.242 0 -99.9822
-8.63745 12.8414 0 -107.625
82.7922 12.8911 0 -110.888
-8.64188 12.8141 0 -107.627
-8.63955 12.8277 0 -107.626
-96.9263 12.2642 0 -100.135
-91.7143 12.3092 0 -100.442
74.9828 12.9065 0 -110.423
80.1895 12.8957 0 -110.733
-94.3202 12.2866 0 -100.288
-8.63444 12.8702 0 -107.624
77.5864 12.9007 0 -110.578
-8.63745 12.8414 0 -107.625
-8.63572 12.8555 0 -107.624
-91.7143 12.3092 0 -100.442
-86.504 12.3546 0 -100.753
69.7734 12.9223 0 -110.113
74.9828 12.9065 0 -110.423
-89.1088 12.3319 0 -100.597
-8.634 12.9018 0 -107.625
72.3785 12.9135 0 -110.268
-8.63444 12.8702 0 -107.624
-8.63381 12.8855 0 -107.624
-86.504 12.3546 0 -100.753
-81.2942 12.4001 0 -101.073
64.5563 12.9471 0 -109.806
69.7734 12.9223 0 -110.113
-83.8993 12.3774 0 -100.912
-8.6381 12.9384 0 -107.633
67.1663 12.9332 0 -109.959
-8.634 12.9018 0 -107.625
-8.63532 12.9193 0 -107.628
-81.2942 12.4001 0 -101.073
-76.0851 12.4425 0 -101.409
59.3262 12.9899 0 -109.508
64.5563 12.9471 0 -109.806
-78.6892 12.422 0 -101.238
-8.65002 12.9831 0 -107.658
61.943 12.9655 0 -109.655
-8.6381 12.9384 0 -107.633
-8.64285 12.9596 0 -107.643
-76.0851 12.4425 0 -101.409
-70.8674 12.4781 0 -101.78
54.0645 13.0622 0 -109.233
59.3262 12.9899 0 -109.508
-73.4787 12.4616 0 -101.588
-8.67494 13.0404 0 -107.716
56.7015 13.0213 0 -109.366
-8.65002 12.9831 0 -107.658
-8.66039 13.0098 0 -107.681
-70.8674 12.4781 0 -101.78
-65.6385 12.4925 0 -102.215
48.7541 13.1897 0 -109.005
54.0645 13.0622 0 -109.233
-68.2533 12.4892 0 -101.987
-8.72114 13.1163 0 -107.843
51.4155 13.117 0 -109.111
-8.67494 13.0404 0 -107.716
-8.69483 13.0756 0 -107.769
-65.6385 12.4925 0 -102.215
-60.3575 12.4763 0 -102.773
43.3314 13.3977 0 -108.872
48.7541 13.1897 0 -109.005
-63.0102 12.4895 0 -102.474
-8.80115 13.2201 0 -108.098
46.0643 13.2811 0 -108.923
-8.72114 13.1163 0 -107.843
-8.75571 13.1639 0 -107.948
-60.3575 12.4763 0 -102.773
-55.0165 12.3866 0 -103.541
37.7567 13.7491 0 -108.911
43.3314 13.3977 0 -108.872
-57.6902 12.443 0 -103.124
-8.93328 13.3631 0 -108.58
40.5612 13.5517 0 -108.864
-8.80115 13.2201 0 -108.098
-8.85973 13.2861 0 -108.306
-55.0165 12.3866 0 -103.541
-49.4791 12.232 0 -104.662
31.8472 14.2619 0 -109.245
37.7567 13.7491 0 -108.911
-52.2923 12.3183 0 -104.045
-9.14206 13.5598 0 -109.431
34.8675 13.9825 0 -109.031
-8.93328 13.3631 0 -108.58
-9.02535 13.4532 0 -108.941
-49.4791 12.232 0 -104.662
-43.7697 11.9362 0 -106.295
25.5776 15.032 0 -110.024
31.8472 14.2619 0 -109.245
-46.6261 12.0992 0 -105.406
-9.4548 13.8204 0 -110.831
28.7406 14.6169 0 -109.568
-9.14206 13.5598 0 -109.431
-9.28537 13.683 0 -110.063
-43.7697 11.9362 0 -106.295
-37.5499 11.7239 0 -108.615
18.56 15.837 0 -111.419
25.5776 15.032 0 -110.024
-40.7817 11.8071 0 -107.355
-9.8904 14.1413 0 -112.913
22.2238 15.4434 0 -110.635
-9.4548 13.8204 0 -110.831
-9.65317 13.9723 0 -111.757
-37.5499 11.7239 0 -108.615
-31.1824 11.6442 0 -111.497
11.1895 16.5352 0 -113.381
18.56 15.837 0 -111.419
-34.297 11.6214 0 -110.017
-10.4223 14.4625 0 -115.538
14.8244 16.2577 0 -112.342
-9.8904 14.1413 0 -112.913
-10.1547 14.3134 0 -114.23
-31.1824 11.6442 0 -111.497
-24.1724 13.0229 0 -114.267
3.14989 15.5341 0 -115.403
11.1895 16.5352 0 -113.381
-27.8947 12.0784 0 -112.958
-10.9158 14.6155 0 -117.781
7.37247 16.3451 0 -114.448
-10.4223 14.4625 0 -115.538
-10.6763 14.5677 0 -116.721
-24.1724 13.0229 0 -114.267
-18.2367 16.4142 0 -114.473
-3.2059 11.5657 0 -115.424
3.14989 15.5341 0 -115.403
-20.7659 14.3202 0 -114.952
-11.0196 14.2185 0 -117.204
-0.606428 14.1357 0 -115.861
-10.9158 14.6155 0 -117.781
-11.0683 14.5346 0 -118.22
-18.2367 16.4142 0 -114.473
-11.9978 24.5638 0 -107.774
-8.13373 0.690932 0 -109.42
-3.2059 11.5657 0 -115.424
-15.5318 20.0501 0 -112.298
-10.1925 12.7162 0 -109.706
-5.5609 6.92281 0 -113.543
-11.0196 14.2185 0 -117.204
-10.7256 13.6124 0 -114.351
-11.9978 24.5638 0 -107.774
-8.74577 31.7977 0 -87.2957
-6.54831 -13.0427 0 -90.3881
-8.13373 0.690932 0 -109.42
-9.3031 28.51 0 -99.7552
-7.74073 9.44938 0 -90.0603
-8.97356 -5.94556 0 -101.958
-10.1925 12.7162 0 -109.706
-9.27641 11.4025 0 -102.217
-8.74577 31.7977 0 -87.2957
-6.39491 40.2775 0 -48.6588
0.590174 -32.4013 0 -53.2851
-6.54831 -13.0427 0 -90.3881
-8.36413 35.5806 0 -70.3277
-2.39361 4.02633 0 -49.5139
-2.79804 -21.7366 0 -74.3432
-7.74073 9.44938 0 -90.0603
-5.48394 6.84368 0 -72.4802
985.228 295.717 0 399.244
962.048 159.223 0 131.646
3014.32 521.937 0 -12.0046
2773.18 830.029 0 253.169
944.404 227.998 0 251.618
1986.72 340.055 0 76.04
2936.81 664.872 0 93.146
1837.38 550.638 0 364.139
1943.27 460.588 0 179.305
962.048 159.223 0 131.646
1015.04 91.8074 0 -29.2052
3072.63 224.966 0 -95.891
3014.32 521.937 0 -12.0046
1002.92 121.654 0 37.1158
2034.84 172.474 0 -53.3944
3040.36 362.592 0 -65.7098
1986.72 340.055 0 76.04
2008.65 242.959 0 6.04896
1015.04 91.8074 0 -29.2052
1018.86 31.2883 0 -102.477
3102.75 74.4275 0 -113.588
3072.63 224.966 0 -95.891
1013.27 58.3883 0 -73.3019
2059.92 63.5491 0 -109.984
3101.06 134.635 0 -111.243
2034.84 172.474 0 -53.3944
2054.09 112.719 0 -92.2372
1018.86 31.2883 0 -102.477
1022.03 2.75824 0 -128.982
3079.67 4.23547 0 -107.166
3102.75 74.4275 0 -113.588
1025 14.6157 0 -120.143
2053.93 9.38368 0 -123.38
3090.16 31.0239 0 -109.921
2059.92 63.5491 0 -109.984
2058.63 30.2721 0 -118.267
1022.03 2.75824 0 -128.982
1011.17 -12.2666 0 -132.277
3052.18 -16.5813 0 -103.184
3079.67 4.23547 0 -107.166
1015.26 -6.70949 0 -132.076
2035.33 -13.7785 0 -122.566
3068.26 -9.55254 0 -105.205
2053.93 9.38368 0 -123.38
2045.75 -4.81151 0 -124.427
1011.17 -12.2666 0 -132.277
1002.01 -15.345 0 -128.191
3020.24 -21.8218 0 -101.009
3052.18 -16.5813 0 -103.184
1007.62 -14.4463 0 -130.705
2013.81 -19.3874 0 -118.713
3034.69 -20.6877 0 -101.521
2035.33 -13.7785 0 -122.566
2024.25 -18.1168 0 -120.313
1002.01 -15.345 0 -128.191
991.153 -15.6672 0 -122.765
2994.37 -19.4338 0 -101.415
3020.24 -21.8218 0 -101.009
995.879 -15.8772 0 -125.353
1994.3 -18.9277 0 -115.397
3007.34 -20.9353 0 -101.152
2013.81 -19.3874 0 -118.713
2003.77 -19.5125 0 -117.07
991.153 -15.6672 0 -122.765
982.76 -14.1638 0 -118.571
2971.02 -16.355 0 -102.507
2994.37 -19.4338 0 -101.415
987.066 -14.9263 0 -120.491
1977.49 -16.3989 0 -113.394
2981.97 -17.9608 0 -101.827
1994.3 -18.9277 0 -115.397
1985.52 -17.7847 0 -114.143
982.76 -14.1638 0 -118.571
974.985 -12.8787 0 -115.84
2951.18 -13.3482 0 -104.133
2971.02 -16.355 0 -102.507
978.586 -13.5285 0 -117.013
1963.05 -14.0063 0 -112.521
2960.96 -14.7361 0 -103.322
1977.49 -16.3989 0 -113.394
1970.03 -15.1289 0 -112.874
974.985 -12.8787 0 -115.84
968.455 -11.6931 0 -114.372
2932.88 -11.2656 0 -105.807
2951.18 -13.3482 0 -104.133
971.701 -12.2344 0 -114.979
1950.25 -12.1068 0 -112.468
2941.77 -12.2242 0 -104.953
1963.05 -14.0063 0 -112.521
1956.48 -12.9912 0 -112.394
968.455 -11.6931 0 -114.372
962.367 -10.8656 0 -113.742
2915.88 -9.79815 0 -107.513
2932.88 -11.2656 0 -105.807
965.315 -11.2541 0 -113.971
1938.48 -10.7884 0 -112.911
2924.31 -10.4494 0 -106.67
1950.25 -12.1068 0 -112.468
1944.27 -11.3804 0 -112.651
962.367 -10.8656 0 -113.742
956.729 -10.2251 0 -113.642
2899.44 -8.85709 0 -109.166
2915.88 -9.79815 0 -107.513
959.533 -10.518 0 -113.644
1927.33 -9.87965 0 -113.646
2907.58 -9.28137 0 -108.343
1938.48 -10.7884 0 -112.911
1932.85 -10.2923 0 -113.249
956.729 -10.2251 0 -113.642
951.262 -9.7529 0 -113.837
2883.38 -8.21447 0 -110.776
2899.44 -8.85709 0 -109.166
953.968 -9.97582 0 -113.712
1916.51 -9.25401 0 -114.527
2891.39 -8.50311 0 -109.978
1927.33 -9.87965 0 -113.646
1921.89 -9.53843 0 -114.076
951.262 -9.7529 0 -113.837
945.93 -9.36723 0 -114.192
2867.47 -7.76702 0 -112.337
2883.38 -8.21447 0 -110.776
948.59 -9.54985 0 -114.001
1905.86 -8.79593 0 -115.476
2875.41 -7.974 0 -111.562
1916.51 -9.25401 0 -114.527
1911.17 -9.00908 0 -114.996
945.93 -9.36723 0 -114.192
940.651 -9.04207 0 -114.621
2851.66 -7.42148 0 -113.857
2867.47 -7.76702 0 -112.337
943.283 -9.1997 0 -114.4
1895.31 -8.43689 0 -116.448
2859.56 -7.58405 0 -113.102
1905.86 -8.79593 0 -115.476
1900.58 -8.60707 0 -115.962
940.651 -9.04207 0 -114.621
935.407 -8.74822 0 -115.082
2835.88 -7.13464 0 -115.338
2851.66 -7.42148 0 -113.857
938.027 -8.89175 0 -114.85
1884.8 -8.13188 0 -117.418
2843.77 -7.27315 0 -114.602
1895.31 -8.43689 0 -116.448
1890.05 -8.27944 0 -116.934
935.407 -8.74822 0 -115.082
930.177 -8.4745 0 -115.552
2820.12 -6.8766 0 -116.784
2835.88 -7.13464 0 -115.338
932.79 -8.60962 0 -115.317
1874.31 -7.8565 0 -118.376
2828 -7.00288 0 -116.065
1884.8 -8.13188 0 -117.418
1879.55 -7.99148 0 -117.899
930.177 -8.4745 0 -115.552
924.956 -8.21186 0 -116.019
2804.36 -6.6339 0 -118.199
2820.12 -6.8766 0 -116.784
927.566 -8.34201 0 -115.786
1863.82 -7.59678 0 -119.318
2812.24 -6.75399 0 -117.496
1874.31 -7.8565 0 -118.376
1869.06 -7.72522 0 -118.849
924.956 -8.21186 0 -116.019
919.739 -7.9565 0 -116.479
2788.61 -6.39845 0 -119.584
2804.36 -6.6339 0 -118.199
922.347 -8.0835 0 -116.25
1853.34 -7.34558 0 -120.24
2796.48 -6.5155 0 -118.895
1863.82 -7.59678 0 -119.318
1858.58 -7.47039 0 -119.781
919.739 -7.9565 0 -116.479
914.523 -7.70573 0 -116.93
2772.85 -6.16676 0 -120.94
2788.61 -6.39845 0 -119.584
917.131 -7.83062 0 -116.706
1842.86 -7.09912 0 -121.144
2780.73 -6.2823 0 -120.266
1853.34 -7.34558 0 -120.24
1848.1 -7.2219 0 -120.695
914.523 -7.70573 0 -116.93
909.307 -7.45826 0 -117.372
2757.09 -5.93693 0 -122.269
2772.85 -6.16676 0 -120.94
911.915 -7.58165 0 -117.152
1832.38 -6.85551 0 -122.03
2764.97 -6.05167 0 -121.608
1842.86 -7.09912 0 -121.144
1837.62 -6.97703 0 -121.589
909.307 -7.45826 0 -117.372
904.092 -7.21323 0 -117.805
2741.33 -5.70815 0 -123.571
2757.09 -5.93693 0 -122.269
906.7 -7.33547 0 -117.59
1821.9 -6.61376 0 -122.897
2749.21 -5.82244 0 -122.924
1832.38 -6.85551 0 -122.03
1827.14 -6.73444 0 -122.465
904.092 -7.21323 0 -117.805
898.876 -6.97017 0 -118.228
2725.56 -5.48002 0 -124.847
2741.33 -5.70815 0 -123.571
901.484 -7.09148 0 -118.017
1811.41 -6.37338 0 -123.746
2733.44 -5.59402 0 -124.212
1821.9 -6.61376 0 -122.897
1816.66 -6.49342 0 -123.324
898.876 -6.97017 0 -118.228
893.66 -6.72874 0 -118.642
2709.8 -5.25239 0 -126.097
2725.56 -5.48002 0 -124.847
896.268 -6.84927 0 -118.436
1800.93 -6.13411 0 -124.578
2717.68 -5.36615 0 -125.475
1811.41 -6.37338 0 -123.746
1806.17 -6.25362 0 -124.164
893.66 -6.72874 0 -118.642
888.444 -6.48874 0 -119.048
2694.04 -5.02517 0 -127.321
2709.8 -5.25239 0 -126.097
891.052 -6.60857 0 -118.846
1790.45 -5.89578 0 -125.392
2701.92 -5.13873 0 -126.712
1800.93 -6.13411 0 -124.578
1795.69 -6.01483 0 -124.987
888.444 -6.48874 0 -119.048
883.227 -6.25003 0 -119.445
2678.27 -4.79834 0 -128.519
2694.04 -5.02517 0 -127.321
885.836 -6.36923 0 -119.247
1779.96 -5.65832 0 -126.19
2686.15 -4.9117 0 -127.923
1790.45 -5.89578 0 -125.392
1785.21 -5.77694 0 -125.793
883.227 -6.25003 0 -119.445
878.01 -6.01253 0 -119.833
2662.51 -4.5719 0 -129.693
2678.27 -4.79834 0 -128.519
880.619 -6.13113 0 -119.64
1769.48 -5.42169 0 -126.971
2670.39 -4.68507 0 -129.109
1779.96 -5.65832 0 -126.19
1774.72 -5.5399 0 -126.582
878.01 -6.01253 0 -119.833
872.792 -5.77618 0 -120.213
2646.74 -4.34588 0 -130.841
2662.51 -4.5719 0 -129.693
875.401 -5.89421 0 -120.024
1758.99 -5.18588 0 -127.735
2654.62 -4.45884 0 -130.27
1769.48 -5.42169 0 -126.971
1764.23 -5.30368 0 -127.355
872.792 -5.77618 0 -120.213
867.574 -5.54097 0 -120.585
2630.97 -4.12031 0 -131.965
2646.74 -4.34588 0 -130.841
870.183 -5.65844 0 -120.4
1748.51 -4.95088 0 -128.482
2638.86 -4.23304 0 -131.406
1758.99 -5.18588 0 -127.735
1753.75 -5.06827 0 -128.11
867.574 -5.54097 0 -120.585
862.356 -5.30689 0 -120.949
2615.21 -3.89521 0 -133.064
2630.97 -4.12031 0 -131.965
864.965 -5.42379 0 -120.768
1738.02 -4.7167 0 -129.213
2623.09 -4.00769 0 -132.517
1748.51 -4.95088 0 -128.482
1743.26 -4.83368 0 -128.849
862.356 -5.30689 0 -120.949
857.137 -5.07392 0 -121.304
2599.44 -3.67063 0 -134.138
2615.21 -3.89521 0 -133.064
859.746 -5.19026 0 -121.127
1727.53 -4.48338 0 -129.927
2607.32 -3.78285 0 -133.604
1738.02 -4.7167 0 -129.213
1732.78 -4.59993 0 -129.572
857.137 -5.07392 0 -121.304
851.918 -4.8421 0 -121.651
2583.67 -3.44661 0 -135.188
2599.44 -3.67063 0 -134.138
854.527 -4.95787 0 -121.478
1717.04 -4.25093 0 -130.626
2591.56 -3.55855 0 -134.666
1727.53 -4.48338 0 -129.927
1722.29 -4.36704 0 -130.279
851.918 -4.8421 0 -121.651
846.698 -4.61141 0 -121.99
2567.9 -3.2232 0 -136.214
2583.67 -3.44661 0 -135.188
849.308 -4.72661 0 -121.821
1706.56 -4.01938 0 -131.308
2575.79 -3.33482 0 -135.704
1717.04 -4.25093 0 -130.626
1711.8 -4.13504 0 -130.969
846.698 -4.61141 0 -121.99
841.479 -4.38189 0 -122.321
2552.14 -3.00043 0 -137.216
2567.9 -3.2232 0 -136.214
844.088 -4.49651 0 -122.156
1696.07 -3.78877 0 -131.974
2560.02 -3.11173 0 -136.718
1706.56 -4.01938 0 -131.308
1701.31 -3.90396 0 -131.643
841.479 -4.38189 0 -122.321
836.258 -4.15355 0 -122.644
2536.37 -2.77836 0 -138.194
2552.14 -3.00043 0 -137.216
838.869 -4.26757 0 -122.483
1685.58 -3.55912 0 -132.624
2544.25 -2.88931 0 -137.708
1696.07 -3.78877 0 -131.974
1690.82 -3.67382 0 -132.301
836.258 -4.15355 0 -122.644
831.038 -3.92639 0 -122.959
2520.6 -2.55703 0 -139.148
2536.37 -2.77836 0 -138.194
833.648 -4.03982 0 -122.802
1675.09 -3.33046 0 -133.258
2528.48 -2.6676 0 -138.674
1685.58 -3.55912 0 -132.624
1680.34 -3.44466 0 -132.943
831.038 -3.92639 0 -122.959
825.818 -3.70045 0 -123.265
2504.83 -2.33648 0 -140.078
2520.6 -2.55703 0 -139.148
828.428 -3.81327 0 -123.113
1664.6 -3.10282 0 -133.876
2512.71 -2.44666 0 -139.616
1675.09 -3.33046 0 -133.258
1669.85 -3.21651 0 -133.569
825.818 -3.70045 0 -123.265
820.597 -3.47573 0 -123.565
2489.06 -2.11676 0 -140.985
2504.83 -2.33648 0 -140.078
823.207 -3.58794 0 -123.416
1654.11 -2.87624 0 -134.479
2496.95 -2.22651 0 -140.534
1664.6 -3.10282 0 -133.876
1659.36 -2.9894 0 -134.18
820.597 -3.47573 0 -123.565
815.376 -3.25225 0 -123.856
2473.29 -1.89789 0 -141.868
2489.06 -2.11676 0 -140.985
817.986 -3.36383 0 -123.711
1643.63 -2.65073 0 -135.066
2481.18 -2.00721 0 -141.43
1654.11 -2.87624 0 -134.479
1648.87 -2.76335 0 -134.775
815.376 -3.25225 0 -123.856
810.155 -3.03002 0 -124.139
2457.53 -1.67993 0 -142.729
2473.29 -1.89789 0 -141.868
812.765 -3.14098 0 -123.999
1633.14 -2.42633 0 -135.638
2465.41 -1.7888 0 -142.301
1643.63 -2.65073 0 -135.066
1638.38 -2.53839 0 -135.354
810.155 -3.03002 0 -124.139
804.933 -2.80905 0 -124.415
2441.76 -1.46291 0 -143.566
2457.53 -1.67993 0 -142.729
807.544 -2.91938 0 -124.278
1622.65 -2.20306 0 -136.194
2449.64 -1.5713 0 -143.15
1633.14 -2.42633 0 -135.638
1627.89 -2.31455 0 -135.918
804.933 -2.80905 0 -124.415
799.712 -2.58937 0 -124.683
2425.99 -1.24688 0 -144.38
2441.76 -1.46291 0 -143.566
802.323 -2.69905 0 -124.55
1612.16 -1.98094 0 -136.735
2433.87 -1.35477 0 -143.976
1622.65 -2.20306 0 -136.194
1617.4 -2.09185 0 -136.467
799.712 -2.58937 0 -124.683
794.49 -2.37098 0 -124.944
2410.22 -1.03186 0 -145.172
2425.99 -1.24688 0 -144.38
797.101 -2.48001 0 -124.814
1601.67 -1.76002 0 -137.261
2418.11 -1.13924 0 -144.779
1612.16 -1.98094 0 -136.735
1606.91 -1.87033 0 -137
794.49 -2.37098 0 -124.944
789.269 -2.15389 0 -125.197
2394.45 -0.817901 0 -145.941
2410.22 -1.03186 0 -145.172
791.879 -2.26227 0 -125.071
1591.18 -1.54029 0 -137.772
2402.34 -0.924747 0 -145.559
1601.67 -1.76002 0 -137.261
1596.42 -1.65 0 -137.518
789.269 -2.15389 0 -125.197
784.047 -1.93812 0 -125.442
2378.69 -0.605031 0 -146.688
2394.45 -0.817901 0 -145.941
786.658 -2.04584 0 -125.32
1580.69 -1.32181 0 -138.268
2386.57 -0.711327 0 -146.317
1591.18 -1.54029 0 -137.772
1585.93 -1.43089 0 -138.021
784.047 -1.93812 0 -125.442
778.825 -1.72368 0 -125.68
2362.92 -0.393288 0 -147.412
2378.69 -0.605031 0 -146.688
781.436 -1.83073 0 -125.562
1570.2 -1.10457 0 -138.748
2370.8 -0.499016 0 -147.052
1580.69 -1.32181 0 -138.268
1575.45 -1.21303 0 -138.51
778.825 -1.72368 0 -125.68
773.602 -1.51058 0 -125.911
2347.15 -0.182705 0 -148.114
2362.92 -0.393288 0 -147.412
776.214 -1.61696 0 -125.796
1559.71 -0.888614 0 -139.214
2355.04 -0.287849 0 -147.766
1570.2 -1.10457 0 -138.748
1564.96 -0.996431 0 -138.983
773.602 -1.51058 0 -125.911
768.38 -1.29883 0 -126.134
2331.39 0.0266821 0 -148.794
2347.15 -0.182705 0 -148.114
770.991 -1.40453 0 -126.023
1549.22 -0.673959 0 -139.666
2339.27 -0.0778602 0 -148.457
1559.71 -0.888614 0 -139.214
1554.47 -0.781123 0 -139.442
768.38 -1.29883 0 -126.134
763.158 -1.08844 0 -126.35
2315.62 0.234842 0 -149.452
2331.39 0.0266821 0 -148.794
765.769 -1.19346 0 -126.243
1538.73 -0.460626 0 -140.103
2323.5 0.130918 0 -149.126
1549.22 -0.673959 0 -139.666
1543.98 -0.567126 0 -139.886
763.158 -1.08844 0 -126.35
757.936 -0.879425 0 -126.558
2299.86 0.441741 0 -150.089
2315.62 0.234842 0 -149.452
760.547 -0.98376 0 -126.455
1528.25 -0.248637 0 -140.525
2307.74 0.338451 0 -149.773
1538.73 -0.460626 0 -140.103
1533.49 -0.354462 0 -140.316
757.936 -0.879425 0 -126.558
752.713 -0.671794 0 -126.759
2284.09 0.647349 0 -150.704
2299.86 0.441741 0 -150.089
755.324 -0.775436 0 -126.66
1517.76 -0.0380137 0 -140.933
2291.97 0.544709 0 -150.399
1528.25 -0.248637 0 -140.525
1523 -0.143153 0 -140.731
752.713 -0.671794 0 -126.759
747.491 -0.465558 0 -126.954
2268.33 0.851634 0 -151.297
2284.09 0.647349 0 -150.704
750.102 -0.568501 0 -126.857
1507.27 0.171224 0 -141.327
2276.21 0.749659 0 -151.003
1517.76 -0.0380137 0 -140.933
1512.51 0.0667795 0 -141.132
747.491 -0.465558 0 -126.954
742.268 -0.260725 0 -127.141
2252.56 1.05457 0 -151.87
2268.33 0.851634 0 -151.297
744.879 -0.362965 0 -127.048
1496.78 0.379055 0 -141.706
2260.45 0.953271 0 -151.586
1507.27 0.171224 0 -141.327
1502.03 0.275316 0 -141.518
742.268 -0.260725 0 -127.141
737.046 -0.0573074 0 -127.321
2236.8 1.25612 0 -152.421
2252.56 1.05457 0 -151.87
739.657 -0.158839 0 -127.232
1486.29 0.58546 0 -142.072
2244.68 1.15552 0 -152.148
1496.78 0.379055 0 -141.706
1491.54 0.482437 0 -141.891
737.046 -0.0573074 0 -127.321
731.823 0.144687 0 -127.494
2221.04 1.45625 0 -152.951
2236.8 1.25612 0 -152.421
734.434 0.0438683 0 -127.408
1475.81 0.79042 0 -142.423
2228.92 1.35636 0 -152.689
1486.29 0.58546 0 -142.072
1481.05 0.688122 0 -142.249
731.823 0.144687 0 -127.494
726.601 0.345248 0 -127.66
2205.28 1.65495 0 -153.461
2221.04 1.45625 0 -152.951
729.212 0.245147 0 -127.578
1465.32 0.993916 0 -142.761
2213.16 1.55578 0 -153.209
1475.81 0.79042 0 -142.423
1470.56 0.892353 0 -142.594
726.601 0.345248 0 -127.66
721.378 0.544366 0 -127.819
2189.52 1.85218 0 -153.949
2205.28 1.65495 0 -153.461
723.989 0.444988 0 -127.74
1454.83 1.19593 0 -143.085
2197.4 1.75375 0 -153.708
1465.32 0.993916 0 -142.761
1460.08 1.09511 0 -142.924
721.378 0.544366 0 -127.819
716.156 0.742033 0 -127.972
2173.75 2.04792 0 -154.418
2189.52 1.85218 0 -153.949
718.767 0.643382 0 -127.896
1444.35 1.39644 0 -143.395
2181.63 1.95024 0 -154.186
1454.83 1.19593 0 -143.085
1449.59 1.29637 0 -143.241
716.156 0.742033 0 -127.972
710.933 0.93824 0 -128.117
2157.99 2.24213 0 -154.866
2173.75 2.04792 0 -154.418
713.544 0.84032 0 -128.045
1433.86 1.59544 0 -143.691
2165.87 2.14521 0 -154.644
1444.35 1.39644 0 -143.395
1439.1 1.49613 0 -143.545
710.933 0.93824 0 -128.117
705.711 1.13298 0 -128.256
2142.24 2.4348 0 -155.293
2157.99 2.24213 0 -154.866
708.322 1.03579 0 -128.187
1423.37 1.7929 0 -143.974
2150.12 2.33866 0 -155.082
1433.86 1.59544 0 -143.691
1428.62 1.69436 0 -143.835
705.711 1.13298 0 -128.256
700.488 1.32624 0 -128.388
2126.48 2.62589 0 -155.701
2142.24 2.4348 0 -155.293
703.099 1.22979 0 -128.323
1412.89 1.9888 0 -144.244
2134.36 2.53054 0 -155.5
1423.37 1.7929 0 -143.974
1418.13 1.89105 0 -144.111
700.488 1.32624 0 -128.388
695.266 1.51801 0 -128.513
2110.72 2.81539 0 -156.089
2126.48 2.62589 0 -155.701
697.877 1.42231 0 -128.451
1402.4 2.18314 0 -144.501
2118.6 2.72084 0 -155.898
1412.89 1.9888 0 -144.244
1407.65 2.08617 0 -144.374
695.266 1.51801 0 -128.513
690.044 1.7083 0 -128.632
2094.96 3.00327 0 -156.457
2110.72 2.81539 0 -156.089
692.655 1.61334 0 -128.574
1391.92 2.3759 0 -144.744
2102.84 2.90953 0 -156.275
1402.4 2.18314 0 -144.501
1397.16 2.27972 0 -144.624
690.044 1.7083 0 -128.632
684.821 1.89708 0 -128.744
2079.21 3.1895 0 -156.805
2094.96 3.00327 0 -156.457
687.432 1.80288 0 -128.689
1381.43 2.56705 0 -144.974
2087.09 3.09659 0 -156.634
1391.92 2.3759 0 -144.744
1386.68 2.47168 0 -144.861
684.821 1.89708 0 -128.744
679.599 2.08435 0 -128.85
2063.45 3.37407 0 -157.134
2079.21 3.1895 0 -156.805
682.21 1.9909 0 -128.798
1370.95 2.75659 0 -145.191
2071.33 3.282 0 -156.972
1381.43 2.56705 0 -144.974
1376.19 2.66202 0 -145.084
679.599 2.08435 0 -128.85
674.377 2.27011 0 -128.95
2047.7 3.55695 0 -157.444
2063.45 3.37407 0 -157.134
676.988 2.17742 0 -128.901
1360.47 2.9445 0 -145.396
2055.58 3.46572 0 -157.292
1370.95 2.75659 0 -145.191
1365.71 2.85075 0 -145.295
674.377 2.27011 0 -128.95
669.155 2.45434 0 -129.043
2031.95 3.73812 0 -157.734
2047.7 3.55695 0 -157.444
671.766 2.36242 0 -128.997
1349.98 3.13077 0 -145.587
2039.82 3.64775 0 -157.592
1360.47 2.9445 0 -145.396
1355.23 3.03784 0 -145.493
669.155 2.45434 0 -129.043
663.933 2.63705 0 -129.129
2016.19 3.91756 0 -158.006
2031.95 3.73812 0 -157.734
666.544 2.54589 0 -129.087
1339.5 3.31538 0 -145.766
2024.07 3.82806 0 -157.873
1349.98 3.13077 0 -145.587
1344.74 3.22328 0 -145.678
663.933 2.63705 0 -129.129
658.712 2.81821 0 -129.209
2000.44 4.09525 0 -158.258
2016.19 3.91756 0 -158.006
661.322 2.72782 0 -129.17
1329.02 3.49831 0 -145.932
2008.32 4.00662 0 -158.135
1339.5 3.31538 0 -145.766
1334.26 3.40706 0 -145.851
658.712 2.81821 0 -129.209
653.49 2.99784 0 -129.283
1984.69 4.27116 0 -158.492
2000.44 4.09525 0 -158.258
656.101 2.90822 0 -129.247
1318.54 3.67957 0 -146.086
1992.57 4.18343 0 -158.378
1329.02 3.49831 0 -145.932
1323.78 3.58915 0 -146.011
653.49 2.99784 0 -129.283
648.268 3.17591 0 -129.351
1968.94 4.44529 0 -158.708
1984.69 4.27116 0 -158.492
650.879 3.08707 0 -129.318
1308.06 3.85912 0 -146.228
1976.82 4.35845 0 -158.602
1318.54 3.67957 0 -146.086
1313.3 3.76956 0 -146.158
648.268 3.17591 0 -129.351
643.047 3.35243 0 -129.413
1953.19 4.61761 0 -158.905
1968.94 4.44529 0 -158.708
645.658 3.26437 0 -129.383
1297.58 4.03697 0 -146.357
1961.07 4.53168 0 -158.808
1308.06 3.85912 0 -146.228
1302.82 3.94826 0 -146.294
643.047 3.35243 0 -129.413
637.826 3.52739 0 -129.469
1937.45 4.7881 0 -159.083
1953.19 4.61761 0 -158.905
640.436 3.44011 0 -129.442
1287.1 4.2131 0 -146.474
1945.32 4.70309 0 -158.996
1297.58 4.03697 0 -146.357
1292.34 4.12525 0 -146.417
637.826 3.52739 0 -129.469
632.604 3.70078 0 -129.518
1921.7 4.95675 0 -159.244
1937.45 4.7881 0 -159.083
635.215 3.61428 0 -129.494
1276.62 4.38749 0 -146.579
1929.57 4.87266 0 -159.166
1287.1 4.2131 0 -146.474
1281.86 4.30051 0 -146.528
632.604 3.70078 0 -129.518
627.383 3.8726 0 -129.562
1905.96 5.12354 0 -159.386
1921.7 4.95675 0 -159.244
629.994 3.78689 0 -129.541
1266.14 4.56014 0 -146.672
1913.83 5.04038 0 -159.317
1276.62 4.38749 0 -146.579
1271.38 4.47403 0 -146.627
627.383 3.8726 0 -129.562
622.163 4.04284 0 -129.599
1890.21 5.28846 0 -159.511
1905.96 5.12354 0 -159.386
624.773 3.95792 0 -129.581
1255.66 4.73103 0 -146.753
1898.08 5.20624 0 -159.451
1266.14 4.56014 0 -146.672
1260.9 4.6458 0 -146.714
622.163 4.04284 0 -129.599
616.942 4.2115 0 -129.631
1874.47 5.45148 0 -159.618
1890.21 5.28846 0 -159.511
619.552 4.12737 0 -129.616
1245.18 4.90016 0 -146.822
1882.34 5.3702 0 -159.567
1255.66 4.73103 0 -146.753
1250.42 4.81582 0 -146.789
616.942 4.2115 0 -129.631
611.721 4.37856 0 -129.657
1858.73 5.61259 0 -159.708
1874.47 5.45148 0 -159.618
614.331 4.29523 0 -129.645
1234.71 5.06751 0 -146.88
1866.6 5.53227 0 -159.665
1245.18 4.90016 0 -146.822
1239.95 4.98406 0 -146.852
611.721 4.37856 0 -129.657
606.501 4.54404 0 -129.677
1842.99 5.77178 0 -159.78
1858.73 5.61259 0 -159.708
609.111 4.4615 0 -129.668
1224.23 5.23308 0 -146.926
1850.86 5.69243 0 -159.746
1234.71 5.06751 0 -146.88
1229.47 5.15052 0 -146.904
606.501 4.54404 0 -129.677
601.281 4.70792 0 -129.692
1827.25 5.92904 0 -159.835
1842.99 5.77178 0 -159.78
603.891 4.62618 0 -129.685
1213.76 5.39686 0 -146.96
1835.12 5.85065 0 -159.81
1224.23 5.23308 0 -146.926
1218.99 5.3152 0 -146.944
601.281 4.70792 0 -129.692
596.061 4.87019 0 -129.7
1811.51 6.08434 0 -159.873
1827.25 5.92904 0 -159.835
598.671 4.78925 0 -129.697
1203.28 5.55883 0 -146.984
1819.38 6.00693 0 -159.856
1213.76 5.39686 0 -146.96
1208.52 5.47807 0 -146.973
596.061 4.87019 0 -129.7
590.841 5.03086 0 -129.703
1795.77 6.23769 0 -159.894
1811.51 6.08434 0 -159.873
593.451 4.95073 0 -129.703
1192.81 5.71899 0 -146.995
1803.64 6.16126 0 -159.886
1203.28 5.55883 0 -146.984
1198.04 5.63914 0 -146.991
590.841 5.03086 0 -129.703
585.621 5.18992 0 -129.701
1780.04 6.38905 0 -159.898
1795.77 6.23769 0 -159.894
588.231 5.11059 0 -129.703
1182.33 5.87733 0 -146.996
1787.91 6.31362 0 -159.898
1192.81 5.71899 0 -146.995
1187.57 5.79839 0 -146.997
585.621 5.18992 0 -129.701
580.401 5.34736 0 -129.693
1764.3 6.53844 0 -159.886
1780.04 6.38905 0 -159.898
583.011 5.26884 0 -129.698
1171.86 6.03384 0 -146.986
1772.17 6.46399 0 -159.894
1182.33 5.87733 0 -146.996
1177.1 5.95581 0 -146.992
580.401 5.34736 0 -129.693
575.182 5.50319 0 -129.679
1748.57 6.68582 0 -159.857
1764.3 6.53844 0 -159.886
577.792 5.42548 0 -129.687
1161.39 6.18851 0 -146.965
1756.44 6.61238 0 -159.873
1171.86 6.03384 0 -146.986
1166.62 6.11141 0 -146.977
575.182 5.50319 0 -129.679
569.963 5.65739 0 -129.66
1732.84 6.83119 0 -159.812
1748.57 6.68582 0 -159.857
572.572 5.58049 0 -129.67
1150.92 6.34135 0 -146.932
1740.7 6.75876 0 -159.836
1161.39 6.18851 0 -146.965
1156.15 6.26516 0 -146.95
569.963 5.65739 0 -129.66
564.744 5.80997 0 -129.636
1717.11 6.97455 0 -159.75
1732.84 6.83119 0 -159.812
567.353 5.73388 0 -129.649
1140.45 6.49233 0 -146.889
1724.97 6.90312 0 -159.783
1150.92 6.34135 0 -146.932
1145.68 6.41707 0 -146.912
564.744 5.80997 0 -129.636
559.525 5.96092 0 -129.606
1701.38 7.11587 0 -159.673
1717.11 6.97455 0 -159.75
562.135 5.88565 0 -129.622
1129.98 6.64146 0 -146.836
1709.24 7.04547 0 -159.714
1140.45 6.49233 0 -146.889
1135.21 6.56713 0 -146.864
559.525 5.96092 0 -129.606
554.307 6.11024 0 -129.571
1685.65 7.25516 0 -159.58
1701.38 7.11587 0 -159.673
556.916 6.03578 0 -129.589
1119.51 6.78872 0 -146.772
1693.51 7.18577 0 -159.628
1129.98 6.64146 0 -146.836
1124.74 6.71532 0 -146.805
554.307 6.11024 0 -129.571
549.088 6.25792 0 -129.531
1669.92 7.3924 0 -159.471
1685.65 7.25516 0 -159.58
551.697 6.18429 0 -129.552
1109.04 6.93412 0 -146.697
1677.79 7.32404 0 -159.527
1119.51 6.78872 0 -146.772
1114.27 6.86165 0 -146.736
549.088 6.25792 0 -129.531
543.87 6.40397 0 -129.486
1654.2 7.52758 0 -159.346
1669.92 7.3924 0 -159.471
546.479 6.33115 0 -129.509
1098.57 7.07764 0 -146.612
1662.06 7.46025 0 -159.41
1109.04 6.93412 0 -146.697
1103.8 7.00611 0 -146.656
543.87 6.40397 0 -129.486
538.652 6.54838 0 -129.435
1638.47 7.6607 0 -159.206
1654.2 7.52758 0 -159.346
541.261 6.47638 0 -129.461
1088.1 7.21928 0 -146.516
1646.33 7.5944 0 -159.278
1098.57 7.07764 0 -146.612
1093.33 7.1487 0 -146.565
538.652 6.54838 0 -129.435
533.434 6.69114 0 -129.379
1622.75 7.79175 0 -159.051
1638.47 7.6607 0 -159.206
536.043 6.61997 0 -129.408
1077.63 7.35904 0 -146.411
1630.61 7.72649 0 -159.131
1088.1 7.21928 0 -146.516
1082.87 7.2894 0 -146.465
533.434 6.69114 0 -129.379
528.217 6.83226 0 -129.319
1607.03 7.92072 0 -158.881
1622.75 7.79175 0 -159.051
530.826 6.76191 0 -129.35
1067.17 7.49691 0 -146.295
1614.89 7.8565 0 -158.968
1077.63 7.35904 0 -146.411
1072.4 7.42821 0 -146.354
528.217 6.83226 0 -129.319
523 6.97174 0 -129.253
1591.31 8.04761 0 -158.695
1607.03 7.92072 0 -158.881
525.608 6.90221 0 -129.287
1056.7 7.63289 0 -146.17
1599.17 7.98442 0 -158.79
1067.17 7.49691 0 -146.295
1061.94 7.56514 0 -146.234
523 6.97174 0 -129.253
517.783 7.10957 0 -129.183
1575.59 8.1724 0 -158.495
1591.31 8.04761 0 -158.695
520.391 7.04086 0 -129.219
1046.24 7.76697 0 -146.034
1583.45 8.11026 0 -158.597
1056.7 7.63289 0 -146.17
1051.47 7.70017 0 -146.103
517.783 7.10957 0 -129.183
512.566 7.24574 0 -129.107
1559.87 8.2951 0 -158.28
1575.59 8.1724 0 -158.495
515.174 7.17786 0 -129.146
1035.77 7.89915 0 -145.889
1567.73 8.23401 0 -158.389
1046.24 7.76697 0 -146.034
1041.01 7.8333 0 -145.963
512.566 7.24574 0 -129.107
507.349 7.38027 0 -129.027
1544.15 8.41569 0 -158.051
1559.87 8.2951 0 -158.28
509.957 7.31321 0 -129.068
1025.31 8.02943 0 -145.734
1552.01 8.35566 0 -158.167
1035.77 7.89915 0 -145.889
1030.54 7.96453 0 -145.813
507.349 7.38027 0 -129.027
502.133 7.51314 0 -128.942
1528.44 8.53419 0 -157.807
1544.15 8.41569 0 -158.051
504.741 7.44691 0 -128.985
1014.85 8.1578 0 -145.569
1536.29 8.4752 0 -157.93
1025.31 8.02943 0 -145.734
1020.08 8.09385 0 -145.653
502.133 7.51314 0 -128.942
496.916 7.64436 0 -128.852
1512.72 8.65057 0 -157.549
1528.44 8.53419 0 -157.807
499.524 7.57895 0 -128.898
1004.39 8.28426 0 -145.395
1520.58 8.59264 0 -157.679
1014.85 8.1578 0 -145.569
1009.62 8.22127 0 -145.484
496.916 7.64436 0 -128.852
491.7 7.77392 0 -128.758
1497.01 8.76483 0 -157.276
1512.72 8.65057 0 -157.549
494.308 7.70934 0 -128.805
993.926 8.4088 0 -145.212
1504.87 8.70796 0 -157.414
1004.39 8.28426 0 -145.395
999.157 8.34677 0 -145.305
491.7 7.77392 0 -128.758
486.485 7.90182 0 -128.658
1481.3 8.87698 0 -156.99
1497.01 8.76483 0 -157.276
489.093 7.83808 0 -128.709
983.466 8.53144 0 -145.019
1489.15 8.82117 0 -157.135
993.926 8.4088 0 -145.212
988.696 8.47036 0 -145.117
486.485 7.90182 0 -128.658
481.269 8.02807 0 -128.555
1465.59 8.98701 0 -156.69
1481.3 8.87698 0 -156.99
483.877 7.96515 0 -128.607
973.007 8.65215 0 -144.817
1473.44 8.93226 0 -156.842
983.466 8.53144 0 -145.019
978.236 8.59203 0 -144.92
481.269 8.02807 0 -128.555
476.054 8.15266 0 -128.447
1449.88 9.09492 0 -156.377
1465.59 8.98701 0 -156.69
478.661 8.09057 0 -128.501
962.548 8.77095 0 -144.606
1457.73 9.04123 0 -156.535
973.007 8.65215 0 -144.817
967.777 8.71179 0 -144.713
476.054 8.15266 0 -128.447
470.839 8.27559 0 -128.334
1434.17 9.2007 0 -156.05
1449.88 9.09492 0 -156.377
473.446 8.21433 0 -128.391
952.09 8.88783 0 -144.386
1442.03 9.14807 0 -156.215
962.548 8.77095 0 -144.606
957.319 8.82963 0 -144.498
470.839 8.27559 0 -128.334
465.624 8.39686 0 -128.217
1418.47 9.30435 0 -155.709
1434.17 9.2007 0 -156.05
468.231 8.33643 0 -128.276
941.633 9.00279 0 -144.158
1426.32 9.25279 0 -155.881
952.09 8.88783 0 -144.386
946.862 8.94555 0 -144.273
465.624 8.39686 0 -128.217
460.409 8.51647 0 -128.095
1402.76 9.40588 0 -155.356
1418.47 9.30435 0 -155.709
463.016 8.45687 0 -128.157
931.177 9.11583 0 -143.92
1410.61 9.35538 0 -155.534
941.633 9.00279 0 -144.158
936.405 9.05955 0 -144.04
460.409 8.51647 0 -128.095
455.195 8.63442 0 -127.969
1387.06 9.50528 0 -154.989
1402.76 9.40588 0 -155.356
457.802 8.57565 0 -128.033
920.721 9.22695 0 -143.674
1394.91 9.45585 0 -155.174
931.177 9.11583 0 -143.92
925.949 9.17163 0 -143.798
455.195 8.63442 0 -127.969
449.981 8.75071 0 -127.839
1371.36 9.60255 0 -154.609
1387.06 9.50528 0 -154.989
452.588 8.69277 0 -127.905
910.266 9.33614 0 -143.419
1379.21 9.55418 0 -154.801
920.721 9.22695 0 -143.674
915.493 9.28179 0 -143.547
449.981 8.75071 0 -127.839
444.767 8.86534 0 -127.705
1355.66 9.6977 0 -154.217
1371.36 9.60255 0 -154.609
447.374 8.80823 0 -127.773
899.812 9.44342 0 -143.155
1363.51 9.65039 0 -154.415
910.266 9.33614 0 -143.419
905.039 9.39002 0 -143.288
444.767 8.86534 0 -127.705
439.553 8.97831 0 -127.566
1339.96 9.79071 0 -153.812
1355.66 9.6977 0 -154.217
442.16 8.92203 0 -127.636
889.358 9.54877 0 -142.883
1347.81 9.74447 0 -154.016
899.812 9.44342 0 -143.155
894.585 9.49633 0 -143.02
439.553 8.97831 0 -127.566
434.339 9.08962 0 -127.424
1324.26 9.8816 0 -153.395
1339.96 9.79071 0 -153.812
436.946 9.03417 0 -127.496
878.906 9.6522 0 -142.603
1332.11 9.83642 0 -153.605
889.358 9.54877 0 -142.883
884.132 9.60073 0 -142.744
434.339 9.08962 0 -127.424
429.126 9.19927 0 -127.277
1308.56 9.97036 0 -152.965
1324.26 9.8816 0 -153.395
431.733 9.14465 0 -127.351
868.454 9.75372 0 -142.315
1316.41 9.92625 0 -153.181
878.906 9.6522 0 -142.603
873.679 9.7032 0 -142.46
429.126 9.19927 0 -127.277
423.913 9.30727 0 -127.126
1292.87 10.057 0 -152.523
1308.56 9.97036 0 -152.965
426.519 9.25348 0 -127.202
858.002 9.85331 0 -142.019
1300.71 10.0139 0 -152.745
868.454 9.75372 0 -142.315
863.228 9.80375 0 -142.168
423.913 9.30727 0 -127.126
418.7 9.4136 0 -126.971
1277.17 10.1415 0 -152.069
1292.87 10.057 0 -152.523
421.306 9.36064 0 -127.049
847.552 9.95099 0 -141.714
1285.02 10.0995 0 -152.297
858.002 9.85331 0 -142.019
852.777 9.90239 0 -141.867
418.7 9.4136 0 -126.971
413.487 9.51828 0 -126.813
1261.48 10.2239 0 -151.603
1277.17 10.1415 0 -152.069
416.094 9.46615 0 -126.893
837.102 10.0467 0 -141.402
1269.33 10.183 0 -151.837
847.552 9.95099 0 -141.714
842.327 9.99911 0 -141.559
413.487 9.51828 0 -126.813
408.275 9.62131 0 -126.65
1245.79 10.3042 0 -151.125
1261.48 10.2239 0 -151.603
410.881 9.57 0 -126.732
826.653 10.1406 0 -141.082
1253.63 10.2643 0 -151.366
837.102 10.0467 0 -141.402
831.877 10.0939 0 -141.243
408.275 9.62131 0 -126.65
403.063 9.72268 0 -126.484
1230.1 10.3824 0 -150.636
1245.79 10.3042 0 -151.125
405.669 9.6722 0 -126.567
816.205 10.2325 0 -140.754
1237.94 10.3435 0 -150.882
826.653 10.1406 0 -141.082
821.429 10.1868 0 -140.919
403.063 9.72268 0 -126.484
397.851 9.8224 0 -126.314
1214.41 10.4584 0 -150.136
1230.1 10.3824 0 -150.636
400.457 9.77274 0 -126.399
805.757 10.3226 0 -140.418
1222.25 10.4206 0 -150.387
816.205 10.2325 0 -140.754
810.981 10.2778 0 -140.587
397.851 9.8224 0 -126.314
392.639 9.92046 0 -126.14
1198.72 10.5323 0 -149.624
1214.41 10.4584 0 -150.136
395.245 9.87164 0 -126.227
795.31 10.4107 0 -140.076
1206.56 10.4956 0 -149.881
805.757 10.3226 0 -140.418
800.533 10.3669 0 -140.248
392.639 9.92046 0 -126.14
387.427 10.0169 0 -125.962
1183.04 10.6042 0 -149.101
1198.72 10.5323 0 -149.624
390.033 9.96887 0 -126.051
784.864 10.4969 0 -139.725
1190.88 10.5685 0 -149.364
795.31 10.4107 0 -140.076
790.087 10.454 0 -139.901
387.427 10.0169 0 -125.962
382.216 10.1116 0 -125.781
1167.35 10.6739 0 -148.567
1183.04 10.6042 0 -149.101
384.822 10.0645 0 -125.872
774.418 10.5812 0 -139.367
1175.19 10.6393 0 -148.835
784.864 10.4969 0 -139.725
779.641 10.5393 0 -139.547
382.216 10.1116 0 -125.781
377.005 10.2048 0 -125.596
1151.67 10.7416 0 -148.022
1167.35 10.6739 0 -148.567
379.61 10.1584 0 -125.689
763.974 10.6636 0 -139.003
1159.51 10.708 0 -148.296
774.418 10.5812 0 -139.367
769.196 10.6227 0 -139.186
377.005 10.2048 0 -125.596
371.794 10.2962 0 -125.408
1135.98 10.8071 0 -147.466
1151.67 10.7416 0 -148.022
374.399 10.2507 0 -125.502
753.53 10.7441 0 -138.631
1143.83 10.7746 0 -147.746
763.974 10.6636 0 -139.003
758.751 10.7041 0 -138.817
371.794 10.2962 0 -125.408
366.583 10.3861 0 -125.216
1120.3 10.8706 0 -146.9
1135.98 10.8071 0 -147.466
369.188 10.3414 0 -125.312
743.086 10.8228 0 -138.252
1128.14 10.8391 0 -147.185
753.53 10.7441 0 -138.631
748.308 10.7837 0 -138.442
366.583 10.3861 0 -125.216
361.372 10.4742 0 -125.02
1104.62 10.932 0 -146.324
1120.3 10.8706 0 -146.9
363.978 10.4304 0 -125.118
732.643 10.8995 0 -137.866
1112.46 10.9016 0 -146.613
743.086 10.8228 0 -138.252
737.865 10.8614 0 -138.059
361.372 10.4742 0 -125.02
356.162 10.5608 0 -124.822
1088.94 10.9914 0 -145.737
1104.62 10.932 0 -146.324
358.767 10.5177 0 -124.921
722.201 10.9744 0 -137.473
1096.78 10.962 0 -146.032
732.643 10.8995 0 -137.866
727.422 10.9372 0 -137.67
356.162 10.5608 0 -124.822
350.952 10.6457 0 -124.62
1073.27 11.0486 0 -145.14
1088.94 10.9914 0 -145.737
353.557 10.6035 0 -124.721
711.76 11.0474 0 -137.073
1081.11 11.0203 0 -145.44
722.201 10.9744 0 -137.473
716.981 11.0111 0 -137.274
350.952 10.6457 0 -124.62
345.742 10.729 0 -124.414
1057.59 11.1038 0 -144.534
1073.27 11.0486 0 -145.14
348.347 10.6875 0 -124.517
701.32 11.1185 0 -136.667
1065.43 11.0765 0 -144.838
711.76 11.0474 0 -137.073
706.54 11.0832 0 -136.871
345.742 10.729 0 -124.414
340.532 10.8106 0 -124.206
1041.92 11.157 0 -143.917
1057.59 11.1038 0 -144.534
343.137 10.77 0 -124.311
690.88 11.1877 0 -136.255
1049.75 11.1307 0 -144.226
701.32 11.1185 0 -136.667
696.099 11.1533 0 -136.462
340.532 10.8106 0 -124.206
335.322 10.8906 0 -123.994
1026.24 11.2081 0 -143.291
1041.92 11.157 0 -143.917
337.927 10.8508 0 -124.1
680.44 11.2551 0 -135.836
1034.08 11.1828 0 -143.605
690.88 11.1877 0 -136.255
685.66 11.2216 0 -136.046
335.322 10.8906 0 -123.994
330.113 10.969 0 -123.779
1010.57 11.2572 0 -142.655
1026.24 11.2081 0 -143.291
332.718 10.93 0 -123.887
670.002 11.3206 0 -135.41
1018.41 11.2329 0 -142.974
680.44 11.2551 0 -135.836
675.221 11.2881 0 -135.624
330.113 10.969 0 -123.779
324.904 11.0458 0 -123.561
994.899 11.3042 0 -142.01
1010.57 11.2572 0 -142.655
327.508 11.0076 0 -123.671
659.564 11.3843 0 -134.979
1002.73 11.281 0 -142.333
670.002 11.3206 0 -135.41
664.783 11.3527 0 -135.195
324.904 11.0458 0 -123.561
319.694 11.1209 0 -123.34
979.229 11.3493 0 -141.355
994.899 11.3042 0 -142.01
322.299 11.0836 0 -123.451
649.126 11.4461 0 -134.541
987.063 11.327 0 -141.684
659.564 11.3843 0 -134.979
654.345 11.4154 0 -134.761
319.694 11.1209 0 -123.34
314.485 11.1944 0 -123.116
963.56 11.3923 0 -140.692
979.229 11.3493 0 -141.355
317.09 11.1579 0 -123.229
638.69 11.5061 0 -134.097
971.394 11.371 0 -141.025
649.126 11.4461 0 -134.541
643.908 11.4763 0 -134.32
314.485 11.1944 0 -123.116
309.277 11.2664 0 -122.889
947.892 11.4333 0 -140.019
963.56 11.3923 0 -140.692
311.881 11.2306 0 -123.003
628.253 11.5642 0 -133.647
955.726 11.4131 0 -140.357
638.69 11.5061 0 -134.097
633.471 11.5354 0 -133.873
309.277 11.2664 0 -122.889
304.068 11.3366 0 -122.66
932.225 11.4724 0 -139.338
947.892 11.4333 0 -140.019
306.672 11.3017 0 -122.775
617.818 11.6205 0 -133.192
940.058 11.4531 0 -139.68
628.253 11.5642 0 -133.647
623.036 11.5926 0 -133.42
304.068 11.3366 0 -122.66
298.86 11.4053 0 -122.427
916.56 11.5094 0 -138.648
932.225 11.4724 0 -139.338
301.464 11.3712 0 -122.544
607.383 11.675 0 -132.731
924.392 11.4911 0 -138.994
617.818 11.6205 0 -133.192
612.6 11.648 0 -132.962
298.86 11.4053 0 -122.427
293.651 11.4724 0 -122.191
900.895 11.5445 0 -137.95
916.56 11.5094 0 -138.648
296.255 11.4391 0 -122.31
596.949 11.7277 0 -132.264
908.727 11.5272 0 -138.3
607.383 11.675 0 -132.731
602.166 11.7016 0 -132.498
293.651 11.4724 0 -122.191
288.443 11.5379 0 -121.953
885.232 11.5776 0 -137.243
900.895 11.5445 0 -137.95
291.047 11.5053 0 -122.073
586.515 11.7785 0 -131.791
893.064 11.5613 0 -137.598
596.949 11.7277 0 -132.264
591.732 11.7533 0 -132.028
288.443 11.5379 0 -121.953
283.235 11.6018 0 -121.712
869.57 11.6087 0 -136.528
885.232 11.5776 0 -137.243
285.839 11.57 0 -121.833
576.082 11.8276 0 -131.313
877.401 11.5934 0 -136.887
586.515 11.7785 0 -131.791
581.299 11.8033 0 -131.553
283.235 11.6018 0 -121.712
278.027 11.664 0 -121.469
853.909 11.6379 0 -135.805
869.57 11.6087 0 -136.528
280.631 11.6331 0 -121.591
565.65 11.8749 0 -130.83
861.739 11.6236 0 -136.168
576.082 11.8276 0 -131.313
570.866 11.8515 0 -131.072
278.027 11.664 0 -121.469
272.819 11.7247 0 -121.223
838.249 11.6652 0 -135.074
853.909 11.6379 0 -135.805
275.423 11.6946 0 -121.346
555.218 11.9203 0 -130.341
846.079 11.6518 0 -135.441
565.65 11.8749 0 -130.83
560.434 11.8978 0 -130.586
272.819 11.7247 0 -121.223
267.612 11.7838 0 -120.974
822.59 11.6906 0 -134.336
838.249 11.6652 0 -135.074
270.216 11.7545 0 -121.099
544.786 11.964 0 -129.848
830.419 11.6781 0 -134.706
555.218 11.9203 0 -130.341
550.002 11.9424 0 -130.095
267.612 11.7838 0 -120.974
262.404 11.8413 0 -120.723
806.932 11.714 0 -133.59
822.59 11.6906 0 -134.336
265.008 11.8128 0 -120.849
534.356 12.0059 0 -129.349
814.761 11.7025 0 -133.964
544.786 11.964 0 -129.848
539.571 11.9852 0 -129.599
262.404 11.8413 0 -120.723
257.197 11.8973 0 -120.469
791.275 11.7356 0 -132.836
806.932 11.714 0 -133.59
259.801 11.8695 0 -120.596
523.925 12.0461 0 -128.845
799.104 11.725 0 -133.214
534.356 12.0059 0 -129.349
529.14 12.0262 0 -129.098
257.197 11.8973 0 -120.469
251.99 11.9516 0 -120.213
775.62 11.7552 0 -132.075
791.275 11.7356 0 -132.836
254.593 11.9247 0 -120.341
513.496 12.0845 0 -128.336
783.447 11.7457 0 -132.456
523.925 12.0461 0 -128.845
518.71 12.0655 0 -128.591
251.99 11.9516 0 -120.213
246.783 12.0044 0 -119.955
759.965 11.773 0 -131.307
775.62 11.7552 0 -132.075
249.386 11.9782 0 -120.084
503.066 12.1211 0 -127.823
767.792 11.7644 0 -131.692
513.496 12.0845 0 -128.336
508.281 12.103 0 -128.08
246.783 12.0044 0 -119.955
241.576 12.0556 0 -119.694
744.311 11.789 0 -130.531
759.965 11.773 0 -131.307
244.179 12.0302 0 -119.825
492.638 12.156 0 -127.305
752.138 11.7812 0 -130.92
503.066 12.1211 0 -127.823
497.852 12.1388 0 -127.565
241.576 12.0556 0 -119.694
236.369 12.1053 0 -119.431
728.658 11.803 0 -129.749
744.311 11.789 0 -130.531
238.972 12.0807 0 -119.563
482.21 12.1891 0 -126.783
736.484 11.7962 0 -130.141
492.638 12.156 0 -127.305
487.424 12.1728 0 -127.044
236.369 12.1053 0 -119.431
231.162 12.1534 0 -119.166
713.006 11.8153 0 -128.96
728.658 11.803 0 -129.749
233.765 12.1295 0 -119.299
471.782 12.2206 0 -126.255
720.832 11.8094 0 -129.356
482.21 12.1891 0 -126.783
476.996 12.2051 0 -126.52
231.162 12.1534 0 -119.166
225.955 12.1999 0 -118.898
697.355 11.8257 0 -128.165
713.006 11.8153 0 -128.96
228.558 12.1768 0 -119.032
461.355 12.2503 0 -125.724
705.181 11.8207 0 -128.563
471.782 12.2206 0 -126.255
466.568 12.2356 0 -125.99
225.955 12.1999 0 -118.898
220.748 12.2449 0 -118.629
681.706 11.8343 0 -127.363
697.355 11.8257 0 -128.165
223.352 12.2226 0 -118.764
450.928 12.2783 0 -125.188
689.53 11.8302 0 -127.765
461.355 12.2503 0 -125.724
456.141 12.2645 0 -125.457
220.748 12.2449 0 -118.629
215.542 12.2883 0 -118.358
666.057 11.8411 0 -126.555
681.706 11.8343 0 -127.363
218.145 12.2668 0 -118.494
440.502 12.3046 0 -124.648
673.881 11.8379 0 -126.959
450.928 12.2783 0 -125.188
445.715 12.2917 0 -124.919
215.542 12.2883 0 -118.358
210.335 12.3302 0 -118.084
650.408 11.8461 0 -125.74
666.057 11.8411 0 -126.555
212.939 12.3095 0 -118.221
430.076 12.3292 0 -124.104
658.232 11.8438 0 -126.148
440.502 12.3046 0 -124.648
435.289 12.3171 0 -124.377
210.335 12.3302 0 -118.084
205.129 12.3706 0 -117.809
634.761 11.8493 0 -124.92
650.408 11.8461 0 -125.74
207.732 12.3506 0 -117.947
419.651 12.3521 0 -123.556
642.585 11.8479 0 -125.331
430.076 12.3292 0 -124.104
424.863 12.3409 0 -123.831
205.129 12.3706 0 -117.809
199.923 12.4094 0 -117.531
619.115 11.8508 0 -124.093
634.761 11.8493 0 -124.92
202.526 12.3902 0 -117.67
409.226 12.3734 0 -123.005
626.938 11.8503 0 -124.507
419.651 12.3521 0 -123.556
414.438 12.363 0 -123.281
199.923 12.4094 0 -117.531
194.716 12.4467 0 -117.252
603.469 11.8505 0 -123.261
619.115 11.8508 0 -124.093
197.32 12.4282 0 -117.392
398.801 12.393 0 -122.449
611.292 11.8509 0 -123.678
409.226 12.3734 0 -123.005
404.013 12.3834 0 -122.727
194.716 12.4467 0 -117.252
189.51 12.4825 0 -116.971
587.825 11.8486 0 -122.424
603.469 11.8505 0 -123.261
192.113 12.4648 0 -117.112
388.377 12.4109 0 -121.89
595.647 11.8498 0 -122.843
398.801 12.393 0 -122.449
393.589 12.4022 0 -122.17
189.51 12.4825 0 -116.971
184.304 12.5167 0 -116.688
572.181 11.8448 0 -121.581
587.825 11.8486 0 -122.424
186.907 12.4998 0 -116.83
377.953 12.4272 0 -121.327
580.003 11.8469 0 -122.003
388.377 12.4109 0 -121.89
383.165 12.4193 0 -121.609
184.304 12.5167 0 -116.688
179.098 12.5495 0 -116.403
556.538 11.8394 0 -120.733
572.181 11.8448 0 -121.581
181.701 12.5333 0 -116.546
367.53 12.4419 0 -120.76
564.359 11.8423 0 -121.157
377.953 12.4272 0 -121.327
372.742 12.4347 0 -121.044
179.098 12.5495 0 -116.403
173.892 12.5807 0 -116.117
540.895 11.8323 0 -119.879
556.538 11.8394 0 -120.733
176.495 12.5653 0 -116.261
357.107 12.4549 0 -120.19
548.716 11.8361 0 -120.306
367.53 12.4419 0 -120.76
362.319 12.4486 0 -120.476
173.892 12.5807 0 -116.117
168.686 12.6104 0 -115.829
525.254 11.8235 0 -119.021
540.895 11.8323 0 -119.879
171.289 12.5957 0 -115.974
346.685 12.4663 0 -119.617
533.075 11.8281 0 -119.451
357.107 12.4549 0 -120.19
351.896 12.4608 0 -119.904
168.686 12.6104 0 -115.829
163.48 12.6386 0 -115.54
509.613 11.8131 0 -118.157
525.254 11.8235 0 -119.021
166.083 12.6247 0 -115.685
336.263 12.4761 0 -119.041
517.433 11.8185 0 -118.59
346.685 12.4663 0 -119.617
341.474 12.4714 0 -119.329
163.48 12.6386 0 -115.54
158.274 12.6653 0 -115.249
493.973 11.801 0 -117.289
509.613 11.8131 0 -118.157
160.877 12.6521 0 -115.395
325.841 12.4843 0 -118.461
501.793 11.8073 0 -117.724
336.263 12.4761 0 -119.041
331.052 12.4804 0 -118.751
158.274 12.6653 0 -115.249
153.068 12.6905 0 -114.957
478.334 11.7873 0 -116.417
493.973 11.801 0 -117.289
155.671 12.6781 0 -115.103
315.419 12.4909 0 -117.879
486.153 11.7944 0 -116.854
325.841 12.4843 0 -118.461
320.63 12.4878 0 -118.17
153.068 12.6905 0 -114.957
147.862 12.7142 0 -114.663
462.695 11.772 0 -115.54
478.334 11.7873 0 -116.417
150.465 12.7025 0 -114.81
304.998 12.4959 0 -117.293
470.514 11.7798 0 -115.979
315.419 12.4909 0 -117.879
310.208 12.4936 0 -117.586
147.862 12.7142 0 -114.663
142.656 12.7364 0 -114.368
447.057 11.755 0 -114.659
462.695 11.772 0 -115.54
145.259 12.7255 0 -114.516
294.577 12.4993 0 -116.705
454.876 11.7637 0 -115.1
304.998 12.4959 0 -117.293
299.787 12.4978 0 -117
142.656 12.7364 0 -114.368
137.45 12.7571 0 -114.071
431.42 11.7364 0 -113.774
447.057 11.755 0 -114.659
140.053 12.7469 0 -114.22
284.156 12.5012 0 -116.114
439.239 11.7459 0 -114.217
294.577 12.4993 0 -116.705
289.367 12.5004 0 -116.41
137.45 12.7571 0 -114.071
132.244 12.7763 0 -113.774
415.784 11.7163 0 -112.884
431.42 11.7364 0 -113.774
134.847 12.7669 0 -113.923
273.736 12.5014 0 -115.521
423.602 11.7266 0 -113.329
284.156 12.5012 0 -116.114
278.946 12.5015 0 -115.818
132.244 12.7763 0 -113.774
127.038 12.794 0 -113.475
400.148 11.6946 0 -111.991
415.784 11.7163 0 -112.884
129.641 12.7853 0 -113.624
263.316 12.5001 0 -114.925
407.965 11.7056 0 -112.438
273.736 12.5014 0 -115.521
268.526 12.501 0 -115.223
127.038 12.794 0 -113.475
121.832 12.8102 0 -113.174
384.512 11.6713 0 -111.095
400.148 11.6946 0 -111.991
124.435 12.8023 0 -113.325
252.897 12.4973 0 -114.326
392.33 11.6831 0 -111.543
263.316 12.5001 0 -114.925
258.106 12.4989 0 -114.626
121.832 12.8102 0 -113.174
116.626 12.8249 0 -112.873
368.878 11.6465 0 -110.195
384.512 11.6713 0 -111.095
119.229 12.8177 0 -113.024
242.477 12.4929 0 -113.726
376.695 11.6591 0 -110.645
252.897 12.4973 0 -114.326
247.687 12.4952 0 -114.026
116.626 12.8249 0 -112.873
111.421 12.8382 0 -112.571
353.244 11.6201 0 -109.291
368.878 11.6465 0 -110.195
114.024 12.8317 0 -112.722
232.058 12.4869 0 -113.123
361.061 11.6335 0 -109.743
242.477 12.4929 0 -113.726
237.268 12.4901 0 -113.424
111.421 12.8382 0 -112.571
106.215 12.85 0 -112.267
337.61 11.5922 0 -108.384
353.244 11.6201 0 -109.291
108.818 12.8443 0 -112.419
221.64 12.4795 0 -112.518
345.427 11.6063 0 -108.838
232.058 12.4869 0 -113.123
226.849 12.4834 0 -112.82
106.215 12.85 0 -112.267
101.01 12.8606 0 -111.963
321.978 11.5629 0 -107.475
337.61 11.5922 0 -108.384
103.613 12.8554 0 -112.115
211.222 12.4707 0 -111.911
329.794 11.5778 0 -107.93
221.64 12.4795 0 -112.518
216.431 12.4753 0 -112.214
101.01 12.8606 0 -111.963
95.8048 12.87 0 -111.657
306.346 11.5323 0 -106.562
321.978 11.5629 0 -107.475
98.4073 12.8654 0 -111.81
200.804 12.4606 0 -111.301
314.162 11.5478 0 -107.019
211.222 12.4707 0 -111.911
206.013 12.4658 0 -111.606
95.8048 12.87 0 -111.657
90.5998 12.8786 0 -111.351
290.715 11.5006 0 -105.646
306.346 11.5323 0 -106.562
93.2023 12.8744 0 -111.504
190.387 12.4496 0 -110.69
298.53 11.5166 0 -106.104
200.804 12.4606 0 -111.301
195.595 12.4552 0 -110.996
90.5998 12.8786 0 -111.351
85.3948 12.8868 0 -111.043
275.085 11.4682 0 -104.727
290.715 11.5006 0 -105.646
87.9973 12.8827 0 -111.197
179.97 12.4381 0 -110.076
282.9 11.4844 0 -105.187
190.387 12.4496 0 -110.69
185.179 12.4438 0 -110.383
85.3948 12.8868 0 -111.043
80.1895 12.8957 0 -110.733
259.456 11.4358 0 -103.805
275.085 11.4682 0 -104.727
82.7922 12.8911 0 -110.888
169.554 12.4271 0 -109.46
267.271 11.4519 0 -104.266
179.97 12.4381 0 -110.076
174.762 12.4324 0 -109.768
80.1895 12.8957 0 -110.733
74.9828 12.9065 0 -110.423
243.828 11.4052 0 -102.878
259.456 11.4358 0 -103.805
77.5864 12.9007 0 -110.578
159.137 12.4183 0 -108.841
251.642 11.4201 0 -103.342
169.554 12.4271 0 -109.46
164.346 12.4222 0 -109.151
74.9828 12.9065 0 -110.423
69.7734 12.9223 0 -110.113
228.2 11.3791 0 -101.945
243.828 11.4052 0 -102.878
72.3785 12.9135 0 -110.268
148.719 12.4152 0 -108.219
236.014 11.3913 0 -102.412
159.137 12.4183 0 -108.841
153.928 12.4157 0 -108.531
69.7734 12.9223 0 -110.113
64.5563 12.9471 0 -109.806
212.568 11.3639 0 -101.005
228.2 11.3791 0 -101.945
67.1663 12.9332 0 -109.959
138.293 12.4238 0 -107.595
220.384 11.3696 0 -101.476
148.719 12.4152 0 -108.219
143.507 12.4174 0 -107.907
64.5563 12.9471 0 -109.806
59.3262 12.9899 0 -109.508
196.925 11.3694 0 -100.053
212.568 11.3639 0 -101.005
61.943 12.9655 0 -109.655
127.852 12.4554 0 -106.969
204.749 11.3631 0 -100.531
138.293 12.4238 0 -107.595
133.075 12.4358 0 -107.282
59.3262 12.9899 0 -109.508
54.0645 13.0622 0 -109.233
181.259 11.4164 0 -99.0836
196.925 11.3694 0 -100.053
56.7015 13.0213 0 -109.366
117.378 12.5288 0 -106.347
189.095 11.3858 0 -99.5712
127.852 12.4554 0 -106.969
122.621 12.485 0 -106.657
54.0645 13.0622 0 -109.233
48.7541 13.1897 0 -109.005
165.529 11.5341 0 -98.0889
181.259 11.4164 0 -99.0836
51.4155 13.117 0 -109.111
106.835 12.6774 0 -105.737
173.406 11.4636 0 -98.5899
117.378 12.5288 0 -106.347
112.118 12.5913 0 -106.039
48.7541 13.1897 0 -109.005
43.3314 13.3977 0 -108.872
149.692 11.7824 0 -97.0536
165.529 11.5341 0 -98.0889
46.0643 13.2811 0 -108.923
96.1602 12.9484 0 -105.161
157.624 11.6372 0 -97.5778
106.835 12.6774 0 -105.737
101.519 12.7925 0 -105.444
43.3314 13.3977 0 -108.872
37.7567 13.7491 0 -108.911
133.602 12.2228 0 -95.9707
149.692 11.7824 0 -97.0536
40.5612 13.5517 0 -108.864
85.2416 13.4192 0 -104.655
141.696 11.9724 0 -96.5178
96.1602 12.9484 0 -105.161
90.7415 13.1554 0 -104.892
37.7567 13.7491 0 -108.911
31.8472 14.2619 0 -109.245
117.141 12.9865 0 -94.8165
133.602 12.2228 0 -95.9707
34.8675 13.9825 0 -109.031
73.9015 14.1568 0 -104.289
125.417 12.5579 0 -95.4051
85.2416 13.4192 0 -104.655
79.6347 13.7456 0 -104.455
31.8472 14.2619 0 -109.245
25.5776 15.032 0 -110.024
99.8627 14.0903 0 -93.641
117.141 12.9865 0 -94.8165
28.7406 14.6169 0 -109.568
61.8692 15.2388 0 -104.172
108.657 13.4915 0 -94.2236
73.9015 14.1568 0 -104.289
68 14.6653 0 -104.176
25.5776 15.032 0 -110.024
18.56 15.837 0 -111.419
81.5998 15.6384 0 -92.4808
99.8627 14.0903 0 -93.641
22.2238 15.4434 0 -110.635
48.8444 16.4819 0 -104.471
90.8319 14.8296 0 -93.0562
61.8692 15.2388 0 -104.172
55.4864 15.8452 0 -104.283
18.56 15.837 0 -111.419
11.1895 16.5352 0 -113.381
61.3717 16.9012 0 -91.7571
81.5998 15.6384 0 -92.4808
14.8244 16.2577 0 -112.342
34.5417 17.418 0 -105.374
71.8695 16.3541 0 -92.0176
48.8444 16.4819 0 -104.471
41.9049 17.1012 0 -104.782
11.1895 16.5352 0 -113.381
3.14989 15.5341 0 -115.403
39.8378 16.9168 0 -91.8885
61.3717 16.9012 0 -91.7571
7.37247 16.3451 0 -114.448
19.396 16.1364 0 -106.949
50.598 17.2893 0 -91.6771
34.5417 17.418 0 -105.374
26.9573 17.1679 0 -106.177
3.14989 15.5341 0 -115.403
-3.2059 11.5657 0 -115.424
16.6356 10.5046 0 -94.2125
39.8378 16.9168 0 -91.8885
-0.606428 14.1357 0 -115.861
4.88545 9.62355 0 -108.347
28.6431 14.8914 0 -92.6722
19.396 16.1364 0 -106.949
12.0558 13.9709 0 -107.608
-3.2059 11.5657 0 -115.424
-8.13373 0.690932 0 -109.42
-1.01356 -9.8694 0 -97.093
16.6356 10.5046 0 -94.2125
-5.5609 6.92281 0 -113.543
-4.20651 -7.69807 0 -105.611
6.20454 3.22431 0 -95.8211
4.88545 9.62355 0 -108.347
-1.0396 2.30552 0 -108.243
-8.13373 0.690932 0 -109.42
-6.54831 -13.0427 0 -90.3881
-10.3406 -62.3584 0 -92.1001
-1.01356 -9.8694 0 -97.093
-8.97356 -5.94556 0 -101.958
-7.12797 -36.8453 0 -89.6691
-6.57654 -32.1802 0 -96.8622
-4.20651 -7.69807 0 -105.611
-5.78007 -20.5983 0 -99.4655
-6.54831 -13.0427 0 -90.3881
0.590174 -32.4013 0 -53.2851
-7.221 -127.331 0 -54.3903
-10.3406 -62.3584 0 -92.1001
-2.79804 -21.7366 0 -74.3432
-6.17628 -76.1638 0 -56.3257
-11.274 -96.8073 0 -78.7718
-7.12797 -36.8453 0 -89.6691
-7.65764 -56.049 0 -75.6959
2773.18 830.029 0 253.169
3014.32 521.937 0 -12.0046
5118.51 550.681 0 -290.368
4832.61 1443.55 0 -198.714
2936.81 664.872 0 93.146
4000.27 603.974 0 -121.955
5021.09 1038.58 0 -334.194
3948.57 1180.34 0 35.8654
3908.05 839.833 0 -41.305
3014.32 521.937 0 -12.0046
3072.63 224.966 0 -95.891
5197.28 161.727 0 -144.637
5118.51 550.681 0 -290.368
3040.36 362.592 0 -65.7098
4144.95 233.675 0 -144.288
5192.15 282.28 0 -212.979
4000.27 603.974 0 -121.955
4111.42 405.106 0 -159.909
3072.63 224.966 0 -95.891
3102.75 74.4275 0 -113.588
5132.55 25.6352 0 -61.7942
5197.28 161.727 0 -144.637
3101.06 134.635 0 -111.243
4136.31 63.5815 0 -101.402
5158.49 77.5611 0 -89.9468
4144.95 233.675 0 -144.288
4143.69 124.192 0 -116.73
3102.75 74.4275 0 -113.588
3079.67 4.23547 0 -107.166
5087.49 -4.52816 0 -44.9677
5132.55 25.6352 0 -61.7942
3090.16 31.0239 0 -109.921
4097.26 -2.18364 0 -81.1745
5112.62 3.86748 0 -50.096
4136.31 63.5815 0 -101.402
4119.65 23.4634 0 -90.4609
3079.67 4.23547 0 -107.166
3052.18 -16.5813 0 -103.184
5042.24 -15.8115 0 -46.4981
5087.49 -4.52816 0 -44.9677
3068.26 -9.55254 0 -105.205
4054.87 -18.5392 0 -76.1319
5061.23 -11.8122 0 -43.8195
4097.26 -2.18364 0 -81.1745
4074.3 -14.589 0 -76.3349
3052.18 -16.5813 0 -103.184
3020.24 -21.8218 0 -101.009
5010.87 -14.1085 0 -55.5025
5042.24 -15.8115 0 -46.4981
3034.69 -20.6877 0 -101.521
4019.45 -20.8024 0 -78.6443
5027.03 -15.548 0 -51.1466
4054.87 -18.5392 0 -76.1319
4036.79 -20.3098 0 -77.3508
3020.24 -21.8218 0 -101.009
2994.37 -19.4338 0 -101.415
4980.64 -12.185 0 -63.6051
5010.87 -14.1085 0 -55.5025
3007.34 -20.9353 0 -101.152
3989.07 -17.5267 0 -83.1421
4994.81 -13.2201 0 -59.5495
4019.45 -20.8024 0 -78.6443
4003.46 -19.6015 0 -80.6089
2994.37 -19.4338 0 -101.415
2971.02 -16.355 0 -102.507
4953.79 -9.47926 0 -70.7613
4980.64 -12.185 0 -63.6051
2981.97 -17.9608 0 -101.827
3962.75 -14.1729 0 -87.7002
4967.36 -10.7562 0 -67.4703
3989.07 -17.5267 0 -83.1421
3975.62 -15.7064 0 -85.5784
2971.02 -16.355 0 -102.507
2951.18 -13.3482 0 -104.133
4927 -7.74033 0 -76.1981
4953.79 -9.47926 0 -70.7613
2960.96 -14.7361 0 -103.322
3938.77 -11.3053 0 -91.667
4940.2 -8.54087 0 -73.6124
3962.75 -14.1729 0 -87.7002
3950.49 -12.6749 0 -89.7257
2951.18 -13.3482 0 -104.133
2932.88 -11.2656 0 -105.807
4900.83 -6.42902 0 -80.6258
4927 -7.74033 0 -76.1981
2941.77 -12.2242 0 -104.953
3916.22 -9.37443 0 -95.0019
4913.97 -7.011 0 -78.5486
3938.77 -11.3053 0 -91.667
3927.38 -10.2209 0 -93.4272
2932.88 -11.2656 0 -105.807
2915.88 -9.79815 0 -107.513
4874.56 -5.62436 0 -84.2333
4900.83 -6.42902 0 -80.6258
2924.31 -10.4494 0 -106.67
3894.43 -8.07239 0 -97.8544
4887.66 -5.98659 0 -82.4977
3916.22 -9.37443 0 -95.0019
3905.25 -8.66178 0 -96.4708
2915.88 -9.79815 0 -107.513
2899.44 -8.85709 0 -109.166
4848.36 -5.07511 0 -87.3876
4874.56 -5.62436 0 -84.2333
2907.58 -9.28137 0 -108.343
3873.05 -7.24637 0 -100.365
4861.48 -5.31925 0 -85.8611
3894.43 -8.07239 0 -97.8544
3883.71 -7.60971 0 -99.1484
2899.44 -8.85709 0 -109.166
2883.38 -8.21447 0 -110.776
4822.09 -4.71107 0 -90.2329
4848.36 -5.07511 0 -87.3876
2891.39 -8.50311 0 -109.978
3851.87 -6.69407 0 -102.657
4835.22 -4.87826 0 -88.8371
3873.05 -7.24637 0 -100.365
3862.44 -6.94498 0 -101.532
2883.38 -8.21447 0 -110.776
2867.47 -7.76702 0 -112.337
4795.81 -4.43864 0 -92.9027
4822.09 -4.71107 0 -90.2329
2875.41 -7.974 0 -111.562
3830.77 -6.30953 0 -104.805
4808.96 -4.56531 0 -91.5864
3851.87 -6.69407 0 -102.657
3841.31 -6.48575 0 -103.746
2867.47 -7.76702 0 -112.337
2851.66 -7.42148 0 -113.857
4769.49 -4.22079 0 -95.4526
4795.81 -4.43864 0 -92.9027
2859.56 -7.58405 0 -113.102
3809.71 -6.01316 0 -106.857
4782.65 -4.32546 0 -94.1892
3830.77 -6.30953 0 -104.805
3820.24 -6.15357 0 -105.84
2851.66 -7.42148 0 -113.857
2835.88 -7.13464 0 -115.338
4743.17 -4.0281 0 -97.9228
4769.49 -4.22079 0 -95.4526
2843.77 -7.27315 0 -114.602
3788.67 -5.76469 0 -108.84
4756.33 -4.12206 0 -96.6965
3809.71 -6.01316 0 -106.857
3799.19 -5.88462 0 -107.856
2835.88 -7.13464 0 -115.338
2820.12 -6.8766 0 -116.784
4716.83 -3.84824 0 -100.33
4743.17 -4.0281 0 -97.9228
2828 -7.00288 0 -116.065
3767.63 -5.53938 0 -110.771
4730 -3.93726 0 -99.1334
3788.67 -5.76469 0 -108.84
3778.15 -5.65009 0 -109.811
2820.12 -6.8766 0 -116.784
2804.36 -6.6339 0 -118.199
4690.48 -3.67336 0 -102.685
4716.83 -3.84824 0 -100.33
2812.24 -6.75399 0 -117.496
3746.58 -5.32539 0 -112.657
4703.66 -3.76039 0 -101.514
3767.63 -5.53938 0 -110.771
3757.1 -5.43143 0 -111.719
2804.36 -6.6339 0 -118.199
2788.61 -6.39845 0 -119.584
4664.13 -3.50026 0 -104.992
4690.48 -3.67336 0 -102.685
2796.48 -6.5155 0 -118.895
3725.53 -5.1163 0 -114.503
4677.31 -3.58674 0 -103.844
3746.58 -5.32539 0 -112.657
3736.06 -5.22046 0 -113.585
2788.61 -6.39845 0 -119.584
2772.85 -6.16676 0 -120.94
4637.78 -3.32724 0 -107.253
4664.13 -3.50026 0 -104.992
2780.73 -6.2823 0 -120.266
3704.48 -4.90926 0 -116.312
4650.95 -3.41379 0 -106.128
3725.53 -5.1163 0 -114.503
3715.01 -5.01263 0 -115.412
2772.85 -6.16676 0 -120.94
2757.09 -5.93693 0 -122.269
4611.42 -3.15367 0 -109.47
4637.78 -3.32724 0 -107.253
2764.97 -6.05167 0 -121.608
3683.43 -4.70288 0 -118.085
4624.6 -3.24055 0 -108.367
3704.48 -4.90926 0 -116.312
3693.96 -4.80603 0 -117.203
2757.09 -5.93693 0 -122.269
2741.33 -5.70815 0 -123.571
4585.06 -2.9793 0 -111.643
4611.42 -3.15367 0 -109.47
2749.21 -5.82244 0 -122.924
3662.38 -4.49661 0 -119.822
4598.24 -3.06659 0 -110.562
3683.43 -4.70288 0 -118.085
3672.91 -4.59975 0 -118.958
2741.33 -5.70815 0 -123.571
2725.56 -5.48002 0 -124.847
4558.7 -2.80408 0 -113.773
4585.06 -2.9793 0 -111.643
2733.44 -5.59402 0 -124.212
3641.32 -4.29025 0 -121.525
4571.88 -2.8918 0 -112.714
3662.38 -4.49661 0 -119.822
3651.85 -4.39345 0 -120.678
2725.56 -5.48002 0 -124.847
2709.8 -5.25239 0 -126.097
4532.34 -2.62805 0 -115.861
4558.7 -2.80408 0 -113.773
2717.68 -5.36615 0 -125.475
3620.27 -4.08371 0 -123.193
4545.52 -2.71617 0 -114.822
3641.32 -4.29025 0 -121.525
3630.8 -4.187 0 -122.363
2709.8 -5.25239 0 -126.097
2694.04 -5.02517 0 -127.321
4505.97 -2.45127 0 -117.906
4532.34 -2.62805 0 -115.861
2701.92 -5.13873 0 -126.712
3599.21 -3.87701 0 -124.827
4519.16 -2.53975 0 -116.889
3620.27 -4.08371 0 -123.193
3609.74 -3.98038 0 -124.014
2694.04 -5.02517 0 -127.321
2678.27 -4.79834 0 -128.519
4479.61 -2.2738 0 -119.909
4505.97 -2.45127 0 -117.906
2686.15 -4.9117 0 -127.923
3578.15 -3.67019 0 -126.428
4492.79 -2.36262 0 -118.913
3599.21 -3.87701 0 -124.827
3588.68 -3.77361 0 -125.632
2678.27 -4.79834 0 -128.519
2662.51 -4.5719 0 -129.693
4453.25 -2.09573 0 -121.87
4479.61 -2.2738 0 -119.909
2670.39 -4.68507 0 -129.109
3557.1 -3.46327 0 -127.995
4466.43 -2.18483 0 -120.895
3578.15 -3.67019 0 -126.428
3567.62 -3.56674 0 -127.215
2662.51 -4.5719 0 -129.693
2646.74 -4.34588 0 -130.841
4426.89 -1.91712 0 -123.789
4453.25 -2.09573 0 -121.87
2654.62 -4.45884 0 -130.27
3536.04 -3.25632 0 -129.528
4440.07 -2.00648 0 -122.835
3557.1 -3.46327 0 -127.995
3546.57 -3.3598 0 -128.765
2646.74 -4.34588 0 -130.841
2630.97 -4.12031 0 -131.965
4400.52 -1.73805 0 -125.667
4426.89 -1.91712 0 -123.789
2638.86 -4.23304 0 -131.406
3514.98 -3.04939 0 -131.029
4413.71 -1.82764 0 -124.734
3536.04 -3.25632 0 -129.528
3525.51 -3.15285 0 -130.282
2630.97 -4.12031 0 -131.965
2615.21 -3.89521 0 -133.064
4374.16 -1.55861 0 -127.504
4400.52 -1.73805 0 -125.667
2623.09 -4.00769 0 -132.517
3493.92 -2.84253 0 -132.496
4387.34 -1.64837 0 -126.591
3514.98 -3.04939 0 -131.029
3504.45 -2.94595 0 -131.767
2615.21 -3.89521 0 -133.064
2599.44 -3.67063 0 -134.138
4347.8 -1.37886 0 -129.3
4374.16 -1.55861 0 -127.504
2607.32 -3.78285 0 -133.604
3472.86 -2.63581 0 -133.931
4360.98 -1.46877 0 -128.407
3493.92 -2.84253 0 -132.496
3483.39 -2.73915 0 -133.218
2599.44 -3.67063 0 -134.138
2583.67 -3.44661 0 -135.188
4321.43 -1.19888 0 -131.056
4347.8 -1.37886 0 -129.3
2591.56 -3.55855 0 -134.666
3451.8 -2.42928 0 -135.334
4334.62 -1.2889 0 -130.183
3472.86 -2.63581 0 -133.931
3462.33 -2.53252 0 -134.636
2583.67 -3.44661 0 -135.188
2567.9 -3.2232 0 -136.214
4295.07 -1.01875 0 -132.771
4321.43 -1.19888 0 -131.056
2575.79 -3.33482 0 -135.704
3430.74 -2.223 0 -136.704
4308.25 -1.10883 0 -131.918
3451.8 -2.42928 0 -135.334
3441.27 -2.32611 0 -136.023
2567.9 -3.2232 0 -136.214
2552.14 -3.00043 0 -137.216
4268.71 -0.838541 0 -134.446
4295.07 -1.01875 0 -132.771
2560.02 -3.11173 0 -136.718
3409.68 -2.01704 0 -138.042
4281.89 -0.928653 0 -133.613
3430.74 -2.223 0 -136.704
3420.21 -2.11998 0 -137.377
2552.14 -3.00043 0 -137.216
2536.37 -2.77836 0 -138.194
4242.34 -0.658322 0 -136.081
4268.71 -0.838541 0 -134.446
2544.25 -2.88931 0 -137.708
3388.62 -1.81145 0 -139.348
4255.53 -0.748428 0 -135.268
3409.68 -2.01704 0 -138.042
3399.15 -1.91419 0 -138.699
2536.37 -2.77836 0 -138.194
2520.6 -2.55703 0 -139.148
4215.98 -0.478165 0 -137.676
4242.34 -0.658322 0 -136.081
2528.48 -2.6676 0 -138.674
3367.56 -1.60628 0 -140.622
4229.16 -0.568231 0 -136.883
3388.62 -1.81145 0 -139.348
3378.09 -1.70881 0 -139.989
2520.6 -2.55703 0 -139.148
2504.83 -2.33648 0 -140.078
4189.62 -0.298141 0 -139.232
4215.98 -0.478165 0 -137.676
2512.71 -2.44666 0 -139.616
3346.5 -1.4016 0 -141.865
4202.8 -0.388132 0 -138.459
3367.56 -1.60628 0 -140.622
3357.03 -1.50388 0 -141.248
2504.83 -2.33648 0 -140.078
2489.06 -2.11676 0 -140.985
4163.26 -0.118318 0 -140.749
4189.62 -0.298141 0 -139.232
2496.95 -2.22651 0 -140.534
3325.44 -1.19746 0 -143.077
4176.44 -0.2082 0 -139.995
3346.5 -1.4016 0 -141.865
3335.97 -1.29946 0 -142.475
2489.06 -2.11676 0 -140.985
2473.29 -1.89789 0 -141.868
4136.9 0.0612362 0 -142.227
4163.26 -0.118318 0 -140.749
2481.18 -2.00721 0 -141.43
3304.38 -0.993911 0 -144.257
4150.08 -0.0285032 0 -141.493
3325.44 -1.19746 0 -143.077
3314.91 -1.09561 0 -143.671
2473.29 -1.89789 0 -141.868
2457.53 -1.67993 0 -142.729
4110.54 0.240456 0 -143.666
4136.9 0.0612362 0 -142.227
2465.41 -1.7888 0 -142.301
3283.33 -0.79101 0 -145.406
4123.72 0.150892 0 -142.951
3304.38 -0.993911 0 -144.257
3293.86 -0.892376 0 -144.836
2457.53 -1.67993 0 -142.729
2441.76 -1.46291 0 -143.566
4084.18 0.419276 0 -145.067
4110.54 0.240456 0 -143.666
2449.64 -1.5713 0 -143.15
3262.27 -0.588809 0 -146.525
4097.36 0.32992 0 -144.371
3283.33 -0.79101 0 -145.406
3272.8 -0.689819 0 -145.97
2441.76 -1.46291 0 -143.566
2425.99 -1.24688 0 -144.38
4057.82 0.597635 0 -146.429
4084.18 0.419276 0 -145.067
2433.87 -1.35477 0 -143.976
3241.21 -0.387357 0 -147.613
4071 0.508517 0 -145.753
3262.27 -0.588809 0 -146.525
3251.74 -0.487986 0 -147.073
2425.99 -1.24688 0 -144.38
2410.22 -1.03186 0 -145.172
4031.46 0.775468 0 -147.754
4057.82 0.597635 0 -146.429
2418.11 -1.13924 0 -144.779
3220.15 -0.186704 0 -148.671
4044.64 0.686621 0 -147.097
3241.21 -0.387357 0 -147.613
3230.68 -0.286927 0 -148.146
2410.22 -1.03186 0 -145.172
2394.45 -0.817901 0 -145.941
4005.1 0.952716 0 -149.041
4031.46 0.775468 0 -147.754
2402.34 -0.924747 0 -145.559
3199.1 0.0131006 0 -149.699
4018.28 0.864169 0 -148.402
3220.15 -0.186704 0 -148.671
3209.62 -0.0866926 0 -149.189
2394.45 -0.817901 0 -145.941
2378.69 -0.605031 0 -146.688
3978.75 1.12932 0 -150.291
4005.1 0.952716 0 -149.041
2386.57 -0.711327 0 -146.317
3178.04 0.212009 0 -150.697
3991.93 1.0411 0 -149.671
3199.1 0.0131006 0 -149.699
3188.57 0.11267 0 -150.202
2378.69 -0.605031 0 -146.688
2362.92 -0.393288 0 -147.412
3952.39 1.30522 0 -151.503
3978.75 1.12932 0 -150.291
2370.8 -0.499016 0 -147.052
3156.98 0.409975 0 -151.665
3965.57 1.21736 0 -150.902
3178.04 0.212009 0 -150.697
3167.51 0.311113 0 -151.185
2362.92 -0.393288 0 -147.412
2347.15 -0.182705 0 -148.114
3926.04 1.48036 0 -152.679
3952.39 1.30522 0 -151.503
2355.04 -0.287849 0 -147.766
3135.93 0.606952 0 -152.604
3939.22 1.39289 0 -152.096
3156.98 0.409975 0 -151.665
3146.46 0.50859 0 -152.138
2347.15 -0.182705 0 -148.114
2331.39 0.0266821 0 -148.794
3899.69 1.65468 0 -153.818
3926.04 1.48036 0 -152.679
2339.27 -0.0778602 0 -148.457
3114.87 0.802895 0 -153.513
3912.86 1.56762 0 -153.253
3135.93 0.606952 0 -152.604
3125.4 0.705055 0 -153.062
2331.39 0.0266821 0 -148.794
2315.62 0.234842 0 -149.452
3873.33 1.82812 0 -154.92
3899.69 1.65468 0 -153.818
2323.5 0.130918 0 -149.126
3093.82 0.997761 0 -154.393
3886.51 1.74151 0 -154.374
3114.87 0.802895 0 -153.513
3104.35 0.900465 0 -153.957
2315.62 0.234842 0 -149.452
2299.86 0.441741 0 -150.089
3846.98 2.00065 0 -155.987
3873.33 1.82812 0 -154.92
2307.74 0.338451 0 -149.773
3072.77 1.19151 0 -155.244
3860.16 1.9145 0 -155.458
3093.82 0.997761 0 -154.393
3083.29 1.09478 0 -154.822
2299.86 0.441741 0 -150.089
2284.09 0.647349 0 -150.704
3820.63 2.17219 0 -157.017
3846.98 2.00065 0 -155.987
2291.97 0.544709 0 -150.399
3051.72 1.38409 0 -156.067
3833.81 2.08654 0 -156.506
3072.77 1.19151 0 -155.244
3062.24 1.28794 0 -155.659
2284.09 0.647349 0 -150.704
2268.33 0.851634 0 -151.297
3794.29 2.3427 0 -158.012
3820.63 2.17219 0 -157.017
2276.21 0.749659 0 -151.003
3030.67 1.57546 0 -156.861
3807.46 2.25758 0 -157.519
3051.72 1.38409 0 -156.067
3041.19 1.47993 0 -156.467
2268.33 0.851634 0 -151.297
2252.56 1.05457 0 -151.87
3767.94 2.51213 0 -158.971
3794.29 2.3427 0 -158.012
2260.45 0.953271 0 -151.586
3009.62 1.7656 0 -157.626
3781.11 2.42755 0 -158.496
3030.67 1.57546 0 -156.861
3020.14 1.67069 0 -157.247
2252.56 1.05457 0 -151.87
2236.8 1.25612 0 -152.421
3741.6 2.68043 0 -159.895
3767.94 2.51213 0 -158.971
2244.68 1.15552 0 -152.148
2988.57 1.95444 0 -158.364
3754.77 2.59642 0 -159.437
3009.62 1.7656 0 -157.626
2999.09 1.86018 0 -157.998
2236.8 1.25612 0 -152.421
2221.04 1.45625 0 -152.951
3715.25 2.84755 0 -160.784
3741.6 2.68043 0 -159.895
2228.92 1.35636 0 -152.689
2967.52 2.14197 0 -159.073
3728.42 2.76414 0 -160.344
2988.57 1.95444 0 -158.364
2978.04 2.04837 0 -158.722
2221.04 1.45625 0 -152.951
2205.28 1.65495 0 -153.461
3688.91 3.01344 0 -161.638
3715.25 2.84755 0 -160.784
2213.16 1.55578 0 -153.209
2946.47 2.32813 0 -159.755
3702.08 2.93065 0 -161.216
2967.52 2.14197 0 -159.073
2957 2.23522 0 -159.417
2205.28 1.65495 0 -153.461
2189.52 1.85218 0 -153.949
3662.57 3.17806 0 -162.459
3688.91 3.01344 0 -161.638
2197.4 1.75375 0 -153.708
2925.43 2.5129 0 -160.409
3675.74 3.09592 0 -162.053
2946.47 2.32813 0 -159.755
2935.95 2.42069 0 -160.085
2189.52 1.85218 0 -153.949
2173.75 2.04792 0 -154.418
3636.23 3.34137 0 -163.244
3662.57 3.17806 0 -162.459
2181.63 1.95024 0 -154.186
2904.38 2.69623 0 -161.036
3649.4 3.25988 0 -162.856
2925.43 2.5129 0 -160.409
2914.9 2.60475 0 -160.726
2173.75 2.04792 0 -154.418
2157.99 2.24213 0 -154.866
3609.89 3.50331 0 -163.996
3636.23 3.34137 0 -163.244
2165.87 2.14521 0 -154.644
2883.34 2.8781 0 -161.636
3623.06 3.42251 0 -163.625
2904.38 2.69623 0 -161.036
2893.86 2.78735 0 -161.339
2157.99 2.24213 0 -154.866
2142.24 2.4348 0 -155.293
3583.56 3.66384 0 -164.714
3609.89 3.50331 0 -163.996
2150.12 2.33866 0 -155.082
2862.3 3.05846 0 -162.208
3596.73 3.58375 0 -164.36
2883.34 2.8781 0 -161.636
2872.82 2.96847 0 -161.925
2142.24 2.4348 0 -155.293
2126.48 2.62589 0 -155.701
3557.23 3.82293 0 -165.399
3583.56 3.66384 0 -164.714
2134.36 2.53054 0 -155.5
2841.26 3.23728 0 -162.754
3570.39 3.74357 0 -165.061
2862.3 3.05846 0 -162.208
2851.78 3.14806 0 -162.485
2126.48 2.62589 0 -155.701
2110.72 2.81539 0 -156.089
3530.9 3.98053 0 -166.051
3557.23 3.82293 0 -165.399
2118.6 2.72084 0 -155.898
2820.22 3.41453 0 -163.274
3544.06 3.90192 0 -165.729
2841.26 3.23728 0 -162.754
2830.74 3.3261 0 -163.017
2110.72 2.81539 0 -156.089
2094.96 3.00327 0 -156.457
3504.57 4.13661 0 -166.669
3530.9 3.98053 0 -166.051
2102.84 2.90953 0 -156.275
2799.18 3.59018 0 -163.767
3517.73 4.05876 0 -166.364
2820.22 3.41453 0 -163.274
2809.7 3.50256 0 -163.524
2094.96 3.00327 0 -156.457
2079.21 3.1895 0 -156.805
3478.24 4.29111 0 -167.255
3504.57 4.13661 0 -166.669
2087.09 3.09659 0 -156.634
2778.14 3.7642 0 -164.234
3491.4 4.21406 0 -166.966
2799.18 3.59018 0 -163.767
2788.66 3.6774 0 -164.004
2079.21 3.1895 0 -156.805
2063.45 3.37407 0 -157.134
3451.91 4.44402 0 -167.809
3478.24 4.29111 0 -167.255
2071.33 3.282 0 -156.972
2757.11 3.93656 0 -164.675
3465.08 4.36777 0 -167.536
2778.14 3.7642 0 -164.234
2767.62 3.85059 0 -164.458
2063.45 3.37407 0 -157.134
2047.7 3.55695 0 -157.444
3425.59 4.59528 0 -168.33
3451.91 4.44402 0 -167.809
2055.58 3.46572 0 -157.292
2736.07 4.10722 0 -165.09
3438.75 4.51985 0 -168.074
2757.11 3.93656 0 -164.675
2746.59 4.0221 0 -164.886
2047.7 3.55695 0 -157.444
2031.95 3.73812 0 -157.734
3399.27 4.74486 0 -168.82
3425.59 4.59528 0 -168.33
2039.82 3.64775 0 -157.592
2715.04 4.27616 0 -165.48
3412.43 4.67028 0 -168.579
2736.07 4.10722 0 -165.09
2725.56 4.19191 0 -165.288
2031.95 3.73812 0 -157.734
2016.19 3.91756 0 -158.006
3372.95 4.89273 0 -169.277
3399.27 4.74486 0 -168.82
2024.07 3.82806 0 -157.873
2694.01 4.44336 0 -165.844
3386.11 4.81901 0 -169.052
2715.04 4.27616 0 -165.48
2704.52 4.35998 0 -165.665
2016.19 3.91756 0 -158.006
2000.44 4.09525 0 -158.258
3346.63 5.03886 0 -169.703
3372.95 4.89273 0 -169.277
2008.32 4.00662 0 -158.135
2672.98 4.60878 0 -166.184
3359.79 4.96602 0 -169.494
2694.01 4.44336 0 -165.844
2683.49 4.52629 0 -166.017
2000.44 4.09525 0 -158.258
1984.69 4.27116 0 -158.492
3320.32 5.18321 0 -170.098
3346.63 5.03886 0 -169.703
1992.57 4.18343 0 -158.378
2651.95 4.77239 0 -166.498
3333.47 5.11126 0 -169.905
2672.98 4.60878 0 -166.184
2662.46 4.69081 0 -166.344
1984.69 4.27116 0 -158.492
1968.94 4.44529 0 -158.708
3294 5.32575 0 -170.462
3320.32 5.18321 0 -170.098
1976.82 4.35845 0 -158.602
2630.92 4.93418 0 -166.787
3307.16 5.2547 0 -170.284
2651.95 4.77239 0 -166.498
2641.44 4.85352 0 -166.646
1968.94 4.44529 0 -158.708
1953.19 4.61761 0 -158.905
3267.69 5.46644 0 -170.796
3294 5.32575 0 -170.462
1961.07 4.53168 0 -158.808
2609.9 5.09412 0 -167.052
3280.85 5.39633 0 -170.633
2630.92 4.93418 0 -166.787
2620.41 5.01438 0 -166.923
1953.19 4.61761 0 -158.905
1937.45 4.7881 0 -159.083
3241.38 5.60527 0 -171.099
3267.69 5.46644 0 -170.796
1945.32 4.70309 0 -158.996
2588.88 5.25218 0 -167.293
3254.54 5.53609 0 -170.951
2609.9 5.09412 0 -167.052
2599.39 5.17338 0 -167.176
1937.45 4.7881 0 -159.083
1921.7 4.95675 0 -159.244
3215.08 5.74219 0 -171.371
3241.38 5.60527 0 -171.099
1929.57 4.87266 0 -159.166
2567.85 5.40834 0 -167.509
3228.23 5.67397 0 -171.239
2588.88 5.25218 0 -167.293
2578.36 5.3305 0 -167.404
1921.7 4.95675 0 -159.244
1905.96 5.12354 0 -159.386
3188.77 5.87719 0 -171.614
3215.08 5.74219 0 -171.371
1913.83 5.04038 0 -159.317
2546.83 5.56258 0 -167.702
3201.93 5.80993 0 -171.497
2567.85 5.40834 0 -167.509
2557.34 5.4857 0 -167.609
1905.96 5.12354 0 -159.386
1890.21 5.28846 0 -159.511
3162.47 6.01023 0 -171.827
3188.77 5.87719 0 -171.614
1898.08 5.20624 0 -159.451
2525.82 5.71487 0 -167.871
3175.62 5.94396 0 -171.724
2546.83 5.56258 0 -167.702
2536.32 5.63897 0 -167.789
1890.21 5.28846 0 -159.511
1874.47 5.45148 0 -159.618
3136.17 6.14129 0 -172.011
3162.47 6.01023 0 -171.827
1882.34 5.3702 0 -159.567
2504.8 5.8652 0 -168.016
3149.32 6.07601 0 -171.923
2525.82 5.71487 0 -167.871
2515.31 5.79028 0 -167.946
1874.47 5.45148 0 -159.618
1858.73 5.61259 0 -159.708
3109.88 6.27034 0 -172.165
3136.17 6.14129 0 -172.011
1866.6 5.53227 0 -159.665
2483.78 6.01355 0 -168.138
3123.02 6.20607 0 -172.092
2504.8 5.8652 0 -168.016
2494.29 5.93962 0 -168.08
1858.73 5.61259 0 -159.708
1842.99 5.77178 0 -159.78
3083.58 6.39736 0 -172.291
3109.88 6.27034 0 -172.165
1850.86 5.69243 0 -159.746
2462.77 6.15989 0 -168.236
3096.73 6.33411 0 -172.231
2483.78 6.01355 0 -168.138
2473.28 6.08697 0 -168.19
1842.99 5.77178 0 -159.78
1827.25 5.92904 0 -159.835
3057.29 6.52233 0 -172.387
3083.58 6.39736 0 -172.291
1835.12 5.85065 0 -159.81
2441.76 6.30421 0 -168.312
3070.44 6.4601 0 -172.342
2462.77 6.15989 0 -168.236
2452.26 6.2323 0 -168.277
1827.25 5.92904 0 -159.835
1811.51 6.08434 0 -159.873
3031 6.64522 0 -172.455
3057.29 6.52233 0 -172.387
1819.38 6.00693 0 -159.856
2420.75 6.44649 0 -168.365
3044.14 6.58404 0 -172.425
2441.76 6.30421 0 -168.312
2431.25 6.3756 0 -168.341
1811.51 6.08434 0 -159.873
1795.77 6.23769 0 -159.894
3004.71 6.76601 0 -172.495
3031 6.64522 0 -172.455
1803.64 6.16126 0 -159.886
2399.74 6.58671 0 -168.395
3017.86 6.70588 0 -172.479
2420.75 6.44649 0 -168.365
2410.25 6.51686 0 -168.383
1795.77 6.23769 0 -159.894
1780.04 6.38905 0 -159.898
2978.43 6.88468 0 -172.507
3004.71 6.76601 0 -172.495
1787.91 6.31362 0 -159.898
2378.74 6.72485 0 -168.403
2991.57 6.82561 0 -172.505
2399.74 6.58671 0 -168.395
2389.24 6.65604 0 -168.402
1780.04 6.38905 0 -159.898
1764.3 6.53844 0 -159.886
2952.15 7.00121 0 -172.492
2978.43 6.88468 0 -172.507
1772.17 6.46399 0 -159.894
2357.73 6.86091 0 -168.389
2965.29 6.94321 0 -172.503
2378.74 6.72485 0 -168.403
2368.23 6.79314 0 -168.399
1764.3 6.53844 0 -159.886
1748.57 6.68582 0 -159.857
2925.87 7.11558 0 -172.448
2952.15 7.00121 0 -172.492
1756.44 6.61238 0 -159.873
2336.73 6.99486 0 -168.353
2939.01 7.05867 0 -172.473
2357.73 6.86091 0 -168.389
2347.23 6.92815 0 -168.374
1748.57 6.68582 0 -159.857
1732.84 6.83119 0 -159.812
2899.59 7.22777 0 -172.378
2925.87 7.11558 0 -172.448
1740.7 6.75876 0 -159.836
2315.73 7.12668 0 -168.295
2912.73 7.17195 0 -172.417
2336.73 6.99486 0 -168.353
2326.23 7.06104 0 -168.327
1732.84 6.83119 0 -159.812
1717.11 6.97455 0 -159.75
2873.32 7.33777 0 -172.281
2899.59 7.22777 0 -172.378
1724.97 6.90312 0 -159.783
2294.73 7.25638 0 -168.215
2886.45 7.28305 0 -172.333
2315.73 7.12668 0 -168.295
2305.23 7.1918 0 -168.258
1717.11 6.97455 0 -159.75
1701.38 7.11587 0 -159.673
2847.04 7.44556 0 -172.157
2873.32 7.33777 0 -172.281
1709.24 7.04547 0 -159.714
2273.73 7.38392 0 -168.115
2860.18 7.39195 0 -172.222
2294.73 7.25638 0 -168.215
2284.23 7.32042 0 -168.168
1701.38 7.11587 0 -159.673
1685.65 7.25516 0 -159.58
2820.78 7.55112 0 -172.006
2847.04 7.44556 0 -172.157
1693.51 7.18577 0 -159.628
2252.74 7.50931 0 -167.992
2833.91 7.49862 0 -172.085
2273.73 7.38392 0 -168.115
2263.24 7.44689 0 -168.056
1685.65 7.25516 0 -159.58
1669.92 7.3924 0 -159.471
2794.51 7.65444 0 -171.829
2820.78 7.55112 0 -172.006
1677.79 7.32404 0 -159.527
2231.75 7.63252 0 -167.849
2807.64 7.60307 0 -171.921
2252.74 7.50931 0 -167.992
2242.24 7.57119 0 -167.924
1669.92 7.3924 0 -159.471
1654.2 7.52758 0 -159.346
2768.24 7.75551 0 -171.626
2794.51 7.65444 0 -171.829
1662.06 7.46025 0 -159.41
2210.75 7.75355 0 -167.686
2781.38 7.70526 0 -171.731
2231.75 7.63252 0 -167.849
2221.25 7.69331 0 -167.77
1654.2 7.52758 0 -159.346
1638.47 7.6607 0 -159.206
2741.98 7.8543 0 -171.398
2768.24 7.75551 0 -171.626
1646.33 7.5944 0 -159.278
2189.77 7.87239 0 -167.501
2755.11 7.80519 0 -171.515
2210.75 7.75355 0 -167.686
2200.26 7.81325 0 -167.596
1638.47 7.6607 0 -159.206
1622.75 7.79175 0 -159.051
2715.73 7.95082 0 -171.144
2741.98 7.8543 0 -171.398
1630.61 7.72649 0 -159.131
2168.78 7.98902 0 -167.296
2728.85 7.90285 0 -171.274
2189.77 7.87239 0 -167.501
2179.27 7.93098 0 -167.401
1622.75 7.79175 0 -159.051
1607.03 7.92072 0 -158.881
2689.47 8.04504 0 -170.864
2715.73 7.95082 0 -171.144
1614.89 7.8565 0 -158.968
2147.79 8.10344 0 -167.071
2702.6 7.99822 0 -171.007
2168.78 7.98902 0 -167.296
2158.29 8.04651 0 -167.186
1607.03 7.92072 0 -158.881
1591.31 8.04761 0 -158.695
2663.22 8.13696 0 -170.56
2689.47 8.04504 0 -170.864
1599.17 7.98442 0 -158.79
2126.81 8.21564 0 -166.826
2676.34 8.09129 0 -170.715
2147.79 8.10344 0 -167.071
2137.3 8.15982 0 -166.951
1591.31 8.04761 0 -158.695
1575.59 8.1724 0 -158.495
2636.97 8.22656 0 -170.231
2663.22 8.13696 0 -170.56
1583.45 8.11026 0 -158.597
2105.83 8.32561 0 -166.562
2650.09 8.18205 0 -170.398
2126.81 8.21564 0 -166.826
2116.32 8.2709 0 -166.696
1575.59 8.1724 0 -158.495
1559.87 8.2951 0 -158.28
2610.72 8.31384 0 -169.877
2636.97 8.22656 0 -170.231
1567.73 8.23401 0 -158.389
2084.85 8.43334 0 -166.277
2623.84 8.27049 0 -170.057
2105.83 8.32561 0 -166.562
2095.34 8.37976 0 -166.422
1559.87 8.2951 0 -158.28
1544.15 8.41569 0 -158.051
2584.47 8.39878 0 -169.499
2610.72 8.31384 0 -169.877
1552.01 8.35566 0 -158.167
2063.87 8.53883 0 -165.973
2597.59 8.3566 0 -169.691
2084.85 8.43334 0 -166.277
2074.36 8.48636 0 -166.128
1544.15 8.41569 0 -158.051
1528.44 8.53419 0 -157.807
2558.23 8.48139 0 -169.097
2584.47 8.39878 0 -169.499
1536.29 8.4752 0 -157.93
2042.9 8.64206 0 -165.65
2571.35 8.44038 0 -169.301
2063.87 8.53883 0 -165.973
2053.38 8.59073 0 -165.814
1528.44 8.53419 0 -157.807
1512.72 8.65057 0 -157.549
2531.99 8.56165 0 -168.672
2558.23 8.48139 0 -169.097
1520.58 8.59264 0 -157.679
2021.92 8.74304 0 -165.308
2545.11 8.52182 0 -168.888
2042.9 8.64206 0 -165.65
2032.41 8.69284 0 -165.482
1512.72 8.65057 0 -157.549
1497.01 8.76483 0 -157.276
2505.75 8.63956 0 -168.223
2531.99 8.56165 0 -168.672
1504.87 8.70796 0 -157.414
2000.95 8.84176 0 -164.948
2518.87 8.6009 0 -168.45
2021.92 8.74304 0 -165.308
2011.44 8.79269 0 -165.13
1497.01 8.76483 0 -157.276
1481.3 8.87698 0 -156.99
2479.52 8.71511 0 -167.75
2505.75 8.63956 0 -168.223
1489.15 8.82117 0 -157.135
1979.98 8.93822 0 -164.568
2492.64 8.67763 0 -167.989
2000.95 8.84176 0 -164.948
1990.47 8.89027 0 -164.76
1481.3 8.87698 0 -156.99
1465.59 8.98701 0 -156.69
2453.29 8.78829 0 -167.255
2479.52 8.71511 0 -167.75
1473.44 8.93226 0 -156.842
1959.01 9.0324 0 -164.171
2466.4 8.752 0 -167.505
1979.98 8.93822 0 -164.568
1969.5 8.98559 0 -164.372
1465.59 8.98701 0 -156.69
1449.88 9.09492 0 -156.377
2427.06 8.85911 0 -166.737
2453.29 8.78829 0 -167.255
1457.73 9.04123 0 -156.535
1938.05 9.12432 0 -163.754
2440.17 8.824 0 -166.998
1959.01 9.0324 0 -164.171
1948.53 9.07864 0 -163.965
1449.88 9.09492 0 -156.377
1434.17 9.2007 0 -156.05
2400.83 8.92756 0 -166.196
2427.06 8.85911 0 -166.737
1442.03 9.14807 0 -156.215
1917.09 9.21395 0 -163.32
2413.95 8.89363 0 -166.469
1938.05 9.12432 0 -163.754
1927.57 9.16942 0 -163.54
1434.17 9.2007 0 -156.05
1418.47 9.30435 0 -155.709
2374.61 8.99363 0 -165.633
2400.83 8.92756 0 -166.196
1426.32 9.25279 0 -155.881
1896.12 9.30131 0 -162.869
2387.72 8.96089 0 -165.917
1917.09 9.21395 0 -163.32
1906.61 9.25792 0 -163.097
1418.47 9.30435 0 -155.709
1402.76 9.40588 0 -155.356
2348.39 9.05733 0 -165.048
2374.61 8.99363 0 -165.633
1410.61 9.35538 0 -155.534
1875.17 9.38639 0 -162.399
2361.5 9.02578 0 -165.343
1896.12 9.30131 0 -162.869
1885.64 9.34414 0 -162.636
1402.76 9.40588 0 -155.356
1387.06 9.50528 0 -154.989
2322.17 9.11864 0 -164.441
2348.39 9.05733 0 -165.048
1394.91 9.45585 0 -155.174
1854.21 9.46919 0 -161.912
2335.28 9.08828 0 -164.747
1875.17 9.38639 0 -162.399
1864.69 9.42808 0 -162.158
1387.06 9.50528 0 -154.989
1371.36 9.60255 0 -154.609
2295.96 9.17758 0 -163.812
2322.17 9.11864 0 -164.441
1379.21 9.55418 0 -154.801
1833.25 9.54971 0 -161.408
2309.06 9.14841 0 -164.129
1854.21 9.46919 0 -161.912
1843.73 9.50974 0 -161.662
1371.36 9.60255 0 -154.609
1355.66 9.6977 0 -154.217
2269.74 9.23415 0 -163.163
2295.96 9.17758 0 -163.812
1363.51 9.65039 0 -154.415
1812.3 9.62795 0 -160.887
2282.85 9.20616 0 -163.49
1833.25 9.54971 0 -161.408
1822.78 9.58912 0 -161.15
1355.66 9.6977 0 -154.217
1339.96 9.79071 0 -153.812
2243.53 9.28833 0 -162.492
2269.74 9.23415 0 -163.163
1347.81 9.74447 0 -154.016
1791.35 9.70391 0 -160.349
2256.64 9.26154 0 -162.83
1812.3 9.62795 0 -160.887
1801.82 9.66621 0 -160.62
1339.96 9.79071 0 -153.812
1324.26 9.8816 0 -153.395
2217.33 9.34014 0 -161.8
2243.53 9.28833 0 -162.492
1332.11 9.83642 0 -153.605
1770.4 9.77759 0 -159.794
2230.43 9.31453 0 -162.149
1791.35 9.70391 0 -160.349
1780.87 9.74103 0 -160.074
1324.26 9.8816 0 -153.395
1308.56 9.97036 0 -152.965
2191.12 9.38957 0 -161.088
2217.33 9.34014 0 -161.8
1316.41 9.92625 0 -153.181
1749.45 9.84899 0 -159.223
2204.22 9.36515 0 -161.447
1770.4 9.77759 0 -159.794
1759.92 9.81357 0 -159.511
1308.56 9.97036 0 -152.965
1292.87 10.057 0 -152.523
2164.92 9.43664 0 -160.356
2191.12 9.38957 0 -161.088
1300.71 10.0139 0 -152.745
1728.51 9.91812 0 -158.636
2178.02 9.4134 0 -160.724
1749.45 9.84899 0 -159.223
1738.98 9.88384 0 -158.932
1292.87 10.057 0 -152.523
1277.17 10.1415 0 -152.069
2138.72 9.48133 0 -159.603
2164.92 9.43664 0 -160.356
1285.02 10.0995 0 -152.297
1707.56 9.98497 0 -158.033
2151.82 9.45928 0 -159.982
1728.51 9.91812 0 -158.636
1718.03 9.95183 0 -158.336
1277.17 10.1415 0 -152.069
1261.48 10.2239 0 -151.603
2112.53 9.52366 0 -158.831
2138.72 9.48133 0 -159.603
1269.33 10.183 0 -151.837
1686.62 10.0496 0 -157.413
2125.62 9.50279 0 -159.219
1707.56 9.98497 0 -158.033
1697.09 10.0175 0 -157.725
1261.48 10.2239 0 -151.603
1245.79 10.3042 0 -151.125
2086.33 9.56363 0 -158.039
2112.53 9.52366 0 -158.831
1253.63 10.2643 0 -151.366
1665.68 10.1119 0 -156.779
2099.43 9.54394 0 -158.437
1686.62 10.0496 0 -157.413
1676.15 10.081 0 -157.098
1245.79 10.3042 0 -151.125
1230.1 10.3824 0 -150.636
2060.14 9.60124 0 -157.227
2086.33 9.56363 0 -158.039
1237.94 10.3435 0 -150.882
1644.74 10.1719 0 -156.128
2073.24 9.58273 0 -157.635
1665.68 10.1119 0 -156.779
1655.21 10.1422 0 -156.455
1230.1 10.3824 0 -150.636
1214.41 10.4584 0 -150.136
2033.95 9.63651 0 -156.397
2060.14 9.60124 0 -157.227
1222.25 10.4206 0 -150.387
1623.81 10.2297 0 -155.463
2047.05 9.61917 0 -156.814
1644.74 10.1719 0 -156.128
1634.28 10.2011 0 -155.797
1214.41 10.4584 0 -150.136
1198.72 10.5323 0 -149.624
2007.77 9.66943 0 -155.548
2033.95 9.63651 0 -156.397
1206.56 10.4956 0 -149.881
1602.87 10.2853 0 -154.782
2020.86 9.65326 0 -155.975
1623.81 10.2297 0 -155.463
1613.34 10.2578 0 -155.124
1198.72 10.5323 0 -149.624
1183.04 10.6042 0 -149.101
1981.59 9.70001 0 -154.68
2007.77 9.66943 0 -155.548
1190.88 10.5685 0 -149.364
1581.94 10.3386 0 -154.087
1994.68 9.68501 0 -155.116
1602.87 10.2853 0 -154.782
1592.41 10.3122 0 -154.436
1183.04 10.6042 0 -149.101
1167.35 10.6739 0 -148.567
1955.41 9.72827 0 -153.794
1981.59 9.70001 0 -154.68
1175.19 10.6393 0 -148.835
1561.01 10.3896 0 -153.376
1968.5 9.71443 0 -154.239
1581.94 10.3386 0 -154.087
1571.48 10.3644 0 -153.733
1167.35 10.6739 0 -148.567
1151.67 10.7416 0 -148.022
1929.23 9.7542 0 -152.889
1955.41 9.72827 0 -153.794
1159.51 10.708 0 -148.296
1540.08 10.4385 0 -152.652
1942.32 9.74153 0 -153.344
1561.01 10.3896 0 -153.376
1550.55 10.4143 0 -153.016
1151.67 10.7416 0 -148.022
1135.98 10.8071 0 -147.466
1903.05 9.77783 0 -151.967
1929.23 9.7542 0 -152.889
1143.83 10.7746 0 -147.746
1519.16 10.485 0 -151.913
1916.14 9.7663 0 -152.431
1540.08 10.4385 0 -152.652
1529.62 10.462 0 -152.284
1135.98 10.8071 0 -147.466
1120.3 10.8706 0 -146.9
1876.88 9.79914 0 -151.027
1903.05 9.77783 0 -151.967
1128.14 10.8391 0 -147.185
1498.23 10.5294 0 -151.16
1889.97 9.78877 0 -151.5
1519.16 10.485 0 -151.913
1508.7 10.5075 0 -151.538
1120.3 10.8706 0 -146.9
1104.62 10.932 0 -146.324
1850.71 9.81817 0 -150.07
1876.88 9.79914 0 -151.027
1112.46 10.9016 0 -146.613
1477.31 10.5716 0 -150.393
1863.8 9.80894 0 -150.551
1498.23 10.5294 0 -151.16
1487.77 10.5508 0 -150.778
1104.62 10.932 0 -146.324
1088.94 10.9914 0 -145.737
1824.55 9.83491 0 -149.096
1850.71 9.81817 0 -150.07
1096.78 10.962 0 -146.032
1456.39 10.6115 0 -149.612
1837.63 9.82683 0 -149.585
1477.31 10.5716 0 -150.393
1466.85 10.5918 0 -150.004
1088.94 10.9914 0 -145.737
1073.27 11.0486 0 -145.14
1798.38 9.84938 0 -148.105
1824.55 9.83491 0 -149.096
1081.11 11.0203 0 -145.44
1435.47 10.6493 0 -148.818
1811.46 9.84243 0 -148.602
1456.39 10.6115 0 -149.612
1445.93 10.6307 0 -149.217
1073.27 11.0486 0 -145.14
1057.59 11.1038 0 -144.534
1772.22 9.86159 0 -147.097
1798.38 9.84938 0 -148.105
1065.43 11.0765 0 -144.838
1414.56 10.6849 0 -148.011
1785.3 9.85576 0 -147.603
1435.47 10.6493 0 -148.818
1425.02 10.6674 0 -148.416
1057.59 11.1038 0 -144.534
1041.92 11.157 0 -143.917
1746.06 9.87154 0 -146.073
1772.22 9.86159 0 -147.097
1049.75 11.1307 0 -144.226
1393.64 10.7183 0 -147.19
1759.14 9.86685 0 -146.587
1414.56 10.6849 0 -148.011
1404.1 10.7018 0 -147.602
1041.92 11.157 0 -143.917
1026.24 11.2081 0 -143.291
1719.9 9.87926 0 -145.032
1746.06 9.87154 0 -146.073
1034.08 11.1828 0 -143.605
1372.73 10.7495 0 -146.357
1732.98 9.87568 0 -145.555
1393.64 10.7183 0 -147.19
1383.19 10.7342 0 -146.775
1026.24 11.2081 0 -143.291
1010.57 11.2572 0 -142.655
1693.75 9.88476 0 -143.976
1719.9 9.87926 0 -145.032
1018.41 11.2329 0 -142.974
1351.82 10.7786 0 -145.511
1706.83 9.88229 0 -144.506
1372.73 10.7495 0 -146.357
1362.27 10.7643 0 -145.935
1010.57 11.2572 0 -142.655
994.899 11.3042 0 -142.01
1667.6 9.88804 0 -142.904
1693.75 9.88476 0 -143.976
1002.73 11.281 0 -142.333
1330.91 10.8055 0 -144.652
1680.67 9.88667 0 -143.442
1351.82 10.7786 0 -145.511
1341.36 10.7923 0 -145.083
994.899 11.3042 0 -142.01
979.229 11.3493 0 -141.355
1641.45 9.88912 0 -141.817
1667.6 9.88804 0 -142.904
987.063 11.327 0 -141.684
1310 10.8303 0 -143.781
1654.52 9.88886 0 -142.362
1330.91 10.8055 0 -144.652
1320.46 10.8182 0 -144.218
979.229 11.3493 0 -141.355
963.56 11.3923 0 -140.692
1615.3 9.88803 0 -140.714
1641.45 9.88912 0 -141.817
971.394 11.371 0 -141.025
1289.1 10.8529 0 -142.898
1628.37 9.88885 0 -141.267
1310 10.8303 0 -143.781
1299.55 10.8419 0 -143.341
963.56 11.3923 0 -140.692
947.892 11.4333 0 -140.019
1589.16 9.88476 0 -139.597
1615.3 9.88803 0 -140.714
955.726 11.4131 0 -140.357
1268.19 10.8735 0 -142.003
1602.23 9.88666 0 -140.157
1289.1 10.8529 0 -142.898
1278.64 10.8635 0 -142.452
947.892 11.4333 0 -140.019
932.225 11.4724 0 -139.338
1563.01 9.87934 0 -138.465
1589.16 9.88476 0 -139.597
940.058 11.4531 0 -139.68
1247.29 10.8919 0 -141.096
1576.09 9.88231 0 -139.033
1268.19 10.8735 0 -142.003
1257.74 10.883 0 -141.551
932.225 11.4724 0 -139.338
916.56 11.5094 0 -138.648
1536.88 9.87178 0 -137.318
1563.01 9.87934 0 -138.465
924.392 11.4911 0 -138.994
1226.39 10.9083 0 -140.178
1549.94 9.87582 0 -137.893
1247.29 10.8919 0 -141.096
1236.84 10.9004 0 -140.639
916.56 11.5094 0 -138.648
900.895 11.5445 0 -137.95
1510.74 9.86209 0 -136.157
1536.88 9.87178 0 -137.318
908.727 11.5272 0 -138.3
1205.49 10.9226 0 -139.248
1523.81 9.8672 0 -136.74
1226.39 10.9083 0 -140.178
1215.94 10.9157 0 -139.715
900.895 11.5445 0 -137.95
885.232 11.5776 0 -137.243
1484.6 9.85031 0 -134.983
1510.74 9.86209 0 -136.157
893.064 11.5613 0 -137.598
1184.59 10.9348 0 -138.308
1497.67 9.85646 0 -135.572
1205.49 10.9226 0 -139.248
1195.04 10.929 0 -138.779
885.232 11.5776 0 -137.243
869.57 11.6087 0 -136.528
1458.47 9.83643 0 -133.794
1484.6 9.85031 0 -134.983
877.401 11.5934 0 -136.887
1163.7 10.945 0 -137.356
1471.54 9.84363 0 -134.39
1184.59 10.9348 0 -138.308
1174.15 10.9402 0 -137.833
869.57 11.6087 0 -136.528
853.909 11.6379 0 -135.805
1432.34 9.82048 0 -132.592
1458.47 9.83643 0 -133.794
861.739 11.6236 0 -136.168
1142.81 10.9531 0 -136.393
1445.41 9.82871 0 -133.195
1163.7 10.945 0 -137.356
1153.25 10.9493 0 -136.876
853.909 11.6379 0 -135.805
838.249 11.6652 0 -135.074
1406.21 9.80248 0 -131.377
1432.34 9.82048 0 -132.592
846.079 11.6518 0 -135.441
1121.91 10.9593 0 -135.42
1419.28 9.81174 0 -131.986
1142.81 10.9531 0 -136.393
1132.36 10.9565 0 -135.908
838.249 11.6652 0 -135.074
822.59 11.6906 0 -134.336
1380.09 9.78244 0 -130.149
1406.21 9.80248 0 -131.377
830.419 11.6781 0 -134.706
1101.02 10.9634 0 -134.437
1393.15 9.79271 0 -130.765
1121.91 10.9593 0 -135.42
1111.47 10.9616 0 -134.93
822.59 11.6906 0 -134.336
806.932 11.714 0 -133.59
1353.96 9.76039 0 -128.908
1380.09 9.78244 0 -130.149
814.761 11.7025 0 -133.964
1080.13 10.9655 0 -133.443
1367.03 9.77167 0 -129.53
1101.02 10.9634 0 -134.437
1090.58 10.9647 0 -133.941
806.932 11.714 0 -133.59
791.275 11.7356 0 -132.836
1327.84 9.73634 0 -127.655
1353.96 9.76039 0 -128.908
799.104 11.725 0 -133.214
1059.25 10.9657 0 -132.44
1340.9 9.74861 0 -128.283
1080.13 10.9655 0 -133.443
1069.69 10.9658 0 -132.943
791.275 11.7356 0 -132.836
775.62 11.7552 0 -132.075
1301.72 9.71031 0 -126.389
1327.84 9.73634 0 -127.655
783.447 11.7457 0 -132.456
1038.36 10.9638 0 -131.426
1314.78 9.72357 0 -127.023
1059.25 10.9657 0 -132.44
1048.8 10.965 0 -131.934
775.62 11.7552 0 -132.075
759.965 11.773 0 -131.307
1275.61 9.68232 0 -125.111
1301.72 9.71031 0 -126.389
767.792 11.7644 0 -131.692
1017.48 10.9601 0 -130.403
1288.67 9.69655 0 -125.752
1038.36 10.9638 0 -131.426
1027.92 10.9622 0 -130.916
759.965 11.773 0 -131.307
744.311 11.789 0 -130.531
1249.49 9.65239 0 -123.822
1275.61 9.68232 0 -125.111
752.138 11.7812 0 -130.92
996.596 10.9544 0 -129.371
1262.55 9.66759 0 -124.468
1017.48 10.9601 0 -130.403
1007.04 10.9575 0 -129.888
744.311 11.789 0 -130.531
728.658 11.803 0 -129.749
1223.38 9.62054 0 -122.521
1249.49 9.65239 0 -123.822
736.484 11.7962 0 -130.141
975.715 10.9468 0 -128.329
1236.44 9.6367 0 -123.173
996.596 10.9544 0 -129.371
986.155 10.9508 0 -128.851
728.658 11.803 0 -129.749
713.006 11.8153 0 -128.96
1197.27 9.5868 0 -121.209
1223.38 9.62054 0 -122.521
720.832 11.8094 0 -129.356
954.836 10.9373 0 -127.279
1210.33 9.60391 0 -121.866
975.715 10.9468 0 -128.329
965.275 10.9423 0 -127.805
713.006 11.8153 0 -128.96
697.355 11.8257 0 -128.165
1171.16 9.55118 0 -119.886
1197.27 9.5868 0 -121.209
705.181 11.8207 0 -128.563
933.958 10.926 0 -126.219
1184.22 9.56922 0 -120.549
954.836 10.9373 0 -127.279
944.397 10.9319 0 -126.75
697.355 11.8257 0 -128.165
681.706 11.8343 0 -127.363
1145.06 9.5137 0 -118.552
1171.16 9.55118 0 -119.886
689.53 11.8302 0 -127.765
913.082 10.9127 0 -125.151
1158.11 9.53267 0 -119.22
933.958 10.926 0 -126.219
923.52 10.9196 0 -125.686
681.706 11.8343 0 -127.363
666.057 11.8411 0 -126.555
1118.95 9.47439 0 -117.207
1145.06 9.5137 0 -118.552
673.881 11.8379 0 -126.959
892.207 10.8977 0 -124.075
1132.01 9.49428 0 -117.881
913.082 10.9127 0 -125.151
902.644 10.9054 0 -124.614
666.057 11.8411 0 -126.555
650.408 11.8461 0 -125.74
1092.85 9.43328 0 -115.852
1118.95 9.47439 0 -117.207
658.232 11.8438 0 -126.148
871.333 10.8808 0 -122.99
1105.9 9.45406 0 -116.531
892.207 10.8977 0 -124.075
881.77 10.8894 0 -123.533
650.408 11.8461 0 -125.74
634.761 11.8493 0 -124.92
1066.75 9.39037 0 -114.487
1092.85 9.43328 0 -115.852
642.585 11.8479 0 -125.331
850.461 10.8621 0 -121.897
1079.8 9.41205 0 -115.171
871.333 10.8808 0 -122.99
860.897 10.8716 0 -122.445
634.761 11.8493 0 -124.92
619.115 11.8508 0 -124.093
1040.65 9.3457 0 -113.113
1066.75 9.39037 0 -114.487
626.938 11.8503 0 -124.507
829.591 10.8416 0 -120.797
1053.7 9.36825 0 -113.801
850.461 10.8621 0 -121.897
840.026 10.852 0 -121.348
619.115 11.8508 0 -124.093
603.469 11.8505 0 -123.261
1014.56 9.29928 0 -111.728
1040.65 9.3457 0 -113.113
611.292 11.8509 0 -123.678
808.721 10.8193 0 -119.688
1027.61 9.32271 0 -112.422
829.591 10.8416 0 -120.797
819.156 10.8306 0 -120.243
603.469 11.8505 0 -123.261
587.825 11.8486 0 -122.424
988.464 9.25115 0 -110.334
1014.56 9.29928 0 -111.728
595.647 11.8498 0 -122.843
787.853 10.7953 0 -118.573
1001.51 9.27543 0 -111.032
808.721 10.8193 0 -119.688
798.287 10.8075 0 -119.131
587.825 11.8486 0 -122.424
572.181 11.8448 0 -121.581
962.372 9.20132 0 -108.932
988.464 9.25115 0 -110.334
580.003 11.8469 0 -122.003
766.986 10.7695 0 -117.45
975.417 9.22645 0 -109.634
787.853 10.7953 0 -118.573
777.42 10.7826 0 -118.012
572.181 11.8448 0 -121.581
556.538 11.8394 0 -120.733
936.281 9.14982 0 -107.52
962.372 9.20132 0 -108.932
564.359 11.8423 0 -121.157
746.121 10.7421 0 -116.32
949.326 9.17578 0 -108.227
766.986 10.7695 0 -117.45
756.554 10.756 0 -116.885
556.538 11.8394 0 -120.733
540.895 11.8323 0 -119.879
910.193 9.09668 0 -106.1
936.281 9.14982 0 -107.52
548.716 11.8361 0 -120.306
725.257 10.7129 0 -115.183
923.237 9.12345 0 -106.811
746.121 10.7421 0 -116.32
735.689 10.7277 0 -115.752
540.895 11.8323 0 -119.879
525.254 11.8235 0 -119.021
884.106 9.0419 0 -104.671
910.193 9.09668 0 -106.1
533.075 11.8281 0 -119.451
704.394 10.6821 0 -114.039
897.149 9.06949 0 -105.386
725.257 10.7129 0 -115.183
714.825 10.6977 0 -114.612
525.254 11.8235 0 -119.021
509.613 11.8131 0 -118.157
858.021 8.98554 0 -103.234
884.106 9.0419 0 -104.671
517.433 11.8185 0 -118.59
683.532 10.6496 0 -112.889
871.063 9.01392 0 -103.954
704.394 10.6821 0 -114.039
693.963 10.666 0 -113.465
509.613 11.8131 0 -118.157
493.973 11.801 0 -117.289
831.938 8.92759 0 -101.79
858.021 8.98554 0 -103.234
501.793 11.8073 0 -117.724
662.672 10.6154 0 -111.733
844.979 8.95676 0 -102.513
683.532 10.6496 0 -112.889
673.102 10.6327 0 -112.312
493.973 11.801 0 -117.289
478.334 11.7873 0 -116.417
805.856 8.8681 0 -100.337
831.938 8.92759 0 -101.79
486.153 11.7944 0 -116.854
641.813 10.5797 0 -110.57
818.897 8.89804 0 -101.065
662.672 10.6154 0 -111.733
652.242 10.5978 0 -111.152
478.334 11.7873 0 -116.417
462.695 11.772 0 -115.54
779.776 8.80708 0 -98.8778
805.856 8.8681 0 -100.337
470.514 11.7798 0 -115.979
620.954 10.5423 0 -109.402
792.816 8.83778 0 -99.6085
641.813 10.5797 0 -110.57
631.383 10.5612 0 -109.987
462.695 11.772 0 -115.54
447.057 11.755 0 -114.659
753.698 8.74457 0 -97.411
779.776 8.80708 0 -98.8778
454.876 11.7637 0 -115.1
600.097 10.5034 0 -108.228
766.737 8.77601 0 -98.1453
620.954 10.5423 0 -109.402
610.526 10.523 0 -108.815
447.057 11.755 0 -114.659
431.42 11.7364 0 -113.774
727.621 8.68058 0 -95.9373
753.698 8.74457 0 -97.411
439.239 11.7459 0 -114.217
579.241 10.4629 0 -107.048
740.659 8.71275 0 -96.675
600.097 10.5034 0 -108.228
589.669 10.4833 0 -107.639
431.42 11.7364 0 -113.774
415.784 11.7163 0 -112.884
701.546 8.61513 0 -94.4569
727.621 8.68058 0 -95.9373
423.602 11.7266 0 -113.329
558.386 10.4208 0 -105.863
714.583 8.64803 0 -95.1979
579.241 10.4629 0 -107.048
568.814 10.4421 0 -106.456
415.784 11.7163 0 -112.884
400.148 11.6946 0 -111.991
675.472 8.54826 0 -92.9701
701.546 8.61513 0 -94.4569
407.965 11.7056 0 -112.438
537.533 10.3773 0 -104.673
688.509 8.58188 0 -93.7143
558.386 10.4208 0 -105.863
547.959 10.3992 0 -105.269
400.148 11.6946 0 -111.991
384.512 11.6713 0 -111.095
649.4 8.48 0 -91.4772
675.472 8.54826 0 -92.9701
392.33 11.6831 0 -111.543
516.68 10.3322 0 -103.479
662.436 8.5143 0 -92.2244
537.533 10.3773 0 -104.673
527.106 10.3549 0 -104.077
384.512 11.6713 0 -111.095
368.878 11.6465 0 -110.195
623.329 8.41035 0 -89.9785
649.4 8.48 0 -91.4772
376.695 11.6591 0 -110.645
495.828 10.2856 0 -102.279
636.365 8.44534 0 -90.7286
516.68 10.3322 0 -103.479
506.254 10.3091 0 -102.879
368.878 11.6465 0 -110.195
353.244 11.6201 0 -109.291
597.26 8.33936 0 -88.4741
623.329 8.41035 0 -89.9785
361.061 11.6335 0 -109.743
474.977 10.2375 0 -101.075
610.295 8.37502 0 -89.2269
495.828 10.2856 0 -102.279
485.402 10.2618 0 -101.678
353.244 11.6201 0 -109.291
337.61 11.5922 0 -108.384
571.192 8.26705 0 -86.9643
597.26 8.33936 0 -88.4741
345.427 11.6063 0 -108.838
454.127 10.1881 0 -99.8669
584.226 8.30337 0 -87.7198
474.977 10.2375 0 -101.075
464.552 10.213 0 -100.472
337.61 11.5922 0 -108.384
321.978 11.5629 0 -107.475
545.125 8.19345 0 -85.4494
571.192 8.26705 0 -86.9643
329.794 11.5778 0 -107.93
433.278 10.1372 0 -98.6546
558.158 8.2304 0 -86.2074
454.127 10.1881 0 -99.8669
443.703 10.1628 0 -99.2613
321.978 11.5629 0 -107.475
306.346 11.5323 0 -106.562
519.06 8.11861 0 -83.9296
545.125 8.19345 0 -85.4494
314.162 11.5478 0 -107.019
412.431 10.0849 0 -97.4383
532.092 8.15618 0 -84.6901
433.278 10.1372 0 -98.6546
422.854 10.1112 0 -98.047
306.346 11.5323 0 -106.562
290.715 11.5006 0 -105.646
492.996 8.04261 0 -82.4051
519.06 8.11861 0 -83.9296
298.53 11.5166 0 -106.104
391.584 10.0315 0 -96.2182
506.028 8.08075 0 -83.1679
412.431 10.0849 0 -97.4383
402.007 10.0584 0 -96.8288
290.715 11.5006 0 -105.646
275.085 11.4682 0 -104.727
466.933 7.96559 0 -80.8759
492.996 8.04261 0 -82.4051
282.9 11.4844 0 -105.187
370.739 9.97718 0 -94.9941
479.964 8.00422 0 -81.6411
391.584 10.0315 0 -96.2182
381.161 10.0044 0 -95.6066
275.085 11.4682 0 -104.727
259.456 11.4358 0 -103.805
440.873 7.88784 0 -79.342
466.933 7.96559 0 -80.8759
267.271 11.4519 0 -104.266
349.896 9.92245 0 -93.7656
453.903 7.92677 0 -80.1096
370.739 9.97718 0 -94.9941
360.317 9.94981 0 -94.3804
259.456 11.4358 0 -103.805
243.828 11.4052 0 -102.878
414.815 7.80991 0 -77.8026
440.873 7.88784 0 -79.342
251.642 11.4201 0 -103.342
329.054 9.8685 0 -92.532
427.844 7.84885 0 -78.573
349.896 9.92245 0 -93.7656
339.475 9.89528 0 -93.1495
243.828 11.4052 0 -102.878
228.2 11.3791 0 -101.945
388.762 7.73303 0 -76.2561
414.815 7.80991 0 -77.8026
236.014 11.3913 0 -102.412
308.215 9.81751 0 -91.2912
401.788 7.77121 0 -77.0304
329.054 9.8685 0 -92.532
318.634 9.84239 0 -91.9127
228.2 11.3791 0 -101.945
212.568 11.3639 0 -101.005
362.715 7.65935 0 -74.6992
388.762 7.73302 0 -76.2561
220.384 11.3696 0 -101.476
287.378 9.77408 0 -90.0394
375.738 7.6956 0 -75.4792
308.215 9.81751 0 -91.2912
297.797 9.79448 0 -90.667
212.568 11.3639 0 -101.005
196.925 11.3694 0 -100.053
336.68 7.59367 0 -73.124
362.715 7.65935 0 -74.6992
204.749 11.3631 0 -100.531
266.541 9.74612 0 -88.7696
349.695 7.62505 0 -73.9146
287.378 9.77408 0 -90.0394
276.96 9.7572 0 -89.4076
196.925 11.3694 0 -100.053
181.259 11.4164 0 -99.0836
310.659 7.54319 0 -71.5178
336.68 7.59367 0 -73.124
189.095 11.3858 0 -99.5712
245.699 9.74992 0 -87.4684
323.668 7.56585 0 -72.3258
266.541 9.74612 0 -88.7696
256.122 9.74299 0 -88.1238
181.259 11.4164 0 -99.0836
165.529 11.5341 0 -98.0889
284.668 7.52474 0 -69.8515
310.659 7.54319 0 -71.5178
173.406 11.4636 0 -98.5899
224.837 9.80976 0 -86.1131
297.657 7.52862 0 -70.6949
245.699 9.74992 0 -87.4684
235.271 9.76955 0 -86.8002
165.529 11.5341 0 -98.0889
149.692 11.7824 0 -97.0536
258.702 7.55669 0 -68.0849
284.668 7.52474 0 -69.8515
157.624 11.6372 0 -97.5778
203.922 9.97521 0 -84.6647
271.685 7.53216 0 -68.9841
224.837 9.80976 0 -86.1131
214.39 9.87735 0 -85.4022
149.692 11.7824 0 -97.0536
133.602 12.2228 0 -95.9707
232.808 7.69237 0 -66.1269
258.702 7.55669 0 -68.0849
141.696 11.9724 0 -96.5178
182.894 10.3027 0 -83.0642
245.738 7.60919 0 -67.1383
203.922 9.97521 0 -84.6647
193.424 10.1086 0 -83.8919
133.602 12.2228 0 -95.9707
117.141 12.9865 0 -94.8165
206.902 7.95266 0 -63.8793
232.808 7.69237 0 -66.1269
125.417 12.5579 0 -95.4051
161.613 10.9128 0 -81.2269
219.873 7.79952 0 -65.0468
182.894 10.3027 0 -83.0642
172.303 10.5746 0 -82.1743
117.141 12.9865 0 -94.8165
99.8627 14.0903 0 -93.641
181.105 8.49155 0 -61.1102
206.902 7.95266 0 -63.8793
108.657 13.4915 0 -94.2236
139.873 11.8575 0 -79.0596
193.963 8.19122 0 -62.5805
161.613 10.9128 0 -81.2269
150.802 11.3171 0 -80.2064
99.8627 14.0903 0 -93.641
81.5998 15.6384 0 -92.4808
154.897 9.1747 0 -57.7084
181.105 8.49155 0 -61.1102
90.8319 14.8296 0 -93.0562
117.17 13.3014 0 -76.5221
168.131 8.78969 0 -59.4955
139.873 11.8575 0 -79.0596
128.717 12.5615 0 -77.8036
81.5998 15.6384 0 -92.4808
61.3717 16.9012 0 -91.7571
128.477 10.3872 0 -53.3203
154.897 9.1747 0 -57.7084
71.8695 16.3541 0 -92.0176
92.9758 14.8033 0 -73.7938
141.641 9.78689 0 -55.6589
117.17 13.3014 0 -76.5221
105.23 14.0011 0 -75.221
61.3717 16.9012 0 -91.7571
39.8378 16.9168 0 -91.8885
99.3295 10.6996 0 -48.6023
128.477 10.3872 0 -53.3203
50.598 17.2893 0 -91.6771
65.7456 15.706 0 -71.7484
114.569 10.5815 0 -50.9485
92.9758 14.8033 0 -73.7938
80.03 15.6415 0 -72.46
39.8378 16.9168 0 -91.8885
16.6356 10.5046 0 -94.2125
67.4655 10.288 0 -44.7389
99.3295 10.6996 0 -48.6023
28.6431 14.8914 0 -92.6722
35.3162 11.2999 0 -72.6641
83.588 11.1662 0 -46.3388
65.7456 15.706 0 -71.7484
50.6289 14.3718 0 -71.85
16.6356 10.5046 0 -94.2125
-1.01356 -9.8694 0 -97.093
25.1135 -2.28717 0 -50.0004
67.4655 10.288 0 -44.7389
6.20454 3.22431 0 -95.8211
1.37522 -8.96839 0 -81.0634
48.5443 5.81191 0 -45.4935
35.3162 11.2999 0 -72.6641
19.4451 5.20064 0 -75.0868
-1.01356 -9.8694 0 -97.093
-10.3406 -62.3584 0 -92.1001
-12.0597 -52.7281 0 -77.4424
25.1135 -2.28717 0 -50.0004
-6.57654 -32.1802 0 -96.8622
-11.4933 -72.4696 0 -91.7649
4.50951 -15.2523 0 -58.987
1.37522 -8.96839 0 -81.0634
-11.7064 -34.5604 0 -88.2388
-10.3406 -62.3584 0 -92.1001
-7.221 -127.331 0 -54.3903
-2.54834 -254.379 0 -92.0078
-12.0597 -52.7281 0 -77.4424
-11.274 -96.8073 0 -78.7718
6.81102 -183.884 0 -55.8285
-19.2232 -133.937 0 -95.9062
-11.4933 -72.4696 0 -91.7649
-4.34039 -125.198 0 -83.6951
4832.61 1443.55 0 -198.714
5118.51 550.681 0 -290.368
6889.99 -127.464 0 86.0371
10677 3189.07 0 -2560.87
5021.09 1038.58 0 -334.194
6394.85 392.502 0 -377.759
7666.48 -142.209 0 -371.674
5687.96 1698.61 0 -618.933
6311.97 859.505 0 -584.8
5118.51 550.681 0 -290.368
5197.28 161.727 0 -144.637
6818.22 -73.2927 0 19.4873
6889.99 -127.464 0 86.0371
5192.15 282.28 0 -212.979
6155.13 56.0907 0 -72.9958
6828.86 22.5387 0 32.6811
6394.85 392.502 0 -377.759
6232.81 140.952 0 -159.653
5197.28 161.727 0 -144.637
5132.55 25.6352 0 -61.7942
6942.21 23.5085 0 0.381293
6818.22 -73.2927 0 19.4873
5158.49 77.5611 0 -89.9468
6073.07 -0.829184 0 -19.4579
6889.86 -47.1557 0 18.5066
6155.13 56.0907 0 -72.9958
6110.41 19.5533 0 -42.0114
5132.55 25.6352 0 -61.7942
5087.49 -4.52816 0 -44.9677
6972.21 -6.7314 0 -19.1306
6942.21 23.5085 0 0.381293
5112.62 3.86748 0 -50.096
6034.69 -8.8949 0 -13.9983
6958.92 21.859 0 -18.272
6073.07 -0.829184 0 -19.4579
6046.68 -8.88092 0 -10.2368
5087.49 -4.52816 0 -44.9677
5042.24 -15.8115 0 -46.4981
6996.88 8.0257 0 -20.4748
6972.21 -6.7314 0 -19.1306
5061.23 -11.8122 0 -43.8195
6016.77 -8.49018 0 -25.2561
6989.98 -4.65495 0 -16.8571
6034.69 -8.8949 0 -13.9983
6027.44 -8.06053 0 -20.7734
5042.24 -15.8115 0 -46.4981
5010.87 -14.1085 0 -55.5025
6986.66 -0.885687 0 -26.6152
6996.88 8.0257 0 -20.4748
5027.03 -15.548 0 -51.1466
5995.1 -7.07536 0 -36.065
6992.41 5.93042 0 -25.282
6016.77 -8.49018 0 -25.2561
6005.29 -8.2641 0 -30.2192
5010.87 -14.1085 0 -55.5025
4980.64 -12.185 0 -63.6051
6970.61 1.92355 0 -29.5949
6986.66 -0.885687 0 -26.6152
4994.81 -13.2201 0 -59.5495
5972.25 -5.38388 0 -45.3688
6980.68 -0.656238 0 -27.3394
5995.1 -7.07536 0 -36.065
5984.58 -5.97498 0 -41.2824
4980.64 -12.185 0 -63.6051
4953.79 -9.47926 0 -70.7613
6942.52 -0.0457136 0 -33.9277
6970.61 1.92355 0 -29.5949
4967.36 -10.7562 0 -67.4703
5945.59 -4.3636 0 -52.5612
6956.96 1.40564 0 -32.1753
5972.25 -5.38388 0 -45.3688
5958.98 -4.91686 0 -49.0996
4953.79 -9.47926 0 -70.7613
4927 -7.74033 0 -76.1981
6911.48 0.512097 0 -37.5309
6942.52 -0.0457136 0 -33.9277
4940.2 -8.54087 0 -73.6124
5917.29 -3.54525 0 -58.1722
6927.6 -0.019211 0 -35.548
5945.59 -4.3636 0 -52.5612
5931.78 -3.87208 0 -55.574
4927 -7.74033 0 -76.1981
4900.83 -6.42902 0 -80.6258
6876.93 0.147795 0 -41.3947
6911.48 0.512097 0 -37.5309
4913.97 -7.011 0 -78.5486
5887.36 -3.08345 0 -62.7685
6894.36 0.422852 0 -39.5646
5917.29 -3.54525 0 -58.1722
5902.39 -3.30901 0 -60.5611
4900.83 -6.42902 0 -80.6258
4874.56 -5.62436 0 -84.2333
6841.37 0.287118 0 -45.0676
6876.93 0.147795 0 -41.3947
4887.66 -5.98659 0 -82.4977
5856.74 -2.73744 0 -66.6797
6859.3 0.163661 0 -43.1944
5887.36 -3.08345 0 -62.7685
5872.16 -2.88534 0 -64.794
4874.56 -5.62436 0 -84.2333
4848.36 -5.07511 0 -87.3876
6804.93 0.265287 0 -48.7425
6841.37 0.287118 0 -45.0676
4861.48 -5.31925 0 -85.8611
5825.57 -2.51631 0 -70.2063
6823.19 0.29435 0 -46.9334
5856.74 -2.73744 0 -66.6797
5841.18 -2.62274 0 -68.4799
4848.36 -5.07511 0 -87.3876
4822.09 -4.71107 0 -90.2329
6768.21 0.336824 0 -52.3348
6804.93 0.265287 0 -48.7425
4835.22 -4.87826 0 -88.8371
5794.18 -2.3371 0 -73.4803
6786.6 0.289685 0 -50.5365
5825.57 -2.51631 0 -70.2063
5809.91 -2.41972 0 -71.8675
4822.09 -4.71107 0 -90.2329
4795.81 -4.43864 0 -92.9027
6731.31 0.38559 0 -55.8755
6768.21 0.336824 0 -52.3348
4808.96 -4.56531 0 -91.5864
5762.64 -2.19237 0 -76.6063
6749.77 0.364448 0 -54.1171
5794.18 -2.3371 0 -73.4803
5778.42 -2.26358 0 -75.0583
4795.81 -4.43864 0 -92.9027
4769.49 -4.22079 0 -95.4526
6694.34 0.451314 0 -59.3519
6731.31 0.38559 0 -55.8755
4782.65 -4.32546 0 -94.1892
5731.04 -2.05841 0 -79.6268
6712.83 0.415971 0 -57.6194
5762.64 -2.19237 0 -76.6063
5746.85 -2.1238 0 -78.1274
4769.49 -4.22079 0 -95.4526
4743.17 -4.0281 0 -97.9228
6657.35 0.516678 0 -62.7674
6694.34 0.451314 0 -59.3519
4756.33 -4.12206 0 -96.6965
5699.39 -1.93114 0 -82.5712
6675.85 0.484312 0 -61.0681
5731.04 -2.05841 0 -79.6268
5715.22 -1.99473 0 -81.1075
4743.17 -4.0281 0 -97.9228
4716.83 -3.84824 0 -100.33
6620.35 0.586397 0 -66.121
6657.35 0.516678 0 -62.7674
4730 -3.93726 0 -99.1334
5667.74 -1.80481 0 -85.451
6638.85 0.550832 0 -64.4516
5699.39 -1.93114 0 -82.5712
5683.57 -1.86782 0 -84.0186
4716.83 -3.84824 0 -100.33
4690.48 -3.67336 0 -102.685
6583.34 0.658679 0 -69.4131
6620.35 0.586397 0 -66.121
4703.66 -3.76039 0 -101.514
5636.07 -1.67817 0 -88.2734
6601.84 0.622312 0 -67.7748
5667.74 -1.80481 0 -85.451
5651.9 -1.7417 0 -86.8691
4690.48 -3.67336 0 -102.685
4664.13 -3.50026 0 -104.992
6546.33 0.733587 0 -72.6438
6583.34 0.658679 0 -69.4131
4677.31 -3.58674 0 -103.844
5604.4 -1.55012 0 -91.041
6564.84 0.695761 0 -71.036
5636.07 -1.67817 0 -88.2734
5620.23 -1.61431 0 -89.6639
4664.13 -3.50026 0 -104.992
4637.78 -3.32724 0 -107.253
6509.32 0.811138 0 -75.8134
6546.33 0.733587 0 -72.6438
4650.95 -3.41379 0 -106.128
5572.72 -1.42045 0 -93.7555
6527.83 0.772062 0 -74.2362
5604.4 -1.55012 0 -91.041
5588.56 -1.48552 0 -92.4049
4637.78 -3.32724 0 -107.253
4611.42 -3.15367 0 -109.47
6472.31 0.891065 0 -78.9224
6509.32 0.811138 0 -75.8134
4624.6 -3.24055 0 -108.367
5541.04 -1.28908 0 -96.4177
6490.82 0.850799 0 -77.3755
5572.72 -1.42045 0 -93.7555
5556.88 -1.35497 0 -95.0931
4611.42 -3.15367 0 -109.47
4585.06 -2.9793 0 -111.643
6435.3 0.973391 0 -81.9708
6472.31 0.891065 0 -78.9224
4598.24 -3.06659 0 -110.562
5509.37 -1.15604 0 -99.028
6453.81 0.93194 0 -80.4541
5541.04 -1.28908 0 -96.4177
5525.21 -1.22276 0 -97.7293
4585.06 -2.9793 0 -111.643
4558.7 -2.80408 0 -113.773
6398.29 1.05793 0 -84.9593
6435.3 0.973391 0 -81.9708
4571.88 -2.8918 0 -112.714
5477.69 -1.02143 0 -101.587
6416.8 1.01539 0 -83.4726
5509.37 -1.15604 0 -99.028
5493.53 -1.08893 0 -100.314
4558.7 -2.80408 0 -113.773
4532.34 -2.62805 0 -115.861
6361.28 1.14461 0 -87.888
6398.29 1.05793 0 -84.9593
4545.52 -2.71617 0 -114.822
5446.01 -0.885353 0 -104.094
6379.79 1.10101 0 -86.4311
5477.69 -1.02143 0 -101.587
5461.85 -0.953571 0 -102.847
4532.34 -2.62805 0 -115.861
4505.97 -2.45127 0 -117.906
6324.28 1.23329 0 -90.7574
6361.28 1.14461 0 -87.888
4519.16 -2.53975 0 -116.889
5414.33 -0.7479 0 -106.551
6342.78 1.18871 0 -89.3301
5446.01 -0.885353 0 -104.094
5430.17 -0.816792 0 -105.329
4505.97 -2.45127 0 -117.906
4479.61 -2.2738 0 -119.909
6287.27 1.32388 0 -93.5678
6324.28 1.23329 0 -90.7574
4492.79 -2.36262 0 -118.913
5382.65 -0.609175 0 -108.957
6305.77 1.27836 0 -92.1699
5414.33 -0.7479 0 -106.551
5398.49 -0.678691 0 -107.761
4479.61 -2.2738 0 -119.909
4453.25 -2.09573 0 -121.87
6250.26 1.41626 0 -96.3194
6287.27 1.32388 0 -93.5678
4466.43 -2.18483 0 -120.895
5350.97 -0.469275 0 -111.313
6268.76 1.36985 0 -94.9509
5382.65 -0.609175 0 -108.957
5366.81 -0.539366 0 -110.142
4453.25 -2.09573 0 -121.87
4426.89 -1.91712 0 -123.789
6213.25 1.51031 0 -99.0128
6250.26 1.41626 0 -96.3194
4440.07 -2.00648 0 -122.835
5319.29 -0.328298 0 -113.619
6231.75 1.46308 0 -97.6734
5350.97 -0.469275 0 -111.313
5335.13 -0.398915 0 -112.473
4426.89 -1.91712 0 -123.789
4400.52 -1.73805 0 -125.667
6176.24 1.60592 0 -101.648
6213.25 1.51031 0 -99.0128
4413.71 -1.82764 0 -124.734
5287.61 -0.186337 0 -115.876
6194.74 1.55793 0 -100.338
5319.29 -0.328298 0 -113.619
5303.45 -0.257434 0 -114.754
4400.52 -1.73805 0 -125.667
4374.16 -1.55861 0 -127.504
6139.23 1.70299 0 -104.226
6176.24 1.60592 0 -101.648
4387.34 -1.64837 0 -126.591
5255.93 -0.0434862 0 -118.083
6157.74 1.65428 0 -102.944
5287.61 -0.186337 0 -115.876
5271.77 -0.115017 0 -116.985
4374.16 -1.55861 0 -127.504
4347.8 -1.37886 0 -129.3
6102.23 1.8014 0 -106.746
6139.23 1.70299 0 -104.226
4360.98 -1.46877 0 -128.407
5224.25 0.100162 0 -120.241
6120.73 1.75203 0 -105.493
5255.93 -0.0434863 0 -118.083
5240.09 0.0282437 0 -119.168
4347.8 -1.37886 0 -129.3
4321.43 -1.19888 0 -131.056
6065.22 1.90106 0 -109.21
6102.23 1.8014 0 -106.746
4334.62 -1.2889 0 -130.183
5192.57 0.244516 0 -122.35
6083.72 1.85108 0 -107.985
5224.25 0.100162 0 -120.241
5208.41 0.172256 0 -121.301
4321.43 -1.19888 0 -131.056
4295.07 -1.01875 0 -132.771
6028.21 2.00185 0 -111.617
6065.22 1.90106 0 -109.21
4308.25 -1.10883 0 -131.918
5160.89 0.389488 0 -124.41
6046.72 1.95132 0 -110.42
5192.57 0.244516 0 -122.35
5176.73 0.31693 0 -123.386
4295.07 -1.01875 0 -132.771
4268.71 -0.838541 0 -134.446
5991.21 2.10368 0 -113.967
6028.21 2.00185 0 -111.617
4281.89 -0.928653 0 -133.613
5129.22 0.534989 0 -126.423
6009.71 2.05264 0 -112.799
5160.89 0.389488 0 -124.41
5145.05 0.462178 0 -125.423
4268.71 -0.838541 0 -134.446
4242.34 -0.658322 0 -136.081
5954.2 2.20644 0 -116.262
5991.21 2.10368 0 -113.967
4255.53 -0.748428 0 -135.268
5097.54 0.680933 0 -128.387
5972.71 2.15495 0 -115.122
5129.22 0.534989 0 -126.423
5113.38 0.607911 0 -127.411
4242.34 -0.658322 0 -136.081
4215.98 -0.478165 0 -137.676
5917.2 2.31004 0 -118.501
5954.2 2.20644 0 -116.262
4229.16 -0.568231 0 -136.883
5065.86 0.827235 0 -130.304
5935.7 2.25814 0 -117.389
5097.54 0.680933 0 -128.387
5081.7 0.754044 0 -129.352
4215.98 -0.478165 0 -137.676
4189.62 -0.298141 0 -139.232
5880.2 2.41437 0 -120.686
5917.2 2.31004 0 -118.501
4202.8 -0.388132 0 -138.459
5034.19 0.973811 0 -132.174
5898.7 2.36212 0 -119.6
5065.86 0.827235 0 -130.304
5050.02 0.900494 0 -131.245
4189.62 -0.298141 0 -139.232
4163.26 -0.118318 0 -140.749
5843.2 2.51935 0 -122.815
5880.2 2.41437 0 -120.686
4176.44 -0.2082 0 -139.995
5002.51 1.12058 0 -133.997
5861.7 2.46679 0 -121.757
5034.19 0.973811 0 -132.174
5018.35 1.04718 0 -133.091
4163.26 -0.118318 0 -140.749
4136.9 0.0612362 0 -142.227
5806.2 2.62488 0 -124.889
5843.2 2.51935 0 -122.815
4150.08 -0.0285032 0 -141.493
4970.84 1.26746 0 -135.773
5824.7 2.57205 0 -123.859
5002.51 1.12058 0 -133.997
4986.67 1.19401 0 -134.89
4136.9 0.0612362 0 -142.227
4110.54 0.240456 0 -143.666
5769.2 2.73086 0 -126.91
5806.2 2.62488 0 -124.889
4123.72 0.150892 0 -142.951
4939.16 1.41438 0 -137.502
5787.7 2.67782 0 -125.906
4970.84 1.26746 0 -135.773
4955 1.34092 0 -136.643
4110.54 0.240456 0 -143.666
4084.18 0.419276 0 -145.067
5732.21 2.83722 0 -128.877
5769.2 2.73086 0 -126.91
4097.36 0.32992 0 -144.371
4907.49 1.56125 0 -139.186
5750.71 2.784 0 -127.9
4939.16 1.41438 0 -137.502
4923.33 1.48782 0 -138.35
4084.18 0.419276 0 -145.067
4057.82 0.597635 0 -146.429
5695.21 2.94385 0 -130.79
5732.21 2.83722 0 -128.877
4071 0.508517 0 -145.753
4875.82 1.708 0 -140.823
5713.71 2.8905 0 -129.84
4907.49 1.56125 0 -139.186
4891.65 1.63465 0 -140.01
4057.82 0.597635 0 -146.429
4031.46 0.775468 0 -147.754
5658.22 3.05067 0 -132.65
5695.21 2.94385 0 -130.79
4044.64 0.686621 0 -147.097
4844.15 1.85456 0 -142.415
5676.72 2.99724 0 -131.726
4875.82 1.708 0 -140.823
4859.98 1.78131 0 -141.625
4031.46 0.775468 0 -147.754
4005.1 0.952716 0 -149.041
5621.23 3.15759 0 -134.457
5658.22 3.05067 0 -132.65
4018.28 0.864169 0 -148.402
4812.48 2.00085 0 -143.962
5639.72 3.10412 0 -133.56
4844.15 1.85456 0 -142.415
4828.32 1.92774 0 -143.195
4005.1 0.952716 0 -149.041
3978.75 1.12932 0 -150.291
5584.24 3.26454 0 -136.212
5621.23 3.15759 0 -134.457
3991.93 1.0411 0 -149.671
4780.81 2.1468 0 -145.464
5602.74 3.21107 0 -135.341
4812.48 2.00085 0 -143.962
4796.65 2.07387 0 -144.719
3978.75 1.12932 0 -150.291
3952.39 1.30522 0 -151.503
5547.25 3.37143 0 -137.915
5584.24 3.26454 0 -136.212
3965.57 1.21736 0 -150.902
4749.15 2.29234 0 -146.922
5565.75 3.318 0 -137.07
4780.81 2.1468 0 -145.464
4764.98 2.21963 0 -146.199
3952.39 1.30522 0 -151.503
3926.04 1.48036 0 -152.679
5510.27 3.47818 0 -139.566
5547.25 3.37143 0 -137.915
3939.22 1.39289 0 -152.096
4717.48 2.4374 0 -148.335
5528.76 3.42483 0 -138.747
4749.15 2.29234 0 -146.922
4733.32 2.36494 0 -147.634
3926.04 1.48036 0 -152.679
3899.69 1.65468 0 -153.818
5473.29 3.58472 0 -141.166
5510.27 3.47818 0 -139.566
3912.86 1.56762 0 -153.253
4685.82 2.58192 0 -149.704
5491.78 3.53148 0 -140.372
4717.48 2.4374 0 -148.335
4701.65 2.50973 0 -149.025
3899.69 1.65468 0 -153.818
3873.33 1.82812 0 -154.92
5436.31 3.69095 0 -142.715
5473.29 3.58472 0 -141.166
3886.51 1.74151 0 -154.374
4654.16 2.72583 0 -151.029
5454.8 3.63788 0 -141.947
4685.82 2.58192 0 -149.704
4669.99 2.65395 0 -150.372
3873.33 1.82812 0 -154.92
3846.98 2.00065 0 -155.987
5399.33 3.79681 0 -144.213
5436.31 3.69095 0 -142.715
3860.16 1.9145 0 -155.458
4622.5 2.86905 0 -152.311
5417.82 3.74393 0 -143.47
4654.16 2.72583 0 -151.029
4638.33 2.79753 0 -151.675
3846.98 2.00065 0 -155.987
3820.63 2.17219 0 -157.017
5362.35 3.90223 0 -145.66
5399.33 3.79681 0 -144.213
3833.81 2.08654 0 -156.506
4590.85 3.01154 0 -153.55
5380.84 3.84958 0 -144.943
4622.5 2.86905 0 -152.311
4606.67 2.9404 0 -152.936
3820.63 2.17219 0 -157.017
3794.29 2.3427 0 -158.012
5325.38 4.00713 0 -147.058
5362.35 3.90223 0 -145.66
3807.46 2.25758 0 -157.519
4559.19 3.15323 0 -154.746
5343.87 3.95475 0 -146.366
4590.85 3.01154 0 -153.55
4575.02 3.08249 0 -154.153
3794.29 2.3427 0 -158.012
3767.94 2.51213 0 -158.971
5288.41 4.11144 0 -148.406
5325.38 4.00713 0 -147.058
3781.11 2.42755 0 -158.496
4527.54 3.29405 0 -155.899
5306.9 4.05937 0 -147.738
4559.19 3.15323 0 -154.746
4543.36 3.22375 0 -155.328
3767.94 2.51213 0 -158.971
3741.6 2.68043 0 -159.895
5251.44 4.2151 0 -149.705
5288.41 4.11144 0 -148.406
3754.77 2.59642 0 -159.437
4495.89 3.43395 0 -157.01
5269.93 4.16336 0 -149.062
4527.54 3.29405 0 -155.899
4511.71 3.36412 0 -156.46
3741.6 2.68043 0 -159.895
3715.25 2.84755 0 -160.784
5214.48 4.31802 0 -150.955
5251.44 4.2151 0 -149.705
3728.42 2.76414 0 -160.344
4464.24 3.57288 0 -158.08
5232.96 4.26666 0 -150.336
4495.89 3.43395 0 -157.01
4480.06 3.50354 0 -157.55
3715.25 2.84755 0 -160.784
3688.91 3.01344 0 -161.638
5177.52 4.42016 0 -152.156
5214.48 4.31802 0 -150.955
3702.08 2.93065 0 -161.216
4432.59 3.71076 0 -159.107
5196 4.3692 0 -151.562
4464.24 3.57288 0 -158.08
4448.41 3.64195 0 -158.599
3688.91 3.01344 0 -161.638
3662.57 3.17806 0 -162.459
5140.56 4.52144 0 -153.309
5177.52 4.42016 0 -152.156
3675.74 3.09592 0 -162.053
4400.95 3.84755 0 -160.094
5159.04 4.47091 0 -152.739
4432.59 3.71076 0 -159.107
4416.77 3.7793 0 -159.606
3662.57 3.17806 0 -162.459
3636.23 3.34137 0 -163.244
5103.6 4.62179 0 -154.415
5140.56 4.52144 0 -153.309
3649.4 3.25988 0 -162.856
4369.3 3.9832 0 -161.039
5122.08 4.57173 0 -153.868
4400.95 3.84755 0 -160.094
4385.12 3.91552 0 -160.571
3636.23 3.34137 0 -163.244
3609.89 3.50331 0 -163.996
5066.65 4.72117 0 -155.472
5103.6 4.62179 0 -154.415
3623.06 3.42251 0 -163.625
4337.66 4.11764 0 -161.943
5085.12 4.67161 0 -154.949
4369.3 3.9832 0 -161.039
4353.48 4.05057 0 -161.496
3609.89 3.50331 0 -163.996
3583.56 3.66384 0 -164.714
5029.7 4.8195 0 -156.483
5066.65 4.72117 0 -155.472
3596.73 3.58375 0 -164.36
4306.03 4.25083 0 -162.807
5048.17 4.77047 0 -155.983
4337.66 4.11764 0 -161.943
4321.84 4.1844 0 -162.38
3583.56 3.66384 0 -164.714
3557.23 3.82293 0 -165.399
4992.75 4.91673 0 -157.446
5029.7 4.8195 0 -156.483
3570.39 3.74357 0 -165.061
4274.39 4.38273 0 -163.631
5011.22 4.86826 0 -156.97
4306.03 4.25083 0 -162.807
4290.21 4.31695 0 -163.224
3557.23 3.82293 0 -165.399
3530.9 3.98053 0 -166.051
4955.8 5.01281 0 -158.363
4992.75 4.91673 0 -157.446
3544.06 3.90192 0 -165.729
4242.76 4.51327 0 -164.415
4974.28 4.96492 0 -157.911
4274.39 4.38273 0 -163.631
4258.57 4.44817 0 -164.028
3530.9 3.98053 0 -166.051
3504.57 4.13661 0 -166.669
4918.86 5.10766 0 -159.234
4955.8 5.01281 0 -158.363
3517.73 4.05876 0 -166.364
4211.13 4.64241 0 -165.16
4937.33 5.06039 0 -158.805
4242.76 4.51327 0 -164.415
4226.94 4.57802 0 -164.793
3504.57 4.13661 0 -166.669
3478.24 4.29111 0 -167.255
4881.93 5.20125 0 -160.06
4918.86 5.10766 0 -159.234
3491.4 4.21406 0 -166.966
4179.5 4.77011 0 -165.865
4900.4 5.15462 0 -159.653
4211.13 4.64241 0 -165.16
4195.31 4.70644 0 -165.518
3478.24 4.29111 0 -167.255
3451.91 4.44402 0 -167.809
4844.99 5.29352 0 -160.839
4881.93 5.20125 0 -160.06
3465.08 4.36777 0 -167.536
4147.87 4.89631 0 -166.532
4863.46 5.24756 0 -160.455
4179.5 4.77011 0 -165.865
4163.69 4.8334 0 -166.203
3451.91 4.44402 0 -167.809
3425.59 4.59528 0 -168.33
4808.06 5.38442 0 -161.574
4844.99 5.29352 0 -160.839
3438.75 4.51985 0 -168.074
4116.25 5.02099 0 -167.159
4826.53 5.33914 0 -161.212
4147.87 4.89631 0 -166.532
4132.06 4.95884 0 -166.85
3425.59 4.59528 0 -168.33
3399.27 4.74486 0 -168.82
4771.13 5.47389 0 -162.264
4808.06 5.38442 0 -161.574
3412.43 4.67028 0 -168.579
4084.63 5.14408 0 -167.749
4789.6 5.42933 0 -161.924
4116.25 5.02099 0 -167.159
4100.44 5.08273 0 -167.459
3399.27 4.74486 0 -168.82
3372.95 4.89273 0 -169.277
4734.21 5.56188 0 -162.909
4771.13 5.47389 0 -162.264
3386.11 4.81901 0 -169.052
4053.02 5.26555 0 -168.3
4752.67 5.51807 0 -162.592
4084.63 5.14408 0 -167.749
4068.82 5.20502 0 -168.029
3372.95 4.89273 0 -169.277
3346.63 5.03886 0 -169.703
4697.29 5.64836 0 -163.51
4734.21 5.56188 0 -162.909
3359.79 4.96602 0 -169.494
4021.4 5.38537 0 -168.814
4715.75 5.60532 0 -163.215
4053.02 5.26555 0 -168.3
4037.21 5.32567 0 -168.562
3346.63 5.03886 0 -169.703
3320.32 5.18321 0 -170.098
4660.37 5.73327 0 -164.068
4697.29 5.64836 0 -163.51
3333.47 5.11126 0 -169.905
3989.79 5.50348 0 -169.29
4678.83 5.69101 0 -163.795
4021.4 5.38537 0 -168.814
4005.6 5.44464 0 -169.056
3320.32 5.18321 0 -170.098
3294 5.32575 0 -170.462
4623.46 5.81657 0 -164.582
4660.37 5.73327 0 -164.068
3307.16 5.2547 0 -170.284
3958.18 5.61985 0 -169.729
4641.92 5.77513 0 -164.331
3989.79 5.50348 0 -169.29
3973.99 5.56189 0 -169.514
3294 5.32575 0 -170.462
3267.69 5.46644 0 -170.796
4586.55 5.89822 0 -165.054
4623.46 5.81657 0 -164.582
3280.85 5.39633 0 -170.633
3926.58 5.73445 0 -170.131
4605.01 5.8576 0 -164.823
3958.18 5.61985 0 -169.729
3942.38 5.67738 0 -169.934
3267.69 5.46644 0 -170.796
3241.38 5.60527 0 -171.099
4549.65 5.97817 0 -165.482
4586.55 5.89822 0 -165.054
3254.54 5.53609 0 -170.951
3894.97 5.84724 0 -170.497
4568.1 5.93841 0 -165.273
3926.58 5.73445 0 -170.131
3910.77 5.79108 0 -170.318
3241.38 5.60527 0 -171.099
3215.08 5.74219 0 -171.371
4512.74 6.05638 0 -165.869
4549.65 5.97817 0 -165.482
3228.23 5.67397 0 -171.239
3863.37 5.95819 0 -170.826
4531.19 6.01749 0 -165.681
3894.97 5.84724 0 -170.497
3879.17 5.90295 0 -170.666
3215.08 5.74219 0 -171.371
3188.77 5.87719 0 -171.614
4475.85 6.13282 0 -166.213
4512.74 6.05638 0 -165.869
3201.93 5.80993 0 -171.497
3831.78 6.06725 0 -171.119
4494.3 6.09482 0 -166.046
3863.37 5.95819 0 -170.826
3847.58 6.01295 0 -170.977
3188.77 5.87719 0 -171.614
3162.47 6.01023 0 -171.827
4438.95 6.20744 0 -166.516
4475.85 6.13282 0 -166.213
3175.62 5.94396 0 -171.724
3800.18 6.1744 0 -171.377
4457.4 6.17036 0 -166.37
3831.78 6.06725 0 -171.119
3815.98 6.12106 0 -171.252
3162.47 6.01023 0 -171.827
3136.17 6.14129 0 -172.011
4402.06 6.28021 0 -166.777
4438.95 6.20744 0 -166.516
3149.32 6.07601 0 -171.923
3768.59 6.2796 0 -171.599
4420.51 6.24406 0 -166.652
3800.18 6.1744 0 -171.377
3784.39 6.22725 0 -171.492
3136.17 6.14129 0 -172.011
3109.88 6.27034 0 -172.165
4365.18 6.3511 0 -166.998
4402.06 6.28021 0 -166.777
3123.02 6.20607 0 -172.092
3737.01 6.38284 0 -171.786
4383.62 6.31589 0 -166.892
3768.59 6.2796 0 -171.599
3752.8 6.33147 0 -171.697
3109.88 6.27034 0 -172.165
3083.58 6.39736 0 -172.291
4328.29 6.42006 0 -167.178
4365.18 6.3511 0 -166.998
3096.73 6.33411 0 -172.231
3705.42 6.48407 0 -171.939
4346.73 6.38582 0 -167.093
3737.01 6.38284 0 -171.786
3721.21 6.4337 0 -171.867
3083.58 6.39736 0 -172.291
3057.29 6.52233 0 -172.387
4291.42 6.48707 0 -167.317
4328.29 6.42006 0 -167.178
3070.44 6.4601 0 -172.342
3673.84 6.58326 0 -172.057
4309.85 6.45381 0 -167.252
3705.42 6.48407 0 -171.939
3689.63 6.53392 0 -172.002
3057.29 6.52233 0 -172.387
3031 6.64522 0 -172.455
4254.54 6.55209 0 -167.417
4291.42 6.48707 0 -167.317
3044.14 6.58404 0 -172.425
3642.26 6.6804 0 -172.141
4272.98 6.51983 0 -167.372
3673.84 6.58326 0 -172.057
3658.05 6.63209 0 -172.103
3031 6.64522 0 -172.455
3004.71 6.76601 0 -172.495
4217.67 6.6151 0 -167.477
4254.54 6.55209 0 -167.417
3017.86 6.70588 0 -172.479
3610.69 6.77545 0 -172.191
4236.11 6.58385 0 -167.452
3642.26 6.6804 0 -172.141
3626.48 6.72819 0 -172.17
3004.71 6.76601 0 -172.495
2978.43 6.88468 0 -172.507
4180.81 6.67607 0 -167.498
4217.67 6.6151 0 -167.477
2991.57 6.82561 0 -172.505
3579.12 6.86839 0 -172.207
4199.24 6.64584 0 -167.493
3610.69 6.77545 0 -172.191
3594.9 6.82219 0 -172.203
2978.43 6.88468 0 -172.507
2952.15 7.00121 0 -172.492
4143.94 6.73496 0 -167.481
4180.81 6.67607 0 -167.498
2965.29 6.94321 0 -172.503
3547.55 6.9592 0 -172.19
4162.37 6.70577 0 -167.494
3579.12 6.86839 0 -172.207
3563.33 6.91407 0 -172.203
2952.15 7.00121 0 -172.492
2925.87 7.11558 0 -172.448
4107.09 6.79175 0 -167.424
4143.94 6.73496 0 -167.481
2939.01 7.05867 0 -172.473
3515.99 7.04786 0 -172.14
4125.51 6.76361 0 -167.457
3547.55 6.9592 0 -172.19
3531.77 7.0038 0 -172.169
2925.87 7.11558 0 -172.448
2899.59 7.22777 0 -172.378
4070.23 6.84641 0 -167.33
4107.09 6.79175 0 -167.424
2912.73 7.17195 0 -172.417
3484.42 7.13433 0 -172.058
4088.66 6.81935 0 -167.382
3515.99 7.04786 0 -172.14
3500.2 7.09137 0 -172.103
2899.59 7.22777 0 -172.378
2873.32 7.33777 0 -172.281
4033.38 6.89893 0 -167.198
4070.23 6.84641 0 -167.33
2886.45 7.28305 0 -172.333
3452.87 7.2186 0 -171.943
4051.81 6.87294 0 -167.268
3484.42 7.13433 0 -172.058
3468.64 7.17674 0 -172.004
2873.32 7.33777 0 -172.281
2847.04 7.44556 0 -172.157
3996.54 6.94927 0 -167.028
4033.38 6.89893 0 -167.198
2860.18 7.39195 0 -172.222
3421.31 7.30066 0 -171.795
4014.96 6.92437 0 -167.117
3452.87 7.2186 0 -171.943
3437.09 7.25991 0 -171.873
2847.04 7.44556 0 -172.157
2820.78 7.55112 0 -172.006
3959.7 6.99741 0 -166.821
3996.54 6.94927 0 -167.028
2833.91 7.49862 0 -172.085
3389.76 7.38047 0 -171.617
3978.12 6.97362 0 -166.929
3421.31 7.30066 0 -171.795
3405.54 7.34084 0 -171.71
2820.78 7.55112 0 -172.006
2794.51 7.65444 0 -171.829
3922.86 7.04334 0 -166.578
3959.7 6.99741 0 -166.821
2807.64 7.60307 0 -171.921
3358.21 7.45803 0 -171.406
3941.28 7.02066 0 -166.704
3389.76 7.38047 0 -171.617
3373.99 7.41953 0 -171.515
2794.51 7.65444 0 -171.829
2768.24 7.75551 0 -171.626
3886.03 7.08704 0 -166.298
3922.86 7.04334 0 -166.578
2781.38 7.70526 0 -171.731
3326.67 7.53331 0 -171.165
3904.44 7.06547 0 -166.442
3358.21 7.45803 0 -171.406
3342.44 7.49596 0 -171.289
2768.24 7.75551 0 -171.626
2741.98 7.8543 0 -171.398
3849.2 7.12848 0 -165.982
3886.03 7.08704 0 -166.298
2755.11 7.80519 0 -171.515
3295.13 7.60631 0 -170.892
3867.61 7.10804 0 -166.144
3326.67 7.53331 0 -171.165
3310.9 7.5701 0 -171.032
2741.98 7.8543 0 -171.398
2715.73 7.95082 0 -171.144
3812.38 7.16765 0 -165.63
3849.2 7.12848 0 -165.982
2728.85 7.90285 0 -171.274
3263.59 7.677 0 -170.589
3830.79 7.14835 0 -165.81
3295.13 7.60631 0 -170.892
3279.36 7.64195 0 -170.744
2715.73 7.95082 0 -171.144
2689.47 8.04504 0 -170.864
3775.56 7.20453 0 -165.243
3812.38 7.16765 0 -165.63
2702.6 7.99822 0 -171.007
3232.06 7.74538 0 -170.256
3793.96 7.18637 0 -165.441
3263.59 7.677 0 -170.589
3247.82 7.71148 0 -170.426
2689.47 8.04504 0 -170.864
2663.22 8.13696 0 -170.56
3738.74 7.2391 0 -164.82
3775.56 7.20453 0 -165.243
2676.34 8.09129 0 -170.715
3200.53 7.81142 0 -169.892
3757.15 7.2221 0 -165.036
3232.06 7.74538 0 -170.256
3216.29 7.77869 0 -170.078
2663.22 8.13696 0 -170.56
2636.97 8.22656 0 -170.231
3701.93 7.27136 0 -164.364
3738.74 7.2391 0 -164.82
2650.09 8.18205 0 -170.398
3169 7.87512 0 -169.499
3720.33 7.25552 0 -164.596
3200.53 7.81142 0 -169.892
3184.76 7.84356 0 -169.699
2636.97 8.22656 0 -170.231
2610.72 8.31384 0 -169.877
3665.12 7.30129 0 -163.872
3701.93 7.27136 0 -164.364
2623.84 8.27049 0 -170.057
3137.48 7.93646 0 -169.077
3683.53 7.28662 0 -164.122
3169 7.87512 0 -169.499
3153.24 7.90609 0 -169.292
2610.72 8.31384 0 -169.877
2584.47 8.39878 0 -169.499
3628.32 7.32887 0 -163.347
3665.12 7.30129 0 -163.872
2597.59 8.3566 0 -169.691
3105.96 7.99544 0 -168.625
3646.72 7.31537 0 -163.614
3137.48 7.93646 0 -169.077
3121.71 7.96625 0 -168.854
2584.47 8.39878 0 -169.499
2558.23 8.48139 0 -169.097
3591.52 7.3541 0 -162.788
3628.32 7.32887 0 -163.347
2571.35 8.44038 0 -169.301
3074.44 8.05205 0 -168.144
3609.92 7.34178 0 -163.072
3105.96 7.99544 0 -168.625
3090.2 8.02404 0 -168.388
2558.23 8.48139 0 -169.097
2531.99 8.56165 0 -168.672
3554.73 7.37697 0 -162.196
3591.52 7.3541 0 -162.788
2545.11 8.52182 0 -168.888
3042.93 8.10627 0 -167.635
3573.13 7.36583 0 -162.496
3074.44 8.05205 0 -168.144
3058.68 8.07946 0 -167.893
2531.99 8.56165 0 -168.672
2505.75 8.63956 0 -168.223
3517.94 7.39746 0 -161.571
3554.73 7.37697 0 -162.196
2518.87 8.6009 0 -168.45
3011.42 8.1581 0 -167.098
3536.34 7.38751 0 -161.888
3042.93 8.10627 0 -167.635
3027.17 8.13248 0 -167.37
2505.75 8.63956 0 -168.223
2479.52 8.71511 0 -167.75
3481.16 7.41557 0 -160.913
3517.94 7.39746 0 -161.571
2492.64 8.67763 0 -167.989
2979.91 8.20754 0 -166.533
3499.55 7.40681 0 -161.246
3011.42 8.1581 0 -167.098
2995.66 8.18312 0 -166.819
2479.52 8.71511 0 -167.75
2453.29 8.78829 0 -167.255
3444.38 7.4313 0 -160.223
3481.16 7.41557 0 -160.913
2466.4 8.752 0 -167.505
2948.41 8.25457 0 -165.94
3462.77 7.42373 0 -160.572
2979.91 8.20754 0 -166.533
2964.16 8.23135 0 -166.24
2453.29 8.78829 0 -167.255
2427.06 8.85911 0 -166.737
3407.6 7.44463 0 -159.501
3444.38 7.4313 0 -160.223
2440.17 8.824 0 -166.998
2916.91 8.29919 0 -165.32
3425.99 7.43826 0 -159.866
2948.41 8.25457 0 -165.94
2932.66 8.27718 0 -165.633
2427.06 8.85911 0 -166.737
2400.83 8.92756 0 -166.196
3370.83 7.45556 0 -158.748
3407.6 7.44463 0 -159.501
2413.95 8.89363 0 -166.469
2885.41 8.3414 0 -164.673
3389.22 7.45039 0 -159.129
2916.91 8.29919 0 -165.32
2901.16 8.3206 0 -165
2400.83 8.92756 0 -166.196
2374.61 8.99363 0 -165.633
3334.06 7.46409 0 -157.963
3370.83 7.45556 0 -158.748
2387.72 8.96089 0 -165.917
2853.92 8.38119 0 -163.999
3352.45 7.46012 0 -158.36
2885.41 8.3414 0 -164.673
2869.67 8.3616 0 -164.339
2374.61 8.99363 0 -165.633
2348.39 9.05733 0 -165.048
3297.3 7.47021 0 -157.148
3334.06 7.46409 0 -157.963
2361.5 9.02578 0 -165.343
2822.43 8.41857 0 -163.298
3315.68 7.46745 0 -157.559
2853.92 8.38119 0 -163.999
2838.18 8.40018 0 -163.652
2348.39 9.05733 0 -165.048
2322.17 9.11864 0 -164.441
3260.54 7.47393 0 -156.302
3297.3 7.47021 0 -157.148
2335.28 9.08828 0 -164.747
2790.95 8.45353 0 -162.571
3278.92 7.47237 0 -156.728
2822.43 8.41857 0 -163.298
2806.69 8.43635 0 -162.938
2322.17 9.11864 0 -164.441
2295.96 9.17758 0 -163.812
3223.79 7.47523 0 -155.425
3260.54 7.47393 0 -156.302
2309.06 9.14841 0 -164.129
2759.47 8.48606 0 -161.819
3242.17 7.47488 0 -155.867
2790.95 8.45353 0 -162.571
2775.21 8.4701 0 -162.198
2295.96 9.17758 0 -163.812
2269.74 9.23415 0 -163.163
3187.04 7.47413 0 -154.519
3223.79 7.47523 0 -155.425
2282.85 9.20616 0 -163.49
2727.99 8.51618 0 -161.041
3205.41 7.47498 0 -154.976
2759.47 8.48606 0 -161.819
2743.73 8.50142 0 -161.433
2269.74 9.23415 0 -163.163
2243.53 9.28833 0 -162.492
3150.3 7.47062 0 -153.583
3187.04 7.47413 0 -154.519
2256.64 9.26154 0 -162.83
2696.52 8.54387 0 -160.237
3168.67 7.47268 0 -154.055
2727.99 8.51618 0 -161.041
2712.25 8.53033 0 -160.642
2243.53 9.28833 0 -162.492
2217.33 9.34014 0 -161.8
3113.56 7.46471 0 -152.618
3150.3 7.47062 0 -153.583
2230.43 9.31453 0 -162.149
2665.05 8.56915 0 -159.409
3131.93 7.46797 0 -153.105
2696.52 8.54387 0 -160.237
2680.78 8.55681 0 -159.826
2217.33 9.34014 0 -161.8
2191.12 9.38957 0 -161.088
3076.82 7.45639 0 -151.625
3113.56 7.46471 0 -152.618
2204.22 9.36515 0 -161.447
2633.58 8.59201 0 -158.556
3095.19 7.46085 0 -152.125
2665.05 8.56915 0 -159.409
2649.31 8.58088 0 -158.986
2191.12 9.38957 0 -161.088
2164.92 9.43664 0 -160.356
3040.09 7.44567 0 -150.603
3076.82 7.45639 0 -151.625
2178.02 9.4134 0 -160.724
2602.11 8.61246 0 -157.679
3058.45 7.45133 0 -151.117
2633.58 8.59201 0 -158.556
2617.85 8.60254 0 -158.12
2164.92 9.43664 0 -160.356
2138.72 9.48133 0 -159.603
3003.36 7.43256 0 -149.552
3040.09 7.44567 0 -150.603
2151.82 9.45928 0 -159.982
2570.65 8.6305 0 -156.777
3021.72 7.43942 0 -150.081
2602.11 8.61246 0 -157.679
2586.38 8.62178 0 -157.231
2138.72 9.48133 0 -159.603
2112.53 9.52366 0 -158.831
2966.64 7.41706 0 -148.474
3003.36 7.43256 0 -149.552
2125.62 9.50279 0 -159.219
2539.2 8.64613 0 -155.852
2985 7.42511 0 -149.017
2570.65 8.6305 0 -156.777
2554.93 8.63861 0 -156.317
2112.53 9.52366 0 -158.831
2086.33 9.56363 0 -158.039
2929.92 7.39917 0 -147.369
2966.64 7.41706 0 -148.474
2099.43 9.54394 0 -158.437
2507.75 8.65936 0 -154.903
2948.28 7.40841 0 -147.925
2539.2 8.64613 0 -155.852
2523.47 8.65304 0 -155.38
2086.33 9.56363 0 -158.039
2060.14 9.60124 0 -157.227
2893.21 7.3789 0 -146.236
2929.92 7.39917 0 -147.369
2073.24 9.58273 0 -157.635
2476.3 8.6702 0 -153.931
2911.56 7.38933 0 -146.806
2507.75 8.65936 0 -154.903
2492.02 8.66508 0 -154.42
2060.14 9.60124 0 -157.227
2033.95 9.63651 0 -156.397
2856.5 7.35627 0 -145.077
2893.21 7.3789 0 -146.236
2047.05 9.61917 0 -156.814
2444.85 8.67866 0 -152.936
2874.85 7.36788 0 -145.66
2476.3 8.6702 0 -153.931
2460.57 8.67473 0 -153.436
2033.95 9.63651 0 -156.397
2007.77 9.66943 0 -155.548
2819.79 7.33128 0 -143.891
2856.5 7.35627 0 -145.077
2020.86 9.65326 0 -155.975
2413.41 8.68473 0 -151.918
2838.14 7.34407 0 -144.487
2444.85 8.67866 0 -152.936
2429.13 8.68199 0 -152.43
2007.77 9.66943 0 -155.548
1981.59 9.70001 0 -154.68
2783.09 7.30393 0 -142.679
2819.79 7.33128 0 -143.891
1994.68 9.68501 0 -155.116
2381.97 8.68843 0 -150.878
2801.44 7.3179 0 -143.288
2413.41 8.68473 0 -151.918
2397.69 8.68688 0 -151.401
1981.59 9.70001 0 -154.68
1955.41 9.72827 0 -153.794
2746.39 7.27425 0 -141.442
2783.09 7.30393 0 -142.679
1968.5 9.71443 0 -154.239
2350.53 8.68977 0 -149.816
2764.74 7.28938 0 -142.064
2381.97 8.68843 0 -150.878
2366.25 8.6894 0 -150.35
1955.41 9.72827 0 -153.794
1929.23 9.7542 0 -152.889
2709.7 7.24223 0 -140.179
2746.39 7.27425 0 -141.442
1942.32 9.74153 0 -153.344
2319.1 8.68876 0 -148.732
2728.05 7.25853 0 -140.813
2350.53 8.68977 0 -149.816
2334.82 8.68956 0 -149.277
1929.23 9.7542 0 -152.889
1903.05 9.77783 0 -151.967
2673.01 7.2079 0 -138.891
2709.7 7.24223 0 -140.179
1916.14 9.7663 0 -152.431
2287.67 8.68541 0 -147.627
2691.36 7.22536 0 -139.538
2319.1 8.68876 0 -148.732
2303.39 8.68738 0 -148.183
1903.05 9.77783 0 -151.967
1876.88 9.79914 0 -151.027
2636.33 7.17126 0 -137.578
2673.01 7.2079 0 -138.891
1889.97 9.78877 0 -151.5
2256.25 8.67972 0 -146.501
2654.67 7.18987 0 -138.237
2287.67 8.68541 0 -147.627
2271.96 8.68285 0 -147.067
1876.88 9.79914 0 -151.027
1850.71 9.81817 0 -150.07
2599.65 7.13234 0 -136.241
2636.33 7.17126 0 -137.578
1863.8 9.80894 0 -150.551
2224.82 8.67172 0 -145.354
2617.99 7.15209 0 -136.913
2256.25 8.67972 0 -146.501
2240.53 8.67601 0 -145.93
1850.71 9.81817 0 -150.07
1824.55 9.83491 0 -149.096
2562.97 7.09113 0 -134.88
2599.65 7.13234 0 -136.241
1837.63 9.82683 0 -149.585
2193.4 8.6614 0 -144.186
2581.31 7.11202 0 -135.563
2224.82 8.67172 0 -145.354
2209.11 8.66685 0 -144.772
1824.55 9.83491 0 -149.096
1798.38 9.84938 0 -148.105
2526.3 7.04766 0 -133.495
2562.97 7.09113 0 -134.88
1811.46 9.84243 0 -148.602
2161.99 8.64879 0 -142.998
2544.64 7.06968 0 -134.191
2193.4 8.6614 0 -144.186
2177.7 8.65538 0 -143.594
1798.38 9.84938 0 -148.105
1772.22 9.86159 0 -147.097
2489.63 7.00195 0 -132.087
2526.3 7.04766 0 -133.495
1785.3 9.85576 0 -147.603
2130.58 8.6339 0 -141.79
2507.97 7.02508 0 -132.794
2161.99 8.64879 0 -142.998
2146.28 8.64163 0 -142.396
1772.22 9.86159 0 -147.097
1746.06 9.87154 0 -146.073
2452.97 6.954 0 -130.656
2489.63 7.00195 0 -132.087
1759.14 9.86685 0 -146.587
2099.17 8.61674 0 -140.562
2471.3 6.97825 0 -131.375
2130.58 8.6339 0 -141.79
2114.87 8.62561 0 -141.178
1746.06 9.87154 0 -146.073
1719.9 9.87926 0 -145.032
2416.31 6.90384 0 -129.202
2452.97 6.954 0 -130.656
1732.98 9.87568 0 -145.555
2067.76 8.59733 0 -139.315
2434.64 6.9292 0 -129.932
2099.17 8.61674 0 -140.562
2083.47 8.60732 0 -139.941
1719.9 9.87926 0 -145.032
1693.75 9.88476 0 -143.976
2379.66 6.85149 0 -127.726
2416.31 6.90384 0 -129.202
1706.83 9.88229 0 -144.506
2036.36 8.57569 0 -138.049
2397.99 6.87794 0 -128.467
2067.76 8.59733 0 -139.315
2052.06 8.58679 0 -138.684
1693.75 9.88476 0 -143.976
1667.6 9.88804 0 -142.904
2343.01 6.79696 0 -126.229
2379.66 6.85149 0 -127.726
1680.67 9.88667 0 -143.442
2004.96 8.55182 0 -136.764
2361.33 6.8245 0 -126.98
2036.36 8.57569 0 -138.049
2020.66 8.56403 0 -137.409
1667.6 9.88804 0 -142.904
1641.45 9.88912 0 -141.817
2306.36 6.74027 0 -124.709
2343.01 6.79696 0 -126.229
1654.52 9.88886 0 -142.362
1973.57 8.52574 0 -135.46
2324.68 6.76889 0 -125.471
2004.96 8.55182 0 -136.764
1989.26 8.53905 0 -136.114
1641.45 9.88912 0 -141.817
1615.3 9.88803 0 -140.714
2269.72 6.68145 0 -123.168
2306.36 6.74027 0 -124.709
1628.37 9.88885 0 -141.267
1942.17 8.49748 0 -134.138
2288.04 6.71113 0 -123.941
1973.57 8.52574 0 -135.46
1957.87 8.51188 0 -134.802
1615.3 9.88803 0 -140.714
1589.16 9.88476 0 -139.597
2233.08 6.62051 0 -121.606
2269.72 6.68145 0 -123.168
1602.23 9.88666 0 -140.157
1910.79 8.46705 0 -132.799
2251.4 6.65124 0 -122.39
1942.17 8.49748 0 -134.138
1926.48 8.48253 0 -133.471
1589.16 9.88476 0 -139.597
1563.01 9.87934 0 -138.465
2196.45 6.55747 0 -120.024
2233.08 6.62051 0 -121.606
1576.09 9.88231 0 -139.033
1879.4 8.43446 0 -131.441
2214.76 6.58925 0 -120.818
1910.79 8.46705 0 -132.799
1895.09 8.45102 0 -132.122
1563.01 9.87934 0 -138.465
1536.88 9.87178 0 -137.318
2159.82 6.49235 0 -118.421
2196.45 6.55747 0 -120.024
1549.94 9.87582 0 -137.893
1848.02 8.39974 0 -130.067
2178.13 6.52517 0 -119.225
1879.4 8.43446 0 -131.441
1863.71 8.41737 0 -130.756
1536.88 9.87178 0 -137.318
1510.74 9.86209 0 -136.157
2123.19 6.42519 0 -116.799
2159.82 6.49235 0 -118.421
1523.81 9.8672 0 -136.74
1816.64 8.36291 0 -128.675
2141.5 6.45903 0 -117.613
1848.02 8.39974 0 -130.067
1832.33 8.38159 0 -129.373
1510.74 9.86209 0 -136.157
1484.6 9.85031 0 -134.983
2086.57 6.35599 0 -115.157
2123.19 6.42519 0 -116.799
1497.67 9.85646 0 -135.572
1785.26 8.32398 0 -127.266
2104.88 6.39084 0 -115.98
1816.64 8.36291 0 -128.675
1800.95 8.3437 0 -127.973
1484.6 9.85031 0 -134.983
1458.47 9.83643 0 -133.794
2049.95 6.28479 0 -113.496
2086.57 6.35599 0 -115.157
1471.54 9.84363 0 -134.39
1753.89 8.28298 0 -125.841
2068.26 6.32064 0 -114.329
1785.26 8.32398 0 -127.266
1769.57 8.30374 0 -126.556
1458.47 9.83643 0 -133.794
1432.34 9.82048 0 -132.592
2013.33 6.21161 0 -111.815
2049.95 6.28479 0 -113.496
1445.41 9.82871 0 -133.195
1722.52 8.23992 0 -124.4
2031.64 6.24845 0 -112.658
1753.89 8.28298 0 -125.841
1738.2 8.2617 0 -125.123
1432.34 9.82048 0 -132.592
1406.21 9.80248 0 -131.377
1976.72 6.13648 0 -110.117
2013.33 6.21161 0 -111.815
1419.28 9.81174 0 -131.986
1691.15 8.19483 0 -122.943
1995.03 6.17429 0 -110.968
1722.52 8.23992 0 -124.4
1706.83 8.21763 0 -123.674
1406.21 9.80248 0 -131.377
1380.09 9.78244 0 -130.149
1940.11 6.05941 0 -108.4
1976.72 6.13648 0 -110.117
1393.15 9.79271 0 -130.765
1659.78 8.14773 0 -121.471
1958.42 6.09818 0 -109.261
1691.15 8.19483 0 -122.943
1675.47 8.17153 0 -122.209
1380.09 9.78244 0 -130.149
1353.96 9.76039 0 -128.908
1903.51 5.98044 0 -106.665
1940.11 6.05941 0 -108.4
1367.03 9.77167 0 -129.53
1628.42 8.09864 0 -119.983
1921.81 6.02016 0 -107.535
1659.78 8.14773 0 -121.471
1644.1 8.12343 0 -120.728
1353.96 9.76039 0 -128.908
1327.84 9.73634 0 -127.655
1866.91 5.89959 0 -104.913
1903.51 5.98044 0 -106.665
1340.9 9.74861 0 -128.283
1597.06 8.04759 0 -118.48
1885.21 5.94025 0 -105.791
1628.42 8.09864 0 -119.983
1612.74 8.07336 0 -119.233
1327.84 9.73634 0 -127.655
1301.72 9.71031 0 -126.389
1830.31 5.81689 0 -103.143
1866.91 5.89959 0 -104.913
1314.78 9.72357 0 -127.023
1565.71 7.9946 0 -116.962
1848.61 5.85847 0 -104.03
1597.06 8.04759 0 -118.48
1581.39 8.02133 0 -117.723
1301.72 9.71031 0 -126.389
1275.61 9.68232 0 -125.111
1793.72 5.73236 0 -101.357
1830.31 5.81689 0 -103.143
1288.67 9.69655 0 -125.752
1534.36 7.93968 0 -115.43
1812.02 5.77485 0 -102.252
1565.71 7.9946 0 -116.962
1550.03 7.96738 0 -116.198
1275.61 9.68232 0 -125.111
1249.49 9.65239 0 -123.822
1757.13 5.64604 0 -99.554
1793.72 5.73236 0 -101.357
1262.55 9.66759 0 -124.468
1503.01 7.88287 0 -113.884
1775.43 5.68942 0 -100.457
1534.36 7.93968 0 -115.43
1518.68 7.91151 0 -114.659
1249.49 9.65239 0 -123.822
1223.38 9.62054 0 -122.521
1720.55 5.55795 0 -97.735
1757.13 5.64604 0 -99.554
1236.44 9.6367 0 -123.173
1471.66 7.82419 0 -112.324
1738.84 5.60221 0 -98.6465
1503.01 7.88287 0 -113.884
1487.33 7.85377 0 -113.105
1223.38 9.62054 0 -122.521
1197.27 9.5868 0 -121.209
1683.97 5.46813 0 -95.9002
1720.55 5.55795 0 -97.735
1210.33 9.60391 0 -121.866
1440.31 7.76367 0 -110.75
1702.26 5.51325 0 -96.8196
1471.66 7.82419 0 -112.324
1455.99 7.79416 0 -111.538
1197.27 9.5868 0 -121.209
1171.16 9.55118 0 -119.886
1647.39 5.37659 0 -94.0499
1683.97 5.46813 0 -95.9002
1184.22 9.56922 0 -120.549
1408.97 7.70133 0 -109.163
1665.68 5.42257 0 -94.977
1440.31 7.76367 0 -110.75
1424.64 7.73273 0 -109.958
1171.16 9.55118 0 -119.886
1145.06 9.5137 0 -118.552
1610.81 5.28338 0 -92.1845
1647.39 5.37659 0 -94.0499
1158.11 9.53267 0 -119.22
1377.63 7.63719 0 -107.563
1629.1 5.33019 0 -93.1191
1408.97 7.70133 0 -109.163
1393.3 7.66948 0 -108.365
1145.06 9.5137 0 -118.552
1118.95 9.47439 0 -117.207
1574.24 5.18852 0 -90.3042
1610.81 5.28338 0 -92.1845
1132.01 9.49428 0 -117.881
1346.3 7.57129 0 -105.951
1592.53 5.23615 0 -91.2462
1377.63 7.63719 0 -107.563
1361.97 7.60446 0 -106.759
1118.95 9.47439 0 -117.207
1092.85 9.43328 0 -115.852
1537.67 5.09204 0 -88.4095
1574.24 5.18852 0 -90.3042
1105.9 9.45406 0 -116.531
1314.97 7.50364 0 -104.326
1555.96 5.14048 0 -89.3587
1346.3 7.57129 0 -105.951
1330.63 7.53768 0 -105.14
1092.85 9.43328 0 -115.852
1066.75 9.39037 0 -114.487
1501.11 4.99398 0 -86.5007
1537.67 5.09204 0 -88.4095
1079.8 9.41205 0 -115.171
1283.63 7.43428 0 -102.689
1519.39 5.04321 0 -87.4569
1314.97 7.50364 0 -104.326
1299.3 7.46917 0 -103.509
1066.75 9.39037 0 -114.487
1040.65 9.3457 0 -113.113
1464.55 4.89437 0 -84.5781
1501.11 4.99398 0 -86.5007
1053.7 9.36825 0 -113.801
1252.31 7.36324 0 -101.04
1482.83 4.94437 0 -85.5411
1283.63 7.43428 0 -102.689
1267.97 7.39897 0 -101.866
1040.65 9.3457 0 -113.113
1014.56 9.29928 0 -111.728
1427.99 4.79323 0 -82.6421
1464.55 4.89437 0 -84.5781
1027.61 9.32271 0 -112.422
1220.98 7.29053 0 -99.3798
1446.27 4.84399 0 -83.6118
1252.31 7.36324 0 -101.04
1236.64 7.32709 0 -100.211
1014.56 9.29928 0 -111.728
988.464 9.25115 0 -110.334
1391.44 4.69061 0 -80.6929
1427.99 4.79323 0 -82.6421
1001.51 9.27543 0 -111.032
1189.66 7.2162 0 -97.7083
1409.71 4.74211 0 -81.6691
1220.98 7.29053 0 -99.3798
1205.32 7.25357 0 -98.5454
988.464 9.25115 0 -110.334
962.372 9.20132 0 -108.932
1354.89 4.58653 0 -78.731
1391.44 4.69061 0 -80.6929
975.417 9.22645 0 -109.634
1158.34 7.14026 0 -96.0258
1373.16 4.63875 0 -79.7135
1189.66 7.2162 0 -97.7083
1174 7.17842 0 -96.8684
962.372 9.20132 0 -108.932
936.281 9.14982 0 -107.52
1318.34 4.48103 0 -76.7567
1354.89 4.58653 0 -78.731
949.326 9.17578 0 -108.227
1127.02 7.06274 0 -94.3327
1336.61 4.53396 0 -77.7454
1158.34 7.14026 0 -96.0258
1142.68 7.1017 0 -95.1806
936.281 9.14982 0 -107.52
910.193 9.09668 0 -106.1
1281.79 4.37415 0 -74.7702
1318.34 4.48103 0 -76.7567
923.237 9.12345 0 -106.811
1095.7 6.98369 0 -92.6293
1300.06 4.42776 0 -75.7649
1127.02 7.06274 0 -94.3327
1111.36 7.02341 0 -93.4823
910.193 9.09668 0 -106.1
884.106 9.0419 0 -104.671
1245.25 4.2659 0 -72.7721
1281.79 4.37415 0 -74.7702
897.149 9.06949 0 -105.386
1064.39 6.90312 0 -90.9158
1263.52 4.32019 0 -73.7726
1095.7 6.98369 0 -92.6293
1080.05 6.94359 0 -91.7738
884.106 9.0419 0 -104.671
858.021 8.98554 0 -103.234
1208.71 4.15635 0 -70.7625
1245.25 4.2659 0 -72.7721
871.063 9.01392 0 -103.954
1033.08 6.82106 0 -89.1925
1226.98 4.21129 0 -71.7687
1064.39 6.90312 0 -90.9158
1048.74 6.86227 0 -90.0554
858.021 8.98554 0 -103.234
831.938 8.92759 0 -101.79
1172.18 4.0455 0 -68.7419
1208.71 4.15635 0 -70.7625
844.979 8.95676 0 -102.513
1001.77 6.73755 0 -87.4598
1190.44 4.10108 0 -69.7535
1033.08 6.82106 0 -89.1925
1017.43 6.77948 0 -88.3273
831.938 8.92759 0 -101.79
805.856 8.8681 0 -100.337
1135.64 3.93341 0 -66.7105
1172.18 4.0455 0 -68.7419
818.897 8.89804 0 -101.065
970.466 6.65261 0 -85.7179
1153.91 3.98961 0 -67.7275
1001.77 6.73755 0 -87.4598
986.118 6.69525 0 -86.59
805.856 8.8681 0 -100.337
779.776 8.80708 0 -98.8778
1099.11 3.82011 0 -64.6687
1135.64 3.93341 0 -66.7105
792.816 8.83778 0 -99.6085
939.162 6.56627 0 -83.9671
1117.38 3.87691 0 -65.6909
970.466 6.65261 0 -85.7179
954.813 6.60961 0 -84.8436
779.776 8.80708 0 -98.8778
753.698 8.74457 0 -97.411
1062.59 3.70563 0 -62.6169
1099.11 3.82011 0 -64.6687
766.737 8.77601 0 -98.1453
907.86 6.47857 0 -82.2076
1080.85 3.76301 0 -63.644
939.162 6.56627 0 -83.9671
923.511 6.52259 0 -83.0884
753.698 8.74457 0 -97.411
727.621 8.68058 0 -95.9373
1026.06 3.59001 0 -60.5553
1062.59 3.70563 0 -62.6169
740.659 8.71275 0 -96.675
876.561 6.38954 0 -80.4399
1044.32 3.64796 0 -61.5873
907.86 6.47857 0 -82.2076
892.21 6.43422 0 -81.3248
727.621 8.68058 0 -95.9373
701.546 8.61513 0 -94.4569
989.54 3.47328 0 -58.4844
1026.06 3.59001 0 -60.5553
714.583 8.64803 0 -95.1979
845.263 6.29921 0 -78.6642
1007.8 3.53178 0 -59.521
876.561 6.38954 0 -80.4399
860.912 6.34454 0 -79.553
701.546 8.61513 0 -94.4569
675.472 8.54826 0 -92.9701
953.021 3.35549 0 -56.4045
989.54 3.47328 0 -58.4844
688.509 8.58188 0 -93.7143
813.968 6.20761 0 -76.8807
971.28 3.41452 0 -57.4456
845.263 6.29921 0 -78.6642
829.615 6.25356 0 -77.7734
675.472 8.54826 0 -92.9701
649.4 8.48 0 -91.4772
916.505 3.23668 0 -54.3158
953.021 3.35549 0 -56.4045
662.436 8.5143 0 -92.2244
782.675 6.11476 0 -75.0899
934.763 3.29621 0 -55.3612
813.968 6.20761 0 -76.8807
798.321 6.16134 0 -75.9862
649.4 8.48 0 -91.4772
623.329 8.41035 0 -89.9785
879.991 3.11686 0 -52.2188
916.505 3.23668 0 -54.3158
636.365 8.44534 0 -90.7286
751.383 6.02071 0 -73.2919
898.248 3.17689 0 -53.2683
782.675 6.11476 0 -75.0899
767.029 6.06789 0 -74.1918
623.329 8.41035 0 -89.9785
597.26 8.33936 0 -88.4741
843.48 2.9961 0 -50.1137
879.991 3.11686 0 -52.2188
610.295 8.37502 0 -89.2269
720.094 5.92549 0 -71.4871
861.735 3.0566 0 -51.1672
751.383 6.02071 0 -73.2919
735.738 5.97325 0 -72.3903
597.26 8.33936 0 -88.4741
571.192 8.26705 0 -86.9643
806.971 2.87442 0 -48.0009
843.48 2.9961 0 -50.1137
584.226 8.30337 0 -87.7198
688.806 5.82912 0 -69.6758
825.225 2.93537 0 -49.0582
720.094 5.92549 0 -71.4871
704.45 5.87745 0 -70.5822
571.192 8.26705 0 -86.9643
545.125 8.19345 0 -85.4494
770.463 2.75187 0 -45.8807
806.971 2.87442 0 -48.0009
558.158 8.2304 0 -86.2074
657.52 5.73165 0 -67.8583
788.717 2.81325 0 -46.9417
688.806 5.82912 0 -69.6758
673.163 5.78052 0 -68.7678
545.125 8.19345 0 -85.4494
519.06 8.11861 0 -83.9296
733.958 2.62849 0 -43.7535
770.463 2.75187 0 -45.8807
532.092 8.15618 0 -84.6901
626.235 5.6331 0 -66.0349
752.211 2.69028 0 -44.818
657.52 5.73165 0 -67.8583
641.877 5.68251 0 -66.9473
519.06 8.11861 0 -83.9296
492.996 8.04261 0 -82.4051
697.454 2.50432 0 -41.6196
733.958 2.62849 0 -43.7535
506.028 8.08075 0 -83.1679
594.952 5.53352 0 -64.2058
715.706 2.5665 0 -42.6874
626.235 5.6331 0 -66.0349
610.593 5.58344 0 -65.121
492.996 8.04261 0 -82.4051
466.933 7.96559 0 -80.8759
660.952 2.37941 0 -39.4792
697.454 2.50432 0 -41.6196
479.964 8.00422 0 -81.6411
563.67 5.43296 0 -62.3714
679.203 2.44196 0 -40.5502
594.952 5.53352 0 -64.2058
579.311 5.48335 0 -63.2893
466.933 7.96559 0 -80.8759
440.873 7.88784 0 -79.342
624.45 2.2538 0 -37.3328
660.952 2.37941 0 -39.4792
453.903 7.92677 0 -80.1096
532.39 5.33147 0 -60.5317
642.701 2.31667 0 -38.4068
563.67 5.43296 0 -62.3714
548.03 5.38233 0 -61.4522
440.873 7.88784 0 -79.342
414.815 7.80991 0 -77.8026
587.949 2.12762 0 -35.1807
624.45 2.2538 0 -37.3328
427.844 7.84885 0 -78.573
501.112 5.22925 0 -58.6866
606.199 2.19082 0 -36.2574
532.39 5.33147 0 -60.5317
516.751 5.28043 0 -59.6098
414.815 7.80991 0 -77.8026
388.762 7.73303 0 -76.2561
551.449 2.00062 0 -33.0233
587.949 2.12762 0 -35.1807
401.788 7.77121 0 -77.0304
469.838 5.12641 0 -56.8354
569.699 2.06412 0 -34.1027
501.112 5.22925 0 -58.6866
485.475 5.17791 0 -57.7618
388.762 7.73302 0 -76.2561
362.715 7.65935 0 -74.6992
514.954 1.87378 0 -30.8614
551.449 2.00062 0 -33.0233
375.738 7.6956 0 -75.4792
438.573 5.02373 0 -54.9764
533.201 1.93747 0 -31.9426
469.838 5.12641 0 -56.8354
454.204 5.07496 0 -55.907
362.715 7.65935 0 -74.6992
336.68 7.59367 0 -73.124
478.466 1.74436 0 -28.6951
514.954 1.87378 0 -30.8614
349.695 7.62505 0 -73.9146
407.321 4.92157 0 -53.105
496.708 1.80875 0 -29.7792
438.573 5.02373 0 -54.9764
422.945 4.97262 0 -54.0426
336.68 7.59367 0 -73.124
310.659 7.54319 0 -71.5178
442.007 1.6191 0 -26.5283
478.466 1.74436 0 -28.6951
323.668 7.56585 0 -72.3258
376.101 4.82296 0 -51.2137
460.231 1.68298 0 -27.6104
407.321 4.92157 0 -53.105
391.705 4.87146 0 -52.1628
310.659 7.54319 0 -71.5178
284.668 7.52474 0 -69.8515
405.592 1.47972 0 -24.3586
442.007 1.6191 0 -26.5283
297.657 7.52862 0 -70.6949
344.936 4.72905 0 -49.2834
423.792 1.54744 0 -25.4459
376.101 4.82296 0 -51.2137
360.511 4.77577 0 -50.2545
284.668 7.52474 0 -69.8515
258.702 7.55669 0 -68.0849
369.327 1.36643 0 -22.2042
405.592 1.47972 0 -24.3586
271.685 7.53216 0 -68.9841
313.891 4.64987 0 -47.2856
387.433 1.42965 0 -23.274
344.936 4.72905 0 -49.2834
329.391 4.68587 0 -48.297
258.702 7.55669 0 -68.0849
232.808 7.69237 0 -66.1269
333.264 1.17637 0 -20.049
369.327 1.36643 0 -22.2042
245.738 7.60919 0 -67.1383
283.033 4.58929 0 -45.1586
351.264 1.26035 0 -21.1368
313.891 4.64987 0 -47.2856
298.438 4.61979 0 -46.2404
232.808 7.69237 0 -66.1269
206.902 7.95266 0 -63.8793
297.834 1.12414 0 -17.9693
333.264 1.17637 0 -20.049
219.873 7.79952 0 -65.0468
252.578 4.57506 0 -42.8092
315.44 1.18477 0 -18.9759
283.033 4.58929 0 -45.1586
267.726 4.56787 0 -44.0287
206.902 7.95266 0 -63.8793
181.105 8.49155 0 -61.1102
263.169 0.685332 0 -15.8873
297.834 1.12414 0 -17.9693
193.963 8.19122 0 -62.5805
222.661 4.62311 0 -40.0794
280.381 0.844546 0 -16.9761
252.578 4.57506 0 -42.8092
237.567 4.60625 0 -41.4877
181.105 8.49155 0 -61.1102
154.897 9.1747 0 -57.7084
230.812 0.913275 0 -14.0882
263.169 0.685332 0 -15.8873
168.131 8.78969 0 -59.4955
193.92 4.79159 0 -36.6997
246.621 0.97663 0 -14.8462
222.661 4.62311 0 -40.0794
208.039 4.65216 0 -38.5387
154.897 9.1747 0 -57.7084
128.477 10.3872 0 -53.3203
200.966 -0.68045 0 -12.2572
230.812 0.913275 0 -14.0882
141.641 9.78689 0 -55.6589
166.258 5.14894 0 -32.4392
215.44 -0.199849 0 -13.4047
193.92 4.79159 0 -36.6997
180.088 5.0212 0 -34.6099
128.477 10.3872 0 -53.3203
99.3295 10.6996 0 -48.6023
178.444 0.770404 0 -11.2949
200.966 -0.68045 0 -12.2572
114.569 10.5815 0 -50.9485
141.259 5.74435 0 -26.686
188.736 0.919592 0 -11.1898
166.258 5.14894 0 -32.4392
153.05 5.24696 0 -30.004
99.3295 10.6996 0 -48.6023
67.4655 10.288 0 -44.7389
164.336 -5.29491 0 -9.38877
178.444 0.770404 0 -11.2949
83.588 11.1662 0 -46.3388
115.388 6.7164 0 -20.4526
169.349 -4.02713 0 -11.707
141.259 5.74435 0 -26.686
129.318 6.49778 0 -23.1204
67.4655 10.288 0 -44.7389
25.1135 -2.28717 0 -50.0004
178.7 5.0153 0 -5.16829
164.336 -5.29491 0 -9.38877
48.5443 5.81191 0 -45.4935
86.875 5.57308 0 -15.8118
168.279 3.55442 0 -6.17082
115.388 6.7164 0 -20.4526
100.719 6.2877 0 -18.4575
25.1135 -2.28717 0 -50.0004
-12.0597 -52.7281 0 -77.4424
253.506 20.8316 0 27.985
178.7 5.0153 0 -5.16829
4.50951 -15.2523 0 -58.987
10.8361 -29.134 0 -45.0689
198.746 -8.32888 0 -1.28334
86.875 5.57308 0 -15.8118
62.2497 -0.360554 0 -20.6233
-12.0597 -52.7281 0 -77.4424
-2.54834 -254.379 0 -92.0078
27.5922 -311.091 0 -225.946
253.506 20.8316 0 27.985
-19.2232 -133.937 0 -95.9062
-37.0598 -318.538 0 -140.517
265.124 59.4776 0 7.30495
10.8361 -29.134 0 -45.0689
-28.142 -103.807 0 -85.287
      </DataArray> 
      <DataArray type="Float64" NumberOfComponents="4" Name="GreenStrain" format="ascii">
-0.00482882 -1.11022e-16 0.0020695 -0.00164298
-0.00344278 0.0010913 0.00100778 6.36337e-05
-0.00247509 0.000490999 0.000850326 -0.000182918
-0.00219775 0 0.000941892 -0.000124094
-0.0038296 0.0012177 0.00111939 -0.000230532
-0.00312885 0.000760687 0.00101493 -0.000237287
-0.0023536 0.00023221 0.000909168 -0.000212388
-0.0025815 0 0.00110636 -0.0003983
-0.00301849 0.000515156 0.00107286 -0.000372845
-0.00344278 0.0010913 0.00100778 6.36337e-05
-0.00340431 0.00105466 0.00100699 1.94414e-05
-0.00257125 0.000695303 0.000803978 -8.66385e-05
-0.00247509 0.000490999 0.000850326 -0.000182918
-0.0033934 0.00100681 0.00102282 2.7545e-05
-0.00305892 0.000891132 0.000929051 -3.90881e-05
-0.0025513 0.000635445 0.000821082 -0.000131588
-0.00312885 0.000760687 0.00101493 -0.000237287
-0.00308496 0.000861253 0.000953016 -9.54112e-05
-0.00340431 0.00105466 0.00100699 1.94414e-05
-0.00345314 0.00102489 0.00104068 9.04374e-06
-0.00255858 0.000752161 0.000774179 -3.20237e-05
-0.00257125 0.000695303 0.000803978 -8.66385e-05
-0.00343705 0.00105262 0.0010219 1.97581e-05
-0.00302711 0.0009064 0.000908877 -3.74647e-06
-0.002564 0.000730692 0.000785703 -5.07068e-05
-0.00305892 0.000891132 0.000929051 -3.90881e-05
-0.00304241 0.000902128 0.000917262 -1.88261e-05
-0.00345314 0.00102489 0.00104068 9.04374e-06
-0.00347302 0.00104505 0.00104056 -1.09284e-06
-0.00254049 0.000759643 0.000763219 -2.01509e-05
-0.00255858 0.000752161 0.000774179 -3.20237e-05
-0.00346199 0.00102844 0.00104295 -1.87614e-06
-0.00300965 0.000904349 0.00090227 1.16507e-06
-0.0025518 0.000759575 0.000768097 -2.4001e-05
-0.00302711 0.0009064 0.000908877 -3.74647e-06
-0.00301541 0.000906264 0.000903918 2.85481e-06
-0.00347302 0.00104505 0.00104056 -1.09284e-06
-0.00348308 0.00104124 0.0010465 7.01801e-07
-0.00251966 0.000758155 0.00075493 -1.98425e-05
-0.00254049 0.000759643 0.000763219 -2.01509e-05
-0.0034816 0.00104667 0.00104354 1.74159e-06
-0.0030009 0.000901376 0.000899795 -4.30341e-06
-0.00252849 0.000759128 0.000758298 -1.87919e-05
-0.00300965 0.000904349 0.00090227 1.16507e-06
-0.00300606 0.000902785 0.000901405 -2.35876e-06
-0.00348308 0.00104124 0.0010465 7.01801e-07
-0.00347909 0.00104421 0.00104352 -6.54373e-07
-0.00250384 0.000752474 0.000750587 -2.41426e-05
-0.00251966 0.000758155 0.00075493 -1.98425e-05
-0.00348105 0.00104163 0.00104547 -1.11616e-06
-0.00298995 0.000897407 0.000896804 -9.25317e-06
-0.00251208 0.000755662 0.00075275 -2.21147e-05
-0.0030009 0.000901376 0.000899795 -4.30341e-06
-0.00299518 0.00089953 0.000898137 -6.50967e-06
-0.00347909 0.00104421 0.00104352 -6.54373e-07
-0.00347042 0.0010403 0.00104148 3.67656e-08
-0.00248853 0.000746981 0.000746378 -2.76987e-05
-0.00250384 0.000752474 0.000750587 -2.41426e-05
-0.00347596 0.00104316 0.00104263 2.016e-07
-0.00297828 0.000893159 0.000893623 -1.31231e-05
-0.00249573 0.000749611 0.000748337 -2.59302e-05
-0.00298995 0.000897407 0.000896804 -9.25317e-06
-0.00298453 0.000895287 0.000895391 -1.15617e-05
-0.00347042 0.0010403 0.00104148 3.67656e-08
-0.00345648 0.00103705 0.0010369 -2.10906e-07
-0.00247476 0.000741662 0.000742755 -3.05674e-05
-0.00248853 0.000746981 0.000746378 -2.76987e-05
-0.00346357 0.0010385 0.00103932 -3.54299e-07
-0.00296477 0.000888692 0.000889747 -1.55983e-05
-0.00248171 0.000744302 0.000744604 -2.93262e-05
-0.00297828 0.000893159 0.000893623 -1.31231e-05
-0.00297156 0.000890955 0.000891689 -1.4449e-05
-0.00345648 0.00103705 0.0010369 -2.10906e-07
-0.00344074 0.00103208 0.00103228 -2.3489e-08
-0.00246114 0.000736866 0.000738975 -3.22911e-05
-0.00247476 0.000741662 0.000742755 -3.05674e-05
-0.00344894 0.00103478 0.00103464 9.1365e-09
-0.00295046 0.000884091 0.000885589 -1.70546e-05
-0.00246784 0.000739198 0.000740848 -3.15159e-05
-0.00296477 0.000888692 0.000889747 -1.55983e-05
-0.00295777 0.0008864 0.000887731 -1.64576e-05
-0.00344074 0.00103208 0.00103228 -2.3489e-08
-0.00342345 0.00102709 0.00102701 -5.82836e-08
-0.00244789 0.000732392 0.000735212 -3.33651e-05
-0.00246114 0.000736866 0.000738975 -3.22911e-05
-0.00343215 0.00102956 0.00102968 -1.02377e-07
-0.00293541 0.000879433 0.000881134 -1.78828e-05
-0.00245453 0.000734599 0.000737113 -3.29151e-05
-0.00295046 0.000884091 0.000885589 -1.70546e-05
-0.00294297 0.000881768 0.000883371 -1.75235e-05
-0.00342345 0.00102709 0.00102701 -5.82836e-08
-0.00340563 0.00102169 0.00102169 -1.2457e-08
-0.00243466 0.000728163 0.000731355 -3.39284e-05
-0.00244789 0.000732392 0.000735212 -3.33651e-05
-0.00341461 0.00102444 0.00102436 -5.09619e-09
-0.00292005 0.000874737 0.000876564 -1.83038e-05
-0.00244125 0.000730252 0.000733285 -3.36873e-05
-0.00293541 0.000879433 0.000881134 -1.78828e-05
-0.00292778 0.000877088 0.000878869 -1.81333e-05
-0.00340563 0.00102169 0.00102169 -1.2457e-08
-0.00338744 0.00101627 0.00101621 -1.3805e-08
-0.00242151 0.000724076 0.00072747 -3.42298e-05
-0.00243466 0.000728163 0.000731355 -3.39284e-05
-0.00339655 0.00101898 0.00101896 -2.64189e-08
-0.00290446 0.00087003 0.0008719 -1.85173e-05
-0.00242809 0.000726107 0.00072942 -3.41077e-05
-0.00292005 0.000874737 0.000876564 -1.83038e-05
-0.00291227 0.000872384 0.000874236 -1.84292e-05
-0.00338744 0.00101627 0.00101621 -1.3805e-08
-0.00336914 0.00101077 0.00101073 -3.68524e-09
-0.00240835 0.000720075 0.000723548 -3.43667e-05
-0.00242151 0.000724076 0.00072747 -3.42298e-05
-0.0033783 0.00101353 0.00101347 -1.8501e-09
-0.00288879 0.000865316 0.000867203 -1.86094e-05
-0.00241493 0.000722068 0.000725511 -3.4311e-05
-0.00290446 0.00087003 0.0008719 -1.85173e-05
-0.00289664 0.000867673 0.000869556 -1.85737e-05
-0.00336914 0.00101077 0.00101073 -3.68524e-09
-0.00335078 0.00100527 0.00100522 -2.5064e-09
-0.00239522 0.000716119 0.000719613 -3.44272e-05
-0.00240835 0.000720075 0.000723548 -3.43667e-05
-0.00335996 0.00100802 0.00100797 -5.70416e-09
-0.00287306 0.000860602 0.000862482 -1.86476e-05
-0.00240179 0.000718093 0.000721583 -3.44043e-05
-0.00288879 0.000865316 0.000867203 -1.86094e-05
-0.00288093 0.000862959 0.000864843 -1.86331e-05
-0.00335078 0.00100527 0.00100522 -2.5064e-09
-0.00333241 0.000999758 0.000999708 -6.07003e-10
-0.00238208 0.000712186 0.000715668 -3.44469e-05
-0.00239522 0.000716119 0.000719613 -3.44272e-05
-0.0033416 0.00100252 0.00100246 -9.54612e-11
-0.00285732 0.00085589 0.000857755 -1.86582e-05
-0.00238865 0.00071415 0.000717641 -3.44399e-05
-0.00287306 0.000860602 0.000862482 -1.86476e-05
-0.00286519 0.000858246 0.00086012 -1.86549e-05
-0.00333241 0.000999758 0.000999708 -6.07003e-10
-0.00331404 0.000994247 0.000994197 -1.35098e-10
-0.00236894 0.000708265 0.000711718 -3.44507e-05
-0.00238208 0.000712186 0.000715668 -3.44469e-05
-0.00332322 0.000997002 0.000996952 -8.16502e-10
-0.00284157 0.000851178 0.000853024 -1.86589e-05
-0.00237551 0.000710225 0.000713693 -3.44502e-05
-0.00285732 0.00085589 0.000857755 -1.86582e-05
-0.00284944 0.000853534 0.00085539 -1.86592e-05
-0.00331404 0.000994247 0.000994197 -1.35098e-10
-0.00329567 0.000988737 0.000988687 9.83522e-11
-0.00235581 0.00070435 0.000707767 -3.4448e-05
-0.00236894 0.000708265 0.000711718 -3.44507e-05
-0.00330486 0.000991492 0.000991442 2.60412e-10
-0.00282582 0.000846467 0.000848294 -1.8656e-05
-0.00236237 0.000706307 0.000709743 -3.44497e-05
-0.00284157 0.000851178 0.000853024 -1.86589e-05
-0.00283369 0.000848822 0.000850659 -1.86576e-05
-0.00329567 0.000988737 0.000988687 9.83522e-11
-0.00327731 0.000983229 0.000983179 1.87961e-10
-0.00234267 0.000700436 0.000703815 -3.44441e-05
-0.00235581 0.00070435 0.000707767 -3.4448e-05
-0.00328649 0.000985983 0.000985933 8.25079e-11
-0.00281007 0.000841758 0.000843563 -1.86528e-05
-0.00234924 0.000702393 0.000705791 -3.44461e-05
-0.00282582 0.000846467 0.000848294 -1.8656e-05
-0.00281794 0.000844112 0.000845928 -1.86543e-05
-0.00327731 0.000983229 0.000983179 1.87961e-10
-0.00325896 0.000977722 0.000977673 1.63221e-10
-0.00232954 0.000696523 0.000699863 -3.44405e-05
-0.00234267 0.000700436 0.000703815 -3.44441e-05
-0.00326814 0.000980475 0.000980426 2.19712e-10
-0.00279433 0.000837048 0.000838833 -1.86502e-05
-0.0023361 0.00069848 0.000701839 -3.44422e-05
-0.00281007 0.000841758 0.000843563 -1.86528e-05
-0.0028022 0.000839403 0.000841198 -1.86514e-05
-0.00325896 0.000977722 0.000977673 1.63221e-10
-0.00324061 0.000972216 0.000972167 1.58008e-10
-0.0023164 0.00069261 0.000695911 -3.4438e-05
-0.00232954 0.000696523 0.000699863 -3.44405e-05
-0.00324978 0.000974969 0.00097492 1.55671e-10
-0.00277858 0.00083234 0.000834103 -1.86484e-05
-0.00232297 0.000694567 0.000697887 -3.44392e-05
-0.00279433 0.000837048 0.000838833 -1.86502e-05
-0.00278645 0.000834694 0.000836468 -1.86492e-05
-0.00324061 0.000972216 0.000972167 1.58008e-10
-0.00322226 0.00096671 0.000966662 1.25419e-10
-0.00230327 0.000688697 0.00069196 -3.44364e-05
-0.0023164 0.00069261 0.000695911 -3.4438e-05
-0.00323143 0.000969463 0.000969415 1.45638e-10
-0.00276284 0.000827631 0.000829374 -1.86473e-05
-0.00230984 0.000690654 0.000693936 -3.44371e-05
-0.00277858 0.00083234 0.000834103 -1.86484e-05
-0.00277071 0.000829985 0.000831739 -1.86478e-05
-0.00322226 0.00096671 0.000966662 1.25419e-10
-0.00320391 0.000961205 0.000961157 1.12431e-10
-0.00229014 0.000684784 0.000688009 -3.44354e-05
-0.00230327 0.000688697 0.00069196 -3.44364e-05
-0.00321308 0.000963958 0.00096391 1.19115e-10
-0.0027471 0.000822923 0.000824646 -1.86467e-05
-0.0022967 0.000686741 0.000689984 -3.44358e-05
-0.00276284 0.000827631 0.000829374 -1.86473e-05
-0.00275497 0.000825277 0.00082701 -1.8647e-05
-0.00320391 0.000961205 0.000961157 1.12431e-10
-0.00318556 0.000955701 0.000955653 9.65478e-11
-0.00227701 0.00068087 0.000684058 -3.44349e-05
-0.00229014 0.000684784 0.000688009 -3.44354e-05
-0.00319473 0.000958453 0.000958405 1.03525e-10
-0.00273135 0.000818214 0.000819917 -1.86465e-05
-0.00228357 0.000682827 0.000686033 -3.44351e-05
-0.0027471 0.000822923 0.000824646 -1.86467e-05
-0.00273922 0.000820568 0.000822281 -1.86466e-05
-0.00318556 0.000955701 0.000955653 9.65478e-11
-0.00316721 0.000950196 0.000950148 8.95384e-11
-0.00226387 0.000676957 0.000680107 -3.44347e-05
-0.00227701 0.00068087 0.000684058 -3.44349e-05
-0.00317638 0.000952948 0.0009529 9.30439e-11
-0.00271561 0.000813506 0.000815189 -1.86464e-05
-0.00227044 0.000678914 0.000682083 -3.44348e-05
-0.00273135 0.000818214 0.000819917 -1.86465e-05
-0.00272348 0.00081586 0.000817553 -1.86464e-05
-0.00316721 0.000950196 0.000950148 8.95388e-11
-0.00314886 0.000944691 0.000944644 8.34932e-11
-0.00225074 0.000673043 0.000676157 -3.44347e-05
-0.00226387 0.000676957 0.000680107 -3.44347e-05
-0.00315803 0.000947444 0.000947396 8.57189e-11
-0.00269987 0.000808797 0.000810461 -1.86464e-05
-0.00225731 0.000675 0.000678132 -3.44347e-05
-0.00271561 0.000813506 0.000815189 -1.86464e-05
-0.00270774 0.000811152 0.000812825 -1.86464e-05
-0.00314886 0.000944691 0.000944644 8.34932e-11
-0.00313051 0.000939187 0.000939139 8.07248e-11
-0.00223761 0.000669129 0.000672207 -3.44347e-05
-0.00225074 0.000673043 0.000676157 -3.44347e-05
-0.00313969 0.000941939 0.000941892 8.19617e-11
-0.00268413 0.000804089 0.000805733 -1.86465e-05
-0.00224418 0.000671086 0.000674182 -3.44347e-05
-0.00269987 0.000808797 0.000810461 -1.86464e-05
-0.002692 0.000806443 0.000808097 -1.86464e-05
-0.00313051 0.000939187 0.000939139 8.07223e-11
-0.00311216 0.000933682 0.000933635 7.86887e-11
-0.00222448 0.000665215 0.000668257 -3.44348e-05
-0.00223761 0.000669129 0.000672207 -3.44347e-05
-0.00312134 0.000936435 0.000936387 7.93309e-11
-0.00266839 0.000799381 0.000801005 -1.86466e-05
-0.00223105 0.000667172 0.000670232 -3.44348e-05
-0.00268413 0.000804089 0.000805733 -1.86465e-05
-0.00267626 0.000801735 0.000803369 -1.86465e-05
-0.00311216 0.000933682 0.000933635 7.86887e-11
-0.00309382 0.000928178 0.000928131 7.76993e-11
-0.00221135 0.000661302 0.000664307 -3.44349e-05
-0.00222448 0.000665215 0.000668257 -3.44348e-05
-0.00310299 0.00093093 0.000930883 7.80762e-11
-0.00265265 0.000794672 0.000796277 -1.86467e-05
-0.00221792 0.000663258 0.000666282 -3.44348e-05
-0.00266839 0.000799381 0.000801005 -1.86466e-05
-0.00266052 0.000797026 0.000798641 -1.86466e-05
-0.00309382 0.000928178 0.000928131 7.76993e-11
-0.00307547 0.000922674 0.000922627 7.69894e-11
-0.00219822 0.000657388 0.000660357 -3.44349e-05
-0.00221135 0.000661302 0.000664307 -3.44349e-05
-0.00308464 0.000925426 0.000925379 7.71831e-11
-0.00263691 0.000789964 0.000791549 -1.86467e-05
-0.00220479 0.000659345 0.000662332 -3.44349e-05
-0.00265265 0.000794672 0.000796277 -1.86467e-05
-0.00264478 0.000792318 0.000793913 -1.86467e-05
-0.00307547 0.000922674 0.000922627 7.69894e-11
-0.00305712 0.000917169 0.000917123 7.65476e-11
-0.00218509 0.000653473 0.000656407 -3.4435e-05
-0.00219822 0.000657388 0.000660357 -3.44349e-05
-0.0030663 0.000919921 0.000919875 7.67017e-11
-0.00262117 0.000785256 0.000786822 -1.86468e-05
-0.00219166 0.000655431 0.000658382 -3.4435e-05
-0.00263691 0.000789964 0.000791549 -1.86467e-05
-0.00262904 0.00078761 0.000789186 -1.86468e-05
-0.00305712 0.000917169 0.000917123 7.65484e-11
-0.00303878 0.000911665 0.000911619 7.61631e-11
-0.00217196 0.000649559 0.000652458 -3.4435e-05
-0.00218509 0.000653473 0.000656407 -3.4435e-05
-0.00304795 0.000914417 0.000914371 7.62901e-11
-0.00260543 0.000780547 0.000782095 -1.86468e-05
-0.00217853 0.000651516 0.000654433 -3.4435e-05
-0.00262117 0.000785256 0.000786822 -1.86468e-05
-0.0026133 0.000782901 0.000784458 -1.86468e-05
-0.00303878 0.000911665 0.000911619 7.61631e-11
-0.00302043 0.000906161 0.000906115 7.58198e-11
-0.00215883 0.000645645 0.000648509 -3.4435e-05
-0.00217196 0.000649559 0.000652458 -3.4435e-05
-0.0030296 0.000908913 0.000908867 7.59531e-11
-0.0025897 0.000775839 0.000777367 -1.86469e-05
-0.0021654 0.000647602 0.000650483 -3.4435e-05
-0.00260543 0.000780547 0.000782095 -1.86468e-05
-0.00259757 0.000778193 0.000779731 -1.86469e-05
-0.00302043 0.000906161 0.000906115 7.58231e-11
-0.00300208 0.000900657 0.000900611 7.54717e-11
-0.0021457 0.000641731 0.00064456 -3.4435e-05
-0.00215883 0.000645645 0.000648509 -3.4435e-05
-0.00301126 0.000903409 0.000903363 7.56075e-11
-0.00257396 0.000771131 0.00077264 -1.86469e-05
-0.00215227 0.000643688 0.000646534 -3.4435e-05
-0.0025897 0.000775839 0.000777367 -1.86469e-05
-0.00258183 0.000773485 0.000775004 -1.86469e-05
-0.00300208 0.000900657 0.000900611 7.54717e-11
-0.00298374 0.000895153 0.000895107 7.51124e-11
-0.00213258 0.000637817 0.000640611 -3.4435e-05
-0.0021457 0.000641731 0.00064456 -3.4435e-05
-0.00299291 0.000897905 0.000897859 7.5266e-11
-0.00255822 0.000766422 0.000767913 -1.86469e-05
-0.00213914 0.000639774 0.000642585 -3.4435e-05
-0.00257396 0.000771131 0.00077264 -1.86469e-05
-0.00256609 0.000768776 0.000770277 -1.86469e-05
-0.00298374 0.000895153 0.000895107 7.51058e-11
-0.00296539 0.000889649 0.000889604 7.47113e-11
-0.00211945 0.000633903 0.000636662 -3.4435e-05
-0.00213258 0.000637817 0.000640611 -3.4435e-05
-0.00297456 0.000892401 0.000892355 7.48788e-11
-0.00254248 0.000761714 0.000763186 -1.8647e-05
-0.00212601 0.00063586 0.000638636 -3.4435e-05
-0.00255822 0.000766422 0.000767913 -1.86469e-05
-0.00255035 0.000764068 0.00076555 -1.8647e-05
-0.00296539 0.000889649 0.000889604 7.47113e-11
-0.00294705 0.000884146 0.0008841 7.43028e-11
-0.00210632 0.000629988 0.000632713 -3.44349e-05
-0.00211945 0.000633903 0.000636662 -3.4435e-05
-0.00295622 0.000886897 0.000886852 7.44789e-11
-0.00252674 0.000757006 0.00075846 -1.8647e-05
-0.00211288 0.000631945 0.000634688 -3.4435e-05
-0.00254248 0.000761714 0.000763186 -1.8647e-05
-0.00253461 0.00075936 0.000760823 -1.8647e-05
-0.00294705 0.000884146 0.0008841 7.42995e-11
-0.0029287 0.000878642 0.000878596 7.38735e-11
-0.00209319 0.000626074 0.000628765 -3.44349e-05
-0.00210632 0.000629988 0.000632713 -3.44349e-05
-0.00293787 0.000881394 0.000881348 7.40597e-11
-0.00251101 0.000752298 0.000753733 -1.8647e-05
-0.00209976 0.000628031 0.000630739 -3.44349e-05
-0.00252674 0.000757006 0.00075846 -1.8647e-05
-0.00251888 0.000754652 0.000756096 -1.8647e-05
-0.0029287 0.000878642 0.000878596 7.38735e-11
-0.00291036 0.000873138 0.000873093 7.34199e-11
-0.00208007 0.00062216 0.000624817 -3.44348e-05
-0.00209319 0.000626074 0.000628765 -3.44349e-05
-0.00291953 0.00087589 0.000875845 7.36348e-11
-0.00249527 0.000747589 0.000749007 -1.8647e-05
-0.00208663 0.000624117 0.000626791 -3.44349e-05
-0.00251101 0.000752298 0.000753733 -1.8647e-05
-0.00250314 0.000749943 0.00075137 -1.8647e-05
-0.00291036 0.000873138 0.000873093 7.34232e-11
-0.00289201 0.000867635 0.00086759 7.29515e-11
-0.00206694 0.000618245 0.000620869 -3.44348e-05
-0.00208007 0.00062216 0.000624817 -3.44348e-05
-0.00290118 0.000870387 0.000870341 7.31504e-11
-0.00247954 0.000742881 0.00074428 -1.8647e-05
-0.0020735 0.000620202 0.000622843 -3.44348e-05
-0.00249527 0.000747589 0.000749007 -1.8647e-05
-0.0024874 0.000745235 0.000746643 -1.8647e-05
-0.00289201 0.000867635 0.00086759 7.29515e-11
-0.00287367 0.000862132 0.000862087 7.25178e-11
-0.00205381 0.000614331 0.000616921 -3.44347e-05
-0.00206694 0.000618245 0.000620869 -3.44348e-05
-0.00288284 0.000864883 0.000864838 7.27043e-11
-0.0024638 0.000738173 0.000739554 -1.8647e-05
-0.00206038 0.000616288 0.000618895 -3.44347e-05
-0.00247954 0.000742881 0.00074428 -1.8647e-05
-0.00247167 0.000740527 0.000741917 -1.8647e-05
-0.00287367 0.000862132 0.000862087 7.25178e-11
-0.00285532 0.000856628 0.000856583 7.20281e-11
-0.00204069 0.000610416 0.000612973 -3.44346e-05
-0.00205381 0.000614331 0.000616921 -3.44347e-05
-0.00286449 0.00085938 0.000859335 7.22557e-11
-0.00244806 0.000733465 0.000734828 -1.8647e-05
-0.00204725 0.000612374 0.000614947 -3.44347e-05
-0.0024638 0.000738173 0.000739554 -1.8647e-05
-0.00245593 0.000735819 0.000737191 -1.8647e-05
-0.00285532 0.000856628 0.000856583 7.20216e-11
-0.00283698 0.000851125 0.00085108 7.15623e-11
-0.00202756 0.000606502 0.000609026 -3.44345e-05
-0.00204069 0.000610416 0.000612973 -3.44346e-05
-0.00284615 0.000853877 0.000853832 7.17602e-11
-0.00243233 0.000728757 0.000730102 -1.8647e-05
-0.00203412 0.000608459 0.000610999 -3.44346e-05
-0.00244806 0.000733465 0.000734828 -1.8647e-05
-0.0024402 0.000731111 0.000732465 -1.8647e-05
-0.00283698 0.000851125 0.00085108 7.15623e-11
-0.00281864 0.000845622 0.000845577 7.10922e-11
-0.00201444 0.000602587 0.000605078 -3.44345e-05
-0.00202756 0.000606502 0.000609026 -3.44345e-05
-0.00282781 0.000848374 0.000848329 7.13042e-11
-0.00241659 0.000724049 0.000725376 -1.86469e-05
-0.002021 0.000604545 0.000607052 -3.44345e-05
-0.00243233 0.000728757 0.000730102 -1.8647e-05
-0.00242446 0.000726403 0.000727739 -1.8647e-05
-0.00281864 0.000845622 0.000845577 7.10864e-11
-0.00280029 0.000840119 0.000840075 7.0612e-11
-0.00200131 0.000598673 0.000601131 -3.44344e-05
-0.00201444 0.000602587 0.000605078 -3.44345e-05
-0.00280946 0.00084287 0.000842826 7.0809e-11
-0.00240086 0.000719341 0.000720651 -1.86469e-05
-0.00200787 0.00060063 0.000603105 -3.44344e-05
-0.00241659 0.000724049 0.000725376 -1.86469e-05
-0.00240873 0.000721695 0.000723013 -1.86469e-05
-0.00280029 0.000840119 0.000840075 7.0612e-11
-0.00278195 0.000834616 0.000834572 7.01241e-11
-0.00198819 0.000594758 0.000597184 -3.44343e-05
-0.00200131 0.000598673 0.000601131 -3.44344e-05
-0.00279112 0.000837368 0.000837323 7.03561e-11
-0.00238512 0.000714633 0.000715925 -1.86469e-05
-0.00199475 0.000596715 0.000599158 -3.44343e-05
-0.00240086 0.000719341 0.000720651 -1.86469e-05
-0.00239299 0.000716987 0.000718288 -1.86469e-05
-0.00278195 0.000834616 0.000834572 7.0125e-11
-0.00276361 0.000829113 0.000829069 6.96563e-11
-0.00197506 0.000590843 0.000593237 -3.44342e-05
-0.00198819 0.000594758 0.000597184 -3.44343e-05
-0.00277278 0.000831865 0.000831821 6.98564e-11
-0.00236939 0.000709925 0.0007112 -1.86469e-05
-0.00198163 0.000592801 0.000595211 -3.44342e-05
-0.00238512 0.000714633 0.000715925 -1.86469e-05
-0.00237726 0.000712279 0.000713562 -1.86469e-05
-0.00276361 0.000829113 0.000829069 6.96563e-11
-0.00274527 0.000823611 0.000823567 6.91692e-11
-0.00196194 0.000586929 0.000589291 -3.44341e-05
-0.00197506 0.000590843 0.000593237 -3.44342e-05
-0.00275444 0.000826362 0.000826318 6.94128e-11
-0.00235366 0.000705217 0.000706475 -1.86469e-05
-0.0019685 0.000588886 0.000591264 -3.44341e-05
-0.00236939 0.000709925 0.0007112 -1.86469e-05
-0.00236152 0.000707571 0.000708837 -1.86469e-05
-0.00274527 0.000823611 0.000823567 6.91758e-11
-0.00272692 0.000818108 0.000818064 6.87033e-11
-0.00194882 0.000583014 0.000585344 -3.44339e-05
-0.00196194 0.000586929 0.000589291 -3.44341e-05
-0.0027361 0.000820859 0.000820815 6.88869e-11
-0.00233792 0.000700509 0.00070175 -1.86468e-05
-0.00195538 0.000584971 0.000587317 -3.4434e-05
-0.00235366 0.000705217 0.000706475 -1.86469e-05
-0.00234579 0.000702863 0.000704112 -1.86468e-05
-0.00272692 0.000818108 0.000818064 6.87033e-11
-0.00270858 0.000812606 0.000812562 6.82801e-11
-0.00193569 0.000579099 0.000581398 -3.44338e-05
-0.00194882 0.000583014 0.000585344 -3.44339e-05
-0.00271775 0.000815357 0.000815313 6.84867e-11
-0.00232219 0.000695801 0.000697025 -1.86468e-05
-0.00194226 0.000581057 0.000583371 -3.44339e-05
-0.00233792 0.000700509 0.00070175 -1.86468e-05
-0.00233006 0.000698155 0.000699387 -1.86468e-05
-0.00270858 0.000812606 0.000812562 6.828e-11
-0.00269024 0.000807103 0.00080706 6.77104e-11
-0.00192257 0.000575184 0.000577452 -3.44337e-05
-0.00193569 0.000579099 0.000581398 -3.44338e-05
-0.00269941 0.000809854 0.000809811 6.79803e-11
-0.00230646 0.000691093 0.0006923 -1.86468e-05
-0.00192913 0.000577142 0.000579425 -3.44338e-05
-0.00232219 0.000695801 0.000697025 -1.86468e-05
-0.00231433 0.000693447 0.000694662 -1.86468e-05
-0.00269024 0.000807103 0.00080706 6.77104e-11
-0.0026719 0.000801601 0.000801558 6.72791e-11
-0.00190945 0.00057127 0.000573506 -3.44336e-05
-0.00192257 0.000575184 0.000577452 -3.44337e-05
-0.00268107 0.000804352 0.000804309 6.74519e-11
-0.00229073 0.000686385 0.000687575 -1.86467e-05
-0.00191601 0.000573227 0.000575479 -3.44336e-05
-0.00230646 0.000691093 0.0006923 -1.86468e-05
-0.00229859 0.000688739 0.000689938 -1.86468e-05
-0.0026719 0.000801601 0.000801558 6.72791e-11
-0.00265356 0.000796099 0.000796055 6.67927e-11
-0.00189633 0.000567355 0.00056956 -3.44335e-05
-0.00190945 0.00057127 0.000573506 -3.44336e-05
-0.00266273 0.00079885 0.000798806 6.70467e-11
-0.002275 0.000681677 0.000682851 -1.86467e-05
-0.00190289 0.000569312 0.000571533 -3.44335e-05
-0.00229073 0.000686385 0.000687575 -1.86467e-05
-0.00228286 0.000684031 0.000685213 -1.86467e-05
-0.00265356 0.000796099 0.000796055 6.68011e-11
-0.00263522 0.000790597 0.000790554 6.63113e-11
-0.00188321 0.00056344 0.000565614 -3.44333e-05
-0.00189633 0.000567355 0.00056956 -3.44335e-05
-0.00264439 0.000793348 0.000793305 6.65288e-11
-0.00225926 0.000676969 0.000678126 -1.86467e-05
-0.00188977 0.000565397 0.000567587 -3.44334e-05
-0.002275 0.000681677 0.000682851 -1.86467e-05
-0.00226713 0.000679323 0.000680489 -1.86467e-05
-0.00263522 0.000790597 0.000790554 6.63129e-11
-0.00261688 0.000785095 0.000785052 6.58429e-11
-0.00187009 0.000559525 0.000561669 -3.44332e-05
-0.00188321 0.00056344 0.000565614 -3.44333e-05
-0.00262605 0.000787846 0.000787803 6.60692e-11
-0.00224353 0.000672262 0.000673402 -1.86466e-05
-0.00187665 0.000561482 0.000563642 -3.44332e-05
-0.00225926 0.000676969 0.000678126 -1.86467e-05
-0.0022514 0.000674615 0.000675764 -1.86466e-05
-0.00261688 0.000785095 0.000785052 6.58429e-11
-0.00259854 0.000779593 0.00077955 6.5388e-11
-0.00185697 0.00055561 0.000557724 -3.4433e-05
-0.00187009 0.000559525 0.000561669 -3.44332e-05
-0.00260771 0.000782344 0.000782301 6.55828e-11
-0.0022278 0.000667554 0.000668678 -1.86466e-05
-0.00186353 0.000557568 0.000559696 -3.44331e-05
-0.00224353 0.000672262 0.000673402 -1.86466e-05
-0.00223567 0.000669908 0.00067104 -1.86466e-05
-0.00259854 0.000779593 0.00077955 6.5388e-11
-0.0025802 0.000774091 0.000774048 6.48988e-11
-0.00184385 0.000551695 0.000553779 -3.44329e-05
-0.00185697 0.00055561 0.000557724 -3.4433e-05
-0.00258937 0.000776842 0.000776799 6.51133e-11
-0.00221207 0.000662846 0.000663954 -1.86465e-05
-0.00185041 0.000553653 0.000555751 -3.4433e-05
-0.0022278 0.000667554 0.000668678 -1.86466e-05
-0.00221994 0.0006652 0.000666316 -1.86466e-05
-0.0025802 0.000774091 0.000774048 6.49004e-11
-0.00256187 0.000768589 0.000768547 6.44351e-11
-0.00183073 0.00054778 0.000549834 -3.44327e-05
-0.00184385 0.000551695 0.000553779 -3.44329e-05
-0.00257103 0.00077134 0.000771298 6.46466e-11
-0.00219634 0.000658139 0.000659231 -1.86465e-05
-0.00183729 0.000549738 0.000551806 -3.44328e-05
-0.00221207 0.000662846 0.000663954 -1.86465e-05
-0.00220421 0.000660492 0.000661592 -1.86465e-05
-0.00256187 0.000768589 0.000768547 6.44351e-11
-0.00254353 0.000763088 0.000763045 6.39579e-11
-0.00181761 0.000543865 0.000545889 -3.44326e-05
-0.00183073 0.00054778 0.000549834 -3.44327e-05
-0.0025527 0.000765839 0.000765796 6.4173e-11
-0.00218061 0.000653431 0.000654507 -1.86464e-05
-0.00182417 0.000545823 0.000547862 -3.44327e-05
-0.00219634 0.000658139 0.000659231 -1.86465e-05
-0.00218848 0.000655785 0.000656869 -1.86465e-05
-0.00254353 0.000763088 0.000763045 6.39579e-11
-0.00252519 0.000757586 0.000757544 6.34862e-11
-0.00180449 0.00053995 0.000541945 -3.44324e-05
-0.00181761 0.000543865 0.000545889 -3.44326e-05
-0.00253436 0.000760337 0.000760295 6.36998e-11
-0.00216488 0.000648723 0.000649783 -1.86464e-05
-0.00181105 0.000541908 0.000543917 -3.44325e-05
-0.00218061 0.000653431 0.000654507 -1.86464e-05
-0.00217275 0.000651077 0.000652145 -1.86464e-05
-0.00252519 0.000757586 0.000757544 6.34862e-11
-0.00250685 0.000752085 0.000752043 6.30192e-11
-0.00179137 0.000536035 0.000538001 -3.44323e-05
-0.00180449 0.00053995 0.000541945 -3.44324e-05
-0.00251602 0.000754836 0.000754794 6.3228e-11
-0.00214916 0.000644016 0.00064506 -1.86463e-05
-0.00179793 0.000537993 0.000539973 -3.44324e-05
-0.00216488 0.000648723 0.000649783 -1.86464e-05
-0.00215702 0.00064637 0.000647422 -1.86464e-05
-0.00250685 0.000752085 0.000752043 6.30125e-11
-0.00248851 0.000746584 0.000746542 6.2538e-11
-0.00177825 0.00053212 0.000534057 -3.44321e-05
-0.00179137 0.000536035 0.000538001 -3.44323e-05
-0.00249768 0.000749335 0.000749292 6.27512e-11
-0.00213343 0.000639308 0.000640337 -1.86463e-05
-0.00178481 0.000534077 0.000536029 -3.44322e-05
-0.00214916 0.000644016 0.00064506 -1.86463e-05
-0.00214129 0.000641662 0.000642699 -1.86463e-05
-0.00248851 0.000746584 0.000746542 6.25529e-11
-0.00247018 0.000741083 0.000741041 6.20673e-11
-0.00176513 0.000528205 0.000530113 -3.4432e-05
-0.00177825 0.00053212 0.000534057 -3.44321e-05
-0.00247935 0.000743833 0.000743791 6.22864e-11
-0.0021177 0.000634601 0.000635614 -1.86462e-05
-0.00177169 0.000530162 0.000532085 -3.4432e-05
-0.00213343 0.000639308 0.000640337 -1.86463e-05
-0.00212556 0.000636955 0.000637976 -1.86462e-05
-0.00247018 0.000741083 0.000741041 6.20673e-11
-0.00245184 0.000735582 0.00073554 6.15798e-11
-0.00175202 0.00052429 0.000526169 -3.44318e-05
-0.00176513 0.000528205 0.000530113 -3.4432e-05
-0.00246101 0.000738332 0.00073829 6.18064e-11
-0.00210197 0.000629893 0.000630891 -1.86462e-05
-0.00175858 0.000526247 0.000528141 -3.44319e-05
-0.0021177 0.000634601 0.000635614 -1.86462e-05
-0.00210984 0.000632247 0.000633253 -1.86462e-05
-0.00245184 0.000735582 0.00073554 6.15798e-11
-0.00243351 0.000730081 0.000730039 6.11083e-11
-0.0017389 0.000520374 0.000522225 -3.44316e-05
-0.00175202 0.00052429 0.000526169 -3.44318e-05
-0.00244267 0.000732831 0.00073279 6.13185e-11
-0.00208625 0.000625186 0.000626168 -1.86461e-05
-0.00174546 0.000522332 0.000524197 -3.44317e-05
-0.00210197 0.000629893 0.000630891 -1.86462e-05
-0.00209411 0.00062754 0.00062853 -1.86461e-05
-0.00243351 0.000730081 0.000730039 6.1115e-11
-0.00241517 0.00072458 0.000724539 6.06339e-11
-0.00172578 0.000516459 0.000518282 -3.44315e-05
-0.0017389 0.000520374 0.000522225 -3.44316e-05
-0.00242434 0.000727331 0.000727289 6.08572e-11
-0.00207052 0.000620479 0.000621446 -1.8646e-05
-0.00173234 0.000518417 0.000520254 -3.44315e-05
-0.00208625 0.000625186 0.000626168 -1.86461e-05
-0.00207838 0.000622832 0.000623807 -1.86461e-05
-0.00241517 0.00072458 0.000724539 6.06405e-11
-0.00239684 0.000719079 0.000719038 6.01752e-11
-0.00171267 0.000512544 0.000514339 -3.44313e-05
-0.00172578 0.000516459 0.000518282 -3.44315e-05
-0.002406 0.00072183 0.000721788 6.03913e-11
-0.00205479 0.000615771 0.000616724 -1.8646e-05
-0.00171923 0.000514502 0.00051631 -3.44314e-05
-0.00207052 0.000620479 0.000621446 -1.8646e-05
-0.00206266 0.000618125 0.000619085 -1.8646e-05
-0.00239684 0.000719079 0.000719038 6.01752e-11
-0.0023785 0.000713579 0.000713538 5.96939e-11
-0.00169955 0.000508629 0.000510396 -3.44311e-05
-0.00171267 0.000512544 0.000514339 -3.44313e-05
-0.00238767 0.000716329 0.000716288 5.99201e-11
-0.00203907 0.000611064 0.000612001 -1.86459e-05
-0.00170611 0.000510586 0.000512367 -3.44312e-05
-0.00205479 0.000615771 0.000616724 -1.8646e-05
-0.00204693 0.000613418 0.000614362 -1.8646e-05
-0.0023785 0.000713579 0.000713538 5.96939e-11
-0.00236017 0.000708078 0.000708037 5.92358e-11
-0.00168644 0.000504714 0.000506453 -3.44309e-05
-0.00169955 0.000508629 0.000510396 -3.44311e-05
-0.00236933 0.000710829 0.000710787 5.94395e-11
-0.00202334 0.000606357 0.000607279 -1.86459e-05
-0.00169299 0.000506671 0.000508424 -3.4431e-05
-0.00203907 0.000611064 0.000612001 -1.86459e-05
-0.0020312 0.00060871 0.00060964 -1.86459e-05
-0.00236017 0.000708078 0.000708037 5.92358e-11
-0.00234183 0.000702578 0.000702537 5.87541e-11
-0.00167332 0.000500798 0.00050251 -3.44308e-05
-0.00168644 0.000504714 0.000506453 -3.44309e-05
-0.002351 0.000705328 0.000705287 5.89729e-11
-0.00200762 0.000601649 0.000602557 -1.86458e-05
-0.00167988 0.000502756 0.000504482 -3.44308e-05
-0.00202334 0.000606357 0.000607279 -1.86459e-05
-0.00201548 0.000604003 0.000604918 -1.86458e-05
-0.00234183 0.000702578 0.000702537 5.87425e-11
-0.0023235 0.000697078 0.000697037 5.82722e-11
-0.00166021 0.000496883 0.000498568 -3.44306e-05
-0.00167332 0.000500798 0.00050251 -3.44308e-05
-0.00233266 0.000699828 0.000699787 5.84926e-11
-0.00199189 0.000596942 0.000597836 -1.86457e-05
-0.00166677 0.000498841 0.000500539 -3.44307e-05
-0.00200762 0.000601649 0.000602557 -1.86458e-05
-0.00199975 0.000599296 0.000600196 -1.86458e-05
-0.0023235 0.000697078 0.000697037 5.82722e-11
-0.00230516 0.000691578 0.000691537 5.78104e-11
-0.00164709 0.000492968 0.000494626 -3.44304e-05
-0.00166021 0.000496883 0.000498568 -3.44306e-05
-0.00231433 0.000694328 0.000694287 5.80149e-11
-0.00197617 0.000592235 0.000593114 -1.86457e-05
-0.00165365 0.000494925 0.000496597 -3.44305e-05
-0.00199189 0.000596942 0.000597836 -1.86457e-05
-0.00198403 0.000594589 0.000595475 -1.86457e-05
-0.00230516 0.000691578 0.000691537 5.78104e-11
-0.00228683 0.000686078 0.000686037 5.73446e-11
-0.00163398 0.000489052 0.000490684 -3.44302e-05
-0.00164709 0.000492968 0.000494626 -3.44304e-05
-0.002296 0.000688828 0.000688787 5.75679e-11
-0.00196044 0.000587528 0.000588392 -1.86456e-05
-0.00164054 0.00049101 0.000492655 -3.44303e-05
-0.00197617 0.000592235 0.000593114 -1.86457e-05
-0.00196831 0.000589882 0.000590753 -1.86456e-05
-0.00228683 0.000686078 0.000686037 5.73461e-11
-0.0022685 0.000680578 0.000680537 5.68827e-11
-0.00162087 0.000485137 0.000486742 -3.443e-05
-0.00163398 0.000489052 0.000490684 -3.44302e-05
-0.00227766 0.000683328 0.000683287 5.70845e-11
-0.00194472 0.000582821 0.000583671 -1.86455e-05
-0.00162742 0.000487094 0.000488713 -3.44301e-05
-0.00196044 0.000587528 0.000588392 -1.86456e-05
-0.00195258 0.000585175 0.000586032 -1.86456e-05
-0.0022685 0.000680578 0.000680537 5.68694e-11
-0.00225017 0.000675078 0.000675038 5.64076e-11
-0.00160776 0.000481221 0.0004828 -3.44298e-05
-0.00162087 0.000485137 0.000486742 -3.443e-05
-0.00225933 0.000677828 0.000677788 5.66074e-11
-0.001929 0.000578114 0.00057895 -1.86455e-05
-0.00161431 0.000483179 0.000484771 -3.44299e-05
-0.00194472 0.000582821 0.000583671 -1.86455e-05
-0.00193686 0.000580468 0.00058131 -1.86455e-05
-0.00225017 0.000675078 0.000675038 5.64076e-11
-0.00223183 0.000669578 0.000669538 5.59342e-11
-0.00159464 0.000477306 0.000478859 -3.44297e-05
-0.00160776 0.000481221 0.0004828 -3.44298e-05
-0.002241 0.000672328 0.000672288 5.6166e-11
-0.00191327 0.000573407 0.000574229 -1.86454e-05
-0.0016012 0.000479264 0.000480829 -3.44297e-05
-0.001929 0.000578114 0.00057895 -1.86455e-05
-0.00192114 0.000575761 0.000576589 -1.86454e-05
-0.00223183 0.000669578 0.000669538 5.59342e-11
-0.0022135 0.000664079 0.000664039 5.54541e-11
-0.00158153 0.00047339 0.000474917 -3.44295e-05
-0.00159464 0.000477306 0.000478859 -3.44297e-05
-0.00222267 0.000666829 0.000666788 5.57035e-11
-0.00189755 0.0005687 0.000569508 -1.86453e-05
-0.00158809 0.000475348 0.000476888 -3.44296e-05
-0.00191327 0.000573407 0.000574229 -1.86454e-05
-0.00190541 0.000571054 0.000571868 -1.86454e-05
-0.0022135 0.000664079 0.000664039 5.54623e-11
-0.00219517 0.00065858 0.000658539 5.49978e-11
-0.00156842 0.000469475 0.000470976 -3.44293e-05
-0.00158153 0.00047339 0.000474917 -3.44295e-05
-0.00220434 0.000661329 0.000661289 5.51971e-11
-0.00188183 0.000563993 0.000564787 -1.86453e-05
-0.00157498 0.000471433 0.000472947 -3.44294e-05
-0.00189755 0.0005687 0.000569508 -1.86453e-05
-0.00188969 0.000566347 0.000567148 -1.86453e-05
-0.00219517 0.00065858 0.000658539 5.49845e-11
-0.00217684 0.00065308 0.00065304 5.45226e-11
-0.00155531 0.000465559 0.000467035 -3.44291e-05
-0.00156842 0.000469475 0.000470976 -3.44293e-05
-0.00218601 0.00065583 0.00065579 5.47487e-11
-0.00186611 0.000559286 0.000560067 -1.86452e-05
-0.00156186 0.000467517 0.000469006 -3.44292e-05
-0.00188183 0.000563993 0.000564787 -1.86453e-05
-0.00187397 0.00056164 0.000562427 -1.86452e-05
-0.00217684 0.00065308 0.00065304 5.45226e-11
-0.00215851 0.000647581 0.000647541 5.40576e-11
-0.0015422 0.000461644 0.000463095 -3.44289e-05
-0.00155531 0.000465559 0.000467035 -3.44291e-05
-0.00216768 0.000650331 0.000650291 5.42698e-11
-0.00185039 0.000554579 0.000555346 -1.86451e-05
-0.00154875 0.000463602 0.000465065 -3.4429e-05
-0.00186611 0.000559286 0.000560067 -1.86452e-05
-0.00185825 0.000556933 0.000557707 -1.86452e-05
-0.00215851 0.000647581 0.000647541 5.40576e-11
-0.00214018 0.000642082 0.000642042 5.35749e-11
-0.00152909 0.000457728 0.000459154 -3.44287e-05
-0.0015422 0.000461644 0.000463095 -3.44289e-05
-0.00214935 0.000644831 0.000644792 5.38267e-11
-0.00183467 0.000549873 0.000550626 -1.86451e-05
-0.00153564 0.000459686 0.000461124 -3.44288e-05
-0.00185039 0.000554579 0.000555346 -1.86451e-05
-0.00184253 0.000552226 0.000552986 -1.86451e-05
-0.00214018 0.000642082 0.000642042 5.35879e-11
-0.00212185 0.000636583 0.000636543 5.31142e-11
-0.00151598 0.000453813 0.000455214 -3.44285e-05
-0.00152909 0.000457728 0.000459154 -3.44287e-05
-0.00213102 0.000639332 0.000639293 5.33574e-11
-0.00181895 0.000545166 0.000545906 -1.8645e-05
-0.00152253 0.00045577 0.000457184 -3.44286e-05
-0.00183467 0.000549873 0.000550626 -1.86451e-05
-0.00182681 0.000547519 0.000548266 -1.8645e-05
-0.00212185 0.000636583 0.000636543 5.31174e-11
-0.00210352 0.000631084 0.000631045 5.26593e-11
-0.00150287 0.000449897 0.000451274 -3.44283e-05
-0.00151598 0.000453813 0.000455214 -3.44285e-05
-0.00211269 0.000633833 0.000633794 5.28771e-11
-0.00180323 0.000540459 0.000541186 -1.86449e-05
-0.00150942 0.000451855 0.000453244 -3.44284e-05
-0.00181895 0.000545166 0.000545906 -1.8645e-05
-0.00181109 0.000542813 0.000543546 -1.86449e-05
-0.00210352 0.000631084 0.000631045 5.26593e-11
-0.00208519 0.000625585 0.000625546 5.21856e-11
-0.00148976 0.000445981 0.000447334 -3.44281e-05
-0.00150287 0.000449897 0.000451274 -3.44283e-05
-0.00209436 0.000628335 0.000628295 5.24006e-11
-0.00178751 0.000535753 0.000536466 -1.86448e-05
-0.00149631 0.000447939 0.000449304 -3.44282e-05
-0.00180323 0.000540459 0.000541186 -1.86449e-05
-0.00179537 0.000538106 0.000538826 -1.86449e-05
-0.00208519 0.000625585 0.000625546 5.21856e-11
-0.00206686 0.000620087 0.000620047 5.17315e-11
-0.00147665 0.000442066 0.000443394 -3.44279e-05
-0.00148976 0.000445981 0.000447334 -3.44281e-05
-0.00207603 0.000622836 0.000622797 5.19617e-11
-0.00177179 0.000531046 0.000531747 -1.86448e-05
-0.00148321 0.000444023 0.000445364 -3.4428e-05
-0.00178751 0.000535753 0.000536466 -1.86448e-05
-0.00177965 0.000533399 0.000534107 -1.86448e-05
-0.00206686 0.000620087 0.000620047 5.17314e-11
-0.00204854 0.000614588 0.000614549 5.12402e-11
-0.00146354 0.00043815 0.000439454 -3.44278e-05
-0.00147665 0.000442066 0.000443394 -3.44279e-05
-0.0020577 0.000617337 0.000617298 5.14805e-11
-0.00175607 0.000526339 0.000527027 -1.86447e-05
-0.0014701 0.000440108 0.000441424 -3.44279e-05
-0.00177179 0.000531046 0.000531747 -1.86448e-05
-0.00176393 0.000528693 0.000529387 -1.86447e-05
-0.00204854 0.000614588 0.000614549 5.12552e-11
-0.00203021 0.00060909 0.000609051 5.07651e-11
-0.00145044 0.000434234 0.000435515 -3.44276e-05
-0.00146354 0.00043815 0.000439454 -3.44278e-05
-0.00203937 0.000611839 0.0006118 5.10035e-11
-0.00174035 0.000521633 0.000522308 -1.86446e-05
-0.00145699 0.000436192 0.000437485 -3.44277e-05
-0.00175607 0.000526339 0.000527027 -1.86447e-05
-0.00174821 0.000523986 0.000524668 -1.86447e-05
-0.00203021 0.00060909 0.000609051 5.07651e-11
-0.00201188 0.000603591 0.000603552 5.03076e-11
-0.00143733 0.000430318 0.000431576 -3.44274e-05
-0.00145044 0.000434234 0.000435515 -3.44276e-05
-0.00202104 0.00060634 0.000606302 5.0561e-11
-0.00172463 0.000516926 0.000517589 -1.86446e-05
-0.00144388 0.000432276 0.000433545 -3.44275e-05
-0.00174035 0.000521633 0.000522308 -1.86446e-05
-0.00173249 0.00051928 0.000519948 -1.86446e-05
-0.00201188 0.000603591 0.000603552 5.03076e-11
-0.00199355 0.000598093 0.000598054 4.98454e-11
-0.00142422 0.000426403 0.000427637 -3.44272e-05
-0.00143733 0.000430318 0.000431576 -3.44274e-05
-0.00200272 0.000600842 0.000600803 5.0074e-11
-0.00170892 0.00051222 0.00051287 -1.86445e-05
-0.00143077 0.000428361 0.000429606 -3.44273e-05
-0.00172463 0.000516926 0.000517589 -1.86446e-05
-0.00171677 0.000514573 0.000515229 -1.86445e-05
-0.00199355 0.000598093 0.000598054 4.98404e-11
-0.00197523 0.000592595 0.000592556 4.9365e-11
-0.00141111 0.000422487 0.000423698 -3.4427e-05
-0.00142422 0.000426403 0.000427637 -3.44272e-05
-0.00198439 0.000595344 0.000595305 4.95767e-11
-0.0016932 0.000507513 0.000508151 -1.86444e-05
-0.00141767 0.000424445 0.000425667 -3.44271e-05
-0.00170892 0.00051222 0.00051287 -1.86445e-05
-0.00170106 0.000509867 0.00051051 -1.86445e-05
-0.00197523 0.000592595 0.000592556 4.93734e-11
-0.0019569 0.000587097 0.000587059 4.89191e-11
-0.00139801 0.000418571 0.000419759 -3.44268e-05
-0.00141111 0.000422487 0.000423698 -3.4427e-05
-0.00196606 0.000589846 0.000589808 4.91563e-11
-0.00167748 0.000502807 0.000503432 -1.86444e-05
-0.00140456 0.000420529 0.000421728 -3.44269e-05
-0.0016932 0.000507513 0.000508151 -1.86444e-05
-0.00168534 0.00050516 0.000505792 -1.86444e-05
-0.0019569 0.000587097 0.000587059 4.89191e-11
-0.00193857 0.000581599 0.000581561 4.84443e-11
-0.0013849 0.000414655 0.000415821 -3.44266e-05
-0.00139801 0.000418571 0.000419759 -3.44268e-05
-0.00194774 0.000584348 0.00058431 4.86738e-11
-0.00166177 0.000498101 0.000498714 -1.86443e-05
-0.00139146 0.000416613 0.00041779 -3.44267e-05
-0.00167748 0.000502807 0.000503432 -1.86444e-05
-0.00166962 0.000500454 0.000501073 -1.86443e-05
-0.00193857 0.000581599 0.000581561 4.84443e-11
-0.00192025 0.000576101 0.000576063 4.79784e-11
-0.0013718 0.000410739 0.000411882 -3.44264e-05
-0.0013849 0.000414655 0.000415821 -3.44266e-05
-0.00192941 0.00057885 0.000578812 4.8208e-11
-0.00164605 0.000493394 0.000493995 -1.86442e-05
-0.00137835 0.000412697 0.000413851 -3.44265e-05
-0.00166177 0.000498101 0.000498714 -1.86443e-05
-0.00165391 0.000495748 0.000496355 -1.86443e-05
-0.00192025 0.000576101 0.000576063 4.79666e-11
-0.00190192 0.000570604 0.000570566 4.74953e-11
-0.00135869 0.000406823 0.000407944 -3.44263e-05
-0.0013718 0.000410739 0.000411882 -3.44264e-05
-0.00191109 0.000573353 0.000573314 4.77265e-11
-0.00163033 0.000488688 0.000489277 -1.86441e-05
-0.00136525 0.000408781 0.000409913 -3.44263e-05
-0.00164605 0.000493394 0.000493995 -1.86442e-05
-0.00163819 0.000491041 0.000491636 -1.86442e-05
-0.00190192 0.000570604 0.000570566 4.75085e-11
-0.0018836 0.000565106 0.000565068 4.70482e-11
-0.00134559 0.000402908 0.000404006 -3.44261e-05
-0.00135869 0.000406823 0.000407944 -3.44263e-05
-0.00189276 0.000567855 0.000567817 4.72611e-11
-0.00161462 0.000483982 0.000484559 -1.86441e-05
-0.00135214 0.000404866 0.000405975 -3.44262e-05
-0.00163033 0.000488688 0.000489277 -1.86441e-05
-0.00162248 0.000486335 0.000486918 -1.86441e-05
-0.0018836 0.000565106 0.000565068 4.70482e-11
-0.00186527 0.000559609 0.000559571 4.65933e-11
-0.00133249 0.000398992 0.000400069 -3.44259e-05
-0.00134559 0.000402908 0.000404006 -3.44261e-05
-0.00187444 0.000562358 0.00056232 4.67773e-11
-0.00159891 0.000479276 0.000479841 -1.8644e-05
-0.00133904 0.00040095 0.000402037 -3.4426e-05
-0.00161462 0.000483982 0.000484559 -1.86441e-05
-0.00160676 0.000481629 0.0004822 -1.8644e-05
-0.00186527 0.000559609 0.000559571 4.65933e-11
-0.00184695 0.000554112 0.000554074 4.61154e-11
-0.00131938 0.000395076 0.000396131 -3.44257e-05
-0.00133249 0.000398992 0.000400069 -3.44259e-05
-0.00185611 0.00055686 0.000556822 4.63339e-11
-0.00158319 0.00047457 0.000475123 -1.86439e-05
-0.00132593 0.000397034 0.0003981 -3.44258e-05
-0.00159891 0.000479276 0.000479841 -1.8644e-05
-0.00159105 0.000476923 0.000477482 -1.8644e-05
-0.00184695 0.000554112 0.000554074 4.61187e-11
-0.00182863 0.000548614 0.000548577 4.56431e-11
-0.00130628 0.00039116 0.000392194 -3.44255e-05
-0.00131938 0.000395076 0.000396131 -3.44257e-05
-0.00183779 0.000551363 0.000551325 4.58874e-11
-0.00156748 0.000469863 0.000470406 -1.86439e-05
-0.00131283 0.000393118 0.000394162 -3.44256e-05
-0.00158319 0.00047457 0.000475123 -1.86439e-05
-0.00157533 0.000472216 0.000472765 -1.86439e-05
-0.00182863 0.000548614 0.000548577 4.56184e-11
-0.0018103 0.000543117 0.00054308 4.51744e-11
-0.00129318 0.000387244 0.000388257 -3.44253e-05
-0.00130628 0.00039116 0.000392194 -3.44255e-05
-0.00181947 0.000545866 0.000545828 4.54133e-11
-0.00155176 0.000465157 0.000465688 -1.86438e-05
-0.00129973 0.000389202 0.000390225 -3.44254e-05
-0.00156748 0.000469863 0.000470406 -1.86439e-05
-0.00155962 0.00046751 0.000468047 -1.86439e-05
-0.0018103 0.000543117 0.00054308 4.51744e-11
-0.00179198 0.00053762 0.000537583 4.47097e-11
-0.00128007 0.000383328 0.00038432 -3.44252e-05
-0.00129318 0.000387244 0.000388257 -3.44253e-05
-0.00180114 0.000540369 0.000540331 4.49263e-11
-0.00153605 0.000460451 0.000460971 -1.86438e-05
-0.00128662 0.000385286 0.000386288 -3.44253e-05
-0.00155176 0.000465157 0.000465688 -1.86438e-05
-0.00154391 0.000462804 0.00046333 -1.86438e-05
-0.00179198 0.00053762 0.000537583 4.47097e-11
-0.00177366 0.000532124 0.000532086 4.42441e-11
-0.00126697 0.000379411 0.000380383 -3.4425e-05
-0.00128007 0.000383328 0.00038432 -3.44252e-05
-0.00178282 0.000534872 0.000534835 4.44607e-11
-0.00152034 0.000455745 0.000456254 -1.86437e-05
-0.00127352 0.00038137 0.000382351 -3.44251e-05
-0.00153605 0.000460451 0.000460971 -1.86438e-05
-0.00152819 0.000458098 0.000458612 -1.86437e-05
-0.00177366 0.000532124 0.000532086 4.42656e-11
-0.00175534 0.000526627 0.00052659 4.37785e-11
-0.00125387 0.000375495 0.000376446 -3.44248e-05
-0.00126697 0.000379411 0.000380383 -3.4425e-05
-0.0017645 0.000529375 0.000529338 4.39965e-11
-0.00150463 0.000451039 0.000451537 -1.86436e-05
-0.00126042 0.000377453 0.000378415 -3.44249e-05
-0.00152034 0.000455745 0.000456254 -1.86437e-05
-0.00151248 0.000453392 0.000453895 -1.86437e-05
-0.00175534 0.000526627 0.00052659 4.37785e-11
-0.00173701 0.00052113 0.000521093 4.33113e-11
-0.00124077 0.000371579 0.00037251 -3.44246e-05
-0.00125387 0.000375495 0.000376446 -3.44248e-05
-0.00174617 0.000523878 0.000523841 4.35402e-11
-0.00148891 0.000446333 0.00044682 -1.86436e-05
-0.00124732 0.000373537 0.000374478 -3.44247e-05
-0.00150463 0.000451039 0.000451537 -1.86436e-05
-0.00149677 0.000448686 0.000449178 -1.86436e-05
-0.00173701 0.00052113 0.000521093 4.33113e-11
-0.00171869 0.000515634 0.000515597 4.2858e-11
-0.00122767 0.000367663 0.000368574 -3.44245e-05
-0.00124077 0.000371579 0.00037251 -3.44246e-05
-0.00172785 0.000518382 0.000518345 4.30845e-11
-0.0014732 0.000441627 0.000442103 -1.86435e-05
-0.00123422 0.000369621 0.000370542 -3.44246e-05
-0.00148891 0.000446333 0.00044682 -1.86436e-05
-0.00148106 0.00044398 0.000444462 -1.86435e-05
-0.00171869 0.000515634 0.000515597 4.2858e-11
-0.00170037 0.000510137 0.0005101 4.23791e-11
-0.00121457 0.000363747 0.000364638 -3.44243e-05
-0.00122767 0.000367663 0.000368574 -3.44245e-05
-0.00170953 0.000512885 0.000512849 4.2603e-11
-0.00145749 0.000436922 0.000437387 -1.86435e-05
-0.00122112 0.000365705 0.000366606 -3.44244e-05
-0.0014732 0.000441627 0.000442103 -1.86435e-05
-0.00146535 0.000439275 0.000439745 -1.86435e-05
-0.00170037 0.000510137 0.0005101 4.23791e-11
-0.00168205 0.000504641 0.000504604 4.19384e-11
-0.00120147 0.000359831 0.000360702 -3.44241e-05
-0.00121457 0.000363747 0.000364638 -3.44243e-05
-0.00169121 0.000507389 0.000507352 4.21548e-11
-0.00144178 0.000432216 0.00043267 -1.86434e-05
-0.00120802 0.000361789 0.00036267 -3.44242e-05
-0.00145749 0.000436922 0.000437387 -1.86435e-05
-0.00144964 0.000434569 0.000435029 -1.86434e-05
-0.00168205 0.000504641 0.000504604 4.19482e-11
-0.00166373 0.000499145 0.000499108 4.14785e-11
-0.00118837 0.000355914 0.000356766 -3.4424e-05
-0.00120147 0.000359831 0.000360702 -3.44241e-05
-0.00167289 0.000501893 0.000501856 4.17063e-11
-0.00142607 0.00042751 0.000427954 -1.86433e-05
-0.00119492 0.000357873 0.000358734 -3.44241e-05
-0.00144178 0.000432216 0.00043267 -1.86434e-05
-0.00143392 0.000429863 0.000430312 -1.86434e-05
-0.00166373 0.000499145 0.000499108 4.14785e-11
-0.00164541 0.000493649 0.000493612 4.09951e-11
-0.00117527 0.000351998 0.000352831 -3.44238e-05
-0.00118837 0.000355914 0.000356766 -3.4424e-05
-0.00165457 0.000496397 0.00049636 4.12213e-11
-0.00141036 0.000422804 0.000423238 -1.86433e-05
-0.00118182 0.000353956 0.000354798 -3.44239e-05
-0.00142607 0.00042751 0.000427954 -1.86433e-05
-0.00141821 0.000425157 0.000425596 -1.86433e-05
-0.00164541 0.000493649 0.000493612 4.09951e-11
-0.00162709 0.000488153 0.000488116 4.05638e-11
-0.00116217 0.000348082 0.000348895 -3.44237e-05
-0.00117527 0.000351998 0.000352831 -3.44238e-05
-0.00163625 0.000490901 0.000490864 4.07675e-11
-0.00139465 0.000418099 0.000418522 -1.86432e-05
-0.00116872 0.00035004 0.000350863 -3.44237e-05
-0.00141036 0.000422804 0.000423238 -1.86433e-05
-0.0014025 0.000420451 0.00042088 -1.86433e-05
-0.00162709 0.000488153 0.000488116 4.05606e-11
-0.00160877 0.000482657 0.000482621 4.01001e-11
-0.00114907 0.000344166 0.00034496 -3.44235e-05
-0.00116217 0.000348082 0.000348895 -3.44237e-05
-0.00161793 0.000485405 0.000485368 4.03058e-11
-0.00137894 0.000413393 0.000413806 -1.86432e-05
-0.00115562 0.000346124 0.000346928 -3.44236e-05
-0.00139465 0.000418099 0.000418522 -1.86432e-05
-0.0013868 0.000415746 0.000416164 -1.86432e-05
-0.00160877 0.000482657 0.000482621 4.00998e-11
-0.00159045 0.000477161 0.000477125 3.96089e-11
-0.00113597 0.000340249 0.000341025 -3.44233e-05
-0.00114907 0.000344166 0.00034496 -3.44235e-05
-0.00159961 0.000479909 0.000479873 3.98546e-11
-0.00136323 0.000408687 0.000409091 -1.86431e-05
-0.00114252 0.000342207 0.000342993 -3.44234e-05
-0.00137894 0.000413393 0.000413806 -1.86432e-05
-0.00137109 0.00041104 0.000411448 -1.86432e-05
-0.00159045 0.000477161 0.000477125 3.96089e-11
-0.00157213 0.000471665 0.000471629 3.91166e-11
-0.00112288 0.000336333 0.000337091 -3.44232e-05
-0.00113597 0.000340249 0.000341025 -3.44233e-05
-0.00158129 0.000474413 0.000474377 3.93606e-11
-0.00134752 0.000403982 0.000404375 -1.86431e-05
-0.00112943 0.000338291 0.000339058 -3.44233e-05
-0.00136323 0.000408687 0.000409091 -1.86431e-05
-0.00135538 0.000406334 0.000406733 -1.86431e-05
-0.00157213 0.000471665 0.000471629 3.91166e-11
-0.00155382 0.00046617 0.000466134 3.8665e-11
-0.00110978 0.000332416 0.000333156 -3.4423e-05
-0.00112288 0.000336333 0.000337091 -3.44232e-05
-0.00156297 0.000468917 0.000468882 3.89002e-11
-0.00133182 0.000399276 0.00039966 -1.8643e-05
-0.00111633 0.000334375 0.000335123 -3.44231e-05
-0.00134752 0.000403982 0.000404375 -1.86431e-05
-0.00133967 0.000401629 0.000402017 -1.86431e-05
-0.00155382 0.00046617 0.000466134 3.86652e-11
-0.0015355 0.000460674 0.000460639 3.82194e-11
-0.00109668 0.0003285 0.000329222 -3.44229e-05
-0.00110978 0.000332416 0.000333156 -3.4423e-05
-0.00154466 0.000463422 0.000463386 3.84344e-11
-0.00131611 0.00039457 0.000394945 -1.8643e-05
-0.00110323 0.000330458 0.000331189 -3.4423e-05
-0.00133182 0.000399276 0.00039966 -1.8643e-05
-0.00132396 0.000396923 0.000397302 -1.8643e-05
-0.0015355 0.000460674 0.000460639 3.82293e-11
-0.00151718 0.000455179 0.000455143 3.77541e-11
-0.00108359 0.000324583 0.000325287 -3.44228e-05
-0.00109668 0.0003285 0.000329222 -3.44229e-05
-0.00152634 0.000457927 0.000457891 3.7972e-11
-0.0013004 0.000389865 0.00039023 -1.86429e-05
-0.00109014 0.000326542 0.000327255 -3.44228e-05
-0.00131611 0.00039457 0.000394945 -1.8643e-05
-0.00130825 0.000392218 0.000392587 -1.8643e-05
-0.00151718 0.000455179 0.000455143 3.77541e-11
-0.00149886 0.000449684 0.000449648 3.72939e-11
-0.00107049 0.000320667 0.000321353 -3.44226e-05
-0.00108359 0.000324583 0.000325287 -3.44228e-05
-0.00150802 0.000452431 0.000452396 3.75196e-11
-0.00128469 0.000385159 0.000385515 -1.86429e-05
-0.00107704 0.000322625 0.00032332 -3.44227e-05
-0.0013004 0.000389865 0.00039023 -1.86429e-05
-0.00129255 0.000387512 0.000387872 -1.86429e-05
-0.00149886 0.000449684 0.000449648 3.72939e-11
-0.00148055 0.000444188 0.000444153 3.68304e-11
-0.0010574 0.00031675 0.00031742 -3.44225e-05
-0.00107049 0.000320667 0.000321353 -3.44226e-05
-0.0014897 0.000446936 0.000446901 3.70716e-11
-0.00126899 0.000380454 0.0003808 -1.86429e-05
-0.00106394 0.000318709 0.000319387 -3.44225e-05
-0.00128469 0.000385159 0.000385515 -1.86429e-05
-0.00127684 0.000382807 0.000383157 -1.86429e-05
-0.00148055 0.000444188 0.000444153 3.6867e-11
-0.00146223 0.000438693 0.000438658 3.6381e-11
-0.0010443 0.000312834 0.000313486 -3.44223e-05
-0.0010574 0.00031675 0.00031742 -3.44225e-05
-0.00147139 0.000441441 0.000441406 3.65968e-11
-0.00125328 0.000375749 0.000376085 -1.86428e-05
-0.00105085 0.000314792 0.000315453 -3.44224e-05
-0.00126899 0.000380454 0.0003808 -1.86429e-05
-0.00126113 0.000378101 0.000378443 -1.86428e-05
-0.00146223 0.000438693 0.000438658 3.63808e-11
-0.00144391 0.000433198 0.000433164 3.59047e-11
-0.00103121 0.000308917 0.000309553 -3.44222e-05
-0.0010443 0.000312834 0.000313486 -3.44223e-05
-0.00145307 0.000435946 0.000435911 3.61403e-11
-0.00123758 0.000371043 0.000371371 -1.86428e-05
-0.00103775 0.000310876 0.000311519 -3.44223e-05
-0.00125328 0.000375749 0.000376085 -1.86428e-05
-0.00124543 0.000373396 0.000373728 -1.86428e-05
-0.00144391 0.000433198 0.000433164 3.59047e-11
-0.0014256 0.000427704 0.000427669 3.54857e-11
-0.00101811 0.000305001 0.000305619 -3.44221e-05
-0.00103121 0.000308917 0.000309553 -3.44222e-05
-0.00143476 0.000430451 0.000430416 3.57016e-11
-0.00122187 0.000366338 0.000366657 -1.86427e-05
-0.00102466 0.000306959 0.000307586 -3.44222e-05
-0.00123758 0.000371043 0.000371371 -1.86428e-05
-0.00122972 0.00036869 0.000369014 -1.86428e-05
-0.0014256 0.000427704 0.000427669 3.54857e-11
-0.00140728 0.000422209 0.000422174 3.49916e-11
-0.00100502 0.000301084 0.000301686 -3.4422e-05
-0.00101811 0.000305001 0.000305619 -3.44221e-05
-0.00141644 0.000424956 0.000424922 3.52186e-11
-0.00120616 0.000361632 0.000361942 -1.86427e-05
-0.00101157 0.000303042 0.000303653 -3.4422e-05
-0.00122187 0.000366338 0.000366657 -1.86427e-05
-0.00121402 0.000363985 0.000364299 -1.86427e-05
-0.00140728 0.000422209 0.000422174 3.49916e-11
-0.00138897 0.000416714 0.00041668 3.4546e-11
-0.000991925 0.000297167 0.000297753 -3.44218e-05
-0.00100502 0.000301084 0.000301686 -3.4422e-05
-0.00139812 0.000419462 0.000419427 3.47629e-11
-0.00119046 0.000356927 0.000357228 -1.86427e-05
-0.000998472 0.000299126 0.00029972 -3.44219e-05
-0.00120616 0.000361632 0.000361942 -1.86427e-05
-0.00119831 0.00035928 0.000359585 -1.86427e-05
-0.00138897 0.000416714 0.00041668 3.45691e-11
-0.00137065 0.00041122 0.000411185 3.40638e-11
-0.000978832 0.000293251 0.000293821 -3.44217e-05
-0.000991925 0.000297167 0.000297753 -3.44218e-05
-0.00137981 0.000413967 0.000413933 3.43323e-11
-0.00117476 0.000352222 0.000352515 -1.86427e-05
-0.000985378 0.000295209 0.000295787 -3.44218e-05
-0.00119046 0.000356927 0.000357228 -1.86427e-05
-0.00118261 0.000354575 0.000354871 -1.86427e-05
-0.00137065 0.00041122 0.000411185 3.40638e-11
-0.00135234 0.000405725 0.000405691 3.3608e-11
-0.000965739 0.000289334 0.000289888 -3.44216e-05
-0.000978832 0.000293251 0.000293821 -3.44217e-05
-0.0013615 0.000408472 0.000408438 3.38563e-11
-0.00115905 0.000347517 0.000347801 -1.86426e-05
-0.000972285 0.000291292 0.000291854 -3.44217e-05
-0.00117476 0.000352222 0.000352515 -1.86427e-05
-0.0011669 0.000349869 0.000350158 -1.86426e-05
-0.00135234 0.000405725 0.000405691 3.3608e-11
-0.00133402 0.000400231 0.000400197 3.31524e-11
-0.000952647 0.000285417 0.000285956 -3.44215e-05
-0.000965739 0.000289334 0.000289888 -3.44216e-05
-0.00134318 0.000402978 0.000402944 3.33966e-11
-0.00114335 0.000342811 0.000343087 -1.86426e-05
-0.000959193 0.000287375 0.000287922 -3.44216e-05
-0.00115905 0.000347517 0.000347801 -1.86426e-05
-0.0011512 0.000345164 0.000345444 -1.86426e-05
-0.00133402 0.000400231 0.000400197 3.31755e-11
-0.00131571 0.000394737 0.000394703 3.27109e-11
-0.000939555 0.0002815 0.000282023 -3.44214e-05
-0.000952647 0.000285417 0.000285956 -3.44215e-05
-0.00132487 0.000397484 0.00039745 3.2936e-11
-0.00112765 0.000338106 0.000338374 -1.86426e-05
-0.000946101 0.000283459 0.000283989 -3.44215e-05
-0.00114335 0.000342811 0.000343087 -1.86426e-05
-0.0011355 0.000340459 0.00034073 -1.86426e-05
-0.00131571 0.000394737 0.000394703 3.27111e-11
-0.0012974 0.000389243 0.000389209 3.22337e-11
-0.000926463 0.000277583 0.000278091 -3.44213e-05
-0.000939555 0.0002815 0.000282023 -3.44214e-05
-0.00130655 0.00039199 0.000391956 3.24724e-11
-0.00111194 0.000333401 0.00033366 -1.86426e-05
-0.000933009 0.000279542 0.000280057 -3.44214e-05
-0.00112765 0.000338106 0.000338374 -1.86426e-05
-0.00111979 0.000335754 0.000336017 -1.86426e-05
-0.0012974 0.000389243 0.000389209 3.22337e-11
-0.00127908 0.000383749 0.000383715 3.18104e-11
-0.000913372 0.000273666 0.00027416 -3.44212e-05
-0.000926463 0.000277583 0.000278091 -3.44213e-05
-0.00128824 0.000386496 0.000386462 3.19909e-11
-0.00109624 0.000328696 0.000328947 -1.86425e-05
-0.000919918 0.000275625 0.000276125 -3.44213e-05
-0.00111194 0.000333401 0.00033366 -1.86426e-05
-0.00110409 0.000331048 0.000331304 -1.86425e-05
-0.00127908 0.000383749 0.000383715 3.18104e-11
-0.00126077 0.000378255 0.000378221 3.13384e-11
-0.000900281 0.000269749 0.000270228 -3.44211e-05
-0.000913372 0.000273666 0.00027416 -3.44212e-05
-0.00126993 0.000381002 0.000380968 3.15533e-11
-0.00108054 0.000323991 0.000324234 -1.86425e-05
-0.000906827 0.000271708 0.000272194 -3.44212e-05
-0.00109624 0.000328696 0.000328947 -1.86425e-05
-0.00108839 0.000326343 0.000326591 -1.86425e-05
-0.00126077 0.000378255 0.000378221 3.13384e-11
-0.00124246 0.000372761 0.000372727 3.08843e-11
-0.000887191 0.000265832 0.000266296 -3.4421e-05
-0.000900281 0.000269749 0.000270228 -3.44211e-05
-0.00125161 0.000375508 0.000375474 3.10966e-11
-0.00106484 0.000319286 0.000319521 -1.86425e-05
-0.000893736 0.000267791 0.000268262 -3.44211e-05
-0.00108054 0.000323991 0.000324234 -1.86425e-05
-0.00107269 0.000321638 0.000321878 -1.86425e-05
-0.00124246 0.000372761 0.000372727 3.08944e-11
-0.00122415 0.000367267 0.000367234 3.0404e-11
-0.000874101 0.000261915 0.000262365 -3.44209e-05
-0.000887191 0.000265832 0.000266296 -3.4421e-05
-0.0012333 0.000370014 0.000369981 3.06425e-11
-0.00104913 0.000314581 0.000314809 -1.86425e-05
-0.000880646 0.000263874 0.000264331 -3.4421e-05
-0.00106484 0.000319286 0.000319521 -1.86425e-05
-0.00105699 0.000316933 0.000317165 -1.86425e-05
-0.00122415 0.000367267 0.000367234 3.0404e-11
-0.00120583 0.000361773 0.00036174 2.99452e-11
-0.000861011 0.000257998 0.000258434 -3.44209e-05
-0.000874101 0.000261915 0.000262365 -3.44209e-05
-0.00121499 0.00036452 0.000364487 3.01603e-11
-0.00103343 0.000309876 0.000310096 -1.86425e-05
-0.000867556 0.000259957 0.0002604 -3.44209e-05
-0.00104913 0.000314581 0.000314809 -1.86425e-05
-0.00104128 0.000312228 0.000312452 -1.86425e-05
-0.00120583 0.000361773 0.00036174 2.99452e-11
-0.00118752 0.00035628 0.000356247 2.95026e-11
-0.000847922 0.000254081 0.000254503 -3.44208e-05
-0.000861011 0.000257998 0.000258434 -3.44209e-05
-0.00119668 0.000359026 0.000358994 2.97069e-11
-0.00101773 0.000305171 0.000305384 -1.86425e-05
-0.000854466 0.00025604 0.000256469 -3.44208e-05
-0.00103343 0.000309876 0.000310096 -1.86425e-05
-0.00102558 0.000307523 0.00030774 -1.86425e-05
-0.00118752 0.00035628 0.000356247 2.94862e-11
-0.00116921 0.000350786 0.000350754 2.90071e-11
-0.000834833 0.000250164 0.000250572 -3.44207e-05
-0.000847922 0.000254081 0.000254503 -3.44208e-05
-0.00117837 0.000353533 0.0003535 2.92622e-11
-0.00100203 0.000300466 0.000300671 -1.86425e-05
-0.000841377 0.000252123 0.000252538 -3.44207e-05
-0.00101773 0.000305171 0.000305384 -1.86425e-05
-0.00100988 0.000302818 0.000303028 -1.86425e-05
-0.00116921 0.000350786 0.000350754 2.9007e-11
-0.0011509 0.000345293 0.00034526 2.85895e-11
-0.000821744 0.000246247 0.000246642 -3.44206e-05
-0.000834833 0.000250164 0.000250572 -3.44207e-05
-0.00116006 0.00034804 0.000348007 2.87816e-11
-0.000986332 0.000295761 0.000295959 -1.86425e-05
-0.000828289 0.000248206 0.000248607 -3.44207e-05
-0.00100203 0.000300466 0.000300671 -1.86425e-05
-0.000994182 0.000298113 0.000298315 -1.86425e-05
-0.0011509 0.000345293 0.00034526 2.85895e-11
-0.00113259 0.0003398 0.000339767 2.81273e-11
-0.000808656 0.00024233 0.000242711 -3.44206e-05
-0.000821744 0.000246247 0.000246642 -3.44206e-05
-0.00114175 0.000342546 0.000342514 2.83726e-11
-0.000970632 0.000291056 0.000291247 -1.86425e-05
-0.0008152 0.000244288 0.000244676 -3.44206e-05
-0.000986332 0.000295761 0.000295959 -1.86425e-05
-0.000978482 0.000293408 0.000293603 -1.86425e-05
-0.00113259 0.0003398 0.000339767 2.81273e-11
-0.00111428 0.000334306 0.000334274 2.76666e-11
-0.000795568 0.000238413 0.000238781 -3.44205e-05
-0.000808656 0.00024233 0.000242711 -3.44206e-05
-0.00112343 0.000337053 0.000337021 2.78814e-11
-0.000954933 0.000286351 0.000286535 -1.86425e-05
-0.000802112 0.000240371 0.000240746 -3.44206e-05
-0.000970632 0.000291056 0.000291247 -1.86425e-05
-0.000962783 0.000288703 0.000288891 -1.86425e-05
-0.00111428 0.000334306 0.000334274 2.76664e-11
-0.00109597 0.000328813 0.000328781 2.71856e-11
-0.000782481 0.000234495 0.000234851 -3.44205e-05
-0.000795568 0.000238413 0.000238781 -3.44205e-05
-0.00110512 0.00033156 0.000331528 2.74084e-11
-0.000939234 0.000281646 0.000281824 -1.86425e-05
-0.000789024 0.000236454 0.000236816 -3.44205e-05
-0.000954933 0.000286351 0.000286535 -1.86425e-05
-0.000947083 0.000283998 0.000284179 -1.86425e-05
-0.00109597 0.000328813 0.000328781 2.72053e-11
-0.00107766 0.00032332 0.000323288 2.67629e-11
-0.000769394 0.000230578 0.000230921 -3.44204e-05
-0.000782481 0.000234495 0.000234851 -3.44205e-05
-0.00108681 0.000326067 0.000326035 2.69466e-11
-0.000923535 0.000276941 0.000277112 -1.86425e-05
-0.000775937 0.000232537 0.000232886 -3.44204e-05
-0.000939234 0.000281646 0.000281824 -1.86425e-05
-0.000931385 0.000279293 0.000279468 -1.86425e-05
-0.00107766 0.00032332 0.000323288 2.67629e-11
-0.00105935 0.000317827 0.000317796 2.62921e-11
-0.000756307 0.000226661 0.000226991 -3.44204e-05
-0.000769394 0.000230578 0.000230921 -3.44204e-05
-0.00106851 0.000320574 0.000320542 2.64771e-11
-0.000907837 0.000272236 0.0002724 -1.86425e-05
-0.00076285 0.000228619 0.000228956 -3.44204e-05
-0.000923535 0.000276941 0.000277112 -1.86425e-05
-0.000915686 0.000274588 0.000274756 -1.86425e-05
-0.00105935 0.000317827 0.000317796 2.62921e-11
-0.00104104 0.000312334 0.000312303 2.58467e-11
-0.000743221 0.000222743 0.000223062 -3.44203e-05
-0.000756307 0.000226661 0.000226991 -3.44204e-05
-0.0010502 0.000315081 0.000315049 2.60374e-11
-0.000892139 0.000267531 0.000267689 -1.86425e-05
-0.000749764 0.000224702 0.000225026 -3.44204e-05
-0.000907837 0.000272236 0.0002724 -1.86425e-05
-0.000899988 0.000269884 0.000270045 -1.86425e-05
-0.00104104 0.000312334 0.000312303 2.58267e-11
-0.00102273 0.000306842 0.00030681 2.53521e-11
-0.000730134 0.000218826 0.000219132 -3.44203e-05
-0.000743221 0.000222743 0.000223062 -3.44203e-05
-0.00103189 0.000309588 0.000309557 2.55823e-11
-0.000876441 0.000262826 0.000262978 -1.86425e-05
-0.000736677 0.000220784 0.000221097 -3.44203e-05
-0.000892139 0.000267531 0.000267689 -1.86425e-05
-0.00088429 0.000265179 0.000265333 -1.86425e-05
-0.00102273 0.000306842 0.00030681 2.53518e-11
-0.00100442 0.000301349 0.000301318 2.49278e-11
-0.000717049 0.000214908 0.000215203 -3.44203e-05
-0.000730134 0.000218826 0.000219132 -3.44203e-05
-0.00101358 0.000304095 0.000304064 2.51241e-11
-0.000860744 0.000258121 0.000258267 -1.86425e-05
-0.000723592 0.000216867 0.000217168 -3.44203e-05
-0.000876441 0.000262826 0.000262978 -1.86425e-05
-0.000868593 0.000260474 0.000260622 -1.86425e-05
-0.00100442 0.000301349 0.000301318 2.49278e-11
-0.000986116 0.000295856 0.000295825 2.44781e-11
-0.000703963 0.000210991 0.000211274 -3.44202e-05
-0.000717049 0.000214908 0.000215203 -3.44203e-05
-0.00099527 0.000298603 0.000298572 2.47634e-11
-0.000845047 0.000253417 0.000253556 -1.86425e-05
-0.000710506 0.000212949 0.000213239 -3.44203e-05
-0.000860744 0.000258121 0.000258267 -1.86425e-05
-0.000852895 0.000255769 0.000255911 -1.86425e-05
-0.000986116 0.000295856 0.000295825 2.44781e-11
-0.000967808 0.000290364 0.000290333 2.40372e-11
-0.000690878 0.000207073 0.000207345 -3.44202e-05
-0.000703963 0.000210991 0.000211274 -3.44202e-05
-0.000976962 0.00029311 0.000293079 2.42075e-11
-0.00082935 0.000248712 0.000248845 -1.86426e-05
-0.000697421 0.000209032 0.00020931 -3.44202e-05
-0.000845047 0.000253417 0.000253556 -1.86425e-05
-0.000837198 0.000251064 0.0002512 -1.86425e-05
-0.000967808 0.000290364 0.000290333 2.40372e-11
-0.0009495 0.000284871 0.000284841 2.35375e-11
-0.000677794 0.000203155 0.000203416 -3.44202e-05
-0.000690878 0.000207073 0.000207345 -3.44202e-05
-0.000958654 0.000287618 0.000287587 2.37873e-11
-0.000813654 0.000244007 0.000244134 -1.86426e-05
-0.000684336 0.000205114 0.000205381 -3.44202e-05
-0.00082935 0.000248712 0.000248845 -1.86426e-05
-0.000821502 0.000246359 0.00024649 -1.86426e-05
-0.0009495 0.000284871 0.000284841 2.35474e-11
-0.000931193 0.000279379 0.000279349 2.31259e-11
-0.00066471 0.000199238 0.000199488 -3.44202e-05
-0.000677794 0.000203155 0.000203416 -3.44202e-05
-0.000940347 0.000282125 0.000282095 2.3344e-11
-0.000797958 0.000239302 0.000239424 -1.86426e-05
-0.000671252 0.000201197 0.000201452 -3.44202e-05
-0.000813654 0.000244007 0.000244134 -1.86426e-05
-0.000805806 0.000241655 0.000241779 -1.86426e-05
-0.000931193 0.000279379 0.000279349 2.31259e-11
-0.000912886 0.000273887 0.000273857 2.26466e-11
-0.000651626 0.00019532 0.00019556 -3.44202e-05
-0.00066471 0.000199238 0.000199488 -3.44202e-05
-0.000922039 0.000276633 0.000276603 2.29105e-11
-0.000782262 0.000234598 0.000234713 -1.86426e-05
-0.000658168 0.000197279 0.000197524 -3.44202e-05
-0.000797958 0.000239302 0.000239424 -1.86426e-05
-0.00079011 0.00023695 0.000237068 -1.86426e-05
-0.000912886 0.000273887 0.000273857 2.26766e-11
-0.000894579 0.000268395 0.000268365 2.21964e-11
-0.000638542 0.000191402 0.000191631 -3.44202e-05
-0.000651626 0.00019532 0.00019556 -3.44202e-05
-0.000903732 0.000271141 0.000271111 2.24551e-11
-0.000766566 0.000229893 0.000230003 -1.86427e-05
-0.000645084 0.000193361 0.000193595 -3.44202e-05
-0.000782262 0.000234598 0.000234713 -1.86426e-05
-0.000774414 0.000232245 0.000232358 -1.86427e-05
-0.000894579 0.000268395 0.000268365 2.21964e-11
-0.000876272 0.000262903 0.000262873 2.17493e-11
-0.000625459 0.000187484 0.000187703 -3.44202e-05
-0.000638542 0.000191402 0.000191631 -3.44202e-05
-0.000885426 0.000265649 0.000265619 2.19438e-11
-0.000750871 0.000225188 0.000225293 -1.86427e-05
-0.000632 0.000189443 0.000189667 -3.44202e-05
-0.000766566 0.000229893 0.000230003 -1.86427e-05
-0.000758719 0.00022754 0.000227648 -1.86427e-05
-0.000876272 0.000262903 0.000262873 2.17493e-11
-0.000857966 0.000257411 0.000257381 2.12828e-11
-0.000612376 0.000183567 0.000183775 -3.44202e-05
-0.000625459 0.000187484 0.000187703 -3.44202e-05
-0.000867119 0.000260157 0.000260127 2.15509e-11
-0.000735176 0.000220483 0.000220583 -1.86427e-05
-0.000618917 0.000185525 0.000185739 -3.44202e-05
-0.000750871 0.000225188 0.000225293 -1.86427e-05
-0.000743024 0.000222836 0.000222938 -1.86427e-05
-0.000857966 0.000257411 0.000257381 2.12825e-11
-0.00083966 0.000251919 0.000251889 2.07903e-11
-0.000599293 0.000179649 0.000179848 -3.44202e-05
-0.000612376 0.000183567 0.000183775 -3.44202e-05
-0.000848813 0.000254665 0.000254635 2.10043e-11
-0.000719482 0.000215779 0.000215873 -1.86428e-05
-0.000605835 0.000181608 0.000181812 -3.44202e-05
-0.000735176 0.000220483 0.000220583 -1.86427e-05
-0.000727329 0.000218131 0.000218228 -1.86428e-05
-0.00083966 0.000251919 0.000251889 2.08269e-11
-0.000821354 0.000246427 0.000246398 2.03898e-11
-0.000586211 0.000175731 0.00017592 -3.44203e-05
-0.000599293 0.000179649 0.000179848 -3.44202e-05
-0.000830507 0.000249173 0.000249143 2.06345e-11
-0.000703788 0.000211074 0.000211163 -1.86428e-05
-0.000592752 0.00017769 0.000177884 -3.44202e-05
-0.000719482 0.000215779 0.000215873 -1.86428e-05
-0.000711635 0.000213426 0.000213518 -1.86428e-05
-0.000821354 0.000246427 0.000246398 2.03898e-11
-0.000803049 0.000240935 0.000240906 1.99236e-11
-0.000573129 0.000171813 0.000171993 -3.44203e-05
-0.000586211 0.000175731 0.00017592 -3.44203e-05
-0.000812202 0.000243681 0.000243652 2.01232e-11
-0.000688094 0.000206369 0.000206453 -1.86429e-05
-0.00057967 0.000173772 0.000173956 -3.44203e-05
-0.000703788 0.000211074 0.000211163 -1.86428e-05
-0.000695941 0.000208722 0.000208808 -1.86429e-05
-0.000803049 0.000240935 0.000240906 1.99236e-11
-0.000784744 0.000235443 0.000235414 1.94542e-11
-0.000560048 0.000167895 0.000168066 -3.44203e-05
-0.000573129 0.000171813 0.000171993 -3.44203e-05
-0.000793896 0.000238189 0.00023816 1.97244e-11
-0.0006724 0.000201665 0.000201744 -1.86429e-05
-0.000566588 0.000169854 0.000170029 -3.44203e-05
-0.000688094 0.000206369 0.000206453 -1.86429e-05
-0.000680247 0.000204017 0.000204099 -1.86429e-05
-0.000784744 0.000235443 0.000235414 1.94777e-11
-0.000766439 0.000229952 0.000229923 1.90533e-11
-0.000546966 0.000163976 0.000164139 -3.44204e-05
-0.000560048 0.000167895 0.000168066 -3.44203e-05
-0.000775591 0.000232697 0.000232669 1.92251e-11
-0.000656707 0.00019696 0.000197034 -1.8643e-05
-0.000553507 0.000165935 0.000166102 -3.44203e-05
-0.0006724 0.000201665 0.000201744 -1.86429e-05
-0.000664554 0.000199312 0.000199389 -1.8643e-05
-0.000766439 0.000229952 0.000229923 1.90532e-11
-0.000748134 0.00022446 0.000224432 1.85716e-11
-0.000533885 0.000160058 0.000160212 -3.44204e-05
-0.000546966 0.000163976 0.000164139 -3.44204e-05
-0.000757286 0.000227206 0.000227177 1.87966e-11
-0.000641014 0.000192255 0.000192325 -1.8643e-05
-0.000540426 0.000162017 0.000162175 -3.44204e-05
-0.000656707 0.00019696 0.000197034 -1.8643e-05
-0.00064886 0.000194608 0.00019468 -1.8643e-05
-0.000748134 0.00022446 0.000224432 1.85716e-11
-0.000729829 0.000218969 0.00021894 1.81133e-11
-0.000520805 0.00015614 0.000156285 -3.44204e-05
-0.000533885 0.000160058 0.000160212 -3.44204e-05
-0.000738982 0.000221714 0.000221686 1.83872e-11
-0.000625321 0.000187551 0.000187616 -1.86431e-05
-0.000527345 0.000158099 0.000158248 -3.44204e-05
-0.000641014 0.000192255 0.000192325 -1.8643e-05
-0.000633167 0.000189903 0.000189971 -1.86431e-05
-0.000729829 0.000218969 0.00021894 1.81133e-11
-0.000711525 0.000213477 0.000213449 1.76946e-11
-0.000507725 0.000152222 0.000152358 -3.44205e-05
-0.000520805 0.00015614 0.000156285 -3.44204e-05
-0.000720677 0.000216223 0.000216195 1.79112e-11
-0.000609629 0.000182846 0.000182907 -1.86432e-05
-0.000514265 0.000154181 0.000154322 -3.44205e-05
-0.000625321 0.000187551 0.000187616 -1.86431e-05
-0.000617475 0.000185198 0.000185261 -1.86431e-05
-0.000711525 0.000213477 0.000213449 1.76949e-11
-0.000693221 0.000207986 0.000207958 1.72307e-11
-0.000494645 0.000148303 0.000148432 -3.44206e-05
-0.000507725 0.000152222 0.000152358 -3.44205e-05
-0.000702373 0.000210732 0.000210704 1.74669e-11
-0.000593937 0.000178141 0.000178198 -1.86432e-05
-0.000501185 0.000150263 0.000150395 -3.44205e-05
-0.000609629 0.000182846 0.000182907 -1.86432e-05
-0.000601783 0.000180494 0.000180552 -1.86432e-05
-0.000693221 0.000207986 0.000207958 1.72239e-11
-0.000674917 0.000202495 0.000202467 1.675e-11
-0.000481565 0.000144385 0.000144506 -3.44206e-05
-0.000494645 0.000148303 0.000148432 -3.44206e-05
-0.000684069 0.00020524 0.000205212 1.70444e-11
-0.000578245 0.000173437 0.000173489 -1.86433e-05
-0.000488105 0.000146344 0.000146469 -3.44206e-05
-0.000593937 0.000178141 0.000178198 -1.86432e-05
-0.000586091 0.000175789 0.000175844 -1.86433e-05
-0.000674917 0.000202495 0.000202467 1.675e-11
-0.000656614 0.000197003 0.000196976 1.62965e-11
-0.000468486 0.000140467 0.00014058 -3.44207e-05
-0.000481565 0.000144385 0.000144506 -3.44206e-05
-0.000665766 0.000199749 0.000199721 1.65521e-11
-0.000562553 0.000168732 0.00016878 -1.86434e-05
-0.000475025 0.000142426 0.000142543 -3.44207e-05
-0.000578245 0.000173437 0.000173489 -1.86433e-05
-0.000570399 0.000171084 0.000171135 -1.86433e-05
-0.000656614 0.000197003 0.000196976 1.62965e-11
-0.000638311 0.000191512 0.000191485 1.58056e-11
-0.000455407 0.000136548 0.000136654 -3.44208e-05
-0.000468486 0.000140467 0.00014058 -3.44207e-05
-0.000647462 0.000194258 0.00019423 1.60834e-11
-0.000546862 0.000164027 0.000164072 -1.86434e-05
-0.000461946 0.000138507 0.000138617 -3.44207e-05
-0.000562553 0.000168732 0.00016878 -1.86434e-05
-0.000554707 0.00016638 0.000166426 -1.86434e-05
-0.000638311 0.000191512 0.000191485 1.58294e-11
-0.000620008 0.000186021 0.000185994 1.53517e-11
-0.000442328 0.000132629 0.000132728 -3.44209e-05
-0.000455407 0.000136548 0.000136654 -3.44208e-05
-0.000629159 0.000188767 0.00018874 1.5575e-11
-0.000531171 0.000159323 0.000159363 -1.86435e-05
-0.000448867 0.000134589 0.000134691 -3.44208e-05
-0.000546862 0.000164027 0.000164072 -1.86434e-05
-0.000539016 0.000161675 0.000161718 -1.86435e-05
-0.000620008 0.000186021 0.000185994 1.53517e-11
-0.000601705 0.00018053 0.000180503 1.481e-11
-0.00042925 0.000128711 0.000128802 -3.4421e-05
-0.000442328 0.000132629 0.000132728 -3.44209e-05
-0.000610856 0.000183276 0.000183249 1.50561e-11
-0.00051548 0.000154618 0.000154655 -1.86436e-05
-0.000435789 0.00013067 0.000130765 -3.44209e-05
-0.000531171 0.000159323 0.000159363 -1.86435e-05
-0.000523325 0.00015697 0.000157009 -1.86436e-05
-0.000601705 0.00018053 0.000180503 1.481e-11
-0.000583402 0.000175039 0.000175013 1.42829e-11
-0.000416171 0.000124792 0.000124877 -3.4421e-05
-0.00042925 0.000128711 0.000128802 -3.4421e-05
-0.000592553 0.000177785 0.000177758 1.45508e-11
-0.000499789 0.000149913 0.000149947 -1.86437e-05
-0.00042271 0.000126752 0.00012684 -3.4421e-05
-0.00051548 0.000154618 0.000154655 -1.86436e-05
-0.000507635 0.000152266 0.000152301 -1.86436e-05
-0.000583402 0.000175039 0.000175013 1.42829e-11
-0.0005651 0.000169548 0.000169522 1.37668e-11
-0.000403094 0.000120873 0.000120952 -3.44211e-05
-0.000416171 0.000124792 0.000124877 -3.4421e-05
-0.000574251 0.000172294 0.000172267 1.40126e-11
-0.000484099 0.000145209 0.000145239 -1.86438e-05
-0.000409633 0.000122833 0.000122914 -3.44211e-05
-0.000499789 0.000149913 0.000149947 -1.86437e-05
-0.000491944 0.000147561 0.000147593 -1.86437e-05
-0.0005651 0.000169548 0.000169522 1.37669e-11
-0.000546798 0.000164058 0.000164031 1.31566e-11
-0.000390016 0.000116955 0.000117026 -3.44212e-05
-0.000403094 0.000120873 0.000120952 -3.44211e-05
-0.000555949 0.000166803 0.000166777 1.34188e-11
-0.000468409 0.000140504 0.000140531 -1.86439e-05
-0.000396555 0.000118914 0.000118989 -3.44212e-05
-0.000484099 0.000145209 0.000145239 -1.86438e-05
-0.000476254 0.000142856 0.000142885 -1.86438e-05
-0.000546798 0.000164058 0.000164031 1.31533e-11
-0.000528496 0.000158567 0.000158541 1.23988e-11
-0.000376939 0.000113036 0.000113101 -3.44213e-05
-0.000390016 0.000116955 0.000117026 -3.44212e-05
-0.000537647 0.000161312 0.000161286 1.27609e-11
-0.00045272 0.000135799 0.000135823 -1.86439e-05
-0.000383478 0.000114995 0.000115064 -3.44213e-05
-0.000468409 0.000140504 0.000140531 -1.86439e-05
-0.000460564 0.000138152 0.000138177 -1.86439e-05
-0.000528496 0.000158567 0.000158541 1.23988e-11
-0.000510194 0.000153076 0.00015305 1.17782e-11
-0.000363862 0.000109117 0.000109177 -3.44214e-05
-0.000376939 0.000113036 0.000113101 -3.44213e-05
-0.000519345 0.000155822 0.000155796 1.21068e-11
-0.00043703 0.000131095 0.000131115 -1.8644e-05
-0.000370401 0.000111076 0.000111139 -3.44214e-05
-0.00045272 0.000135799 0.000135823 -1.86439e-05
-0.000444875 0.000133447 0.000133469 -1.8644e-05
-0.000510194 0.000153076 0.00015305 1.17782e-11
-0.000491892 0.000147586 0.00014756 1.09534e-11
-0.000350786 0.000105198 0.000105252 -3.44215e-05
-0.000363862 0.000109117 0.000109177 -3.44214e-05
-0.000501043 0.000150331 0.000150305 1.13348e-11
-0.000421341 0.00012639 0.000126408 -1.86441e-05
-0.000357324 0.000107157 0.000107214 -3.44214e-05
-0.00043703 0.000131095 0.000131115 -1.8644e-05
-0.000429185 0.000128742 0.000128761 -1.8644e-05
-0.000491892 0.000147586 0.00014756 1.09862e-11
-0.000473591 0.000142095 0.00014207 1.01971e-11
-0.000337709 0.000101279 0.000101327 -3.44215e-05
-0.000350786 0.000105198 0.000105252 -3.44215e-05
-0.000482742 0.00014484 0.000144815 1.05181e-11
-0.000405652 0.000121685 0.0001217 -1.86441e-05
-0.000344247 0.000103238 0.00010329 -3.44215e-05
-0.000421341 0.00012639 0.000126408 -1.86441e-05
-0.000413496 0.000124038 0.000124054 -1.86441e-05
-0.000473591 0.000142095 0.00014207 1.01972e-11
-0.00045529 0.000136605 0.00013658 9.4315e-12
-0.000324633 9.73597e-05 9.7403e-05 -3.44216e-05
-0.000337709 0.000101279 0.000101327 -3.44215e-05
-0.000464441 0.00013935 0.000139325 9.78962e-12
-0.000389964 0.000116981 0.000116993 -1.86442e-05
-0.000331171 9.93193e-05 9.93652e-05 -3.44215e-05
-0.000405652 0.000121685 0.0001217 -1.86441e-05
-0.000397808 0.000119333 0.000119346 -1.86442e-05
-0.00045529 0.000136605 0.00013658 9.4315e-12
-0.00043699 0.000131114 0.000131089 9.14134e-12
-0.000311558 9.34405e-05 9.34788e-05 -3.44216e-05
-0.000324633 9.73597e-05 9.7403e-05 -3.44216e-05
-0.00044614 0.000133859 0.000133834 9.15892e-12
-0.000374275 0.000112276 0.000112285 -1.86442e-05
-0.000318096 9.54001e-05 9.54409e-05 -3.44216e-05
-0.000389964 0.000116981 0.000116993 -1.86442e-05
-0.000382119 0.000114628 0.000114639 -1.86442e-05
-0.00043699 0.000131114 0.000131089 9.14134e-12
-0.000418689 0.000125624 0.000125599 9.10863e-12
-0.000298483 8.95213e-05 8.95548e-05 -3.44216e-05
-0.000311558 9.34405e-05 9.34788e-05 -3.44216e-05
-0.000427839 0.000128369 0.000128344 8.97026e-12
-0.000358587 0.000107571 0.000107578 -1.86442e-05
-0.00030502 9.14809e-05 9.15168e-05 -3.44216e-05
-0.000374275 0.000112276 0.000112285 -1.86442e-05
-0.000366431 0.000109924 0.000109932 -1.86442e-05
-0.000418689 0.000125624 0.000125599 9.10829e-12
-0.000400389 0.000120134 0.000120109 1.08436e-11
-0.000285408 8.56021e-05 8.56309e-05 -3.44215e-05
-0.000298483 8.95213e-05 8.95548e-05 -3.44216e-05
-0.000409539 0.000122879 0.000122854 9.5996e-12
-0.0003429 0.000102867 0.000102871 -1.86442e-05
-0.000291945 8.75617e-05 8.75929e-05 -3.44215e-05
-0.000358587 0.000107571 0.000107578 -1.86442e-05
-0.000350743 0.000105219 0.000105225 -1.86442e-05
-0.000400389 0.000120134 0.000120109 1.08409e-11
-0.000382089 0.000114644 0.00011462 1.30798e-11
-0.000272333 8.16828e-05 8.17072e-05 -3.44215e-05
-0.000285408 8.56021e-05 8.56309e-05 -3.44215e-05
-0.000391239 0.000117389 0.000117364 1.14865e-11
-0.000327212 9.81623e-05 9.81643e-05 -1.86442e-05
-0.00027887 8.36424e-05 8.3669e-05 -3.44215e-05
-0.0003429 0.000102867 0.000102871 -1.86442e-05
-0.000335056 0.000100515 0.000100518 -1.86442e-05
-0.000382089 0.000114644 0.00011462 1.30798e-11
-0.00036379 0.000109154 0.00010913 2.01636e-11
-0.000259259 7.77635e-05 7.77836e-05 -3.44216e-05
-0.000272333 8.16828e-05 8.17072e-05 -3.44215e-05
-0.00037294 0.000111899 0.000111875 1.67093e-11
-0.000311525 9.34577e-05 9.34576e-05 -1.86443e-05
-0.000265796 7.97232e-05 7.97454e-05 -3.44216e-05
-0.000327212 9.81623e-05 9.81643e-05 -1.86442e-05
-0.000319369 9.581e-05 9.58109e-05 -1.86443e-05
-0.00036379 0.000109154 0.00010913 2.01636e-11
-0.000345491 0.000103664 0.00010364 2.70086e-11
-0.000246185 7.38443e-05 7.38602e-05 -3.44219e-05
-0.000259259 7.77635e-05 7.77836e-05 -3.44216e-05
-0.00035464 0.000106409 0.000106385 2.18239e-11
-0.000295839 8.87532e-05 8.87509e-05 -1.86445e-05
-0.000252722 7.58039e-05 7.58219e-05 -3.44217e-05
-0.000311525 9.34577e-05 9.34576e-05 -1.86443e-05
-0.000303682 9.11054e-05 9.11042e-05 -1.86444e-05
-0.000345491 0.000103664 0.00010364 2.69888e-11
-0.000327191 9.81739e-05 9.81504e-05 4.08816e-11
-0.000233111 6.99251e-05 6.99368e-05 -3.44224e-05
-0.000246185 7.38443e-05 7.38602e-05 -3.44219e-05
-0.000336341 0.000100919 0.000100895 3.92792e-11
-0.000280152 8.40486e-05 8.40443e-05 -1.86449e-05
-0.000239648 7.18847e-05 7.18985e-05 -3.44221e-05
-0.000295839 8.87532e-05 8.87509e-05 -1.86445e-05
-0.000287995 8.64009e-05 8.63976e-05 -1.86446e-05
-0.000327191 9.81739e-05 9.81504e-05 4.08813e-11
-0.000308892 9.26838e-05 9.26606e-05 4.97444e-11
-0.000220038 6.60059e-05 6.60136e-05 -3.44234e-05
-0.000233111 6.99251e-05 6.99368e-05 -3.44224e-05
-0.000318042 9.54289e-05 9.54055e-05 3.57631e-11
-0.000264465 7.9344e-05 7.93377e-05 -1.86456e-05
-0.000226574 6.79655e-05 6.79752e-05 -3.44229e-05
-0.000280152 8.40486e-05 8.40443e-05 -1.86449e-05
-0.000272309 8.16963e-05 8.1691e-05 -1.86452e-05
-0.000308892 9.26838e-05 9.26606e-05 4.97444e-11
-0.000290592 8.71935e-05 8.71707e-05 3.84107e-11
-0.000206964 6.20866e-05 6.20904e-05 -3.44248e-05
-0.000220038 6.60059e-05 6.60136e-05 -3.44234e-05
-0.000299742 8.99387e-05 8.99157e-05 8.13106e-11
-0.000248778 7.46393e-05 7.4631e-05 -1.86467e-05
-0.000213501 6.40463e-05 6.4052e-05 -3.44241e-05
-0.000264465 7.9344e-05 7.93377e-05 -1.86456e-05
-0.000256622 7.69917e-05 7.69843e-05 -1.86461e-05
-0.000290592 8.71935e-05 8.71707e-05 3.84107e-11
-0.00027229 8.17028e-05 8.16803e-05 2.15241e-11
-0.000193891 5.81668e-05 5.81676e-05 -3.44264e-05
-0.000206964 6.20866e-05 6.20904e-05 -3.44248e-05
-0.000281441 8.44483e-05 8.44255e-05 -2.38776e-11
-0.000233091 6.99343e-05 6.99243e-05 -1.8648e-05
-0.000200428 6.01268e-05 6.01289e-05 -3.44256e-05
-0.000248778 7.46393e-05 7.4631e-05 -1.86467e-05
-0.000240935 7.22868e-05 7.22777e-05 -1.86473e-05
-0.00027229 8.17028e-05 8.16803e-05 2.15238e-11
-0.000253987 7.62113e-05 7.61895e-05 -2.42579e-10
-0.000180818 5.42455e-05 5.42452e-05 -3.44272e-05
-0.000193891 5.81668e-05 5.81676e-05 -3.44264e-05
-0.000263139 7.8957e-05 7.8935e-05 8.2057e-11
-0.000217404 6.52289e-05 6.52178e-05 -1.86489e-05
-0.000187355 5.62064e-05 5.62064e-05 -3.4427e-05
-0.000233091 6.99343e-05 6.99243e-05 -1.8648e-05
-0.000225247 6.75817e-05 6.7571e-05 -1.86486e-05
-0.000253987 7.62113e-05 7.61895e-05 -2.42576e-10
-0.000235682 7.07201e-05 7.06978e-05 -3.67283e-10
-0.000167744 5.03206e-05 5.03244e-05 -3.44238e-05
-0.000180818 5.42455e-05 5.42452e-05 -3.44272e-05
-0.000244835 7.3466e-05 7.34437e-05 -5.94993e-10
-0.000201717 6.0523e-05 6.05118e-05 -1.86473e-05
-0.000174281 5.22837e-05 5.22845e-05 -3.44264e-05
-0.000217404 6.52289e-05 6.52178e-05 -1.86489e-05
-0.00020956 6.2876e-05 6.28647e-05 -1.86486e-05
-0.000235682 7.07201e-05 7.06978e-05 -3.67283e-10
-0.00021738 6.5228e-05 6.52081e-05 -1.98372e-09
-0.000154668 4.63879e-05 4.64057e-05 -3.44107e-05
-0.000167744 5.03206e-05 5.03244e-05 -3.44238e-05
-0.00022653 6.7973e-05 6.79528e-05 -2.99365e-10
-0.000186036 5.58162e-05 5.58084e-05 -1.8639e-05
-0.000161207 4.83556e-05 4.83648e-05 -3.4419e-05
-0.000201717 6.0523e-05 6.05118e-05 -1.86473e-05
-0.000193875 5.81697e-05 5.81595e-05 -1.86445e-05
-0.00021738 6.5228e-05 6.52081e-05 -1.98372e-09
-0.000199087 5.97443e-05 5.97183e-05 -2.18558e-09
-0.00014159 4.24391e-05 4.24934e-05 -3.43724e-05
-0.000154668 4.63879e-05 4.64057e-05 -3.44107e-05
-0.000208233 6.24869e-05 6.24625e-05 -3.54369e-09
-0.000170365 5.11087e-05 5.11097e-05 -1.86129e-05
-0.000148129 4.4416e-05 4.44483e-05 -3.43962e-05
-0.000186036 5.58162e-05 5.58084e-05 -1.8639e-05
-0.000178199 5.34624e-05 5.34585e-05 -1.86288e-05
-0.000199087 5.97443e-05 5.97183e-05 -2.18556e-09
-0.00018084 5.42635e-05 5.42471e-05 -9.59234e-09
-0.000128499 3.84609e-05 3.85879e-05 -3.42877e-05
-0.00014159 4.24391e-05 4.24934e-05 -3.43724e-05
-0.000189953 5.69974e-05 5.69808e-05 -2.13304e-09
-0.000154726 4.64012e-05 4.64251e-05 -1.85512e-05
-0.000135049 4.04555e-05 4.05399e-05 -3.43375e-05
-0.000170365 5.11087e-05 5.11097e-05 -1.86129e-05
-0.000162539 4.87551e-05 4.87644e-05 -1.85891e-05
-0.00018084 5.42635e-05 5.42471e-05 -9.59234e-09
-0.000162669 4.88386e-05 4.87842e-05 -8.12495e-09
-0.0001154 3.44264e-05 3.4703e-05 -3.41031e-05
-0.000128499 3.84609e-05 3.85879e-05 -3.42877e-05
-0.000171746 5.15542e-05 5.15109e-05 -1.58203e-08
-0.000139141 4.16951e-05 4.17627e-05 -1.84147e-05
-0.000121948 3.64514e-05 3.66414e-05 -3.42131e-05
-0.000154726 4.64012e-05 4.64251e-05 -1.85512e-05
-0.000146928 4.40471e-05 4.40916e-05 -1.84936e-05
-0.000162669 4.88386e-05 4.87842e-05 -8.12495e-09
-0.000144743 4.34293e-05 4.342e-05 -3.72603e-08
-0.000102237 3.03043e-05 3.08281e-05 -3.37643e-05
-0.0001154 3.44264e-05 3.4703e-05 -3.41031e-05
-0.000153652 4.61011e-05 4.60933e-05 -6.79707e-09
-0.000123694 3.69977e-05 3.71555e-05 -1.81404e-05
-0.000108836 3.23829e-05 3.27657e-05 -3.39566e-05
-0.000139141 4.16951e-05 4.17627e-05 -1.84147e-05
-0.00013139 3.93467e-05 3.9447e-05 -1.8306e-05
-0.000144743 4.34293e-05 4.342e-05 -3.72603e-08
-0.000127177 3.82975e-05 3.80912e-05 -2.2481e-08
-8.90244e-05 2.60184e-05 2.70026e-05 -3.31293e-05
-0.000102237 3.03043e-05 3.08281e-05 -3.37643e-05
-0.000135923 4.08818e-05 4.0732e-05 -6.22418e-08
-0.000108426 3.23066e-05 3.26226e-05 -1.76262e-05
-9.56248e-05 2.81777e-05 2.89059e-05 -3.34977e-05
-0.000123694 3.69977e-05 3.71555e-05 -1.81404e-05
-0.000116043 3.46463e-05 3.48843e-05 -1.79106e-05
-0.000127177 3.82975e-05 3.80912e-05 -2.2481e-08
-0.000110574 3.31694e-05 3.31733e-05 -1.25719e-07
-7.5518e-05 2.15491e-05 2.31295e-05 -3.21439e-05
-8.90244e-05 2.60184e-05 2.70026e-05 -3.31293e-05
-0.000118671 3.55871e-05 3.56075e-05 -5.36089e-09
-9.36041e-05 2.76598e-05 2.82618e-05 -1.66841e-05
-8.23504e-05 2.38307e-05 2.50799e-05 -3.26808e-05
-0.000108426 3.23066e-05 3.26226e-05 -1.76262e-05
-0.00010092 2.99872e-05 3.03999e-05 -1.72535e-05
-0.000110574 3.31694e-05 3.31733e-05 -1.25719e-07
-9.5332e-05 2.92505e-05 2.83207e-05 -4.12755e-08
-6.17361e-05 1.67139e-05 1.92952e-05 -3.0592e-05
-7.5518e-05 2.15491e-05 2.31295e-05 -3.21439e-05
-0.000102817 3.13221e-05 3.06405e-05 -2.34628e-07
-7.91474e-05 2.29937e-05 2.40659e-05 -1.51772e-05
-6.86167e-05 1.91331e-05 2.12073e-05 -3.14578e-05
-9.36041e-05 2.76598e-05 2.82618e-05 -1.66841e-05
-8.63791e-05 2.53073e-05 2.61736e-05 -1.59549e-05
-9.5332e-05 2.92505e-05 2.83207e-05 -4.12755e-08
-8.31403e-05 2.49233e-05 2.49502e-05 -3.4566e-07
-4.67266e-05 1.19027e-05 1.49245e-05 -2.89274e-05
-6.17361e-05 1.67139e-05 1.92952e-05 -3.0592e-05
-8.86099e-05 2.64843e-05 2.66252e-05 1.04309e-07
-6.57505e-05 1.84614e-05 2.02668e-05 -1.2673e-05
-5.45486e-05 1.43832e-05 1.72137e-05 -2.97238e-05
-7.91474e-05 2.29937e-05 2.40659e-05 -1.51772e-05
-7.21806e-05 2.07584e-05 2.20381e-05 -1.42166e-05
-8.31403e-05 2.49233e-05 2.49502e-05 -3.4566e-07
-7.58171e-05 2.53159e-05 2.16434e-05 5.73801e-07
-3.06088e-05 7.14742e-06 1.00549e-05 -2.78952e-05
-4.67266e-05 1.19027e-05 1.49245e-05 -2.89274e-05
-7.88879e-05 2.58007e-05 2.27516e-05 -7.54774e-07
-5.17627e-05 1.35789e-05 1.63645e-05 -9.97096e-06
-3.86275e-05 9.19381e-06 1.26144e-05 -2.82205e-05
-6.57505e-05 1.84614e-05 2.02668e-05 -1.2673e-05
-5.91726e-05 1.59974e-05 1.85036e-05 -1.10018e-05
-7.58171e-05 2.53159e-05 2.16434e-05 5.73801e-07
-7.94963e-05 2.15371e-05 2.48396e-05 3.37507e-06
-1.19851e-05 7.56931e-06 1.8925e-06 -3.25393e-05
-3.06088e-05 7.14742e-06 1.00549e-05 -2.78952e-05
-7.5497e-05 2.10988e-05 2.33135e-05 2.40724e-06
-3.68169e-05 9.51476e-06 1.17009e-05 -8.40201e-06
-2.19636e-05 6.64589e-06 6.56473e-06 -2.90184e-05
-5.17627e-05 1.35789e-05 1.63645e-05 -9.97096e-06
-4.41132e-05 1.14312e-05 1.40066e-05 -9.39315e-06
-7.94963e-05 2.15371e-05 2.48396e-05 3.37507e-06
-0.000108107 2.13543e-05 3.71797e-05 2.5956e-05
-3.35308e-06 2.89698e-05 -1.09786e-05 -4.91872e-05
-1.19851e-05 7.56931e-06 1.8925e-06 -3.25393e-05
-8.97285e-05 3.02909e-05 2.54732e-05 7.04419e-06
-6.55433e-06 1.77961e-05 -4.81792e-06 -2.88591e-05
-4.50456e-06 1.16423e-05 -3.05901e-06 -3.85196e-05
-3.68169e-05 9.51476e-06 1.17009e-05 -8.40201e-06
-2.56919e-05 9.20434e-06 7.0661e-06 -1.23498e-05
-0.000108107 2.13543e-05 3.71797e-05 2.5956e-05
-5.67032e-05 0.000169015 -4.81336e-05 -0.00013426
-3.81938e-05 0.000128988 -3.89116e-05 -4.92539e-05
-3.35308e-06 2.89698e-05 -1.09786e-05 -4.91872e-05
-0.000106505 5.34685e-06 4.33536e-05 1.07353e-05
-3.37681e-05 0.000158672 -5.35303e-05 -7.91936e-05
-1.30699e-05 6.88522e-05 -2.39067e-05 -5.76433e-05
-6.55433e-06 1.77961e-05 -4.81792e-06 -2.88591e-05
-1.78508e-06 5.1801e-05 -2.14354e-05 -5.28253e-05
-0.00219775 0 0.000941892 -0.000124094
-0.00247509 0.000490999 0.000850326 -0.000182918
-0.00143571 0.000188508 0.000534515 -4.84568e-06
-0.0012702 0 0.00054437 0.000167422
-0.0023536 0.00023221 0.000909168 -0.000212388
-0.0019129 0.000295707 0.000693084 -7.5353e-05
-0.001376 0.000105952 0.000544306 6.34121e-05
-0.00180108 0 0.000771891 2.78448e-05
-0.00183156 0.000163877 0.000714723 -2.32002e-05
-0.00247509 0.000490999 0.000850326 -0.000182918
-0.00257125 0.000695303 0.000803978 -8.66385e-05
-0.00150866 0.000344808 0.000498794 -5.84981e-05
-0.00143571 0.000188508 0.000534515 -4.84568e-06
-0.0025513 0.000635445 0.000821082 -0.000131588
-0.00203982 0.000501697 0.000659194 -8.82528e-05
-0.0014723 0.000271658 0.000514559 -3.94308e-05
-0.0019129 0.000295707 0.000693084 -7.5353e-05
-0.001998 0.000411539 0.000679912 -9.92028e-05
-0.00257125 0.000695303 0.000803978 -8.66385e-05
-0.00255858 0.000752161 0.000774179 -3.20237e-05
-0.00154543 0.000423296 0.000480914 -6.89296e-05
-0.00150866 0.000344808 0.000498794 -5.84981e-05
-0.002564 0.000730692 0.000785703 -5.07068e-05
-0.00205987 0.000583893 0.000632564 -5.92232e-05
-0.00153598 0.000393604 0.00048959 -6.7907e-05
-0.00203982 0.000501697 0.000659194 -8.82528e-05
-0.00205493 0.000555472 0.000642625 -6.96834e-05
-0.00255858 0.000752161 0.000774179 -3.20237e-05
-0.00254049 0.000759643 0.000763219 -2.01509e-05
-0.00154375 0.000453852 0.000467097 -6.38785e-05
-0.00154543 0.000423296 0.000480914 -6.89296e-05
-0.0025518 0.000759575 0.000768097 -2.4001e-05
-0.00204969 0.000609841 0.000617079 -4.5172e-05
-0.00154527 0.000442524 0.000472605 -6.60849e-05
-0.00205987 0.000583893 0.000632564 -5.92232e-05
-0.00205726 0.000600843 0.000624178 -5.16659e-05
-0.00254049 0.000759643 0.000763219 -2.01509e-05
-0.00251966 0.000758155 0.00075493 -1.98425e-05
-0.00153275 0.000459417 0.000460001 -6.05072e-05
-0.00154375 0.000453852 0.000467097 -6.38785e-05
-0.00252849 0.000759128 0.000758298 -1.87919e-05
-0.00203077 0.000611022 0.000608464 -4.09161e-05
-0.0015399 0.000458632 0.000463399 -6.22139e-05
-0.00204969 0.000609841 0.000617079 -4.5172e-05
-0.00203994 0.000612231 0.000611877 -4.15527e-05
-0.00251966 0.000758155 0.00075493 -1.98425e-05
-0.00250384 0.000752474 0.000750587 -2.41426e-05
-0.00151741 0.000456859 0.00045452 -5.82569e-05
-0.00153275 0.000459417 0.000460001 -6.05072e-05
-0.00251208 0.000755662 0.00075275 -2.21147e-05
-0.0020134 0.000606571 0.000602924 -4.14082e-05
-0.00152452 0.000458617 0.000456816 -5.90166e-05
-0.00203077 0.000611022 0.000608464 -4.09161e-05
-0.00202199 0.000609026 0.000605554 -4.11603e-05
-0.00250384 0.000752474 0.000750587 -2.41426e-05
-0.00248853 0.000746981 0.000746378 -2.76987e-05
-0.00150407 0.000451626 0.000451049 -5.76078e-05
-0.00151741 0.000456859 0.00045452 -5.82569e-05
-0.00249573 0.000749611 0.000748337 -2.59302e-05
-0.00199777 0.000600294 0.000598916 -4.30533e-05
-0.0015108 0.00045438 0.00045275 -5.79049e-05
-0.0020134 0.000606571 0.000602924 -4.14082e-05
-0.00200524 0.000603514 0.00060074 -4.20595e-05
-0.00248853 0.000746981 0.000746378 -2.76987e-05
-0.00247476 0.000741662 0.000742755 -3.05674e-05
-0.00149195 0.000446574 0.000448019 -5.73276e-05
-0.00150407 0.000451626 0.000451049 -5.76078e-05
-0.00248171 0.000744302 0.000744604 -2.93262e-05
-0.00198416 0.000594709 0.000595481 -4.46464e-05
-0.00149766 0.00044901 0.00044942 -5.73878e-05
-0.00199777 0.000600294 0.000598916 -4.30533e-05
-0.0019908 0.000597375 0.000597181 -4.3961e-05
-0.00247476 0.000741662 0.000742755 -3.05674e-05
-0.00246114 0.000736866 0.000738975 -3.22911e-05
-0.00148162 0.000442174 0.000445476 -5.73482e-05
-0.00149195 0.000446574 0.000448019 -5.73276e-05
-0.00246784 0.000739198 0.000740848 -3.15159e-05
-0.0019718 0.000589773 0.000592296 -4.58076e-05
-0.0014867 0.000444287 0.000446746 -5.73441e-05
-0.00198416 0.000594709 0.000595481 -4.46464e-05
-0.00197784 0.000592164 0.000593861 -4.52578e-05
-0.00246114 0.000736866 0.000738975 -3.22911e-05
-0.00244789 0.000732392 0.000735212 -3.33651e-05
-0.0014722 0.000438519 0.000443006 -5.73751e-05
-0.00148162 0.000442174 0.000445476 -5.73482e-05
-0.00245453 0.000734599 0.000737113 -3.29151e-05
-0.00196028 0.000585555 0.000589168 -4.65432e-05
-0.00147677 0.000440262 0.000444217 -5.73518e-05
-0.0019718 0.000589773 0.000592296 -4.58076e-05
-0.00196597 0.000587586 0.000590735 -4.6236e-05
-0.00244789 0.000732392 0.000735212 -3.33651e-05
-0.00243466 0.000728163 0.000731355 -3.39284e-05
-0.00146352 0.000435392 0.000440625 -5.74205e-05
-0.0014722 0.000438519 0.000443006 -5.73751e-05
-0.00244125 0.000730252 0.000733285 -3.36873e-05
-0.00194923 0.00058178 0.000586051 -4.69719e-05
-0.00146781 0.000436902 0.000441819 -5.74039e-05
-0.00196028 0.000585555 0.000589168 -4.65432e-05
-0.00195471 0.000583625 0.000587608 -4.67833e-05
-0.00243466 0.000728163 0.000731355 -3.39284e-05
-0.00242151 0.000724076 0.00072747 -3.42298e-05
-0.00145519 0.000432625 0.000438242 -5.74405e-05
-0.00146352 0.000435392 0.000440625 -5.74205e-05
-0.00242809 0.000726107 0.00072942 -3.41077e-05
-0.00193845 0.000578309 0.000582918 -4.71989e-05
-0.00145931 0.000433974 0.00043943 -5.74308e-05
-0.00194923 0.00058178 0.000586051 -4.69719e-05
-0.00194382 0.000580015 0.000584488 -4.71074e-05
-0.00242151 0.000724076 0.00072747 -3.42298e-05
-0.00240835 0.000720075 0.000723548 -3.43667e-05
-0.00144709 0.000430067 0.000435867 -5.74513e-05
-0.00145519 0.000432625 0.000438242 -5.74405e-05
-0.00241493 0.000722068 0.000725511 -3.4311e-05
-0.00192781 0.000575006 0.000579772 -4.73108e-05
-0.00145113 0.000431327 0.000437057 -5.74482e-05
-0.00193845 0.000578309 0.000582918 -4.71989e-05
-0.00193312 0.000576643 0.000581346 -4.72643e-05
-0.00240835 0.000720075 0.000723548 -3.43667e-05
-0.00239522 0.000716119 0.000719613 -3.44272e-05
-0.00143909 0.000427629 0.000433484 -5.74515e-05
-0.00144709 0.000430067 0.000435867 -5.74513e-05
-0.00240179 0.000718093 0.000721583 -3.44043e-05
-0.00191723 0.000571801 0.000576614 -4.73588e-05
-0.00144308 0.000428837 0.000434675 -5.74518e-05
-0.00192781 0.000575006 0.000579772 -4.73108e-05
-0.00192252 0.000573395 0.000578194 -4.73409e-05
-0.00239522 0.000716119 0.000719613 -3.44272e-05
-0.00238208 0.000712186 0.000715668 -3.44469e-05
-0.00143115 0.000425253 0.000431098 -5.74483e-05
-0.00143909 0.000427629 0.000433484 -5.74515e-05
-0.00238865 0.00071415 0.000717641 -3.44399e-05
-0.00190669 0.000568643 0.000573449 -4.73757e-05
-0.00143512 0.000426436 0.000432292 -5.74504e-05
-0.00191723 0.000571801 0.000576614 -4.73588e-05
-0.00191196 0.000570218 0.000575032 -4.73696e-05
-0.00238208 0.000712186 0.000715668 -3.44469e-05
-0.00236894 0.000708265 0.000711718 -3.44507e-05
-0.00142323 0.000422907 0.000428709 -5.74432e-05
-0.00143115 0.000425253 0.000431098 -5.74483e-05
-0.00237551 0.000710225 0.000713693 -3.44502e-05
-0.00189616 0.000565509 0.00057028 -4.73784e-05
-0.00142719 0.000424078 0.000429904 -5.74457e-05
-0.00190669 0.000568643 0.000573449 -4.73757e-05
-0.00190143 0.000567074 0.000571865 -4.73782e-05
-0.00236894 0.000708265 0.000711718 -3.44507e-05
-0.00235581 0.00070435 0.000707767 -3.4448e-05
-0.00141532 0.000420575 0.000426318 -5.74385e-05
-0.00142323 0.000422907 0.000428709 -5.74432e-05
-0.00236237 0.000706307 0.000709743 -3.44497e-05
-0.00188564 0.000562385 0.000567109 -4.73758e-05
-0.00141927 0.00042174 0.000427514 -5.74408e-05
-0.00189616 0.000565509 0.00057028 -4.73784e-05
-0.0018909 0.000563946 0.000568694 -4.73773e-05
-0.00235581 0.00070435 0.000707767 -3.4448e-05
-0.00234267 0.000700436 0.000703815 -3.44441e-05
-0.00140741 0.000418248 0.000423927 -5.74345e-05
-0.00141532 0.000420575 0.000426318 -5.74385e-05
-0.00234924 0.000702393 0.000705791 -3.44461e-05
-0.00187512 0.000559266 0.000563936 -4.73719e-05
-0.00141136 0.000419411 0.000425123 -5.74364e-05
-0.00188564 0.000562385 0.000567109 -4.73758e-05
-0.00188038 0.000560825 0.000565523 -4.73739e-05
-0.00234267 0.000700436 0.000703815 -3.44441e-05
-0.00232954 0.000696523 0.000699863 -3.44405e-05
-0.0013995 0.000415922 0.000421535 -5.74316e-05
-0.00140741 0.000418248 0.000423927 -5.74345e-05
-0.0023361 0.00069848 0.000701839 -3.44422e-05
-0.0018646 0.000556147 0.000560764 -4.73685e-05
-0.00140346 0.000417085 0.000422731 -5.74329e-05
-0.00187512 0.000559266 0.000563936 -4.73719e-05
-0.00186986 0.000557706 0.00056235 -4.73701e-05
-0.00232954 0.000696523 0.000699863 -3.44405e-05
-0.0023164 0.00069261 0.000695911 -3.4438e-05
-0.0013916 0.000413595 0.000419143 -5.74294e-05
-0.0013995 0.000415922 0.000421535 -5.74316e-05
-0.00232297 0.000694567 0.000697887 -3.44392e-05
-0.00185407 0.000553028 0.000557591 -4.73659e-05
-0.00139555 0.000414759 0.000420339 -5.74304e-05
-0.0018646 0.000556147 0.000560764 -4.73685e-05
-0.00185934 0.000554588 0.000559177 -4.73671e-05
-0.0023164 0.00069261 0.000695911 -3.4438e-05
-0.00230327 0.000688697 0.00069196 -3.44364e-05
-0.00138369 0.000411268 0.000416751 -5.7428e-05
-0.0013916 0.000413595 0.000419143 -5.74294e-05
-0.00230984 0.000690654 0.000693936 -3.44371e-05
-0.00184355 0.000549909 0.000554419 -4.73642e-05
-0.00138764 0.000412432 0.000417947 -5.74286e-05
-0.00185407 0.000553028 0.000557591 -4.73659e-05
-0.00184881 0.000551469 0.000556005 -4.73649e-05
-0.00230327 0.000688697 0.00069196 -3.44364e-05
-0.00229014 0.000684784 0.000688009 -3.44354e-05
-0.00137578 0.000408941 0.00041436 -5.74271e-05
-0.00138369 0.000411268 0.000416751 -5.7428e-05
-0.0022967 0.000686741 0.000689984 -3.44358e-05
-0.00183303 0.00054679 0.000551247 -4.73631e-05
-0.00137973 0.000410105 0.000415555 -5.74275e-05
-0.00184355 0.000549909 0.000554419 -4.73642e-05
-0.00183829 0.00054835 0.000552833 -4.73636e-05
-0.00229014 0.000684784 0.000688009 -3.44354e-05
-0.00227701 0.00068087 0.000684058 -3.44349e-05
-0.00136787 0.000406612 0.000411968 -5.74266e-05
-0.00137578 0.000408941 0.00041436 -5.74271e-05
-0.00228357 0.000682827 0.000686033 -3.44351e-05
-0.00182251 0.00054367 0.000548075 -4.73625e-05
-0.00137183 0.000407777 0.000413164 -5.74268e-05
-0.00183303 0.00054679 0.000551247 -4.73631e-05
-0.00182777 0.00054523 0.000549661 -4.73628e-05
-0.00227701 0.00068087 0.000684058 -3.44349e-05
-0.00226387 0.000676957 0.000680107 -3.44347e-05
-0.00135996 0.000404284 0.000409577 -5.74262e-05
-0.00136787 0.000406612 0.000411968 -5.74266e-05
-0.00227044 0.000678914 0.000682083 -3.44348e-05
-0.00181199 0.000540549 0.000544903 -4.73622e-05
-0.00136392 0.000405448 0.000410773 -5.74264e-05
-0.00182251 0.00054367 0.000548075 -4.73625e-05
-0.00181725 0.00054211 0.000546489 -4.73623e-05
-0.00226387 0.000676957 0.000680107 -3.44347e-05
-0.00225074 0.000673043 0.000676157 -3.44347e-05
-0.00135206 0.000401954 0.000407186 -5.7426e-05
-0.00135996 0.000404284 0.000409577 -5.74262e-05
-0.00225731 0.000675 0.000678132 -3.44347e-05
-0.00180147 0.000537429 0.000541732 -4.73621e-05
-0.00135601 0.000403119 0.000408382 -5.74261e-05
-0.00181199 0.000540549 0.000544903 -4.73622e-05
-0.00180673 0.000538989 0.000543318 -4.73621e-05
-0.00225074 0.000673043 0.000676157 -3.44347e-05
-0.00223761 0.000669129 0.000672207 -3.44347e-05
-0.00134415 0.000399625 0.000404796 -5.74259e-05
-0.00135206 0.000401954 0.000407186 -5.7426e-05
-0.00224418 0.000671086 0.000674182 -3.44347e-05
-0.00179095 0.000534308 0.000538561 -4.73621e-05
-0.0013481 0.00040079 0.000405991 -5.74259e-05
-0.00180147 0.000537429 0.000541732 -4.73621e-05
-0.00179621 0.000535868 0.000540147 -4.73621e-05
-0.00223761 0.000669129 0.000672207 -3.44347e-05
-0.00222448 0.000665215 0.000668257 -3.44348e-05
-0.00133624 0.000397295 0.000402406 -5.74258e-05
-0.00134415 0.000399625 0.000404796 -5.74259e-05
-0.00223105 0.000667172 0.000670232 -3.44348e-05
-0.00178043 0.000531187 0.00053539 -4.7362e-05
-0.0013402 0.00039846 0.000403601 -5.74258e-05
-0.00179095 0.000534308 0.000538561 -4.73621e-05
-0.00178569 0.000532747 0.000536976 -4.7362e-05
-0.00222448 0.000665215 0.000668257 -3.44348e-05
-0.00221135 0.000661302 0.000664307 -3.44349e-05
-0.00132833 0.000394965 0.000400016 -5.74256e-05
-0.00133624 0.000397295 0.000402406 -5.74258e-05
-0.00221792 0.000663258 0.000666282 -3.44348e-05
-0.00176991 0.000528066 0.00053222 -4.7362e-05
-0.00133229 0.00039613 0.000401211 -5.74257e-05
-0.00178043 0.000531187 0.00053539 -4.7362e-05
-0.00177517 0.000529626 0.000533805 -4.7362e-05
-0.00221135 0.000661302 0.000664307 -3.44349e-05
-0.00219822 0.000657388 0.000660357 -3.44349e-05
-0.00132043 0.000392635 0.000397626 -5.74255e-05
-0.00132833 0.000394965 0.000400016 -5.74256e-05
-0.00220479 0.000659345 0.000662332 -3.44349e-05
-0.00175939 0.000524945 0.000529049 -4.7362e-05
-0.00132438 0.0003938 0.000398821 -5.74256e-05
-0.00176991 0.000528066 0.00053222 -4.7362e-05
-0.00176465 0.000526505 0.000530634 -4.7362e-05
-0.00219822 0.000657388 0.000660357 -3.44349e-05
-0.00218509 0.000653473 0.000656407 -3.4435e-05
-0.00131252 0.000390305 0.000395236 -5.74253e-05
-0.00132043 0.000392635 0.000397626 -5.74255e-05
-0.00219166 0.000655431 0.000658382 -3.4435e-05
-0.00174887 0.000521823 0.000525879 -4.7362e-05
-0.00131648 0.00039147 0.000396431 -5.74254e-05
-0.00175939 0.000524945 0.000529049 -4.7362e-05
-0.00175413 0.000523384 0.000527464 -4.7362e-05
-0.00218509 0.000653473 0.000656407 -3.4435e-05
-0.00217196 0.000649559 0.000652458 -3.4435e-05
-0.00130462 0.000387975 0.000392847 -5.74252e-05
-0.00131252 0.000390305 0.000395236 -5.74253e-05
-0.00217853 0.000651516 0.000654433 -3.4435e-05
-0.00173836 0.000518702 0.000522709 -4.73619e-05
-0.00130857 0.00038914 0.000394041 -5.74253e-05
-0.00174887 0.000521823 0.000525879 -4.7362e-05
-0.00174361 0.000520263 0.000524294 -4.7362e-05
-0.00217196 0.000649559 0.000652458 -3.4435e-05
-0.00215883 0.000645645 0.000648509 -3.4435e-05
-0.00129671 0.000385644 0.000390457 -5.7425e-05
-0.00130462 0.000387975 0.000392847 -5.74252e-05
-0.0021654 0.000647602 0.000650483 -3.4435e-05
-0.00172784 0.00051558 0.000519539 -4.73619e-05
-0.00130066 0.00038681 0.000391652 -5.74251e-05
-0.00173836 0.000518702 0.000522709 -4.73619e-05
-0.0017331 0.000517141 0.000521124 -4.73619e-05
-0.00215883 0.000645645 0.000648509 -3.4435e-05
-0.0021457 0.000641731 0.00064456 -3.4435e-05
-0.00128881 0.000383314 0.000388069 -5.74247e-05
-0.00129671 0.000385644 0.000390457 -5.7425e-05
-0.00215227 0.000643688 0.000646534 -3.4435e-05
-0.00171732 0.000512459 0.000516369 -4.73618e-05
-0.00129276 0.000384479 0.000389263 -5.74249e-05
-0.00172784 0.00051558 0.000519539 -4.73619e-05
-0.00172258 0.00051402 0.000517954 -4.73618e-05
-0.0021457 0.000641731 0.00064456 -3.4435e-05
-0.00213258 0.000637817 0.000640611 -3.4435e-05
-0.0012809 0.000380983 0.00038568 -5.74245e-05
-0.00128881 0.000383314 0.000388069 -5.74247e-05
-0.00213914 0.000639774 0.000642585 -3.4435e-05
-0.0017068 0.000509337 0.0005132 -4.73617e-05
-0.00128485 0.000382149 0.000386874 -5.74246e-05
-0.00171732 0.000512459 0.000516369 -4.73618e-05
-0.00171206 0.000510898 0.000514784 -4.73617e-05
-0.00213258 0.000637817 0.000640611 -3.4435e-05
-0.00211945 0.000633903 0.000636662 -3.4435e-05
-0.001273 0.000378652 0.000383291 -5.74242e-05
-0.0012809 0.000380983 0.00038568 -5.74245e-05
-0.00212601 0.00063586 0.000638636 -3.4435e-05
-0.00169629 0.000506215 0.00051003 -4.73615e-05
-0.00127695 0.000379818 0.000384485 -5.74244e-05
-0.0017068 0.000509337 0.0005132 -4.73617e-05
-0.00170154 0.000507776 0.000511615 -4.73616e-05
-0.00211945 0.000633903 0.000636662 -3.4435e-05
-0.00210632 0.000629988 0.000632713 -3.44349e-05
-0.00126509 0.000376321 0.000380903 -5.7424e-05
-0.001273 0.000378652 0.000383291 -5.74242e-05
-0.00211288 0.000631945 0.000634688 -3.4435e-05
-0.00168577 0.000503093 0.000506861 -4.73614e-05
-0.00126905 0.000377487 0.000382097 -5.74241e-05
-0.00169629 0.000506215 0.00051003 -4.73615e-05
-0.00169103 0.000504654 0.000508446 -4.73615e-05
-0.00210632 0.000629988 0.000632713 -3.44349e-05
-0.00209319 0.000626074 0.000628765 -3.44349e-05
-0.00125719 0.00037399 0.000378515 -5.74237e-05
-0.00126509 0.000376321 0.000380903 -5.7424e-05
-0.00209976 0.000628031 0.000630739 -3.44349e-05
-0.00167525 0.000499971 0.000503692 -4.73613e-05
-0.00126114 0.000375156 0.000379709 -5.74238e-05
-0.00168577 0.000503093 0.000506861 -4.73614e-05
-0.00168051 0.000501532 0.000505277 -4.73613e-05
-0.00209319 0.000626074 0.000628765 -3.44349e-05
-0.00208007 0.00062216 0.000624817 -3.44348e-05
-0.00124929 0.000371659 0.000376127 -5.74234e-05
-0.00125719 0.00037399 0.000378515 -5.74237e-05
-0.00208663 0.000624117 0.000626791 -3.44349e-05
-0.00166474 0.000496849 0.000500524 -4.73611e-05
-0.00125324 0.000372825 0.000377321 -5.74235e-05
-0.00167525 0.000499971 0.000503692 -4.73613e-05
-0.00167 0.00049841 0.000502108 -4.73612e-05
-0.00208007 0.00062216 0.000624817 -3.44348e-05
-0.00206694 0.000618245 0.000620869 -3.44348e-05
-0.00124139 0.000369328 0.000373739 -5.74231e-05
-0.00124929 0.000371659 0.000376127 -5.74234e-05
-0.0020735 0.000620202 0.000622843 -3.44348e-05
-0.00165422 0.000493727 0.000497355 -4.73609e-05
-0.00124534 0.000370493 0.000374933 -5.74232e-05
-0.00166474 0.000496849 0.000500524 -4.73611e-05
-0.00165948 0.000495288 0.000498939 -4.7361e-05
-0.00206694 0.000618245 0.000620869 -3.44348e-05
-0.00205381 0.000614331 0.000616921 -3.44347e-05
-0.00123348 0.000366996 0.000371352 -5.74228e-05
-0.00124139 0.000369328 0.000373739 -5.74231e-05
-0.00206038 0.000616288 0.000618895 -3.44347e-05
-0.00164371 0.000490605 0.000494187 -4.73607e-05
-0.00123744 0.000368162 0.000372546 -5.74229e-05
-0.00165422 0.000493727 0.000497355 -4.73609e-05
-0.00164897 0.000492166 0.000495771 -4.73608e-05
-0.00205381 0.000614331 0.000616921 -3.44347e-05
-0.00204069 0.000610416 0.000612973 -3.44346e-05
-0.00122558 0.000364665 0.000368965 -5.74224e-05
-0.00123348 0.000366996 0.000371352 -5.74228e-05
-0.00204725 0.000612374 0.000614947 -3.44347e-05
-0.00163319 0.000487483 0.000491019 -4.73606e-05
-0.00122953 0.000365831 0.000370158 -5.74226e-05
-0.00164371 0.000490605 0.000494187 -4.73607e-05
-0.00163845 0.000489044 0.000492603 -4.73607e-05
-0.00204069 0.000610416 0.000612973 -3.44346e-05
-0.00202756 0.000606502 0.000609026 -3.44345e-05
-0.00121768 0.000362333 0.000366578 -5.74221e-05
-0.00122558 0.000364665 0.000368965 -5.74224e-05
-0.00203412 0.000608459 0.000610999 -3.44346e-05
-0.00162268 0.00048436 0.000487851 -4.73604e-05
-0.00122163 0.000363499 0.000367771 -5.74223e-05
-0.00163319 0.000487483 0.000491019 -4.73606e-05
-0.00162794 0.000485922 0.000489435 -4.73605e-05
-0.00202756 0.000606502 0.000609026 -3.44345e-05
-0.00201444 0.000602587 0.000605078 -3.44345e-05
-0.00120978 0.000360001 0.000364191 -5.74218e-05
-0.00121768 0.000362333 0.000366578 -5.74221e-05
-0.002021 0.000604545 0.000607052 -3.44345e-05
-0.00161217 0.000481238 0.000484683 -4.73602e-05
-0.00121373 0.000361167 0.000365384 -5.74219e-05
-0.00162268 0.00048436 0.000487851 -4.73604e-05
-0.00161742 0.000482799 0.000486267 -4.73603e-05
-0.00201444 0.000602587 0.000605078 -3.44345e-05
-0.00200131 0.000598673 0.000601131 -3.44344e-05
-0.00120188 0.000357669 0.000361805 -5.74214e-05
-0.00120978 0.000360001 0.000364191 -5.74218e-05
-0.00200787 0.00060063 0.000603105 -3.44344e-05
-0.00160165 0.000478115 0.000481516 -4.736e-05
-0.00120583 0.000358835 0.000362998 -5.74216e-05
-0.00161217 0.000481238 0.000484683 -4.73602e-05
-0.00160691 0.000479677 0.000483099 -4.73601e-05
-0.00200131 0.000598673 0.000601131 -3.44344e-05
-0.00198819 0.000594758 0.000597184 -3.44343e-05
-0.00119398 0.000355337 0.000359418 -5.7421e-05
-0.00120188 0.000357669 0.000361805 -5.74214e-05
-0.00199475 0.000596715 0.000599158 -3.44343e-05
-0.00159114 0.000474993 0.000478348 -4.73597e-05
-0.00119793 0.000356503 0.000360611 -5.74212e-05
-0.00160165 0.000478115 0.000481516 -4.736e-05
-0.0015964 0.000476554 0.000479932 -4.73598e-05
-0.00198819 0.000594758 0.000597184 -3.44343e-05
-0.00197506 0.000590843 0.000593237 -3.44342e-05
-0.00118608 0.000353005 0.000357032 -5.74207e-05
-0.00119398 0.000355337 0.000359418 -5.7421e-05
-0.00198163 0.000592801 0.000595211 -3.44342e-05
-0.00158063 0.00047187 0.000475181 -4.73595e-05
-0.00119003 0.000354171 0.000358225 -5.74208e-05
-0.00159114 0.000474993 0.000478348 -4.73597e-05
-0.00158588 0.000473431 0.000476765 -4.73596e-05
-0.00197506 0.000590843 0.000593237 -3.44342e-05
-0.00196194 0.000586929 0.000589291 -3.44341e-05
-0.00117818 0.000350672 0.000354646 -5.74203e-05
-0.00118608 0.000353005 0.000357032 -5.74207e-05
-0.0019685 0.000588886 0.000591264 -3.44341e-05
-0.00157011 0.000468747 0.000472015 -4.73593e-05
-0.00118213 0.000351839 0.000355839 -5.74205e-05
-0.00158063 0.00047187 0.000475181 -4.73595e-05
-0.00157537 0.000470309 0.000473598 -4.73594e-05
-0.00196194 0.000586929 0.000589291 -3.44341e-05
-0.00194882 0.000583014 0.000585344 -3.44339e-05
-0.00117028 0.00034834 0.000352261 -5.74199e-05
-0.00117818 0.000350672 0.000354646 -5.74203e-05
-0.00195538 0.000584971 0.000587317 -3.4434e-05
-0.0015596 0.000465624 0.000468848 -4.7359e-05
-0.00117423 0.000349506 0.000353454 -5.74201e-05
-0.00157011 0.000468747 0.000472015 -4.73593e-05
-0.00156486 0.000467186 0.000470431 -4.73592e-05
-0.00194882 0.000583014 0.000585344 -3.44339e-05
-0.00193569 0.000579099 0.000581398 -3.44338e-05
-0.00116238 0.000346007 0.000349875 -5.74195e-05
-0.00117028 0.00034834 0.000352261 -5.74199e-05
-0.00194226 0.000581057 0.000583371 -3.44339e-05
-0.00154909 0.000462501 0.000465681 -4.73588e-05
-0.00116633 0.000347174 0.000351068 -5.74197e-05
-0.0015596 0.000465624 0.000468848 -4.7359e-05
-0.00155435 0.000464063 0.000467265 -4.73589e-05
-0.00193569 0.000579099 0.000581398 -3.44338e-05
-0.00192257 0.000575184 0.000577452 -3.44337e-05
-0.00115448 0.000343675 0.00034749 -5.74191e-05
-0.00116238 0.000346007 0.000349875 -5.74195e-05
-0.00192913 0.000577142 0.000579425 -3.44338e-05
-0.00153858 0.000459378 0.000462515 -4.73585e-05
-0.00115843 0.000344841 0.000348683 -5.74193e-05
-0.00154909 0.000462501 0.000465681 -4.73588e-05
-0.00154384 0.00046094 0.000464098 -4.73587e-05
-0.00192257 0.000575184 0.000577452 -3.44337e-05
-0.00190945 0.00057127 0.000573506 -3.44336e-05
-0.00114659 0.000341342 0.000345105 -5.74187e-05
-0.00115448 0.000343675 0.00034749 -5.74191e-05
-0.00191601 0.000573227 0.000575479 -3.44336e-05
-0.00152807 0.000456255 0.000459349 -4.73583e-05
-0.00115054 0.000342508 0.000346298 -5.74189e-05
-0.00153858 0.000459378 0.000462515 -4.73585e-05
-0.00153333 0.000457817 0.000460932 -4.73584e-05
-0.00190945 0.00057127 0.000573506 -3.44336e-05
-0.00189633 0.000567355 0.00056956 -3.44335e-05
-0.00113869 0.000339009 0.000342721 -5.74183e-05
-0.00114659 0.000341342 0.000345105 -5.74187e-05
-0.00190289 0.000569312 0.000571533 -3.44335e-05
-0.00151756 0.000453132 0.000456183 -4.7358e-05
-0.00114264 0.000340175 0.000343913 -5.74185e-05
-0.00152807 0.000456255 0.000459349 -4.73583e-05
-0.00152281 0.000454694 0.000457766 -4.73582e-05
-0.00189633 0.000567355 0.00056956 -3.44335e-05
-0.00188321 0.00056344 0.000565614 -3.44333e-05
-0.00113079 0.000336675 0.000340336 -5.74178e-05
-0.00113869 0.000339009 0.000342721 -5.74183e-05
-0.00188977 0.000565397 0.000567587 -3.44334e-05
-0.00150705 0.000450009 0.000453018 -4.73578e-05
-0.00113474 0.000337842 0.000341528 -5.7418e-05
-0.00151756 0.000453132 0.000456183 -4.7358e-05
-0.0015123 0.00045157 0.0004546 -4.73579e-05
-0.00188321 0.00056344 0.000565614 -3.44333e-05
-0.00187009 0.000559525 0.000561669 -3.44332e-05
-0.0011229 0.000334342 0.000337952 -5.74174e-05
-0.00113079 0.000336675 0.000340336 -5.74178e-05
-0.00187665 0.000561482 0.000563642 -3.44332e-05
-0.00149654 0.000446885 0.000449852 -4.73575e-05
-0.00112684 0.000335509 0.000339144 -5.74176e-05
-0.00150705 0.000450009 0.000453018 -4.73578e-05
-0.0015018 0.000448447 0.000451435 -4.73576e-05
-0.00187009 0.000559525 0.000561669 -3.44332e-05
-0.00185697 0.00055561 0.000557724 -3.4433e-05
-0.001115 0.000332009 0.000335568 -5.7417e-05
-0.0011229 0.000334342 0.000337952 -5.74174e-05
-0.00186353 0.000557568 0.000559696 -3.44331e-05
-0.00148603 0.000443762 0.000446687 -4.73572e-05
-0.00111895 0.000333176 0.00033676 -5.74172e-05
-0.00149654 0.000446885 0.000449852 -4.73575e-05
-0.00149129 0.000445323 0.00044827 -4.73573e-05
-0.00185697 0.00055561 0.000557724 -3.4433e-05
-0.00184385 0.000551695 0.000553779 -3.44329e-05
-0.0011071 0.000329675 0.000333184 -5.74165e-05
-0.001115 0.000332009 0.000335568 -5.7417e-05
-0.00185041 0.000553653 0.000555751 -3.4433e-05
-0.00147552 0.000440638 0.000443522 -4.73569e-05
-0.00111105 0.000330842 0.000334376 -5.74167e-05
-0.00148603 0.000443762 0.000446687 -4.73572e-05
-0.00148078 0.0004422 0.000445105 -4.73571e-05
-0.00184385 0.000551695 0.000553779 -3.44329e-05
-0.00183073 0.00054778 0.000549834 -3.44327e-05
-0.00109921 0.000327342 0.0003308 -5.74161e-05
-0.0011071 0.000329675 0.000333184 -5.74165e-05
-0.00183729 0.000549738 0.000551806 -3.44328e-05
-0.00146501 0.000437514 0.000440357 -4.73566e-05
-0.00110316 0.000328509 0.000331992 -5.74163e-05
-0.00147552 0.000440638 0.000443522 -4.73569e-05
-0.00147027 0.000439076 0.00044194 -4.73568e-05
-0.00183073 0.00054778 0.000549834 -3.44327e-05
-0.00181761 0.000543865 0.000545889 -3.44326e-05
-0.00109131 0.000325008 0.000328417 -5.74156e-05
-0.00109921 0.000327342 0.0003308 -5.74161e-05
-0.00182417 0.000545823 0.000547862 -3.44327e-05
-0.00145451 0.000434391 0.000437193 -4.73563e-05
-0.00109526 0.000326175 0.000329609 -5.74158e-05
-0.00146501 0.000437514 0.000440357 -4.73566e-05
-0.00145976 0.000435953 0.000438775 -4.73565e-05
-0.00181761 0.000543865 0.000545889 -3.44326e-05
-0.00180449 0.00053995 0.000541945 -3.44324e-05
-0.00108342 0.000322674 0.000326034 -5.74152e-05
-0.00109131 0.000325008 0.000328417 -5.74156e-05
-0.00181105 0.000541908 0.000543917 -3.44325e-05
-0.001444 0.000431267 0.000434028 -4.73561e-05
-0.00108737 0.000323841 0.000327225 -5.74154e-05
-0.00145451 0.000434391 0.000437193 -4.73563e-05
-0.00144925 0.000432829 0.000435611 -4.73562e-05
-0.00180449 0.00053995 0.000541945 -3.44324e-05
-0.00179137 0.000536035 0.000538001 -3.44323e-05
-0.00107553 0.00032034 0.000323651 -5.74147e-05
-0.00108342 0.000322674 0.000326034 -5.74152e-05
-0.00179793 0.000537993 0.000539973 -3.44324e-05
-0.00143349 0.000428143 0.000430864 -4.73558e-05
-0.00107947 0.000321507 0.000324842 -5.74149e-05
-0.001444 0.000431267 0.000434028 -4.73561e-05
-0.00143875 0.000429705 0.000432446 -4.73559e-05
-0.00179137 0.000536035 0.000538001 -3.44323e-05
-0.00177825 0.00053212 0.000534057 -3.44321e-05
-0.00106763 0.000318006 0.000321268 -5.74142e-05
-0.00107553 0.00032034 0.000323651 -5.74147e-05
-0.00178481 0.000534077 0.000536029 -3.44322e-05
-0.00142299 0.000425019 0.0004277 -4.73554e-05
-0.00107158 0.000319173 0.00032246 -5.74145e-05
-0.00143349 0.000428143 0.000430864 -4.73558e-05
-0.00142824 0.000426581 0.000429282 -4.73556e-05
-0.00177825 0.00053212 0.000534057 -3.44321e-05
-0.00176513 0.000528205 0.000530113 -3.4432e-05
-0.00105974 0.000315672 0.000318886 -5.74137e-05
-0.00106763 0.000318006 0.000321268 -5.74142e-05
-0.00177169 0.000530162 0.000532085 -3.4432e-05
-0.00141248 0.000421895 0.000424537 -4.73551e-05
-0.00106369 0.000316839 0.000320077 -5.7414e-05
-0.00142299 0.000425019 0.0004277 -4.73554e-05
-0.00141773 0.000423457 0.000426118 -4.73553e-05
-0.00176513 0.000528205 0.000530113 -3.4432e-05
-0.00175202 0.00052429 0.000526169 -3.44318e-05
-0.00105185 0.000313337 0.000316504 -5.74133e-05
-0.00105974 0.000315672 0.000318886 -5.74137e-05
-0.00175858 0.000526247 0.000528141 -3.44319e-05
-0.00140197 0.000418771 0.000421373 -4.73548e-05
-0.00105579 0.000314504 0.000317695 -5.74135e-05
-0.00141248 0.000421895 0.000424537 -4.73551e-05
-0.00140723 0.000420333 0.000422955 -4.7355e-05
-0.00175202 0.00052429 0.000526169 -3.44318e-05
-0.0017389 0.000520374 0.000522225 -3.44316e-05
-0.00104395 0.000311003 0.000314122 -5.74128e-05
-0.00105185 0.000313337 0.000316504 -5.74133e-05
-0.00174546 0.000522332 0.000524197 -3.44317e-05
-0.00139147 0.000415647 0.00041821 -4.73545e-05
-0.0010479 0.00031217 0.000315313 -5.7413e-05
-0.00140197 0.000418771 0.000421373 -4.73548e-05
-0.00139672 0.000417209 0.000419791 -4.73547e-05
-0.0017389 0.000520374 0.000522225 -3.44316e-05
-0.00172578 0.000516459 0.000518282 -3.44315e-05
-0.00103606 0.000308668 0.00031174 -5.74123e-05
-0.00104395 0.000311003 0.000314122 -5.74128e-05
-0.00173234 0.000518417 0.000520254 -3.44315e-05
-0.00138096 0.000412522 0.000415047 -4.73542e-05
-0.00104001 0.000309835 0.000312931 -5.74125e-05
-0.00139147 0.000415647 0.00041821 -4.73545e-05
-0.00138622 0.000414085 0.000416628 -4.73544e-05
-0.00172578 0.000516459 0.000518282 -3.44315e-05
-0.00171267 0.000512544 0.000514339 -3.44313e-05
-0.00102817 0.000306333 0.000309359 -5.74118e-05
-0.00103606 0.000308668 0.00031174 -5.74123e-05
-0.00171923 0.000514502 0.00051631 -3.44314e-05
-0.00137046 0.000409398 0.000411884 -4.73539e-05
-0.00103212 0.000307501 0.000310549 -5.74121e-05
-0.00138096 0.000412522 0.000415047 -4.73542e-05
-0.00137571 0.00041096 0.000413465 -4.7354e-05
-0.00171267 0.000512544 0.000514339 -3.44313e-05
-0.00169955 0.000508629 0.000510396 -3.44311e-05
-0.00102028 0.000303998 0.000306977 -5.74113e-05
-0.00102817 0.000306333 0.000309359 -5.74118e-05
-0.00170611 0.000510586 0.000512367 -3.44312e-05
-0.00135996 0.000406274 0.000408721 -4.73536e-05
-0.00102422 0.000305166 0.000308168 -5.74116e-05
-0.00137046 0.000409398 0.000411884 -4.73539e-05
-0.00136521 0.000407836 0.000410302 -4.73537e-05
-0.00169955 0.000508629 0.000510396 -3.44311e-05
-0.00168644 0.000504714 0.000506453 -3.44309e-05
-0.00101239 0.000301663 0.000304596 -5.74108e-05
-0.00102028 0.000303998 0.000306977 -5.74113e-05
-0.00169299 0.000506671 0.000508424 -3.4431e-05
-0.00134945 0.000403149 0.000405559 -4.73532e-05
-0.00101633 0.000302831 0.000305787 -5.74111e-05
-0.00135996 0.000406274 0.000408721 -4.73536e-05
-0.0013547 0.000404711 0.00040714 -4.73534e-05
-0.00168644 0.000504714 0.000506453 -3.44309e-05
-0.00167332 0.000500798 0.00050251 -3.44308e-05
-0.0010045 0.000299328 0.000302215 -5.74103e-05
-0.00101239 0.000301663 0.000304596 -5.74108e-05
-0.00167988 0.000502756 0.000504482 -3.44308e-05
-0.00133895 0.000400024 0.000402396 -4.73529e-05
-0.00100844 0.000300496 0.000303406 -5.74106e-05
-0.00134945 0.000403149 0.000405559 -4.73532e-05
-0.0013442 0.000401587 0.000403978 -4.73531e-05
-0.00167332 0.000500798 0.00050251 -3.44308e-05
-0.00166021 0.000496883 0.000498568 -3.44306e-05
-0.000996608 0.000296993 0.000299835 -5.74098e-05
-0.0010045 0.000299328 0.000302215 -5.74103e-05
-0.00166677 0.000498841 0.000500539 -3.44307e-05
-0.00132845 0.0003969 0.000399234 -4.73526e-05
-0.00100055 0.000298161 0.000301025 -5.74101e-05
-0.00133895 0.000400024 0.000402396 -4.73529e-05
-0.0013337 0.000398462 0.000400815 -4.73527e-05
-0.00166021 0.000496883 0.000498568 -3.44306e-05
-0.00164709 0.000492968 0.000494626 -3.44304e-05
-0.000988718 0.000294658 0.000297455 -5.74093e-05
-0.000996608 0.000296993 0.000299835 -5.74098e-05
-0.00165365 0.000494925 0.000496597 -3.44305e-05
-0.00131794 0.000393775 0.000396073 -4.73522e-05
-0.000992663 0.000295825 0.000298645 -5.74096e-05
-0.00132845 0.0003969 0.000399234 -4.73526e-05
-0.0013232 0.000395337 0.000397654 -4.73524e-05
-0.00164709 0.000492968 0.000494626 -3.44304e-05
-0.00163398 0.000489052 0.000490684 -3.44302e-05
-0.000980829 0.000292322 0.000295074 -5.74088e-05
-0.000988718 0.000294658 0.000297455 -5.74093e-05
-0.00164054 0.00049101 0.000492655 -3.44303e-05
-0.00130744 0.00039065 0.000392911 -4.73519e-05
-0.000984773 0.00029349 0.000296264 -5.74091e-05
-0.00131794 0.000393775 0.000396073 -4.73522e-05
-0.00131269 0.000392212 0.000394492 -4.73521e-05
-0.00163398 0.000489052 0.000490684 -3.44302e-05
-0.00162087 0.000485137 0.000486742 -3.443e-05
-0.00097294 0.000289986 0.000292695 -5.74083e-05
-0.000980829 0.000292322 0.000295074 -5.74088e-05
-0.00162742 0.000487094 0.000488713 -3.44301e-05
-0.00129694 0.000387525 0.00038975 -4.73516e-05
-0.000976885 0.000291154 0.000293884 -5.74086e-05
-0.00130744 0.00039065 0.000392911 -4.73519e-05
-0.00130219 0.000389088 0.00039133 -4.73517e-05
-0.00162087 0.000485137 0.000486742 -3.443e-05
-0.00160776 0.000481221 0.0004828 -3.44298e-05
-0.000965052 0.000287651 0.000290315 -5.74078e-05
-0.00097294 0.000289986 0.000292695 -5.74083e-05
-0.00161431 0.000483179 0.000484771 -3.44299e-05
-0.00128644 0.0003844 0.000386589 -4.73512e-05
-0.000968996 0.000288819 0.000291505 -5.7408e-05
-0.00129694 0.000387525 0.00038975 -4.73516e-05
-0.00129169 0.000385963 0.000388169 -4.73514e-05
-0.00160776 0.000481221 0.0004828 -3.44298e-05
-0.00159464 0.000477306 0.000478859 -3.44297e-05
-0.000957164 0.000285315 0.000287935 -5.74073e-05
-0.000965052 0.000287651 0.000290315 -5.74078e-05
-0.0016012 0.000479264 0.000480829 -3.44297e-05
-0.00127594 0.000381275 0.000383428 -4.73509e-05
-0.000961108 0.000286483 0.000289125 -5.74075e-05
-0.00128644 0.0003844 0.000386589 -4.73512e-05
-0.00128119 0.000382838 0.000385008 -4.73511e-05
-0.00159464 0.000477306 0.000478859 -3.44297e-05
-0.00158153 0.00047339 0.000474917 -3.44295e-05
-0.000949277 0.000282979 0.000285556 -5.74068e-05
-0.000957164 0.000285315 0.000287935 -5.74073e-05
-0.00158809 0.000475348 0.000476888 -3.44296e-05
-0.00126544 0.00037815 0.000380267 -4.73505e-05
-0.00095322 0.000284147 0.000286746 -5.7407e-05
-0.00127594 0.000381275 0.000383428 -4.73509e-05
-0.00127069 0.000379712 0.000381847 -4.73507e-05
-0.00158153 0.00047339 0.000474917 -3.44295e-05
-0.00156842 0.000469475 0.000470976 -3.44293e-05
-0.00094139 0.000280643 0.000283177 -5.74062e-05
-0.000949277 0.000282979 0.000285556 -5.74068e-05
-0.00157498 0.000471433 0.000472947 -3.44294e-05
-0.00125494 0.000375025 0.000377106 -4.73502e-05
-0.000945333 0.000281811 0.000284367 -5.74065e-05
-0.00126544 0.00037815 0.000380267 -4.73505e-05
-0.00126019 0.000376587 0.000378687 -4.73504e-05
-0.00156842 0.000469475 0.000470976 -3.44293e-05
-0.00155531 0.000465559 0.000467035 -3.44291e-05
-0.000933503 0.000278306 0.000280799 -5.74057e-05
-0.00094139 0.000280643 0.000283177 -5.74062e-05
-0.00156186 0.000467517 0.000469006 -3.44292e-05
-0.00124444 0.000371899 0.000373946 -4.73499e-05
-0.000937446 0.000279474 0.000281988 -5.7406e-05
-0.00125494 0.000375025 0.000377106 -4.73502e-05
-0.00124969 0.000373462 0.000375526 -4.735e-05
-0.00155531 0.000465559 0.000467035 -3.44291e-05
-0.0015422 0.000461644 0.000463095 -3.44289e-05
-0.000925617 0.00027597 0.00027842 -5.74052e-05
-0.000933503 0.000278306 0.000280799 -5.74057e-05
-0.00154875 0.000463602 0.000465065 -3.4429e-05
-0.00123394 0.000368774 0.000370786 -4.73495e-05
-0.00092956 0.000277138 0.000279609 -5.74055e-05
-0.00124444 0.000371899 0.000373946 -4.73499e-05
-0.00123919 0.000370337 0.000372366 -4.73497e-05
-0.0015422 0.000461644 0.000463095 -3.44289e-05
-0.00152909 0.000457728 0.000459154 -3.44287e-05
-0.000917731 0.000273633 0.000276042 -5.74047e-05
-0.000925617 0.00027597 0.00027842 -5.74052e-05
-0.00153564 0.000459686 0.000461124 -3.44288e-05
-0.00122344 0.000365648 0.000367626 -4.73492e-05
-0.000921674 0.000274802 0.000277231 -5.7405e-05
-0.00123394 0.000368774 0.000370786 -4.73495e-05
-0.00122869 0.000367211 0.000369206 -4.73493e-05
-0.00152909 0.000457728 0.000459154 -3.44287e-05
-0.00151598 0.000453813 0.000455214 -3.44285e-05
-0.000909846 0.000271297 0.000273664 -5.74042e-05
-0.000917731 0.000273633 0.000276042 -5.74047e-05
-0.00152253 0.00045577 0.000457184 -3.44286e-05
-0.00121294 0.000362523 0.000364466 -4.73488e-05
-0.000913788 0.000272465 0.000274853 -5.74044e-05
-0.00122344 0.000365648 0.000367626 -4.73492e-05
-0.00121819 0.000364086 0.000366046 -4.7349e-05
-0.00151598 0.000453813 0.000455214 -3.44285e-05
-0.00150287 0.000449897 0.000451274 -3.44283e-05
-0.000901961 0.00026896 0.000271286 -5.74037e-05
-0.000909846 0.000271297 0.000273664 -5.74042e-05
-0.00150942 0.000451855 0.000453244 -3.44284e-05
-0.00120245 0.000359397 0.000361307 -4.73485e-05
-0.000905903 0.000270128 0.000272475 -5.74039e-05
-0.00121294 0.000362523 0.000364466 -4.73488e-05
-0.0012077 0.00036096 0.000362887 -4.73487e-05
-0.00150287 0.000449897 0.000451274 -3.44283e-05
-0.00148976 0.000445981 0.000447334 -3.44281e-05
-0.000894076 0.000266623 0.000268908 -5.74031e-05
-0.000901961 0.00026896 0.000271286 -5.74037e-05
-0.00149631 0.000447939 0.000449304 -3.44282e-05
-0.00119195 0.000356271 0.000358148 -4.73481e-05
-0.000898018 0.000267792 0.000270097 -5.74034e-05
-0.00120245 0.000359397 0.000361307 -4.73485e-05
-0.0011972 0.000357834 0.000359727 -4.73483e-05
-0.00148976 0.000445981 0.000447334 -3.44281e-05
-0.00147665 0.000442066 0.000443394 -3.44279e-05
-0.000886192 0.000264286 0.000266531 -5.74026e-05
-0.000894076 0.000266623 0.000268908 -5.74031e-05
-0.00148321 0.000444023 0.000445364 -3.4428e-05
-0.00118145 0.000353146 0.000354989 -4.73478e-05
-0.000890134 0.000265455 0.00026772 -5.74029e-05
-0.00119195 0.000356271 0.000358148 -4.73481e-05
-0.0011867 0.000354709 0.000356568 -4.7348e-05
-0.00147665 0.000442066 0.000443394 -3.44279e-05
-0.00146354 0.00043815 0.000439454 -3.44278e-05
-0.000878308 0.000261949 0.000264154 -5.74021e-05
-0.000886192 0.000264286 0.000266531 -5.74026e-05
-0.0014701 0.000440108 0.000441424 -3.44279e-05
-0.00117096 0.00035002 0.00035183 -4.73474e-05
-0.00088225 0.000263118 0.000265342 -5.74024e-05
-0.00118145 0.000353146 0.000354989 -4.73478e-05
-0.0011762 0.000351583 0.000353409 -4.73476e-05
-0.00146354 0.00043815 0.000439454 -3.44278e-05
-0.00145044 0.000434234 0.000435515 -3.44276e-05
-0.000870425 0.000259612 0.000261777 -5.74016e-05
-0.000878308 0.000261949 0.000264154 -5.74021e-05
-0.00145699 0.000436192 0.000437485 -3.44277e-05
-0.00116046 0.000346894 0.000348671 -4.73471e-05
-0.000874366 0.00026078 0.000262965 -5.74018e-05
-0.00117096 0.00035002 0.00035183 -4.73474e-05
-0.00116571 0.000348457 0.00035025 -4.73473e-05
-0.00145044 0.000434234 0.000435515 -3.44276e-05
-0.00143733 0.000430318 0.000431576 -3.44274e-05
-0.000862542 0.000257274 0.0002594 -5.74011e-05
-0.000870425 0.000259612 0.000261777 -5.74016e-05
-0.00144388 0.000432276 0.000433545 -3.44275e-05
-0.00114996 0.000343768 0.000345513 -4.73468e-05
-0.000866483 0.000258443 0.000260589 -5.74013e-05
-0.00116046 0.000346894 0.000348671 -4.73471e-05
-0.00115521 0.000345331 0.000347092 -4.73469e-05
-0.00143733 0.000430318 0.000431576 -3.44274e-05
-0.00142422 0.000426403 0.000427637 -3.44272e-05
-0.00085466 0.000254937 0.000257024 -5.74005e-05
-0.000862542 0.000257274 0.0002594 -5.74011e-05
-0.00143077 0.000428361 0.000429606 -3.44273e-05
-0.00113947 0.000340642 0.000342355 -4.73464e-05
-0.000858601 0.000256106 0.000258212 -5.74008e-05
-0.00114996 0.000343768 0.000345513 -4.73468e-05
-0.00114472 0.000342205 0.000343934 -4.73466e-05
-0.00142422 0.000426403 0.000427637 -3.44272e-05
-0.00141111 0.000422487 0.000423698 -3.4427e-05
-0.000846777 0.000252599 0.000254648 -5.74e-05
-0.00085466 0.000254937 0.000257024 -5.74005e-05
-0.00141767 0.000424445 0.000425667 -3.44271e-05
-0.00112897 0.000337515 0.000339197 -4.73461e-05
-0.000850718 0.000253768 0.000255836 -5.74003e-05
-0.00113947 0.000340642 0.000342355 -4.73464e-05
-0.00113422 0.000339079 0.000340776 -4.73462e-05
-0.00141111 0.000422487 0.000423698 -3.4427e-05
-0.00139801 0.000418571 0.000419759 -3.44268e-05
-0.000838896 0.000250262 0.000252272 -5.73995e-05
-0.000846777 0.000252599 0.000254648 -5.74e-05
-0.00140456 0.000420529 0.000421728 -3.44269e-05
-0.00111848 0.000334389 0.000336039 -4.73457e-05
-0.000842837 0.00025143 0.00025346 -5.73998e-05
-0.00112897 0.000337515 0.000339197 -4.73461e-05
-0.00112373 0.000335952 0.000337618 -4.73459e-05
-0.00139801 0.000418571 0.000419759 -3.44268e-05
-0.0013849 0.000414655 0.000415821 -3.44266e-05
-0.000831015 0.000247924 0.000249896 -5.7399e-05
-0.000838896 0.000250262 0.000252272 -5.73995e-05
-0.00139146 0.000416613 0.00041779 -3.44267e-05
-0.00110799 0.000331263 0.000332881 -4.73454e-05
-0.000834955 0.000249093 0.000251084 -5.73993e-05
-0.00111848 0.000334389 0.000336039 -4.73457e-05
-0.00111323 0.000332826 0.00033446 -4.73456e-05
-0.0013849 0.000414655 0.000415821 -3.44266e-05
-0.0013718 0.000410739 0.000411882 -3.44264e-05
-0.000823134 0.000245586 0.000247521 -5.73985e-05
-0.000831015 0.000247924 0.000249896 -5.7399e-05
-0.00137835 0.000412697 0.000413851 -3.44265e-05
-0.00109749 0.000328136 0.000329724 -4.7345e-05
-0.000827074 0.000246755 0.000248708 -5.73987e-05
-0.00110799 0.000331263 0.000332881 -4.73454e-05
-0.00110274 0.0003297 0.000331303 -4.73452e-05
-0.0013718 0.000410739 0.000411882 -3.44264e-05
-0.00135869 0.000406823 0.000407944 -3.44263e-05
-0.000815253 0.000243248 0.000245145 -5.7398e-05
-0.000823134 0.000245586 0.000247521 -5.73985e-05
-0.00136525 0.000408781 0.000409913 -3.44263e-05
-0.001087 0.00032501 0.000326567 -4.73447e-05
-0.000819194 0.000244417 0.000246333 -5.73982e-05
-0.00109749 0.000328136 0.000329724 -4.7345e-05
-0.00109225 0.000326573 0.000328146 -4.73449e-05
-0.00135869 0.000406823 0.000407944 -3.44263e-05
-0.00134559 0.000402908 0.000404006 -3.44261e-05
-0.000807373 0.000240909 0.00024277 -5.73975e-05
-0.000815253 0.000243248 0.000245145 -5.7398e-05
-0.00135214 0.000404866 0.000405975 -3.44262e-05
-0.00107651 0.000321883 0.00032341 -4.73444e-05
-0.000811313 0.000242078 0.000243958 -5.73977e-05
-0.001087 0.00032501 0.000326567 -4.73447e-05
-0.00108175 0.000323447 0.000324989 -4.73445e-05
-0.00134559 0.000402908 0.000404006 -3.44261e-05
-0.00133249 0.000398992 0.000400069 -3.44259e-05
-0.000799494 0.000238571 0.000240396 -5.7397e-05
-0.000807373 0.000240909 0.00024277 -5.73975e-05
-0.00133904 0.00040095 0.000402037 -3.4426e-05
-0.00106601 0.000318757 0.000320253 -4.7344e-05
-0.000803434 0.00023974 0.000241583 -5.73972e-05
-0.00107651 0.000321883 0.00032341 -4.73444e-05
-0.00107126 0.00032032 0.000321832 -4.73442e-05
-0.00133249 0.000398992 0.000400069 -3.44259e-05
-0.00131938 0.000395076 0.000396131 -3.44257e-05
-0.000791615 0.000236233 0.000238021 -5.73965e-05
-0.000799494 0.000238571 0.000240396 -5.7397e-05
-0.00132593 0.000397034 0.0003981 -3.44258e-05
-0.00105552 0.00031563 0.000317097 -4.73437e-05
-0.000795554 0.000237402 0.000239208 -5.73967e-05
-0.00106601 0.000318757 0.000320253 -4.7344e-05
-0.00106077 0.000317193 0.000318675 -4.73439e-05
-0.00131938 0.000395076 0.000396131 -3.44257e-05
-0.00130628 0.00039116 0.000392194 -3.44255e-05
-0.000783736 0.000233894 0.000235647 -5.73959e-05
-0.000791615 0.000236233 0.000238021 -5.73965e-05
-0.00131283 0.000393118 0.000394162 -3.44256e-05
-0.00104503 0.000312503 0.000313941 -4.73434e-05
-0.000787675 0.000235063 0.000236834 -5.73962e-05
-0.00105552 0.00031563 0.000317097 -4.73437e-05
-0.00105028 0.000314067 0.000315519 -4.73435e-05
-0.00130628 0.00039116 0.000392194 -3.44255e-05
-0.00129318 0.000387244 0.000388257 -3.44253e-05
-0.000775858 0.000231555 0.000233273 -5.73954e-05
-0.000783736 0.000233894 0.000235647 -5.73959e-05
-0.00129973 0.000389202 0.000390225 -3.44254e-05
-0.00103454 0.000309376 0.000310785 -4.7343e-05
-0.000779797 0.000232725 0.00023446 -5.73957e-05
-0.00104503 0.000312503 0.000313941 -4.73434e-05
-0.00103979 0.00031094 0.000312363 -4.73432e-05
-0.00129318 0.000387244 0.000388257 -3.44253e-05
-0.00128007 0.000383328 0.00038432 -3.44252e-05
-0.00076798 0.000229216 0.000230899 -5.7395e-05
-0.000775858 0.000231555 0.000233273 -5.73954e-05
-0.00128662 0.000385286 0.000386288 -3.44253e-05
-0.00102405 0.000306249 0.000307629 -4.73427e-05
-0.000771919 0.000230386 0.000232086 -5.73952e-05
-0.00103454 0.000309376 0.000310785 -4.7343e-05
-0.0010293 0.000307813 0.000309207 -4.73429e-05
-0.00128007 0.000383328 0.00038432 -3.44252e-05
-0.00126697 0.000379411 0.000380383 -3.4425e-05
-0.000760102 0.000226877 0.000228525 -5.73945e-05
-0.00076798 0.000229216 0.000230899 -5.7395e-05
-0.00127352 0.00038137 0.000382351 -3.44251e-05
-0.00101356 0.000303122 0.000304473 -4.73424e-05
-0.000764041 0.000228047 0.000229712 -5.73947e-05
-0.00102405 0.000306249 0.000307629 -4.73427e-05
-0.0010188 0.000304686 0.000306051 -4.73426e-05
-0.00126697 0.000379411 0.000380383 -3.4425e-05
-0.00125387 0.000375495 0.000376446 -3.44248e-05
-0.000752225 0.000224538 0.000226152 -5.7394e-05
-0.000760102 0.000226877 0.000228525 -5.73945e-05
-0.00126042 0.000377453 0.000378415 -3.44249e-05
-0.00100307 0.000299995 0.000301318 -4.73421e-05
-0.000756164 0.000225708 0.000227338 -5.73942e-05
-0.00101356 0.000303122 0.000304473 -4.73424e-05
-0.00100831 0.000301559 0.000302896 -4.73422e-05
-0.00125387 0.000375495 0.000376446 -3.44248e-05
-0.00124077 0.000371579 0.00037251 -3.44246e-05
-0.000744349 0.000222199 0.000223778 -5.73935e-05
-0.000752225 0.000224538 0.000226152 -5.7394e-05
-0.00124732 0.000373537 0.000374478 -3.44247e-05
-0.000992581 0.000296868 0.000298163 -4.73417e-05
-0.000748287 0.000223369 0.000224965 -5.73937e-05
-0.00100307 0.000299995 0.000301318 -4.73421e-05
-0.000997825 0.000298431 0.00029974 -4.73419e-05
-0.00124077 0.000371579 0.00037251 -3.44246e-05
-0.00122767 0.000367663 0.000368574 -3.44245e-05
-0.000736472 0.00021986 0.000221406 -5.7393e-05
-0.000744349 0.000222199 0.000223778 -5.73935e-05
-0.00123422 0.000369621 0.000370542 -3.44246e-05
-0.000982092 0.00029374 0.000295008 -4.73414e-05
-0.000740411 0.000221029 0.000222592 -5.73932e-05
-0.000992581 0.000296868 0.000298163 -4.73417e-05
-0.000987336 0.000295304 0.000296585 -4.73416e-05
-0.00122767 0.000367663 0.000368574 -3.44245e-05
-0.00121457 0.000363747 0.000364638 -3.44243e-05
-0.000728597 0.00021752 0.000219033 -5.73925e-05
-0.000736472 0.00021986 0.000221406 -5.7393e-05
-0.00122112 0.000365705 0.000366606 -3.44244e-05
-0.000971603 0.000290613 0.000291853 -4.73411e-05
-0.000732534 0.00021869 0.000220219 -5.73927e-05
-0.000982092 0.00029374 0.000295008 -4.73414e-05
-0.000976847 0.000292177 0.00029343 -4.73413e-05
-0.00121457 0.000363747 0.000364638 -3.44243e-05
-0.00120147 0.000359831 0.000360702 -3.44241e-05
-0.000720721 0.00021518 0.00021666 -5.7392e-05
-0.000728597 0.00021752 0.000219033 -5.73925e-05
-0.00120802 0.000361789 0.00036267 -3.44242e-05
-0.000961115 0.000287486 0.000288698 -4.73408e-05
-0.000724659 0.00021635 0.000217847 -5.73923e-05
-0.000971603 0.000290613 0.000291853 -4.73411e-05
-0.000966359 0.000289049 0.000290276 -4.7341e-05
-0.00120147 0.000359831 0.000360702 -3.44241e-05
-0.00118837 0.000355914 0.000356766 -3.4424e-05
-0.000712846 0.000212841 0.000214288 -5.73916e-05
-0.000720721 0.00021518 0.00021666 -5.7392e-05
-0.00119492 0.000357873 0.000358734 -3.44241e-05
-0.000950627 0.000284358 0.000285544 -4.73405e-05
-0.000716784 0.000214011 0.000215474 -5.73918e-05
-0.000961115 0.000287486 0.000288698 -4.73408e-05
-0.000955871 0.000285922 0.000287121 -4.73407e-05
-0.00118837 0.000355914 0.000356766 -3.4424e-05
-0.00117527 0.000351998 0.000352831 -3.44238e-05
-0.000704972 0.000210501 0.000211916 -5.73911e-05
-0.000712846 0.000212841 0.000214288 -5.73916e-05
-0.00118182 0.000353956 0.000354798 -3.44239e-05
-0.00094014 0.00028123 0.00028239 -4.73402e-05
-0.000708909 0.000211671 0.000213102 -5.73913e-05
-0.000950627 0.000284358 0.000285544 -4.73405e-05
-0.000945384 0.000282794 0.000283967 -4.73403e-05
-0.00117527 0.000351998 0.000352831 -3.44238e-05
-0.00116217 0.000348082 0.000348895 -3.44237e-05
-0.000697097 0.000208161 0.000209544 -5.73906e-05
-0.000704972 0.000210501 0.000211916 -5.73911e-05
-0.00116872 0.00035004 0.000350863 -3.44237e-05
-0.000929653 0.000278103 0.000279236 -4.73399e-05
-0.000701034 0.000209331 0.00021073 -5.73909e-05
-0.00094014 0.00028123 0.00028239 -4.73402e-05
-0.000934897 0.000279667 0.000280813 -4.734e-05
-0.00116217 0.000348082 0.000348895 -3.44237e-05
-0.00114907 0.000344166 0.00034496 -3.44235e-05
-0.000689224 0.000205821 0.000207173 -5.73902e-05
-0.000697097 0.000208161 0.000209544 -5.73906e-05
-0.00115562 0.000346124 0.000346928 -3.44236e-05
-0.000919167 0.000274975 0.000276082 -4.73396e-05
-0.00069316 0.000206991 0.000208358 -5.73904e-05
-0.000929653 0.000278103 0.000279236 -4.73399e-05
-0.00092441 0.000276539 0.000277659 -4.73397e-05
-0.00114907 0.000344166 0.00034496 -3.44235e-05
-0.00113597 0.000340249 0.000341025 -3.44233e-05
-0.00068135 0.000203481 0.000204801 -5.73897e-05
-0.000689224 0.000205821 0.000207173 -5.73902e-05
-0.00114252 0.000342207 0.000342993 -3.44234e-05
-0.000908681 0.000271847 0.000272929 -4.73393e-05
-0.000685287 0.000204651 0.000205987 -5.73899e-05
-0.000919167 0.000274975 0.000276082 -4.73396e-05
-0.000913924 0.000273411 0.000274506 -4.73394e-05
-0.00113597 0.000340249 0.000341025 -3.44233e-05
-0.00112288 0.000336333 0.000337091 -3.44232e-05
-0.000673477 0.00020114 0.00020243 -5.73892e-05
-0.00068135 0.000203481 0.000204801 -5.73897e-05
-0.00112943 0.000338291 0.000339058 -3.44233e-05
-0.000898195 0.000268719 0.000269776 -4.7339e-05
-0.000677414 0.00020231 0.000203616 -5.73895e-05
-0.000908681 0.000271847 0.000272929 -4.73393e-05
-0.000903438 0.000270283 0.000271352 -4.73392e-05
-0.00112288 0.000336333 0.000337091 -3.44232e-05
-0.00110978 0.000332416 0.000333156 -3.4423e-05
-0.000665605 0.0001988 0.000200059 -5.73888e-05
-0.000673477 0.00020114 0.00020243 -5.73892e-05
-0.00111633 0.000334375 0.000335123 -3.44231e-05
-0.00088771 0.000265591 0.000266623 -4.73387e-05
-0.000669541 0.00019997 0.000201245 -5.7389e-05
-0.000898195 0.000268719 0.000269776 -4.7339e-05
-0.000892953 0.000267155 0.000268199 -4.73389e-05
-0.00110978 0.000332416 0.000333156 -3.4423e-05
-0.00109668 0.0003285 0.000329222 -3.44229e-05
-0.000657733 0.000196459 0.000197689 -5.73884e-05
-0.000665605 0.0001988 0.000200059 -5.73888e-05
-0.00110323 0.000330458 0.000331189 -3.4423e-05
-0.000877225 0.000262463 0.00026347 -4.73384e-05
-0.000661669 0.000197629 0.000198874 -5.73886e-05
-0.00088771 0.000265591 0.000266623 -4.73387e-05
-0.000882468 0.000264027 0.000265046 -4.73386e-05
-0.00109668 0.0003285 0.000329222 -3.44229e-05
-0.00108359 0.000324583 0.000325287 -3.44228e-05
-0.000649861 0.000194118 0.000195318 -5.73879e-05
-0.000657733 0.000196459 0.000197689 -5.73884e-05
-0.00109014 0.000326542 0.000327255 -3.44228e-05
-0.000866741 0.000259335 0.000260317 -4.73382e-05
-0.000653797 0.000195289 0.000196503 -5.73881e-05
-0.000877225 0.000262463 0.00026347 -4.73384e-05
-0.000871983 0.000260899 0.000261893 -4.73383e-05
-0.00108359 0.000324583 0.000325287 -3.44228e-05
-0.00107049 0.000320667 0.000321353 -3.44226e-05
-0.00064199 0.000191777 0.000192948 -5.73875e-05
-0.000649861 0.000194118 0.000195318 -5.73879e-05
-0.00107704 0.000322625 0.00032332 -3.44227e-05
-0.000856257 0.000256206 0.000257165 -4.73379e-05
-0.000645925 0.000192948 0.000194133 -5.73877e-05
-0.000866741 0.000259335 0.000260317 -4.73382e-05
-0.000861499 0.00025777 0.000258741 -4.7338e-05
-0.00107049 0.000320667 0.000321353 -3.44226e-05
-0.0010574 0.00031675 0.00031742 -3.44225e-05
-0.000634119 0.000189436 0.000190578 -5.73871e-05
-0.00064199 0.000191777 0.000192948 -5.73875e-05
-0.00106394 0.000318709 0.000319387 -3.44225e-05
-0.000845773 0.000253078 0.000254012 -4.73376e-05
-0.000638054 0.000190607 0.000191763 -5.73873e-05
-0.000856257 0.000256206 0.000257165 -4.73379e-05
-0.000851015 0.000254642 0.000255588 -4.73377e-05
-0.0010574 0.00031675 0.00031742 -3.44225e-05
-0.0010443 0.000312834 0.000313486 -3.44223e-05
-0.000626248 0.000187095 0.000188208 -5.73866e-05
-0.000634119 0.000189436 0.000190578 -5.73871e-05
-0.00105085 0.000314792 0.000315453 -3.44224e-05
-0.00083529 0.000249949 0.00025086 -4.73373e-05
-0.000630183 0.000188266 0.000189393 -5.73868e-05
-0.000845773 0.000253078 0.000254012 -4.73376e-05
-0.000840532 0.000251514 0.000252436 -4.73375e-05
-0.0010443 0.000312834 0.000313486 -3.44223e-05
-0.00103121 0.000308917 0.000309553 -3.44222e-05
-0.000618378 0.000184754 0.000185839 -5.73862e-05
-0.000626248 0.000187095 0.000188208 -5.73866e-05
-0.00103775 0.000310876 0.000311519 -3.44223e-05
-0.000824807 0.000246821 0.000247709 -4.73371e-05
-0.000622313 0.000185925 0.000187024 -5.73864e-05
-0.00083529 0.000249949 0.00025086 -4.73373e-05
-0.000830049 0.000248385 0.000249284 -4.73372e-05
-0.00103121 0.000308917 0.000309553 -3.44222e-05
-0.00101811 0.000305001 0.000305619 -3.44221e-05
-0.000610508 0.000182413 0.00018347 -5.73858e-05
-0.000618378 0.000184754 0.000185839 -5.73862e-05
-0.00102466 0.000306959 0.000307586 -3.44222e-05
-0.000814325 0.000243692 0.000244557 -4.73368e-05
-0.000614443 0.000183583 0.000184654 -5.7386e-05
-0.000824807 0.000246821 0.000247709 -4.73371e-05
-0.000819566 0.000245257 0.000246133 -4.7337e-05
-0.00101811 0.000305001 0.000305619 -3.44221e-05
-0.00100502 0.000301084 0.000301686 -3.4422e-05
-0.000602639 0.000180071 0.000181101 -5.73854e-05
-0.000610508 0.000182413 0.00018347 -5.73858e-05
-0.00101157 0.000303042 0.000303653 -3.4422e-05
-0.000803843 0.000240563 0.000241406 -4.73366e-05
-0.000606574 0.000181242 0.000182285 -5.73856e-05
-0.000814325 0.000243692 0.000244557 -4.73368e-05
-0.000809084 0.000242128 0.000242981 -4.73367e-05
-0.00100502 0.000301084 0.000301686 -3.4422e-05
-0.000991925 0.000297167 0.000297753 -3.44218e-05
-0.00059477 0.000177729 0.000178732 -5.7385e-05
-0.000602639 0.000180071 0.000181101 -5.73854e-05
-0.000998472 0.000299126 0.00029972 -3.44219e-05
-0.000793362 0.000237435 0.000238254 -4.73363e-05
-0.000598704 0.0001789 0.000179916 -5.73852e-05
-0.000803843 0.000240563 0.000241406 -4.73366e-05
-0.000798602 0.000238999 0.00023983 -4.73365e-05
-0.000991925 0.000297167 0.000297753 -3.44218e-05
-0.000978832 0.000293251 0.000293821 -3.44217e-05
-0.000586902 0.000175388 0.000176363 -5.73846e-05
-0.00059477 0.000177729 0.000178732 -5.7385e-05
-0.000985378 0.000295209 0.000295787 -3.44218e-05
-0.00078288 0.000234306 0.000235103 -4.73361e-05
-0.000590836 0.000176558 0.000177547 -5.73848e-05
-0.000793362 0.000237435 0.000238254 -4.73363e-05
-0.000788121 0.00023587 0.000236679 -4.73362e-05
-0.000978832 0.000293251 0.000293821 -3.44217e-05
-0.000965739 0.000289334 0.000289888 -3.44216e-05
-0.000579033 0.000173046 0.000173995 -5.73842e-05
-0.000586902 0.000175388 0.000176363 -5.73846e-05
-0.000972285 0.000291292 0.000291854 -3.44217e-05
-0.0007724 0.000231177 0.000231953 -4.73358e-05
-0.000582967 0.000174217 0.000175179 -5.73844e-05
-0.00078288 0.000234306 0.000235103 -4.73361e-05
-0.00077764 0.000232741 0.000233528 -4.7336e-05
-0.000965739 0.000289334 0.000289888 -3.44216e-05
-0.000952647 0.000285417 0.000285956 -3.44215e-05
-0.000571166 0.000170704 0.000171627 -5.73838e-05
-0.000579033 0.000173046 0.000173995 -5.73842e-05
-0.000959193 0.000287375 0.000287922 -3.44216e-05
-0.000761919 0.000228048 0.000228802 -4.73356e-05
-0.0005751 0.000171875 0.000172811 -5.7384e-05
-0.0007724 0.000231177 0.000231953 -4.73358e-05
-0.000767159 0.000229612 0.000230377 -4.73357e-05
-0.000952647 0.000285417 0.000285956 -3.44215e-05
-0.000939555 0.0002815 0.000282023 -3.44214e-05
-0.000563298 0.000168361 0.000169259 -5.73835e-05
-0.000571166 0.000170704 0.000171627 -5.73838e-05
-0.000946101 0.000283459 0.000283989 -3.44215e-05
-0.000751439 0.000224919 0.000225652 -4.73354e-05
-0.000567232 0.000169533 0.000170443 -5.73836e-05
-0.000761919 0.000228048 0.000228802 -4.73356e-05
-0.000756679 0.000226483 0.000227227 -4.73355e-05
-0.000939555 0.0002815 0.000282023 -3.44214e-05
-0.000926463 0.000277583 0.000278091 -3.44213e-05
-0.000555431 0.000166019 0.000166891 -5.73831e-05
-0.000563298 0.000168361 0.000169259 -5.73835e-05
-0.000933009 0.000279542 0.000280057 -3.44214e-05
-0.00074096 0.000221789 0.000222502 -4.73352e-05
-0.000559365 0.00016719 0.000168075 -5.73833e-05
-0.000751439 0.000224919 0.000225652 -4.73354e-05
-0.000746199 0.000223354 0.000224077 -4.73353e-05
-0.000926463 0.000277583 0.000278091 -3.44213e-05
-0.000913372 0.000273666 0.00027416 -3.44212e-05
-0.000547565 0.000163677 0.000164524 -5.73827e-05
-0.000555431 0.000166019 0.000166891 -5.73831e-05
-0.000919918 0.000275625 0.000276125 -3.44213e-05
-0.00073048 0.00021866 0.000219352 -4.7335e-05
-0.000551498 0.000164848 0.000165707 -5.73829e-05
-0.00074096 0.000221789 0.000222502 -4.73352e-05
-0.00073572 0.000220225 0.000220927 -4.73351e-05
-0.000913372 0.000273666 0.00027416 -3.44212e-05
-0.000900281 0.000269749 0.000270228 -3.44211e-05
-0.000539699 0.000161334 0.000162156 -5.73824e-05
-0.000547565 0.000163677 0.000164524 -5.73827e-05
-0.000906827 0.000271708 0.000272194 -3.44212e-05
-0.000720002 0.000215531 0.000216202 -4.73347e-05
-0.000543632 0.000162505 0.00016334 -5.73825e-05
-0.00073048 0.00021866 0.000219352 -4.7335e-05
-0.000725241 0.000217095 0.000217777 -4.73348e-05
-0.000900281 0.000269749 0.000270228 -3.44211e-05
-0.000887191 0.000265832 0.000266296 -3.4421e-05
-0.000531833 0.000158991 0.000159789 -5.7382e-05
-0.000539699 0.000161334 0.000162156 -5.73824e-05
-0.000893736 0.000267791 0.000268262 -3.44211e-05
-0.000709523 0.000212401 0.000213052 -4.73345e-05
-0.000535766 0.000160163 0.000160973 -5.73822e-05
-0.000720002 0.000215531 0.000216202 -4.73347e-05
-0.000714762 0.000213966 0.000214627 -4.73346e-05
-0.000887191 0.000265832 0.000266296 -3.4421e-05
-0.000874101 0.000261915 0.000262365 -3.44209e-05
-0.000523968 0.000156649 0.000157422 -5.73817e-05
-0.000531833 0.000158991 0.000159789 -5.7382e-05
-0.000880646 0.000263874 0.000264331 -3.4421e-05
-0.000699045 0.000209271 0.000209903 -4.73343e-05
-0.0005279 0.00015782 0.000158606 -5.73818e-05
-0.000709523 0.000212401 0.000213052 -4.73345e-05
-0.000704284 0.000210836 0.000211478 -4.73344e-05
-0.000874101 0.000261915 0.000262365 -3.44209e-05
-0.000861011 0.000257998 0.000258434 -3.44209e-05
-0.000516103 0.000154306 0.000155056 -5.73813e-05
-0.000523968 0.000156649 0.000157422 -5.73817e-05
-0.000867556 0.000259957 0.0002604 -3.44209e-05
-0.000688568 0.000206142 0.000206754 -4.73341e-05
-0.000520035 0.000155477 0.000156239 -5.73815e-05
-0.000699045 0.000209271 0.000209903 -4.73343e-05
-0.000693806 0.000207707 0.000208328 -4.73342e-05
-0.000861011 0.000257998 0.000258434 -3.44209e-05
-0.000847922 0.000254081 0.000254503 -3.44208e-05
-0.000508238 0.000151963 0.00015269 -5.7381e-05
-0.000516103 0.000154306 0.000155056 -5.73813e-05
-0.000854466 0.00025604 0.000256469 -3.44208e-05
-0.00067809 0.000203012 0.000203605 -4.7334e-05
-0.00051217 0.000153134 0.000153873 -5.73812e-05
-0.000688568 0.000206142 0.000206754 -4.73341e-05
-0.000683329 0.000204577 0.000205179 -4.7334e-05
-0.000847922 0.000254081 0.000254503 -3.44208e-05
-0.000834833 0.000250164 0.000250572 -3.44207e-05
-0.000500374 0.000149619 0.000150323 -5.73807e-05
-0.000508238 0.000151963 0.00015269 -5.7381e-05
-0.000841377 0.000252123 0.000252538 -3.44207e-05
-0.000667613 0.000199882 0.000200456 -4.73338e-05
-0.000504306 0.000150791 0.000151506 -5.73809e-05
-0.00067809 0.000203012 0.000203605 -4.7334e-05
-0.000672852 0.000201447 0.000202031 -4.73339e-05
-0.000834833 0.000250164 0.000250572 -3.44207e-05
-0.000821744 0.000246247 0.000246642 -3.44206e-05
-0.00049251 0.000147276 0.000147958 -5.73804e-05
-0.000500374 0.000149619 0.000150323 -5.73807e-05
-0.000828289 0.000248206 0.000248607 -3.44207e-05
-0.000657137 0.000196752 0.000197308 -4.73336e-05
-0.000496442 0.000148448 0.00014914 -5.73805e-05
-0.000667613 0.000199882 0.000200456 -4.73338e-05
-0.000662375 0.000198317 0.000198882 -4.73337e-05
-0.000821744 0.000246247 0.000246642 -3.44206e-05
-0.000808656 0.00024233 0.000242711 -3.44206e-05
-0.000484647 0.000144932 0.000145592 -5.73801e-05
-0.00049251 0.000147276 0.000147958 -5.73804e-05
-0.0008152 0.000244288 0.000244676 -3.44206e-05
-0.000646661 0.000193622 0.000194159 -4.73334e-05
-0.000488579 0.000146104 0.000146775 -5.73802e-05
-0.000657137 0.000196752 0.000197308 -4.73336e-05
-0.000651899 0.000195187 0.000195734 -4.73335e-05
-0.000808656 0.00024233 0.000242711 -3.44206e-05
-0.000795568 0.000238413 0.000238781 -3.44205e-05
-0.000476784 0.000142589 0.000143226 -5.73798e-05
-0.000484647 0.000144932 0.000145592 -5.73801e-05
-0.000802112 0.000240371 0.000240746 -3.44206e-05
-0.000636185 0.000190492 0.000191011 -4.73333e-05
-0.000480715 0.000143761 0.000144409 -5.73799e-05
-0.000646661 0.000193622 0.000194159 -4.73334e-05
-0.000641423 0.000192057 0.000192585 -4.73333e-05
-0.000795568 0.000238413 0.000238781 -3.44205e-05
-0.000782481 0.000234495 0.000234851 -3.44205e-05
-0.000468921 0.000140245 0.000140861 -5.73795e-05
-0.000476784 0.000142589 0.000143226 -5.73798e-05
-0.000789024 0.000236454 0.000236816 -3.44205e-05
-0.00062571 0.000187362 0.000187863 -4.73331e-05
-0.000472852 0.000141417 0.000142044 -5.73796e-05
-0.000636185 0.000190492 0.000191011 -4.73333e-05
-0.000630947 0.000188927 0.000189437 -4.73332e-05
-0.000782481 0.000234495 0.000234851 -3.44205e-05
-0.000769394 0.000230578 0.000230921 -3.44204e-05
-0.000461059 0.000137901 0.000138496 -5.73792e-05
-0.000468921 0.000140245 0.000140861 -5.73795e-05
-0.000775937 0.000232537 0.000232886 -3.44204e-05
-0.000615235 0.000184231 0.000184716 -4.7333e-05
-0.00046499 0.000139073 0.000139679 -5.73793e-05
-0.00062571 0.000187362 0.000187863 -4.73331e-05
-0.000620472 0.000185797 0.00018629 -4.7333e-05
-0.000769394 0.000230578 0.000230921 -3.44204e-05
-0.000756307 0.000226661 0.000226991 -3.44204e-05
-0.000453197 0.000135557 0.000136131 -5.73789e-05
-0.000461059 0.000137901 0.000138496 -5.73792e-05
-0.00076285 0.000228619 0.000228956 -3.44204e-05
-0.00060476 0.000181101 0.000181568 -4.73328e-05
-0.000457128 0.000136729 0.000137314 -5.73791e-05
-0.000615235 0.000184231 0.000184716 -4.7333e-05
-0.000609998 0.000182666 0.000183142 -4.73329e-05
-0.000756307 0.000226661 0.000226991 -3.44204e-05
-0.000743221 0.000222743 0.000223062 -3.44203e-05
-0.000445336 0.000133213 0.000133767 -5.73787e-05
-0.000453197 0.000135557 0.000136131 -5.73789e-05
-0.000749764 0.000224702 0.000225026 -3.44204e-05
-0.000594286 0.00017797 0.000178421 -4.73327e-05
-0.000449266 0.000134385 0.000134949 -5.73788e-05
-0.00060476 0.000181101 0.000181568 -4.73328e-05
-0.000599523 0.000179536 0.000179995 -4.73327e-05
-0.000743221 0.000222743 0.000223062 -3.44203e-05
-0.000730134 0.000218826 0.000219132 -3.44203e-05
-0.000437475 0.000130869 0.000131403 -5.73784e-05
-0.000445336 0.000133213 0.000133767 -5.73787e-05
-0.000736677 0.000220784 0.000221097 -3.44203e-05
-0.000583812 0.00017484 0.000175274 -4.73325e-05
-0.000441405 0.000132041 0.000132585 -5.73785e-05
-0.000594286 0.00017797 0.000178421 -4.73327e-05
-0.000589049 0.000176405 0.000176847 -4.73326e-05
-0.000730134 0.000218826 0.000219132 -3.44203e-05
-0.000717049 0.000214908 0.000215203 -3.44203e-05
-0.000429614 0.000128524 0.000129038 -5.73781e-05
-0.000437475 0.000130869 0.000131403 -5.73784e-05
-0.000723592 0.000216867 0.000217168 -3.44203e-05
-0.000573339 0.000171709 0.000172127 -4.73324e-05
-0.000433544 0.000129696 0.00013022 -5.73783e-05
-0.000583812 0.00017484 0.000175274 -4.73325e-05
-0.000578575 0.000173274 0.0001737 -4.73325e-05
-0.000717049 0.000214908 0.000215203 -3.44203e-05
-0.000703963 0.000210991 0.000211274 -3.44202e-05
-0.000421754 0.00012618 0.000126675 -5.73779e-05
-0.000429614 0.000128524 0.000129038 -5.73781e-05
-0.000710506 0.000212949 0.000213239 -3.44203e-05
-0.000562866 0.000168578 0.00016898 -4.73323e-05
-0.000425684 0.000127352 0.000127856 -5.7378e-05
-0.000573339 0.000171709 0.000172127 -4.73324e-05
-0.000568102 0.000170144 0.000170554 -4.73324e-05
-0.000703963 0.000210991 0.000211274 -3.44202e-05
-0.000690878 0.000207073 0.000207345 -3.44202e-05
-0.000413894 0.000123835 0.000124311 -5.73777e-05
-0.000421754 0.00012618 0.000126675 -5.73779e-05
-0.000697421 0.000209032 0.00020931 -3.44202e-05
-0.000552393 0.000165447 0.000165834 -4.73322e-05
-0.000417824 0.000125007 0.000125493 -5.73778e-05
-0.000562866 0.000168578 0.00016898 -4.73323e-05
-0.000557629 0.000167013 0.000167407 -4.73322e-05
-0.000690878 0.000207073 0.000207345 -3.44202e-05
-0.000677794 0.000203155 0.000203416 -3.44202e-05
-0.000406034 0.00012149 0.000121947 -5.73774e-05
-0.000413894 0.000123835 0.000124311 -5.73777e-05
-0.000684336 0.000205114 0.000205381 -3.44202e-05
-0.000541921 0.000162316 0.000162688 -4.73321e-05
-0.000409964 0.000122663 0.000123129 -5.73776e-05
-0.000552393 0.000165447 0.000165834 -4.73322e-05
-0.000547157 0.000163882 0.000164261 -4.73321e-05
-0.000677794 0.000203155 0.000203416 -3.44202e-05
-0.00066471 0.000199238 0.000199488 -3.44202e-05
-0.000398175 0.000119145 0.000119584 -5.73772e-05
-0.000406034 0.00012149 0.000121947 -5.73774e-05
-0.000671252 0.000201197 0.000201452 -3.44202e-05
-0.000531449 0.000159185 0.000159541 -4.7332e-05
-0.000402104 0.000120318 0.000120766 -5.73773e-05
-0.000541921 0.000162316 0.000162688 -4.73321e-05
-0.000536685 0.000160751 0.000161114 -4.7332e-05
-0.00066471 0.000199238 0.000199488 -3.44202e-05
-0.000651626 0.00019532 0.00019556 -3.44202e-05
-0.000390316 0.0001168 0.000117221 -5.7377e-05
-0.000398175 0.000119145 0.000119584 -5.73772e-05
-0.000658168 0.000197279 0.000197524 -3.44202e-05
-0.000520977 0.000156054 0.000156396 -4.73319e-05
-0.000394245 0.000117973 0.000118403 -5.73771e-05
-0.000531449 0.000159185 0.000159541 -4.7332e-05
-0.000526213 0.00015762 0.000157968 -4.73319e-05
-0.000651626 0.00019532 0.00019556 -3.44202e-05
-0.000638542 0.000191402 0.000191631 -3.44202e-05
-0.000382458 0.000114455 0.000114858 -5.73768e-05
-0.000390316 0.0001168 0.000117221 -5.7377e-05
-0.000645084 0.000193361 0.000193595 -3.44202e-05
-0.000510506 0.000152923 0.00015325 -4.73318e-05
-0.000386387 0.000115627 0.00011604 -5.73769e-05
-0.000520977 0.000156054 0.000156396 -4.73319e-05
-0.000515741 0.000154489 0.000154823 -4.73319e-05
-0.000638542 0.000191402 0.000191631 -3.44202e-05
-0.000625459 0.000187484 0.000187703 -3.44202e-05
-0.000374599 0.000112109 0.000112496 -5.73766e-05
-0.000382458 0.000114455 0.000114858 -5.73768e-05
-0.000632 0.000189443 0.000189667 -3.44202e-05
-0.000500035 0.000149791 0.000150104 -4.73317e-05
-0.000378528 0.000113282 0.000113677 -5.73767e-05
-0.000510506 0.000152923 0.00015325 -4.73318e-05
-0.00050527 0.000151357 0.000151677 -4.73318e-05
-0.000625459 0.000187484 0.000187703 -3.44202e-05
-0.000612376 0.000183567 0.000183775 -3.44202e-05
-0.000366742 0.000109764 0.000110133 -5.73765e-05
-0.000374599 0.000112109 0.000112496 -5.73766e-05
-0.000618917 0.000185525 0.000185739 -3.44202e-05
-0.000489564 0.00014666 0.000146959 -4.73317e-05
-0.000370671 0.000110937 0.000111315 -5.73765e-05
-0.000500035 0.000149791 0.000150104 -4.73317e-05
-0.0004948 0.000148226 0.000148532 -4.73317e-05
-0.000612376 0.000183567 0.000183775 -3.44202e-05
-0.000599293 0.000179649 0.000179848 -3.44202e-05
-0.000358884 0.000107418 0.000107771 -5.73763e-05
-0.000366742 0.000109764 0.000110133 -5.73765e-05
-0.000605835 0.000181608 0.000181812 -3.44202e-05
-0.000479094 0.000143528 0.000143814 -4.73316e-05
-0.000362813 0.000108591 0.000108952 -5.73764e-05
-0.000489564 0.00014666 0.000146959 -4.73317e-05
-0.000484329 0.000145094 0.000145386 -4.73317e-05
-0.000599293 0.000179649 0.000179848 -3.44202e-05
-0.000586211 0.000175731 0.00017592 -3.44203e-05
-0.000351027 0.000105072 0.000105409 -5.73761e-05
-0.000358884 0.000107418 0.000107771 -5.73763e-05
-0.000592752 0.00017769 0.000177884 -3.44202e-05
-0.000468624 0.000140397 0.000140669 -4.73316e-05
-0.000354956 0.000106245 0.00010659 -5.73762e-05
-0.000479094 0.000143528 0.000143814 -4.73316e-05
-0.000473859 0.000141963 0.000142241 -4.73316e-05
-0.000586211 0.000175731 0.00017592 -3.44203e-05
-0.000573129 0.000171813 0.000171993 -3.44203e-05
-0.000343171 0.000102726 0.000103048 -5.7376e-05
-0.000351027 0.000105072 0.000105409 -5.73761e-05
-0.00057967 0.000173772 0.000173956 -3.44203e-05
-0.000458155 0.000137265 0.000137524 -4.73315e-05
-0.000347099 0.000103899 0.000104228 -5.7376e-05
-0.000468624 0.000140397 0.000140669 -4.73316e-05
-0.00046339 0.000138831 0.000139097 -4.73315e-05
-0.000573129 0.000171813 0.000171993 -3.44203e-05
-0.000560048 0.000167895 0.000168066 -3.44203e-05
-0.000335315 0.00010038 0.000100686 -5.73758e-05
-0.000343171 0.000102726 0.000103048 -5.7376e-05
-0.000566588 0.000169854 0.000170029 -3.44203e-05
-0.000447686 0.000134133 0.00013438 -4.73315e-05
-0.000339243 0.000101553 0.000101867 -5.73759e-05
-0.000458155 0.000137265 0.000137524 -4.73315e-05
-0.00045292 0.000135699 0.000135952 -4.73315e-05
-0.000560048 0.000167895 0.000168066 -3.44203e-05
-0.000546966 0.000163976 0.000164139 -3.44204e-05
-0.000327459 9.80341e-05 9.83248e-05 -5.73757e-05
-0.000335315 0.00010038 0.000100686 -5.73758e-05
-0.000553507 0.000165935 0.000166102 -3.44203e-05
-0.000437217 0.000131001 0.000131235 -4.73315e-05
-0.000331387 9.92072e-05 9.95054e-05 -5.73757e-05
-0.000447686 0.000134133 0.00013438 -4.73315e-05
-0.000442451 0.000132567 0.000132807 -4.73315e-05
-0.000546966 0.000163976 0.000164139 -3.44204e-05
-0.000533885 0.000160058 0.000160212 -3.44204e-05
-0.000319603 9.56877e-05 9.59638e-05 -5.73756e-05
-0.000327459 9.80341e-05 9.83248e-05 -5.73757e-05
-0.000540426 0.000162017 0.000162175 -3.44204e-05
-0.000426749 0.000127869 0.000128091 -4.73314e-05
-0.000323531 9.68609e-05 9.71443e-05 -5.73756e-05
-0.000437217 0.000131001 0.000131235 -4.73315e-05
-0.000431983 0.000129435 0.000129663 -4.73314e-05
-0.000533885 0.000160058 0.000160212 -3.44204e-05
-0.000520805 0.00015614 0.000156285 -3.44204e-05
-0.000311748 9.33412e-05 9.36029e-05 -5.73754e-05
-0.000319603 9.56877e-05 9.59638e-05 -5.73756e-05
-0.000527345 0.000158099 0.000158248 -3.44204e-05
-0.00041628 0.000124737 0.000124947 -4.73314e-05
-0.000315676 9.45145e-05 9.47833e-05 -5.73755e-05
-0.000426749 0.000127869 0.000128091 -4.73314e-05
-0.000421514 0.000126303 0.000126519 -4.73314e-05
-0.000520805 0.00015614 0.000156285 -3.44204e-05
-0.000507725 0.000152222 0.000152358 -3.44205e-05
-0.000303893 9.09946e-05 9.12423e-05 -5.73753e-05
-0.000311748 9.33412e-05 9.36029e-05 -5.73754e-05
-0.000514265 0.000154181 0.000154322 -3.44205e-05
-0.000405813 0.000121605 0.000121803 -4.73314e-05
-0.000307821 9.21679e-05 9.24226e-05 -5.73754e-05
-0.00041628 0.000124737 0.000124947 -4.73314e-05
-0.000411047 0.000123171 0.000123375 -4.73314e-05
-0.000507725 0.000152222 0.000152358 -3.44205e-05
-0.000494645 0.000148303 0.000148432 -3.44206e-05
-0.000296039 8.86478e-05 8.88819e-05 -5.73752e-05
-0.000303893 9.09946e-05 9.12423e-05 -5.73753e-05
-0.000501185 0.000150263 0.000150395 -3.44205e-05
-0.000395345 0.000118472 0.00011866 -4.73314e-05
-0.000299966 8.98212e-05 9.00621e-05 -5.73753e-05
-0.000405813 0.000121605 0.000121803 -4.73314e-05
-0.000400579 0.000120038 0.000120232 -4.73314e-05
-0.000494645 0.000148303 0.000148432 -3.44206e-05
-0.000481565 0.000144385 0.000144506 -3.44206e-05
-0.000288185 8.63008e-05 8.65217e-05 -5.73751e-05
-0.000296039 8.86478e-05 8.88819e-05 -5.73752e-05
-0.000488105 0.000146344 0.000146469 -3.44206e-05
-0.000384878 0.00011534 0.000115517 -4.73314e-05
-0.000292112 8.74743e-05 8.77017e-05 -5.73752e-05
-0.000395345 0.000118472 0.00011866 -4.73314e-05
-0.000390112 0.000116906 0.000117088 -4.73314e-05
-0.000481565 0.000144385 0.000144506 -3.44206e-05
-0.000468486 0.000140467 0.00014058 -3.44207e-05
-0.000280331 8.39538e-05 8.41617e-05 -5.73751e-05
-0.000288185 8.63008e-05 8.65217e-05 -5.73751e-05
-0.000475025 0.000142426 0.000142543 -3.44207e-05
-0.000374412 0.000112207 0.000112373 -4.73314e-05
-0.000284258 8.51273e-05 8.53417e-05 -5.73751e-05
-0.000384878 0.00011534 0.000115517 -4.73314e-05
-0.000379645 0.000113773 0.000113945 -4.73314e-05
-0.000468486 0.000140467 0.00014058 -3.44207e-05
-0.000455407 0.000136548 0.000136654 -3.44208e-05
-0.000272478 8.16065e-05 8.18019e-05 -5.7375e-05
-0.000280331 8.39538e-05 8.41617e-05 -5.73751e-05
-0.000461946 0.000138507 0.000138617 -3.44207e-05
-0.000363945 0.000109074 0.00010923 -4.73315e-05
-0.000276404 8.27802e-05 8.29818e-05 -5.7375e-05
-0.000374412 0.000112207 0.000112373 -4.73314e-05
-0.000369178 0.000110641 0.000110802 -4.73315e-05
-0.000455407 0.000136548 0.000136654 -3.44208e-05
-0.000442328 0.000132629 0.000132728 -3.44209e-05
-0.000264625 7.92592e-05 7.94424e-05 -5.73749e-05
-0.000272478 8.16065e-05 8.18019e-05 -5.7375e-05
-0.000448867 0.000134589 0.000134691 -3.44208e-05
-0.000353479 0.000105942 0.000106088 -4.73315e-05
-0.000268551 8.04329e-05 8.06221e-05 -5.7375e-05
-0.000363945 0.000109074 0.00010923 -4.73315e-05
-0.000358712 0.000107508 0.000107659 -4.73315e-05
-0.000442328 0.000132629 0.000132728 -3.44209e-05
-0.00042925 0.000128711 0.000128802 -3.4421e-05
-0.000256772 7.69117e-05 7.7083e-05 -5.73749e-05
-0.000264625 7.92592e-05 7.94424e-05 -5.73749e-05
-0.000435789 0.00013067 0.000130765 -3.44209e-05
-0.000343014 0.000102809 0.000102945 -4.73315e-05
-0.000260698 7.80854e-05 7.82627e-05 -5.73749e-05
-0.000353479 0.000105942 0.000106088 -4.73315e-05
-0.000348246 0.000104375 0.000104516 -4.73315e-05
-0.00042925 0.000128711 0.000128802 -3.4421e-05
-0.000416171 0.000124792 0.000124877 -3.4421e-05
-0.00024892 7.4564e-05 7.47239e-05 -5.73748e-05
-0.000256772 7.69117e-05 7.7083e-05 -5.73749e-05
-0.00042271 0.000126752 0.00012684 -3.4421e-05
-0.000332548 9.96757e-05 9.98025e-05 -4.73316e-05
-0.000252846 7.57378e-05 7.59034e-05 -5.73748e-05
-0.000343014 0.000102809 0.000102945 -4.73315e-05
-0.000337781 0.000101242 0.000101374 -4.73316e-05
-0.000416171 0.000124792 0.000124877 -3.4421e-05
-0.000403094 0.000120873 0.000120952 -3.44211e-05
-0.000241068 7.22162e-05 7.2365e-05 -5.73748e-05
-0.00024892 7.4564e-05 7.47239e-05 -5.73748e-05
-0.000409633 0.000122833 0.000122914 -3.44211e-05
-0.000322083 9.65426e-05 9.66603e-05 -4.73316e-05
-0.000244994 7.33901e-05 7.35444e-05 -5.73748e-05
-0.000332548 9.96757e-05 9.98025e-05 -4.73316e-05
-0.000327316 9.81092e-05 9.82314e-05 -4.73316e-05
-0.000403094 0.000120873 0.000120952 -3.44211e-05
-0.000390016 0.000116955 0.000117026 -3.44212e-05
-0.000233216 6.98682e-05 7.00063e-05 -5.73747e-05
-0.000241068 7.22162e-05 7.2365e-05 -5.73748e-05
-0.000396555 0.000118914 0.000118989 -3.44212e-05
-0.000311619 9.34093e-05 9.35182e-05 -4.73317e-05
-0.000237142 7.10422e-05 7.11856e-05 -5.73748e-05
-0.000322083 9.65426e-05 9.66603e-05 -4.73316e-05
-0.000316851 9.4976e-05 9.50892e-05 -4.73317e-05
-0.000390016 0.000116955 0.000117026 -3.44212e-05
-0.000376939 0.000113036 0.000113101 -3.44213e-05
-0.000225365 6.75201e-05 6.76478e-05 -5.73747e-05
-0.000233216 6.98682e-05 7.00063e-05 -5.73747e-05
-0.000383478 0.000114995 0.000115064 -3.44213e-05
-0.000301154 9.0276e-05 9.03764e-05 -4.73317e-05
-0.00022929 6.86942e-05 6.8827e-05 -5.73747e-05
-0.000311619 9.34093e-05 9.35182e-05 -4.73317e-05
-0.000306386 9.18427e-05 9.19473e-05 -4.73317e-05
-0.000376939 0.000113036 0.000113101 -3.44213e-05
-0.000363862 0.000109117 0.000109177 -3.44214e-05
-0.000217514 6.51718e-05 6.52895e-05 -5.73747e-05
-0.000225365 6.75201e-05 6.76478e-05 -5.73747e-05
-0.000370401 0.000111076 0.000111139 -3.44214e-05
-0.00029069 8.71425e-05 8.72347e-05 -4.73318e-05
-0.000221439 6.6346e-05 6.64686e-05 -5.73747e-05
-0.000301154 9.0276e-05 9.03764e-05 -4.73317e-05
-0.000295922 8.87093e-05 8.88055e-05 -4.73317e-05
-0.000363862 0.000109117 0.000109177 -3.44214e-05
-0.000350786 0.000105198 0.000105252 -3.44215e-05
-0.000209663 6.28234e-05 6.29314e-05 -5.73746e-05
-0.000217514 6.51718e-05 6.52895e-05 -5.73747e-05
-0.000357324 0.000107157 0.000107214 -3.44214e-05
-0.000280226 8.4009e-05 8.40932e-05 -4.73318e-05
-0.000213589 6.39976e-05 6.41104e-05 -5.73746e-05
-0.00029069 8.71425e-05 8.72347e-05 -4.73318e-05
-0.000285458 8.55758e-05 8.56639e-05 -4.73318e-05
-0.000350786 0.000105198 0.000105252 -3.44215e-05
-0.000337709 0.000101279 0.000101327 -3.44215e-05
-0.000201813 6.04748e-05 6.05736e-05 -5.73745e-05
-0.000209663 6.28234e-05 6.29314e-05 -5.73746e-05
-0.000344247 0.000103238 0.00010329 -3.44215e-05
-0.000269763 8.08753e-05 8.09519e-05 -4.73318e-05
-0.000205738 6.16491e-05 6.17525e-05 -5.73746e-05
-0.000280226 8.4009e-05 8.40932e-05 -4.73318e-05
-0.000274995 8.24421e-05 8.25225e-05 -4.73318e-05
-0.000337709 0.000101279 0.000101327 -3.44215e-05
-0.000324633 9.73597e-05 9.7403e-05 -3.44216e-05
-0.000193963 5.8126e-05 5.82159e-05 -5.73744e-05
-0.000201813 6.04748e-05 6.05736e-05 -5.73745e-05
-0.000331171 9.93193e-05 9.93652e-05 -3.44215e-05
-0.0002593 7.77414e-05 7.78108e-05 -4.73318e-05
-0.000197888 5.93004e-05 5.93947e-05 -5.73745e-05
-0.000269763 8.08753e-05 8.09519e-05 -4.73318e-05
-0.000264531 7.93084e-05 7.93813e-05 -4.73318e-05
-0.000324633 9.73597e-05 9.7403e-05 -3.44216e-05
-0.000311558 9.34405e-05 9.34788e-05 -3.44216e-05
-0.000186114 5.57771e-05 5.58585e-05 -5.73743e-05
-0.000193963 5.8126e-05 5.82159e-05 -5.73744e-05
-0.000318096 9.54001e-05 9.54409e-05 -3.44216e-05
-0.000248837 7.46075e-05 7.46699e-05 -4.73317e-05
-0.000190038 5.69516e-05 5.70372e-05 -5.73744e-05
-0.0002593 7.77414e-05 7.78108e-05 -4.73318e-05
-0.000254069 7.61745e-05 7.62403e-05 -4.73318e-05
-0.000311558 9.34405e-05 9.34788e-05 -3.44216e-05
-0.000298483 8.95213e-05 8.95548e-05 -3.44216e-05
-0.000178264 5.34281e-05 5.35012e-05 -5.73742e-05
-0.000186114 5.57771e-05 5.58585e-05 -5.73743e-05
-0.00030502 9.14809e-05 9.15168e-05 -3.44216e-05
-0.000238375 7.14735e-05 7.15292e-05 -4.73317e-05
-0.000182189 5.46026e-05 5.46798e-05 -5.73743e-05
-0.000248837 7.46075e-05 7.46699e-05 -4.73317e-05
-0.000243606 7.30405e-05 7.30995e-05 -4.73317e-05
-0.000298483 8.95213e-05 8.95548e-05 -3.44216e-05
-0.000285408 8.56021e-05 8.56309e-05 -3.44215e-05
-0.000170415 5.10789e-05 5.11442e-05 -5.7374e-05
-0.000178264 5.34281e-05 5.35012e-05 -5.73742e-05
-0.000291945 8.75617e-05 8.75929e-05 -3.44215e-05
-0.000227913 6.83394e-05 6.83886e-05 -4.73316e-05
-0.00017434 5.22535e-05 5.23227e-05 -5.73741e-05
-0.000238375 7.14735e-05 7.15292e-05 -4.73317e-05
-0.000233144 6.99065e-05 6.99589e-05 -4.73316e-05
-0.000285408 8.56021e-05 8.56309e-05 -3.44215e-05
-0.000272333 8.16828e-05 8.17072e-05 -3.44215e-05
-0.000162567 4.87297e-05 4.87873e-05 -5.73739e-05
-0.000170415 5.10789e-05 5.11442e-05 -5.7374e-05
-0.00027887 8.36424e-05 8.3669e-05 -3.44215e-05
-0.000217451 6.52053e-05 6.52482e-05 -4.73315e-05
-0.000166491 4.99043e-05 4.99657e-05 -5.7374e-05
-0.000227913 6.83394e-05 6.83886e-05 -4.73316e-05
-0.000222682 6.67724e-05 6.68184e-05 -4.73316e-05
-0.000272333 8.16828e-05 8.17072e-05 -3.44215e-05
-0.000259259 7.77635e-05 7.77836e-05 -3.44216e-05
-0.000154719 4.63805e-05 4.64306e-05 -5.73738e-05
-0.000162567 4.87297e-05 4.87873e-05 -5.73739e-05
-0.000265796 7.97232e-05 7.97454e-05 -3.44216e-05
-0.00020699 6.20711e-05 6.2108e-05 -4.73316e-05
-0.000158643 4.75551e-05 4.7609e-05 -5.73738e-05
-0.000217451 6.52053e-05 6.52482e-05 -4.73315e-05
-0.00021222 6.36382e-05 6.36781e-05 -4.73315e-05
-0.000259259 7.77635e-05 7.77836e-05 -3.44216e-05
-0.000246185 7.38443e-05 7.38602e-05 -3.44219e-05
-0.000146871 4.40314e-05 4.40741e-05 -5.73738e-05
-0.000154719 4.63805e-05 4.64306e-05 -5.73738e-05
-0.000252722 7.58039e-05 7.58219e-05 -3.44217e-05
-0.000196529 5.89371e-05 5.89679e-05 -4.73318e-05
-0.000150795 4.52059e-05 4.52524e-05 -5.73738e-05
-0.00020699 6.20711e-05 6.2108e-05 -4.73316e-05
-0.000201759 6.05041e-05 6.05379e-05 -4.73316e-05
-0.000246185 7.38443e-05 7.38602e-05 -3.44219e-05
-0.000233111 6.99251e-05 6.99368e-05 -3.44224e-05
-0.000139024 4.16825e-05 4.17177e-05 -5.73741e-05
-0.000146871 4.40314e-05 4.40741e-05 -5.73738e-05
-0.000239648 7.18847e-05 7.18985e-05 -3.44221e-05
-0.000186068 5.58031e-05 5.5828e-05 -4.73323e-05
-0.000142947 4.28569e-05 4.28959e-05 -5.73739e-05
-0.000196529 5.89371e-05 5.89679e-05 -4.73318e-05
-0.000191299 5.73701e-05 5.73979e-05 -4.7332e-05
-0.000233111 6.99251e-05 6.99368e-05 -3.44224e-05
-0.000220038 6.60059e-05 6.60136e-05 -3.44234e-05
-0.000131177 3.93338e-05 3.93615e-05 -5.73748e-05
-0.000139024 4.16825e-05 4.17177e-05 -5.73741e-05
-0.000226574 6.79655e-05 6.79752e-05 -3.44229e-05
-0.000175608 5.26693e-05 5.26882e-05 -4.73332e-05
-0.000135101 4.05081e-05 4.05396e-05 -5.73744e-05
-0.000186068 5.58031e-05 5.5828e-05 -4.73323e-05
-0.000180838 5.42362e-05 5.4258e-05 -4.73327e-05
-0.000220038 6.60059e-05 6.60136e-05 -3.44234e-05
-0.000206964 6.20866e-05 6.20904e-05 -3.44248e-05
-0.000123331 3.6985e-05 3.70056e-05 -5.73762e-05
-0.000131177 3.93338e-05 3.93615e-05 -5.73748e-05
-0.000213501 6.40463e-05 6.4052e-05 -3.44241e-05
-0.000165149 4.95353e-05 4.95486e-05 -4.73346e-05
-0.000127254 3.81594e-05 3.81835e-05 -5.73754e-05
-0.000175608 5.26693e-05 5.26882e-05 -4.73332e-05
-0.000170378 5.11023e-05 5.11184e-05 -4.73338e-05
-0.000206964 6.20866e-05 6.20904e-05 -3.44248e-05
-0.000193891 5.81668e-05 5.81676e-05 -3.44264e-05
-0.000115485 3.46352e-05 3.46499e-05 -5.73785e-05
-0.000123331 3.6985e-05 3.70056e-05 -5.73762e-05
-0.000200428 6.01268e-05 6.01289e-05 -3.44256e-05
-0.000154689 4.64004e-05 4.64094e-05 -4.73364e-05
-0.000119408 3.58103e-05 3.58277e-05 -5.73772e-05
-0.000165149 4.95353e-05 4.95486e-05 -4.73346e-05
-0.000159919 4.7968e-05 4.79789e-05 -4.73355e-05
-0.000193891 5.81668e-05 5.81676e-05 -3.44264e-05
-0.000180818 5.42455e-05 5.42452e-05 -3.44272e-05
-0.000107637 3.22821e-05 3.22949e-05 -5.73821e-05
-0.000115485 3.46352e-05 3.46499e-05 -5.73785e-05
-0.000187355 5.62064e-05 5.62064e-05 -3.4427e-05
-0.000144228 4.32626e-05 4.32709e-05 -4.73377e-05
-0.000111561 3.34593e-05 3.34723e-05 -5.73802e-05
-0.000154689 4.64004e-05 4.64094e-05 -4.73364e-05
-0.000149459 4.4832e-05 4.484e-05 -4.73372e-05
-0.000180818 5.42455e-05 5.42452e-05 -3.44272e-05
-0.000167744 5.03206e-05 5.03244e-05 -3.44238e-05
-9.97819e-05 2.99205e-05 2.99406e-05 -5.73873e-05
-0.000107637 3.22821e-05 3.22949e-05 -5.73821e-05
-0.000174281 5.22837e-05 5.22845e-05 -3.44264e-05
-0.000133763 4.0118e-05 4.01337e-05 -4.73363e-05
-0.000103711 3.11029e-05 3.11177e-05 -5.73844e-05
-0.000144228 4.32626e-05 4.32709e-05 -4.73377e-05
-0.000138996 4.16917e-05 4.1702e-05 -4.73377e-05
-0.000167744 5.03206e-05 5.03244e-05 -3.44238e-05
-0.000154668 4.63879e-05 4.64057e-05 -3.44107e-05
-9.19121e-05 2.75398e-05 2.75881e-05 -5.73938e-05
-9.97819e-05 2.99205e-05 2.99406e-05 -5.73873e-05
-0.000161207 4.83556e-05 4.83648e-05 -3.4419e-05
-0.000123288 3.69575e-05 3.69988e-05 -4.73274e-05
-9.58492e-05 2.87334e-05 2.87639e-05 -5.73905e-05
-0.000133763 4.0118e-05 4.01337e-05 -4.73363e-05
-0.000128527 3.85404e-05 3.85659e-05 -4.73331e-05
-0.000154668 4.63879e-05 4.64057e-05 -3.44107e-05
-0.00014159 4.24391e-05 4.24934e-05 -3.43724e-05
-8.40047e-05 2.5121e-05 2.52359e-05 -5.74027e-05
-9.19121e-05 2.75398e-05 2.75881e-05 -5.73938e-05
-0.000148129 4.4416e-05 4.44483e-05 -3.43962e-05
-0.00011279 3.37663e-05 3.38674e-05 -4.73013e-05
-8.79656e-05 2.63371e-05 2.64122e-05 -5.73977e-05
-0.000123288 3.69575e-05 3.69988e-05 -4.73274e-05
-0.000118043 3.53676e-05 3.54323e-05 -4.73179e-05
-0.00014159 4.24391e-05 4.24934e-05 -3.43724e-05
-0.000128499 3.84609e-05 3.85879e-05 -3.42877e-05
-7.6031e-05 2.26291e-05 2.28865e-05 -5.74119e-05
-8.40047e-05 2.5121e-05 2.52359e-05 -5.74027e-05
-0.000135049 4.04555e-05 4.05399e-05 -3.43375e-05
-0.000102243 3.05133e-05 3.07414e-05 -4.72404e-05
-8.00272e-05 2.38867e-05 2.40602e-05 -5.74078e-05
-0.00011279 3.37663e-05 3.38674e-05 -4.73013e-05
-0.000107525 3.21492e-05 3.2304e-05 -4.72758e-05
-0.000128499 3.84609e-05 3.85879e-05 -3.42877e-05
-0.0001154 3.44264e-05 3.4703e-05 -3.41031e-05
-6.79119e-05 2.00131e-05 2.05281e-05 -5.74285e-05
-7.6031e-05 2.26291e-05 2.28865e-05 -5.74119e-05
-0.000121948 3.64514e-05 3.66414e-05 -3.42131e-05
-9.16041e-05 2.71573e-05 2.762e-05 -4.71159e-05
-7.19985e-05 2.1342e-05 2.17099e-05 -5.74181e-05
-0.000102243 3.05133e-05 3.07414e-05 -4.72404e-05
-9.69384e-05 2.8854e-05 2.9179e-05 -4.71907e-05
-0.0001154 3.44264e-05 3.4703e-05 -3.41031e-05
-0.000102237 3.03043e-05 3.08281e-05 -3.37643e-05
-5.95715e-05 1.71894e-05 1.81638e-05 -5.74498e-05
-6.79119e-05 2.00131e-05 2.05281e-05 -5.74285e-05
-0.000108836 3.23829e-05 3.27657e-05 -3.39566e-05
-8.07815e-05 2.36134e-05 2.45006e-05 -4.68875e-05
-6.37699e-05 1.86305e-05 1.93455e-05 -5.74398e-05
-9.16041e-05 2.71573e-05 2.762e-05 -4.71159e-05
-8.6224e-05 2.54104e-05 2.60629e-05 -4.70133e-05
-0.000102237 3.03043e-05 3.08281e-05 -3.37643e-05
-8.90244e-05 2.60184e-05 2.70026e-05 -3.31293e-05
-5.07972e-05 1.4087e-05 1.57329e-05 -5.75244e-05
-5.95715e-05 1.71894e-05 1.81638e-05 -5.74498e-05
-9.56248e-05 2.81777e-05 2.89059e-05 -3.34977e-05
-6.96594e-05 1.9817e-05 2.1361e-05 -4.65081e-05
-5.52646e-05 1.56826e-05 1.69637e-05 -5.74736e-05
-8.07815e-05 2.36134e-05 2.45006e-05 -4.68875e-05
-7.52642e-05 2.17614e-05 2.29298e-05 -4.67295e-05
-8.90244e-05 2.60184e-05 2.70026e-05 -3.31293e-05
-7.5518e-05 2.15491e-05 2.31295e-05 -3.21439e-05
-4.14987e-05 1.06279e-05 1.32303e-05 -5.768e-05
-5.07972e-05 1.4087e-05 1.57329e-05 -5.75244e-05
-8.23504e-05 2.38307e-05 2.50799e-05 -3.26808e-05
-5.79711e-05 1.56131e-05 1.81534e-05 -4.59748e-05
-4.61987e-05 1.23888e-05 1.44899e-05 -5.75926e-05
-6.96594e-05 1.9817e-05 2.1361e-05 -4.65081e-05
-6.39131e-05 1.77529e-05 1.9783e-05 -4.62386e-05
-7.5518e-05 2.15491e-05 2.31295e-05 -3.21439e-05
-6.17361e-05 1.67139e-05 1.92952e-05 -3.0592e-05
-3.13412e-05 7.05041e-06 1.04103e-05 -5.81729e-05
-4.14987e-05 1.06279e-05 1.32303e-05 -5.768e-05
-6.86167e-05 1.91331e-05 2.12073e-05 -3.14578e-05
-4.55427e-05 1.11524e-05 1.47387e-05 -4.53949e-05
-3.65839e-05 8.84735e-06 1.18871e-05 -5.78531e-05
-5.79711e-05 1.56131e-05 1.81534e-05 -4.59748e-05
-5.1844e-05 1.34347e-05 1.64612e-05 -4.57159e-05
-6.17361e-05 1.67139e-05 1.92952e-05 -3.0592e-05
-4.67266e-05 1.19027e-05 1.49245e-05 -2.89274e-05
-2.08311e-05 3.93857e-06 7.23967e-06 -5.9167e-05
-3.13412e-05 7.05041e-06 1.04103e-05 -5.81729e-05
-5.45486e-05 1.43832e-05 1.72137e-05 -2.97238e-05
-3.18132e-05 6.6082e-06 1.08021e-05 -4.53299e-05
-2.60103e-05 5.30014e-06 8.87578e-06 -5.86015e-05
-4.55427e-05 1.11524e-05 1.47387e-05 -4.53949e-05
-3.8916e-05 8.76265e-06 1.29229e-05 -4.51582e-05
-4.67266e-05 1.19027e-05 1.49245e-05 -2.89274e-05
-3.06088e-05 7.14742e-06 1.00549e-05 -2.78952e-05
-1.06546e-05 3.84642e-06 2.91779e-06 -6.1252e-05
-2.08311e-05 3.93857e-06 7.23967e-06 -5.9167e-05
-3.86275e-05 9.19381e-06 1.26144e-05 -2.82205e-05
-1.75971e-05 4.43314e-06 5.6417e-06 -4.69933e-05
-1.57354e-05 3.35471e-06 5.30599e-06 -6.00195e-05
-3.18132e-05 6.6082e-06 1.08021e-05 -4.53299e-05
-2.45887e-05 5.08235e-06 8.35986e-06 -4.59787e-05
-3.06088e-05 7.14742e-06 1.00549e-05 -2.78952e-05
-1.19851e-05 7.56931e-06 1.8925e-06 -3.25393e-05
-5.30115e-06 1.1296e-05 -2.56924e-06 -6.27215e-05
-1.06546e-05 3.84642e-06 2.91779e-06 -6.1252e-05
-2.19636e-05 6.64589e-06 6.56473e-06 -2.90184e-05
-4.70841e-06 1.00482e-05 -2.2885e-06 -5.27418e-05
-6.77961e-06 5.9562e-06 3.52891e-07 -6.23036e-05
-1.75971e-05 4.43314e-06 5.6417e-06 -4.69933e-05
-1.09374e-05 5.3019e-06 2.41521e-06 -4.88881e-05
-1.19851e-05 7.56931e-06 1.8925e-06 -3.25393e-05
-3.35308e-06 2.89698e-05 -1.09786e-05 -4.91872e-05
-8.01232e-06 3.46752e-05 -1.1427e-05 -5.7451e-05
-5.30115e-06 1.1296e-05 -2.56924e-06 -6.27215e-05
-4.50456e-06 1.16423e-05 -3.05901e-06 -3.85196e-05
-8.57942e-06 3.96658e-05 -1.33227e-05 -5.71003e-05
-5.83886e-06 2.11818e-05 -6.57556e-06 -6.17159e-05
-4.70841e-06 1.00482e-05 -2.2885e-06 -5.27418e-05
-2.66934e-06 2.11283e-05 -7.91098e-06 -5.66299e-05
-3.35308e-06 2.89698e-05 -1.09786e-05 -4.91872e-05
-3.81938e-05 0.000128988 -3.89116e-05 -4.92539e-05
-1.60186e-05 6.27081e-05 -2.00098e-05 -3.03367e-05
-8.01232e-06 3.46752e-05 -1.1427e-05 -5.7451e-05
-1.30699e-05 6.88522e-05 -2.39067e-05 -5.76433e-05
-3.01537e-05 9.27263e-05 -2.68168e-05 -2.89071e-05
-1.15097e-05 4.98031e-05 -1.64115e-05 -4.74331e-05
-8.57942e-06 3.96658e-05 -1.33227e-05 -5.71003e-05
-1.89155e-05 6.52578e-05 -1.9861e-05 -4.93817e-05
-0.0012702 0 0.00054437 0.000167422
-0.00143571 0.000188508 0.000534515 -4.84568e-06
-0.000468047 6.19603e-05 0.000174037 8.64586e-05
-0.000460611 -1.11022e-16 0.000197405 0.000260837
-0.001376 0.000105952 0.000544306 6.34121e-05
-0.000951747 0.000125289 0.000354196 5.13832e-05
-0.000449532 2.61365e-05 0.000181455 0.000164468
-0.00084677 0 0.000362901 0.00023872
-0.000912583 5.96384e-05 0.000365548 0.000118477
-0.00143571 0.000188508 0.000534515 -4.84568e-06
-0.00150866 0.000344808 0.000498794 -5.84981e-05
-0.000503786 0.000102011 0.000172189 -1.7815e-05
-0.000468047 6.19603e-05 0.000174037 8.64586e-05
-0.0014723 0.000271658 0.000514559 -3.94308e-05
-0.0010001 0.00021484 0.000336542 -3.23148e-05
-0.000493636 8.59665e-05 0.000174716 2.51487e-05
-0.000951747 0.000125289 0.000354196 5.13832e-05
-0.000976771 0.000176292 0.000343062 6.03827e-06
-0.00150866 0.000344808 0.000498794 -5.84981e-05
-0.00154543 0.000423296 0.000480914 -6.89296e-05
-0.000514148 0.000131783 0.000163871 -6.50629e-05
-0.000503786 0.000102011 0.000172189 -1.7815e-05
-0.00153598 0.000393604 0.00048959 -6.7907e-05
-0.00102833 0.000272037 0.000324125 -6.83387e-05
-0.000507594 0.000117889 0.000167017 -4.62969e-05
-0.0010001 0.00021484 0.000336542 -3.23148e-05
-0.0010184 0.000247078 0.000330568 -5.71929e-05
-0.00154543 0.000423296 0.000480914 -6.89296e-05
-0.00154375 0.000453852 0.000467097 -6.38785e-05
-0.000519474 0.000145657 0.000160207 -8.19332e-05
-0.000514148 0.000131783 0.000163871 -6.50629e-05
-0.00154527 0.000442524 0.000472605 -6.60849e-05
-0.00103282 0.000297263 0.00031524 -7.63573e-05
-0.000519444 0.000140588 0.000162367 -7.63616e-05
-0.00102833 0.000272037 0.000324125 -6.83387e-05
-0.00103233 0.000287984 0.000319004 -7.33576e-05
-0.00154375 0.000453852 0.000467097 -6.38785e-05
-0.00153275 0.000459417 0.000460001 -6.05072e-05
-0.000515853 0.000150864 0.000156424 -8.37565e-05
-0.000519474 0.000145657 0.000160207 -8.19332e-05
-0.0015399 0.000458632 0.000463399 -6.22139e-05
-0.00102656 0.000305358 0.000309089 -7.524e-05
-0.000517269 0.00014901 0.000157825 -8.37785e-05
-0.00103282 0.000297263 0.00031524 -7.63573e-05
-0.00103063 0.000302753 0.000311948 -7.67379e-05
-0.00153275 0.000459417 0.000460001 -6.05072e-05
-0.00151741 0.000456859 0.00045452 -5.82569e-05
-0.000511428 0.000150566 0.000154655 -8.0815e-05
-0.000515853 0.000150864 0.000156424 -8.37565e-05
-0.00152452 0.000458617 0.000456816 -5.90166e-05
-0.00101638 0.000304478 0.000305101 -7.21715e-05
-0.000514236 0.000151163 0.000155603 -8.25926e-05
-0.00102656 0.000305358 0.000309089 -7.524e-05
-0.00102152 0.000305606 0.000306819 -7.34944e-05
-0.00151741 0.000456859 0.00045452 -5.82569e-05
-0.00150407 0.000451626 0.000451049 -5.76078e-05
-0.000505864 0.000148842 0.000153009 -7.69911e-05
-0.000511428 0.000150566 0.000154655 -8.0815e-05
-0.0015108 0.00045438 0.00045275 -5.79049e-05
-0.00100643 0.0003011 0.000302283 -6.94208e-05
-0.000508335 0.00014976 0.000153675 -7.88238e-05
-0.00101638 0.000304478 0.000305101 -7.21715e-05
-0.0010113 0.000302898 0.000303601 -7.08119e-05
-0.00150407 0.000451626 0.000451049 -5.76078e-05
-0.00149195 0.000446574 0.000448019 -5.73276e-05
-0.000501355 0.000146743 0.000151977 -7.39516e-05
-0.000505864 0.000148842 0.000153009 -7.69911e-05
-0.00149766 0.00044901 0.00044942 -5.73878e-05
-0.0009976 0.000297254 0.000300148 -6.74796e-05
-0.000503656 0.000147796 0.000152511 -7.53594e-05
-0.00100643 0.0003011 0.000302283 -6.94208e-05
-0.00100183 0.000299164 0.000301144 -6.82916e-05
-0.00149195 0.000446574 0.000448019 -5.73276e-05
-0.00148162 0.000442174 0.000445476 -5.73482e-05
-0.00049725 0.000144967 0.000150979 -7.18429e-05
-0.000501355 0.000146743 0.000151977 -7.39516e-05
-0.0014867 0.000444287 0.000446746 -5.73441e-05
-0.000990026 0.000293946 0.00029832 -6.62368e-05
-0.000499155 0.000145803 0.000151436 -7.27741e-05
-0.0009976 0.000297254 0.000300148 -6.74796e-05
-0.00099368 0.000295516 0.000299213 -6.68081e-05
-0.00148162 0.000442174 0.000445476 -5.73482e-05
-0.0014722 0.000438519 0.000443006 -5.73751e-05
-0.000493816 0.000143507 0.000150132 -7.05439e-05
-0.00049725 0.000144967 0.000150979 -7.18429e-05
-0.00147677 0.000440262 0.000444217 -5.73518e-05
-0.000983366 0.000291197 0.000296644 -6.55051e-05
-0.000495513 0.000144201 0.000150563 -7.11124e-05
-0.000990026 0.000293946 0.00029832 -6.62368e-05
-0.0009866 0.000292508 0.000297468 -6.58075e-05
-0.0014722 0.000438519 0.000443006 -5.73751e-05
-0.00146352 0.000435392 0.000440625 -5.74205e-05
-0.000490668 0.000142338 0.000149284 -6.97845e-05
-0.000493816 0.000143507 0.000150132 -7.05439e-05
-0.00146781 0.000436902 0.000441819 -5.74039e-05
-0.000977317 0.000288934 0.000295021 -6.5089e-05
-0.00049219 0.000142891 0.000149699 -7.01083e-05
-0.000983366 0.000291197 0.000296644 -6.55051e-05
-0.000980284 0.000290015 0.00029583 -6.52725e-05
-0.00146352 0.000435392 0.000440625 -5.74205e-05
-0.00145519 0.000432625 0.000438242 -5.74405e-05
-0.000487774 0.000141353 0.000148466 -6.937e-05
-0.000490668 0.000142338 0.000149284 -6.97845e-05
-0.00145931 0.000433974 0.00043943 -5.74308e-05
-0.000971631 0.000286985 0.000293419 -6.48657e-05
-0.00048921 0.000141828 0.000148878 -6.95457e-05
-0.000977317 0.000288934 0.000295021 -6.5089e-05
-0.000974441 0.000287929 0.000294219 -6.4957e-05
-0.00145519 0.000432625 0.000438242 -5.74405e-05
-0.00144709 0.000430067 0.000435867 -5.74513e-05
-0.000484983 0.000140487 0.000147641 -6.91522e-05
-0.000487774 0.000141353 0.000148466 -6.937e-05
-0.00145113 0.000431327 0.000437057 -5.74482e-05
-0.000966147 0.000285235 0.000291819 -6.47475e-05
-0.000486363 0.000140909 0.000148052 -6.92427e-05
-0.000971631 0.000286985 0.000293419 -6.48657e-05
-0.000968871 0.000286091 0.00029262 -6.47983e-05
-0.00144709 0.000430067 0.000435867 -5.74513e-05
-0.00143909 0.000427629 0.000433484 -5.74515e-05
-0.000482263 0.000139685 0.000146819 -6.90442e-05
-0.000484983 0.000140487 0.000147641 -6.91522e-05
-0.00144308 0.000428837 0.000434675 -5.74518e-05
-0.000960769 0.000283594 0.000290218 -6.46876e-05
-0.00048362 0.00014008 0.000147231 -6.90888e-05
-0.000966147 0.000285235 0.000291819 -6.47475e-05
-0.000963449 0.000284405 0.000291019 -6.47119e-05
-0.00143909 0.000427629 0.000433484 -5.74515e-05
-0.00143115 0.000425253 0.000431098 -5.74483e-05
-0.00047957 0.000138916 0.000145994 -6.89928e-05
-0.000482263 0.000139685 0.000146819 -6.90442e-05
-0.00143512 0.000426436 0.000432292 -5.74504e-05
-0.000955442 0.000282013 0.000288613 -6.46571e-05
-0.000480913 0.000139298 0.000146407 -6.90136e-05
-0.000960769 0.000283594 0.000290218 -6.46876e-05
-0.000958101 0.000282798 0.000289416 -6.46701e-05
-0.00143115 0.000425253 0.000431098 -5.74483e-05
-0.00142323 0.000422907 0.000428709 -5.74432e-05
-0.000476891 0.000138164 0.000145169 -6.89698e-05
-0.00047957 0.000138916 0.000145994 -6.89928e-05
-0.00142719 0.000424078 0.000429904 -5.74457e-05
-0.000950138 0.000280459 0.000287005 -6.4642e-05
-0.00047823 0.000138539 0.000145582 -6.8979e-05
-0.000955442 0.000282013 0.000288613 -6.46571e-05
-0.000952788 0.000281234 0.000287809 -6.46482e-05
-0.00142323 0.000422907 0.000428709 -5.74432e-05
-0.00141532 0.000420575 0.000426318 -5.74385e-05
-0.000474215 0.000137417 0.000144342 -6.89601e-05
-0.000476891 0.000138164 0.000145169 -6.89698e-05
-0.00141927 0.00042174 0.000427514 -5.74408e-05
-0.000944843 0.000278919 0.000285396 -6.46341e-05
-0.000475552 0.00013779 0.000144755 -6.89639e-05
-0.000950138 0.000280459 0.000287005 -6.4642e-05
-0.00094749 0.000279688 0.000286201 -6.46375e-05
-0.00141532 0.000420575 0.000426318 -5.74385e-05
-0.00140741 0.000418248 0.000423927 -5.74345e-05
-0.00047154 0.000136671 0.000143515 -6.89562e-05
-0.000474215 0.000137417 0.000144342 -6.89601e-05
-0.00141136 0.000419411 0.000425123 -5.74364e-05
-0.000939551 0.000277383 0.000283787 -6.463e-05
-0.000472878 0.000137044 0.000143929 -6.89577e-05
-0.000944843 0.000278919 0.000285396 -6.46341e-05
-0.000942197 0.00027815 0.000284591 -6.46317e-05
-0.00140741 0.000418248 0.000423927 -5.74345e-05
-0.0013995 0.000415922 0.000421535 -5.74316e-05
-0.000468864 0.000135925 0.000142688 -6.89548e-05
-0.00047154 0.000136671 0.000143515 -6.89562e-05
-0.00140346 0.000417085 0.000422731 -5.74329e-05
-0.000934259 0.000275847 0.000282176 -6.46277e-05
-0.000470202 0.000136298 0.000143102 -6.89554e-05
-0.000939551 0.000277383 0.000283787 -6.463e-05
-0.000936905 0.000276615 0.000282982 -6.46287e-05
-0.0013995 0.000415922 0.000421535 -5.74316e-05
-0.0013916 0.000413595 0.000419143 -5.74294e-05
-0.000466188 0.000135178 0.000141861 -6.89543e-05
-0.000468864 0.000135925 0.000142688 -6.89548e-05
-0.00139555 0.000414759 0.000420339 -5.74304e-05
-0.000928967 0.000274312 0.000280566 -6.46263e-05
-0.000467526 0.000135552 0.000142275 -6.89545e-05
-0.000934259 0.000275847 0.000282176 -6.46277e-05
-0.000931613 0.00027508 0.000281371 -6.46269e-05
-0.0013916 0.000413595 0.000419143 -5.74294e-05
-0.00138369 0.000411268 0.000416751 -5.7428e-05
-0.000463511 0.00013443 0.000141035 -6.89541e-05
-0.000466188 0.000135178 0.000141861 -6.89543e-05
-0.00138764 0.000412432 0.000417947 -5.74286e-05
-0.000923674 0.000272775 0.000278956 -6.46255e-05
-0.00046485 0.000134804 0.000141448 -6.89542e-05
-0.000928967 0.000274312 0.000280566 -6.46263e-05
-0.00092632 0.000273544 0.000279761 -6.46258e-05
-0.00138369 0.000411268 0.000416751 -5.7428e-05
-0.00137578 0.000408941 0.00041436 -5.74271e-05
-0.000460833 0.00013368 0.000140209 -6.89538e-05
-0.000463511 0.00013443 0.000141035 -6.89541e-05
-0.00137973 0.000410105 0.000415555 -5.74275e-05
-0.00091838 0.000271237 0.000277347 -6.46249e-05
-0.000462172 0.000134055 0.000140622 -6.8954e-05
-0.000923674 0.000272775 0.000278956 -6.46255e-05
-0.000921027 0.000272006 0.000278152 -6.46251e-05
-0.00137578 0.000408941 0.00041436 -5.74271e-05
-0.00136787 0.000406612 0.000411968 -5.74266e-05
-0.000458156 0.00013293 0.000139382 -6.89536e-05
-0.000460833 0.00013368 0.000140209 -6.89538e-05
-0.00137183 0.000407777 0.000413164 -5.74268e-05
-0.000913086 0.000269699 0.000275737 -6.46244e-05
-0.000459495 0.000133305 0.000139795 -6.89537e-05
-0.00091838 0.000271237 0.000277347 -6.46249e-05
-0.000915733 0.000270468 0.000276542 -6.46246e-05
-0.00136787 0.000406612 0.000411968 -5.74266e-05
-0.00135996 0.000404284 0.000409577 -5.74262e-05
-0.000455478 0.000132179 0.000138557 -6.89533e-05
-0.000458156 0.00013293 0.000139382 -6.89536e-05
-0.00136392 0.000405448 0.000410773 -5.74264e-05
-0.000907793 0.00026816 0.000274128 -6.46241e-05
-0.000456817 0.000132555 0.00013897 -6.89534e-05
-0.000913086 0.000269699 0.000275737 -6.46244e-05
-0.00091044 0.00026893 0.000274933 -6.46243e-05
-0.00135996 0.000404284 0.000409577 -5.74262e-05
-0.00135206 0.000401954 0.000407186 -5.7426e-05
-0.000452801 0.000131428 0.000137731 -6.89529e-05
-0.000455478 0.000132179 0.000138557 -6.89533e-05
-0.00135601 0.000403119 0.000408382 -5.74261e-05
-0.000902499 0.000266621 0.000272519 -6.46238e-05
-0.000454139 0.000131803 0.000138144 -6.89531e-05
-0.000907793 0.00026816 0.000274128 -6.46241e-05
-0.000905146 0.00026739 0.000273324 -6.4624e-05
-0.00135206 0.000401954 0.000407186 -5.7426e-05
-0.00134415 0.000399625 0.000404796 -5.74259e-05
-0.000450123 0.000130676 0.000136906 -6.89526e-05
-0.000452801 0.000131428 0.000137731 -6.89529e-05
-0.0013481 0.00040079 0.000405991 -5.74259e-05
-0.000897206 0.000265081 0.000270911 -6.46236e-05
-0.000451462 0.000131052 0.000137319 -6.89527e-05
-0.000902499 0.000266621 0.000272519 -6.46238e-05
-0.000899853 0.000265851 0.000271715 -6.46237e-05
-0.00134415 0.000399625 0.000404796 -5.74259e-05
-0.00133624 0.000397295 0.000402406 -5.74258e-05
-0.000447447 0.000129924 0.000136081 -6.89522e-05
-0.000450123 0.000130676 0.000136906 -6.89526e-05
-0.0013402 0.00039846 0.000403601 -5.74258e-05
-0.000891914 0.000263541 0.000269303 -6.46233e-05
-0.000448785 0.0001303 0.000136494 -6.89524e-05
-0.000897206 0.000265081 0.000270911 -6.46236e-05
-0.00089456 0.000264311 0.000270107 -6.46235e-05
-0.00133624 0.000397295 0.000402406 -5.74258e-05
-0.00132833 0.000394965 0.000400016 -5.74256e-05
-0.00044477 0.000129172 0.000135256 -6.89517e-05
-0.000447447 0.000129924 0.000136081 -6.89522e-05
-0.00133229 0.00039613 0.000401211 -5.74257e-05
-0.000886621 0.000262001 0.000267695 -6.46231e-05
-0.000446108 0.000129548 0.000135669 -6.89519e-05
-0.000891914 0.000263541 0.000269303 -6.46233e-05
-0.000889267 0.000262771 0.000268499 -6.46232e-05
-0.00132833 0.000394965 0.000400016 -5.74256e-05
-0.00132043 0.000392635 0.000397626 -5.74255e-05
-0.000442094 0.000128419 0.000134432 -6.89513e-05
-0.00044477 0.000129172 0.000135256 -6.89517e-05
-0.00132438 0.0003938 0.000398821 -5.74256e-05
-0.000881329 0.00026046 0.000266087 -6.46228e-05
-0.000443432 0.000128796 0.000134844 -6.89515e-05
-0.000886621 0.000262001 0.000267695 -6.46231e-05
-0.000883975 0.00026123 0.000266891 -6.46229e-05
-0.00132043 0.000392635 0.000397626 -5.74255e-05
-0.00131252 0.000390305 0.000395236 -5.74253e-05
-0.000439418 0.000127667 0.000133608 -6.89508e-05
-0.000442094 0.000128419 0.000134432 -6.89513e-05
-0.00131648 0.00039147 0.000396431 -5.74254e-05
-0.000876037 0.000258919 0.000264479 -6.46225e-05
-0.000440756 0.000128043 0.00013402 -6.8951e-05
-0.000881329 0.00026046 0.000266087 -6.46228e-05
-0.000878683 0.00025969 0.000265283 -6.46226e-05
-0.00131252 0.000390305 0.000395236 -5.74253e-05
-0.00130462 0.000387975 0.000392847 -5.74252e-05
-0.000436743 0.000126914 0.000132784 -6.89503e-05
-0.000439418 0.000127667 0.000133608 -6.89508e-05
-0.00130857 0.00038914 0.000394041 -5.74253e-05
-0.000870746 0.000257379 0.000262872 -6.46221e-05
-0.00043808 0.00012729 0.000133196 -6.89506e-05
-0.000876037 0.000258919 0.000264479 -6.46225e-05
-0.000873392 0.000258149 0.000263675 -6.46223e-05
-0.00130462 0.000387975 0.000392847 -5.74252e-05
-0.00129671 0.000385644 0.000390457 -5.7425e-05
-0.000434068 0.000126161 0.00013196 -6.89498e-05
-0.000436743 0.000126914 0.000132784 -6.89503e-05
-0.00130066 0.00038681 0.000391652 -5.74251e-05
-0.000865455 0.000255838 0.000261265 -6.46218e-05
-0.000435405 0.000126537 0.000132372 -6.89501e-05
-0.000870746 0.000257379 0.000262872 -6.46221e-05
-0.000868101 0.000256608 0.000262068 -6.4622e-05
-0.00129671 0.000385644 0.000390457 -5.7425e-05
-0.00128881 0.000383314 0.000388069 -5.74247e-05
-0.000431393 0.000125408 0.000131137 -6.89493e-05
-0.000434068 0.000126161 0.00013196 -6.89498e-05
-0.00129276 0.000384479 0.000389263 -5.74249e-05
-0.000860165 0.000254297 0.000259658 -6.46214e-05
-0.000432731 0.000125784 0.000131548 -6.89495e-05
-0.000865455 0.000255838 0.000261265 -6.46218e-05
-0.00086281 0.000255067 0.000260461 -6.46216e-05
-0.00128881 0.000383314 0.000388069 -5.74247e-05
-0.0012809 0.000380983 0.00038568 -5.74245e-05
-0.000428719 0.000124654 0.000130314 -6.89487e-05
-0.000431393 0.000125408 0.000131137 -6.89493e-05
-0.00128485 0.000382149 0.000386874 -5.74246e-05
-0.000854875 0.000252755 0.000258051 -6.4621e-05
-0.000430056 0.000125031 0.000130725 -6.8949e-05
-0.000860165 0.000254297 0.000259658 -6.46214e-05
-0.00085752 0.000253526 0.000258854 -6.46212e-05
-0.0012809 0.000380983 0.00038568 -5.74245e-05
-0.001273 0.000378652 0.000383291 -5.74242e-05
-0.000426045 0.000123901 0.000129491 -6.89482e-05
-0.000428719 0.000124654 0.000130314 -6.89487e-05
-0.00127695 0.000379818 0.000384485 -5.74244e-05
-0.000849585 0.000251214 0.000256445 -6.46206e-05
-0.000427382 0.000124277 0.000129902 -6.89485e-05
-0.000854875 0.000252755 0.000258051 -6.4621e-05
-0.00085223 0.000251985 0.000257248 -6.46208e-05
-0.001273 0.000378652 0.000383291 -5.74242e-05
-0.00126509 0.000376321 0.000380903 -5.7424e-05
-0.000423372 0.000123147 0.000128668 -6.89476e-05
-0.000426045 0.000123901 0.000129491 -6.89482e-05
-0.00126905 0.000377487 0.000382097 -5.74241e-05
-0.000844296 0.000249672 0.000254839 -6.46202e-05
-0.000424708 0.000123524 0.000129079 -6.89479e-05
-0.000849585 0.000251214 0.000256445 -6.46206e-05
-0.00084694 0.000250443 0.000255642 -6.46204e-05
-0.00126509 0.000376321 0.000380903 -5.7424e-05
-0.00125719 0.00037399 0.000378515 -5.74237e-05
-0.000420699 0.000122393 0.000127845 -6.8947e-05
-0.000423372 0.000123147 0.000128668 -6.89476e-05
-0.00126114 0.000375156 0.000379709 -5.74238e-05
-0.000839007 0.000248131 0.000253233 -6.46198e-05
-0.000422035 0.00012277 0.000128256 -6.89473e-05
-0.000844296 0.000249672 0.000254839 -6.46202e-05
-0.000841651 0.000248902 0.000254036 -6.462e-05
-0.00125719 0.00037399 0.000378515 -5.74237e-05
-0.00124929 0.000371659 0.000376127 -5.74234e-05
-0.000418026 0.000121639 0.000127023 -6.89464e-05
-0.000420699 0.000122393 0.000127845 -6.8947e-05
-0.00125324 0.000372825 0.000377321 -5.74235e-05
-0.000833718 0.000246589 0.000251627 -6.46193e-05
-0.000419362 0.000122016 0.000127434 -6.89467e-05
-0.000839007 0.000248131 0.000253233 -6.46198e-05
-0.000836362 0.00024736 0.00025243 -6.46195e-05
-0.00124929 0.000371659 0.000376127 -5.74234e-05
-0.00124139 0.000369328 0.000373739 -5.74231e-05
-0.000415354 0.000120885 0.000126201 -6.89458e-05
-0.000418026 0.000121639 0.000127023 -6.89464e-05
-0.00124534 0.000370493 0.000374933 -5.74232e-05
-0.00082843 0.000245047 0.000250021 -6.46188e-05
-0.00041669 0.000121262 0.000126612 -6.89461e-05
-0.000833718 0.000246589 0.000251627 -6.46193e-05
-0.000831074 0.000245818 0.000250824 -6.46191e-05
-0.00124139 0.000369328 0.000373739 -5.74231e-05
-0.00123348 0.000366996 0.000371352 -5.74228e-05
-0.000412682 0.00012013 0.000125379 -6.89452e-05
-0.000415354 0.000120885 0.000126201 -6.89458e-05
-0.00123744 0.000368162 0.000372546 -5.74229e-05
-0.000823142 0.000243505 0.000248416 -6.46184e-05
-0.000414018 0.000120507 0.00012579 -6.89455e-05
-0.00082843 0.000245047 0.000250021 -6.46188e-05
-0.000825786 0.000244276 0.000249219 -6.46186e-05
-0.00123348 0.000366996 0.000371352 -5.74228e-05
-0.00122558 0.000364665 0.000368965 -5.74224e-05
-0.00041001 0.000119375 0.000124558 -6.89445e-05
-0.000412682 0.00012013 0.000125379 -6.89452e-05
-0.00122953 0.000365831 0.000370158 -5.74226e-05
-0.000817855 0.000241962 0.000246811 -6.46179e-05
-0.000411346 0.000119753 0.000124968 -6.89449e-05
-0.000823142 0.000243505 0.000248416 -6.46184e-05
-0.000820498 0.000242733 0.000247614 -6.46181e-05
-0.00122558 0.000364665 0.000368965 -5.74224e-05
-0.00121768 0.000362333 0.000366578 -5.74221e-05
-0.000407339 0.000118621 0.000123736 -6.89439e-05
-0.00041001 0.000119375 0.000124558 -6.89445e-05
-0.00122163 0.000363499 0.000367771 -5.74223e-05
-0.000812568 0.00024042 0.000245206 -6.46174e-05
-0.000408674 0.000118998 0.000124147 -6.89442e-05
-0.000817855 0.000241962 0.000246811 -6.46179e-05
-0.000815211 0.000241191 0.000246009 -6.46176e-05
-0.00121768 0.000362333 0.000366578 -5.74221e-05
-0.00120978 0.000360001 0.000364191 -5.74218e-05
-0.000404668 0.000117866 0.000122915 -6.89432e-05
-0.000407339 0.000118621 0.000123736 -6.89439e-05
-0.00121373 0.000361167 0.000365384 -5.74219e-05
-0.000807281 0.000238877 0.000243602 -6.46169e-05
-0.000406003 0.000118243 0.000123326 -6.89436e-05
-0.000812568 0.00024042 0.000245206 -6.46174e-05
-0.000809924 0.000239648 0.000244404 -6.46171e-05
-0.00120978 0.000360001 0.000364191 -5.74218e-05
-0.00120188 0.000357669 0.000361805 -5.74214e-05
-0.000401997 0.00011711 0.000122094 -6.89426e-05
-0.000404668 0.000117866 0.000122915 -6.89432e-05
-0.00120583 0.000358835 0.000362998 -5.74216e-05
-0.000801995 0.000237334 0.000241997 -6.46164e-05
-0.000403333 0.000117488 0.000122505 -6.89429e-05
-0.000807281 0.000238877 0.000243602 -6.46169e-05
-0.000804638 0.000238105 0.0002428 -6.46166e-05
-0.00120188 0.000357669 0.000361805 -5.74214e-05
-0.00119398 0.000355337 0.000359418 -5.7421e-05
-0.000399327 0.000116355 0.000121274 -6.89419e-05
-0.000401997 0.00011711 0.000122094 -6.89426e-05
-0.00119793 0.000356503 0.000360611 -5.74212e-05
-0.000796709 0.000235791 0.000240393 -6.46159e-05
-0.000400662 0.000116733 0.000121684 -6.89422e-05
-0.000801995 0.000237334 0.000241997 -6.46164e-05
-0.000799352 0.000236563 0.000241195 -6.46161e-05
-0.00119398 0.000355337 0.000359418 -5.7421e-05
-0.00118608 0.000353005 0.000357032 -5.74207e-05
-0.000396657 0.000115599 0.000120453 -6.89412e-05
-0.000399327 0.000116355 0.000121274 -6.89419e-05
-0.00119003 0.000354171 0.000358225 -5.74208e-05
-0.000791423 0.000234248 0.00023879 -6.46153e-05
-0.000397992 0.000115977 0.000120864 -6.89415e-05
-0.000796709 0.000235791 0.000240393 -6.46159e-05
-0.000794066 0.000235019 0.000239591 -6.46156e-05
-0.00118608 0.000353005 0.000357032 -5.74207e-05
-0.00117818 0.000350672 0.000354646 -5.74203e-05
-0.000393988 0.000114844 0.000119633 -6.89405e-05
-0.000396657 0.000115599 0.000120453 -6.89412e-05
-0.00118213 0.000351839 0.000355839 -5.74205e-05
-0.000786138 0.000232704 0.000237186 -6.46148e-05
-0.000395323 0.000115221 0.000120043 -6.89408e-05
-0.000791423 0.000234248 0.00023879 -6.46153e-05
-0.000788781 0.000233476 0.000237988 -6.4615e-05
-0.00117818 0.000350672 0.000354646 -5.74203e-05
-0.00117028 0.00034834 0.000352261 -5.74199e-05
-0.000391319 0.000114088 0.000118813 -6.89398e-05
-0.000393988 0.000114844 0.000119633 -6.89405e-05
-0.00117423 0.000349506 0.000353454 -5.74201e-05
-0.000780854 0.000231161 0.000235583 -6.46142e-05
-0.000392654 0.000114466 0.000119223 -6.89401e-05
-0.000786138 0.000232704 0.000237186 -6.46148e-05
-0.000783496 0.000231933 0.000236384 -6.46145e-05
-0.00117028 0.00034834 0.000352261 -5.74199e-05
-0.00116238 0.000346007 0.000349875 -5.74195e-05
-0.00038865 0.000113331 0.000117994 -6.89391e-05
-0.000391319 0.000114088 0.000118813 -6.89398e-05
-0.00116633 0.000347174 0.000351068 -5.74197e-05
-0.000775569 0.000229617 0.00023398 -6.46137e-05
-0.000389985 0.00011371 0.000118404 -6.89394e-05
-0.000780854 0.000231161 0.000235583 -6.46142e-05
-0.000778212 0.000230389 0.000234781 -6.46139e-05
-0.00116238 0.000346007 0.000349875 -5.74195e-05
-0.00115448 0.000343675 0.00034749 -5.74191e-05
-0.000385982 0.000112575 0.000117174 -6.89383e-05
-0.00038865 0.000113331 0.000117994 -6.89391e-05
-0.00115843 0.000344841 0.000348683 -5.74193e-05
-0.000770286 0.000228073 0.000232377 -6.46131e-05
-0.000387316 0.000112953 0.000117584 -6.89387e-05
-0.000775569 0.000229617 0.00023398 -6.46137e-05
-0.000772927 0.000228845 0.000233178 -6.46134e-05
-0.00115448 0.000343675 0.00034749 -5.74191e-05
-0.00114659 0.000341342 0.000345105 -5.74187e-05
-0.000383314 0.000111819 0.000116355 -6.89376e-05
-0.000385982 0.000112575 0.000117174 -6.89383e-05
-0.00115054 0.000342508 0.000346298 -5.74189e-05
-0.000765002 0.000226529 0.000230774 -6.46125e-05
-0.000384648 0.000112197 0.000116765 -6.8938e-05
-0.000770286 0.000228073 0.000232377 -6.46131e-05
-0.000767644 0.000227301 0.000231575 -6.46128e-05
-0.00114659 0.000341342 0.000345105 -5.74187e-05
-0.00113869 0.000339009 0.000342721 -5.74183e-05
-0.000380647 0.000111062 0.000115536 -6.89369e-05
-0.000383314 0.000111819 0.000116355 -6.89376e-05
-0.00114264 0.000340175 0.000343913 -5.74185e-05
-0.000759719 0.000224985 0.000229172 -6.46119e-05
-0.00038198 0.00011144 0.000115946 -6.89372e-05
-0.000765002 0.000226529 0.000230774 -6.46125e-05
-0.00076236 0.000225757 0.000229973 -6.46122e-05
-0.00113869 0.000339009 0.000342721 -5.74183e-05
-0.00113079 0.000336675 0.000340336 -5.74178e-05
-0.00037798 0.000110305 0.000114718 -6.89361e-05
-0.000380647 0.000111062 0.000115536 -6.89369e-05
-0.00113474 0.000337842 0.000341528 -5.7418e-05
-0.000754436 0.000223441 0.000227569 -6.46113e-05
-0.000379313 0.000110683 0.000115127 -6.89365e-05
-0.000759719 0.000224985 0.000229172 -6.46119e-05
-0.000757077 0.000224213 0.00022837 -6.46116e-05
-0.00113079 0.000336675 0.000340336 -5.74178e-05
-0.0011229 0.000334342 0.000337952 -5.74174e-05
-0.000375313 0.000109548 0.000113899 -6.89353e-05
-0.00037798 0.000110305 0.000114718 -6.89361e-05
-0.00112684 0.000335509 0.000339144 -5.74176e-05
-0.000749154 0.000221896 0.000225967 -6.46107e-05
-0.000376646 0.000109926 0.000114308 -6.89357e-05
-0.000754436 0.000223441 0.000227569 -6.46113e-05
-0.000751795 0.000222669 0.000226768 -6.4611e-05
-0.0011229 0.000334342 0.000337952 -5.74174e-05
-0.001115 0.000332009 0.000335568 -5.7417e-05
-0.000372647 0.000108791 0.000113081 -6.89346e-05
-0.000375313 0.000109548 0.000113899 -6.89353e-05
-0.00111895 0.000333176 0.00033676 -5.74172e-05
-0.000743872 0.000220352 0.000224366 -6.46101e-05
-0.00037398 0.000109169 0.00011349 -6.8935e-05
-0.000749154 0.000221896 0.000225967 -6.46107e-05
-0.000746513 0.000221124 0.000225167 -6.46104e-05
-0.001115 0.000332009 0.000335568 -5.7417e-05
-0.0011071 0.000329675 0.000333184 -5.74165e-05
-0.000369981 0.000108033 0.000112263 -6.89338e-05
-0.000372647 0.000108791 0.000113081 -6.89346e-05
-0.00111105 0.000330842 0.000334376 -5.74167e-05
-0.00073859 0.000218807 0.000222764 -6.46095e-05
-0.000371313 0.000108412 0.000112672 -6.89342e-05
-0.000743872 0.000220352 0.000224366 -6.46101e-05
-0.000741231 0.000219579 0.000223565 -6.46098e-05
-0.0011071 0.000329675 0.000333184 -5.74165e-05
-0.00109921 0.000327342 0.0003308 -5.74161e-05
-0.000367315 0.000107276 0.000111445 -6.8933e-05
-0.000369981 0.000108033 0.000112263 -6.89338e-05
-0.00110316 0.000328509 0.000331992 -5.74163e-05
-0.000733309 0.000217262 0.000221163 -6.46089e-05
-0.000368648 0.000107654 0.000111854 -6.89334e-05
-0.00073859 0.000218807 0.000222764 -6.46095e-05
-0.00073595 0.000218034 0.000221964 -6.46092e-05
-0.00109921 0.000327342 0.0003308 -5.74161e-05
-0.00109131 0.000325008 0.000328417 -5.74156e-05
-0.00036465 0.000106518 0.000110628 -6.89322e-05
-0.000367315 0.000107276 0.000111445 -6.8933e-05
-0.00109526 0.000326175 0.000329609 -5.74158e-05
-0.000728028 0.000215717 0.000219562 -6.46083e-05
-0.000365982 0.000106897 0.000111037 -6.89326e-05
-0.000733309 0.000217262 0.000221163 -6.46089e-05
-0.000730669 0.000216489 0.000220363 -6.46086e-05
-0.00109131 0.000325008 0.000328417 -5.74156e-05
-0.00108342 0.000322674 0.000326034 -5.74152e-05
-0.000361985 0.00010576 0.000109811 -6.89314e-05
-0.00036465 0.000106518 0.000110628 -6.89322e-05
-0.00108737 0.000323841 0.000327225 -5.74154e-05
-0.000722748 0.000214172 0.000217961 -6.46077e-05
-0.000363317 0.000106139 0.000110219 -6.89318e-05
-0.000728028 0.000215717 0.000219562 -6.46083e-05
-0.000725388 0.000214944 0.000218762 -6.4608e-05
-0.00108342 0.000322674 0.000326034 -5.74152e-05
-0.00107553 0.00032034 0.000323651 -5.74147e-05
-0.00035932 0.000105001 0.000108994 -6.89306e-05
-0.000361985 0.00010576 0.000109811 -6.89314e-05
-0.00107947 0.000321507 0.000324842 -5.74149e-05
-0.000717468 0.000212626 0.000216361 -6.4607e-05
-0.000360652 0.000105381 0.000109402 -6.8931e-05
-0.000722748 0.000214172 0.000217961 -6.46077e-05
-0.000720108 0.000213399 0.000217161 -6.46073e-05
-0.00107553 0.00032034 0.000323651 -5.74147e-05
-0.00106763 0.000318006 0.000321268 -5.74142e-05
-0.000356656 0.000104243 0.000108177 -6.89298e-05
-0.00035932 0.000105001 0.000108994 -6.89306e-05
-0.00107158 0.000319173 0.00032246 -5.74145e-05
-0.000712189 0.00021108 0.000214761 -6.46064e-05
-0.000357988 0.000104622 0.000108585 -6.89302e-05
-0.000717468 0.000212626 0.000216361 -6.4607e-05
-0.000714828 0.000211853 0.000215561 -6.46067e-05
-0.00106763 0.000318006 0.000321268 -5.74142e-05
-0.00105974 0.000315672 0.000318886 -5.74137e-05
-0.000353992 0.000103485 0.000107361 -6.8929e-05
-0.000356656 0.000104243 0.000108177 -6.89298e-05
-0.00106369 0.000316839 0.000320077 -5.7414e-05
-0.000706909 0.000209535 0.000213161 -6.46057e-05
-0.000355324 0.000103864 0.000107769 -6.89294e-05
-0.000712189 0.00021108 0.000214761 -6.46064e-05
-0.000709549 0.000210308 0.000213961 -6.46061e-05
-0.00105974 0.000315672 0.000318886 -5.74137e-05
-0.00105185 0.000313337 0.000316504 -5.74133e-05
-0.000351329 0.000102726 0.000106544 -6.89282e-05
-0.000353992 0.000103485 0.000107361 -6.8929e-05
-0.00105579 0.000314504 0.000317695 -5.74135e-05
-0.000701631 0.000207989 0.000211561 -6.46051e-05
-0.000352661 0.000103105 0.000106952 -6.89286e-05
-0.000706909 0.000209535 0.000213161 -6.46057e-05
-0.00070427 0.000208762 0.000212361 -6.46054e-05
-0.00105185 0.000313337 0.000316504 -5.74133e-05
-0.00104395 0.000311003 0.000314122 -5.74128e-05
-0.000348666 0.000101967 0.000105728 -6.89274e-05
-0.000351329 0.000102726 0.000106544 -6.89282e-05
-0.0010479 0.00031217 0.000315313 -5.7413e-05
-0.000696352 0.000206443 0.000209961 -6.46044e-05
-0.000349997 0.000102346 0.000106136 -6.89278e-05
-0.000701631 0.000207989 0.000211561 -6.46051e-05
-0.000698992 0.000207216 0.000210761 -6.46047e-05
-0.00104395 0.000311003 0.000314122 -5.74128e-05
-0.00103606 0.000308668 0.00031174 -5.74123e-05
-0.000346003 0.000101208 0.000104912 -6.89266e-05
-0.000348666 0.000101967 0.000105728 -6.89274e-05
-0.00104001 0.000309835 0.000312931 -5.74125e-05
-0.000691074 0.000204896 0.000208362 -6.46038e-05
-0.000347335 0.000101587 0.00010532 -6.8927e-05
-0.000696352 0.000206443 0.000209961 -6.46044e-05
-0.000693713 0.00020567 0.000209162 -6.46041e-05
-0.00103606 0.000308668 0.00031174 -5.74123e-05
-0.00102817 0.000306333 0.000309359 -5.74118e-05
-0.000343341 0.000100448 0.000104097 -6.89257e-05
-0.000346003 0.000101208 0.000104912 -6.89266e-05
-0.00103212 0.000307501 0.000310549 -5.74121e-05
-0.000685797 0.00020335 0.000206763 -6.46031e-05
-0.000344672 0.000100828 0.000104505 -6.89262e-05
-0.000691074 0.000204896 0.000208362 -6.46038e-05
-0.000688436 0.000204123 0.000207562 -6.46034e-05
-0.00102817 0.000306333 0.000309359 -5.74118e-05
-0.00102028 0.000303998 0.000306977 -5.74113e-05
-0.000340679 9.96889e-05 0.000103282 -6.89249e-05
-0.000343341 0.000100448 0.000104097 -6.89257e-05
-0.00102422 0.000305166 0.000308168 -5.74116e-05
-0.00068052 0.000201803 0.000205164 -6.46024e-05
-0.00034201 0.000100069 0.000103689 -6.89253e-05
-0.000685797 0.00020335 0.000206763 -6.46031e-05
-0.000683158 0.000202577 0.000205964 -6.46028e-05
-0.00102028 0.000303998 0.000306977 -5.74113e-05
-0.00101239 0.000301663 0.000304596 -5.74108e-05
-0.000338018 9.89292e-05 0.000102467 -6.89241e-05
-0.000340679 9.96889e-05 0.000103282 -6.89249e-05
-0.00101633 0.000302831 0.000305787 -5.74111e-05
-0.000675243 0.000200257 0.000203566 -6.46018e-05
-0.000339349 9.93091e-05 0.000102874 -6.89245e-05
-0.00068052 0.000201803 0.000205164 -6.46024e-05
-0.000677881 0.00020103 0.000204365 -6.46021e-05
-0.00101239 0.000301663 0.000304596 -5.74108e-05
-0.0010045 0.000299328 0.000302215 -5.74103e-05
-0.000335357 9.81694e-05 0.000101652 -6.89232e-05
-0.000338018 9.89292e-05 0.000102467 -6.89241e-05
-0.00100844 0.000300496 0.000303406 -5.74106e-05
-0.000669967 0.00019871 0.000201967 -6.46011e-05
-0.000336687 9.85493e-05 0.000102059 -6.89236e-05
-0.000675243 0.000200257 0.000203566 -6.46018e-05
-0.000672605 0.000199483 0.000202766 -6.46014e-05
-0.0010045 0.000299328 0.000302215 -5.74103e-05
-0.000996608 0.000296993 0.000299835 -5.74098e-05
-0.000332696 9.74093e-05 0.000100837 -6.89224e-05
-0.000335357 9.81694e-05 0.000101652 -6.89232e-05
-0.00100055 0.000298161 0.000301025 -5.74101e-05
-0.000664691 0.000197163 0.000200369 -6.46004e-05
-0.000334026 9.77894e-05 0.000101244 -6.89228e-05
-0.000669967 0.00019871 0.000201967 -6.46011e-05
-0.000667329 0.000197936 0.000201168 -6.46007e-05
-0.000996608 0.000296993 0.000299835 -5.74098e-05
-0.000988718 0.000294658 0.000297455 -5.74093e-05
-0.000330036 9.66491e-05 0.000100023 -6.89215e-05
-0.000332696 9.74093e-05 0.000100837 -6.89224e-05
-0.000992663 0.000295825 0.000298645 -5.74096e-05
-0.000659415 0.000195616 0.000198771 -6.45997e-05
-0.000331366 9.70292e-05 0.00010043 -6.8922e-05
-0.000664691 0.000197163 0.000200369 -6.46004e-05
-0.000662053 0.000196389 0.00019957 -6.46001e-05
-0.000988718 0.000294658 0.000297455 -5.74093e-05
-0.000980829 0.000292322 0.000295074 -5.74088e-05
-0.000327376 9.58887e-05 9.92088e-05 -6.89207e-05
-0.000330036 9.66491e-05 0.000100023 -6.89215e-05
-0.000984773 0.00029349 0.000296264 -5.74091e-05
-0.00065414 0.000194068 0.000197174 -6.4599e-05
-0.000328706 9.62689e-05 9.96158e-05 -6.89211e-05
-0.000659415 0.000195616 0.000198771 -6.45997e-05
-0.000656778 0.000194842 0.000197972 -6.45994e-05
-0.000980829 0.000292322 0.000295074 -5.74088e-05
-0.00097294 0.000289986 0.000292695 -5.74083e-05
-0.000324716 9.5128e-05 9.83949e-05 -6.89198e-05
-0.000327376 9.58887e-05 9.92088e-05 -6.89207e-05
-0.000976885 0.000291154 0.000293884 -5.74086e-05
-0.000648865 0.000192521 0.000195576 -6.45983e-05
-0.000326046 9.55084e-05 9.88018e-05 -6.89203e-05
-0.00065414 0.000194068 0.000197174 -6.4599e-05
-0.000651503 0.000193294 0.000196375 -6.45987e-05
-0.00097294 0.000289986 0.000292695 -5.74083e-05
-0.000965052 0.000287651 0.000290315 -5.74078e-05
-0.000322057 9.43673e-05 9.75813e-05 -6.8919e-05
-0.000324716 9.5128e-05 9.83949e-05 -6.89198e-05
-0.000968996 0.000288819 0.000291505 -5.7408e-05
-0.000643591 0.000190973 0.000193979 -6.45977e-05
-0.000323387 9.47477e-05 9.79881e-05 -6.89194e-05
-0.000648865 0.000192521 0.000195576 -6.45983e-05
-0.000646228 0.000191747 0.000194778 -6.4598e-05
-0.000965052 0.000287651 0.000290315 -5.74078e-05
-0.000957164 0.000285315 0.000287935 -5.74073e-05
-0.000319398 9.36063e-05 9.6768e-05 -6.89181e-05
-0.000322057 9.43673e-05 9.75813e-05 -6.8919e-05
-0.000961108 0.000286483 0.000289125 -5.74075e-05
-0.000638317 0.000189425 0.000192382 -6.4597e-05
-0.000320728 9.39868e-05 9.71746e-05 -6.89185e-05
-0.000643591 0.000190973 0.000193979 -6.45977e-05
-0.000640954 0.000190199 0.000193181 -6.45973e-05
-0.000957164 0.000285315 0.000287935 -5.74073e-05
-0.000949277 0.000282979 0.000285556 -5.74068e-05
-0.00031674 9.28451e-05 9.59549e-05 -6.89173e-05
-0.000319398 9.36063e-05 9.6768e-05 -6.89181e-05
-0.00095322 0.000284147 0.000286746 -5.7407e-05
-0.000633043 0.000187877 0.000190786 -6.45963e-05
-0.000318069 9.32257e-05 9.63614e-05 -6.89177e-05
-0.000638317 0.000189425 0.000192382 -6.4597e-05
-0.00063568 0.000188651 0.000191584 -6.45966e-05
-0.000949277 0.000282979 0.000285556 -5.74068e-05
-0.00094139 0.000280643 0.000283177 -5.74062e-05
-0.000314082 9.20838e-05 9.5142e-05 -6.89164e-05
-0.00031674 9.28451e-05 9.59549e-05 -6.89173e-05
-0.000945333 0.000281811 0.000284367 -5.74065e-05
-0.00062777 0.000186329 0.000189189 -6.45956e-05
-0.000315411 9.24645e-05 9.55484e-05 -6.89168e-05
-0.000633043 0.000187877 0.000190786 -6.45963e-05
-0.000630407 0.000187103 0.000189987 -6.45959e-05
-0.00094139 0.000280643 0.000283177 -5.74062e-05
-0.000933503 0.000278306 0.000280799 -5.74057e-05
-0.000311424 9.13222e-05 9.43293e-05 -6.89155e-05
-0.000314082 9.20838e-05 9.5142e-05 -6.89164e-05
-0.000937446 0.000279474 0.000281988 -5.7406e-05
-0.000622498 0.000184781 0.000187593 -6.45949e-05
-0.000312753 9.1703e-05 9.47356e-05 -6.8916e-05
-0.00062777 0.000186329 0.000189189 -6.45956e-05
-0.000625134 0.000185555 0.000188391 -6.45952e-05
-0.000933503 0.000278306 0.000280799 -5.74057e-05
-0.000925617 0.00027597 0.00027842 -5.74052e-05
-0.000308767 9.05605e-05 9.3517e-05 -6.89147e-05
-0.000311424 9.13222e-05 9.43293e-05 -6.89155e-05
-0.00092956 0.000277138 0.000279609 -5.74055e-05
-0.000617225 0.000183232 0.000185997 -6.45942e-05
-0.000310095 9.09414e-05 9.39231e-05 -6.89151e-05
-0.000622498 0.000184781 0.000187593 -6.45949e-05
-0.000619861 0.000184006 0.000186795 -6.45945e-05
-0.000925617 0.00027597 0.00027842 -5.74052e-05
-0.000917731 0.000273633 0.000276042 -5.74047e-05
-0.00030611 8.97986e-05 9.27048e-05 -6.89138e-05
-0.000308767 9.05605e-05 9.3517e-05 -6.89147e-05
-0.000921674 0.000274802 0.000277231 -5.7405e-05
-0.000611953 0.000181683 0.000184401 -6.45935e-05
-0.000307438 9.01796e-05 9.31109e-05 -6.89142e-05
-0.000617225 0.000183232 0.000185997 -6.45942e-05
-0.000614589 0.000182458 0.000185199 -6.45938e-05
-0.000917731 0.000273633 0.000276042 -5.74047e-05
-0.000909846 0.000271297 0.000273664 -5.74042e-05
-0.000303453 8.90365e-05 9.18929e-05 -6.89129e-05
-0.00030611 8.97986e-05 9.27048e-05 -6.89138e-05
-0.000913788 0.000272465 0.000274853 -5.74044e-05
-0.000606682 0.000180135 0.000182806 -6.45928e-05
-0.000304782 8.94176e-05 9.22988e-05 -6.89134e-05
-0.000611953 0.000181683 0.000184401 -6.45935e-05
-0.000609318 0.000180909 0.000183604 -6.45931e-05
-0.000909846 0.000271297 0.000273664 -5.74042e-05
-0.000901961 0.00026896 0.000271286 -5.74037e-05
-0.000300797 8.82742e-05 9.10812e-05 -6.89121e-05
-0.000303453 8.90365e-05 9.18929e-05 -6.89129e-05
-0.000905903 0.000270128 0.000272475 -5.74039e-05
-0.000601411 0.000178586 0.000181211 -6.45921e-05
-0.000302125 8.86554e-05 9.1487e-05 -6.89125e-05
-0.000606682 0.000180135 0.000182806 -6.45928e-05
-0.000604046 0.00017936 0.000182008 -6.45925e-05
-0.000901961 0.00026896 0.000271286 -5.74037e-05
-0.000894076 0.000266623 0.000268908 -5.74031e-05
-0.000298141 8.75118e-05 9.02698e-05 -6.89112e-05
-0.000300797 8.82742e-05 9.10812e-05 -6.89121e-05
-0.000898018 0.000267792 0.000270097 -5.74034e-05
-0.00059614 0.000177037 0.000179616 -6.45914e-05
-0.000299469 8.7893e-05 9.06755e-05 -6.89116e-05
-0.000601411 0.000178586 0.000181211 -6.45921e-05
-0.000598775 0.000177811 0.000180413 -6.45918e-05
-0.000894076 0.000266623 0.000268908 -5.74031e-05
-0.000886192 0.000264286 0.000266531 -5.74026e-05
-0.000295486 8.67491e-05 8.94586e-05 -6.89104e-05
-0.000298141 8.75118e-05 9.02698e-05 -6.89112e-05
-0.000890134 0.000265455 0.00026772 -5.74029e-05
-0.00059087 0.000175487 0.000178021 -6.45907e-05
-0.000296814 8.71305e-05 8.98642e-05 -6.89108e-05
-0.00059614 0.000177037 0.000179616 -6.45914e-05
-0.000593505 0.000176262 0.000178818 -6.45911e-05
-0.000886192 0.000264286 0.000266531 -5.74026e-05
-0.000878308 0.000261949 0.000264154 -5.74021e-05
-0.000292831 8.59863e-05 8.86477e-05 -6.89095e-05
-0.000295486 8.67491e-05 8.94586e-05 -6.89104e-05
-0.00088225 0.000263118 0.000265342 -5.74024e-05
-0.0005856 0.000173938 0.000176427 -6.459e-05
-0.000294158 8.63678e-05 8.90531e-05 -6.89099e-05
-0.00059087 0.000175487 0.000178021 -6.45907e-05
-0.000588235 0.000174713 0.000177224 -6.45904e-05
-0.000878308 0.000261949 0.000264154 -5.74021e-05
-0.000870425 0.000259612 0.000261777 -5.74016e-05
-0.000290176 8.52233e-05 8.7837e-05 -6.89086e-05
-0.000292831 8.59863e-05 8.86477e-05 -6.89095e-05
-0.000874366 0.00026078 0.000262965 -5.74018e-05
-0.00058033 0.000172388 0.000174832 -6.45893e-05
-0.000291504 8.56048e-05 8.82423e-05 -6.89091e-05
-0.0005856 0.000173938 0.000176427 -6.459e-05
-0.000582965 0.000173163 0.000175629 -6.45897e-05
-0.000870425 0.000259612 0.000261777 -5.74016e-05
-0.000862542 0.000257274 0.0002594 -5.74011e-05
-0.000287522 8.44601e-05 8.70266e-05 -6.89078e-05
-0.000290176 8.52233e-05 8.7837e-05 -6.89086e-05
-0.000866483 0.000258443 0.000260589 -5.74013e-05
-0.000575061 0.000170838 0.000173238 -6.45886e-05
-0.000288849 8.48417e-05 8.74318e-05 -6.89082e-05
-0.00058033 0.000172388 0.000174832 -6.45893e-05
-0.000577696 0.000171613 0.000174035 -6.4589e-05
-0.000862542 0.000257274 0.0002594 -5.74011e-05
-0.00085466 0.000254937 0.000257024 -5.74005e-05
-0.000284868 8.36967e-05 8.62163e-05 -6.89069e-05
-0.000287522 8.44601e-05 8.70266e-05 -6.89078e-05
-0.000858601 0.000256106 0.000258212 -5.74008e-05
-0.000569793 0.000169289 0.000171645 -6.45879e-05
-0.000286195 8.40784e-05 8.66214e-05 -6.89073e-05
-0.000575061 0.000170838 0.000173238 -6.45886e-05
-0.000572427 0.000170064 0.000172441 -6.45883e-05
-0.00085466 0.000254937 0.000257024 -5.74005e-05
-0.000846777 0.000252599 0.000254648 -5.74e-05
-0.000282215 8.29331e-05 8.54064e-05 -6.8906e-05
-0.000284868 8.36967e-05 8.62163e-05 -6.89069e-05
-0.000850718 0.000253768 0.000255836 -5.74003e-05
-0.000564524 0.000167738 0.000170051 -6.45872e-05
-0.000283541 8.3315e-05 8.58113e-05 -6.89065e-05
-0.000569793 0.000169289 0.000171645 -6.45879e-05
-0.000567158 0.000168514 0.000170848 -6.45876e-05
-0.000846777 0.000252599 0.000254648 -5.74e-05
-0.000838896 0.000250262 0.000252272 -5.73995e-05
-0.000279562 8.21694e-05 8.45967e-05 -6.89052e-05
-0.000282215 8.29331e-05 8.54064e-05 -6.8906e-05
-0.000842837 0.00025143 0.00025346 -5.73998e-05
-0.000559256 0.000166188 0.000168458 -6.45865e-05
-0.000280888 8.25513e-05 8.50015e-05 -6.89056e-05
-0.000564524 0.000167738 0.000170051 -6.45872e-05
-0.00056189 0.000166963 0.000169254 -6.45869e-05
-0.000838896 0.000250262 0.000252272 -5.73995e-05
-0.000831015 0.000247924 0.000249896 -5.7399e-05
-0.000276909 8.14054e-05 8.37872e-05 -6.89043e-05
-0.000279562 8.21694e-05 8.45967e-05 -6.89052e-05
-0.000834955 0.000249093 0.000251084 -5.73993e-05
-0.000553989 0.000164638 0.000166865 -6.45858e-05
-0.000278235 8.17874e-05 8.41919e-05 -6.89047e-05
-0.000559256 0.000166188 0.000168458 -6.45865e-05
-0.000556623 0.000165413 0.000167661 -6.45862e-05
-0.000831015 0.000247924 0.000249896 -5.7399e-05
-0.000823134 0.000245586 0.000247521 -5.73985e-05
-0.000274256 8.06413e-05 8.29779e-05 -6.89035e-05
-0.000276909 8.14054e-05 8.37872e-05 -6.89043e-05
-0.000827074 0.000246755 0.000248708 -5.73987e-05
-0.000548722 0.000163087 0.000165272 -6.45852e-05
-0.000275583 8.10234e-05 8.33825e-05 -6.89039e-05
-0.000553989 0.000164638 0.000166865 -6.45858e-05
-0.000551355 0.000163863 0.000166068 -6.45855e-05
-0.000823134 0.000245586 0.000247521 -5.73985e-05
-0.000815253 0.000243248 0.000245145 -5.7398e-05
-0.000271605 7.9877e-05 8.21689e-05 -6.89026e-05
-0.000274256 8.06413e-05 8.29779e-05 -6.89035e-05
-0.000819194 0.000244417 0.000246333 -5.73982e-05
-0.000543455 0.000161537 0.000163679 -6.45845e-05
-0.00027293 8.02592e-05 8.25734e-05 -6.8903e-05
-0.000548722 0.000163087 0.000165272 -6.45852e-05
-0.000546088 0.000162312 0.000164476 -6.45848e-05
-0.000815253 0.000243248 0.000245145 -5.7398e-05
-0.000807373 0.000240909 0.00024277 -5.73975e-05
-0.000268953 7.91125e-05 8.13602e-05 -6.89018e-05
-0.000271605 7.9877e-05 8.21689e-05 -6.89026e-05
-0.000811313 0.000242078 0.000243958 -5.73977e-05
-0.000538189 0.000159986 0.000162087 -6.45838e-05
-0.000270279 7.94948e-05 8.17645e-05 -6.89022e-05
-0.000543455 0.000161537 0.000163679 -6.45845e-05
-0.000540822 0.000160761 0.000162883 -6.45841e-05
-0.000807373 0.000240909 0.00024277 -5.73975e-05
-0.000799494 0.000238571 0.000240396 -5.7397e-05
-0.000266302 7.83478e-05 8.05517e-05 -6.89009e-05
-0.000268953 7.91125e-05 8.13602e-05 -6.89018e-05
-0.000803434 0.00023974 0.000241583 -5.73972e-05
-0.000532923 0.000158435 0.000160495 -6.45831e-05
-0.000267627 7.87302e-05 8.09559e-05 -6.89013e-05
-0.000538189 0.000159986 0.000162087 -6.45838e-05
-0.000535556 0.00015921 0.000161291 -6.45834e-05
-0.000799494 0.000238571 0.000240396 -5.7397e-05
-0.000791615 0.000236233 0.000238021 -5.73965e-05
-0.000263651 7.7583e-05 7.97434e-05 -6.89001e-05
-0.000266302 7.83478e-05 8.05517e-05 -6.89009e-05
-0.000795554 0.000237402 0.000239208 -5.73967e-05
-0.000527657 0.000156883 0.000158903 -6.45824e-05
-0.000264976 7.79654e-05 8.01475e-05 -6.89005e-05
-0.000532923 0.000158435 0.000160495 -6.45831e-05
-0.00053029 0.000157659 0.000159699 -6.45828e-05
-0.000791615 0.000236233 0.000238021 -5.73965e-05
-0.000783736 0.000233894 0.000235647 -5.73959e-05
-0.000261 7.68179e-05 7.89354e-05 -6.88992e-05
-0.000263651 7.7583e-05 7.97434e-05 -6.89001e-05
-0.000787675 0.000235063 0.000236834 -5.73962e-05
-0.000522392 0.000155332 0.000157312 -6.45817e-05
-0.000262326 7.72005e-05 7.93393e-05 -6.88996e-05
-0.000527657 0.000156883 0.000158903 -6.45824e-05
-0.000525025 0.000156108 0.000158107 -6.45821e-05
-0.000783736 0.000233894 0.000235647 -5.73959e-05
-0.000775858 0.000231555 0.000233273 -5.73954e-05
-0.00025835 7.60527e-05 7.81276e-05 -6.88984e-05
-0.000261 7.68179e-05 7.89354e-05 -6.88992e-05
-0.000779797 0.000232725 0.00023446 -5.73957e-05
-0.000517128 0.000153781 0.00015572 -6.45811e-05
-0.000259675 7.64353e-05 7.85314e-05 -6.88988e-05
-0.000522392 0.000155332 0.000157312 -6.45817e-05
-0.00051976 0.000154556 0.000156516 -6.45814e-05
-0.000775858 0.000231555 0.000233273 -5.73954e-05
-0.00076798 0.000229216 0.000230899 -5.7395e-05
-0.000255701 7.52872e-05 7.732e-05 -6.88975e-05
-0.00025835 7.60527e-05 7.81276e-05 -6.88984e-05
-0.000771919 0.000230386 0.000232086 -5.73952e-05
-0.000511863 0.000152229 0.000154129 -6.45804e-05
-0.000257025 7.567e-05 7.77238e-05 -6.88979e-05
-0.000517128 0.000153781 0.00015572 -6.45811e-05
-0.000514496 0.000153005 0.000154925 -6.45807e-05
-0.00076798 0.000229216 0.000230899 -5.7395e-05
-0.000760102 0.000226877 0.000228525 -5.73945e-05
-0.000253051 7.45216e-05 7.65127e-05 -6.88967e-05
-0.000255701 7.52872e-05 7.732e-05 -6.88975e-05
-0.000764041 0.000228047 0.000229712 -5.73947e-05
-0.0005066 0.000150677 0.000152538 -6.45797e-05
-0.000254376 7.49045e-05 7.69163e-05 -6.88971e-05
-0.000511863 0.000152229 0.000154129 -6.45804e-05
-0.000509231 0.000151453 0.000153334 -6.458e-05
-0.000760102 0.000226877 0.000228525 -5.73945e-05
-0.000752225 0.000224538 0.000226152 -5.7394e-05
-0.000250402 7.37558e-05 7.57057e-05 -6.88959e-05
-0.000253051 7.45216e-05 7.65127e-05 -6.88967e-05
-0.000756164 0.000225708 0.000227338 -5.73942e-05
-0.000501336 0.000149125 0.000150948 -6.4579e-05
-0.000251727 7.41388e-05 7.61092e-05 -6.88963e-05
-0.0005066 0.000150677 0.000152538 -6.45797e-05
-0.000503968 0.000149901 0.000151743 -6.45794e-05
-0.000752225 0.000224538 0.000226152 -5.7394e-05
-0.000744349 0.000222199 0.000223778 -5.73935e-05
-0.000247754 7.29898e-05 7.48988e-05 -6.8895e-05
-0.000250402 7.37558e-05 7.57057e-05 -6.88959e-05
-0.000748287 0.000223369 0.000224965 -5.73937e-05
-0.000496073 0.000147573 0.000149357 -6.45784e-05
-0.000249078 7.33729e-05 7.53022e-05 -6.88955e-05
-0.000501336 0.000149125 0.000150948 -6.4579e-05
-0.000498705 0.000148349 0.000150152 -6.45787e-05
-0.000744349 0.000222199 0.000223778 -5.73935e-05
-0.000736472 0.00021986 0.000221406 -5.7393e-05
-0.000245106 7.22237e-05 7.40923e-05 -6.88942e-05
-0.000247754 7.29898e-05 7.48988e-05 -6.8895e-05
-0.000740411 0.000221029 0.000222592 -5.73932e-05
-0.00049081 0.000146021 0.000147767 -6.45777e-05
-0.00024643 7.26068e-05 7.44955e-05 -6.88946e-05
-0.000496073 0.000147573 0.000149357 -6.45784e-05
-0.000493442 0.000146797 0.000148562 -6.45781e-05
-0.000736472 0.00021986 0.000221406 -5.7393e-05
-0.000728597 0.00021752 0.000219033 -5.73925e-05
-0.000242458 7.14573e-05 7.32859e-05 -6.88934e-05
-0.000245106 7.22237e-05 7.40923e-05 -6.88942e-05
-0.000732534 0.00021869 0.000220219 -5.73927e-05
-0.000485548 0.000144468 0.000146177 -6.45771e-05
-0.000243782 7.18405e-05 7.36891e-05 -6.88938e-05
-0.00049081 0.000146021 0.000147767 -6.45777e-05
-0.000488179 0.000145244 0.000146972 -6.45774e-05
-0.000728597 0.00021752 0.000219033 -5.73925e-05
-0.000720721 0.00021518 0.00021666 -5.7392e-05
-0.00023981 7.06908e-05 7.24798e-05 -6.88926e-05
-0.000242458 7.14573e-05 7.32859e-05 -6.88934e-05
-0.000724659 0.00021635 0.000217847 -5.73923e-05
-0.000480286 0.000142916 0.000144587 -6.45764e-05
-0.000241134 7.10741e-05 7.28828e-05 -6.8893e-05
-0.000485548 0.000144468 0.000146177 -6.45771e-05
-0.000482917 0.000143692 0.000145382 -6.45767e-05
-0.000720721 0.00021518 0.00021666 -5.7392e-05
-0.000712846 0.000212841 0.000214288 -5.73916e-05
-0.000237163 6.99241e-05 7.1674e-05 -6.88918e-05
-0.00023981 7.06908e-05 7.24798e-05 -6.88926e-05
-0.000716784 0.000214011 0.000215474 -5.73918e-05
-0.000475025 0.000141363 0.000142998 -6.45758e-05
-0.000238487 7.03074e-05 7.20769e-05 -6.88922e-05
-0.000480286 0.000142916 0.000144587 -6.45764e-05
-0.000477655 0.000142139 0.000143793 -6.45761e-05
-0.000712846 0.000212841 0.000214288 -5.73916e-05
-0.000704972 0.000210501 0.000211916 -5.73911e-05
-0.000234517 6.91571e-05 7.08684e-05 -6.8891e-05
-0.000237163 6.99241e-05 7.1674e-05 -6.88918e-05
-0.000708909 0.000211671 0.000213102 -5.73913e-05
-0.000469764 0.00013981 0.000141409 -6.45751e-05
-0.00023584 6.95406e-05 7.12711e-05 -6.88914e-05
-0.000475025 0.000141363 0.000142998 -6.45758e-05
-0.000472394 0.000140586 0.000142203 -6.45755e-05
-0.000704972 0.000210501 0.000211916 -5.73911e-05
-0.000697097 0.000208161 0.000209544 -5.73906e-05
-0.00023187 6.839e-05 7.0063e-05 -6.88902e-05
-0.000234517 6.91571e-05 7.08684e-05 -6.8891e-05
-0.000701034 0.000209331 0.00021073 -5.73909e-05
-0.000464503 0.000138257 0.00013982 -6.45745e-05
-0.000233193 6.87736e-05 7.04656e-05 -6.88906e-05
-0.000469764 0.00013981 0.000141409 -6.45751e-05
-0.000467133 0.000139033 0.000140614 -6.45748e-05
-0.000697097 0.000208161 0.000209544 -5.73906e-05
-0.000689224 0.000205821 0.000207173 -5.73902e-05
-0.000229224 6.76228e-05 6.92579e-05 -6.88894e-05
-0.00023187 6.839e-05 7.0063e-05 -6.88902e-05
-0.00069316 0.000206991 0.000208358 -5.73904e-05
-0.000459243 0.000136703 0.000138231 -6.45739e-05
-0.000230547 6.80064e-05 6.96604e-05 -6.88898e-05
-0.000464503 0.000138257 0.00013982 -6.45745e-05
-0.000461873 0.00013748 0.000139026 -6.45742e-05
-0.000689224 0.000205821 0.000207173 -5.73902e-05
-0.00068135 0.000203481 0.000204801 -5.73897e-05
-0.000226579 6.68553e-05 6.8453e-05 -6.88886e-05
-0.000229224 6.76228e-05 6.92579e-05 -6.88894e-05
-0.000685287 0.000204651 0.000205987 -5.73899e-05
-0.000453983 0.00013515 0.000136643 -6.45732e-05
-0.000227902 6.7239e-05 6.88554e-05 -6.8889e-05
-0.000459243 0.000136703 0.000138231 -6.45739e-05
-0.000456613 0.000135927 0.000137437 -6.45735e-05
-0.00068135 0.000203481 0.000204801 -5.73897e-05
-0.000673477 0.00020114 0.00020243 -5.73892e-05
-0.000223934 6.60876e-05 6.76483e-05 -6.88878e-05
-0.000226579 6.68553e-05 6.8453e-05 -6.88886e-05
-0.000677414 0.00020231 0.000203616 -5.73895e-05
-0.000448723 0.000133596 0.000135054 -6.45726e-05
-0.000225256 6.64715e-05 6.80506e-05 -6.88882e-05
-0.000453983 0.00013515 0.000136643 -6.45732e-05
-0.000451353 0.000134373 0.000135849 -6.45729e-05
-0.000673477 0.00020114 0.00020243 -5.73892e-05
-0.000665605 0.0001988 0.000200059 -5.73888e-05
-0.000221289 6.53198e-05 6.68439e-05 -6.8887e-05
-0.000223934 6.60876e-05 6.76483e-05 -6.88878e-05
-0.000669541 0.00019997 0.000201245 -5.7389e-05
-0.000443464 0.000132043 0.000133466 -6.4572e-05
-0.000222611 6.57037e-05 6.72461e-05 -6.88874e-05
-0.000448723 0.000133596 0.000135054 -6.45726e-05
-0.000446094 0.000132819 0.00013426 -6.45723e-05
-0.000665605 0.0001988 0.000200059 -5.73888e-05
-0.000657733 0.000196459 0.000197689 -5.73884e-05
-0.000218645 6.45518e-05 6.60398e-05 -6.88862e-05
-0.000221289 6.53198e-05 6.68439e-05 -6.8887e-05
-0.000661669 0.000197629 0.000198874 -5.73886e-05
-0.000438206 0.000130489 0.000131879 -6.45714e-05
-0.000219967 6.49358e-05 6.64418e-05 -6.88866e-05
-0.000443464 0.000132043 0.000133466 -6.4572e-05
-0.000440835 0.000131266 0.000132673 -6.45717e-05
-0.000657733 0.000196459 0.000197689 -5.73884e-05
-0.000649861 0.000194118 0.000195318 -5.73879e-05
-0.000216001 6.37835e-05 6.52358e-05 -6.88855e-05
-0.000218645 6.45518e-05 6.60398e-05 -6.88862e-05
-0.000653797 0.000195289 0.000196503 -5.73881e-05
-0.000432947 0.000128935 0.000130291 -6.45708e-05
-0.000217322 6.41677e-05 6.56378e-05 -6.88859e-05
-0.000438206 0.000130489 0.000131879 -6.45714e-05
-0.000435577 0.000129712 0.000131085 -6.45711e-05
-0.000649861 0.000194118 0.000195318 -5.73879e-05
-0.00064199 0.000191777 0.000192948 -5.73875e-05
-0.000213357 6.30151e-05 6.44322e-05 -6.88847e-05
-0.000216001 6.37835e-05 6.52358e-05 -6.88855e-05
-0.000645925 0.000192948 0.000194133 -5.73877e-05
-0.00042769 0.00012738 0.000128704 -6.45702e-05
-0.000214679 6.33994e-05 6.4834e-05 -6.88851e-05
-0.000432947 0.000128935 0.000130291 -6.45708e-05
-0.000430318 0.000128157 0.000129498 -6.45705e-05
-0.00064199 0.000191777 0.000192948 -5.73875e-05
-0.000634119 0.000189436 0.000190578 -5.73871e-05
-0.000210714 6.22465e-05 6.36287e-05 -6.8884e-05
-0.000213357 6.30151e-05 6.44322e-05 -6.88847e-05
-0.000638054 0.000190607 0.000191763 -5.73873e-05
-0.000422432 0.000125826 0.000127117 -6.45696e-05
-0.000212035 6.26309e-05 6.40304e-05 -6.88843e-05
-0.00042769 0.00012738 0.000128704 -6.45702e-05
-0.000425061 0.000126603 0.00012791 -6.45699e-05
-0.000634119 0.000189436 0.000190578 -5.73871e-05
-0.000626248 0.000187095 0.000188208 -5.73866e-05
-0.000208071 6.14778e-05 6.28255e-05 -6.88832e-05
-0.000210714 6.22465e-05 6.36287e-05 -6.8884e-05
-0.000630183 0.000188266 0.000189393 -5.73868e-05
-0.000417175 0.000124271 0.00012553 -6.4569e-05
-0.000209392 6.18622e-05 6.32271e-05 -6.88836e-05
-0.000422432 0.000125826 0.000127117 -6.45696e-05
-0.000419803 0.000125049 0.000126323 -6.45693e-05
-0.000626248 0.000187095 0.000188208 -5.73866e-05
-0.000618378 0.000184754 0.000185839 -5.73862e-05
-0.000205428 6.07088e-05 6.20226e-05 -6.88825e-05
-0.000208071 6.14778e-05 6.28255e-05 -6.88832e-05
-0.000622313 0.000185925 0.000187024 -5.73864e-05
-0.000411918 0.000122717 0.000123944 -6.45684e-05
-0.000206749 6.10933e-05 6.2424e-05 -6.88828e-05
-0.000417175 0.000124271 0.00012553 -6.4569e-05
-0.000414547 0.000123494 0.000124737 -6.45687e-05
-0.000618378 0.000184754 0.000185839 -5.73862e-05
-0.000610508 0.000182413 0.00018347 -5.73858e-05
-0.000202786 5.99397e-05 6.12199e-05 -6.88817e-05
-0.000205428 6.07088e-05 6.20226e-05 -6.88825e-05
-0.000614443 0.000183583 0.000184654 -5.7386e-05
-0.000406662 0.000121162 0.000122357 -6.45678e-05
-0.000204107 6.03243e-05 6.16212e-05 -6.88821e-05
-0.000411918 0.000122717 0.000123944 -6.45684e-05
-0.00040929 0.000121939 0.00012315 -6.45681e-05
-0.000610508 0.000182413 0.00018347 -5.73858e-05
-0.000602639 0.000180071 0.000181101 -5.73854e-05
-0.000200144 5.91703e-05 6.04174e-05 -6.8881e-05
-0.000202786 5.99397e-05 6.12199e-05 -6.88817e-05
-0.000606574 0.000181242 0.000182285 -5.73856e-05
-0.000401406 0.000119607 0.000120771 -6.45673e-05
-0.000201465 5.9555e-05 6.08186e-05 -6.88814e-05
-0.000406662 0.000121162 0.000122357 -6.45678e-05
-0.000404034 0.000120384 0.000121564 -6.45675e-05
-0.000602639 0.000180071 0.000181101 -5.73854e-05
-0.00059477 0.000177729 0.000178732 -5.7385e-05
-0.000197503 5.84008e-05 5.96151e-05 -6.88803e-05
-0.000200144 5.91703e-05 6.04174e-05 -6.8881e-05
-0.000598704 0.0001789 0.000179916 -5.73852e-05
-0.00039615 0.000118051 0.000119185 -6.45667e-05
-0.000198823 5.87856e-05 6.00162e-05 -6.88806e-05
-0.000401406 0.000119607 0.000120771 -6.45673e-05
-0.000398778 0.000118829 0.000119978 -6.4567e-05
-0.00059477 0.000177729 0.000178732 -5.7385e-05
-0.000586902 0.000175388 0.000176363 -5.73846e-05
-0.000194862 5.76311e-05 5.88132e-05 -6.88796e-05
-0.000197503 5.84008e-05 5.96151e-05 -6.88803e-05
-0.000590836 0.000176558 0.000177547 -5.73848e-05
-0.000390895 0.000116496 0.0001176 -6.45661e-05
-0.000196182 5.8016e-05 5.92141e-05 -6.88799e-05
-0.00039615 0.000118051 0.000119185 -6.45667e-05
-0.000393523 0.000117274 0.000118392 -6.45664e-05
-0.000586902 0.000175388 0.000176363 -5.73846e-05
-0.000579033 0.000173046 0.000173995 -5.73842e-05
-0.000192221 5.68612e-05 5.80114e-05 -6.88789e-05
-0.000194862 5.76311e-05 5.88132e-05 -6.88796e-05
-0.000582967 0.000174217 0.000175179 -5.73844e-05
-0.000385641 0.00011494 0.000116014 -6.45656e-05
-0.000193541 5.72462e-05 5.84122e-05 -6.88792e-05
-0.000390895 0.000116496 0.0001176 -6.45661e-05
-0.000388268 0.000115718 0.000116807 -6.45659e-05
-0.000579033 0.000173046 0.000173995 -5.73842e-05
-0.000571166 0.000170704 0.000171627 -5.73838e-05
-0.000189581 5.60911e-05 5.72099e-05 -6.88782e-05
-0.000192221 5.68612e-05 5.80114e-05 -6.88789e-05
-0.0005751 0.000171875 0.000172811 -5.7384e-05
-0.000380386 0.000113385 0.000114429 -6.4565e-05
-0.000190901 5.64762e-05 5.76106e-05 -6.88785e-05
-0.000385641 0.00011494 0.000116014 -6.45656e-05
-0.000383013 0.000114163 0.000115222 -6.45653e-05
-0.000571166 0.000170704 0.000171627 -5.73838e-05
-0.000563298 0.000168361 0.000169259 -5.73835e-05
-0.000186941 5.53208e-05 5.64086e-05 -6.88775e-05
-0.000189581 5.60911e-05 5.72099e-05 -6.88782e-05
-0.000567232 0.000169533 0.000170443 -5.73836e-05
-0.000375132 0.000111829 0.000112844 -6.45645e-05
-0.000188261 5.5706e-05 5.68092e-05 -6.88778e-05
-0.000380386 0.000113385 0.000114429 -6.4565e-05
-0.000377759 0.000112607 0.000113637 -6.45648e-05
-0.000563298 0.000168361 0.000169259 -5.73835e-05
-0.000555431 0.000166019 0.000166891 -5.73831e-05
-0.000184301 5.45504e-05 5.56076e-05 -6.88768e-05
-0.000186941 5.53208e-05 5.64086e-05 -6.88775e-05
-0.000559365 0.00016719 0.000168075 -5.73833e-05
-0.000369879 0.000110273 0.00011126 -6.4564e-05
-0.000185621 5.49356e-05 5.60081e-05 -6.88771e-05
-0.000375132 0.000111829 0.000112844 -6.45645e-05
-0.000372505 0.000111051 0.000112052 -6.45642e-05
-0.000555431 0.000166019 0.000166891 -5.73831e-05
-0.000547565 0.000163677 0.000164524 -5.73827e-05
-0.000181662 5.37797e-05 5.48068e-05 -6.88761e-05
-0.000184301 5.45504e-05 5.56076e-05 -6.88768e-05
-0.000551498 0.000164848 0.000165707 -5.73829e-05
-0.000364626 0.000108717 0.000109675 -6.45635e-05
-0.000182982 5.4165e-05 5.52072e-05 -6.88764e-05
-0.000369879 0.000110273 0.00011126 -6.4564e-05
-0.000367252 0.000109495 0.000110467 -6.45637e-05
-0.000547565 0.000163677 0.000164524 -5.73827e-05
-0.000539699 0.000161334 0.000162156 -5.73824e-05
-0.000179023 5.30089e-05 5.40062e-05 -6.88754e-05
-0.000181662 5.37797e-05 5.48068e-05 -6.88761e-05
-0.000543632 0.000162505 0.00016334 -5.73825e-05
-0.000359373 0.00010716 0.000108091 -6.45629e-05
-0.000180343 5.33943e-05 5.44065e-05 -6.88758e-05
-0.000364626 0.000108717 0.000109675 -6.45635e-05
-0.000361999 0.000107938 0.000108883 -6.45632e-05
-0.000539699 0.000161334 0.000162156 -5.73824e-05
-0.000531833 0.000158991 0.000159789 -5.7382e-05
-0.000176385 5.22378e-05 5.32059e-05 -6.88748e-05
-0.000179023 5.30089e-05 5.40062e-05 -6.88754e-05
-0.000535766 0.000160163 0.000160973 -5.73822e-05
-0.00035412 0.000105604 0.000106507 -6.45624e-05
-0.000177704 5.26234e-05 5.36061e-05 -6.88751e-05
-0.000359373 0.00010716 0.000108091 -6.45629e-05
-0.000356746 0.000106382 0.000107299 -6.45627e-05
-0.000531833 0.000158991 0.000159789 -5.7382e-05
-0.000523968 0.000156649 0.000157422 -5.73817e-05
-0.000173747 5.14666e-05 5.24059e-05 -6.88741e-05
-0.000176385 5.22378e-05 5.32059e-05 -6.88748e-05
-0.0005279 0.00015782 0.000158606 -5.73818e-05
-0.000348868 0.000104047 0.000104923 -6.45619e-05
-0.000175066 5.18523e-05 5.28059e-05 -6.88745e-05
-0.00035412 0.000105604 0.000106507 -6.45624e-05
-0.000351494 0.000104825 0.000105715 -6.45622e-05
-0.000523968 0.000156649 0.000157422 -5.73817e-05
-0.000516103 0.000154306 0.000155056 -5.73813e-05
-0.000171109 5.06952e-05 5.1606e-05 -6.88735e-05
-0.000173747 5.14666e-05 5.24059e-05 -6.88741e-05
-0.000520035 0.000155477 0.000156239 -5.73815e-05
-0.000343617 0.00010249 0.00010334 -6.45615e-05
-0.000172428 5.10809e-05 5.20059e-05 -6.88738e-05
-0.000348868 0.000104047 0.000104923 -6.45619e-05
-0.000346242 0.000103269 0.000104132 -6.45617e-05
-0.000516103 0.000154306 0.000155056 -5.73813e-05
-0.000508238 0.000151963 0.00015269 -5.7381e-05
-0.000168472 4.99236e-05 5.08064e-05 -6.88728e-05
-0.000171109 5.06952e-05 5.1606e-05 -6.88735e-05
-0.00051217 0.000153134 0.000153873 -5.73812e-05
-0.000338365 0.000100933 0.000101757 -6.4561e-05
-0.000169791 5.03094e-05 5.12062e-05 -6.88732e-05
-0.000343617 0.00010249 0.00010334 -6.45615e-05
-0.000340991 0.000101712 0.000102548 -6.45612e-05
-0.000508238 0.000151963 0.00015269 -5.7381e-05
-0.000500374 0.000149619 0.000150323 -5.73807e-05
-0.000165835 4.91519e-05 5.00071e-05 -6.88722e-05
-0.000168472 4.99236e-05 5.08064e-05 -6.88728e-05
-0.000504306 0.000150791 0.000151506 -5.73809e-05
-0.000333115 9.93759e-05 0.000100174 -6.45605e-05
-0.000167153 4.95378e-05 5.04067e-05 -6.88725e-05
-0.000338365 0.000100933 0.000101757 -6.4561e-05
-0.00033574 0.000100154 0.000100965 -6.45607e-05
-0.000500374 0.000149619 0.000150323 -5.73807e-05
-0.00049251 0.000147276 0.000147958 -5.73804e-05
-0.000163199 4.83799e-05 4.9208e-05 -6.88716e-05
-0.000165835 4.91519e-05 5.00071e-05 -6.88722e-05
-0.000496442 0.000148448 0.00014914 -5.73805e-05
-0.000327864 9.78185e-05 9.8591e-05 -6.456e-05
-0.000164517 4.87659e-05 4.96075e-05 -6.88719e-05
-0.000333115 9.93759e-05 0.000100174 -6.45605e-05
-0.000330489 9.85972e-05 9.93823e-05 -6.45603e-05
-0.00049251 0.000147276 0.000147958 -5.73804e-05
-0.000484647 0.000144932 0.000145592 -5.73801e-05
-0.000160562 4.76077e-05 4.84091e-05 -6.8871e-05
-0.000163199 4.83799e-05 4.9208e-05 -6.88716e-05
-0.000488579 0.000146104 0.000146775 -5.73802e-05
-0.000322614 9.6261e-05 9.70084e-05 -6.45596e-05
-0.00016188 4.79938e-05 4.88085e-05 -6.88713e-05
-0.000327864 9.78185e-05 9.8591e-05 -6.456e-05
-0.000325239 9.70398e-05 9.77997e-05 -6.45598e-05
-0.000484647 0.000144932 0.000145592 -5.73801e-05
-0.000476784 0.000142589 0.000143226 -5.73798e-05
-0.000157926 4.68354e-05 4.76105e-05 -6.88704e-05
-0.000160562 4.76077e-05 4.84091e-05 -6.8871e-05
-0.000480715 0.000143761 0.000144409 -5.73799e-05
-0.000317364 9.47033e-05 9.54261e-05 -6.45591e-05
-0.000159244 4.72216e-05 4.80098e-05 -6.88707e-05
-0.000322614 9.6261e-05 9.70084e-05 -6.45596e-05
-0.000319989 9.54822e-05 9.62173e-05 -6.45594e-05
-0.000476784 0.000142589 0.000143226 -5.73798e-05
-0.000468921 0.000140245 0.000140861 -5.73795e-05
-0.000155291 4.60629e-05 4.68121e-05 -6.88698e-05
-0.000157926 4.68354e-05 4.76105e-05 -6.88704e-05
-0.000472852 0.000141417 0.000142044 -5.73796e-05
-0.000312115 9.31454e-05 9.38441e-05 -6.45587e-05
-0.000156609 4.64491e-05 4.72112e-05 -6.88701e-05
-0.000317364 9.47033e-05 9.54261e-05 -6.45591e-05
-0.00031474 9.39244e-05 9.46351e-05 -6.45589e-05
-0.000468921 0.000140245 0.000140861 -5.73795e-05
-0.000461059 0.000137901 0.000138496 -5.73792e-05
-0.000152656 4.52901e-05 4.60139e-05 -6.88692e-05
-0.000155291 4.60629e-05 4.68121e-05 -6.88698e-05
-0.00046499 0.000139073 0.000139679 -5.73793e-05
-0.000306866 9.15874e-05 9.22623e-05 -6.45583e-05
-0.000153973 4.56765e-05 4.6413e-05 -6.88695e-05
-0.000312115 9.31454e-05 9.38441e-05 -6.45587e-05
-0.00030949 9.23664e-05 9.30531e-05 -6.45585e-05
-0.000461059 0.000137901 0.000138496 -5.73792e-05
-0.000453197 0.000135557 0.000136131 -5.73789e-05
-0.000150021 4.45172e-05 4.5216e-05 -6.88687e-05
-0.000152656 4.52901e-05 4.60139e-05 -6.88692e-05
-0.000457128 0.000136729 0.000137314 -5.73791e-05
-0.000301617 9.00292e-05 9.06807e-05 -6.45578e-05
-0.000151339 4.49037e-05 4.56149e-05 -6.88689e-05
-0.000306866 9.15874e-05 9.22623e-05 -6.45583e-05
-0.000304242 9.08083e-05 9.14714e-05 -6.4558e-05
-0.000453197 0.000135557 0.000136131 -5.73789e-05
-0.000445336 0.000133213 0.000133767 -5.73787e-05
-0.000147387 4.37441e-05 4.44183e-05 -6.88681e-05
-0.000150021 4.45172e-05 4.5216e-05 -6.88687e-05
-0.000449266 0.000134385 0.000134949 -5.73788e-05
-0.000296369 8.84709e-05 8.90993e-05 -6.45574e-05
-0.000148704 4.41307e-05 4.48171e-05 -6.88684e-05
-0.000301617 9.00292e-05 9.06807e-05 -6.45578e-05
-0.000298993 8.92501e-05 8.989e-05 -6.45576e-05
-0.000445336 0.000133213 0.000133767 -5.73787e-05
-0.000437475 0.000130869 0.000131403 -5.73784e-05
-0.000144753 4.29708e-05 4.36209e-05 -6.88675e-05
-0.000147387 4.37441e-05 4.44183e-05 -6.88681e-05
-0.000441405 0.000132041 0.000132585 -5.73785e-05
-0.000291121 8.69123e-05 8.75182e-05 -6.4557e-05
-0.00014607 4.33575e-05 4.40196e-05 -6.88678e-05
-0.000296369 8.84709e-05 8.90993e-05 -6.45574e-05
-0.000293745 8.76916e-05 8.83087e-05 -6.45572e-05
-0.000437475 0.000130869 0.000131403 -5.73784e-05
-0.000429614 0.000128524 0.000129038 -5.73781e-05
-0.000142119 4.21974e-05 4.28237e-05 -6.8867e-05
-0.000144753 4.29708e-05 4.36209e-05 -6.88675e-05
-0.000433544 0.000129696 0.00013022 -5.73783e-05
-0.000285874 8.53537e-05 8.59373e-05 -6.45566e-05
-0.000143436 4.25841e-05 4.32223e-05 -6.88673e-05
-0.000291121 8.69123e-05 8.75182e-05 -6.4557e-05
-0.000288498 8.6133e-05 8.67277e-05 -6.45568e-05
-0.000429614 0.000128524 0.000129038 -5.73781e-05
-0.000421754 0.00012618 0.000126675 -5.73779e-05
-0.000139486 4.14237e-05 4.20267e-05 -6.88665e-05
-0.000142119 4.21974e-05 4.28237e-05 -6.8867e-05
-0.000425684 0.000127352 0.000127856 -5.7378e-05
-0.000280627 8.37948e-05 8.43567e-05 -6.45562e-05
-0.000140803 4.18105e-05 4.24252e-05 -6.88667e-05
-0.000285874 8.53537e-05 8.59373e-05 -6.45566e-05
-0.00028325 8.45742e-05 8.51469e-05 -6.45564e-05
-0.000421754 0.00012618 0.000126675 -5.73779e-05
-0.000413894 0.000123835 0.000124311 -5.73777e-05
-0.000136853 4.06498e-05 4.123e-05 -6.8866e-05
-0.000139486 4.14237e-05 4.20267e-05 -6.88665e-05
-0.000417824 0.000125007 0.000125493 -5.73778e-05
-0.00027538 8.22358e-05 8.27762e-05 -6.45559e-05
-0.00013817 4.10368e-05 4.16283e-05 -6.88662e-05
-0.000280627 8.37948e-05 8.43567e-05 -6.45562e-05
-0.000278004 8.30153e-05 8.35664e-05 -6.4556e-05
-0.000413894 0.000123835 0.000124311 -5.73777e-05
-0.000406034 0.00012149 0.000121947 -5.73774e-05
-0.000134221 3.98758e-05 4.04335e-05 -6.88654e-05
-0.000136853 4.06498e-05 4.123e-05 -6.8866e-05
-0.000409964 0.000122663 0.000123129 -5.73776e-05
-0.000270134 8.06766e-05 8.1196e-05 -6.45555e-05
-0.000135537 4.02628e-05 4.08317e-05 -6.88657e-05
-0.00027538 8.22358e-05 8.27762e-05 -6.45559e-05
-0.000272757 8.14562e-05 8.19861e-05 -6.45557e-05
-0.000406034 0.00012149 0.000121947 -5.73774e-05
-0.000398175 0.000119145 0.000119584 -5.73772e-05
-0.000131589 3.91015e-05 3.96373e-05 -6.88649e-05
-0.000134221 3.98758e-05 4.04335e-05 -6.88654e-05
-0.000402104 0.000120318 0.000120766 -5.73773e-05
-0.000264888 7.91172e-05 7.96161e-05 -6.45551e-05
-0.000132905 3.94887e-05 4.00354e-05 -6.88652e-05
-0.000270134 8.06766e-05 8.1196e-05 -6.45555e-05
-0.000267511 7.98969e-05 8.0406e-05 -6.45553e-05
-0.000398175 0.000119145 0.000119584 -5.73772e-05
-0.000390316 0.0001168 0.000117221 -5.7377e-05
-0.000128957 3.83271e-05 3.88413e-05 -6.88645e-05
-0.000131589 3.91015e-05 3.96373e-05 -6.88649e-05
-0.000394245 0.000117973 0.000118403 -5.73771e-05
-0.000259643 7.75577e-05 7.80364e-05 -6.45548e-05
-0.000130273 3.87144e-05 3.92393e-05 -6.88647e-05
-0.000264888 7.91172e-05 7.96161e-05 -6.45551e-05
-0.000262265 7.83375e-05 7.88262e-05 -6.4555e-05
-0.000390316 0.0001168 0.000117221 -5.7377e-05
-0.000382458 0.000114455 0.000114858 -5.73768e-05
-0.000126325 3.75525e-05 3.80455e-05 -6.8864e-05
-0.000128957 3.83271e-05 3.88413e-05 -6.88645e-05
-0.000386387 0.000115627 0.00011604 -5.73769e-05
-0.000254397 7.5998e-05 7.64569e-05 -6.45545e-05
-0.000127641 3.79398e-05 3.84434e-05 -6.88642e-05
-0.000259643 7.75577e-05 7.80364e-05 -6.45548e-05
-0.00025702 7.67778e-05 7.72466e-05 -6.45546e-05
-0.000382458 0.000114455 0.000114858 -5.73768e-05
-0.000374599 0.000112109 0.000112496 -5.73766e-05
-0.000123694 3.67777e-05 3.725e-05 -6.88635e-05
-0.000126325 3.75525e-05 3.80455e-05 -6.8864e-05
-0.000378528 0.000113282 0.000113677 -5.73767e-05
-0.000249153 7.44381e-05 7.48776e-05 -6.45541e-05
-0.00012501 3.71651e-05 3.76477e-05 -6.88637e-05
-0.000254397 7.5998e-05 7.64569e-05 -6.45545e-05
-0.000251775 7.52181e-05 7.56672e-05 -6.45543e-05
-0.000374599 0.000112109 0.000112496 -5.73766e-05
-0.000366742 0.000109764 0.000110133 -5.73765e-05
-0.000121064 3.60027e-05 3.64547e-05 -6.8863e-05
-0.000123694 3.67777e-05 3.725e-05 -6.88635e-05
-0.000370671 0.000110937 0.000111315 -5.73765e-05
-0.000243908 7.28781e-05 7.32986e-05 -6.45538e-05
-0.000122379 3.63902e-05 3.68523e-05 -6.88633e-05
-0.000249153 7.44381e-05 7.48776e-05 -6.45541e-05
-0.00024653 7.36581e-05 7.40881e-05 -6.4554e-05
-0.000366742 0.000109764 0.000110133 -5.73765e-05
-0.000358884 0.000107418 0.000107771 -5.73763e-05
-0.000118433 3.52275e-05 3.56596e-05 -6.88626e-05
-0.000121064 3.60027e-05 3.64547e-05 -6.8863e-05
-0.000362813 0.000108591 0.000108952 -5.73764e-05
-0.000238664 7.13179e-05 7.17198e-05 -6.45535e-05
-0.000119748 3.56151e-05 3.60571e-05 -6.88628e-05
-0.000243908 7.28781e-05 7.32986e-05 -6.45538e-05
-0.000241286 7.2098e-05 7.25092e-05 -6.45537e-05
-0.000358884 0.000107418 0.000107771 -5.73763e-05
-0.000351027 0.000105072 0.000105409 -5.73761e-05
-0.000115803 3.44521e-05 3.48648e-05 -6.88622e-05
-0.000118433 3.52275e-05 3.56596e-05 -6.88626e-05
-0.000354956 0.000106245 0.00010659 -5.73762e-05
-0.00023342 6.97575e-05 7.01413e-05 -6.45532e-05
-0.000117118 3.48398e-05 3.52622e-05 -6.88624e-05
-0.000238664 7.13179e-05 7.17198e-05 -6.45535e-05
-0.000236042 7.05377e-05 7.09305e-05 -6.45534e-05
-0.000351027 0.000105072 0.000105409 -5.73761e-05
-0.000343171 0.000102726 0.000103048 -5.7376e-05
-0.000113174 3.36766e-05 3.40702e-05 -6.88617e-05
-0.000115803 3.44521e-05 3.48648e-05 -6.88622e-05
-0.000347099 0.000103899 0.000104228 -5.7376e-05
-0.000228177 6.81969e-05 6.85629e-05 -6.45529e-05
-0.000114489 3.40644e-05 3.44675e-05 -6.88619e-05
-0.00023342 6.97575e-05 7.01413e-05 -6.45532e-05
-0.000230799 6.89772e-05 6.93521e-05 -6.45531e-05
-0.000343171 0.000102726 0.000103048 -5.7376e-05
-0.000335315 0.00010038 0.000100686 -5.73758e-05
-0.000110545 3.29008e-05 3.32759e-05 -6.88613e-05
-0.000113174 3.36766e-05 3.40702e-05 -6.88617e-05
-0.000339243 0.000101553 0.000101867 -5.73759e-05
-0.000222934 6.66362e-05 6.69848e-05 -6.45526e-05
-0.000111859 3.32887e-05 3.3673e-05 -6.88615e-05
-0.000228177 6.81969e-05 6.85629e-05 -6.45529e-05
-0.000225556 6.74166e-05 6.77739e-05 -6.45528e-05
-0.000335315 0.00010038 0.000100686 -5.73758e-05
-0.000327459 9.80341e-05 9.83248e-05 -5.73757e-05
-0.000107916 3.21248e-05 3.24818e-05 -6.88609e-05
-0.000110545 3.29008e-05 3.32759e-05 -6.88613e-05
-0.000331387 9.92072e-05 9.95054e-05 -5.73757e-05
-0.000217692 6.50753e-05 6.5407e-05 -6.45524e-05
-0.00010923 3.25128e-05 3.28788e-05 -6.88611e-05
-0.000222934 6.66362e-05 6.69848e-05 -6.45526e-05
-0.000220313 6.58558e-05 6.61959e-05 -6.45525e-05
-0.000327459 9.80341e-05 9.83248e-05 -5.73757e-05
-0.000319603 9.56877e-05 9.59638e-05 -5.73756e-05
-0.000105287 3.13487e-05 3.16879e-05 -6.88605e-05
-0.000107916 3.21248e-05 3.24818e-05 -6.88609e-05
-0.000323531 9.68609e-05 9.71443e-05 -5.73756e-05
-0.000212449 6.35143e-05 6.38293e-05 -6.45521e-05
-0.000106601 3.17368e-05 3.20848e-05 -6.88607e-05
-0.000217692 6.50753e-05 6.5407e-05 -6.45524e-05
-0.00021507 6.42948e-05 6.46181e-05 -6.45522e-05
-0.000319603 9.56877e-05 9.59638e-05 -5.73756e-05
-0.000311748 9.33412e-05 9.36029e-05 -5.73754e-05
-0.000102659 3.05724e-05 3.08943e-05 -6.88601e-05
-0.000105287 3.13487e-05 3.16879e-05 -6.88605e-05
-0.000315676 9.45145e-05 9.47833e-05 -5.73755e-05
-0.000207208 6.1953e-05 6.22519e-05 -6.45519e-05
-0.000103973 3.09606e-05 3.12911e-05 -6.88603e-05
-0.000212449 6.35143e-05 6.38293e-05 -6.45521e-05
-0.000209828 6.27337e-05 6.30406e-05 -6.4552e-05
-0.000311748 9.33412e-05 9.36029e-05 -5.73754e-05
-0.000303893 9.09946e-05 9.12423e-05 -5.73753e-05
-0.000100031 2.97959e-05 3.01009e-05 -6.88598e-05
-0.000102659 3.05724e-05 3.08943e-05 -6.88601e-05
-0.000307821 9.21679e-05 9.24226e-05 -5.73754e-05
-0.000201966 6.03916e-05 6.06748e-05 -6.45516e-05
-0.000101345 3.01841e-05 3.04976e-05 -6.886e-05
-0.000207208 6.1953e-05 6.22519e-05 -6.45519e-05
-0.000204587 6.11724e-05 6.14633e-05 -6.45518e-05
-0.000303893 9.09946e-05 9.12423e-05 -5.73753e-05
-0.000296039 8.86478e-05 8.88819e-05 -5.73752e-05
-9.74038e-05 2.90191e-05 2.93077e-05 -6.88594e-05
-0.000100031 2.97959e-05 3.01009e-05 -6.88598e-05
-0.000299966 8.98212e-05 9.00621e-05 -5.73753e-05
-0.000196725 5.88301e-05 5.90978e-05 -6.45514e-05
-9.87175e-05 2.94075e-05 2.97043e-05 -6.88596e-05
-0.000201966 6.03916e-05 6.06748e-05 -6.45516e-05
-0.000199345 5.96109e-05 5.98863e-05 -6.45515e-05
-0.000296039 8.86478e-05 8.88819e-05 -5.73752e-05
-0.000288185 8.63008e-05 8.65217e-05 -5.73751e-05
-9.47768e-05 2.82422e-05 2.85148e-05 -6.88591e-05
-9.74038e-05 2.90191e-05 2.93077e-05 -6.88594e-05
-0.000292112 8.74743e-05 8.77017e-05 -5.73752e-05
-0.000191484 5.72683e-05 5.75211e-05 -6.45512e-05
-9.60903e-05 2.86307e-05 2.89112e-05 -6.88592e-05
-0.000196725 5.88301e-05 5.90978e-05 -6.45514e-05
-0.000194105 5.80492e-05 5.83094e-05 -6.45513e-05
-0.000288185 8.63008e-05 8.65217e-05 -5.73751e-05
-0.000280331 8.39538e-05 8.41617e-05 -5.73751e-05
-9.21501e-05 2.74651e-05 2.77221e-05 -6.88587e-05
-9.47768e-05 2.82422e-05 2.85148e-05 -6.88591e-05
-0.000284258 8.51273e-05 8.53417e-05 -5.73751e-05
-0.000186244 5.57064e-05 5.59446e-05 -6.4551e-05
-9.34634e-05 2.78537e-05 2.81184e-05 -6.88589e-05
-0.000191484 5.72683e-05 5.75211e-05 -6.45512e-05
-0.000188864 5.64874e-05 5.67328e-05 -6.45511e-05
-0.000280331 8.39538e-05 8.41617e-05 -5.73751e-05
-0.000272478 8.16065e-05 8.18019e-05 -5.7375e-05
-8.95238e-05 2.66878e-05 2.69297e-05 -6.88584e-05
-9.21501e-05 2.74651e-05 2.77221e-05 -6.88587e-05
-0.000276404 8.27802e-05 8.29818e-05 -5.7375e-05
-0.000181004 5.41443e-05 5.43684e-05 -6.45508e-05
-9.08369e-05 2.70765e-05 2.73259e-05 -6.88586e-05
-0.000186244 5.57064e-05 5.59446e-05 -6.4551e-05
-0.000183624 5.49254e-05 5.51565e-05 -6.45509e-05
-0.000272478 8.16065e-05 8.18019e-05 -5.7375e-05
-0.000264625 7.92592e-05 7.94424e-05 -5.73749e-05
-8.68978e-05 2.59104e-05 2.61375e-05 -6.88581e-05
-8.95238e-05 2.66878e-05 2.69297e-05 -6.88584e-05
-0.000268551 8.04329e-05 8.06221e-05 -5.7375e-05
-0.000175764 5.25821e-05 5.27923e-05 -6.45506e-05
-8.82107e-05 2.62991e-05 2.65335e-05 -6.88582e-05
-0.000181004 5.41443e-05 5.43684e-05 -6.45508e-05
-0.000178384 5.33632e-05 5.35803e-05 -6.45507e-05
-0.000264625 7.92592e-05 7.94424e-05 -5.73749e-05
-0.000256772 7.69117e-05 7.7083e-05 -5.73749e-05
-8.42722e-05 2.51327e-05 2.53455e-05 -6.88578e-05
-8.68978e-05 2.59104e-05 2.61375e-05 -6.88581e-05
-0.000260698 7.80854e-05 7.82627e-05 -5.73749e-05
-0.000170525 5.10196e-05 5.12165e-05 -6.45505e-05
-8.55849e-05 2.55215e-05 2.57415e-05 -6.88579e-05
-0.000175764 5.25821e-05 5.27923e-05 -6.45506e-05
-0.000173144 5.18009e-05 5.20044e-05 -6.45505e-05
-0.000256772 7.69117e-05 7.7083e-05 -5.73749e-05
-0.00024892 7.4564e-05 7.47239e-05 -5.73748e-05
-8.16469e-05 2.43548e-05 2.45538e-05 -6.88575e-05
-8.42722e-05 2.51327e-05 2.53455e-05 -6.88578e-05
-0.000252846 7.57378e-05 7.59034e-05 -5.73748e-05
-0.000165286 4.9457e-05 4.9641e-05 -6.45503e-05
-8.29595e-05 2.47438e-05 2.49496e-05 -6.88576e-05
-0.000170525 5.10196e-05 5.12165e-05 -6.45505e-05
-0.000167905 5.02383e-05 5.04287e-05 -6.45504e-05
-0.00024892 7.4564e-05 7.47239e-05 -5.73748e-05
-0.000241068 7.22162e-05 7.2365e-05 -5.73748e-05
-7.9022e-05 2.35767e-05 2.37623e-05 -6.88572e-05
-8.16469e-05 2.43548e-05 2.45538e-05 -6.88575e-05
-0.000244994 7.33901e-05 7.35444e-05 -5.73748e-05
-0.000160047 4.78942e-05 4.80656e-05 -6.45501e-05
-8.03344e-05 2.39658e-05 2.4158e-05 -6.88574e-05
-0.000165286 4.9457e-05 4.9641e-05 -6.45503e-05
-0.000162667 4.86756e-05 4.88533e-05 -6.45502e-05
-0.000241068 7.22162e-05 7.2365e-05 -5.73748e-05
-0.000233216 6.98682e-05 7.00063e-05 -5.73747e-05
-7.63974e-05 2.27984e-05 2.2971e-05 -6.88569e-05
-7.9022e-05 2.35767e-05 2.37623e-05 -6.88572e-05
-0.000237142 7.10422e-05 7.11856e-05 -5.73748e-05
-0.000154809 4.63312e-05 4.64905e-05 -6.455e-05
-7.77096e-05 2.31876e-05 2.33666e-05 -6.88571e-05
-0.000160047 4.78942e-05 4.80656e-05 -6.45501e-05
-0.000157428 4.71127e-05 4.72781e-05 -6.45501e-05
-0.000233216 6.98682e-05 7.00063e-05 -5.73747e-05
-0.000225365 6.75201e-05 6.76478e-05 -5.73747e-05
-7.37732e-05 2.20199e-05 2.218e-05 -6.88567e-05
-7.63974e-05 2.27984e-05 2.2971e-05 -6.88569e-05
-0.00022929 6.86942e-05 6.8827e-05 -5.73747e-05
-0.000149571 4.47681e-05 4.49156e-05 -6.45498e-05
-7.50852e-05 2.24092e-05 2.25754e-05 -6.88568e-05
-0.000154809 4.63312e-05 4.64905e-05 -6.455e-05
-0.00015219 4.55497e-05 4.57031e-05 -6.45499e-05
-0.000225365 6.75201e-05 6.76478e-05 -5.73747e-05
-0.000217514 6.51718e-05 6.52895e-05 -5.73747e-05
-7.11493e-05 2.12412e-05 2.13892e-05 -6.88564e-05
-7.37732e-05 2.20199e-05 2.218e-05 -6.88567e-05
-0.000221439 6.6346e-05 6.64686e-05 -5.73747e-05
-0.000144334 4.32047e-05 4.3341e-05 -6.45497e-05
-7.24612e-05 2.16306e-05 2.17845e-05 -6.88565e-05
-0.000149571 4.47681e-05 4.49156e-05 -6.45498e-05
-0.000146952 4.39864e-05 4.41283e-05 -6.45498e-05
-0.000217514 6.51718e-05 6.52895e-05 -5.73747e-05
-0.000209663 6.28234e-05 6.29314e-05 -5.73746e-05
-6.85257e-05 2.04623e-05 2.05986e-05 -6.88562e-05
-7.11493e-05 2.12412e-05 2.13892e-05 -6.88564e-05
-0.000213589 6.39976e-05 6.41104e-05 -5.73746e-05
-0.000139096 4.16412e-05 4.17666e-05 -6.45495e-05
-6.98375e-05 2.08518e-05 2.09939e-05 -6.88563e-05
-0.000144334 4.32047e-05 4.3341e-05 -6.45497e-05
-0.000141715 4.2423e-05 4.25538e-05 -6.45496e-05
-0.000209663 6.28234e-05 6.29314e-05 -5.73746e-05
-0.000201813 6.04748e-05 6.05736e-05 -5.73745e-05
-6.59025e-05 1.96832e-05 1.98083e-05 -6.88559e-05
-6.85257e-05 2.04623e-05 2.05986e-05 -6.88562e-05
-0.000205738 6.16491e-05 6.17525e-05 -5.73746e-05
-0.00013386 4.00774e-05 4.01924e-05 -6.45494e-05
-6.72141e-05 2.00728e-05 2.02034e-05 -6.8856e-05
-0.000139096 4.16412e-05 4.17666e-05 -6.45495e-05
-0.000136478 4.08593e-05 4.09794e-05 -6.45495e-05
-0.000201813 6.04748e-05 6.05736e-05 -5.73745e-05
-0.000193963 5.8126e-05 5.82159e-05 -5.73744e-05
-6.32796e-05 1.89038e-05 1.90182e-05 -6.88556e-05
-6.59025e-05 1.96832e-05 1.98083e-05 -6.88559e-05
-0.000197888 5.93004e-05 5.93947e-05 -5.73745e-05
-0.000128623 3.85135e-05 3.86184e-05 -6.45492e-05
-6.4591e-05 1.92935e-05 1.94132e-05 -6.88558e-05
-0.00013386 4.00774e-05 4.01924e-05 -6.45494e-05
-0.000131241 3.92955e-05 3.94053e-05 -6.45493e-05
-0.000193963 5.8126e-05 5.82159e-05 -5.73744e-05
-0.000186114 5.57771e-05 5.58585e-05 -5.73743e-05
-6.0657e-05 1.81243e-05 1.82283e-05 -6.88554e-05
-6.32796e-05 1.89038e-05 1.90182e-05 -6.88556e-05
-0.000190038 5.69516e-05 5.70372e-05 -5.73744e-05
-0.000123387 3.69494e-05 3.70446e-05 -6.4549e-05
-6.19683e-05 1.85141e-05 1.86232e-05 -6.88555e-05
-0.000128623 3.85135e-05 3.86184e-05 -6.45492e-05
-0.000126005 3.77314e-05 3.78315e-05 -6.45491e-05
-0.000186114 5.57771e-05 5.58585e-05 -5.73743e-05
-0.000178264 5.34281e-05 5.35012e-05 -5.73742e-05
-5.80347e-05 1.73445e-05 1.74386e-05 -6.88551e-05
-6.0657e-05 1.81243e-05 1.82283e-05 -6.88554e-05
-0.000182189 5.46026e-05 5.46798e-05 -5.73743e-05
-0.000118151 3.53851e-05 3.54711e-05 -6.45488e-05
-5.93458e-05 1.77344e-05 1.78335e-05 -6.88552e-05
-0.000123387 3.69494e-05 3.70446e-05 -6.4549e-05
-0.000120769 3.61672e-05 3.62578e-05 -6.45489e-05
-0.000178264 5.34281e-05 5.35012e-05 -5.73742e-05
-0.000170415 5.10789e-05 5.11442e-05 -5.7374e-05
-5.54127e-05 1.65646e-05 1.66492e-05 -6.88547e-05
-5.80347e-05 1.73445e-05 1.74386e-05 -6.88551e-05
-0.00017434 5.22535e-05 5.23227e-05 -5.73741e-05
-0.000112915 3.38206e-05 3.38977e-05 -6.45485e-05
-5.67237e-05 1.69546e-05 1.70439e-05 -6.88549e-05
-0.000118151 3.53851e-05 3.54711e-05 -6.45488e-05
-0.000115533 3.46029e-05 3.46844e-05 -6.45487e-05
-0.000170415 5.10789e-05 5.11442e-05 -5.7374e-05
-0.000162567 4.87297e-05 4.87873e-05 -5.73739e-05
-5.27911e-05 1.57845e-05 1.58599e-05 -6.88544e-05
-5.54127e-05 1.65646e-05 1.66492e-05 -6.88547e-05
-0.000166491 4.99043e-05 4.99657e-05 -5.7374e-05
-0.00010768 3.22561e-05 3.23246e-05 -6.45483e-05
-5.41018e-05 1.61746e-05 1.62545e-05 -6.88546e-05
-0.000112915 3.38206e-05 3.38977e-05 -6.45485e-05
-0.000110298 3.30384e-05 3.31111e-05 -6.45484e-05
-0.000162567 4.87297e-05 4.87873e-05 -5.73739e-05
-0.000154719 4.63805e-05 4.64306e-05 -5.73738e-05
-5.01698e-05 1.50045e-05 1.50708e-05 -6.8854e-05
-5.27911e-05 1.57845e-05 1.58599e-05 -6.88544e-05
-0.000158643 4.75551e-05 4.7609e-05 -5.73738e-05
-0.000102445 3.06916e-05 3.07516e-05 -6.4548e-05
-5.14804e-05 1.53945e-05 1.54654e-05 -6.88542e-05
-0.00010768 3.22561e-05 3.23246e-05 -6.45483e-05
-0.000105063 3.14739e-05 3.15381e-05 -6.45482e-05
-0.000154719 4.63805e-05 4.64306e-05 -5.73738e-05
-0.000146871 4.40314e-05 4.40741e-05 -5.73738e-05
-4.7549e-05 1.42246e-05 1.42819e-05 -6.88536e-05
-5.01698e-05 1.50045e-05 1.50708e-05 -6.8854e-05
-0.000150795 4.52059e-05 4.52524e-05 -5.73738e-05
-9.7211e-05 2.91273e-05 2.91788e-05 -6.45479e-05
-4.88594e-05 1.46145e-05 1.46764e-05 -6.88538e-05
-0.000102445 3.06916e-05 3.07516e-05 -6.4548e-05
-9.98281e-05 2.99094e-05 2.99652e-05 -6.45479e-05
-0.000146871 4.40314e-05 4.40741e-05 -5.73738e-05
-0.000139024 4.16825e-05 4.17177e-05 -5.73741e-05
-4.49289e-05 1.34451e-05 1.34931e-05 -6.88532e-05
-4.7549e-05 1.42246e-05 1.42819e-05 -6.88536e-05
-0.000142947 4.28569e-05 4.28959e-05 -5.73739e-05
-9.19774e-05 2.75631e-05 2.76061e-05 -6.45478e-05
-4.62389e-05 1.38348e-05 1.38875e-05 -6.88534e-05
-9.7211e-05 2.91273e-05 2.91788e-05 -6.45479e-05
-9.45941e-05 2.83452e-05 2.83924e-05 -6.45478e-05
-0.000139024 4.16825e-05 4.17177e-05 -5.73741e-05
-0.000131177 3.93338e-05 3.93615e-05 -5.73748e-05
-4.23096e-05 1.2666e-05 1.27044e-05 -6.88532e-05
-4.49289e-05 1.34451e-05 1.34931e-05 -6.88532e-05
-0.000135101 4.05081e-05 4.05396e-05 -5.73744e-05
-8.67444e-05 2.59994e-05 2.60336e-05 -6.45482e-05
-4.36191e-05 1.30555e-05 1.30987e-05 -6.88531e-05
-9.19774e-05 2.75631e-05 2.76061e-05 -6.45478e-05
-8.93608e-05 2.67812e-05 2.68198e-05 -6.4548e-05
-0.000131177 3.93338e-05 3.93615e-05 -5.73748e-05
-0.000123331 3.6985e-05 3.70056e-05 -5.73762e-05
-3.96912e-05 1.18878e-05 1.19158e-05 -6.8854e-05
-4.23096e-05 1.2666e-05 1.27044e-05 -6.88532e-05
-0.000127254 3.81594e-05 3.81835e-05 -5.73754e-05
-8.15121e-05 2.44358e-05 2.44613e-05 -6.45494e-05
-4.10003e-05 1.22768e-05 1.23101e-05 -6.88534e-05
-8.67444e-05 2.59994e-05 2.60336e-05 -6.45482e-05
-8.41282e-05 2.52176e-05 2.52474e-05 -6.45487e-05
-0.000123331 3.6985e-05 3.70056e-05 -5.73762e-05
-0.000115485 3.46352e-05 3.46499e-05 -5.73785e-05
-3.70739e-05 1.11101e-05 1.11273e-05 -6.88569e-05
-3.96912e-05 1.18878e-05 1.19158e-05 -6.8854e-05
-0.000119408 3.58103e-05 3.58277e-05 -5.73772e-05
-7.628e-05 2.28716e-05 2.28893e-05 -6.45523e-05
-3.83824e-05 1.14989e-05 1.15215e-05 -6.8855e-05
-8.15121e-05 2.44358e-05 2.44613e-05 -6.45494e-05
-7.88961e-05 2.36539e-05 2.36752e-05 -6.45505e-05
-0.000115485 3.46352e-05 3.46499e-05 -5.73785e-05
-0.000107637 3.22821e-05 3.22949e-05 -5.73821e-05
-3.44566e-05 1.03323e-05 1.0339e-05 -6.88647e-05
-3.70739e-05 1.11101e-05 1.11273e-05 -6.88569e-05
-0.000111561 3.34593e-05 3.34723e-05 -5.73802e-05
-7.10463e-05 2.13049e-05 2.13178e-05 -6.45586e-05
-3.57654e-05 1.07213e-05 1.07332e-05 -6.88599e-05
-7.628e-05 2.28716e-05 2.28893e-05 -6.45523e-05
-7.36635e-05 2.20888e-05 2.21034e-05 -6.45549e-05
-0.000107637 3.22821e-05 3.22949e-05 -5.73821e-05
-9.97819e-05 2.99205e-05 2.99406e-05 -5.73873e-05
-3.18383e-05 9.55225e-06 9.55117e-06 -6.88827e-05
-3.44566e-05 1.03323e-05 1.0339e-05 -6.88647e-05
-0.000103711 3.11029e-05 3.11177e-05 -5.73844e-05
-6.58072e-05 1.97309e-05 1.9747e-05 -6.45715e-05
-3.31475e-05 9.94277e-06 9.94488e-06 -6.88719e-05
-7.10463e-05 2.13049e-05 2.13178e-05 -6.45586e-05
-6.84278e-05 2.05192e-05 2.05322e-05 -6.45638e-05
-9.97819e-05 2.99205e-05 2.99406e-05 -5.73873e-05
-9.19121e-05 2.75398e-05 2.75881e-05 -5.73938e-05
-2.92126e-05 8.76531e-06 8.76311e-06 -6.8922e-05
-3.18383e-05 9.55225e-06 9.55117e-06 -6.88827e-05
-9.58492e-05 2.87334e-05 2.87639e-05 -5.73905e-05
-6.05537e-05 1.81404e-05 1.81771e-05 -6.45972e-05
-3.05272e-05 9.1602e-06 9.15731e-06 -6.88987e-05
-6.58072e-05 1.97309e-05 1.9747e-05 -6.45715e-05
-6.3183e-05 1.89387e-05 1.89619e-05 -6.45824e-05
-9.19121e-05 2.75398e-05 2.75881e-05 -5.73938e-05
-8.40047e-05 2.5121e-05 2.52359e-05 -5.74027e-05
-2.65735e-05 7.96149e-06 7.97657e-06 -6.90016e-05
-2.92126e-05 8.76531e-06 8.76311e-06 -6.8922e-05
-8.79656e-05 2.63371e-05 2.64122e-05 -5.73977e-05
-5.52679e-05 1.65153e-05 1.66082e-05 -6.46469e-05
-2.78945e-05 8.36616e-06 8.3693e-06 -6.89551e-05
-6.05537e-05 1.81404e-05 1.81771e-05 -6.45972e-05
-5.79163e-05 1.73335e-05 1.73926e-05 -6.46176e-05
-8.40047e-05 2.5121e-05 2.52359e-05 -5.74027e-05
-7.6031e-05 2.26291e-05 2.28865e-05 -5.74119e-05
-2.38949e-05 7.12562e-06 7.18682e-06 -6.91566e-05
-2.65735e-05 7.96149e-06 7.97657e-06 -6.90016e-05
-8.00272e-05 2.38867e-05 2.40602e-05 -5.74078e-05
-4.9917e-05 1.4827e-05 1.50385e-05 -6.47407e-05
-2.52425e-05 7.54944e-06 7.58275e-06 -6.90666e-05
-5.52679e-05 1.65153e-05 1.66082e-05 -6.46469e-05
-5.26032e-05 1.56821e-05 1.58234e-05 -6.46876e-05
-7.6031e-05 2.26291e-05 2.28865e-05 -5.74119e-05
-6.79119e-05 2.00131e-05 2.05281e-05 -5.74285e-05
-2.11597e-05 6.22845e-06 6.39911e-06 -6.94417e-05
-2.38949e-05 7.12562e-06 7.18682e-06 -6.91566e-05
-7.19985e-05 2.1342e-05 2.17099e-05 -5.74181e-05
-4.44427e-05 1.3026e-05 1.34643e-05 -6.49125e-05
-2.25331e-05 6.68575e-06 6.79171e-06 -6.92786e-05
-4.9917e-05 1.4827e-05 1.50385e-05 -6.47407e-05
-4.71999e-05 1.39433e-05 1.42528e-05 -6.48119e-05
-6.79119e-05 2.00131e-05 2.05281e-05 -5.74285e-05
-5.95715e-05 1.71894e-05 1.81638e-05 -5.74498e-05
-1.82902e-05 5.24281e-06 5.59172e-06 -6.99441e-05
-2.11597e-05 6.22845e-06 6.39911e-06 -6.94417e-05
-6.37699e-05 1.86305e-05 1.93455e-05 -5.74398e-05
-3.87574e-05 1.10574e-05 1.18714e-05 -6.52172e-05
-1.97528e-05 5.75107e-06 6.00072e-06 -6.96584e-05
-4.44427e-05 1.3026e-05 1.34643e-05 -6.49125e-05
-4.16327e-05 1.20688e-05 1.26702e-05 -6.50481e-05
-5.95715e-05 1.71894e-05 1.81638e-05 -5.74498e-05
-5.07972e-05 1.4087e-05 1.57329e-05 -5.75244e-05
-1.52748e-05 4.12205e-06 4.77973e-06 -7.07644e-05
-1.82902e-05 5.24281e-06 5.59172e-06 -6.99441e-05
-5.52646e-05 1.56826e-05 1.69637e-05 -5.74736e-05
-3.27297e-05 8.8485e-06 1.02348e-05 -6.5736e-05
-1.67911e-05 4.69581e-06 5.18369e-06 -7.03082e-05
-3.87574e-05 1.10574e-05 1.18714e-05 -6.52172e-05
-3.57965e-05 9.98086e-06 1.10638e-05 -6.54347e-05
-5.07972e-05 1.4087e-05 1.57329e-05 -5.75244e-05
-4.14987e-05 1.06279e-05 1.32303e-05 -5.768e-05
-1.19647e-05 2.91427e-06 3.87874e-06 -7.20112e-05
-1.52748e-05 4.12205e-06 4.77973e-06 -7.07644e-05
-4.61987e-05 1.23888e-05 1.44899e-05 -5.75926e-05
-2.62519e-05 6.44456e-06 8.48884e-06 -6.65716e-05
-1.36847e-05 3.53252e-06 4.35095e-06 -7.1327e-05
-3.27297e-05 8.8485e-06 1.02348e-05 -6.5736e-05
-2.95504e-05 7.67118e-06 9.3768e-06 -6.61236e-05
-4.14987e-05 1.06279e-05 1.32303e-05 -5.768e-05
-3.13412e-05 7.05041e-06 1.04103e-05 -5.81729e-05
-8.55741e-06 1.7073e-06 2.93576e-06 -7.36196e-05
-1.19647e-05 2.91427e-06 3.87874e-06 -7.20112e-05
-3.65839e-05 8.84735e-06 1.18871e-05 -5.78531e-05
-1.92652e-05 4.02848e-06 6.53001e-06 -6.78142e-05
-1.02203e-05 2.27232e-06 3.40627e-06 -7.27854e-05
-2.62519e-05 6.44456e-06 8.48884e-06 -6.65716e-05
-2.28261e-05 5.1877e-06 7.55932e-06 -6.71048e-05
-3.13412e-05 7.05041e-06 1.04103e-05 -5.81729e-05
-2.08311e-05 3.93857e-06 7.23967e-06 -5.9167e-05
-5.05505e-06 1.14053e-06 1.67765e-06 -7.51875e-05
-8.55741e-06 1.7073e-06 2.93576e-06 -7.36196e-05
-2.60103e-05 5.30014e-06 8.87578e-06 -5.86015e-05
-1.22496e-05 2.56046e-06 4.15247e-06 -6.93745e-05
-6.87074e-06 1.32306e-06 2.37758e-06 -7.4451e-05
-1.92652e-05 4.02848e-06 6.53001e-06 -6.78142e-05
-1.5697e-05 3.11413e-06 5.39265e-06 -6.86308e-05
-2.08311e-05 3.93857e-06 7.23967e-06 -5.9167e-05
-1.06546e-05 3.84642e-06 2.91779e-06 -6.1252e-05
-2.58479e-06 1.93472e-06 2.78602e-07 -7.5221e-05
-5.05505e-06 1.14053e-06 1.67765e-06 -7.51875e-05
-1.57354e-05 3.35471e-06 5.30599e-06 -6.00195e-05
-6.2812e-06 3.60699e-06 1.14609e-06 -7.0475e-05
-3.49738e-06 1.22907e-06 9.72133e-07 -7.55475e-05
-1.22496e-05 2.56046e-06 4.15247e-06 -6.93745e-05
-9.06396e-06 2.55543e-06 2.78937e-06 -6.99641e-05
-1.06546e-05 3.84642e-06 2.91779e-06 -6.1252e-05
-5.30115e-06 1.1296e-05 -2.56924e-06 -6.27215e-05
-1.20472e-06 5.59197e-06 -1.88025e-06 -7.09721e-05
-2.58479e-06 1.93472e-06 2.78602e-07 -7.5221e-05
-6.77961e-06 5.9562e-06 3.52891e-07 -6.23036e-05
-4.13518e-06 1.01859e-05 -2.59318e-06 -6.81358e-05
-1.94476e-06 3.5144e-06 -6.72704e-07 -7.38536e-05
-6.2812e-06 3.60699e-06 1.14609e-06 -7.0475e-05
-4.45404e-06 6.17239e-06 -7.36434e-07 -7.0241e-05
-5.30115e-06 1.1296e-05 -2.56924e-06 -6.27215e-05
-8.01232e-06 3.46752e-05 -1.1427e-05 -5.7451e-05
-2.24949e-06 1.03104e-05 -3.45466e-06 -5.79117e-05
-1.20472e-06 5.59197e-06 -1.88025e-06 -7.09721e-05
-5.83886e-06 2.11818e-05 -6.57556e-06 -6.17159e-05
-5.5986e-06 2.21666e-05 -7.10057e-06 -5.65693e-05
-1.07092e-06 7.78394e-06 -2.87701e-06 -6.58457e-05
-4.13518e-06 1.01859e-05 -2.59318e-06 -6.81358e-05
-4.7187e-06 1.55006e-05 -4.62081e-06 -6.35885e-05
-8.01232e-06 3.46752e-05 -1.1427e-05 -5.7451e-05
-1.60186e-05 6.27081e-05 -2.00098e-05 -3.03367e-05
-5.34085e-06 1.71971e-05 -5.08125e-06 -3.32172e-05
-2.24949e-06 1.03104e-05 -3.45466e-06 -5.79117e-05
-1.15097e-05 4.98031e-05 -1.64115e-05 -4.74331e-05
-9.23638e-06 3.7882e-05 -1.22767e-05 -3.34563e-05
-3.93973e-06 1.34605e-05 -4.08035e-06 -4.70944e-05
-5.5986e-06 2.21666e-05 -7.10057e-06 -5.65693e-05
-7.02213e-06 3.00249e-05 -9.85834e-06 -4.67664e-05
-0.000460611 0 0.000197405 0.000260837
-0.000468047 6.19603e-05 0.000174037 8.64586e-05
0.000456793 -6.451e-05 -0.000168121 8.57413e-05
0.000448078 0 -0.000192033 0.000259177
-0.000449532 2.61365e-05 0.000181455 0.000164468
-5.73549e-06 -1.34921e-06 3.0363e-06 9.76134e-05
0.000437707 -2.75404e-05 -0.000175786 0.000163472
-6.47698e-06 0 2.77585e-06 0.000265404
-6.02397e-06 -8.30878e-07 2.93779e-06 0.000183596
-0.000468047 6.19603e-05 0.000174037 8.64586e-05
-0.000503786 0.000102011 0.000172189 -1.7815e-05
0.000493476 -0.000106275 -0.000165943 -1.82941e-05
0.000456793 -6.451e-05 -0.000168121 8.57413e-05
-0.000493636 8.59665e-05 0.000174716 2.51487e-05
-5.25359e-06 -2.19179e-06 3.19088e-06 -1.25871e-05
0.000482873 -8.94515e-05 -0.000168609 2.45616e-05
-5.73549e-06 -1.34921e-06 3.0363e-06 9.76134e-05
-5.50328e-06 -1.79081e-06 3.12604e-06 2.97643e-05
-0.000503786 0.000102011 0.000172189 -1.7815e-05
-0.000514148 0.000131783 0.000163871 -6.50629e-05
0.000504634 -0.000137315 -0.000157423 -6.54269e-05
0.000493476 -0.000106275 -0.000165943 -1.82941e-05
-0.000507594 0.000117889 0.000167017 -4.62969e-05
-4.83756e-06 -2.86796e-06 3.30237e-06 -6.36604e-05
0.000497694 -0.000122824 -0.000160659 -4.67122e-05
-5.25359e-06 -2.19179e-06 3.19088e-06 -1.25871e-05
-5.02582e-06 -2.55142e-06 3.24739e-06 -4.16127e-05
-0.000514148 0.000131783 0.000163871 -6.50629e-05
-0.000519474 0.000145657 0.000160207 -8.19332e-05
0.000510655 -0.000152229 -0.000153611 -8.2194e-05
0.000504634 -0.000137315 -0.000157423 -6.54269e-05
-0.000519444 0.000140588 0.000162367 -7.63616e-05
-4.50194e-06 -3.37206e-06 3.37457e-06 -8.33931e-05
0.000510289 -0.000146667 -0.000155838 -7.66697e-05
-4.83756e-06 -2.86796e-06 3.30237e-06 -6.36604e-05
-4.6693e-06 -3.13813e-06 3.34604e-06 -7.72183e-05
-0.000519474 0.000145657 0.000160207 -8.19332e-05
-0.000515853 0.000150864 0.000156424 -8.37565e-05
0.000507592 -0.00015823 -0.000149726 -8.39231e-05
0.000510655 -0.000152229 -0.000153611 -8.2194e-05
-0.000517269 0.00014901 0.000157825 -8.37785e-05
-4.22077e-06 -3.76611e-06 3.42295e-06 -8.67609e-05
0.00050875 -0.000156011 -0.000151174 -8.39971e-05
-4.50194e-06 -3.37206e-06 3.37457e-06 -8.33931e-05
-4.34955e-06 -3.58277e-06 3.39956e-06 -8.59058e-05
-0.000515853 0.000150864 0.000156424 -8.37565e-05
-0.000511428 0.000150566 0.000154655 -8.0815e-05
0.000503563 -0.00015848 -0.000147893 -8.08843e-05
0.000507592 -0.00015823 -0.000149726 -8.39231e-05
-0.000514236 0.000151163 0.000155603 -8.25926e-05
-4.01895e-06 -4.03372e-06 3.45115e-06 -8.3842e-05
0.000506192 -0.000158833 -0.000148868 -8.27052e-05
-4.22077e-06 -3.76611e-06 3.42295e-06 -8.67609e-05
-4.11199e-06 -3.91505e-06 3.44016e-06 -8.58735e-05
-0.000511428 0.000150566 0.000154655 -8.0815e-05
-0.000505864 0.000148842 0.000153009 -7.69911e-05
0.000498256 -0.00015708 -0.000146218 -7.69962e-05
0.000503563 -0.00015848 -0.000147893 -8.08843e-05
-0.000508335 0.00014976 0.000153675 -7.88238e-05
-3.88364e-06 -4.20053e-06 3.46465e-06 -7.97092e-05
0.000500614 -0.000157861 -0.000146894 -7.8859e-05
-4.01895e-06 -4.03372e-06 3.45115e-06 -8.3842e-05
-3.94289e-06 -4.12859e-06 3.4592e-06 -8.16378e-05
-0.000505864 0.000148842 0.000153009 -7.69911e-05
-0.000501355 0.000146743 0.000151977 -7.39516e-05
0.000493904 -0.000155134 -0.000145187 -7.39175e-05
0.000498256 -0.00015708 -0.000146218 -7.69962e-05
-0.000503656 0.000147796 0.000152511 -7.53594e-05
-3.80121e-06 -4.27975e-06 3.46327e-06 -7.62166e-05
0.000496136 -0.000156129 -0.000145718 -7.53404e-05
-3.88364e-06 -4.20053e-06 3.46465e-06 -7.97092e-05
-3.83763e-06 -4.24953e-06 3.46593e-06 -7.78858e-05
-0.000501355 0.000146743 0.000151977 -7.39516e-05
-0.00049725 0.000144967 0.000150979 -7.18429e-05
0.000489897 -0.000153394 -0.000144216 -7.17962e-05
0.000493904 -0.000155134 -0.000145187 -7.39175e-05
-0.000499155 0.000145803 0.000151436 -7.27741e-05
-3.75023e-06 -4.30038e-06 3.45026e-06 -7.3787e-05
0.000491758 -0.000154224 -0.000144657 -7.27318e-05
-3.80121e-06 -4.27975e-06 3.46327e-06 -7.62166e-05
-3.77271e-06 -4.29594e-06 3.458e-06 -7.48436e-05
-0.00049725 0.000144967 0.000150979 -7.18429e-05
-0.000493816 0.000143507 0.000150132 -7.05439e-05
0.000486531 -0.000151894 -0.000143416 -7.04989e-05
0.000489897 -0.000153394 -0.000144216 -7.17962e-05
-0.000495513 0.000144201 0.000150563 -7.11124e-05
-3.71574e-06 -4.28144e-06 3.42736e-06 -7.22568e-05
0.000488196 -0.000152615 -0.000143821 -7.10647e-05
-3.75023e-06 -4.30038e-06 3.45026e-06 -7.3787e-05
-3.73186e-06 -4.29472e-06 3.43996e-06 -7.29375e-05
-0.000493816 0.000143507 0.000150132 -7.05439e-05
-0.000490668 0.000142338 0.000149284 -6.97845e-05
0.000483443 -0.000150644 -0.000142628 -6.97506e-05
0.000486531 -0.000151894 -0.000143416 -7.04989e-05
-0.00049219 0.000142891 0.000149699 -7.01083e-05
-3.68642e-06 -4.24076e-06 3.39737e-06 -7.13681e-05
0.000484935 -0.000151242 -0.000143011 -7.00684e-05
-3.71574e-06 -4.28144e-06 3.42736e-06 -7.22568e-05
-3.70091e-06 -4.26301e-06 3.41311e-06 -7.17424e-05
-0.000490668 0.000142338 0.000149284 -6.97845e-05
-0.000487774 0.000141353 0.000148466 -6.937e-05
0.000480611 -0.000149559 -0.00014188 -6.93502e-05
0.000483443 -0.000150644 -0.000142628 -6.97506e-05
-0.00048921 0.000141828 0.000148878 -6.95457e-05
-3.65603e-06 -4.18898e-06 3.36215e-06 -7.0879e-05
0.000482015 -0.000150085 -0.000142256 -6.95186e-05
-3.68642e-06 -4.24076e-06 3.39737e-06 -7.13681e-05
-3.67166e-06 -4.21574e-06 3.38031e-06 -7.10883e-05
-0.000487774 0.000141353 0.000148466 -6.937e-05
-0.000484983 0.000140487 0.000147641 -6.91522e-05
0.000477891 -0.000148584 -0.000141131 -6.91468e-05
0.000480611 -0.000149559 -0.00014188 -6.93502e-05
-0.000486363 0.000140909 0.000148052 -6.92427e-05
-3.62133e-06 -4.13359e-06 3.32353e-06 -7.06264e-05
0.000479235 -0.000149061 -0.000141503 -6.92302e-05
-3.65603e-06 -4.18898e-06 3.36215e-06 -7.0879e-05
-3.63933e-06 -4.16142e-06 3.34318e-06 -7.07298e-05
-0.000484983 0.000140487 0.000147641 -6.91522e-05
-0.000482263 0.000139685 0.000146819 -6.90442e-05
0.000475253 -0.000147675 -0.000140391 -6.90515e-05
0.000477891 -0.000148584 -0.000141131 -6.91468e-05
-0.00048362 0.00014008 0.000147231 -6.90888e-05
-3.58126e-06 -4.07849e-06 3.28275e-06 -7.05023e-05
0.000476568 -0.000148124 -0.000140762 -6.90899e-05
-3.62133e-06 -4.13359e-06 3.32353e-06 -7.06264e-05
-3.60198e-06 -4.10584e-06 3.30335e-06 -7.05536e-05
-0.000482263 0.000139685 0.000146819 -6.90442e-05
-0.00047957 0.000138916 0.000145994 -6.89928e-05
0.000472651 -0.000146805 -0.000139648 -6.90105e-05
0.000475253 -0.000147675 -0.000140391 -6.90515e-05
-0.000480913 0.000139298 0.000146407 -6.90136e-05
-3.53596e-06 -4.02579e-06 3.24075e-06 -7.04457e-05
0.000473948 -0.000147236 -0.000140019 -6.90264e-05
-3.58126e-06 -4.07849e-06 3.28275e-06 -7.05023e-05
-3.55923e-06 -4.05177e-06 3.26186e-06 -7.0468e-05
-0.00047957 0.000138916 0.000145994 -6.89928e-05
-0.000476891 0.000138164 0.000145169 -6.89698e-05
0.000470072 -0.000145956 -0.000138907 -6.89955e-05
0.000472651 -0.000146805 -0.000139648 -6.90105e-05
-0.00047823 0.000138539 0.000145582 -6.8979e-05
-3.48616e-06 -3.97619e-06 3.19815e-06 -7.04219e-05
0.00047136 -0.000146378 -0.000139278 -6.9001e-05
-3.53596e-06 -4.02579e-06 3.24075e-06 -7.04457e-05
-3.51157e-06 -4.00059e-06 3.2195e-06 -7.04313e-05
-0.000476891 0.000138164 0.000145169 -6.89698e-05
-0.000474215 0.000137417 0.000144342 -6.89601e-05
0.000467502 -0.000145119 -0.000138164 -6.89917e-05
0.000470072 -0.000145956 -0.000138907 -6.89955e-05
-0.000475552 0.00013779 0.000144755 -6.89639e-05
-3.43279e-06 -3.92975e-06 3.15537e-06 -7.04133e-05
0.000468786 -0.000145536 -0.000138536 -6.89928e-05
-3.48616e-06 -3.97619e-06 3.19815e-06 -7.04219e-05
-3.45986e-06 -3.95259e-06 3.17676e-06 -7.04164e-05
-0.000474215 0.000137417 0.000144342 -6.89601e-05
-0.00047154 0.000136671 0.000143515 -6.89562e-05
0.000464939 -0.000144288 -0.000137422 -6.8992e-05
0.000467502 -0.000145119 -0.000138164 -6.89917e-05
-0.000472878 0.000137044 0.000143929 -6.89577e-05
-3.37675e-06 -3.88611e-06 3.11266e-06 -7.04109e-05
0.00046622 -0.000144703 -0.000137793 -6.89916e-05
-3.43279e-06 -3.92975e-06 3.15537e-06 -7.04133e-05
-3.40505e-06 -3.90761e-06 3.13399e-06 -7.04117e-05
-0.00047154 0.000136671 0.000143515 -6.89562e-05
-0.000468864 0.000135925 0.000142688 -6.89548e-05
0.000462378 -0.000143462 -0.000136678 -6.89933e-05
0.000464939 -0.000144288 -0.000137422 -6.8992e-05
-0.000470202 0.000136298 0.000143102 -6.89554e-05
-3.31886e-06 -3.84483e-06 3.07015e-06 -7.04108e-05
0.000463658 -0.000143875 -0.00013705 -6.89927e-05
-3.37675e-06 -3.88611e-06 3.11266e-06 -7.04109e-05
-3.34799e-06 -3.86521e-06 3.09137e-06 -7.04107e-05
-0.000468864 0.000135925 0.000142688 -6.89548e-05
-0.000466188 0.000135178 0.000141861 -6.89543e-05
0.000459818 -0.000142638 -0.000135934 -6.89946e-05
0.000462378 -0.000143462 -0.000136678 -6.89933e-05
-0.000467526 0.000135552 0.000142275 -6.89545e-05
-3.25977e-06 -3.80541e-06 3.02793e-06 -7.04112e-05
0.000461098 -0.00014305 -0.000136306 -6.8994e-05
-3.31886e-06 -3.84483e-06 3.07015e-06 -7.04108e-05
-3.28943e-06 -3.82492e-06 3.04901e-06 -7.0411e-05
-0.000466188 0.000135178 0.000141861 -6.89543e-05
-0.000463511 0.00013443 0.000141035 -6.89541e-05
0.00045726 -0.000141816 -0.00013519 -6.89953e-05
0.000459818 -0.000142638 -0.000135934 -6.89946e-05
-0.00046485 0.000134804 0.000141448 -6.89542e-05
-3.19997e-06 -3.76744e-06 2.98603e-06 -7.04115e-05
0.000458539 -0.000142227 -0.000135562 -6.8995e-05
-3.25977e-06 -3.80541e-06 3.02793e-06 -7.04112e-05
-3.22993e-06 -3.78627e-06 3.00694e-06 -7.04114e-05
-0.000463511 0.00013443 0.000141035 -6.89541e-05
-0.000460833 0.00013368 0.000140209 -6.89538e-05
0.000454701 -0.000140995 -0.000134446 -6.89956e-05
0.00045726 -0.000141816 -0.00013519 -6.89953e-05
-0.000462172 0.000134055 0.000140622 -6.8954e-05
-3.13983e-06 -3.73055e-06 2.94445e-06 -7.04116e-05
0.00045598 -0.000141405 -0.000134818 -6.89955e-05
-3.19997e-06 -3.76744e-06 2.98603e-06 -7.04115e-05
-3.16992e-06 -3.74888e-06 2.9652e-06 -7.04116e-05
-0.000460833 0.00013368 0.000140209 -6.89538e-05
-0.000458156 0.00013293 0.000139382 -6.89536e-05
0.000452142 -0.000140174 -0.000133701 -6.89955e-05
0.000454701 -0.000140995 -0.000134446 -6.89956e-05
-0.000459495 0.000133305 0.000139795 -6.89537e-05
-3.07962e-06 -3.69447e-06 2.90318e-06 -7.04114e-05
0.000453421 -0.000140584 -0.000134073 -6.89956e-05
-3.13983e-06 -3.73055e-06 2.94445e-06 -7.04116e-05
-3.10972e-06 -3.71242e-06 2.92378e-06 -7.04115e-05
-0.000458156 0.00013293 0.000139382 -6.89536e-05
-0.000455478 0.000132179 0.000138557 -6.89533e-05
0.000449583 -0.000139354 -0.000132955 -6.89951e-05
0.000452142 -0.000140174 -0.000133701 -6.89955e-05
-0.000456817 0.000132555 0.00013897 -6.89534e-05
-3.01951e-06 -3.65899e-06 2.86221e-06 -7.04111e-05
0.000450862 -0.000139764 -0.000133328 -6.89953e-05
-3.07962e-06 -3.69447e-06 2.90318e-06 -7.04114e-05
-3.04954e-06 -3.67666e-06 2.88266e-06 -7.04113e-05
-0.000455478 0.000132179 0.000138557 -6.89533e-05
-0.000452801 0.000131428 0.000137731 -6.89529e-05
0.000447023 -0.000138534 -0.00013221 -6.89946e-05
0.000449583 -0.000139354 -0.000132955 -6.89951e-05
-0.000454139 0.000131803 0.000138144 -6.89531e-05
-2.95961e-06 -3.62397e-06 2.82153e-06 -7.04107e-05
0.000448303 -0.000138944 -0.000132583 -6.89949e-05
-3.01951e-06 -3.65899e-06 2.86221e-06 -7.04111e-05
-2.98952e-06 -3.64143e-06 2.84184e-06 -7.04109e-05
-0.000452801 0.000131428 0.000137731 -6.89529e-05
-0.000450123 0.000130676 0.000136906 -6.89526e-05
0.000444464 -0.000137715 -0.000131464 -6.8994e-05
0.000447023 -0.000138534 -0.00013221 -6.89946e-05
-0.000451462 0.000131052 0.000137319 -6.89527e-05
-2.89999e-06 -3.5893e-06 2.78113e-06 -7.04102e-05
0.000445744 -0.000138124 -0.000131837 -6.89943e-05
-2.95961e-06 -3.62397e-06 2.82153e-06 -7.04107e-05
-2.92976e-06 -3.60659e-06 2.8013e-06 -7.04105e-05
-0.000450123 0.000130676 0.000136906 -6.89526e-05
-0.000447447 0.000129924 0.000136081 -6.89522e-05
0.000441904 -0.000136896 -0.000130718 -6.89933e-05
0.000444464 -0.000137715 -0.000131464 -6.8994e-05
-0.000448785 0.0001303 0.000136494 -6.89524e-05
-2.84071e-06 -3.55492e-06 2.74098e-06 -7.04097e-05
0.000443184 -0.000137305 -0.000131091 -6.89937e-05
-2.89999e-06 -3.5893e-06 2.78113e-06 -7.04102e-05
-2.87031e-06 -3.57208e-06 2.76102e-06 -7.041e-05
-0.000447447 0.000129924 0.000136081 -6.89522e-05
-0.00044477 0.000129172 0.000135256 -6.89517e-05
0.000439344 -0.000136077 -0.000129972 -6.89926e-05
0.000441904 -0.000136896 -0.000130718 -6.89933e-05
-0.000446108 0.000129548 0.000135669 -6.89519e-05
-2.78177e-06 -3.52078e-06 2.70109e-06 -7.04091e-05
0.000440624 -0.000136486 -0.000130345 -6.8993e-05
-2.84071e-06 -3.55492e-06 2.74098e-06 -7.04097e-05
-2.81119e-06 -3.53782e-06 2.72101e-06 -7.04094e-05
-0.00044477 0.000129172 0.000135256 -6.89517e-05
-0.000442094 0.000128419 0.000134432 -6.89513e-05
0.000436783 -0.000135258 -0.000129225 -6.89919e-05
0.000439344 -0.000136077 -0.000129972 -6.89926e-05
-0.000443432 0.000128796 0.000134844 -6.89515e-05
-2.7232e-06 -3.48686e-06 2.66145e-06 -7.04085e-05
0.000438063 -0.000135667 -0.000129598 -6.89922e-05
-2.78177e-06 -3.52078e-06 2.70109e-06 -7.04091e-05
-2.75244e-06 -3.50379e-06 2.68124e-06 -7.04088e-05
-0.000442094 0.000128419 0.000134432 -6.89513e-05
-0.000439418 0.000127667 0.000133608 -6.89508e-05
0.000434222 -0.000134439 -0.000128478 -6.89911e-05
0.000436783 -0.000135258 -0.000129225 -6.89919e-05
-0.000440756 0.000128043 0.00013402 -6.8951e-05
-2.66499e-06 -3.45314e-06 2.62206e-06 -7.04079e-05
0.000435503 -0.000134849 -0.000128852 -6.89915e-05
-2.7232e-06 -3.48686e-06 2.66145e-06 -7.04085e-05
-2.69405e-06 -3.46998e-06 2.64172e-06 -7.04082e-05
-0.000439418 0.000127667 0.000133608 -6.89508e-05
-0.000436743 0.000126914 0.000132784 -6.89503e-05
0.000431661 -0.000133621 -0.000127731 -6.89903e-05
0.000434222 -0.000134439 -0.000128478 -6.89911e-05
-0.00043808 0.00012729 0.000133196 -6.89506e-05
-2.60714e-06 -3.41962e-06 2.5829e-06 -7.04072e-05
0.000432942 -0.00013403 -0.000128105 -6.89907e-05
-2.66499e-06 -3.45314e-06 2.62206e-06 -7.04079e-05
-2.63602e-06 -3.43636e-06 2.60245e-06 -7.04075e-05
-0.000436743 0.000126914 0.000132784 -6.89503e-05
-0.000434068 0.000126161 0.00013196 -6.89498e-05
0.000429099 -0.000132803 -0.000126984 -6.89896e-05
0.000431661 -0.000133621 -0.000127731 -6.89903e-05
-0.000435405 0.000126537 0.000132372 -6.89501e-05
-2.54966e-06 -3.38629e-06 2.54398e-06 -7.04066e-05
0.00043038 -0.000133212 -0.000127358 -6.89899e-05
-2.60714e-06 -3.41962e-06 2.5829e-06 -7.04072e-05
-2.57835e-06 -3.40293e-06 2.56341e-06 -7.04069e-05
-0.000434068 0.000126161 0.00013196 -6.89498e-05
-0.000431393 0.000125408 0.000131137 -6.89493e-05
0.000426537 -0.000131985 -0.000126237 -6.89888e-05
0.000429099 -0.000132803 -0.000126984 -6.89896e-05
-0.000432731 0.000125784 0.000131548 -6.89495e-05
-2.49253e-06 -3.35315e-06 2.50529e-06 -7.04059e-05
0.000427818 -0.000132394 -0.00012661 -6.89892e-05
-2.54966e-06 -3.38629e-06 2.54398e-06 -7.04066e-05
-2.52105e-06 -3.3697e-06 2.52461e-06 -7.04062e-05
-0.000431393 0.000125408 0.000131137 -6.89493e-05
-0.000428719 0.000124654 0.000130314 -6.89487e-05
0.000423975 -0.000131167 -0.000125489 -6.8988e-05
0.000426537 -0.000131985 -0.000126237 -6.89888e-05
-0.000430056 0.000125031 0.000130725 -6.8949e-05
-2.43577e-06 -3.32021e-06 2.46685e-06 -7.04052e-05
0.000425256 -0.000131576 -0.000125863 -6.89884e-05
-2.49253e-06 -3.35315e-06 2.50529e-06 -7.04059e-05
-2.46411e-06 -3.33666e-06 2.48604e-06 -7.04056e-05
-0.000428719 0.000124654 0.000130314 -6.89487e-05
-0.000426045 0.000123901 0.000129491 -6.89482e-05
0.000421413 -0.00013035 -0.000124741 -6.89872e-05
0.000423975 -0.000131167 -0.000125489 -6.8988e-05
-0.000427382 0.000124277 0.000129902 -6.89485e-05
-2.37935e-06 -3.28746e-06 2.42863e-06 -7.04045e-05
0.000422694 -0.000130759 -0.000125115 -6.89876e-05
-2.43577e-06 -3.32021e-06 2.46685e-06 -7.04052e-05
-2.40752e-06 -3.30381e-06 2.44771e-06 -7.04049e-05
-0.000426045 0.000123901 0.000129491 -6.89482e-05
-0.000423372 0.000123147 0.000128668 -6.89476e-05
0.00041885 -0.000129533 -0.000123993 -6.89863e-05
0.000421413 -0.00013035 -0.000124741 -6.89872e-05
-0.000424708 0.000123524 0.000129079 -6.89479e-05
-2.32329e-06 -3.2549e-06 2.39065e-06 -7.04038e-05
0.000420131 -0.000129941 -0.000124367 -6.89868e-05
-2.37935e-06 -3.28746e-06 2.42863e-06 -7.04045e-05
-2.35128e-06 -3.27115e-06 2.40961e-06 -7.04042e-05
-0.000423372 0.000123147 0.000128668 -6.89476e-05
-0.000420699 0.000122393 0.000127845 -6.8947e-05
0.000416286 -0.000128716 -0.000123245 -6.89855e-05
0.00041885 -0.000129533 -0.000123993 -6.89863e-05
-0.000422035 0.00012277 0.000128256 -6.89473e-05
-2.26758e-06 -3.22254e-06 2.35291e-06 -7.04031e-05
0.000417568 -0.000129124 -0.000123619 -6.89859e-05
-2.32329e-06 -3.2549e-06 2.39065e-06 -7.04038e-05
-2.29539e-06 -3.23869e-06 2.37175e-06 -7.04034e-05
-0.000420699 0.000122393 0.000127845 -6.8947e-05
-0.000418026 0.000121639 0.000127023 -6.89464e-05
0.000413723 -0.000127899 -0.000122496 -6.89847e-05
0.000416286 -0.000128716 -0.000123245 -6.89855e-05
-0.000419362 0.000122016 0.000127434 -6.89467e-05
-2.21222e-06 -3.19038e-06 2.3154e-06 -7.04023e-05
0.000415005 -0.000128307 -0.00012287 -6.89851e-05
-2.26758e-06 -3.22254e-06 2.35291e-06 -7.04031e-05
-2.23986e-06 -3.20643e-06 2.33412e-06 -7.04027e-05
-0.000418026 0.000121639 0.000127023 -6.89464e-05
-0.000415354 0.000120885 0.000126201 -6.89458e-05
0.000411159 -0.000127082 -0.000121747 -6.89838e-05
0.000413723 -0.000127899 -0.000122496 -6.89847e-05
-0.00041669 0.000121262 0.000126612 -6.89461e-05
-2.1572e-06 -3.15841e-06 2.27812e-06 -7.04016e-05
0.000412441 -0.00012749 -0.000122122 -6.89842e-05
-2.21222e-06 -3.19038e-06 2.3154e-06 -7.04023e-05
-2.18467e-06 -3.17437e-06 2.29673e-06 -7.0402e-05
-0.000415354 0.000120885 0.000126201 -6.89458e-05
-0.000412682 0.00012013 0.000125379 -6.89452e-05
0.000408595 -0.000126265 -0.000120998 -6.89829e-05
0.000411159 -0.000127082 -0.000121747 -6.89838e-05
-0.000414018 0.000120507 0.00012579 -6.89455e-05
-2.10254e-06 -3.12665e-06 2.24108e-06 -7.04008e-05
0.000409877 -0.000126674 -0.000121373 -6.89834e-05
-2.1572e-06 -3.15841e-06 2.27812e-06 -7.04016e-05
-2.12983e-06 -3.14251e-06 2.25957e-06 -7.04012e-05
-0.000412682 0.00012013 0.000125379 -6.89452e-05
-0.00041001 0.000119375 0.000124558 -6.89445e-05
0.00040603 -0.000125449 -0.000120249 -6.89821e-05
0.000408595 -0.000126265 -0.000120998 -6.89829e-05
-0.000411346 0.000119753 0.000124968 -6.89449e-05
-2.04822e-06 -3.09509e-06 2.20427e-06 -7.04e-05
0.000407313 -0.000125857 -0.000120624 -6.89825e-05
-2.10254e-06 -3.12665e-06 2.24108e-06 -7.04008e-05
-2.07533e-06 -3.11084e-06 2.22265e-06 -7.04004e-05
-0.00041001 0.000119375 0.000124558 -6.89445e-05
-0.000407339 0.000118621 0.000123736 -6.89439e-05
0.000403466 -0.000124633 -0.0001195 -6.89812e-05
0.00040603 -0.000125449 -0.000120249 -6.89821e-05
-0.000408674 0.000118998 0.000124147 -6.89442e-05
-1.99425e-06 -3.06373e-06 2.1677e-06 -7.03993e-05
0.000404748 -0.000125041 -0.000119874 -6.89816e-05
-2.04822e-06 -3.09509e-06 2.20427e-06 -7.04e-05
-2.02119e-06 -3.07938e-06 2.18596e-06 -7.03997e-05
-0.000407339 0.000118621 0.000123736 -6.89439e-05
-0.000404668 0.000117866 0.000122915 -6.89432e-05
0.000400901 -0.000123817 -0.00011875 -6.89803e-05
0.000403466 -0.000124633 -0.0001195 -6.89812e-05
-0.000406003 0.000118243 0.000123326 -6.89436e-05
-1.94062e-06 -3.03256e-06 2.13136e-06 -7.03985e-05
0.000402183 -0.000124225 -0.000119125 -6.89807e-05
-1.99425e-06 -3.06373e-06 2.1677e-06 -7.03993e-05
-1.96739e-06 -3.04812e-06 2.1495e-06 -7.03989e-05
-0.000404668 0.000117866 0.000122915 -6.89432e-05
-0.000401997 0.00011711 0.000122094 -6.89426e-05
0.000398335 -0.000123002 -0.000118 -6.89794e-05
0.000400901 -0.000123817 -0.00011875 -6.89803e-05
-0.000403333 0.000117488 0.000122505 -6.89429e-05
-1.88734e-06 -3.0016e-06 2.09526e-06 -7.03977e-05
0.000399618 -0.000123409 -0.000118375 -6.89798e-05
-1.94062e-06 -3.03256e-06 2.13136e-06 -7.03985e-05
-1.91394e-06 -3.01706e-06 2.11328e-06 -7.03981e-05
-0.000401997 0.00011711 0.000122094 -6.89426e-05
-0.000399327 0.000116355 0.000121274 -6.89419e-05
0.000395769 -0.000122186 -0.00011725 -6.89784e-05
0.000398335 -0.000123002 -0.000118 -6.89794e-05
-0.000400662 0.000116733 0.000121684 -6.89422e-05
-1.83441e-06 -2.97084e-06 2.05939e-06 -7.03968e-05
0.000397052 -0.000122594 -0.000117625 -6.89789e-05
-1.88734e-06 -3.0016e-06 2.09526e-06 -7.03977e-05
-1.86083e-06 -2.9862e-06 2.0773e-06 -7.03973e-05
-0.000399327 0.000116355 0.000121274 -6.89419e-05
-0.000396657 0.000115599 0.000120453 -6.89412e-05
0.000393203 -0.000121371 -0.0001165 -6.89775e-05
0.000395769 -0.000122186 -0.00011725 -6.89784e-05
-0.000397992 0.000115977 0.000120864 -6.89415e-05
-1.78182e-06 -2.94028e-06 2.02376e-06 -7.0396e-05
0.000394486 -0.000121778 -0.000116875 -6.8978e-05
-1.83441e-06 -2.97084e-06 2.05939e-06 -7.03968e-05
-1.80807e-06 -2.95554e-06 2.04155e-06 -7.03964e-05
-0.000396657 0.000115599 0.000120453 -6.89412e-05
-0.000393988 0.000114844 0.000119633 -6.89405e-05
0.000390637 -0.000120556 -0.000115749 -6.89766e-05
0.000393203 -0.000121371 -0.0001165 -6.89775e-05
-0.000395323 0.000115221 0.000120043 -6.89408e-05
-1.72959e-06 -2.90992e-06 1.98836e-06 -7.03952e-05
0.00039192 -0.000120963 -0.000116124 -6.8977e-05
-1.78182e-06 -2.94028e-06 2.02376e-06 -7.0396e-05
-1.75566e-06 -2.92508e-06 2.00603e-06 -7.03956e-05
-0.000393988 0.000114844 0.000119633 -6.89405e-05
-0.000391319 0.000114088 0.000118813 -6.89398e-05
0.00038807 -0.000119741 -0.000114998 -6.89756e-05
0.000390637 -0.000120556 -0.000115749 -6.89766e-05
-0.000392654 0.000114466 0.000119223 -6.89401e-05
-1.67769e-06 -2.87976e-06 1.9532e-06 -7.03943e-05
0.000389354 -0.000120148 -0.000115374 -6.89761e-05
-1.72959e-06 -2.90992e-06 1.98836e-06 -7.03952e-05
-1.7036e-06 -2.89482e-06 1.97075e-06 -7.03948e-05
-0.000391319 0.000114088 0.000118813 -6.89398e-05
-0.00038865 0.000113331 0.000117994 -6.89391e-05
0.000385503 -0.000118926 -0.000114247 -6.89747e-05
0.00038807 -0.000119741 -0.000114998 -6.89756e-05
-0.000389985 0.00011371 0.000118404 -6.89394e-05
-1.62615e-06 -2.84981e-06 1.91827e-06 -7.03935e-05
0.000386787 -0.000119334 -0.000114623 -6.89751e-05
-1.67769e-06 -2.87976e-06 1.9532e-06 -7.03943e-05
-1.65188e-06 -2.86476e-06 1.9357e-06 -7.03939e-05
-0.00038865 0.000113331 0.000117994 -6.89391e-05
-0.000385982 0.000112575 0.000117174 -6.89383e-05
0.000382936 -0.000118112 -0.000113496 -6.89737e-05
0.000385503 -0.000118926 -0.000114247 -6.89747e-05
-0.000387316 0.000112953 0.000117584 -6.89387e-05
-1.57495e-06 -2.82005e-06 1.88357e-06 -7.03926e-05
0.00038422 -0.000118519 -0.000113872 -6.89742e-05
-1.62615e-06 -2.84981e-06 1.91827e-06 -7.03935e-05
-1.60051e-06 -2.83491e-06 1.90089e-06 -7.0393e-05
-0.000385982 0.000112575 0.000117174 -6.89383e-05
-0.000383314 0.000111819 0.000116355 -6.89376e-05
0.000380369 -0.000117298 -0.000112745 -6.89727e-05
0.000382936 -0.000118112 -0.000113496 -6.89737e-05
-0.000384648 0.000112197 0.000116765 -6.8938e-05
-1.5241e-06 -2.7905e-06 1.84911e-06 -7.03917e-05
0.000381652 -0.000117705 -0.00011312 -6.89732e-05
-1.57495e-06 -2.82005e-06 1.88357e-06 -7.03926e-05
-1.54948e-06 -2.80525e-06 1.86631e-06 -7.03922e-05
-0.000383314 0.000111819 0.000116355 -6.89376e-05
-0.000380647 0.000111062 0.000115536 -6.89369e-05
0.000377801 -0.000116484 -0.000111993 -6.89717e-05
0.000380369 -0.000117298 -0.000112745 -6.89727e-05
-0.00038198 0.00011144 0.000115946 -6.89372e-05
-1.4736e-06 -2.76115e-06 1.81489e-06 -7.03908e-05
0.000379085 -0.000116891 -0.000112369 -6.89722e-05
-1.5241e-06 -2.7905e-06 1.84911e-06 -7.03917e-05
-1.4988e-06 -2.7758e-06 1.83197e-06 -7.03913e-05
-0.000380647 0.000111062 0.000115536 -6.89369e-05
-0.00037798 0.000110305 0.000114718 -6.89361e-05
0.000375232 -0.00011567 -0.000111241 -6.89707e-05
0.000377801 -0.000116484 -0.000111993 -6.89717e-05
-0.000379313 0.000110683 0.000115127 -6.89365e-05
-1.42344e-06 -2.73199e-06 1.7809e-06 -7.039e-05
0.000376517 -0.000116077 -0.000111617 -6.89712e-05
-1.4736e-06 -2.76115e-06 1.81489e-06 -7.03908e-05
-1.44847e-06 -2.74654e-06 1.79786e-06 -7.03904e-05
-0.00037798 0.000110305 0.000114718 -6.89361e-05
-0.000375313 0.000109548 0.000113899 -6.89353e-05
0.000372664 -0.000114856 -0.000110489 -6.89697e-05
0.000375232 -0.00011567 -0.000111241 -6.89707e-05
-0.000376646 0.000109926 0.000114308 -6.89357e-05
-1.37363e-06 -2.70304e-06 1.74714e-06 -7.03891e-05
0.000373948 -0.000115263 -0.000110865 -6.89702e-05
-1.42344e-06 -2.73199e-06 1.7809e-06 -7.039e-05
-1.39849e-06 -2.71749e-06 1.76399e-06 -7.03895e-05
-0.000375313 0.000109548 0.000113899 -6.89353e-05
-0.000372647 0.000108791 0.000113081 -6.89346e-05
0.000370095 -0.000114043 -0.000109737 -6.89687e-05
0.000372664 -0.000114856 -0.000110489 -6.89697e-05
-0.00037398 0.000109169 0.00011349 -6.8935e-05
-1.32416e-06 -2.67429e-06 1.71362e-06 -7.03882e-05
0.00037138 -0.000114449 -0.000110113 -6.89692e-05
-1.37363e-06 -2.70304e-06 1.74714e-06 -7.03891e-05
-1.34885e-06 -2.68864e-06 1.73036e-06 -7.03886e-05
-0.000372647 0.000108791 0.000113081 -6.89346e-05
-0.000369981 0.000108033 0.000112263 -6.89338e-05
0.000367526 -0.00011323 -0.000108984 -6.89677e-05
0.000370095 -0.000114043 -0.000109737 -6.89687e-05
-0.000371313 0.000108412 0.000112672 -6.89342e-05
-1.27505e-06 -2.64575e-06 1.68034e-06 -7.03872e-05
0.000368811 -0.000113636 -0.00010936 -6.89682e-05
-1.32416e-06 -2.67429e-06 1.71362e-06 -7.03882e-05
-1.29956e-06 -2.65999e-06 1.69695e-06 -7.03877e-05
-0.000369981 0.000108033 0.000112263 -6.89338e-05
-0.000367315 0.000107276 0.000111445 -6.8933e-05
0.000364957 -0.000112417 -0.000108231 -6.89667e-05
0.000367526 -0.00011323 -0.000108984 -6.89677e-05
-0.000368648 0.000107654 0.000111854 -6.89334e-05
-1.22628e-06 -2.6174e-06 1.64729e-06 -7.03863e-05
0.000366241 -0.000112823 -0.000108608 -6.89672e-05
-1.27505e-06 -2.64575e-06 1.68034e-06 -7.03872e-05
-1.25062e-06 -2.63155e-06 1.66379e-06 -7.03868e-05
-0.000367315 0.000107276 0.000111445 -6.8933e-05
-0.00036465 0.000106518 0.000110628 -6.89322e-05
0.000362387 -0.000111604 -0.000107478 -6.89657e-05
0.000364957 -0.000112417 -0.000108231 -6.89667e-05
-0.000365982 0.000106897 0.000111037 -6.89326e-05
-1.17785e-06 -2.58925e-06 1.61447e-06 -7.03854e-05
0.000363672 -0.00011201 -0.000107855 -6.89662e-05
-1.22628e-06 -2.6174e-06 1.64729e-06 -7.03863e-05
-1.20202e-06 -2.6033e-06 1.63085e-06 -7.03859e-05
-0.00036465 0.000106518 0.000110628 -6.89322e-05
-0.000361985 0.00010576 0.000109811 -6.89314e-05
0.000359817 -0.000110791 -0.000106725 -6.89646e-05
0.000362387 -0.000111604 -0.000107478 -6.89657e-05
-0.000363317 0.000106139 0.000110219 -6.89318e-05
-1.12978e-06 -2.56131e-06 1.58189e-06 -7.03845e-05
0.000361102 -0.000111197 -0.000107102 -6.89651e-05
-1.17785e-06 -2.58925e-06 1.61447e-06 -7.03854e-05
-1.15377e-06 -2.57526e-06 1.59816e-06 -7.03849e-05
-0.000361985 0.00010576 0.000109811 -6.89314e-05
-0.00035932 0.000105001 0.000108994 -6.89306e-05
0.000357246 -0.000109979 -0.000105972 -6.89636e-05
0.000359817 -0.000110791 -0.000106725 -6.89646e-05
-0.000360652 0.000105381 0.000109402 -6.8931e-05
-1.08205e-06 -2.53356e-06 1.54955e-06 -7.03835e-05
0.000358532 -0.000110385 -0.000106349 -6.89641e-05
-1.12978e-06 -2.56131e-06 1.58189e-06 -7.03845e-05
-1.10587e-06 -2.54741e-06 1.56569e-06 -7.0384e-05
-0.00035932 0.000105001 0.000108994 -6.89306e-05
-0.000356656 0.000104243 0.000108177 -6.89298e-05
0.000354676 -0.000109167 -0.000105218 -6.89625e-05
0.000357246 -0.000109979 -0.000105972 -6.89636e-05
-0.000357988 0.000104622 0.000108585 -6.89302e-05
-1.03467e-06 -2.50602e-06 1.51744e-06 -7.03826e-05
0.000355961 -0.000109573 -0.000105595 -6.89631e-05
-1.08205e-06 -2.53356e-06 1.54955e-06 -7.03835e-05
-1.05832e-06 -2.51977e-06 1.53347e-06 -7.0383e-05
-0.000356656 0.000104243 0.000108177 -6.89298e-05
-0.000353992 0.000103485 0.000107361 -6.8929e-05
0.000352105 -0.000108355 -0.000104464 -6.89615e-05
0.000354676 -0.000109167 -0.000105218 -6.89625e-05
-0.000355324 0.000103864 0.000107769 -6.89294e-05
-9.87635e-07 -2.47868e-06 1.48556e-06 -7.03816e-05
0.00035339 -0.000108761 -0.000104841 -6.8962e-05
-1.03467e-06 -2.50602e-06 1.51744e-06 -7.03826e-05
-1.01111e-06 -2.49233e-06 1.50147e-06 -7.03821e-05
-0.000353992 0.000103485 0.000107361 -6.8929e-05
-0.000351329 0.000102726 0.000106544 -6.89282e-05
0.000349533 -0.000107543 -0.00010371 -6.89604e-05
0.000352105 -0.000108355 -0.000104464 -6.89615e-05
-0.000352661 0.000103105 0.000106952 -6.89286e-05
-9.40947e-07 -2.45154e-06 1.45392e-06 -7.03807e-05
0.000350819 -0.000107949 -0.000104087 -6.8961e-05
-9.87635e-07 -2.47868e-06 1.48556e-06 -7.03816e-05
-9.64248e-07 -2.46509e-06 1.46972e-06 -7.03811e-05
-0.000351329 0.000102726 0.000106544 -6.89282e-05
-0.000348666 0.000101967 0.000105728 -6.89274e-05
0.000346962 -0.000106731 -0.000102956 -6.89594e-05
0.000349533 -0.000107543 -0.00010371 -6.89604e-05
-0.000349997 0.000102346 0.000106136 -6.89278e-05
-8.94607e-07 -2.42461e-06 1.42252e-06 -7.03797e-05
0.000348248 -0.000107137 -0.000103333 -6.89599e-05
-9.40947e-07 -2.45154e-06 1.45392e-06 -7.03807e-05
-9.17734e-07 -2.43805e-06 1.43819e-06 -7.03802e-05
-0.000348666 0.000101967 0.000105728 -6.89274e-05
-0.000346003 0.000101208 0.000104912 -6.89266e-05
0.00034439 -0.00010592 -0.000102201 -6.89583e-05
0.000346962 -0.000106731 -0.000102956 -6.89594e-05
-0.000347335 0.000101587 0.00010532 -6.8927e-05
-8.48614e-07 -2.39787e-06 1.39135e-06 -7.03787e-05
0.000345676 -0.000106326 -0.000102579 -6.89588e-05
-8.94607e-07 -2.42461e-06 1.42252e-06 -7.03797e-05
-8.71567e-07 -2.41121e-06 1.40691e-06 -7.03792e-05
-0.000346003 0.000101208 0.000104912 -6.89266e-05
-0.000343341 0.000100448 0.000104097 -6.89257e-05
0.000341818 -0.000105109 -0.000101447 -6.89572e-05
0.00034439 -0.00010592 -0.000102201 -6.89583e-05
-0.000344672 0.000100828 0.000104505 -6.89262e-05
-8.02967e-07 -2.37133e-06 1.36041e-06 -7.03778e-05
0.000343104 -0.000105515 -0.000101824 -6.89578e-05
-8.48614e-07 -2.39787e-06 1.39135e-06 -7.03787e-05
-8.25747e-07 -2.38458e-06 1.37585e-06 -7.03783e-05
-0.000343341 0.000100448 0.000104097 -6.89257e-05
-0.000340679 9.96889e-05 0.000103282 -6.89249e-05
0.000339245 -0.000104298 -0.000100692 -6.89562e-05
0.000341818 -0.000105109 -0.000101447 -6.89572e-05
-0.00034201 0.000100069 0.000103689 -6.89253e-05
-7.57668e-07 -2.345e-06 1.32971e-06 -7.03768e-05
0.000340532 -0.000104704 -0.000101069 -6.89567e-05
-8.02967e-07 -2.37133e-06 1.36041e-06 -7.03778e-05
-7.80275e-07 -2.35814e-06 1.34504e-06 -7.03773e-05
-0.000340679 9.96889e-05 0.000103282 -6.89249e-05
-0.000338018 9.89292e-05 0.000102467 -6.89241e-05
0.000336672 -0.000103487 -9.99365e-05 -6.89551e-05
0.000339245 -0.000104298 -0.000100692 -6.89562e-05
-0.000339349 9.93091e-05 0.000102874 -6.89245e-05
-7.12716e-07 -2.31887e-06 1.29925e-06 -7.03758e-05
0.000337959 -0.000103893 -0.000100314 -6.89556e-05
-7.57668e-07 -2.345e-06 1.32971e-06 -7.03768e-05
-7.35149e-07 -2.33191e-06 1.31445e-06 -7.03763e-05
-0.000338018 9.89292e-05 0.000102467 -6.89241e-05
-0.000335357 9.81694e-05 0.000101652 -6.89232e-05
0.000334099 -0.000102677 -9.9181e-05 -6.8954e-05
0.000336672 -0.000103487 -9.99365e-05 -6.89551e-05
-0.000336687 9.85493e-05 0.000102059 -6.89236e-05
-6.68111e-07 -2.29294e-06 1.26902e-06 -7.03748e-05
0.000335386 -0.000103082 -9.95588e-05 -6.89545e-05
-7.12716e-07 -2.31887e-06 1.29925e-06 -7.03758e-05
-6.90371e-07 -2.30588e-06 1.28411e-06 -7.03753e-05
-0.000335357 9.81694e-05 0.000101652 -6.89232e-05
-0.000332696 9.74093e-05 0.000100837 -6.89224e-05
0.000331526 -0.000101867 -9.84254e-05 -6.89529e-05
0.000334099 -0.000102677 -9.9181e-05 -6.8954e-05
-0.000334026 9.77894e-05 0.000101244 -6.89228e-05
-6.23854e-07 -2.26721e-06 1.23903e-06 -7.03739e-05
0.000332813 -0.000102272 -9.88033e-05 -6.89534e-05
-6.68111e-07 -2.29294e-06 1.26902e-06 -7.03748e-05
-6.45939e-07 -2.28005e-06 1.25399e-06 -7.03743e-05
-0.000332696 9.74093e-05 0.000100837 -6.89224e-05
-0.000330036 9.66491e-05 0.000100023 -6.89215e-05
0.000328952 -0.000101057 -9.76696e-05 -6.89518e-05
0.000331526 -0.000101867 -9.84254e-05 -6.89529e-05
-0.000331366 9.70292e-05 0.00010043 -6.8922e-05
-5.79943e-07 -2.24168e-06 1.20927e-06 -7.03729e-05
0.000330239 -0.000101462 -9.80475e-05 -6.89524e-05
-6.23854e-07 -2.26721e-06 1.23903e-06 -7.03739e-05
-6.01855e-07 -2.25442e-06 1.22412e-06 -7.03734e-05
-0.000330036 9.66491e-05 0.000100023 -6.89215e-05
-0.000327376 9.58887e-05 9.92088e-05 -6.89207e-05
0.000326378 -0.000100247 -9.69135e-05 -6.89507e-05
0.000328952 -0.000101057 -9.76696e-05 -6.89518e-05
-0.000328706 9.62689e-05 9.96158e-05 -6.89211e-05
-5.3638e-07 -2.21635e-06 1.17974e-06 -7.03719e-05
0.000327665 -0.000100652 -9.72916e-05 -6.89513e-05
-5.79943e-07 -2.24168e-06 1.20927e-06 -7.03729e-05
-5.58118e-07 -2.22899e-06 1.19448e-06 -7.03724e-05
-0.000327376 9.58887e-05 9.92088e-05 -6.89207e-05
-0.000324716 9.5128e-05 9.83949e-05 -6.89198e-05
0.000323804 -9.9437e-05 -9.61572e-05 -6.89496e-05
0.000326378 -0.000100247 -9.69135e-05 -6.89507e-05
-0.000326046 9.55084e-05 9.88018e-05 -6.89203e-05
-4.93163e-07 -2.19123e-06 1.15045e-06 -7.03709e-05
0.000325091 -9.98418e-05 -9.65354e-05 -6.89502e-05
-5.3638e-07 -2.21635e-06 1.17974e-06 -7.03719e-05
-5.14728e-07 -2.20376e-06 1.16507e-06 -7.03714e-05
-0.000324716 9.5128e-05 9.83949e-05 -6.89198e-05
-0.000322057 9.43673e-05 9.75813e-05 -6.8919e-05
0.000321229 -9.86275e-05 -9.54007e-05 -6.89485e-05
0.000323804 -9.9437e-05 -9.61572e-05 -6.89496e-05
-0.000323387 9.47477e-05 9.79881e-05 -6.89194e-05
-4.50294e-07 -2.1663e-06 1.1214e-06 -7.03699e-05
0.000322517 -9.90322e-05 -9.5779e-05 -6.89491e-05
-4.93163e-07 -2.19123e-06 1.15045e-06 -7.03709e-05
-4.71686e-07 -2.17874e-06 1.1359e-06 -7.03704e-05
-0.000322057 9.43673e-05 9.75813e-05 -6.8919e-05
-0.000319398 9.36063e-05 9.6768e-05 -6.89181e-05
0.000318654 -9.78183e-05 -9.4644e-05 -6.89474e-05
0.000321229 -9.86275e-05 -9.54007e-05 -6.89485e-05
-0.000320728 9.39868e-05 9.71746e-05 -6.89185e-05
-4.07772e-07 -2.14158e-06 1.09258e-06 -7.03689e-05
0.000319942 -9.82229e-05 -9.50224e-05 -6.8948e-05
-4.50294e-07 -2.1663e-06 1.1214e-06 -7.03699e-05
-4.2899e-07 -2.15392e-06 1.10696e-06 -7.03694e-05
-0.000319398 9.36063e-05 9.6768e-05 -6.89181e-05
-0.00031674 9.28451e-05 9.59549e-05 -6.89173e-05
0.000316079 -9.70093e-05 -9.3887e-05 -6.89463e-05
0.000318654 -9.78183e-05 -9.4644e-05 -6.89474e-05
-0.000318069 9.32257e-05 9.63614e-05 -6.89177e-05
-3.65598e-07 -2.11706e-06 1.064e-06 -7.03679e-05
0.000317367 -9.74137e-05 -9.42655e-05 -6.89469e-05
-4.07772e-07 -2.14158e-06 1.09258e-06 -7.03689e-05
-3.86642e-07 -2.1293e-06 1.07826e-06 -7.03684e-05
-0.00031674 9.28451e-05 9.59549e-05 -6.89173e-05
-0.000314082 9.20838e-05 9.5142e-05 -6.89164e-05
0.000313503 -9.62004e-05 -9.31299e-05 -6.89452e-05
0.000316079 -9.70093e-05 -9.3887e-05 -6.89463e-05
-0.000315411 9.24645e-05 9.55484e-05 -6.89168e-05
-3.2377e-07 -2.09274e-06 1.03565e-06 -7.03669e-05
0.000314791 -9.66048e-05 -9.35085e-05 -6.89458e-05
-3.65598e-07 -2.11706e-06 1.064e-06 -7.03679e-05
-3.44641e-07 -2.10488e-06 1.04979e-06 -7.03674e-05
-0.000314082 9.20838e-05 9.5142e-05 -6.89164e-05
-0.000311424 9.13222e-05 9.43293e-05 -6.89155e-05
0.000310928 -9.53918e-05 -9.23725e-05 -6.89441e-05
0.000313503 -9.62004e-05 -9.31299e-05 -6.89452e-05
-0.000312753 9.1703e-05 9.47356e-05 -6.8916e-05
-2.8229e-07 -2.06862e-06 1.00753e-06 -7.03659e-05
0.000312216 -9.57961e-05 -9.27512e-05 -6.89447e-05
-3.2377e-07 -2.09274e-06 1.03565e-06 -7.03669e-05
-3.02987e-07 -2.08066e-06 1.02156e-06 -7.03664e-05
-0.000311424 9.13222e-05 9.43293e-05 -6.89155e-05
-0.000308767 9.05605e-05 9.3517e-05 -6.89147e-05
0.000308351 -9.45834e-05 -9.16149e-05 -6.8943e-05
0.000310928 -9.53918e-05 -9.23725e-05 -6.89441e-05
-0.000310095 9.09414e-05 9.39231e-05 -6.89151e-05
-2.41156e-07 -2.04471e-06 9.79656e-07 -7.03649e-05
0.00030964 -9.49876e-05 -9.19937e-05 -6.89436e-05
-2.8229e-07 -2.06862e-06 1.00753e-06 -7.03659e-05
-2.6168e-07 -2.05664e-06 9.93566e-07 -7.03654e-05
-0.000308767 9.05605e-05 9.3517e-05 -6.89147e-05
-0.00030611 8.97986e-05 9.27048e-05 -6.89138e-05
0.000305775 -9.37752e-05 -9.0857e-05 -6.89419e-05
0.000308351 -9.45834e-05 -9.16149e-05 -6.8943e-05
-0.000307438 9.01796e-05 9.31109e-05 -6.89142e-05
-2.0037e-07 -2.02099e-06 9.52013e-07 -7.03639e-05
0.000307063 -9.41793e-05 -9.1236e-05 -6.89425e-05
-2.41156e-07 -2.04471e-06 9.79656e-07 -7.03649e-05
-2.2072e-07 -2.03283e-06 9.65805e-07 -7.03644e-05
-0.00030611 8.97986e-05 9.27048e-05 -6.89138e-05
-0.000303453 8.90365e-05 9.18929e-05 -6.89129e-05
0.000303198 -9.29672e-05 -9.0099e-05 -6.89408e-05
0.000305775 -9.37752e-05 -9.0857e-05 -6.89419e-05
-0.000304782 8.94176e-05 9.22988e-05 -6.89134e-05
-1.59931e-07 -1.99748e-06 9.24605e-07 -7.03629e-05
0.000304487 -9.33712e-05 -9.04781e-05 -6.89414e-05
-2.0037e-07 -2.02099e-06 9.52013e-07 -7.03639e-05
-1.80108e-07 -2.00921e-06 9.3828e-07 -7.03634e-05
-0.000303453 8.90365e-05 9.18929e-05 -6.89129e-05
-0.000300797 8.82742e-05 9.10812e-05 -6.89121e-05
0.000300621 -9.21594e-05 -8.93407e-05 -6.89397e-05
0.000303198 -9.29672e-05 -9.0099e-05 -6.89408e-05
-0.000302125 8.86554e-05 9.1487e-05 -6.89125e-05
-1.1984e-07 -1.97417e-06 8.97433e-07 -7.03619e-05
0.00030191 -9.25633e-05 -8.97199e-05 -6.89403e-05
-1.59931e-07 -1.99748e-06 9.24605e-07 -7.03629e-05
-1.39842e-07 -1.9858e-06 9.1099e-07 -7.03624e-05
-0.000300797 8.82742e-05 9.10812e-05 -6.89121e-05
-0.000298141 8.75118e-05 9.02698e-05 -6.89112e-05
0.000298044 -9.13518e-05 -8.85822e-05 -6.89386e-05
0.000300621 -9.21594e-05 -8.93407e-05 -6.89397e-05
-0.000299469 8.7893e-05 9.06755e-05 -6.89116e-05
-8.00952e-08 -1.95106e-06 8.70495e-07 -7.03609e-05
0.000299332 -9.17556e-05 -8.89615e-05 -6.89392e-05
-1.1984e-07 -1.97417e-06 8.97433e-07 -7.03619e-05
-9.99243e-08 -1.96259e-06 8.83935e-07 -7.03614e-05
-0.000298141 8.75118e-05 9.02698e-05 -6.89112e-05
-0.000295486 8.67491e-05 8.94586e-05 -6.89104e-05
0.000295466 -9.05444e-05 -8.78235e-05 -6.89375e-05
0.000298044 -9.13518e-05 -8.85822e-05 -6.89386e-05
-0.000296814 8.71305e-05 8.98642e-05 -6.89108e-05
-4.0698e-08 -1.92815e-06 8.43793e-07 -7.03598e-05
0.000296755 -9.09481e-05 -8.82029e-05 -6.89381e-05
-8.00952e-08 -1.95106e-06 8.70495e-07 -7.03609e-05
-6.03534e-08 -1.93958e-06 8.57115e-07 -7.03604e-05
-0.000295486 8.67491e-05 8.94586e-05 -6.89104e-05
-0.000292831 8.59863e-05 8.86477e-05 -6.89095e-05
0.000292888 -8.97373e-05 -8.70646e-05 -6.89364e-05
0.000295466 -9.05444e-05 -8.78235e-05 -6.89375e-05
-0.000294158 8.63678e-05 8.90531e-05 -6.89099e-05
-1.64795e-09 -1.90545e-06 8.17326e-07 -7.03588e-05
0.000294177 -9.01408e-05 -8.74441e-05 -6.8937e-05
-4.0698e-08 -1.92815e-06 8.43793e-07 -7.03598e-05
-2.11298e-08 -1.91677e-06 8.3053e-07 -7.03593e-05
-0.000292831 8.59863e-05 8.86477e-05 -6.89095e-05
-0.000290176 8.52233e-05 8.7837e-05 -6.89086e-05
0.00029031 -8.89303e-05 -8.63055e-05 -6.89353e-05
0.000292888 -8.97373e-05 -8.70646e-05 -6.89364e-05
-0.000291504 8.56048e-05 8.82423e-05 -6.89091e-05
3.70549e-08 -1.88294e-06 7.91094e-07 -7.03578e-05
0.000291599 -8.93338e-05 -8.66851e-05 -6.89358e-05
-1.64795e-09 -1.90545e-06 8.17326e-07 -7.03588e-05
1.77466e-08 -1.89417e-06 8.0418e-07 -7.03583e-05
-0.000290176 8.52233e-05 8.7837e-05 -6.89086e-05
-0.000287522 8.44601e-05 8.70266e-05 -6.89078e-05
0.000287731 -8.81236e-05 -8.55461e-05 -6.89342e-05
0.00029031 -8.89303e-05 -8.63055e-05 -6.89353e-05
-0.000288849 8.48417e-05 8.74318e-05 -6.89082e-05
7.54105e-08 -1.86064e-06 7.65097e-07 -7.03568e-05
0.00028902 -8.85269e-05 -8.59258e-05 -6.89347e-05
3.70549e-08 -1.88294e-06 7.91094e-07 -7.03578e-05
5.62759e-08 -1.87176e-06 7.78066e-07 -7.03573e-05
-0.000287522 8.44601e-05 8.70266e-05 -6.89078e-05
-0.000284868 8.36967e-05 8.62163e-05 -6.89069e-05
0.000285152 -8.7317e-05 -8.47865e-05 -6.89331e-05
0.000287731 -8.81236e-05 -8.55461e-05 -6.89342e-05
-0.000286195 8.40784e-05 8.66214e-05 -6.89073e-05
1.13419e-07 -1.83854e-06 7.39336e-07 -7.03558e-05
0.000286442 -8.77203e-05 -8.51663e-05 -6.89336e-05
7.54105e-08 -1.86064e-06 7.65097e-07 -7.03568e-05
9.44579e-08 -1.84956e-06 7.52187e-07 -7.03563e-05
-0.000284868 8.36967e-05 8.62163e-05 -6.89069e-05
-0.000282215 8.29331e-05 8.54064e-05 -6.8906e-05
0.000282573 -8.65107e-05 -8.40267e-05 -6.8932e-05
0.000285152 -8.7317e-05 -8.47865e-05 -6.89331e-05
-0.000283541 8.3315e-05 8.58113e-05 -6.89065e-05
1.5108e-07 -1.81664e-06 7.1381e-07 -7.03548e-05
0.000283863 -8.69138e-05 -8.44066e-05 -6.89325e-05
1.13419e-07 -1.83854e-06 7.39336e-07 -7.03558e-05
1.32293e-07 -1.82756e-06 7.26543e-07 -7.03553e-05
-0.000282215 8.29331e-05 8.54064e-05 -6.8906e-05
-0.000279562 8.21694e-05 8.45967e-05 -6.89052e-05
0.000279994 -8.57046e-05 -8.32667e-05 -6.89309e-05
0.000282573 -8.65107e-05 -8.40267e-05 -6.8932e-05
-0.000280888 8.25513e-05 8.50015e-05 -6.89056e-05
1.88394e-07 -1.79494e-06 6.88519e-07 -7.03538e-05
0.000281283 -8.61076e-05 -8.36467e-05 -6.89314e-05
1.5108e-07 -1.81664e-06 7.1381e-07 -7.03548e-05
1.6978e-07 -1.80576e-06 7.01135e-07 -7.03543e-05
-0.000279562 8.21694e-05 8.45967e-05 -6.89052e-05
-0.000276909 8.14054e-05 8.37872e-05 -6.89043e-05
0.000277414 -8.48987e-05 -8.25064e-05 -6.89298e-05
0.000279994 -8.57046e-05 -8.32667e-05 -6.89309e-05
-0.000278235 8.17874e-05 8.41919e-05 -6.89047e-05
2.25361e-07 -1.77344e-06 6.63463e-07 -7.03528e-05
0.000278704 -8.53016e-05 -8.28866e-05 -6.89303e-05
1.88394e-07 -1.79494e-06 6.88519e-07 -7.03538e-05
2.06921e-07 -1.78416e-06 6.75961e-07 -7.03533e-05
-0.000276909 8.14054e-05 8.37872e-05 -6.89043e-05
-0.000274256 8.06413e-05 8.29779e-05 -6.89035e-05
0.000274834 -8.40929e-05 -8.1746e-05 -6.89287e-05
0.000277414 -8.48987e-05 -8.25064e-05 -6.89298e-05
-0.000275583 8.10234e-05 8.33825e-05 -6.89039e-05
2.6198e-07 -1.75215e-06 6.38642e-07 -7.03518e-05
0.000276124 -8.44958e-05 -8.21262e-05 -6.89292e-05
2.25361e-07 -1.77344e-06 6.63463e-07 -7.03528e-05
2.43714e-07 -1.76277e-06 6.51023e-07 -7.03523e-05
-0.000274256 8.06413e-05 8.29779e-05 -6.89035e-05
-0.000271605 7.9877e-05 8.21689e-05 -6.89026e-05
0.000272253 -8.32874e-05 -8.09853e-05 -6.89276e-05
0.000274834 -8.40929e-05 -8.1746e-05 -6.89287e-05
-0.00027293 8.02592e-05 8.25734e-05 -6.8903e-05
2.98252e-07 -1.73105e-06 6.14057e-07 -7.03508e-05
0.000273543 -8.36902e-05 -8.13657e-05 -6.89281e-05
2.6198e-07 -1.75215e-06 6.38642e-07 -7.03518e-05
2.80159e-07 -1.74157e-06 6.2632e-07 -7.03513e-05
-0.000271605 7.9877e-05 8.21689e-05 -6.89026e-05
-0.000268953 7.91125e-05 8.13602e-05 -6.89018e-05
0.000269672 -8.24822e-05 -8.02244e-05 -6.89265e-05
0.000272253 -8.32874e-05 -8.09853e-05 -6.89276e-05
-0.000270279 7.94948e-05 8.17645e-05 -6.89022e-05
3.34177e-07 -1.71016e-06 5.89707e-07 -7.03498e-05
0.000270963 -8.28848e-05 -8.06049e-05 -6.8927e-05
2.98252e-07 -1.73105e-06 6.14057e-07 -7.03508e-05
3.16258e-07 -1.72058e-06 6.01853e-07 -7.03503e-05
-0.000268953 7.91125e-05 8.13602e-05 -6.89018e-05
-0.000266302 7.83478e-05 8.05517e-05 -6.89009e-05
0.000267091 -8.16771e-05 -7.94633e-05 -6.89254e-05
0.000269672 -8.24822e-05 -8.02244e-05 -6.89265e-05
-0.000267627 7.87302e-05 8.09559e-05 -6.89013e-05
3.69755e-07 -1.68947e-06 5.65592e-07 -7.03489e-05
0.000268382 -8.20796e-05 -7.98438e-05 -6.8926e-05
3.34177e-07 -1.71016e-06 5.89707e-07 -7.03498e-05
3.5201e-07 -1.69979e-06 5.7762e-07 -7.03493e-05
-0.000266302 7.83478e-05 8.05517e-05 -6.89009e-05
-0.000263651 7.7583e-05 7.97434e-05 -6.89001e-05
0.00026451 -8.08722e-05 -7.87019e-05 -6.89243e-05
0.000267091 -8.16771e-05 -7.94633e-05 -6.89254e-05
-0.000264976 7.79654e-05 8.01475e-05 -6.89005e-05
4.04986e-07 -1.66898e-06 5.41713e-07 -7.03479e-05
0.000265801 -8.12746e-05 -7.90826e-05 -6.89249e-05
3.69755e-07 -1.68947e-06 5.65592e-07 -7.03489e-05
3.87414e-07 -1.6792e-06 5.53623e-07 -7.03484e-05
-0.000263651 7.7583e-05 7.97434e-05 -6.89001e-05
-0.000261 7.68179e-05 7.89354e-05 -6.88992e-05
0.000261928 -8.00675e-05 -7.79403e-05 -6.89232e-05
0.00026451 -8.08722e-05 -7.87019e-05 -6.89243e-05
-0.000262326 7.72005e-05 7.93393e-05 -6.88996e-05
4.39869e-07 -1.6487e-06 5.18068e-07 -7.03469e-05
0.000263219 -8.04698e-05 -7.83212e-05 -6.89238e-05
4.04986e-07 -1.66898e-06 5.41713e-07 -7.03479e-05
4.22471e-07 -1.65881e-06 5.29861e-07 -7.03474e-05
-0.000261 7.68179e-05 7.89354e-05 -6.88992e-05
-0.00025835 7.60527e-05 7.81276e-05 -6.88984e-05
0.000259346 -7.92631e-05 -7.71786e-05 -6.89222e-05
0.000261928 -8.00675e-05 -7.79403e-05 -6.89232e-05
-0.000259675 7.64353e-05 7.85314e-05 -6.88988e-05
4.74405e-07 -1.62861e-06 4.94659e-07 -7.03459e-05
0.000260637 -7.96653e-05 -7.75595e-05 -6.89227e-05
4.39869e-07 -1.6487e-06 5.18068e-07 -7.03469e-05
4.5718e-07 -1.63863e-06 5.06335e-07 -7.03464e-05
-0.00025835 7.60527e-05 7.81276e-05 -6.88984e-05
-0.000255701 7.52872e-05 7.732e-05 -6.88975e-05
0.000256764 -7.84588e-05 -7.64165e-05 -6.89211e-05
0.000259346 -7.92631e-05 -7.71786e-05 -6.89222e-05
-0.000257025 7.567e-05 7.77238e-05 -6.88979e-05
5.08594e-07 -1.60873e-06 4.71486e-07 -7.03449e-05
0.000258055 -7.88609e-05 -7.67976e-05 -6.89216e-05
4.74405e-07 -1.62861e-06 4.94659e-07 -7.03459e-05
4.91543e-07 -1.61864e-06 4.83043e-07 -7.03454e-05
-0.000255701 7.52872e-05 7.732e-05 -6.88975e-05
-0.000253051 7.45216e-05 7.65127e-05 -6.88967e-05
0.000254182 -7.76548e-05 -7.56543e-05 -6.892e-05
0.000256764 -7.84588e-05 -7.64165e-05 -6.89211e-05
-0.000254376 7.49045e-05 7.69163e-05 -6.88971e-05
5.42436e-07 -1.58905e-06 4.48547e-07 -7.03439e-05
0.000255473 -7.80568e-05 -7.60355e-05 -6.89205e-05
5.08594e-07 -1.60873e-06 4.71486e-07 -7.03449e-05
5.25558e-07 -1.59886e-06 4.59987e-07 -7.03444e-05
-0.000253051 7.45216e-05 7.65127e-05 -6.88967e-05
-0.000250402 7.37558e-05 7.57057e-05 -6.88959e-05
0.000251599 -7.6851e-05 -7.48919e-05 -6.89189e-05
0.000254182 -7.76548e-05 -7.56543e-05 -6.892e-05
-0.000251727 7.41388e-05 7.61092e-05 -6.88963e-05
5.7593e-07 -1.56957e-06 4.25844e-07 -7.0343e-05
0.00025289 -7.72529e-05 -7.52731e-05 -6.89195e-05
5.42436e-07 -1.58905e-06 4.48547e-07 -7.03439e-05
5.59226e-07 -1.57928e-06 4.37166e-07 -7.03435e-05
-0.000250402 7.37558e-05 7.57057e-05 -6.88959e-05
-0.000247754 7.29898e-05 7.48988e-05 -6.8895e-05
0.000249015 -7.60473e-05 -7.41292e-05 -6.89179e-05
0.000251599 -7.6851e-05 -7.48919e-05 -6.89189e-05
-0.000249078 7.33729e-05 7.53022e-05 -6.88955e-05
6.09077e-07 -1.55029e-06 4.03376e-07 -7.0342e-05
0.000250307 -7.64491e-05 -7.45106e-05 -6.89184e-05
5.7593e-07 -1.56957e-06 4.25844e-07 -7.0343e-05
5.92547e-07 -1.5599e-06 4.14581e-07 -7.03425e-05
-0.000247754 7.29898e-05 7.48988e-05 -6.8895e-05
-0.000245106 7.22237e-05 7.40923e-05 -6.88942e-05
0.000246432 -7.52439e-05 -7.33663e-05 -6.89168e-05
0.000249015 -7.60473e-05 -7.41292e-05 -6.89179e-05
-0.00024643 7.26068e-05 7.44955e-05 -6.88946e-05
6.41877e-07 -1.53121e-06 3.81144e-07 -7.0341e-05
0.000247724 -7.56456e-05 -7.37478e-05 -6.89173e-05
6.09077e-07 -1.55029e-06 4.03376e-07 -7.0342e-05
6.25521e-07 -1.54073e-06 3.9223e-07 -7.03415e-05
-0.000245106 7.22237e-05 7.40923e-05 -6.88942e-05
-0.000242458 7.14573e-05 7.32859e-05 -6.88934e-05
0.000243848 -7.44407e-05 -7.26032e-05 -6.89157e-05
0.000246432 -7.52439e-05 -7.33663e-05 -6.89168e-05
-0.000243782 7.18405e-05 7.36891e-05 -6.88938e-05
6.7433e-07 -1.51234e-06 3.59146e-07 -7.03401e-05
0.00024514 -7.48423e-05 -7.29848e-05 -6.89163e-05
6.41877e-07 -1.53121e-06 3.81144e-07 -7.0341e-05
6.58147e-07 -1.52175e-06 3.70115e-07 -7.03406e-05
-0.000242458 7.14573e-05 7.32859e-05 -6.88934e-05
-0.00023981 7.06908e-05 7.24798e-05 -6.88926e-05
0.000241264 -7.36377e-05 -7.18399e-05 -6.89147e-05
0.000243848 -7.44407e-05 -7.26032e-05 -6.89157e-05
-0.000241134 7.10741e-05 7.28828e-05 -6.8893e-05
7.06436e-07 -1.49367e-06 3.37384e-07 -7.03391e-05
0.000242556 -7.40392e-05 -7.22216e-05 -6.89152e-05
6.7433e-07 -1.51234e-06 3.59146e-07 -7.03401e-05
6.90426e-07 -1.50298e-06 3.48236e-07 -7.03396e-05
-0.00023981 7.06908e-05 7.24798e-05 -6.88926e-05
-0.000237163 6.99241e-05 7.1674e-05 -6.88918e-05
0.00023868 -7.28349e-05 -7.10763e-05 -6.89136e-05
0.000241264 -7.36377e-05 -7.18399e-05 -6.89147e-05
-0.000238487 7.03074e-05 7.20769e-05 -6.88922e-05
7.38194e-07 -1.47519e-06 3.15857e-07 -7.03382e-05
0.000239972 -7.32363e-05 -7.14581e-05 -6.89142e-05
7.06436e-07 -1.49367e-06 3.37384e-07 -7.03391e-05
7.22358e-07 -1.4844e-06 3.26591e-07 -7.03386e-05
-0.000237163 6.99241e-05 7.1674e-05 -6.88918e-05
-0.000234517 6.91571e-05 7.08684e-05 -6.8891e-05
0.000236095 -7.20323e-05 -7.03126e-05 -6.89126e-05
0.00023868 -7.28349e-05 -7.10763e-05 -6.89136e-05
-0.00023584 6.95406e-05 7.12711e-05 -6.88914e-05
7.69605e-07 -1.45692e-06 2.94566e-07 -7.03372e-05
0.000237387 -7.24336e-05 -7.06945e-05 -6.89131e-05
7.38194e-07 -1.47519e-06 3.15857e-07 -7.03382e-05
7.53943e-07 -1.46603e-06 3.05182e-07 -7.03377e-05
-0.000234517 6.91571e-05 7.08684e-05 -6.8891e-05
-0.00023187 6.839e-05 7.0063e-05 -6.88902e-05
0.00023351 -7.123e-05 -6.95486e-05 -6.89115e-05
0.000236095 -7.20323e-05 -7.03126e-05 -6.89126e-05
-0.000233193 6.87736e-05 7.04656e-05 -6.88906e-05
8.00669e-07 -1.43886e-06 2.73509e-07 -7.03363e-05
0.000234802 -7.16311e-05 -6.99306e-05 -6.89121e-05
7.69605e-07 -1.45692e-06 2.94566e-07 -7.03372e-05
7.8518e-07 -1.44787e-06 2.84008e-07 -7.03368e-05
-0.00023187 6.839e-05 7.0063e-05 -6.88902e-05
-0.000229224 6.76228e-05 6.92579e-05 -6.88894e-05
0.000230925 -7.04278e-05 -6.87844e-05 -6.89105e-05
0.00023351 -7.123e-05 -6.95486e-05 -6.89115e-05
-0.000230547 6.80064e-05 6.96604e-05 -6.88898e-05
8.31386e-07 -1.42099e-06 2.52688e-07 -7.03354e-05
0.000232217 -7.08288e-05 -6.91665e-05 -6.8911e-05
8.00669e-07 -1.43886e-06 2.73509e-07 -7.03363e-05
8.1607e-07 -1.4299e-06 2.6307e-07 -7.03358e-05
-0.000229224 6.76228e-05 6.92579e-05 -6.88894e-05
-0.000226579 6.68553e-05 6.8453e-05 -6.88886e-05
0.000228339 -6.96258e-05 -6.80199e-05 -6.89095e-05
0.000230925 -7.04278e-05 -6.87844e-05 -6.89105e-05
-0.000227902 6.7239e-05 6.88554e-05 -6.8889e-05
8.61755e-07 -1.40333e-06 2.32103e-07 -7.03344e-05
0.000229632 -7.00268e-05 -6.84022e-05 -6.891e-05
8.31386e-07 -1.42099e-06 2.52688e-07 -7.03354e-05
8.46613e-07 -1.41213e-06 2.42366e-07 -7.03349e-05
-0.000226579 6.68553e-05 6.8453e-05 -6.88886e-05
-0.000223934 6.60876e-05 6.76483e-05 -6.88878e-05
0.000225753 -6.88241e-05 -6.72553e-05 -6.89084e-05
0.000228339 -6.96258e-05 -6.80199e-05 -6.89095e-05
-0.000225256 6.64715e-05 6.80506e-05 -6.88882e-05
8.91777e-07 -1.38587e-06 2.11752e-07 -7.03335e-05
0.000227046 -6.92249e-05 -6.76376e-05 -6.8909e-05
8.61755e-07 -1.40333e-06 2.32103e-07 -7.03344e-05
8.76809e-07 -1.39457e-06 2.21898e-07 -7.0334e-05
-0.000223934 6.60876e-05 6.76483e-05 -6.88878e-05
-0.000221289 6.53198e-05 6.68439e-05 -6.8887e-05
0.000223167 -6.80225e-05 -6.64904e-05 -6.89074e-05
0.000225753 -6.88241e-05 -6.72553e-05 -6.89084e-05
-0.000222611 6.57037e-05 6.72461e-05 -6.88874e-05
9.21452e-07 -1.36861e-06 1.91637e-07 -7.03326e-05
0.00022446 -6.84233e-05 -6.68729e-05 -6.89079e-05
8.91777e-07 -1.38587e-06 2.11752e-07 -7.03335e-05
9.06658e-07 -1.37721e-06 2.01665e-07 -7.0333e-05
-0.000221289 6.53198e-05 6.68439e-05 -6.8887e-05
-0.000218645 6.45518e-05 6.60398e-05 -6.88862e-05
0.00022058 -6.72212e-05 -6.57253e-05 -6.89064e-05
0.000223167 -6.80225e-05 -6.64904e-05 -6.89074e-05
-0.000219967 6.49358e-05 6.64418e-05 -6.88866e-05
9.5078e-07 -1.35155e-06 1.71757e-07 -7.03317e-05
0.000221874 -6.76218e-05 -6.61079e-05 -6.89069e-05
9.21452e-07 -1.36861e-06 1.91637e-07 -7.03326e-05
9.36159e-07 -1.36005e-06 1.81668e-07 -7.03321e-05
-0.000218645 6.45518e-05 6.60398e-05 -6.88862e-05
-0.000216001 6.37835e-05 6.52358e-05 -6.88855e-05
0.000217993 -6.64201e-05 -6.496e-05 -6.89054e-05
0.00022058 -6.72212e-05 -6.57253e-05 -6.89064e-05
-0.000217322 6.41677e-05 6.56378e-05 -6.88859e-05
9.7976e-07 -1.33469e-06 1.52113e-07 -7.03308e-05
0.000219287 -6.68206e-05 -6.53427e-05 -6.89059e-05
9.5078e-07 -1.35155e-06 1.71757e-07 -7.03317e-05
9.65313e-07 -1.34309e-06 1.61906e-07 -7.03312e-05
-0.000216001 6.37835e-05 6.52358e-05 -6.88855e-05
-0.000213357 6.30151e-05 6.44322e-05 -6.88847e-05
0.000215406 -6.56191e-05 -6.41944e-05 -6.89044e-05
0.000217993 -6.64201e-05 -6.496e-05 -6.89054e-05
-0.000214679 6.33994e-05 6.4834e-05 -6.88851e-05
1.00839e-06 -1.31804e-06 1.32704e-07 -7.03299e-05
0.0002167 -6.60196e-05 -6.45772e-05 -6.89049e-05
9.7976e-07 -1.33469e-06 1.52113e-07 -7.03308e-05
9.9412e-07 -1.32634e-06 1.42379e-07 -7.03303e-05
-0.000213357 6.30151e-05 6.44322e-05 -6.88847e-05
-0.000210714 6.22465e-05 6.36287e-05 -6.8884e-05
0.000212819 -6.48184e-05 -6.34287e-05 -6.89034e-05
0.000215406 -6.56191e-05 -6.41944e-05 -6.89044e-05
-0.000212035 6.26309e-05 6.40304e-05 -6.88843e-05
1.03668e-06 -1.30158e-06 1.1353e-07 -7.0329e-05
0.000214112 -6.52187e-05 -6.38116e-05 -6.89039e-05
1.00839e-06 -1.31804e-06 1.32704e-07 -7.03299e-05
1.02258e-06 -1.30978e-06 1.23087e-07 -7.03294e-05
-0.000210714 6.22465e-05 6.36287e-05 -6.8884e-05
-0.000208071 6.14778e-05 6.28255e-05 -6.88832e-05
0.000210231 -6.40179e-05 -6.26627e-05 -6.89024e-05
0.000212819 -6.48184e-05 -6.34287e-05 -6.89034e-05
-0.000209392 6.18622e-05 6.32271e-05 -6.88836e-05
1.06462e-06 -1.28533e-06 9.45909e-08 -7.03281e-05
0.000211525 -6.44181e-05 -6.30457e-05 -6.89029e-05
1.03668e-06 -1.30158e-06 1.1353e-07 -7.0329e-05
1.05069e-06 -1.29343e-06 1.04031e-07 -7.03285e-05
-0.000208071 6.14778e-05 6.28255e-05 -6.88832e-05
-0.000205428 6.07088e-05 6.20226e-05 -6.88825e-05
0.000207643 -6.32176e-05 -6.18965e-05 -6.89014e-05
0.000210231 -6.40179e-05 -6.26627e-05 -6.89024e-05
-0.000206749 6.10933e-05 6.2424e-05 -6.88828e-05
1.09221e-06 -1.26928e-06 7.58875e-08 -7.03272e-05
0.000208937 -6.36177e-05 -6.22796e-05 -6.89019e-05
1.06462e-06 -1.28533e-06 9.45909e-08 -7.03281e-05
1.07846e-06 -1.27728e-06 8.52099e-08 -7.03276e-05
-0.000205428 6.07088e-05 6.20226e-05 -6.88825e-05
-0.000202786 5.99397e-05 6.12199e-05 -6.88817e-05
0.000205054 -6.24175e-05 -6.11301e-05 -6.89005e-05
0.000207643 -6.32176e-05 -6.18965e-05 -6.89014e-05
-0.000204107 6.03243e-05 6.16212e-05 -6.88821e-05
1.11946e-06 -1.25343e-06 5.74194e-08 -7.03263e-05
0.000206349 -6.28175e-05 -6.15133e-05 -6.89009e-05
1.09221e-06 -1.26928e-06 7.58875e-08 -7.03272e-05
1.10588e-06 -1.26133e-06 6.66241e-08 -7.03268e-05
-0.000202786 5.99397e-05 6.12199e-05 -6.88817e-05
-0.000200144 5.91703e-05 6.04174e-05 -6.8881e-05
0.000202466 -6.16176e-05 -6.03634e-05 -6.88995e-05
0.000205054 -6.24175e-05 -6.11301e-05 -6.89005e-05
-0.000201465 5.9555e-05 6.08186e-05 -6.88814e-05
1.14635e-06 -1.23779e-06 3.91866e-08 -7.03255e-05
0.00020376 -6.20175e-05 -6.07468e-05 -6.89e-05
1.11946e-06 -1.25343e-06 5.74194e-08 -7.03263e-05
1.13295e-06 -1.24559e-06 4.82737e-08 -7.03259e-05
-0.000200144 5.91703e-05 6.04174e-05 -6.8881e-05
-0.000197503 5.84008e-05 5.96151e-05 -6.88803e-05
0.000199877 -6.08179e-05 -5.95966e-05 -6.88985e-05
0.000202466 -6.16176e-05 -6.03634e-05 -6.88995e-05
-0.000198823 5.87856e-05 6.00162e-05 -6.88806e-05
1.1729e-06 -1.22234e-06 2.11891e-08 -7.03246e-05
0.000201171 -6.12178e-05 -5.998e-05 -6.8899e-05
1.14635e-06 -1.23779e-06 3.91866e-08 -7.03255e-05
1.15967e-06 -1.23004e-06 3.01585e-08 -7.0325e-05
-0.000197503 5.84008e-05 5.96151e-05 -6.88803e-05
-0.000194862 5.76311e-05 5.88132e-05 -6.88796e-05
0.000197287 -6.00185e-05 -5.88295e-05 -6.88976e-05
0.000199877 -6.08179e-05 -5.95966e-05 -6.88985e-05
-0.000196182 5.8016e-05 5.92141e-05 -6.88799e-05
1.19911e-06 -1.2071e-06 3.42688e-09 -7.03238e-05
0.000198582 -6.04182e-05 -5.9213e-05 -6.8898e-05
1.1729e-06 -1.22234e-06 2.11891e-08 -7.03246e-05
1.18605e-06 -1.2147e-06 1.22786e-08 -7.03242e-05
-0.000194862 5.76311e-05 5.88132e-05 -6.88796e-05
-0.000192221 5.68612e-05 5.80114e-05 -6.88789e-05
0.000194698 -5.92192e-05 -5.80622e-05 -6.88966e-05
0.000197287 -6.00185e-05 -5.88295e-05 -6.88976e-05
-0.000193541 5.72462e-05 5.84122e-05 -6.88792e-05
1.22496e-06 -1.19206e-06 -1.41001e-08 -7.03229e-05
0.000195992 -5.96188e-05 -5.84458e-05 -6.88971e-05
1.19911e-06 -1.2071e-06 3.42688e-09 -7.03238e-05
1.21208e-06 -1.19956e-06 -5.36593e-09 -7.03233e-05
-0.000192221 5.68612e-05 5.80114e-05 -6.88789e-05
-0.000189581 5.60911e-05 5.72099e-05 -6.88782e-05
0.000192108 -5.84201e-05 -5.72946e-05 -6.88957e-05
0.000194698 -5.92192e-05 -5.80622e-05 -6.88966e-05
-0.000190901 5.64762e-05 5.76106e-05 -6.88785e-05
1.25047e-06 -1.17722e-06 -3.13917e-08 -7.03221e-05
0.000193403 -5.88196e-05 -5.76784e-05 -6.88962e-05
1.22496e-06 -1.19206e-06 -1.41001e-08 -7.03229e-05
1.23776e-06 -1.18462e-06 -2.27752e-08 -7.03225e-05
-0.000189581 5.60911e-05 5.72099e-05 -6.88782e-05
-0.000186941 5.53208e-05 5.64086e-05 -6.88775e-05
0.000189517 -5.76213e-05 -5.65269e-05 -6.88948e-05
0.000192108 -5.84201e-05 -5.72946e-05 -6.88957e-05
-0.000188261 5.5706e-05 5.68092e-05 -6.88778e-05
1.27563e-06 -1.16259e-06 -4.8448e-08 -7.03212e-05
0.000190813 -5.80207e-05 -5.69108e-05 -6.88952e-05
1.25047e-06 -1.17722e-06 -3.13917e-08 -7.03221e-05
1.26309e-06 -1.16988e-06 -3.99492e-08 -7.03217e-05
-0.000186941 5.53208e-05 5.64086e-05 -6.88775e-05
-0.000184301 5.45504e-05 5.56076e-05 -6.88768e-05
0.000186927 -5.68226e-05 -5.57589e-05 -6.88938e-05
0.000189517 -5.76213e-05 -5.65269e-05 -6.88948e-05
-0.000185621 5.49356e-05 5.60081e-05 -6.88771e-05
1.30045e-06 -1.14815e-06 -6.52691e-08 -7.03204e-05
0.000188222 -5.72219e-05 -5.61429e-05 -6.88943e-05
1.27563e-06 -1.16259e-06 -4.8448e-08 -7.03212e-05
1.28808e-06 -1.15534e-06 -5.68879e-08 -7.03208e-05
-0.000184301 5.45504e-05 5.56076e-05 -6.88768e-05
-0.000181662 5.37797e-05 5.48068e-05 -6.88761e-05
0.000184336 -5.60242e-05 -5.49907e-05 -6.88929e-05
0.000186927 -5.68226e-05 -5.57589e-05 -6.88938e-05
-0.000182982 5.4165e-05 5.52072e-05 -6.88764e-05
1.32491e-06 -1.13392e-06 -8.18549e-08 -7.03196e-05
0.000185631 -5.64234e-05 -5.53748e-05 -6.88934e-05
1.30045e-06 -1.14815e-06 -6.52691e-08 -7.03204e-05
1.31272e-06 -1.14101e-06 -7.35913e-08 -7.032e-05
-0.000181662 5.37797e-05 5.48068e-05 -6.88761e-05
-0.000179023 5.30089e-05 5.40062e-05 -6.88754e-05
0.000181745 -5.5226e-05 -5.42223e-05 -6.8892e-05
0.000184336 -5.60242e-05 -5.49907e-05 -6.88929e-05
-0.000180343 5.33943e-05 5.44065e-05 -6.88758e-05
1.34903e-06 -1.11989e-06 -9.82053e-08 -7.03188e-05
0.00018304 -5.5625e-05 -5.46065e-05 -6.88925e-05
1.32491e-06 -1.13392e-06 -8.18549e-08 -7.03196e-05
1.33702e-06 -1.12688e-06 -9.00595e-08 -7.03192e-05
-0.000179023 5.30089e-05 5.40062e-05 -6.88754e-05
-0.000176385 5.22378e-05 5.32059e-05 -6.88748e-05
0.000179153 -5.44279e-05 -5.34536e-05 -6.88911e-05
0.000181745 -5.5226e-05 -5.42223e-05 -6.8892e-05
-0.000177704 5.26234e-05 5.36061e-05 -6.88751e-05
1.37281e-06 -1.10606e-06 -1.14321e-07 -7.0318e-05
0.000180449 -5.48269e-05 -5.3838e-05 -6.88916e-05
1.34903e-06 -1.11989e-06 -9.82053e-08 -7.03188e-05
1.36096e-06 -1.11295e-06 -1.06292e-07 -7.03184e-05
-0.000176385 5.22378e-05 5.32059e-05 -6.88748e-05
-0.000173747 5.14666e-05 5.24059e-05 -6.88741e-05
0.000176561 -5.36301e-05 -5.26848e-05 -6.88902e-05
0.000179153 -5.44279e-05 -5.34536e-05 -6.88911e-05
-0.000175066 5.18523e-05 5.28059e-05 -6.88745e-05
1.39623e-06 -1.09243e-06 -1.302e-07 -7.03172e-05
0.000177857 -5.4029e-05 -5.30692e-05 -6.88907e-05
1.37281e-06 -1.10606e-06 -1.14321e-07 -7.0318e-05
1.38456e-06 -1.09922e-06 -1.2229e-07 -7.03176e-05
-0.000173747 5.14666e-05 5.24059e-05 -6.88741e-05
-0.000171109 5.06952e-05 5.1606e-05 -6.88735e-05
0.000173969 -5.28325e-05 -5.19157e-05 -6.88893e-05
0.000176561 -5.36301e-05 -5.26848e-05 -6.88902e-05
-0.000172428 5.10809e-05 5.20059e-05 -6.88738e-05
1.41931e-06 -1.079e-06 -1.45845e-07 -7.03164e-05
0.000175265 -5.32313e-05 -5.23003e-05 -6.88898e-05
1.39623e-06 -1.09243e-06 -1.302e-07 -7.03172e-05
1.40781e-06 -1.08569e-06 -1.38052e-07 -7.03168e-05
-0.000171109 5.06952e-05 5.1606e-05 -6.88735e-05
-0.000168472 4.99236e-05 5.08064e-05 -6.88728e-05
0.000171377 -5.20351e-05 -5.11464e-05 -6.88885e-05
0.000173969 -5.28325e-05 -5.19157e-05 -6.88893e-05
-0.000169791 5.03094e-05 5.12062e-05 -6.88732e-05
1.44204e-06 -1.06578e-06 -1.61254e-07 -7.03157e-05
0.000172673 -5.24338e-05 -5.15311e-05 -6.88889e-05
1.41931e-06 -1.079e-06 -1.45845e-07 -7.03164e-05
1.43072e-06 -1.07237e-06 -1.53579e-07 -7.03161e-05
-0.000168472 4.99236e-05 5.08064e-05 -6.88728e-05
-0.000165835 4.91519e-05 5.00071e-05 -6.88722e-05
0.000168784 -5.12379e-05 -5.03769e-05 -6.88876e-05
0.000171377 -5.20351e-05 -5.11464e-05 -6.88885e-05
-0.000167153 4.95378e-05 5.04067e-05 -6.88725e-05
1.46443e-06 -1.05276e-06 -1.76428e-07 -7.03149e-05
0.00017008 -5.16364e-05 -5.07616e-05 -6.8888e-05
1.44204e-06 -1.06578e-06 -1.61254e-07 -7.03157e-05
1.45328e-06 -1.05924e-06 -1.68871e-07 -7.03153e-05
-0.000165835 4.91519e-05 5.00071e-05 -6.88722e-05
-0.000163199 4.83799e-05 4.9208e-05 -6.88716e-05
0.000166191 -5.04409e-05 -4.96071e-05 -6.88867e-05
0.000168784 -5.12379e-05 -5.03769e-05 -6.88876e-05
-0.000164517 4.87659e-05 4.96075e-05 -6.88719e-05
1.48646e-06 -1.03994e-06 -1.91367e-07 -7.03142e-05
0.000167487 -5.08393e-05 -4.9992e-05 -6.88872e-05
1.46443e-06 -1.05276e-06 -1.76428e-07 -7.03149e-05
1.47549e-06 -1.04632e-06 -1.83927e-07 -7.03145e-05
-0.000163199 4.83799e-05 4.9208e-05 -6.88716e-05
-0.000160562 4.76077e-05 4.84091e-05 -6.8871e-05
0.000163597 -4.96441e-05 -4.88371e-05 -6.88859e-05
0.000166191 -5.04409e-05 -4.96071e-05 -6.88867e-05
-0.00016188 4.79938e-05 4.88085e-05 -6.88713e-05
1.50815e-06 -1.02732e-06 -2.06071e-07 -7.03134e-05
0.000164894 -5.00424e-05 -4.92221e-05 -6.88863e-05
1.48646e-06 -1.03994e-06 -1.91367e-07 -7.03142e-05
1.49735e-06 -1.0336e-06 -1.98748e-07 -7.03138e-05
-0.000160562 4.76077e-05 4.84091e-05 -6.8871e-05
-0.000157926 4.68354e-05 4.76105e-05 -6.88704e-05
0.000161004 -4.88475e-05 -4.80669e-05 -6.8885e-05
0.000163597 -4.96441e-05 -4.88371e-05 -6.88859e-05
-0.000159244 4.72216e-05 4.80098e-05 -6.88707e-05
1.52949e-06 -1.0149e-06 -2.20539e-07 -7.03127e-05
0.000162301 -4.92458e-05 -4.8452e-05 -6.88855e-05
1.50815e-06 -1.02732e-06 -2.06071e-07 -7.03134e-05
1.51887e-06 -1.02109e-06 -2.13334e-07 -7.0313e-05
-0.000157926 4.68354e-05 4.76105e-05 -6.88704e-05
-0.000155291 4.60629e-05 4.68121e-05 -6.88698e-05
0.00015841 -4.80511e-05 -4.72965e-05 -6.88842e-05
0.000161004 -4.88475e-05 -4.80669e-05 -6.8885e-05
-0.000156609 4.64491e-05 4.72112e-05 -6.88701e-05
1.55049e-06 -1.00269e-06 -2.34772e-07 -7.0312e-05
0.000159707 -4.84493e-05 -4.76817e-05 -6.88846e-05
1.52949e-06 -1.0149e-06 -2.20539e-07 -7.03127e-05
1.54004e-06 -1.00877e-06 -2.27685e-07 -7.03123e-05
-0.000155291 4.60629e-05 4.68121e-05 -6.88698e-05
-0.000152656 4.52901e-05 4.60139e-05 -6.88692e-05
0.000155815 -4.72549e-05 -4.65258e-05 -6.88834e-05
0.00015841 -4.80511e-05 -4.72965e-05 -6.88842e-05
-0.000153973 4.56765e-05 4.6413e-05 -6.88695e-05
1.57114e-06 -9.90677e-07 -2.48769e-07 -7.03112e-05
0.000157112 -4.7653e-05 -4.69112e-05 -6.88838e-05
1.55049e-06 -1.00269e-06 -2.34772e-07 -7.0312e-05
1.56086e-06 -9.96658e-07 -2.418e-07 -7.03116e-05
-0.000152656 4.52901e-05 4.60139e-05 -6.88692e-05
-0.000150021 4.45172e-05 4.5216e-05 -6.88687e-05
0.000153221 -4.6459e-05 -4.5755e-05 -6.88826e-05
0.000155815 -4.72549e-05 -4.65258e-05 -6.88834e-05
-0.000151339 4.49037e-05 4.56149e-05 -6.88689e-05
1.59144e-06 -9.78866e-07 -2.62532e-07 -7.03105e-05
0.000154518 -4.68569e-05 -4.61404e-05 -6.8883e-05
1.57114e-06 -9.90677e-07 -2.48769e-07 -7.03112e-05
1.58133e-06 -9.84747e-07 -2.5568e-07 -7.03109e-05
-0.000150021 4.45172e-05 4.5216e-05 -6.88687e-05
-0.000147387 4.37441e-05 4.44183e-05 -6.88681e-05
0.000150626 -4.56632e-05 -4.49839e-05 -6.88818e-05
0.000153221 -4.6459e-05 -4.5755e-05 -6.88826e-05
-0.000148704 4.41307e-05 4.48171e-05 -6.88684e-05
1.61139e-06 -9.67258e-07 -2.76059e-07 -7.03098e-05
0.000151923 -4.6061e-05 -4.53695e-05 -6.88822e-05
1.59144e-06 -9.78866e-07 -2.62532e-07 -7.03105e-05
1.60146e-06 -9.73037e-07 -2.69325e-07 -7.03102e-05
-0.000147387 4.37441e-05 4.44183e-05 -6.88681e-05
-0.000144753 4.29708e-05 4.36209e-05 -6.88675e-05
0.00014803 -4.48676e-05 -4.42126e-05 -6.8881e-05
0.000150626 -4.56632e-05 -4.49839e-05 -6.88818e-05
-0.00014607 4.33575e-05 4.40196e-05 -6.88678e-05
1.631e-06 -9.55851e-07 -2.8935e-07 -7.03092e-05
0.000149328 -4.52654e-05 -4.45983e-05 -6.88814e-05
1.61139e-06 -9.67258e-07 -2.76059e-07 -7.03098e-05
1.62124e-06 -9.61529e-07 -2.82734e-07 -7.03095e-05
-0.000144753 4.29708e-05 4.36209e-05 -6.88675e-05
-0.000142119 4.21974e-05 4.28237e-05 -6.8867e-05
0.000145435 -4.40723e-05 -4.3441e-05 -6.88802e-05
0.00014803 -4.48676e-05 -4.42126e-05 -6.8881e-05
-0.000143436 4.25841e-05 4.32223e-05 -6.88673e-05
1.65026e-06 -9.44645e-07 -3.02407e-07 -7.03085e-05
0.000146733 -4.44699e-05 -4.38268e-05 -6.88806e-05
1.631e-06 -9.55851e-07 -2.8935e-07 -7.03092e-05
1.64067e-06 -9.50223e-07 -2.95908e-07 -7.03088e-05
-0.000142119 4.21974e-05 4.28237e-05 -6.8867e-05
-0.000139486 4.14237e-05 4.20267e-05 -6.88665e-05
0.000142839 -4.32771e-05 -4.26693e-05 -6.88794e-05
0.000145435 -4.40723e-05 -4.3441e-05 -6.88802e-05
-0.000140803 4.18105e-05 4.24252e-05 -6.88667e-05
1.66917e-06 -9.33642e-07 -3.15228e-07 -7.03078e-05
0.000144137 -4.36747e-05 -4.30552e-05 -6.88798e-05
1.65026e-06 -9.44645e-07 -3.02407e-07 -7.03085e-05
1.65976e-06 -9.39119e-07 -3.08847e-07 -7.03081e-05
-0.000139486 4.14237e-05 4.20267e-05 -6.88665e-05
-0.000136853 4.06498e-05 4.123e-05 -6.8866e-05
0.000140242 -4.24822e-05 -4.18973e-05 -6.88787e-05
0.000142839 -4.32771e-05 -4.26693e-05 -6.88794e-05
-0.00013817 4.10368e-05 4.16283e-05 -6.88662e-05
1.68774e-06 -9.22841e-07 -3.27814e-07 -7.03072e-05
0.000141541 -4.28796e-05 -4.22833e-05 -6.88791e-05
1.66917e-06 -9.33642e-07 -3.15228e-07 -7.03078e-05
1.6785e-06 -9.28216e-07 -3.2155e-07 -7.03075e-05
-0.000136853 4.06498e-05 4.123e-05 -6.8866e-05
-0.000134221 3.98758e-05 4.04335e-05 -6.88654e-05
0.000137646 -4.16874e-05 -4.11251e-05 -6.88779e-05
0.000140242 -4.24822e-05 -4.18973e-05 -6.88787e-05
-0.000135537 4.02628e-05 4.08317e-05 -6.88657e-05
1.70596e-06 -9.12241e-07 -3.40165e-07 -7.03065e-05
0.000138944 -4.20848e-05 -4.15112e-05 -6.88783e-05
1.68774e-06 -9.22841e-07 -3.27814e-07 -7.03072e-05
1.69689e-06 -9.17516e-07 -3.34019e-07 -7.03068e-05
-0.000134221 3.98758e-05 4.04335e-05 -6.88654e-05
-0.000131589 3.91015e-05 3.96373e-05 -6.88649e-05
0.000135049 -4.08929e-05 -4.03526e-05 -6.88772e-05
0.000137646 -4.16874e-05 -4.11251e-05 -6.88779e-05
-0.000132905 3.94887e-05 4.00354e-05 -6.88652e-05
1.72383e-06 -9.01844e-07 -3.5228e-07 -7.03059e-05
0.000136347 -4.12901e-05 -4.07389e-05 -6.88776e-05
1.70596e-06 -9.12241e-07 -3.40165e-07 -7.03065e-05
1.71494e-06 -9.07017e-07 -3.46252e-07 -7.03062e-05
-0.000131589 3.91015e-05 3.96373e-05 -6.88649e-05
-0.000128957 3.83271e-05 3.88413e-05 -6.88645e-05
0.000132452 -4.00985e-05 -3.958e-05 -6.88765e-05
0.000135049 -4.08929e-05 -4.03526e-05 -6.88772e-05
-0.000130273 3.87144e-05 3.92393e-05 -6.88647e-05
1.74136e-06 -8.91648e-07 -3.6416e-07 -7.03053e-05
0.00013375 -4.04957e-05 -3.99663e-05 -6.88768e-05
1.72383e-06 -9.01844e-07 -3.5228e-07 -7.03059e-05
1.73264e-06 -8.96721e-07 -3.5825e-07 -7.03056e-05
-0.000128957 3.83271e-05 3.88413e-05 -6.88645e-05
-0.000126325 3.75525e-05 3.80455e-05 -6.8864e-05
0.000129854 -3.93044e-05 -3.88071e-05 -6.88757e-05
0.000132452 -4.00985e-05 -3.958e-05 -6.88765e-05
-0.000127641 3.79398e-05 3.84434e-05 -6.88642e-05
1.75853e-06 -8.81654e-07 -3.75805e-07 -7.03046e-05
0.000131153 -3.97015e-05 -3.91935e-05 -6.88761e-05
1.74136e-06 -8.91648e-07 -3.6416e-07 -7.03053e-05
1.74999e-06 -8.86626e-07 -3.70012e-07 -7.03049e-05
-0.000126325 3.75525e-05 3.80455e-05 -6.8864e-05
-0.000123694 3.67777e-05 3.725e-05 -6.88635e-05
0.000127256 -3.85105e-05 -3.8034e-05 -6.8875e-05
0.000129854 -3.93044e-05 -3.88071e-05 -6.88757e-05
-0.00012501 3.71651e-05 3.76477e-05 -6.88637e-05
1.77536e-06 -8.71862e-07 -3.87215e-07 -7.0304e-05
0.000128555 -3.89074e-05 -3.84205e-05 -6.88754e-05
1.75853e-06 -8.81654e-07 -3.75805e-07 -7.03046e-05
1.76699e-06 -8.76733e-07 -3.81539e-07 -7.03043e-05
-0.000123694 3.67777e-05 3.725e-05 -6.88635e-05
-0.000121064 3.60027e-05 3.64547e-05 -6.8863e-05
0.000124658 -3.77168e-05 -3.72606e-05 -6.88743e-05
0.000127256 -3.85105e-05 -3.8034e-05 -6.8875e-05
-0.000122379 3.63902e-05 3.68523e-05 -6.88633e-05
1.79185e-06 -8.62272e-07 -3.98389e-07 -7.03035e-05
0.000125957 -3.81136e-05 -3.76473e-05 -6.88747e-05
1.77536e-06 -8.71862e-07 -3.87215e-07 -7.0304e-05
1.78365e-06 -8.67042e-07 -3.92831e-07 -7.03037e-05
-0.000121064 3.60027e-05 3.64547e-05 -6.8863e-05
-0.000118433 3.52275e-05 3.56596e-05 -6.88626e-05
0.00012206 -3.69232e-05 -3.64871e-05 -6.88736e-05
0.000124658 -3.77168e-05 -3.72606e-05 -6.88743e-05
-0.000119748 3.56151e-05 3.60571e-05 -6.88628e-05
1.80798e-06 -8.52884e-07 -4.09328e-07 -7.03029e-05
0.000123359 -3.732e-05 -3.68739e-05 -6.8874e-05
1.79185e-06 -8.62272e-07 -3.98389e-07 -7.03035e-05
1.79996e-06 -8.57552e-07 -4.03888e-07 -7.03032e-05
-0.000118433 3.52275e-05 3.56596e-05 -6.88626e-05
-0.000115803 3.44521e-05 3.48648e-05 -6.88622e-05
0.000119461 -3.61299e-05 -3.57133e-05 -6.8873e-05
0.00012206 -3.69232e-05 -3.64871e-05 -6.88736e-05
-0.000117118 3.48398e-05 3.52622e-05 -6.88624e-05
1.82377e-06 -8.43697e-07 -4.20032e-07 -7.03023e-05
0.00012076 -3.65266e-05 -3.61002e-05 -6.88733e-05
1.80798e-06 -8.52884e-07 -4.09328e-07 -7.03029e-05
1.81592e-06 -8.48265e-07 -4.14709e-07 -7.03026e-05
-0.000115803 3.44521e-05 3.48648e-05 -6.88622e-05
-0.000113174 3.36766e-05 3.40702e-05 -6.88617e-05
0.000116862 -3.53368e-05 -3.49393e-05 -6.88723e-05
0.000119461 -3.61299e-05 -3.57133e-05 -6.8873e-05
-0.000114489 3.40644e-05 3.44675e-05 -6.88619e-05
1.83921e-06 -8.34712e-07 -4.305e-07 -7.03017e-05
0.000118161 -3.57333e-05 -3.53263e-05 -6.88726e-05
1.82377e-06 -8.43697e-07 -4.20032e-07 -7.03023e-05
1.83154e-06 -8.39179e-07 -4.25295e-07 -7.0302e-05
-0.000113174 3.36766e-05 3.40702e-05 -6.88617e-05
-0.000110545 3.29008e-05 3.32759e-05 -6.88613e-05
0.000114262 -3.45439e-05 -3.4165e-05 -6.88716e-05
0.000116862 -3.53368e-05 -3.49393e-05 -6.88723e-05
-0.000111859 3.32887e-05 3.3673e-05 -6.88615e-05
1.85431e-06 -8.2593e-07 -4.40733e-07 -7.03012e-05
0.000115562 -3.49403e-05 -3.45522e-05 -6.8872e-05
1.83921e-06 -8.34712e-07 -4.305e-07 -7.03017e-05
1.8468e-06 -8.30296e-07 -4.35646e-07 -7.03015e-05
-0.000110545 3.29008e-05 3.32759e-05 -6.88613e-05
-0.000107916 3.21248e-05 3.24818e-05 -6.88609e-05
0.000111663 -3.37512e-05 -3.33906e-05 -6.8871e-05
0.000114262 -3.45439e-05 -3.4165e-05 -6.88716e-05
-0.00010923 3.25128e-05 3.28788e-05 -6.88611e-05
1.86906e-06 -8.17349e-07 -4.50731e-07 -7.03007e-05
0.000112963 -3.41475e-05 -3.37778e-05 -6.88713e-05
1.85431e-06 -8.2593e-07 -4.40733e-07 -7.03012e-05
1.86172e-06 -8.21614e-07 -4.45762e-07 -7.03009e-05
-0.000107916 3.21248e-05 3.24818e-05 -6.88609e-05
-0.000105287 3.13487e-05 3.16879e-05 -6.88605e-05
0.000109062 -3.29587e-05 -3.26159e-05 -6.88704e-05
0.000111663 -3.37512e-05 -3.33906e-05 -6.8871e-05
-0.000106601 3.17368e-05 3.20848e-05 -6.88607e-05
1.88346e-06 -8.08969e-07 -4.60494e-07 -7.03001e-05
0.000110363 -3.33549e-05 -3.30033e-05 -6.88707e-05
1.86906e-06 -8.17349e-07 -4.50731e-07 -7.03007e-05
1.8763e-06 -8.13134e-07 -4.55642e-07 -7.03004e-05
-0.000105287 3.13487e-05 3.16879e-05 -6.88605e-05
-0.000102659 3.05724e-05 3.08943e-05 -6.88601e-05
0.000106462 -3.21664e-05 -3.1841e-05 -6.88697e-05
0.000109062 -3.29587e-05 -3.26159e-05 -6.88704e-05
-0.000103973 3.09606e-05 3.12911e-05 -6.88603e-05
1.89751e-06 -8.00792e-07 -4.70021e-07 -7.02996e-05
0.000107762 -3.25625e-05 -3.22285e-05 -6.887e-05
1.88346e-06 -8.08969e-07 -4.60494e-07 -7.03001e-05
1.89053e-06 -8.04855e-07 -4.65287e-07 -7.02999e-05
-0.000102659 3.05724e-05 3.08943e-05 -6.88601e-05
-0.000100031 2.97959e-05 3.01009e-05 -6.88598e-05
0.000103861 -3.13743e-05 -3.10659e-05 -6.88691e-05
0.000106462 -3.21664e-05 -3.1841e-05 -6.88697e-05
-0.000101345 3.01841e-05 3.04976e-05 -6.886e-05
1.91121e-06 -7.92816e-07 -4.79313e-07 -7.02991e-05
0.000105162 -3.17703e-05 -3.14535e-05 -6.88694e-05
1.89751e-06 -8.00792e-07 -4.70021e-07 -7.02996e-05
1.9044e-06 -7.96779e-07 -4.74697e-07 -7.02994e-05
-0.000100031 2.97959e-05 3.01009e-05 -6.88598e-05
-9.74038e-05 2.90191e-05 2.93077e-05 -6.88594e-05
0.00010126 -3.05824e-05 -3.02905e-05 -6.88685e-05
0.000103861 -3.13743e-05 -3.10659e-05 -6.88691e-05
-9.87175e-05 2.94075e-05 2.97043e-05 -6.88596e-05
1.92457e-06 -7.85043e-07 -4.8837e-07 -7.02986e-05
0.000102561 -3.09783e-05 -3.06782e-05 -6.88688e-05
1.91121e-06 -7.92816e-07 -4.79313e-07 -7.02991e-05
1.91794e-06 -7.88904e-07 -4.83871e-07 -7.02989e-05
-9.74038e-05 2.90191e-05 2.93077e-05 -6.88594e-05
-9.47768e-05 2.82422e-05 2.85148e-05 -6.88591e-05
9.86589e-05 -2.97907e-05 -2.95149e-05 -6.88679e-05
0.00010126 -3.05824e-05 -3.02905e-05 -6.88685e-05
-9.60903e-05 2.86307e-05 2.89112e-05 -6.88592e-05
1.93758e-06 -7.77472e-07 -4.97191e-07 -7.02982e-05
9.99596e-05 -3.01865e-05 -2.99027e-05 -6.88682e-05
1.92457e-06 -7.85043e-07 -4.8837e-07 -7.02986e-05
1.93112e-06 -7.81232e-07 -4.9281e-07 -7.02984e-05
-9.47768e-05 2.82422e-05 2.85148e-05 -6.88591e-05
-9.21501e-05 2.74651e-05 2.77221e-05 -6.88587e-05
9.60571e-05 -2.89992e-05 -2.87391e-05 -6.88674e-05
9.86589e-05 -2.97907e-05 -2.95149e-05 -6.88679e-05
-9.34634e-05 2.78537e-05 2.81184e-05 -6.88589e-05
1.95025e-06 -7.70103e-07 -5.05777e-07 -7.02977e-05
9.7358e-05 -2.9395e-05 -2.9127e-05 -6.88676e-05
1.93758e-06 -7.77472e-07 -4.97191e-07 -7.02982e-05
1.94396e-06 -7.73762e-07 -5.01513e-07 -7.02979e-05
-9.21501e-05 2.74651e-05 2.77221e-05 -6.88587e-05
-8.95238e-05 2.66878e-05 2.69297e-05 -6.88584e-05
9.34551e-05 -2.82079e-05 -2.79631e-05 -6.88668e-05
9.60571e-05 -2.89992e-05 -2.87391e-05 -6.88674e-05
-9.08369e-05 2.70765e-05 2.73259e-05 -6.88586e-05
1.96257e-06 -7.62937e-07 -5.14127e-07 -7.02972e-05
9.47562e-05 -2.86036e-05 -2.83511e-05 -6.88671e-05
1.95025e-06 -7.70103e-07 -5.05777e-07 -7.02977e-05
1.95645e-06 -7.66494e-07 -5.09981e-07 -7.02975e-05
-8.95238e-05 2.66878e-05 2.69297e-05 -6.88584e-05
-8.68978e-05 2.59104e-05 2.61375e-05 -6.88581e-05
9.08527e-05 -2.74169e-05 -2.71868e-05 -6.88662e-05
9.34551e-05 -2.82079e-05 -2.79631e-05 -6.88668e-05
-8.82107e-05 2.62991e-05 2.65335e-05 -6.88582e-05
1.97454e-06 -7.55976e-07 -5.22241e-07 -7.02968e-05
9.2154e-05 -2.78124e-05 -2.7575e-05 -6.88665e-05
1.96257e-06 -7.62937e-07 -5.14127e-07 -7.02972e-05
1.9686e-06 -7.59431e-07 -5.18214e-07 -7.0297e-05
-8.68978e-05 2.59104e-05 2.61375e-05 -6.88581e-05
-8.42722e-05 2.51327e-05 2.53455e-05 -6.88578e-05
8.825e-05 -2.6626e-05 -2.64103e-05 -6.88657e-05
9.08527e-05 -2.74169e-05 -2.71868e-05 -6.88662e-05
-8.55849e-05 2.55215e-05 2.57415e-05 -6.88579e-05
1.98617e-06 -7.49219e-07 -5.3012e-07 -7.02964e-05
8.95514e-05 -2.70214e-05 -2.67986e-05 -6.8866e-05
1.97454e-06 -7.55976e-07 -5.22241e-07 -7.02968e-05
1.9804e-06 -7.52572e-07 -5.2621e-07 -7.02966e-05
-8.42722e-05 2.51327e-05 2.53455e-05 -6.88578e-05
-8.16469e-05 2.43548e-05 2.45538e-05 -6.88575e-05
8.5647e-05 -2.58353e-05 -2.56336e-05 -6.88652e-05
8.825e-05 -2.6626e-05 -2.64103e-05 -6.88657e-05
-8.29595e-05 2.47438e-05 2.49496e-05 -6.88576e-05
1.99745e-06 -7.4267e-07 -5.37762e-07 -7.0296e-05
8.69486e-05 -2.62306e-05 -2.6022e-05 -6.88654e-05
1.98617e-06 -7.49219e-07 -5.3012e-07 -7.02964e-05
1.99185e-06 -7.45918e-07 -5.33971e-07 -7.02962e-05
-8.16469e-05 2.43548e-05 2.45538e-05 -6.88575e-05
-7.9022e-05 2.35767e-05 2.37623e-05 -6.88572e-05
8.30437e-05 -2.50449e-05 -2.48566e-05 -6.88647e-05
8.5647e-05 -2.58353e-05 -2.56336e-05 -6.88652e-05
-8.03344e-05 2.39658e-05 2.4158e-05 -6.88574e-05
2.00839e-06 -7.3633e-07 -5.45169e-07 -7.02955e-05
8.43454e-05 -2.54401e-05 -2.52451e-05 -6.88649e-05
1.99745e-06 -7.4267e-07 -5.37762e-07 -7.0296e-05
2.00296e-06 -7.39474e-07 -5.41495e-07 -7.02957e-05
-7.9022e-05 2.35767e-05 2.37623e-05 -6.88572e-05
-7.63974e-05 2.27984e-05 2.2971e-05 -6.88569e-05
8.044e-05 -2.42546e-05 -2.40795e-05 -6.88642e-05
8.30437e-05 -2.50449e-05 -2.48566e-05 -6.88647e-05
-7.77096e-05 2.31876e-05 2.33666e-05 -6.88571e-05
2.01899e-06 -7.30203e-07 -5.52339e-07 -7.02952e-05
8.17419e-05 -2.46497e-05 -2.44681e-05 -6.88644e-05
2.00839e-06 -7.3633e-07 -5.45169e-07 -7.02955e-05
2.01373e-06 -7.3324e-07 -5.48783e-07 -7.02953e-05
-7.63974e-05 2.27984e-05 2.2971e-05 -6.88569e-05
-7.37732e-05 2.20199e-05 2.218e-05 -6.88567e-05
7.78361e-05 -2.34646e-05 -2.33021e-05 -6.88637e-05
8.044e-05 -2.42546e-05 -2.40795e-05 -6.88642e-05
-7.50852e-05 2.24092e-05 2.25754e-05 -6.88568e-05
2.02926e-06 -7.24293e-07 -5.59274e-07 -7.02948e-05
7.91381e-05 -2.38596e-05 -2.36908e-05 -6.88639e-05
2.01899e-06 -7.30203e-07 -5.52339e-07 -7.02952e-05
2.02417e-06 -7.27221e-07 -5.55836e-07 -7.0295e-05
-7.37732e-05 2.20199e-05 2.218e-05 -6.88567e-05
-7.11493e-05 2.12412e-05 2.13892e-05 -6.88564e-05
7.52318e-05 -2.26748e-05 -2.25244e-05 -6.88632e-05
7.78361e-05 -2.34646e-05 -2.33021e-05 -6.88637e-05
-7.24612e-05 2.16306e-05 2.17845e-05 -6.88565e-05
2.03921e-06 -7.18604e-07 -5.65973e-07 -7.02944e-05
7.6534e-05 -2.30697e-05 -2.29133e-05 -6.88635e-05
2.02926e-06 -7.24293e-07 -5.59274e-07 -7.02948e-05
2.03428e-06 -7.2142e-07 -5.62652e-07 -7.02946e-05
-7.11493e-05 2.12412e-05 2.13892e-05 -6.88564e-05
-6.85257e-05 2.04623e-05 2.05986e-05 -6.88562e-05
7.26272e-05 -2.18852e-05 -2.17466e-05 -6.88628e-05
7.52318e-05 -2.26748e-05 -2.25244e-05 -6.88632e-05
-6.98375e-05 2.08518e-05 2.09939e-05 -6.88563e-05
2.04883e-06 -7.13142e-07 -5.72438e-07 -7.0294e-05
7.39295e-05 -2.228e-05 -2.21355e-05 -6.8863e-05
2.03921e-06 -7.18604e-07 -5.65973e-07 -7.02944e-05
2.04406e-06 -7.15844e-07 -5.69234e-07 -7.02942e-05
-6.85257e-05 2.04623e-05 2.05986e-05 -6.88562e-05
-6.59025e-05 1.96832e-05 1.98083e-05 -6.88559e-05
7.00223e-05 -2.10958e-05 -2.09685e-05 -6.88624e-05
7.26272e-05 -2.18852e-05 -2.17466e-05 -6.88628e-05
-6.72141e-05 2.00728e-05 2.02034e-05 -6.8856e-05
2.05814e-06 -7.0791e-07 -5.7867e-07 -7.02937e-05
7.13248e-05 -2.14905e-05 -2.13576e-05 -6.88626e-05
2.04883e-06 -7.13142e-07 -5.72438e-07 -7.0294e-05
2.05352e-06 -7.10497e-07 -5.75583e-07 -7.02939e-05
-6.59025e-05 1.96832e-05 1.98083e-05 -6.88559e-05
-6.32796e-05 1.89038e-05 1.90182e-05 -6.88556e-05
6.74172e-05 -2.03067e-05 -2.01902e-05 -6.8862e-05
7.00223e-05 -2.10958e-05 -2.09685e-05 -6.88624e-05
-6.4591e-05 1.92935e-05 1.94132e-05 -6.88558e-05
2.06715e-06 -7.02911e-07 -5.84674e-07 -7.02934e-05
6.87198e-05 -2.07012e-05 -2.05794e-05 -6.88622e-05
2.05814e-06 -7.0791e-07 -5.7867e-07 -7.02937e-05
2.06268e-06 -7.05381e-07 -5.817e-07 -7.02935e-05
-6.32796e-05 1.89038e-05 1.90182e-05 -6.88556e-05
-6.0657e-05 1.81243e-05 1.82283e-05 -6.88554e-05
6.48117e-05 -1.95178e-05 -1.94117e-05 -6.88616e-05
6.74172e-05 -2.03067e-05 -2.01902e-05 -6.8862e-05
-6.19683e-05 1.85141e-05 1.86232e-05 -6.88555e-05
2.07587e-06 -6.98142e-07 -5.90455e-07 -7.0293e-05
6.61145e-05 -1.99122e-05 -1.9801e-05 -6.88618e-05
2.06715e-06 -7.02911e-07 -5.84674e-07 -7.02934e-05
2.07155e-06 -7.00498e-07 -5.87592e-07 -7.02932e-05
-6.0657e-05 1.81243e-05 1.82283e-05 -6.88554e-05
-5.80347e-05 1.73445e-05 1.74386e-05 -6.88551e-05
6.2206e-05 -1.87292e-05 -1.86329e-05 -6.88612e-05
6.48117e-05 -1.95178e-05 -1.94117e-05 -6.88616e-05
-5.93458e-05 1.77344e-05 1.78335e-05 -6.88552e-05
2.08431e-06 -6.93591e-07 -5.96021e-07 -7.02927e-05
6.35089e-05 -1.91235e-05 -1.90223e-05 -6.88614e-05
2.07587e-06 -6.98142e-07 -5.90455e-07 -7.0293e-05
2.08012e-06 -6.95841e-07 -5.93264e-07 -7.02928e-05
-5.80347e-05 1.73445e-05 1.74386e-05 -6.88551e-05
-5.54127e-05 1.65646e-05 1.66492e-05 -6.88547e-05
5.96001e-05 -1.79407e-05 -1.7854e-05 -6.88608e-05
6.2206e-05 -1.87292e-05 -1.86329e-05 -6.88612e-05
-5.67237e-05 1.69546e-05 1.70439e-05 -6.88549e-05
2.09246e-06 -6.89227e-07 -6.01386e-07 -7.02923e-05
6.09031e-05 -1.83349e-05 -1.82435e-05 -6.8861e-05
2.08431e-06 -6.93591e-07 -5.96021e-07 -7.02927e-05
2.08842e-06 -6.91388e-07 -5.98728e-07 -7.02925e-05
-5.54127e-05 1.65646e-05 1.66492e-05 -6.88547e-05
-5.27911e-05 1.57845e-05 1.58599e-05 -6.88544e-05
5.69939e-05 -1.71524e-05 -1.70749e-05 -6.88604e-05
5.96001e-05 -1.79407e-05 -1.7854e-05 -6.88608e-05
-5.41018e-05 1.61746e-05 1.62545e-05 -6.88546e-05
2.10031e-06 -6.84995e-07 -6.06565e-07 -7.02919e-05
5.8297e-05 -1.75465e-05 -1.74645e-05 -6.88606e-05
2.09246e-06 -6.89227e-07 -6.01386e-07 -7.02923e-05
2.09643e-06 -6.871e-07 -6.03997e-07 -7.02921e-05
-5.27911e-05 1.57845e-05 1.58599e-05 -6.88544e-05
-5.01698e-05 1.50045e-05 1.50708e-05 -6.8854e-05
5.43874e-05 -1.63642e-05 -1.62957e-05 -6.88598e-05
5.69939e-05 -1.71524e-05 -1.70749e-05 -6.88604e-05
-5.14804e-05 1.53945e-05 1.54654e-05 -6.88542e-05
2.10783e-06 -6.80796e-07 -6.11584e-07 -7.02914e-05
5.56907e-05 -1.67583e-05 -1.66853e-05 -6.88601e-05
2.10031e-06 -6.84995e-07 -6.06565e-07 -7.02919e-05
2.10412e-06 -6.829e-07 -6.09093e-07 -7.02916e-05
-5.01698e-05 1.50045e-05 1.50708e-05 -6.8854e-05
-4.7549e-05 1.42246e-05 1.42819e-05 -6.88536e-05
5.17807e-05 -1.55759e-05 -1.55163e-05 -6.88591e-05
5.43874e-05 -1.63642e-05 -1.62957e-05 -6.88598e-05
-4.88594e-05 1.46145e-05 1.46764e-05 -6.88538e-05
2.11491e-06 -6.76467e-07 -6.16475e-07 -7.02908e-05
5.30841e-05 -1.59701e-05 -1.5906e-05 -6.88595e-05
2.10783e-06 -6.80796e-07 -6.11584e-07 -7.02914e-05
2.11143e-06 -6.78661e-07 -6.14043e-07 -7.02911e-05
-4.7549e-05 1.42246e-05 1.42819e-05 -6.88536e-05
-4.49289e-05 1.34451e-05 1.34931e-05 -6.88532e-05
4.91734e-05 -1.47872e-05 -1.47369e-05 -6.88582e-05
5.17807e-05 -1.55759e-05 -1.55163e-05 -6.88591e-05
-4.62389e-05 1.38348e-05 1.38875e-05 -6.88534e-05
2.1214e-06 -6.71758e-07 -6.21275e-07 -7.02901e-05
5.04771e-05 -1.51816e-05 -1.51266e-05 -6.88587e-05
2.11491e-06 -6.76467e-07 -6.16475e-07 -7.02908e-05
2.11824e-06 -6.74181e-07 -6.18883e-07 -7.02904e-05
-4.49289e-05 1.34451e-05 1.34931e-05 -6.88532e-05
-4.23096e-05 1.2666e-05 1.27044e-05 -6.88532e-05
4.65653e-05 -1.39977e-05 -1.39575e-05 -6.88572e-05
4.91734e-05 -1.47872e-05 -1.47369e-05 -6.88582e-05
-4.36191e-05 1.30555e-05 1.30987e-05 -6.88531e-05
2.12703e-06 -6.6629e-07 -6.26032e-07 -7.02895e-05
4.78694e-05 -1.43926e-05 -1.43472e-05 -6.88577e-05
2.1214e-06 -6.71758e-07 -6.21275e-07 -7.02901e-05
2.12434e-06 -6.69149e-07 -6.23655e-07 -7.02898e-05
-4.23096e-05 1.2666e-05 1.27044e-05 -6.88532e-05
-3.96912e-05 1.18878e-05 1.19158e-05 -6.8854e-05
4.39557e-05 -1.32064e-05 -1.31783e-05 -6.88562e-05
4.65653e-05 -1.39977e-05 -1.39575e-05 -6.88572e-05
-4.10003e-05 1.22768e-05 1.23101e-05 -6.88534e-05
2.13137e-06 -6.5952e-07 -6.30795e-07 -7.02895e-05
4.52608e-05 -1.36023e-05 -1.35679e-05 -6.88566e-05
2.12703e-06 -6.6629e-07 -6.26032e-07 -7.02895e-05
2.1294e-06 -6.6311e-07 -6.28409e-07 -7.02894e-05
-3.96912e-05 1.18878e-05 1.19158e-05 -6.8854e-05
-3.70739e-05 1.11101e-05 1.11273e-05 -6.88569e-05
4.13436e-05 -1.24119e-05 -1.23993e-05 -6.8856e-05
4.39557e-05 -1.32064e-05 -1.31783e-05 -6.88562e-05
-3.83824e-05 1.14989e-05 1.15215e-05 -6.8855e-05
2.13377e-06 -6.50694e-07 -6.35605e-07 -7.02915e-05
4.265e-05 -1.28097e-05 -1.27887e-05 -6.88559e-05
2.13137e-06 -6.5952e-07 -6.30795e-07 -7.02895e-05
2.13287e-06 -6.55422e-07 -6.3319e-07 -7.02902e-05
-3.70739e-05 1.11101e-05 1.11273e-05 -6.88569e-05
-3.44566e-05 1.03323e-05 1.0339e-05 -6.88647e-05
3.87262e-05 -1.16115e-05 -1.16206e-05 -6.88589e-05
4.13436e-05 -1.24119e-05 -1.23993e-05 -6.8856e-05
-3.57654e-05 1.07213e-05 1.07332e-05 -6.88599e-05
2.13327e-06 -6.388e-07 -6.40485e-07 -7.02983e-05
4.00359e-05 -1.20127e-05 -1.20099e-05 -6.88569e-05
2.13377e-06 -6.50694e-07 -6.35605e-07 -7.02915e-05
2.13395e-06 -6.45204e-07 -6.38035e-07 -7.0294e-05
-3.44566e-05 1.03323e-05 1.0339e-05 -6.88647e-05
-3.18383e-05 9.55225e-06 9.55117e-06 -6.88827e-05
3.60999e-05 -1.08006e-05 -1.08425e-05 -6.88694e-05
3.87262e-05 -1.16115e-05 -1.16206e-05 -6.88589e-05
-3.31475e-05 9.94277e-06 9.94488e-06 -6.88719e-05
2.1285e-06 -6.22559e-07 -6.45403e-07 -7.03161e-05
3.74142e-05 -1.12077e-05 -1.12314e-05 -6.88628e-05
2.13327e-06 -6.388e-07 -6.40485e-07 -7.02983e-05
2.13151e-06 -6.31317e-07 -6.42941e-07 -7.03053e-05
-3.18383e-05 9.55225e-06 9.55117e-06 -6.88827e-05
-2.92126e-05 8.76531e-06 8.76311e-06 -6.8922e-05
3.34547e-05 -9.97162e-06 -1.00642e-05 -6.88972e-05
3.60999e-05 -1.08006e-05 -1.08425e-05 -6.88694e-05
-3.05272e-05 9.1602e-06 9.15731e-06 -6.88987e-05
2.11763e-06 -6.00404e-07 -6.50241e-07 -7.03569e-05
3.47808e-05 -1.03891e-05 -1.04536e-05 -6.88802e-05
2.1285e-06 -6.22559e-07 -6.45403e-07 -7.03161e-05
2.12396e-06 -6.12321e-07 -6.47846e-07 -7.03323e-05
-2.92126e-05 8.76531e-06 8.76311e-06 -6.8922e-05
-2.65735e-05 7.96149e-06 7.97657e-06 -6.90016e-05
3.07805e-05 -9.1113e-06 -9.28682e-06 -6.89603e-05
3.34547e-05 -9.97162e-06 -1.00642e-05 -6.88972e-05
-2.78945e-05 8.36616e-06 8.3693e-06 -6.89551e-05
2.0983e-06 -5.7067e-07 -6.54697e-07 -7.04436e-05
3.21214e-05 -9.54624e-06 -9.67509e-06 -6.89229e-05
2.11763e-06 -6.00404e-07 -6.50241e-07 -7.03569e-05
2.10919e-06 -5.86601e-07 -6.52537e-07 -7.03931e-05
-2.65735e-05 7.96149e-06 7.97657e-06 -6.90016e-05
-2.38949e-05 7.12562e-06 7.18682e-06 -6.91566e-05
2.80455e-05 -8.20133e-06 -8.50466e-06 -6.90926e-05
3.07805e-05 -9.1113e-06 -9.28682e-06 -6.89603e-05
-2.52425e-05 7.54944e-06 7.58275e-06 -6.90666e-05
2.06755e-06 -5.31676e-07 -6.58231e-07 -7.06152e-05
2.94244e-05 -8.66457e-06 -8.89709e-06 -6.90148e-05
2.0983e-06 -5.7067e-07 -6.54697e-07 -7.04436e-05
2.08455e-06 -5.52393e-07 -6.56639e-07 -7.05144e-05
-2.38949e-05 7.12562e-06 7.18682e-06 -6.91566e-05
-2.11597e-05 6.22845e-06 6.39911e-06 -6.94417e-05
2.52265e-05 -7.21042e-06 -7.72119e-06 -6.93472e-05
2.80455e-05 -8.20133e-06 -8.50466e-06 -6.90926e-05
-2.25331e-05 6.68575e-06 6.79171e-06 -6.92786e-05
2.02223e-06 -4.82645e-07 -6.59822e-07 -7.09365e-05
2.66456e-05 -7.71707e-06 -8.11224e-06 -6.92005e-05
2.06755e-06 -5.31676e-07 -6.58231e-07 -7.06152e-05
2.0469e-06 -5.08455e-07 -6.59334e-07 -7.0754e-05
-2.11597e-05 6.22845e-06 6.39911e-06 -6.94417e-05
-1.82902e-05 5.24281e-06 5.59172e-06 -6.99441e-05
2.22396e-05 -6.11234e-06 -6.91168e-06 -6.98119e-05
2.52265e-05 -7.21042e-06 -7.72119e-06 -6.93472e-05
-1.97528e-05 5.75107e-06 6.00072e-06 -6.96584e-05
1.95919e-06 -4.23999e-07 -6.5794e-07 -7.15017e-05
2.37655e-05 -6.6789e-06 -7.32281e-06 -6.95458e-05
2.02223e-06 -4.82645e-07 -6.59822e-07 -7.09365e-05
1.99313e-06 -4.54295e-07 -6.59499e-07 -7.11769e-05
-1.82902e-05 5.24281e-06 5.59172e-06 -6.99441e-05
-1.52748e-05 4.12205e-06 4.77973e-06 -7.07644e-05
1.90697e-05 -4.8674e-06 -6.0867e-06 -7.05884e-05
2.22396e-05 -6.11234e-06 -6.91168e-06 -6.98119e-05
-1.67911e-05 4.69581e-06 5.18369e-06 -7.03082e-05
1.87721e-06 -3.60553e-07 -6.49996e-07 -7.24273e-05
2.0668e-05 -5.50385e-06 -6.49892e-06 -7.01547e-05
1.95919e-06 -4.23999e-07 -6.5794e-07 -7.15017e-05
1.92052e-06 -3.92496e-07 -6.54868e-07 -7.19199e-05
-1.52748e-05 4.12205e-06 4.77973e-06 -7.07644e-05
-1.19647e-05 2.91427e-06 3.87874e-06 -7.20112e-05
1.55699e-05 -3.54227e-06 -5.1547e-06 -7.17931e-05
1.90697e-05 -4.8674e-06 -6.0867e-06 -7.05884e-05
-1.36847e-05 3.53252e-06 4.35095e-06 -7.1327e-05
1.77786e-06 -3.01772e-07 -6.32609e-07 -7.38006e-05
1.73889e-05 -4.21654e-06 -5.64531e-06 -7.11288e-05
1.87721e-06 -3.60553e-07 -6.49996e-07 -7.24273e-05
1.82956e-06 -3.29359e-07 -6.42942e-07 -7.30384e-05
-1.19647e-05 2.91427e-06 3.87874e-06 -7.20112e-05
-8.55741e-06 1.7073e-06 2.93576e-06 -7.36196e-05
1.19538e-05 -2.26188e-06 -4.15369e-06 -7.33731e-05
1.55699e-05 -3.54227e-06 -5.1547e-06 -7.17931e-05
-1.02203e-05 2.27232e-06 3.40627e-06 -7.27854e-05
1.67222e-06 -2.70424e-07 -6.00769e-07 -7.55272e-05
1.37218e-05 -2.85456e-06 -4.65739e-06 -7.25506e-05
1.77786e-06 -3.01772e-07 -6.32609e-07 -7.38006e-05
1.72459e-06 -2.81056e-07 -6.18658e-07 -7.46672e-05
-8.55741e-06 1.7073e-06 2.93576e-06 -7.36196e-05
-5.05505e-06 1.14053e-06 1.67765e-06 -7.51875e-05
8.25982e-06 -1.73258e-06 -2.79739e-06 -7.49524e-05
1.19538e-05 -2.26188e-06 -4.15369e-06 -7.33731e-05
-6.87074e-06 1.32306e-06 2.37758e-06 -7.4451e-05
1.58034e-06 -2.98223e-07 -5.49477e-07 -7.70001e-05
1.01663e-05 -1.87713e-06 -3.55252e-06 -7.42031e-05
1.67222e-06 -2.70424e-07 -6.00769e-07 -7.55272e-05
1.62328e-06 -2.73828e-07 -5.78338e-07 -7.63049e-05
-5.05505e-06 1.14053e-06 1.67765e-06 -7.51875e-05
-2.58479e-06 1.93472e-06 2.78602e-07 -7.5221e-05
5.68543e-06 -2.77167e-06 -1.24876e-06 -7.50597e-05
8.25982e-06 -1.73258e-06 -2.79739e-06 -7.49524e-05
-3.49738e-06 1.22907e-06 9.72133e-07 -7.55475e-05
1.54324e-06 -4.36277e-07 -4.74411e-07 -7.66161e-05
6.63321e-06 -1.91022e-06 -2.02414e-06 -7.53401e-05
1.58034e-06 -2.98223e-07 -5.49477e-07 -7.70001e-05
1.55108e-06 -3.5075e-07 -5.14428e-07 -7.72859e-05
-2.58479e-06 1.93472e-06 2.78602e-07 -7.5221e-05
-1.20472e-06 5.59197e-06 -1.88025e-06 -7.09721e-05
4.37152e-06 -6.98741e-06 1.1211e-06 -7.0954e-05
5.68543e-06 -2.77167e-06 -1.24876e-06 -7.50597e-05
-1.94476e-06 3.5144e-06 -6.72704e-07 -7.38536e-05
1.59309e-06 -7.2088e-07 -3.73806e-07 -7.16869e-05
5.05277e-06 -4.58787e-06 -1.99244e-07 -7.37573e-05
1.54324e-06 -4.36277e-07 -4.74411e-07 -7.66161e-05
1.55712e-06 -5.5877e-07 -4.27865e-07 -7.47403e-05
-1.20472e-06 5.59197e-06 -1.88025e-06 -7.09721e-05
-2.24949e-06 1.03104e-05 -3.45466e-06 -5.79117e-05
5.70607e-06 -1.25704e-05 2.94184e-06 -5.80764e-05
4.37152e-06 -6.98741e-06 1.1211e-06 -7.0954e-05
-1.07092e-06 7.78394e-06 -2.87701e-06 -6.58457e-05
1.76545e-06 -1.17487e-06 -2.53104e-07 -5.87868e-05
4.35235e-06 -9.5835e-06 2.24192e-06 -6.59133e-05
1.59309e-06 -7.2088e-07 -3.73806e-07 -7.16869e-05
1.65967e-06 -9.25134e-07 -3.148e-07 -6.67673e-05
-2.24949e-06 1.03104e-05 -3.45466e-06 -5.79117e-05
-5.34085e-06 1.71971e-05 -5.08125e-06 -3.32172e-05
9.22727e-06 -2.0364e-05 4.77288e-06 -3.31016e-05
5.70607e-06 -1.25704e-05 2.94184e-06 -5.80764e-05
-3.93973e-06 1.34605e-05 -4.08035e-06 -4.70944e-05
2.06961e-06 -1.5004e-06 -2.43947e-07 -3.22022e-05
7.60641e-06 -1.61987e-05 3.68239e-06 -4.72378e-05
1.76545e-06 -1.17487e-06 -2.53104e-07 -5.87868e-05
1.90416e-06 -1.43306e-06 -2.01899e-07 -4.72527e-05
0.000448078 0 -0.000192033 0.000259177
0.000456793 -6.451e-05 -0.000168121 8.57413e-05
0.00142632 -0.000190037 -0.000529836 -6.8845e-06
0.00126021 0 -0.00054009 0.000163969
0.000437707 -2.75404e-05 -0.000175786 0.000163472
0.000941187 -0.000127435 -0.000348751 4.98774e-05
0.00136634 -0.000106927 -0.000539749 6.07237e-05
0.00083531 0 -0.00035799 0.000236127
0.0009015 -6.06776e-05 -0.000360353 0.0001165
0.000456793 -6.451e-05 -0.000168121 8.57413e-05
0.000493476 -0.000106275 -0.000165943 -1.82941e-05
0.00149982 -0.000347506 -0.000493849 -5.99623e-05
0.00142632 -0.000190037 -0.000529836 -6.8845e-06
0.000482873 -8.94515e-05 -0.000168609 2.45616e-05
0.000990366 -0.000218596 -0.000330759 -3.32613e-05
0.00146313 -0.000273729 -0.000509745 -4.1082e-05
0.000941187 -0.000127435 -0.000348751 4.98774e-05
0.000966684 -0.000179327 -0.000337439 4.87176e-06
0.000493476 -0.000106275 -0.000165943 -1.82941e-05
0.000504634 -0.000137315 -0.000157423 -6.54269e-05
0.00153741 -0.000427484 -0.000475682 -7.00747e-05
0.00149982 -0.000347506 -0.000493849 -5.99623e-05
0.000497694 -0.000122824 -0.000160659 -4.67122e-05
0.00101933 -0.00027703 -0.000318128 -6.90611e-05
0.00152753 -0.00039704 -0.000484495 -6.92176e-05
0.000990366 -0.000218596 -0.000330759 -3.32613e-05
0.001009 -0.000251474 -0.000324652 -5.80044e-05
0.000504634 -0.000137315 -0.000157423 -6.54269e-05
0.000510655 -0.000152229 -0.000153611 -8.2194e-05
0.00153645 -0.000459241 -0.000461662 -6.46512e-05
0.00153741 -0.000427484 -0.000475682 -7.00747e-05
0.000510289 -0.000146667 -0.000155838 -7.66697e-05
0.00102456 -0.000303368 -0.000309084 -7.68855e-05
0.00153765 -0.000447365 -0.000467265 -6.70603e-05
0.00101933 -0.00027703 -0.000318128 -6.90611e-05
0.00102373 -0.000293557 -0.00031293 -7.39945e-05
0.000510655 -0.000152229 -0.000153611 -8.2194e-05
0.000507592 -0.00015823 -0.000149726 -8.39231e-05
0.00152593 -0.000465617 -0.000454421 -6.0895e-05
0.00153645 -0.000459241 -0.000461662 -6.46512e-05
0.00050875 -0.000156011 -0.000151174 -8.39971e-05
0.00101885 -0.000312268 -0.000302819 -7.55466e-05
0.00153286 -0.000464472 -0.000457882 -6.27794e-05
0.00102456 -0.000303368 -0.000309084 -7.68855e-05
0.00102266 -0.0003093 -0.000305726 -7.71522e-05
0.000507592 -0.00015823 -0.000149726 -8.39231e-05
0.000503563 -0.00015848 -0.000147893 -8.08843e-05
0.00151087 -0.00046353 -0.00044886 -5.8371e-05
0.00152593 -0.000465617 -0.000454421 -6.0895e-05
0.000506192 -0.000158833 -0.000148868 -8.27052e-05
0.00100903 -0.000311927 -0.000298757 -7.22908e-05
0.00151786 -0.000465088 -0.000451189 -5.92568e-05
0.00101885 -0.000312268 -0.000302819 -7.55466e-05
0.001014 -0.000312816 -0.000300509 -7.37021e-05
0.000503563 -0.00015848 -0.000147893 -8.08843e-05
0.000498256 -0.00015708 -0.000146218 -7.69962e-05
0.0014977 -0.00045854 -0.000445355 -5.75511e-05
0.00151087 -0.00046353 -0.00044886 -5.8371e-05
0.000500614 -0.000157861 -0.000146894 -7.8859e-05
0.000999291 -0.000308844 -0.000295906 -6.9412e-05
0.00150435 -0.000461194 -0.000447066 -5.7918e-05
0.00100903 -0.000311927 -0.000298757 -7.22908e-05
0.00100407 -0.000310521 -0.000297235 -7.08583e-05
0.000498256 -0.00015708 -0.000146218 -7.69962e-05
0.000493904 -0.000155134 -0.000145187 -7.39175e-05
0.00148568 -0.000453583 -0.000442329 -5.71963e-05
0.0014977 -0.00045854 -0.000445355 -5.75511e-05
0.000496136 -0.000156129 -0.000145718 -7.53404e-05
0.0009906 -0.000305132 -0.000293772 -6.74044e-05
0.00149134 -0.000455985 -0.000443723 -5.72856e-05
0.000999291 -0.000308844 -0.000295906 -6.9412e-05
0.000994774 -0.000306991 -0.000294764 -6.8243e-05
0.000493904 -0.000155134 -0.000145187 -7.39175e-05
0.000489897 -0.000153394 -0.000144216 -7.17962e-05
0.00147543 -0.00044919 -0.000439817 -5.72008e-05
0.00148568 -0.000453583 -0.000442329 -5.71963e-05
0.000491758 -0.000154224 -0.000144657 -7.27318e-05
0.000983112 -0.000301846 -0.000291971 -6.61406e-05
0.00148047 -0.000451308 -0.000441069 -5.71981e-05
0.0009906 -0.000305132 -0.000293772 -6.74044e-05
0.000986726 -0.000303416 -0.000292847 -6.67176e-05
0.000489897 -0.000153394 -0.000144216 -7.17962e-05
0.000486531 -0.000151894 -0.000143416 -7.04989e-05
0.00146608 -0.000445493 -0.000437396 -5.72486e-05
0.00147543 -0.00044919 -0.000439817 -5.72008e-05
0.000488196 -0.000152615 -0.000143821 -7.10647e-05
0.00097652 -0.000299056 -0.000290342 -6.5417e-05
0.00147062 -0.000447262 -0.000438581 -5.72121e-05
0.000983112 -0.000301846 -0.000291971 -6.61406e-05
0.000979722 -0.000300393 -0.000291141 -6.57127e-05
0.000486531 -0.000151894 -0.000143416 -7.04989e-05
0.000483443 -0.000150644 -0.000142628 -6.97506e-05
0.00145748 -0.000442298 -0.000435076 -5.73304e-05
0.00146608 -0.000445493 -0.000437396 -5.72486e-05
0.000484935 -0.000151242 -0.000143011 -7.00684e-05
0.000970535 -0.000296716 -0.00028878 -6.50238e-05
0.00146173 -0.000443844 -0.000436239 -5.72942e-05
0.00097652 -0.000299056 -0.000290342 -6.5417e-05
0.00097347 -0.000297838 -0.000289557 -6.51947e-05
0.000483443 -0.000150644 -0.000142628 -6.97506e-05
0.000480611 -0.000149559 -0.00014188 -6.93502e-05
0.00144923 -0.000439451 -0.000432761 -5.73915e-05
0.00145748 -0.000442298 -0.000435076 -5.73304e-05
0.000482015 -0.000150085 -0.000142256 -6.95186e-05
0.000964917 -0.000294673 -0.000287247 -6.48286e-05
0.00145331 -0.00044084 -0.000433915 -5.73613e-05
0.000970535 -0.000296716 -0.00028878 -6.50238e-05
0.000967692 -0.000295665 -0.000288011 -6.49056e-05
0.000480611 -0.000149559 -0.00014188 -6.93502e-05
0.000477891 -0.000148584 -0.000141131 -6.91468e-05
0.00144121 -0.000436812 -0.000430458 -5.74407e-05
0.00144923 -0.000439451 -0.000432761 -5.73915e-05
0.000479235 -0.000149061 -0.000141503 -6.92302e-05
0.000959509 -0.000292824 -0.000285722 -6.4738e-05
0.00144521 -0.000438112 -0.000431611 -5.74189e-05
0.000964917 -0.000294673 -0.000287247 -6.48286e-05
0.000962194 -0.00029373 -0.000286485 -6.47754e-05
0.000477891 -0.000148584 -0.000141131 -6.91468e-05
0.000475253 -0.000147675 -0.000140391 -6.90515e-05
0.00143331 -0.000434293 -0.000428148 -5.74735e-05
0.00144121 -0.000436812 -0.000430458 -5.74407e-05
0.000476568 -0.000148124 -0.000140762 -6.90899e-05
0.000954216 -0.000291087 -0.000284198 -6.47022e-05
0.00143725 -0.000435541 -0.000429303 -5.74584e-05
0.000959509 -0.000292824 -0.000285722 -6.4738e-05
0.000956853 -0.000291945 -0.00028496 -6.4715e-05
0.000475253 -0.000147675 -0.000140391 -6.90515e-05
0.000472651 -0.000146805 -0.000139648 -6.90105e-05
0.00142546 -0.00043184 -0.000425837 -5.74962e-05
0.00143331 -0.000434293 -0.000428148 -5.74735e-05
0.000473948 -0.000147236 -0.000140019 -6.90264e-05
0.000948983 -0.000289412 -0.000282673 -6.46913e-05
0.00142938 -0.000433061 -0.000426994 -5.74862e-05
0.000954216 -0.000291087 -0.000284198 -6.47022e-05
0.000951595 -0.000290244 -0.000283436 -6.46951e-05
0.000472651 -0.000146805 -0.000139648 -6.90105e-05
0.000470072 -0.000145956 -0.000138907 -6.89955e-05
0.00141764 -0.000429421 -0.000423522 -5.75108e-05
0.00142546 -0.00043184 -0.000425837 -5.74962e-05
0.00047136 -0.000146378 -0.000139278 -6.9001e-05
0.00094378 -0.000287772 -0.000281146 -6.4691e-05
0.00142155 -0.000430628 -0.00042468 -5.75043e-05
0.000948983 -0.000289412 -0.000282673 -6.46913e-05
0.000946379 -0.000288589 -0.00028191 -6.46903e-05
0.000470072 -0.000145956 -0.000138907 -6.89955e-05
0.000467502 -0.000145119 -0.000138164 -6.89917e-05
0.00140983 -0.00042702 -0.000421205 -5.75202e-05
0.00141764 -0.000429421 -0.000423522 -5.75108e-05
0.000468786 -0.000145536 -0.000138536 -6.89928e-05
0.00093859 -0.000286149 -0.000279618 -6.46941e-05
0.00141374 -0.000428219 -0.000422364 -5.75161e-05
0.00094378 -0.000287772 -0.000281146 -6.4691e-05
0.000941184 -0.000286959 -0.000280382 -6.46925e-05
0.000467502 -0.000145119 -0.000138164 -6.89917e-05
0.000464939 -0.000144288 -0.000137422 -6.8992e-05
0.00140203 -0.000424627 -0.000418886 -5.75259e-05
0.00140983 -0.00042702 -0.000421205 -5.75202e-05
0.00046622 -0.000144703 -0.000137793 -6.89916e-05
0.000933407 -0.000284536 -0.000278088 -6.46976e-05
0.00140593 -0.000425823 -0.000420046 -5.75234e-05
0.00093859 -0.000286149 -0.000279618 -6.46941e-05
0.000935998 -0.000285342 -0.000278853 -6.46959e-05
0.000464939 -0.000144288 -0.000137422 -6.8992e-05
0.000462378 -0.000143462 -0.000136678 -6.89933e-05
0.00139423 -0.000422239 -0.000416567 -5.75292e-05
0.00140203 -0.000424627 -0.000418886 -5.75259e-05
0.000463658 -0.000143875 -0.00013705 -6.89927e-05
0.000928227 -0.000282927 -0.000276557 -6.47003e-05
0.00139813 -0.000423433 -0.000417727 -5.75278e-05
0.000933407 -0.000284536 -0.000278088 -6.46976e-05
0.000930817 -0.000283731 -0.000277323 -6.46991e-05
0.000462378 -0.000143462 -0.000136678 -6.89933e-05
0.000459818 -0.000142638 -0.000135934 -6.89946e-05
0.00138643 -0.000419852 -0.000414246 -5.7531e-05
0.00139423 -0.000422239 -0.000416567 -5.75292e-05
0.000461098 -0.00014305 -0.000136306 -6.8994e-05
0.000923047 -0.000281321 -0.000275026 -6.4702e-05
0.00139033 -0.000421045 -0.000415406 -5.75303e-05
0.000928227 -0.000282927 -0.000276557 -6.47003e-05
0.000925637 -0.000282123 -0.000275791 -6.47013e-05
0.000459818 -0.000142638 -0.000135934 -6.89946e-05
0.00045726 -0.000141816 -0.00013519 -6.89953e-05
0.00137863 -0.000417466 -0.000411925 -5.75318e-05
0.00138643 -0.000419852 -0.000414246 -5.7531e-05
0.000458539 -0.000142227 -0.000135562 -6.8995e-05
0.000917868 -0.000279716 -0.000273494 -6.47029e-05
0.00138253 -0.000418659 -0.000413086 -5.75315e-05
0.000923047 -0.000281321 -0.000275026 -6.4702e-05
0.000920457 -0.000280518 -0.00027426 -6.47026e-05
0.00045726 -0.000141816 -0.00013519 -6.89953e-05
0.000454701 -0.000140995 -0.000134446 -6.89956e-05
0.00137082 -0.000415081 -0.000409604 -5.75319e-05
0.00137863 -0.000417466 -0.000411925 -5.75318e-05
0.00045598 -0.000141405 -0.000134818 -6.89955e-05
0.000912688 -0.000278112 -0.000271961 -6.47032e-05
0.00137472 -0.000416274 -0.000410764 -5.75319e-05
0.000917868 -0.000279716 -0.000273494 -6.47029e-05
0.000915278 -0.000278914 -0.000272728 -6.47031e-05
0.000454701 -0.000140995 -0.000134446 -6.89956e-05
0.000452142 -0.000140174 -0.000133701 -6.89955e-05
0.00136302 -0.000412697 -0.000407282 -5.75316e-05
0.00137082 -0.000415081 -0.000409604 -5.75319e-05
0.000453421 -0.000140584 -0.000134073 -6.89956e-05
0.000907509 -0.000276508 -0.000270429 -6.47031e-05
0.00136692 -0.000413889 -0.000408443 -5.75317e-05
0.000912688 -0.000278112 -0.000271961 -6.47032e-05
0.000910099 -0.00027731 -0.000271195 -6.47032e-05
0.000452142 -0.000140174 -0.000133701 -6.89955e-05
0.000449583 -0.000139354 -0.000132955 -6.89951e-05
0.00135522 -0.000410312 -0.00040496 -5.7531e-05
0.00136302 -0.000412697 -0.000407282 -5.75316e-05
0.000450862 -0.000139764 -0.000133328 -6.89953e-05
0.000902329 -0.000274905 -0.000268896 -6.47026e-05
0.00135912 -0.000411505 -0.000406121 -5.75313e-05
0.000907509 -0.000276508 -0.000270429 -6.47031e-05
0.000904919 -0.000275707 -0.000269662 -6.47029e-05
0.000449583 -0.000139354 -0.000132955 -6.89951e-05
0.000447023 -0.000138534 -0.00013221 -6.89946e-05
0.00134742 -0.000407928 -0.000402638 -5.75303e-05
0.00135522 -0.000410312 -0.00040496 -5.7531e-05
0.000448303 -0.000138944 -0.000132583 -6.89949e-05
0.000897149 -0.000273302 -0.000267363 -6.4702e-05
0.00135132 -0.00040912 -0.000403799 -5.75307e-05
0.000902329 -0.000274905 -0.000268896 -6.47026e-05
0.000899739 -0.000274104 -0.000268129 -6.47023e-05
0.000447023 -0.000138534 -0.00013221 -6.89946e-05
0.000444464 -0.000137715 -0.000131464 -6.8994e-05
0.00133961 -0.000405544 -0.000400315 -5.75295e-05
0.00134742 -0.000407928 -0.000402638 -5.75303e-05
0.000445744 -0.000138124 -0.000131837 -6.89943e-05
0.000891968 -0.0002717 -0.000265829 -6.47013e-05
0.00134351 -0.000406736 -0.000401476 -5.75299e-05
0.000897149 -0.000273302 -0.000267363 -6.4702e-05
0.000894558 -0.000272501 -0.000266596 -6.47016e-05
0.000444464 -0.000137715 -0.000131464 -6.8994e-05
0.000441904 -0.000136896 -0.000130718 -6.89933e-05
0.00133181 -0.000403161 -0.000397992 -5.75287e-05
0.00133961 -0.000405544 -0.000400315 -5.75295e-05
0.000443184 -0.000137305 -0.000131091 -6.89937e-05
0.000886787 -0.000270098 -0.000264296 -6.47005e-05
0.00133571 -0.000404352 -0.000399154 -5.75291e-05
0.000891968 -0.0002717 -0.000265829 -6.47013e-05
0.000889378 -0.000270899 -0.000265063 -6.47009e-05
0.000441904 -0.000136896 -0.000130718 -6.89933e-05
0.000439344 -0.000136077 -0.000129972 -6.89926e-05
0.00132401 -0.000400777 -0.00039567 -5.75278e-05
0.00133181 -0.000403161 -0.000397992 -5.75287e-05
0.000440624 -0.000136486 -0.000130345 -6.8993e-05
0.000881606 -0.000268496 -0.000262762 -6.46997e-05
0.00132791 -0.000401969 -0.000396831 -5.75282e-05
0.000886787 -0.000270098 -0.000264296 -6.47005e-05
0.000884197 -0.000269297 -0.000263529 -6.47001e-05
0.000439344 -0.000136077 -0.000129972 -6.89926e-05
0.000436783 -0.000135258 -0.000129225 -6.89919e-05
0.0013162 -0.000398394 -0.000393346 -5.75269e-05
0.00132401 -0.000400777 -0.00039567 -5.75278e-05
0.000438063 -0.000135667 -0.000129598 -6.89922e-05
0.000876425 -0.000266894 -0.000261228 -6.46989e-05
0.0013201 -0.000399585 -0.000394508 -5.75274e-05
0.000881606 -0.000268496 -0.000262762 -6.46997e-05
0.000879016 -0.000267695 -0.000261995 -6.46993e-05
0.000436783 -0.000135258 -0.000129225 -6.89919e-05
0.000434222 -0.000134439 -0.000128478 -6.89911e-05
0.0013084 -0.00039601 -0.000391023 -5.75261e-05
0.0013162 -0.000398394 -0.000393346 -5.75269e-05
0.000435503 -0.000134849 -0.000128852 -6.89915e-05
0.000871243 -0.000265292 -0.000259693 -6.4698e-05
0.0013123 -0.000397202 -0.000392185 -5.75265e-05
0.000876425 -0.000266894 -0.000261228 -6.46989e-05
0.000873834 -0.000266093 -0.000260461 -6.46984e-05
0.000434222 -0.000134439 -0.000128478 -6.89911e-05
0.000431661 -0.000133621 -0.000127731 -6.89903e-05
0.00130059 -0.000393627 -0.0003887 -5.75252e-05
0.0013084 -0.00039601 -0.000391023 -5.75261e-05
0.000432942 -0.00013403 -0.000128105 -6.89907e-05
0.000866061 -0.000263691 -0.000258159 -6.46972e-05
0.0013045 -0.000394819 -0.000389862 -5.75256e-05
0.000871243 -0.000265292 -0.000259693 -6.4698e-05
0.000868652 -0.000264491 -0.000258926 -6.46976e-05
0.000431661 -0.000133621 -0.000127731 -6.89903e-05
0.000429099 -0.000132803 -0.000126984 -6.89896e-05
0.00129279 -0.000391245 -0.000386376 -5.75243e-05
0.00130059 -0.000393627 -0.0003887 -5.75252e-05
0.00043038 -0.000133212 -0.000127358 -6.89899e-05
0.000860879 -0.000262089 -0.000256624 -6.46963e-05
0.00129669 -0.000392436 -0.000387538 -5.75248e-05
0.000866061 -0.000263691 -0.000258159 -6.46972e-05
0.00086347 -0.00026289 -0.000257392 -6.46967e-05
0.000429099 -0.000132803 -0.000126984 -6.89896e-05
0.000426537 -0.000131985 -0.000126237 -6.89888e-05
0.00128498 -0.000388862 -0.000384052 -5.75235e-05
0.00129279 -0.000391245 -0.000386376 -5.75243e-05
0.000427818 -0.000132394 -0.00012661 -6.89892e-05
0.000855696 -0.000260488 -0.000255089 -6.46954e-05
0.00128889 -0.000390053 -0.000385214 -5.75239e-05
0.000860879 -0.000262089 -0.000256624 -6.46963e-05
0.000858288 -0.000261289 -0.000255857 -6.46959e-05
0.000426537 -0.000131985 -0.000126237 -6.89888e-05
0.000423975 -0.000131167 -0.000125489 -6.8988e-05
0.00127718 -0.000386479 -0.000381729 -5.75226e-05
0.00128498 -0.000388862 -0.000384052 -5.75235e-05
0.000425256 -0.000131576 -0.000125863 -6.89884e-05
0.000850514 -0.000258887 -0.000253554 -6.46946e-05
0.00128108 -0.000387671 -0.000382891 -5.7523e-05
0.000855696 -0.000260488 -0.000255089 -6.46954e-05
0.000853105 -0.000259688 -0.000254322 -6.4695e-05
0.000423975 -0.000131167 -0.000125489 -6.8988e-05
0.000421413 -0.00013035 -0.000124741 -6.89872e-05
0.00126937 -0.000384097 -0.000379404 -5.75217e-05
0.00127718 -0.000386479 -0.000381729 -5.75226e-05
0.000422694 -0.000130759 -0.000125115 -6.89876e-05
0.00084533 -0.000257287 -0.000252019 -6.46937e-05
0.00127328 -0.000385288 -0.000380566 -5.75222e-05
0.000850514 -0.000258887 -0.000253554 -6.46946e-05
0.000847922 -0.000258087 -0.000252786 -6.46941e-05
0.000421413 -0.00013035 -0.000124741 -6.89872e-05
0.00041885 -0.000129533 -0.000123993 -6.89863e-05
0.00126157 -0.000381715 -0.00037708 -5.75208e-05
0.00126937 -0.000384097 -0.000379404 -5.75217e-05
0.000420131 -0.000129941 -0.000124367 -6.89868e-05
0.000840147 -0.000255686 -0.000250483 -6.46928e-05
0.00126547 -0.000382906 -0.000378242 -5.75213e-05
0.00084533 -0.000257287 -0.000252019 -6.46937e-05
0.000842739 -0.000256486 -0.000251251 -6.46933e-05
0.00041885 -0.000129533 -0.000123993 -6.89863e-05
0.000416286 -0.000128716 -0.000123245 -6.89855e-05
0.00125376 -0.000379333 -0.000374756 -5.75199e-05
0.00126157 -0.000381715 -0.00037708 -5.75208e-05
0.000417568 -0.000129124 -0.000123619 -6.89859e-05
0.000834963 -0.000254086 -0.000248947 -6.46919e-05
0.00125767 -0.000380524 -0.000375918 -5.75204e-05
0.000840147 -0.000255686 -0.000250483 -6.46928e-05
0.000837555 -0.000254886 -0.000249715 -6.46924e-05
0.000416286 -0.000128716 -0.000123245 -6.89855e-05
0.000413723 -0.000127899 -0.000122496 -6.89847e-05
0.00124596 -0.000376951 -0.000372431 -5.7519e-05
0.00125376 -0.000379333 -0.000374756 -5.75199e-05
0.000415005 -0.000128307 -0.00012287 -6.89851e-05
0.000829779 -0.000252486 -0.000247412 -6.4691e-05
0.00124986 -0.000378142 -0.000373593 -5.75195e-05
0.000834963 -0.000254086 -0.000248947 -6.46919e-05
0.000832371 -0.000253286 -0.00024818 -6.46915e-05
0.000413723 -0.000127899 -0.000122496 -6.89847e-05
0.000411159 -0.000127082 -0.000121747 -6.89838e-05
0.00123815 -0.00037457 -0.000370106 -5.75181e-05
0.00124596 -0.000376951 -0.000372431 -5.7519e-05
0.000412441 -0.00012749 -0.000122122 -6.89842e-05
0.000824595 -0.000250886 -0.000245875 -6.46901e-05
0.00124205 -0.00037576 -0.000371269 -5.75186e-05
0.000829779 -0.000252486 -0.000247412 -6.4691e-05
0.000827187 -0.000251686 -0.000246643 -6.46906e-05
0.000411159 -0.000127082 -0.000121747 -6.89838e-05
0.000408595 -0.000126265 -0.000120998 -6.89829e-05
0.00123034 -0.000372188 -0.000367781 -5.75172e-05
0.00123815 -0.00037457 -0.000370106 -5.75181e-05
0.000409877 -0.000126674 -0.000121373 -6.89834e-05
0.000819411 -0.000249286 -0.000244339 -6.46892e-05
0.00123425 -0.000373379 -0.000368944 -5.75176e-05
0.000824595 -0.000250886 -0.000245875 -6.46901e-05
0.000822003 -0.000250086 -0.000245107 -6.46896e-05
0.000408595 -0.000126265 -0.000120998 -6.89829e-05
0.00040603 -0.000125449 -0.000120249 -6.89821e-05
0.00122254 -0.000369807 -0.000365456 -5.75162e-05
0.00123034 -0.000372188 -0.000367781 -5.75172e-05
0.000407313 -0.000125857 -0.000120624 -6.89825e-05
0.000814226 -0.000247687 -0.000242803 -6.46882e-05
0.00122644 -0.000370998 -0.000366619 -5.75167e-05
0.000819411 -0.000249286 -0.000244339 -6.46892e-05
0.000816818 -0.000248486 -0.000243571 -6.46887e-05
0.00040603 -0.000125449 -0.000120249 -6.89821e-05
0.000403466 -0.000124633 -0.0001195 -6.89812e-05
0.00121473 -0.000367426 -0.000363131 -5.75153e-05
0.00122254 -0.000369807 -0.000365456 -5.75162e-05
0.000404748 -0.000125041 -0.000119874 -6.89816e-05
0.000809041 -0.000246087 -0.000241266 -6.46873e-05
0.00121863 -0.000368617 -0.000364293 -5.75158e-05
0.000814226 -0.000247687 -0.000242803 -6.46882e-05
0.000811633 -0.000246887 -0.000242034 -6.46878e-05
0.000403466 -0.000124633 -0.0001195 -6.89812e-05
0.000400901 -0.000123817 -0.00011875 -6.89803e-05
0.00120692 -0.000365045 -0.000360805 -5.75144e-05
0.00121473 -0.000367426 -0.000363131 -5.75153e-05
0.000402183 -0.000124225 -0.000119125 -6.89807e-05
0.000803855 -0.000244488 -0.000239729 -6.46863e-05
0.00121083 -0.000366236 -0.000361968 -5.75148e-05
0.000809041 -0.000246087 -0.000241266 -6.46873e-05
0.000806448 -0.000245288 -0.000240497 -6.46868e-05
0.000400901 -0.000123817 -0.00011875 -6.89803e-05
0.000398335 -0.000123002 -0.000118 -6.89794e-05
0.00119912 -0.000362665 -0.00035848 -5.75134e-05
0.00120692 -0.000365045 -0.000360805 -5.75144e-05
0.000399618 -0.000123409 -0.000118375 -6.89798e-05
0.00079867 -0.000242889 -0.000238192 -6.46854e-05
0.00120302 -0.000363855 -0.000359642 -5.75139e-05
0.000803855 -0.000244488 -0.000239729 -6.46863e-05
0.000801263 -0.000243689 -0.00023896 -6.46859e-05
0.000398335 -0.000123002 -0.000118 -6.89794e-05
0.000395769 -0.000122186 -0.00011725 -6.89784e-05
0.00119131 -0.000360284 -0.000356154 -5.75124e-05
0.00119912 -0.000362665 -0.00035848 -5.75134e-05
0.000397052 -0.000122594 -0.000117625 -6.89789e-05
0.000793484 -0.000241291 -0.000236654 -6.46844e-05
0.00119521 -0.000361474 -0.000357317 -5.75129e-05
0.00079867 -0.000242889 -0.000238192 -6.46854e-05
0.000796077 -0.00024209 -0.000237423 -6.46849e-05
0.000395769 -0.000122186 -0.00011725 -6.89784e-05
0.000393203 -0.000121371 -0.0001165 -6.89775e-05
0.0011835 -0.000357904 -0.000353828 -5.75115e-05
0.00119131 -0.000360284 -0.000356154 -5.75124e-05
0.000394486 -0.000121778 -0.000116875 -6.8978e-05
0.000788298 -0.000239692 -0.000235117 -6.46834e-05
0.00118741 -0.000359094 -0.000354991 -5.75119e-05
0.000793484 -0.000241291 -0.000236654 -6.46844e-05
0.000790891 -0.000240491 -0.000235886 -6.46839e-05
0.000393203 -0.000121371 -0.0001165 -6.89775e-05
0.000390637 -0.000120556 -0.000115749 -6.89766e-05
0.00117569 -0.000355524 -0.000351502 -5.75105e-05
0.0011835 -0.000357904 -0.000353828 -5.75115e-05
0.00039192 -0.000120963 -0.000116124 -6.8977e-05
0.000783112 -0.000238094 -0.000233579 -6.46824e-05
0.0011796 -0.000356714 -0.000352665 -5.7511e-05
0.000788298 -0.000239692 -0.000235117 -6.46834e-05
0.000785705 -0.000238893 -0.000234348 -6.46829e-05
0.000390637 -0.000120556 -0.000115749 -6.89766e-05
0.00038807 -0.000119741 -0.000114998 -6.89756e-05
0.00116789 -0.000353144 -0.000349175 -5.75095e-05
0.00117569 -0.000355524 -0.000351502 -5.75105e-05
0.000389354 -0.000120148 -0.000115374 -6.89761e-05
0.000777925 -0.000236496 -0.000232041 -6.46814e-05
0.00117179 -0.000354334 -0.000350338 -5.751e-05
0.000783112 -0.000238094 -0.000233579 -6.46824e-05
0.000780518 -0.000237295 -0.00023281 -6.46819e-05
0.00038807 -0.000119741 -0.000114998 -6.89756e-05
0.000385503 -0.000118926 -0.000114247 -6.89747e-05
0.00116008 -0.000350764 -0.000346849 -5.75085e-05
0.00116789 -0.000353144 -0.000349175 -5.75095e-05
0.000386787 -0.000119334 -0.000114623 -6.89751e-05
0.000772738 -0.000234898 -0.000230503 -6.46804e-05
0.00116398 -0.000351954 -0.000348012 -5.7509e-05
0.000777925 -0.000236496 -0.000232041 -6.46814e-05
0.000775332 -0.000235697 -0.000231272 -6.46809e-05
0.000385503 -0.000118926 -0.000114247 -6.89747e-05
0.000382936 -0.000118112 -0.000113496 -6.89737e-05
0.00115227 -0.000348384 -0.000344522 -5.75075e-05
0.00116008 -0.000350764 -0.000346849 -5.75085e-05
0.00038422 -0.000118519 -0.000113872 -6.89742e-05
0.000767551 -0.0002333 -0.000228965 -6.46794e-05
0.00115617 -0.000349574 -0.000345685 -5.7508e-05
0.000772738 -0.000234898 -0.000230503 -6.46804e-05
0.000770144 -0.000234099 -0.000229734 -6.46799e-05
0.000382936 -0.000118112 -0.000113496 -6.89737e-05
0.000380369 -0.000117298 -0.000112745 -6.89727e-05
0.00114446 -0.000346005 -0.000342195 -5.75065e-05
0.00115227 -0.000348384 -0.000344522 -5.75075e-05
0.000381652 -0.000117705 -0.00011312 -6.89732e-05
0.000762363 -0.000231703 -0.000227426 -6.46783e-05
0.00114837 -0.000347195 -0.000343359 -5.7507e-05
0.000767551 -0.0002333 -0.000228965 -6.46794e-05
0.000764957 -0.000232501 -0.000228195 -6.46789e-05
0.000380369 -0.000117298 -0.000112745 -6.89727e-05
0.000377801 -0.000116484 -0.000111993 -6.89717e-05
0.00113665 -0.000343626 -0.000339868 -5.75054e-05
0.00114446 -0.000346005 -0.000342195 -5.75065e-05
0.000379085 -0.000116891 -0.000112369 -6.89722e-05
0.000757176 -0.000230105 -0.000225887 -6.46773e-05
0.00114056 -0.000344815 -0.000341032 -5.75059e-05
0.000762363 -0.000231703 -0.000227426 -6.46783e-05
0.00075977 -0.000230904 -0.000226657 -6.46778e-05
0.000377801 -0.000116484 -0.000111993 -6.89717e-05
0.000375232 -0.00011567 -0.000111241 -6.89707e-05
0.00112884 -0.000341247 -0.000337541 -5.75044e-05
0.00113665 -0.000343626 -0.000339868 -5.75054e-05
0.000376517 -0.000116077 -0.000111617 -6.89712e-05
0.000751988 -0.000228508 -0.000224348 -6.46763e-05
0.00113275 -0.000342436 -0.000338705 -5.75049e-05
0.000757176 -0.000230105 -0.000225887 -6.46773e-05
0.000754582 -0.000229307 -0.000225118 -6.46768e-05
0.000375232 -0.00011567 -0.000111241 -6.89707e-05
0.000372664 -0.000114856 -0.000110489 -6.89697e-05
0.00112103 -0.000338868 -0.000335214 -5.75034e-05
0.00112884 -0.000341247 -0.000337541 -5.75044e-05
0.000373948 -0.000115263 -0.000110865 -6.89702e-05
0.0007468 -0.000226911 -0.000222809 -6.46752e-05
0.00112494 -0.000340058 -0.000336377 -5.75039e-05
0.000751988 -0.000228508 -0.000224348 -6.46763e-05
0.000749394 -0.00022771 -0.000223579 -6.46757e-05
0.000372664 -0.000114856 -0.000110489 -6.89697e-05
0.000370095 -0.000114043 -0.000109737 -6.89687e-05
0.00111322 -0.00033649 -0.000332886 -5.75023e-05
0.00112103 -0.000338868 -0.000335214 -5.75034e-05
0.00037138 -0.000114449 -0.000110113 -6.89692e-05
0.000741611 -0.000225315 -0.00022127 -6.46742e-05
0.00111713 -0.000337679 -0.00033405 -5.75029e-05
0.0007468 -0.000226911 -0.000222809 -6.46752e-05
0.000744205 -0.000226113 -0.00022204 -6.46747e-05
0.000370095 -0.000114043 -0.000109737 -6.89687e-05
0.000367526 -0.00011323 -0.000108984 -6.89677e-05
0.00110541 -0.000334111 -0.000330558 -5.75013e-05
0.00111322 -0.00033649 -0.000332886 -5.75023e-05
0.000368811 -0.000113636 -0.00010936 -6.89682e-05
0.000736422 -0.000223718 -0.00021973 -6.46731e-05
0.00110932 -0.0003353 -0.000331722 -5.75018e-05
0.000741611 -0.000225315 -0.00022127 -6.46742e-05
0.000739017 -0.000224516 -0.0002205 -6.46736e-05
0.000367526 -0.00011323 -0.000108984 -6.89677e-05
0.000364957 -0.000112417 -0.000108231 -6.89667e-05
0.0010976 -0.000331733 -0.000328231 -5.75002e-05
0.00110541 -0.000334111 -0.000330558 -5.75013e-05
0.000366241 -0.000112823 -0.000108608 -6.89672e-05
0.000731233 -0.000222122 -0.000218191 -6.4672e-05
0.00110151 -0.000332922 -0.000329395 -5.75008e-05
0.000736422 -0.000223718 -0.00021973 -6.46731e-05
0.000733828 -0.00022292 -0.000218961 -6.46726e-05
0.000364957 -0.000112417 -0.000108231 -6.89667e-05
0.000362387 -0.000111604 -0.000107478 -6.89657e-05
0.00108979 -0.000329355 -0.000325903 -5.74992e-05
0.0010976 -0.000331733 -0.000328231 -5.75002e-05
0.000363672 -0.00011201 -0.000107855 -6.89662e-05
0.000726044 -0.000220526 -0.000216651 -6.46709e-05
0.0010937 -0.000330544 -0.000327067 -5.74997e-05
0.000731233 -0.000222122 -0.000218191 -6.4672e-05
0.000728639 -0.000221324 -0.000217421 -6.46715e-05
0.000362387 -0.000111604 -0.000107478 -6.89657e-05
0.000359817 -0.000110791 -0.000106725 -6.89646e-05
0.00108198 -0.000326977 -0.000323574 -5.74981e-05
0.00108979 -0.000329355 -0.000325903 -5.74992e-05
0.000361102 -0.000111197 -0.000107102 -6.89651e-05
0.000720855 -0.00021893 -0.000215111 -6.46699e-05
0.00108589 -0.000328166 -0.000324739 -5.74986e-05
0.000726044 -0.000220526 -0.000216651 -6.46709e-05
0.000723449 -0.000219728 -0.000215881 -6.46704e-05
0.000359817 -0.000110791 -0.000106725 -6.89646e-05
0.000357246 -0.000109979 -0.000105972 -6.89636e-05
0.00107417 -0.000324599 -0.000321246 -5.7497e-05
0.00108198 -0.000326977 -0.000323574 -5.74981e-05
0.000358532 -0.000110385 -0.000106349 -6.89641e-05
0.000715665 -0.000217334 -0.00021357 -6.46688e-05
0.00107808 -0.000325788 -0.00032241 -5.74976e-05
0.000720855 -0.00021893 -0.000215111 -6.46699e-05
0.00071826 -0.000218132 -0.00021434 -6.46693e-05
0.000357246 -0.000109979 -0.000105972 -6.89636e-05
0.000354676 -0.000109167 -0.000105218 -6.89625e-05
0.00106636 -0.000322222 -0.000318918 -5.7496e-05
0.00107417 -0.000324599 -0.000321246 -5.7497e-05
0.000355961 -0.000109573 -0.000105595 -6.89631e-05
0.000710475 -0.000215739 -0.00021203 -6.46677e-05
0.00107027 -0.000323411 -0.000320082 -5.74965e-05
0.000715665 -0.000217334 -0.00021357 -6.46688e-05
0.00071307 -0.000216536 -0.0002128 -6.46682e-05
0.000354676 -0.000109167 -0.000105218 -6.89625e-05
0.000352105 -0.000108355 -0.000104464 -6.89615e-05
0.00105855 -0.000319845 -0.000316589 -5.74949e-05
0.00106636 -0.000322222 -0.000318918 -5.7496e-05
0.00035339 -0.000108761 -0.000104841 -6.8962e-05
0.000705285 -0.000214144 -0.000210489 -6.46666e-05
0.00106246 -0.000321033 -0.000317753 -5.74954e-05
0.000710475 -0.000215739 -0.00021203 -6.46677e-05
0.00070788 -0.000214941 -0.000211259 -6.46671e-05
0.000352105 -0.000108355 -0.000104464 -6.89615e-05
0.000349533 -0.000107543 -0.00010371 -6.89604e-05
0.00105074 -0.000317468 -0.00031426 -5.74938e-05
0.00105855 -0.000319845 -0.000316589 -5.74949e-05
0.000350819 -0.000107949 -0.000104087 -6.8961e-05
0.000700094 -0.000212548 -0.000208948 -6.46655e-05
0.00105465 -0.000318656 -0.000315424 -5.74944e-05
0.000705285 -0.000214144 -0.000210489 -6.46666e-05
0.000702689 -0.000213346 -0.000209719 -6.4666e-05
0.000349533 -0.000107543 -0.00010371 -6.89604e-05
0.000346962 -0.000106731 -0.000102956 -6.89594e-05
0.00104293 -0.000315091 -0.000311931 -5.74927e-05
0.00105074 -0.000317468 -0.00031426 -5.74938e-05
0.000348248 -0.000107137 -0.000103333 -6.89599e-05
0.000694903 -0.000210954 -0.000207407 -6.46644e-05
0.00104684 -0.000316279 -0.000313095 -5.74933e-05
0.000700094 -0.000212548 -0.000208948 -6.46655e-05
0.000697499 -0.000211751 -0.000208178 -6.46649e-05
0.000346962 -0.000106731 -0.000102956 -6.89594e-05
0.00034439 -0.00010592 -0.000102201 -6.89583e-05
0.00103512 -0.000312714 -0.000309602 -5.74916e-05
0.00104293 -0.000315091 -0.000311931 -5.74927e-05
0.000345676 -0.000106326 -0.000102579 -6.89588e-05
0.000689712 -0.000209359 -0.000205866 -6.46633e-05
0.00103902 -0.000313902 -0.000310766 -5.74922e-05
0.000694903 -0.000210954 -0.000207407 -6.46644e-05
0.000692308 -0.000210156 -0.000206636 -6.46638e-05
0.00034439 -0.00010592 -0.000102201 -6.89583e-05
0.000341818 -0.000105109 -0.000101447 -6.89572e-05
0.00102731 -0.000310338 -0.000307272 -5.74905e-05
0.00103512 -0.000312714 -0.000309602 -5.74916e-05
0.000343104 -0.000105515 -0.000101824 -6.89578e-05
0.000684521 -0.000207765 -0.000204324 -6.46621e-05
0.00103121 -0.000311526 -0.000308437 -5.74911e-05
0.000689712 -0.000209359 -0.000205866 -6.46633e-05
0.000687117 -0.000208562 -0.000205095 -6.46627e-05
0.000341818 -0.000105109 -0.000101447 -6.89572e-05
0.000339245 -0.000104298 -0.000100692 -6.89562e-05
0.00101949 -0.000307961 -0.000304943 -5.74895e-05
0.00102731 -0.000310338 -0.000307272 -5.74905e-05
0.000340532 -0.000104704 -0.000101069 -6.89567e-05
0.000679329 -0.00020617 -0.000202782 -6.4661e-05
0.0010234 -0.000309149 -0.000306108 -5.749e-05
0.000684521 -0.000207765 -0.000204324 -6.46621e-05
0.000681925 -0.000206967 -0.000203553 -6.46616e-05
0.000339245 -0.000104298 -0.000100692 -6.89562e-05
0.000336672 -0.000103487 -9.99365e-05 -6.89551e-05
0.00101168 -0.000305585 -0.000302613 -5.74884e-05
0.00101949 -0.000307961 -0.000304943 -5.74895e-05
0.000337959 -0.000103893 -0.000100314 -6.89556e-05
0.000674138 -0.000204576 -0.000201241 -6.46599e-05
0.00101559 -0.000306773 -0.000303778 -5.74889e-05
0.000679329 -0.00020617 -0.000202782 -6.4661e-05
0.000676734 -0.000205373 -0.000202012 -6.46605e-05
0.000336672 -0.000103487 -9.99365e-05 -6.89551e-05
0.000334099 -0.000102677 -9.9181e-05 -6.8954e-05
0.00100387 -0.000303209 -0.000300283 -5.74873e-05
0.00101168 -0.000305585 -0.000302613 -5.74884e-05
0.000335386 -0.000103082 -9.95588e-05 -6.89545e-05
0.000668946 -0.000202982 -0.000199698 -6.46588e-05
0.00100778 -0.000304397 -0.000301448 -5.74878e-05
0.000674138 -0.000204576 -0.000201241 -6.46599e-05
0.000671542 -0.000203779 -0.00020047 -6.46593e-05
0.000334099 -0.000102677 -9.9181e-05 -6.8954e-05
0.000331526 -0.000101867 -9.84254e-05 -6.89529e-05
0.000996058 -0.000300833 -0.000297953 -5.74861e-05
0.00100387 -0.000303209 -0.000300283 -5.74873e-05
0.000332813 -0.000102272 -9.88033e-05 -6.89534e-05
0.000663753 -0.000201389 -0.000198156 -6.46576e-05
0.000999964 -0.000302021 -0.000299118 -5.74867e-05
0.000668946 -0.000202982 -0.000199698 -6.46588e-05
0.000666349 -0.000202186 -0.000198927 -6.46582e-05
0.000331526 -0.000101867 -9.84254e-05 -6.89529e-05
0.000328952 -0.000101057 -9.76696e-05 -6.89518e-05
0.000988245 -0.000298458 -0.000295623 -5.7485e-05
0.000996058 -0.000300833 -0.000297953 -5.74861e-05
0.000330239 -0.000101462 -9.80475e-05 -6.89524e-05
0.000658561 -0.000199795 -0.000196614 -6.46565e-05
0.000992152 -0.000299646 -0.000296788 -5.74856e-05
0.000663753 -0.000201389 -0.000198156 -6.46576e-05
0.000661157 -0.000200592 -0.000197385 -6.46571e-05
0.000328952 -0.000101057 -9.76696e-05 -6.89518e-05
0.000326378 -0.000100247 -9.69135e-05 -6.89507e-05
0.000980432 -0.000296083 -0.000293293 -5.74839e-05
0.000988245 -0.000298458 -0.000295623 -5.7485e-05
0.000327665 -0.000100652 -9.72916e-05 -6.89513e-05
0.000653368 -0.000198202 -0.000195071 -6.46554e-05
0.000984339 -0.00029727 -0.000294458 -5.74845e-05
0.000658561 -0.000199795 -0.000196614 -6.46565e-05
0.000655964 -0.000198999 -0.000195842 -6.46559e-05
0.000326378 -0.000100247 -9.69135e-05 -6.89507e-05
0.000323804 -9.9437e-05 -9.61572e-05 -6.89496e-05
0.000972619 -0.000293707 -0.000290962 -5.74828e-05
0.000980432 -0.000296083 -0.000293293 -5.74839e-05
0.000325091 -9.98418e-05 -9.65354e-05 -6.89502e-05
0.000648175 -0.000196609 -0.000193528 -6.46542e-05
0.000976526 -0.000294895 -0.000292128 -5.74834e-05
0.000653368 -0.000198202 -0.000195071 -6.46554e-05
0.000650771 -0.000197406 -0.0001943 -6.46548e-05
0.000323804 -9.9437e-05 -9.61572e-05 -6.89496e-05
0.000321229 -9.86275e-05 -9.54007e-05 -6.89485e-05
0.000964806 -0.000291332 -0.000288632 -5.74817e-05
0.000972619 -0.000293707 -0.000290962 -5.74828e-05
0.000322517 -9.90322e-05 -9.5779e-05 -6.89491e-05
0.000642981 -0.000195016 -0.000191985 -6.46531e-05
0.000968713 -0.00029252 -0.000289797 -5.74823e-05
0.000648175 -0.000196609 -0.000193528 -6.46542e-05
0.000645578 -0.000195813 -0.000192757 -6.46537e-05
0.000321229 -9.86275e-05 -9.54007e-05 -6.89485e-05
0.000318654 -9.78183e-05 -9.4644e-05 -6.89474e-05
0.000956993 -0.000288958 -0.000286301 -5.74806e-05
0.000964806 -0.000291332 -0.000288632 -5.74817e-05
0.000319942 -9.82229e-05 -9.50224e-05 -6.8948e-05
0.000637788 -0.000193424 -0.000190442 -6.46519e-05
0.0009609 -0.000290145 -0.000287466 -5.74811e-05
0.000642981 -0.000195016 -0.000191985 -6.46531e-05
0.000640385 -0.00019422 -0.000191213 -6.46525e-05
0.000318654 -9.78183e-05 -9.4644e-05 -6.89474e-05
0.000316079 -9.70093e-05 -9.3887e-05 -6.89463e-05
0.000949179 -0.000286583 -0.00028397 -5.74795e-05
0.000956993 -0.000288958 -0.000286301 -5.74806e-05
0.000317367 -9.74137e-05 -9.42655e-05 -6.89469e-05
0.000632594 -0.000191831 -0.000188898 -6.46508e-05
0.000953086 -0.00028777 -0.000285135 -5.748e-05
0.000637788 -0.000193424 -0.000190442 -6.46519e-05
0.000635191 -0.000192628 -0.00018967 -6.46514e-05
0.000316079 -9.70093e-05 -9.3887e-05 -6.89463e-05
0.000313503 -9.62004e-05 -9.31299e-05 -6.89452e-05
0.000941365 -0.000284209 -0.000281639 -5.74784e-05
0.000949179 -0.000286583 -0.00028397 -5.74795e-05
0.000314791 -9.66048e-05 -9.35085e-05 -6.89458e-05
0.0006274 -0.000190239 -0.000187355 -6.46497e-05
0.000945272 -0.000285396 -0.000282804 -5.74789e-05
0.000632594 -0.000191831 -0.000188898 -6.46508e-05
0.000629997 -0.000191035 -0.000188126 -6.46502e-05
0.000313503 -9.62004e-05 -9.31299e-05 -6.89452e-05
0.000310928 -9.53918e-05 -9.23725e-05 -6.89441e-05
0.000933551 -0.000281835 -0.000279307 -5.74772e-05
0.000941365 -0.000284209 -0.000281639 -5.74784e-05
0.000312216 -9.57961e-05 -9.27512e-05 -6.89447e-05
0.000622206 -0.000188647 -0.000185811 -6.46485e-05
0.000937458 -0.000283022 -0.000280473 -5.74778e-05
0.0006274 -0.000190239 -0.000187355 -6.46497e-05
0.000624803 -0.000189443 -0.000186583 -6.46491e-05
0.000310928 -9.53918e-05 -9.23725e-05 -6.89441e-05
0.000308351 -9.45834e-05 -9.16149e-05 -6.8943e-05
0.000925737 -0.000279461 -0.000276976 -5.74761e-05
0.000933551 -0.000281835 -0.000279307 -5.74772e-05
0.00030964 -9.49876e-05 -9.19937e-05 -6.89436e-05
0.000617011 -0.000187055 -0.000184267 -6.46474e-05
0.000929644 -0.000280648 -0.000278142 -5.74767e-05
0.000622206 -0.000188647 -0.000185811 -6.46485e-05
0.000619608 -0.000187851 -0.000185039 -6.46479e-05
0.000308351 -9.45834e-05 -9.16149e-05 -6.8943e-05
0.000305775 -9.37752e-05 -9.0857e-05 -6.89419e-05
0.000917923 -0.000277087 -0.000274644 -5.7475e-05
0.000925737 -0.000279461 -0.000276976 -5.74761e-05
0.000307063 -9.41793e-05 -9.1236e-05 -6.89425e-05
0.000611816 -0.000185464 -0.000182722 -6.46462e-05
0.00092183 -0.000278274 -0.00027581 -5.74756e-05
0.000617011 -0.000187055 -0.000184267 -6.46474e-05
0.000614414 -0.00018626 -0.000183495 -6.46468e-05
0.000305775 -9.37752e-05 -9.0857e-05 -6.89419e-05
0.000303198 -9.29672e-05 -9.0099e-05 -6.89408e-05
0.000910108 -0.000274713 -0.000272312 -5.74739e-05
0.000917923 -0.000277087 -0.000274644 -5.7475e-05
0.000304487 -9.33712e-05 -9.04781e-05 -6.89414e-05
0.000606621 -0.000183872 -0.000181178 -6.46451e-05
0.000914016 -0.0002759 -0.000273478 -5.74744e-05
0.000611816 -0.000185464 -0.000182722 -6.46462e-05
0.000609219 -0.000184668 -0.00018195 -6.46456e-05
0.000303198 -9.29672e-05 -9.0099e-05 -6.89408e-05
0.000300621 -9.21594e-05 -8.93407e-05 -6.89397e-05
0.000902294 -0.00027234 -0.00026998 -5.74728e-05
0.000910108 -0.000274713 -0.000272312 -5.74739e-05
0.00030191 -9.25633e-05 -8.97199e-05 -6.89403e-05
0.000601426 -0.000182281 -0.000179633 -6.46439e-05
0.000906201 -0.000273526 -0.000271146 -5.74733e-05
0.000606621 -0.000183872 -0.000181178 -6.46451e-05
0.000604023 -0.000183077 -0.000180406 -6.46445e-05
0.000300621 -9.21594e-05 -8.93407e-05 -6.89397e-05
0.000298044 -9.13518e-05 -8.85822e-05 -6.89386e-05
0.000894479 -0.000269966 -0.000267648 -5.74716e-05
0.000902294 -0.00027234 -0.00026998 -5.74728e-05
0.000299332 -9.17556e-05 -8.89615e-05 -6.89392e-05
0.00059623 -0.00018069 -0.000178088 -6.46428e-05
0.000898386 -0.000271153 -0.000268814 -5.74722e-05
0.000601426 -0.000182281 -0.000179633 -6.46439e-05
0.000598828 -0.000181486 -0.000178861 -6.46433e-05
0.000298044 -9.13518e-05 -8.85822e-05 -6.89386e-05
0.000295466 -9.05444e-05 -8.78235e-05 -6.89375e-05
0.000886664 -0.000267593 -0.000265316 -5.74705e-05
0.000894479 -0.000269966 -0.000267648 -5.74716e-05
0.000296755 -9.09481e-05 -8.82029e-05 -6.89381e-05
0.000591034 -0.0001791 -0.000176543 -6.46416e-05
0.000890571 -0.00026878 -0.000266482 -5.74711e-05
0.00059623 -0.00018069 -0.000178088 -6.46428e-05
0.000593632 -0.000179895 -0.000177316 -6.46422e-05
0.000295466 -9.05444e-05 -8.78235e-05 -6.89375e-05
0.000292888 -8.97373e-05 -8.70646e-05 -6.89364e-05
0.000878848 -0.000265221 -0.000262983 -5.74694e-05
0.000886664 -0.000267593 -0.000265316 -5.74705e-05
0.000294177 -9.01408e-05 -8.74441e-05 -6.8937e-05
0.000585838 -0.000177509 -0.000174998 -6.46405e-05
0.000882756 -0.000266407 -0.00026415 -5.74699e-05
0.000591034 -0.0001791 -0.000176543 -6.46416e-05
0.000588436 -0.000178304 -0.000175771 -6.4641e-05
0.000292888 -8.97373e-05 -8.70646e-05 -6.89364e-05
0.00029031 -8.89303e-05 -8.63055e-05 -6.89353e-05
0.000871033 -0.000262848 -0.000260651 -5.74683e-05
0.000878848 -0.000265221 -0.000262983 -5.74694e-05
0.000291599 -8.93338e-05 -8.66851e-05 -6.89358e-05
0.000580642 -0.000175919 -0.000173453 -6.46393e-05
0.000874941 -0.000264034 -0.000261817 -5.74688e-05
0.000585838 -0.000177509 -0.000174998 -6.46405e-05
0.00058324 -0.000176714 -0.000174225 -6.46399e-05
0.00029031 -8.89303e-05 -8.63055e-05 -6.89353e-05
0.000287731 -8.81236e-05 -8.55461e-05 -6.89342e-05
0.000863217 -0.000260476 -0.000258318 -5.74671e-05
0.000871033 -0.000262848 -0.000260651 -5.74683e-05
0.00028902 -8.85269e-05 -8.59258e-05 -6.89347e-05
0.000575445 -0.000174329 -0.000171907 -6.46382e-05
0.000867125 -0.000261662 -0.000259484 -5.74677e-05
0.000580642 -0.000175919 -0.000173453 -6.46393e-05
0.000578043 -0.000175124 -0.00017268 -6.46387e-05
0.000287731 -8.81236e-05 -8.55461e-05 -6.89342e-05
0.000285152 -8.7317e-05 -8.47865e-05 -6.89331e-05
0.000855401 -0.000258103 -0.000255985 -5.7466e-05
0.000863217 -0.000260476 -0.000258318 -5.74671e-05
0.000286442 -8.77203e-05 -8.51663e-05 -6.89336e-05
0.000570248 -0.000172739 -0.000170361 -6.4637e-05
0.000859309 -0.000259289 -0.000257151 -5.74666e-05
0.000575445 -0.000174329 -0.000171907 -6.46382e-05
0.000572847 -0.000173534 -0.000171134 -6.46376e-05
0.000285152 -8.7317e-05 -8.47865e-05 -6.89331e-05
0.000282573 -8.65107e-05 -8.40267e-05 -6.8932e-05
0.000847585 -0.000255731 -0.000253652 -5.74649e-05
0.000855401 -0.000258103 -0.000255985 -5.7466e-05
0.000283863 -8.69138e-05 -8.44066e-05 -6.89325e-05
0.000565051 -0.000171149 -0.000168815 -6.46359e-05
0.000851493 -0.000256917 -0.000254818 -5.74655e-05
0.000570248 -0.000172739 -0.000170361 -6.4637e-05
0.00056765 -0.000171944 -0.000169588 -6.46365e-05
0.000282573 -8.65107e-05 -8.40267e-05 -6.8932e-05
0.000279994 -8.57046e-05 -8.32667e-05 -6.89309e-05
0.000839769 -0.000253359 -0.000251318 -5.74638e-05
0.000847585 -0.000255731 -0.000253652 -5.74649e-05
0.000281283 -8.61076e-05 -8.36467e-05 -6.89314e-05
0.000559854 -0.000169559 -0.000167269 -6.46347e-05
0.000843677 -0.000254545 -0.000252485 -5.74643e-05
0.000565051 -0.000171149 -0.000168815 -6.46359e-05
0.000562452 -0.000170354 -0.000168042 -6.46353e-05
0.000279994 -8.57046e-05 -8.32667e-05 -6.89309e-05
0.000277414 -8.48987e-05 -8.25064e-05 -6.89298e-05
0.000831952 -0.000250988 -0.000248985 -5.74627e-05
0.000839769 -0.000253359 -0.000251318 -5.74638e-05
0.000278704 -8.53016e-05 -8.28866e-05 -6.89303e-05
0.000554656 -0.00016797 -0.000165723 -6.46336e-05
0.000835861 -0.000252173 -0.000250152 -5.74632e-05
0.000559854 -0.000169559 -0.000167269 -6.46347e-05
0.000557255 -0.000168765 -0.000166496 -6.46342e-05
0.000277414 -8.48987e-05 -8.25064e-05 -6.89298e-05
0.000274834 -8.40929e-05 -8.1746e-05 -6.89287e-05
0.000824136 -0.000248616 -0.000246651 -5.74616e-05
0.000831952 -0.000250988 -0.000248985 -5.74627e-05
0.000276124 -8.44958e-05 -8.21262e-05 -6.89292e-05
0.000549458 -0.000166381 -0.000164176 -6.46325e-05
0.000828044 -0.000249802 -0.000247818 -5.74621e-05
0.000554656 -0.00016797 -0.000165723 -6.46336e-05
0.000552057 -0.000167176 -0.000164949 -6.4633e-05
0.000274834 -8.40929e-05 -8.1746e-05 -6.89287e-05
0.000272253 -8.32874e-05 -8.09853e-05 -6.89276e-05
0.000816319 -0.000246245 -0.000244317 -5.74604e-05
0.000824136 -0.000248616 -0.000246651 -5.74616e-05
0.000273543 -8.36902e-05 -8.13657e-05 -6.89281e-05
0.00054426 -0.000164792 -0.000162629 -6.46313e-05
0.000820227 -0.00024743 -0.000245484 -5.7461e-05
0.000549458 -0.000166381 -0.000164176 -6.46325e-05
0.000546859 -0.000165587 -0.000163403 -6.46319e-05
0.000272253 -8.32874e-05 -8.09853e-05 -6.89276e-05
0.000269672 -8.24822e-05 -8.02244e-05 -6.89265e-05
0.000808502 -0.000243874 -0.000241983 -5.74593e-05
0.000816319 -0.000246245 -0.000244317 -5.74604e-05
0.000270963 -8.28848e-05 -8.06049e-05 -6.8927e-05
0.000539062 -0.000163203 -0.000161082 -6.46302e-05
0.00081241 -0.000245059 -0.00024315 -5.74599e-05
0.00054426 -0.000164792 -0.000162629 -6.46313e-05
0.000541661 -0.000163998 -0.000161856 -6.46307e-05
0.000269672 -8.24822e-05 -8.02244e-05 -6.89265e-05
0.000267091 -8.16771e-05 -7.94633e-05 -6.89254e-05
0.000800685 -0.000241503 -0.000239649 -5.74582e-05
0.000808502 -0.000243874 -0.000241983 -5.74593e-05
0.000268382 -8.20796e-05 -7.98438e-05 -6.8926e-05
0.000533863 -0.000161615 -0.000159535 -6.4629e-05
0.000804593 -0.000242688 -0.000240816 -5.74588e-05
0.000539062 -0.000163203 -0.000161082 -6.46302e-05
0.000536462 -0.000162409 -0.000160309 -6.46296e-05
0.000267091 -8.16771e-05 -7.94633e-05 -6.89254e-05
0.00026451 -8.08722e-05 -7.87019e-05 -6.89243e-05
0.000792867 -0.000239132 -0.000237315 -5.74571e-05
0.000800685 -0.000241503 -0.000239649 -5.74582e-05
0.000265801 -8.12746e-05 -7.90826e-05 -6.89249e-05
0.000528664 -0.000160027 -0.000157987 -6.46279e-05
0.000796776 -0.000240317 -0.000238482 -5.74577e-05
0.000533863 -0.000161615 -0.000159535 -6.4629e-05
0.000531264 -0.000160821 -0.000158761 -6.46285e-05
0.00026451 -8.08722e-05 -7.87019e-05 -6.89243e-05
0.000261928 -8.00675e-05 -7.79403e-05 -6.89232e-05
0.00078505 -0.000236762 -0.000234981 -5.7456e-05
0.000792867 -0.000239132 -0.000237315 -5.74571e-05
0.000263219 -8.04698e-05 -7.83212e-05 -6.89238e-05
0.000523465 -0.000158439 -0.00015644 -6.46268e-05
0.000788958 -0.000237947 -0.000236148 -5.74566e-05
0.000528664 -0.000160027 -0.000157987 -6.46279e-05
0.000526065 -0.000159233 -0.000157214 -6.46273e-05
0.000261928 -8.00675e-05 -7.79403e-05 -6.89232e-05
0.000259346 -7.92631e-05 -7.71786e-05 -6.89222e-05
0.000777232 -0.000234391 -0.000232646 -5.74549e-05
0.00078505 -0.000236762 -0.000234981 -5.7456e-05
0.000260637 -7.96653e-05 -7.75595e-05 -6.89227e-05
0.000518266 -0.000156851 -0.000154892 -6.46257e-05
0.000781141 -0.000235576 -0.000233813 -5.74555e-05
0.000523465 -0.000158439 -0.00015644 -6.46268e-05
0.000520865 -0.000157645 -0.000155666 -6.46262e-05
0.000259346 -7.92631e-05 -7.71786e-05 -6.89222e-05
0.000256764 -7.84588e-05 -7.64165e-05 -6.89211e-05
0.000769414 -0.000232021 -0.000230311 -5.74538e-05
0.000777232 -0.000234391 -0.000232646 -5.74549e-05
0.000258055 -7.88609e-05 -7.67976e-05 -6.89216e-05
0.000513066 -0.000155263 -0.000153344 -6.46245e-05
0.000773323 -0.000233206 -0.000231479 -5.74544e-05
0.000518266 -0.000156851 -0.000154892 -6.46257e-05
0.000515666 -0.000156057 -0.000154118 -6.46251e-05
0.000256764 -7.84588e-05 -7.64165e-05 -6.89211e-05
0.000254182 -7.76548e-05 -7.56543e-05 -6.892e-05
0.000761596 -0.000229651 -0.000227976 -5.74527e-05
0.000769414 -0.000232021 -0.000230311 -5.74538e-05
0.000255473 -7.80568e-05 -7.60355e-05 -6.89205e-05
0.000507866 -0.000153676 -0.000151796 -6.46234e-05
0.000765505 -0.000230836 -0.000229144 -5.74533e-05
0.000513066 -0.000155263 -0.000153344 -6.46245e-05
0.000510466 -0.000154469 -0.00015257 -6.4624e-05
0.000254182 -7.76548e-05 -7.56543e-05 -6.892e-05
0.000251599 -7.6851e-05 -7.48919e-05 -6.89189e-05
0.000753777 -0.000227281 -0.000225641 -5.74516e-05
0.000761596 -0.000229651 -0.000227976 -5.74527e-05
0.00025289 -7.72529e-05 -7.52731e-05 -6.89195e-05
0.000502666 -0.000152088 -0.000150247 -6.46223e-05
0.000757686 -0.000228466 -0.000226809 -5.74522e-05
0.000507866 -0.000153676 -0.000151796 -6.46234e-05
0.000505266 -0.000152882 -0.000151022 -6.46228e-05
0.000251599 -7.6851e-05 -7.48919e-05 -6.89189e-05
0.000249015 -7.60473e-05 -7.41292e-05 -6.89179e-05
0.000745959 -0.000224912 -0.000223306 -5.74505e-05
0.000753777 -0.000227281 -0.000225641 -5.74516e-05
0.000250307 -7.64491e-05 -7.45106e-05 -6.89184e-05
0.000497465 -0.000150501 -0.000148699 -6.46212e-05
0.000749868 -0.000226097 -0.000224473 -5.74511e-05
0.000502666 -0.000152088 -0.000150247 -6.46223e-05
0.000500066 -0.000151295 -0.000149473 -6.46217e-05
0.000249015 -7.60473e-05 -7.41292e-05 -6.89179e-05
0.000246432 -7.52439e-05 -7.33663e-05 -6.89168e-05
0.00073814 -0.000222542 -0.00022097 -5.74494e-05
0.000745959 -0.000224912 -0.000223306 -5.74505e-05
0.000247724 -7.56456e-05 -7.37478e-05 -6.89173e-05
0.000492265 -0.000148914 -0.00014715 -6.46201e-05
0.000742049 -0.000223727 -0.000222138 -5.745e-05
0.000497465 -0.000150501 -0.000148699 -6.46212e-05
0.000494865 -0.000149708 -0.000147925 -6.46206e-05
0.000246432 -7.52439e-05 -7.33663e-05 -6.89168e-05
0.000243848 -7.44407e-05 -7.26032e-05 -6.89157e-05
0.000730321 -0.000220173 -0.000218635 -5.74484e-05
0.00073814 -0.000222542 -0.00022097 -5.74494e-05
0.00024514 -7.48423e-05 -7.29848e-05 -6.89163e-05
0.000487064 -0.000147328 -0.000145601 -6.4619e-05
0.00073423 -0.000221358 -0.000219803 -5.74489e-05
0.000492265 -0.000148914 -0.00014715 -6.46201e-05
0.000489664 -0.000148121 -0.000146376 -6.46195e-05
0.000243848 -7.44407e-05 -7.26032e-05 -6.89157e-05
0.000241264 -7.36377e-05 -7.18399e-05 -6.89147e-05
0.000722502 -0.000217804 -0.000216299 -5.74473e-05
0.000730321 -0.000220173 -0.000218635 -5.74484e-05
0.000242556 -7.40392e-05 -7.22216e-05 -6.89152e-05
0.000481863 -0.000145741 -0.000144052 -6.46179e-05
0.000726411 -0.000218989 -0.000217467 -5.74478e-05
0.000487064 -0.000147328 -0.000145601 -6.4619e-05
0.000484463 -0.000146534 -0.000144827 -6.46184e-05
0.000241264 -7.36377e-05 -7.18399e-05 -6.89147e-05
0.00023868 -7.28349e-05 -7.10763e-05 -6.89136e-05
0.000714682 -0.000215435 -0.000213963 -5.74462e-05
0.000722502 -0.000217804 -0.000216299 -5.74473e-05
0.000239972 -7.32363e-05 -7.14581e-05 -6.89142e-05
0.000476661 -0.000144155 -0.000142503 -6.46168e-05
0.000718592 -0.00021662 -0.000215131 -5.74467e-05
0.000481863 -0.000145741 -0.000144052 -6.46179e-05
0.000479262 -0.000144948 -0.000143277 -6.46173e-05
0.00023868 -7.28349e-05 -7.10763e-05 -6.89136e-05
0.000236095 -7.20323e-05 -7.03126e-05 -6.89126e-05
0.000706863 -0.000213067 -0.000211627 -5.74451e-05
0.000714682 -0.000215435 -0.000213963 -5.74462e-05
0.000237387 -7.24336e-05 -7.06945e-05 -6.89131e-05
0.000471459 -0.000142569 -0.000140953 -6.46157e-05
0.000710773 -0.000214251 -0.000212795 -5.74457e-05
0.000476661 -0.000144155 -0.000142503 -6.46168e-05
0.00047406 -0.000143362 -0.000141728 -6.46162e-05
0.000236095 -7.20323e-05 -7.03126e-05 -6.89126e-05
0.00023351 -7.123e-05 -6.95486e-05 -6.89115e-05
0.000699043 -0.000210698 -0.000209291 -5.74441e-05
0.000706863 -0.000213067 -0.000211627 -5.74451e-05
0.000234802 -7.16311e-05 -6.99306e-05 -6.89121e-05
0.000466257 -0.000140983 -0.000139403 -6.46146e-05
0.000702953 -0.000211883 -0.000210459 -5.74446e-05
0.000471459 -0.000142569 -0.000140953 -6.46157e-05
0.000468858 -0.000141776 -0.000140178 -6.46151e-05
0.00023351 -7.123e-05 -6.95486e-05 -6.89115e-05
0.000230925 -7.04278e-05 -6.87844e-05 -6.89105e-05
0.000691223 -0.00020833 -0.000206954 -5.7443e-05
0.000699043 -0.000210698 -0.000209291 -5.74441e-05
0.000232217 -7.08288e-05 -6.91665e-05 -6.8911e-05
0.000461055 -0.000139398 -0.000137853 -6.46135e-05
0.000695133 -0.000209514 -0.000208122 -5.74435e-05
0.000466257 -0.000140983 -0.000139403 -6.46146e-05
0.000463656 -0.00014019 -0.000138628 -6.4614e-05
0.000230925 -7.04278e-05 -6.87844e-05 -6.89105e-05
0.000228339 -6.96258e-05 -6.80199e-05 -6.89095e-05
0.000683403 -0.000205962 -0.000204617 -5.74419e-05
0.000691223 -0.00020833 -0.000206954 -5.7443e-05
0.000229632 -7.00268e-05 -6.84022e-05 -6.891e-05
0.000455853 -0.000137812 -0.000136303 -6.46124e-05
0.000687313 -0.000207146 -0.000205786 -5.74425e-05
0.000461055 -0.000139398 -0.000137853 -6.46135e-05
0.000458454 -0.000138605 -0.000137078 -6.4613e-05
0.000228339 -6.96258e-05 -6.80199e-05 -6.89095e-05
0.000225753 -6.88241e-05 -6.72553e-05 -6.89084e-05
0.000675582 -0.000203594 -0.000202281 -5.74409e-05
0.000683403 -0.000205962 -0.000204617 -5.74419e-05
0.000227046 -6.92249e-05 -6.76376e-05 -6.8909e-05
0.00045065 -0.000136227 -0.000134753 -6.46113e-05
0.000679493 -0.000204778 -0.000203449 -5.74414e-05
0.000455853 -0.000137812 -0.000136303 -6.46124e-05
0.000453251 -0.00013702 -0.000135528 -6.46119e-05
0.000225753 -6.88241e-05 -6.72553e-05 -6.89084e-05
0.000223167 -6.80225e-05 -6.64904e-05 -6.89074e-05
0.000667762 -0.000201227 -0.000199944 -5.74398e-05
0.000675582 -0.000203594 -0.000202281 -5.74409e-05
0.00022446 -6.84233e-05 -6.68729e-05 -6.89079e-05
0.000445447 -0.000134642 -0.000133202 -6.46103e-05
0.000671672 -0.00020241 -0.000201112 -5.74404e-05
0.00045065 -0.000136227 -0.000134753 -6.46113e-05
0.000448048 -0.000135434 -0.000133977 -6.46108e-05
0.000223167 -6.80225e-05 -6.64904e-05 -6.89074e-05
0.00022058 -6.72212e-05 -6.57253e-05 -6.89064e-05
0.000659941 -0.000198859 -0.000197607 -5.74388e-05
0.000667762 -0.000201227 -0.000199944 -5.74398e-05
0.000221874 -6.76218e-05 -6.61079e-05 -6.89069e-05
0.000440244 -0.000133057 -0.000131651 -6.46092e-05
0.000663852 -0.000200043 -0.000198775 -5.74393e-05
0.000445447 -0.000134642 -0.000133202 -6.46103e-05
0.000442845 -0.00013385 -0.000132427 -6.46097e-05
0.00022058 -6.72212e-05 -6.57253e-05 -6.89064e-05
0.000217993 -6.64201e-05 -6.496e-05 -6.89054e-05
0.00065212 -0.000196492 -0.000195269 -5.74378e-05
0.000659941 -0.000198859 -0.000197607 -5.74388e-05
0.000219287 -6.68206e-05 -6.53427e-05 -6.89059e-05
0.00043504 -0.000131473 -0.0001301 -6.46081e-05
0.000656031 -0.000197676 -0.000196438 -5.74383e-05
0.000440244 -0.000133057 -0.000131651 -6.46092e-05
0.000437642 -0.000132265 -0.000130876 -6.46087e-05
0.000217993 -6.64201e-05 -6.496e-05 -6.89054e-05
0.000215406 -6.56191e-05 -6.41944e-05 -6.89044e-05
0.000644299 -0.000194125 -0.000192932 -5.74367e-05
0.00065212 -0.000196492 -0.000195269 -5.74378e-05
0.0002167 -6.60196e-05 -6.45772e-05 -6.89049e-05
0.000429836 -0.000129888 -0.000128549 -6.46071e-05
0.00064821 -0.000195308 -0.000194101 -5.74372e-05
0.00043504 -0.000131473 -0.0001301 -6.46081e-05
0.000432438 -0.00013068 -0.000129325 -6.46076e-05
0.000215406 -6.56191e-05 -6.41944e-05 -6.89044e-05
0.000212819 -6.48184e-05 -6.34287e-05 -6.89034e-05
0.000636478 -0.000191758 -0.000190594 -5.74357e-05
0.000644299 -0.000194125 -0.000192932 -5.74367e-05
0.000214112 -6.52187e-05 -6.38116e-05 -6.89039e-05
0.000424632 -0.000128304 -0.000126998 -6.4606e-05
0.000640388 -0.000192941 -0.000191763 -5.74362e-05
0.000429836 -0.000129888 -0.000128549 -6.46071e-05
0.000427234 -0.000129096 -0.000127774 -6.46066e-05
0.000212819 -6.48184e-05 -6.34287e-05 -6.89034e-05
0.000210231 -6.40179e-05 -6.26627e-05 -6.89024e-05
0.000628656 -0.000189391 -0.000188256 -5.74347e-05
0.000636478 -0.000191758 -0.000190594 -5.74357e-05
0.000211525 -6.44181e-05 -6.30457e-05 -6.89029e-05
0.000419428 -0.00012672 -0.000125446 -6.4605e-05
0.000632567 -0.000190575 -0.000189425 -5.74352e-05
0.000424632 -0.000128304 -0.000126998 -6.4606e-05
0.00042203 -0.000127512 -0.000126222 -6.46055e-05
0.000210231 -6.40179e-05 -6.26627e-05 -6.89024e-05
0.000207643 -6.32176e-05 -6.18965e-05 -6.89014e-05
0.000620834 -0.000187025 -0.000185918 -5.74336e-05
0.000628656 -0.000189391 -0.000188256 -5.74347e-05
0.000208937 -6.36177e-05 -6.22796e-05 -6.89019e-05
0.000414223 -0.000125136 -0.000123895 -6.4604e-05
0.000624745 -0.000188208 -0.000187087 -5.74342e-05
0.000419428 -0.00012672 -0.000125446 -6.4605e-05
0.000416826 -0.000125928 -0.00012467 -6.46045e-05
0.000207643 -6.32176e-05 -6.18965e-05 -6.89014e-05
0.000205054 -6.24175e-05 -6.11301e-05 -6.89005e-05
0.000613012 -0.000184658 -0.00018358 -5.74326e-05
0.000620834 -0.000187025 -0.000185918 -5.74336e-05
0.000206349 -6.28175e-05 -6.15133e-05 -6.89009e-05
0.000409019 -0.000123553 -0.000122343 -6.46029e-05
0.000616923 -0.000185842 -0.000184749 -5.74331e-05
0.000414223 -0.000125136 -0.000123895 -6.4604e-05
0.000411621 -0.000124344 -0.000123119 -6.46035e-05
0.000205054 -6.24175e-05 -6.11301e-05 -6.89005e-05
0.000202466 -6.16176e-05 -6.03634e-05 -6.88995e-05
0.00060519 -0.000182292 -0.000181242 -5.74316e-05
0.000613012 -0.000184658 -0.00018358 -5.74326e-05
0.00020376 -6.20175e-05 -6.07468e-05 -6.89e-05
0.000403814 -0.000121969 -0.00012079 -6.46019e-05
0.000609101 -0.000183475 -0.000182411 -5.74321e-05
0.000409019 -0.000123553 -0.000122343 -6.46029e-05
0.000406416 -0.000122761 -0.000121567 -6.46024e-05
0.000202466 -6.16176e-05 -6.03634e-05 -6.88995e-05
0.000199877 -6.08179e-05 -5.95966e-05 -6.88985e-05
0.000597368 -0.000179926 -0.000178903 -5.74306e-05
0.00060519 -0.000182292 -0.000181242 -5.74316e-05
0.000201171 -6.12178e-05 -5.998e-05 -6.8899e-05
0.000398608 -0.000120386 -0.000119238 -6.46009e-05
0.000601279 -0.000181109 -0.000180073 -5.74311e-05
0.000403814 -0.000121969 -0.00012079 -6.46019e-05
0.000401211 -0.000121178 -0.000120014 -6.46014e-05
0.000199877 -6.08179e-05 -5.95966e-05 -6.88985e-05
0.000197287 -6.00185e-05 -5.88295e-05 -6.88976e-05
0.000589545 -0.000177561 -0.000176565 -5.74296e-05
0.000597368 -0.000179926 -0.000178903 -5.74306e-05
0.000198582 -6.04182e-05 -5.9213e-05 -6.8898e-05
0.000393403 -0.000118803 -0.000117686 -6.45999e-05
0.000593456 -0.000178743 -0.000177734 -5.74301e-05
0.000398608 -0.000120386 -0.000119238 -6.46009e-05
0.000396005 -0.000119594 -0.000118462 -6.46004e-05
0.000197287 -6.00185e-05 -5.88295e-05 -6.88976e-05
0.000194698 -5.92192e-05 -5.80622e-05 -6.88966e-05
0.000581722 -0.000175195 -0.000174226 -5.74286e-05
0.000589545 -0.000177561 -0.000176565 -5.74296e-05
0.000195992 -5.96188e-05 -5.84458e-05 -6.88971e-05
0.000388197 -0.00011722 -0.000116133 -6.45989e-05
0.000585634 -0.000176378 -0.000175395 -5.74291e-05
0.000393403 -0.000118803 -0.000117686 -6.45999e-05
0.0003908 -0.000118012 -0.000116909 -6.45994e-05
0.000194698 -5.92192e-05 -5.80622e-05 -6.88966e-05
0.000192108 -5.84201e-05 -5.72946e-05 -6.88957e-05
0.000573899 -0.00017283 -0.000171887 -5.74277e-05
0.000581722 -0.000175195 -0.000174226 -5.74286e-05
0.000193403 -5.88196e-05 -5.76784e-05 -6.88962e-05
0.000382991 -0.000115638 -0.00011458 -6.45979e-05
0.000577811 -0.000174012 -0.000173056 -5.74281e-05
0.000388197 -0.00011722 -0.000116133 -6.45989e-05
0.000385594 -0.000116429 -0.000115356 -6.45984e-05
0.000192108 -5.84201e-05 -5.72946e-05 -6.88957e-05
0.000189517 -5.76213e-05 -5.65269e-05 -6.88948e-05
0.000566076 -0.000170464 -0.000169548 -5.74267e-05
0.000573899 -0.00017283 -0.000171887 -5.74277e-05
0.000190813 -5.80207e-05 -5.69108e-05 -6.88952e-05
0.000377784 -0.000114055 -0.000113027 -6.45969e-05
0.000569988 -0.000171647 -0.000170717 -5.74272e-05
0.000382991 -0.000115638 -0.00011458 -6.45979e-05
0.000380387 -0.000114846 -0.000113803 -6.45974e-05
0.000189517 -5.76213e-05 -5.65269e-05 -6.88948e-05
0.000186927 -5.68226e-05 -5.57589e-05 -6.88938e-05
0.000558253 -0.000168099 -0.000167208 -5.74257e-05
0.000566076 -0.000170464 -0.000169548 -5.74267e-05
0.000188222 -5.72219e-05 -5.61429e-05 -6.88943e-05
0.000372577 -0.000112473 -0.000111473 -6.45959e-05
0.000562164 -0.000169282 -0.000168378 -5.74262e-05
0.000377784 -0.000114055 -0.000113027 -6.45969e-05
0.000375181 -0.000113264 -0.00011225 -6.45964e-05
0.000186927 -5.68226e-05 -5.57589e-05 -6.88938e-05
0.000184336 -5.60242e-05 -5.49907e-05 -6.88929e-05
0.000550429 -0.000165735 -0.000164869 -5.74247e-05
0.000558253 -0.000168099 -0.000167208 -5.74257e-05
0.000185631 -5.64234e-05 -5.53748e-05 -6.88934e-05
0.000367371 -0.000110891 -0.00010992 -6.4595e-05
0.000554341 -0.000166917 -0.000166039 -5.74252e-05
0.000372577 -0.000112473 -0.000111473 -6.45959e-05
0.000369974 -0.000111682 -0.000110697 -6.45955e-05
0.000184336 -5.60242e-05 -5.49907e-05 -6.88929e-05
0.000181745 -5.5226e-05 -5.42223e-05 -6.8892e-05
0.000542605 -0.00016337 -0.000162529 -5.74238e-05
0.000550429 -0.000165735 -0.000164869 -5.74247e-05
0.00018304 -5.5625e-05 -5.46065e-05 -6.88925e-05
0.000362163 -0.000109309 -0.000108366 -6.4594e-05
0.000546517 -0.000164552 -0.000163699 -5.74243e-05
0.000367371 -0.000110891 -0.00010992 -6.4595e-05
0.000364767 -0.0001101 -0.000109143 -6.45945e-05
0.000181745 -5.5226e-05 -5.42223e-05 -6.8892e-05
0.000179153 -5.44279e-05 -5.34536e-05 -6.88911e-05
0.000534781 -0.000161005 -0.000160189 -5.74228e-05
0.000542605 -0.00016337 -0.000162529 -5.74238e-05
0.000180449 -5.48269e-05 -5.3838e-05 -6.88916e-05
0.000356956 -0.000107728 -0.000106812 -6.45931e-05
0.000538693 -0.000162188 -0.000161359 -5.74233e-05
0.000362163 -0.000109309 -0.000108366 -6.4594e-05
0.00035956 -0.000108519 -0.000107589 -6.45935e-05
0.000179153 -5.44279e-05 -5.34536e-05 -6.88911e-05
0.000176561 -5.36301e-05 -5.26848e-05 -6.88902e-05
0.000526957 -0.000158641 -0.000157849 -5.74219e-05
0.000534781 -0.000161005 -0.000160189 -5.74228e-05
0.000177857 -5.4029e-05 -5.30692e-05 -6.88907e-05
0.000351748 -0.000106146 -0.000105258 -6.45921e-05
0.000530869 -0.000159823 -0.000159019 -5.74224e-05
0.000356956 -0.000107728 -0.000106812 -6.45931e-05
0.000354352 -0.000106937 -0.000106035 -6.45926e-05
0.000176561 -5.36301e-05 -5.26848e-05 -6.88902e-05
0.000173969 -5.28325e-05 -5.19157e-05 -6.88893e-05
0.000519132 -0.000156277 -0.000155509 -5.7421e-05
0.000526957 -0.000158641 -0.000157849 -5.74219e-05
0.000175265 -5.32313e-05 -5.23003e-05 -6.88898e-05
0.00034654 -0.000104565 -0.000103703 -6.45912e-05
0.000523044 -0.000157459 -0.000156679 -5.74214e-05
0.000351748 -0.000106146 -0.000105258 -6.45921e-05
0.000349144 -0.000105356 -0.000104481 -6.45916e-05
0.000173969 -5.28325e-05 -5.19157e-05 -6.88893e-05
0.000171377 -5.20351e-05 -5.11464e-05 -6.88885e-05
0.000511307 -0.000153913 -0.000153169 -5.742e-05
0.000519132 -0.000156277 -0.000155509 -5.7421e-05
0.000172673 -5.24338e-05 -5.15311e-05 -6.88889e-05
0.000341332 -0.000102984 -0.000102149 -6.45902e-05
0.00051522 -0.000155095 -0.000154339 -5.74205e-05
0.00034654 -0.000104565 -0.000103703 -6.45912e-05
0.000343936 -0.000103775 -0.000102926 -6.45907e-05
0.000171377 -5.20351e-05 -5.11464e-05 -6.88885e-05
0.000168784 -5.12379e-05 -5.03769e-05 -6.88876e-05
0.000503482 -0.000151549 -0.000150828 -5.74191e-05
0.000511307 -0.000153913 -0.000153169 -5.742e-05
0.00017008 -5.16364e-05 -5.07616e-05 -6.8888e-05
0.000336123 -0.000101403 -0.000100594 -6.45893e-05
0.000507395 -0.000152731 -0.000151999 -5.74196e-05
0.000341332 -0.000102984 -0.000102149 -6.45902e-05
0.000338727 -0.000102194 -0.000101372 -6.45898e-05
0.000168784 -5.12379e-05 -5.03769e-05 -6.88876e-05
0.000166191 -5.04409e-05 -4.96071e-05 -6.88867e-05
0.000495657 -0.000149186 -0.000148488 -5.74182e-05
0.000503482 -0.000151549 -0.000150828 -5.74191e-05
0.000167487 -5.08393e-05 -4.9992e-05 -6.88872e-05
0.000330914 -9.98229e-05 -9.90392e-05 -6.45884e-05
0.00049957 -0.000150368 -0.000149658 -5.74187e-05
0.000336123 -0.000101403 -0.000100594 -6.45893e-05
0.000333519 -0.000100613 -9.98167e-05 -6.45888e-05
0.000166191 -5.04409e-05 -4.96071e-05 -6.88867e-05
0.000163597 -4.96441e-05 -4.88371e-05 -6.88859e-05
0.000487832 -0.000146823 -0.000146147 -5.74173e-05
0.000495657 -0.000149186 -0.000148488 -5.74182e-05
0.000164894 -5.00424e-05 -4.92221e-05 -6.88863e-05
0.000325705 -9.82425e-05 -9.7484e-05 -6.45875e-05
0.000491744 -0.000148004 -0.000147317 -5.74177e-05
0.000330914 -9.98229e-05 -9.90392e-05 -6.45884e-05
0.00032831 -9.90327e-05 -9.82616e-05 -6.45879e-05
0.000163597 -4.96441e-05 -4.88371e-05 -6.88859e-05
0.000161004 -4.88475e-05 -4.80669e-05 -6.8885e-05
0.000480006 -0.000144459 -0.000143806 -5.74164e-05
0.000487832 -0.000146823 -0.000146147 -5.74173e-05
0.000162301 -4.92458e-05 -4.8452e-05 -6.88855e-05
0.000320496 -9.66624e-05 -9.59286e-05 -6.45866e-05
0.000483919 -0.000145641 -0.000144976 -5.74168e-05
0.000325705 -9.82425e-05 -9.7484e-05 -6.45875e-05
0.000323101 -9.74524e-05 -9.67064e-05 -6.4587e-05
0.000161004 -4.88475e-05 -4.80669e-05 -6.8885e-05
0.00015841 -4.80511e-05 -4.72965e-05 -6.88842e-05
0.00047218 -0.000142096 -0.000141465 -5.74155e-05
0.000480006 -0.000144459 -0.000143806 -5.74164e-05
0.000159707 -4.84493e-05 -4.76817e-05 -6.88846e-05
0.000315286 -9.50824e-05 -9.43731e-05 -6.45857e-05
0.000476093 -0.000143278 -0.000142635 -5.74159e-05
0.000320496 -9.66624e-05 -9.59286e-05 -6.45866e-05
0.000317891 -9.58723e-05 -9.51509e-05 -6.45861e-05
0.00015841 -4.80511e-05 -4.72965e-05 -6.88842e-05
0.000155815 -4.72549e-05 -4.65258e-05 -6.88834e-05
0.000464354 -0.000139734 -0.000139123 -5.74146e-05
0.00047218 -0.000142096 -0.000141465 -5.74155e-05
0.000157112 -4.7653e-05 -4.69112e-05 -6.88838e-05
0.000310076 -9.35026e-05 -9.28173e-05 -6.45848e-05
0.000468267 -0.000140915 -0.000140294 -5.74151e-05
0.000315286 -9.50824e-05 -9.43731e-05 -6.45857e-05
0.000312681 -9.42925e-05 -9.35952e-05 -6.45853e-05
0.000155815 -4.72549e-05 -4.65258e-05 -6.88834e-05
0.000153221 -4.6459e-05 -4.5755e-05 -6.88826e-05
0.000456528 -0.000137371 -0.000136782 -5.74137e-05
0.000464354 -0.000139734 -0.000139123 -5.74146e-05
0.000154518 -4.68569e-05 -4.61404e-05 -6.8883e-05
0.000304866 -9.1923e-05 -9.12613e-05 -6.45839e-05
0.000460441 -0.000138552 -0.000137952 -5.74142e-05
0.000310076 -9.35026e-05 -9.28173e-05 -6.45848e-05
0.000307471 -9.27128e-05 -9.20393e-05 -6.45844e-05
0.000153221 -4.6459e-05 -4.5755e-05 -6.88826e-05
0.000150626 -4.56632e-05 -4.49839e-05 -6.88818e-05
0.000448701 -0.000135009 -0.00013444 -5.74129e-05
0.000456528 -0.000137371 -0.000136782 -5.74137e-05
0.000151923 -4.6061e-05 -4.53695e-05 -6.88822e-05
0.000299656 -9.03437e-05 -8.97051e-05 -6.45831e-05
0.000452615 -0.00013619 -0.000135611 -5.74133e-05
0.000304866 -9.1923e-05 -9.12613e-05 -6.45839e-05
0.000302261 -9.11333e-05 -9.04832e-05 -6.45835e-05
0.000150626 -4.56632e-05 -4.49839e-05 -6.88818e-05
0.00014803 -4.48676e-05 -4.42126e-05 -6.8881e-05
0.000440875 -0.000132646 -0.000132098 -5.7412e-05
0.000448701 -0.000135009 -0.00013444 -5.74129e-05
0.000149328 -4.52654e-05 -4.45983e-05 -6.88814e-05
0.000294445 -8.87645e-05 -8.81487e-05 -6.45822e-05
0.000444788 -0.000133827 -0.000133269 -5.74124e-05
0.000299656 -9.03437e-05 -8.97051e-05 -6.45831e-05
0.00029705 -8.95541e-05 -8.89269e-05 -6.45826e-05
0.00014803 -4.48676e-05 -4.42126e-05 -6.8881e-05
0.000145435 -4.40723e-05 -4.3441e-05 -6.88802e-05
0.000433048 -0.000130284 -0.000129756 -5.74112e-05
0.000440875 -0.000132646 -0.000132098 -5.7412e-05
0.000146733 -4.44699e-05 -4.38268e-05 -6.88806e-05
0.000289234 -8.71855e-05 -8.65921e-05 -6.45814e-05
0.000436961 -0.000131465 -0.000130927 -5.74116e-05
0.000294445 -8.87645e-05 -8.81487e-05 -6.45822e-05
0.000291839 -8.7975e-05 -8.73705e-05 -6.45818e-05
0.000145435 -4.40723e-05 -4.3441e-05 -6.88802e-05
0.000142839 -4.32771e-05 -4.26693e-05 -6.88794e-05
0.000425221 -0.000127922 -0.000127413 -5.74103e-05
0.000433048 -0.000130284 -0.000129756 -5.74112e-05
0.000144137 -4.36747e-05 -4.30552e-05 -6.88798e-05
0.000284023 -8.56067e-05 -8.50353e-05 -6.45805e-05
0.000429134 -0.000129103 -0.000128585 -5.74107e-05
0.000289234 -8.71855e-05 -8.65921e-05 -6.45814e-05
0.000286628 -8.63961e-05 -8.58138e-05 -6.4581e-05
0.000142839 -4.32771e-05 -4.26693e-05 -6.88794e-05
0.000140242 -4.24822e-05 -4.18973e-05 -6.88787e-05
0.000417393 -0.000125561 -0.000125071 -5.74095e-05
0.000425221 -0.000127922 -0.000127413 -5.74103e-05
0.000141541 -4.28796e-05 -4.22833e-05 -6.88791e-05
0.000278811 -8.40281e-05 -8.34783e-05 -6.45797e-05
0.000421307 -0.000126742 -0.000126242 -5.74099e-05
0.000284023 -8.56067e-05 -8.50353e-05 -6.45805e-05
0.000281417 -8.48174e-05 -8.42569e-05 -6.45801e-05
0.000140242 -4.24822e-05 -4.18973e-05 -6.88787e-05
0.000137646 -4.16874e-05 -4.11251e-05 -6.88779e-05
0.000409565 -0.000123199 -0.000122728 -5.74087e-05
0.000417393 -0.000125561 -0.000125071 -5.74095e-05
0.000138944 -4.20848e-05 -4.15112e-05 -6.88783e-05
0.000273599 -8.24498e-05 -8.19211e-05 -6.45789e-05
0.000413479 -0.00012438 -0.0001239 -5.74091e-05
0.000278811 -8.40281e-05 -8.34783e-05 -6.45797e-05
0.000276205 -8.32389e-05 -8.26998e-05 -6.45793e-05
0.000137646 -4.16874e-05 -4.11251e-05 -6.88779e-05
0.000135049 -4.08929e-05 -4.03526e-05 -6.88772e-05
0.000401738 -0.000120838 -0.000120386 -5.74078e-05
0.000409565 -0.000123199 -0.000122728 -5.74087e-05
0.000136347 -4.12901e-05 -4.07389e-05 -6.88776e-05
0.000268387 -8.08716e-05 -8.03637e-05 -6.45781e-05
0.000405652 -0.000122018 -0.000121557 -5.74082e-05
0.000273599 -8.24498e-05 -8.19211e-05 -6.45789e-05
0.000270993 -8.16606e-05 -8.11424e-05 -6.45785e-05
0.000135049 -4.08929e-05 -4.03526e-05 -6.88772e-05
0.000132452 -4.00985e-05 -3.958e-05 -6.88765e-05
0.000393909 -0.000118477 -0.000118043 -5.7407e-05
0.000401738 -0.000120838 -0.000120386 -5.74078e-05
0.00013375 -4.04957e-05 -3.99663e-05 -6.88768e-05
0.000263174 -7.92936e-05 -7.88061e-05 -6.45773e-05
0.000397823 -0.000119657 -0.000119214 -5.74074e-05
0.000268387 -8.08716e-05 -8.03637e-05 -6.45781e-05
0.000265781 -8.00826e-05 -7.95849e-05 -6.45777e-05
0.000132452 -4.00985e-05 -3.958e-05 -6.88765e-05
0.000129854 -3.93044e-05 -3.88071e-05 -6.88757e-05
0.000386081 -0.000116116 -0.000115699 -5.74062e-05
0.000393909 -0.000118477 -0.000118043 -5.7407e-05
0.000131153 -3.97015e-05 -3.91935e-05 -6.88761e-05
0.000257962 -7.77158e-05 -7.72483e-05 -6.45765e-05
0.000389995 -0.000117296 -0.000116871 -5.74066e-05
0.000263174 -7.92936e-05 -7.88061e-05 -6.45773e-05
0.000260568 -7.85047e-05 -7.80272e-05 -6.45769e-05
0.000129854 -3.93044e-05 -3.88071e-05 -6.88757e-05
0.000127256 -3.85105e-05 -3.8034e-05 -6.8875e-05
0.000378252 -0.000113755 -0.000113356 -5.74054e-05
0.000386081 -0.000116116 -0.000115699 -5.74062e-05
0.000128555 -3.89074e-05 -3.84205e-05 -6.88754e-05
0.000252749 -7.61382e-05 -7.56903e-05 -6.45757e-05
0.000382167 -0.000114935 -0.000114528 -5.74058e-05
0.000257962 -7.77158e-05 -7.72483e-05 -6.45765e-05
0.000255355 -7.6927e-05 -7.64693e-05 -6.45761e-05
0.000127256 -3.85105e-05 -3.8034e-05 -6.8875e-05
0.000124658 -3.77168e-05 -3.72606e-05 -6.88743e-05
0.000370424 -0.000111394 -0.000111013 -5.74047e-05
0.000378252 -0.000113755 -0.000113356 -5.74054e-05
0.000125957 -3.81136e-05 -3.76473e-05 -6.88747e-05
0.000247536 -7.45608e-05 -7.4132e-05 -6.4575e-05
0.000374338 -0.000112575 -0.000112184 -5.7405e-05
0.000252749 -7.61382e-05 -7.56903e-05 -6.45757e-05
0.000250142 -7.53495e-05 -7.49112e-05 -6.45753e-05
0.000124658 -3.77168e-05 -3.72606e-05 -6.88743e-05
0.00012206 -3.69232e-05 -3.64871e-05 -6.88736e-05
0.000362595 -0.000109034 -0.000108669 -5.74039e-05
0.000370424 -0.000111394 -0.000111013 -5.74047e-05
0.000123359 -3.732e-05 -3.68739e-05 -6.8874e-05
0.000242322 -7.29836e-05 -7.25736e-05 -6.45742e-05
0.000366509 -0.000110214 -0.000109841 -5.74043e-05
0.000247536 -7.45608e-05 -7.4132e-05 -6.4575e-05
0.000244929 -7.37722e-05 -7.33528e-05 -6.45746e-05
0.00012206 -3.69232e-05 -3.64871e-05 -6.88736e-05
0.000119461 -3.61299e-05 -3.57133e-05 -6.8873e-05
0.000354765 -0.000106674 -0.000106325 -5.74031e-05
0.000362595 -0.000109034 -0.000108669 -5.74039e-05
0.00012076 -3.65266e-05 -3.61002e-05 -6.88733e-05
0.000237108 -7.14066e-05 -7.10149e-05 -6.45735e-05
0.00035868 -0.000107854 -0.000107497 -5.74035e-05
0.000242322 -7.29836e-05 -7.25736e-05 -6.45742e-05
0.000239715 -7.21951e-05 -7.17943e-05 -6.45738e-05
0.000119461 -3.61299e-05 -3.57133e-05 -6.8873e-05
0.000116862 -3.53368e-05 -3.49393e-05 -6.88723e-05
0.000346936 -0.000104313 -0.000103981 -5.74024e-05
0.000354765 -0.000106674 -0.000106325 -5.74031e-05
0.000118161 -3.57333e-05 -3.53263e-05 -6.88726e-05
0.000231894 -6.98298e-05 -6.94561e-05 -6.45727e-05
0.00035085 -0.000105493 -0.000105153 -5.74027e-05
0.000237108 -7.14066e-05 -7.10149e-05 -6.45735e-05
0.000234501 -7.06181e-05 -7.02355e-05 -6.45731e-05
0.000116862 -3.53368e-05 -3.49393e-05 -6.88723e-05
0.000114262 -3.45439e-05 -3.4165e-05 -6.88716e-05
0.000339106 -0.000101954 -0.000101637 -5.74016e-05
0.000346936 -0.000104313 -0.000103981 -5.74024e-05
0.000115562 -3.49403e-05 -3.45522e-05 -6.8872e-05
0.00022668 -6.82531e-05 -6.7897e-05 -6.4572e-05
0.000343021 -0.000103133 -0.000102809 -5.7402e-05
0.000231894 -6.98298e-05 -6.94561e-05 -6.45727e-05
0.000229287 -6.90414e-05 -6.86766e-05 -6.45724e-05
0.000114262 -3.45439e-05 -3.4165e-05 -6.88716e-05
0.000111663 -3.37512e-05 -3.33906e-05 -6.8871e-05
0.000331276 -9.95938e-05 -9.92923e-05 -5.74009e-05
0.000339106 -0.000101954 -0.000101637 -5.74016e-05
0.000112963 -3.41475e-05 -3.37778e-05 -6.88713e-05
0.000221465 -6.66767e-05 -6.63378e-05 -6.45713e-05
0.000335191 -0.000100774 -0.000100465 -5.74012e-05
0.00022668 -6.82531e-05 -6.7897e-05 -6.4572e-05
0.000224072 -6.74649e-05 -6.71174e-05 -6.45716e-05
0.000111663 -3.37512e-05 -3.33906e-05 -6.8871e-05
0.000109062 -3.29587e-05 -3.26159e-05 -6.88704e-05
0.000323446 -9.72343e-05 -9.69477e-05 -5.74002e-05
0.000331276 -9.95938e-05 -9.92923e-05 -5.74009e-05
0.000110363 -3.33549e-05 -3.30033e-05 -6.88707e-05
0.00021625 -6.51005e-05 -6.47783e-05 -6.45706e-05
0.000327361 -9.8414e-05 -9.812e-05 -5.74005e-05
0.000221465 -6.66767e-05 -6.63378e-05 -6.45713e-05
0.000218857 -6.58886e-05 -6.55581e-05 -6.45709e-05
0.000109062 -3.29587e-05 -3.26159e-05 -6.88704e-05
0.000106462 -3.21664e-05 -3.1841e-05 -6.88697e-05
0.000315615 -9.48749e-05 -9.46029e-05 -5.73994e-05
0.000323446 -9.72343e-05 -9.69477e-05 -5.74002e-05
0.000107762 -3.25625e-05 -3.22285e-05 -6.887e-05
0.000211035 -6.35245e-05 -6.32186e-05 -6.45699e-05
0.00031953 -9.60546e-05 -9.57753e-05 -5.73998e-05
0.00021625 -6.51005e-05 -6.47783e-05 -6.45706e-05
0.000213642 -6.43125e-05 -6.39985e-05 -6.45702e-05
0.000106462 -3.21664e-05 -3.1841e-05 -6.88697e-05
0.000103861 -3.13743e-05 -3.10659e-05 -6.88691e-05
0.000307784 -9.25157e-05 -9.2258e-05 -5.73987e-05
0.000315615 -9.48749e-05 -9.46029e-05 -5.73994e-05
0.000105162 -3.17703e-05 -3.14535e-05 -6.88694e-05
0.000205819 -6.19486e-05 -6.16587e-05 -6.45692e-05
0.0003117 -9.36953e-05 -9.34305e-05 -5.73991e-05
0.000211035 -6.35245e-05 -6.32186e-05 -6.45699e-05
0.000208427 -6.27365e-05 -6.24387e-05 -6.45695e-05
0.000103861 -3.13743e-05 -3.10659e-05 -6.88691e-05
0.00010126 -3.05824e-05 -3.02905e-05 -6.88685e-05
0.000299953 -9.01567e-05 -8.99128e-05 -5.7398e-05
0.000307784 -9.25157e-05 -9.2258e-05 -5.73987e-05
0.000102561 -3.09783e-05 -3.06782e-05 -6.88688e-05
0.000200603 -6.0373e-05 -6.00986e-05 -6.45685e-05
0.000303869 -9.13362e-05 -9.10854e-05 -5.73984e-05
0.000205819 -6.19486e-05 -6.16587e-05 -6.45692e-05
0.000203211 -6.11608e-05 -6.08787e-05 -6.45688e-05
0.00010126 -3.05824e-05 -3.02905e-05 -6.88685e-05
9.86589e-05 -2.97907e-05 -2.95149e-05 -6.88679e-05
0.000292122 -8.77978e-05 -8.75675e-05 -5.73973e-05
0.000299953 -9.01567e-05 -8.99128e-05 -5.7398e-05
9.99596e-05 -3.01865e-05 -2.99027e-05 -6.88682e-05
0.000195387 -5.87975e-05 -5.85383e-05 -6.45678e-05
0.000296038 -8.89772e-05 -8.87402e-05 -5.73977e-05
0.000200603 -6.0373e-05 -6.00986e-05 -6.45685e-05
0.000197995 -5.95852e-05 -5.93185e-05 -6.45682e-05
9.86589e-05 -2.97907e-05 -2.95149e-05 -6.88679e-05
9.60571e-05 -2.89992e-05 -2.87391e-05 -6.88674e-05
0.00028429 -8.54391e-05 -8.5222e-05 -5.73967e-05
0.000292122 -8.77978e-05 -8.75675e-05 -5.73973e-05
9.7358e-05 -2.9395e-05 -2.9127e-05 -6.88676e-05
0.000190171 -5.72223e-05 -5.69778e-05 -6.45672e-05
0.000288206 -8.66185e-05 -8.63948e-05 -5.7397e-05
0.000195387 -5.87975e-05 -5.85383e-05 -6.45678e-05
0.000192779 -5.80099e-05 -5.77581e-05 -6.45675e-05
9.60571e-05 -2.89992e-05 -2.87391e-05 -6.88674e-05
9.34551e-05 -2.82079e-05 -2.79631e-05 -6.88668e-05
0.000276459 -8.30806e-05 -8.28763e-05 -5.7396e-05
0.00028429 -8.54391e-05 -8.5222e-05 -5.73967e-05
9.47562e-05 -2.86036e-05 -2.83511e-05 -6.88671e-05
0.000184954 -5.56472e-05 -5.54171e-05 -6.45666e-05
0.000280375 -8.42599e-05 -8.40492e-05 -5.73963e-05
0.000190171 -5.72223e-05 -5.69778e-05 -6.45672e-05
0.000187562 -5.64347e-05 -5.61975e-05 -6.45669e-05
9.34551e-05 -2.82079e-05 -2.79631e-05 -6.88668e-05
9.08527e-05 -2.74169e-05 -2.71868e-05 -6.88662e-05
0.000268627 -8.07223e-05 -8.05304e-05 -5.73953e-05
0.000276459 -8.30806e-05 -8.28763e-05 -5.7396e-05
9.2154e-05 -2.78124e-05 -2.7575e-05 -6.88665e-05
0.000179737 -5.40723e-05 -5.38562e-05 -6.45659e-05
0.000272543 -8.19015e-05 -8.17034e-05 -5.73957e-05
0.000184954 -5.56472e-05 -5.54171e-05 -6.45666e-05
0.000182345 -5.48597e-05 -5.46367e-05 -6.45662e-05
9.08527e-05 -2.74169e-05 -2.71868e-05 -6.88662e-05
8.825e-05 -2.6626e-05 -2.64103e-05 -6.88657e-05
0.000260794 -7.83642e-05 -7.81844e-05 -5.73947e-05
0.000268627 -8.07223e-05 -8.05304e-05 -5.73953e-05
8.95514e-05 -2.70214e-05 -2.67986e-05 -6.8866e-05
0.000174519 -5.24977e-05 -5.2295e-05 -6.45653e-05
0.000264711 -7.95432e-05 -7.93574e-05 -5.7395e-05
0.000179737 -5.40723e-05 -5.38562e-05 -6.45659e-05
0.000177128 -5.3285e-05 -5.30756e-05 -6.45656e-05
8.825e-05 -2.6626e-05 -2.64103e-05 -6.88657e-05
8.5647e-05 -2.58353e-05 -2.56336e-05 -6.88652e-05
0.000252962 -7.60062e-05 -7.58381e-05 -5.7394e-05
0.000260794 -7.83642e-05 -7.81844e-05 -5.73947e-05
8.69486e-05 -2.62306e-05 -2.6022e-05 -6.88654e-05
0.000169302 -5.09232e-05 -5.07337e-05 -6.45647e-05
0.000256878 -7.71852e-05 -7.70113e-05 -5.73944e-05
0.000174519 -5.24977e-05 -5.2295e-05 -6.45653e-05
0.000171911 -5.17104e-05 -5.15144e-05 -6.4565e-05
8.5647e-05 -2.58353e-05 -2.56336e-05 -6.88652e-05
8.30437e-05 -2.50449e-05 -2.48566e-05 -6.88647e-05
0.000245129 -7.36484e-05 -7.34917e-05 -5.73934e-05
0.000252962 -7.60062e-05 -7.58381e-05 -5.7394e-05
8.43454e-05 -2.54401e-05 -2.52451e-05 -6.88649e-05
0.000164084 -4.93489e-05 -4.91721e-05 -6.45641e-05
0.000249045 -7.48273e-05 -7.46649e-05 -5.73937e-05
0.000169302 -5.09232e-05 -5.07337e-05 -6.45647e-05
0.000166693 -5.0136e-05 -4.99529e-05 -6.45644e-05
8.30437e-05 -2.50449e-05 -2.48566e-05 -6.88647e-05
8.044e-05 -2.42546e-05 -2.40795e-05 -6.88642e-05
0.000237296 -7.12908e-05 -7.11451e-05 -5.73928e-05
0.000245129 -7.36484e-05 -7.34917e-05 -5.73934e-05
8.17419e-05 -2.46497e-05 -2.44681e-05 -6.88644e-05
0.000158866 -4.77748e-05 -4.76104e-05 -6.45635e-05
0.000241213 -7.24696e-05 -7.23184e-05 -5.73931e-05
0.000164084 -4.93489e-05 -4.91721e-05 -6.45641e-05
0.000161475 -4.85618e-05 -4.83913e-05 -6.45638e-05
8.044e-05 -2.42546e-05 -2.40795e-05 -6.88642e-05
7.78361e-05 -2.34646e-05 -2.33021e-05 -6.88637e-05
0.000229463 -6.89333e-05 -6.87983e-05 -5.73922e-05
0.000237296 -7.12908e-05 -7.11451e-05 -5.73928e-05
7.91381e-05 -2.38596e-05 -2.36908e-05 -6.88639e-05
0.000153647 -4.6201e-05 -4.60484e-05 -6.4563e-05
0.000233379 -7.0112e-05 -6.99717e-05 -5.73925e-05
0.000158866 -4.77748e-05 -4.76104e-05 -6.45635e-05
0.000156256 -4.69879e-05 -4.68294e-05 -6.45633e-05
7.78361e-05 -2.34646e-05 -2.33021e-05 -6.88637e-05
7.52318e-05 -2.26748e-05 -2.25244e-05 -6.88632e-05
0.000221629 -6.65761e-05 -6.64513e-05 -5.73917e-05
0.000229463 -6.89333e-05 -6.87983e-05 -5.73922e-05
7.6534e-05 -2.30697e-05 -2.29133e-05 -6.88635e-05
0.000148428 -4.46273e-05 -4.44862e-05 -6.45625e-05
0.000225546 -6.77547e-05 -6.76248e-05 -5.7392e-05
0.000153647 -4.6201e-05 -4.60484e-05 -6.4563e-05
0.000151038 -4.54141e-05 -4.52673e-05 -6.45627e-05
7.52318e-05 -2.26748e-05 -2.25244e-05 -6.88632e-05
7.26272e-05 -2.18852e-05 -2.17466e-05 -6.88628e-05
0.000213795 -6.4219e-05 -6.41041e-05 -5.73912e-05
0.000221629 -6.65761e-05 -6.64513e-05 -5.73917e-05
7.39295e-05 -2.228e-05 -2.21355e-05 -6.8863e-05
0.000143209 -4.30538e-05 -4.29238e-05 -6.4562e-05
0.000217712 -6.53975e-05 -6.52777e-05 -5.73914e-05
0.000148428 -4.46273e-05 -4.44862e-05 -6.45625e-05
0.000145819 -4.38405e-05 -4.3705e-05 -6.45622e-05
7.26272e-05 -2.18852e-05 -2.17466e-05 -6.88628e-05
7.00223e-05 -2.10958e-05 -2.09685e-05 -6.88624e-05
0.000205961 -6.18621e-05 -6.17567e-05 -5.73907e-05
0.000213795 -6.4219e-05 -6.41041e-05 -5.73912e-05
7.13248e-05 -2.14905e-05 -2.13576e-05 -6.88626e-05
0.00013799 -4.14806e-05 -4.13612e-05 -6.45615e-05
0.000209878 -6.30406e-05 -6.29304e-05 -5.73909e-05
0.000143209 -4.30538e-05 -4.29238e-05 -6.4562e-05
0.0001406 -4.22672e-05 -4.21425e-05 -6.45617e-05
7.00223e-05 -2.10958e-05 -2.09685e-05 -6.88624e-05
6.74172e-05 -2.03067e-05 -2.01902e-05 -6.8862e-05
0.000198127 -5.95055e-05 -5.94092e-05 -5.73902e-05
0.000205961 -6.18621e-05 -6.17567e-05 -5.73907e-05
6.87198e-05 -2.07012e-05 -2.05794e-05 -6.88622e-05
0.00013277 -3.99076e-05 -3.97984e-05 -6.4561e-05
0.000202044 -6.06838e-05 -6.0583e-05 -5.73904e-05
0.00013799 -4.14806e-05 -4.13612e-05 -6.45615e-05
0.00013538 -4.06941e-05 -4.05798e-05 -6.45613e-05
6.74172e-05 -2.03067e-05 -2.01902e-05 -6.8862e-05
6.48117e-05 -1.95178e-05 -1.94117e-05 -6.88616e-05
0.000190292 -5.7149e-05 -5.70614e-05 -5.73898e-05
0.000198127 -5.95055e-05 -5.94092e-05 -5.73902e-05
6.61145e-05 -1.99122e-05 -1.9801e-05 -6.88618e-05
0.000127551 -3.83348e-05 -3.82353e-05 -6.45606e-05
0.00019421 -5.83272e-05 -5.82353e-05 -5.739e-05
0.00013277 -3.99076e-05 -3.97984e-05 -6.4561e-05
0.000130161 -3.91212e-05 -3.90169e-05 -6.45608e-05
6.48117e-05 -1.95178e-05 -1.94117e-05 -6.88616e-05
6.2206e-05 -1.87292e-05 -1.86329e-05 -6.88612e-05
0.000182458 -5.47927e-05 -5.47135e-05 -5.73895e-05
0.000190292 -5.7149e-05 -5.70614e-05 -5.73898e-05
6.35089e-05 -1.91235e-05 -1.90223e-05 -6.88614e-05
0.00012233 -3.67622e-05 -3.66721e-05 -6.45603e-05
0.000186375 -5.59708e-05 -5.58875e-05 -5.73896e-05
0.000127551 -3.83348e-05 -3.82353e-05 -6.45606e-05
0.000124941 -3.75485e-05 -3.74537e-05 -6.45604e-05
6.2206e-05 -1.87292e-05 -1.86329e-05 -6.88612e-05
5.96001e-05 -1.79407e-05 -1.7854e-05 -6.88608e-05
0.000174623 -5.24366e-05 -5.23654e-05 -5.73892e-05
0.000182458 -5.47927e-05 -5.47135e-05 -5.73895e-05
6.09031e-05 -1.83349e-05 -1.82435e-05 -6.8861e-05
0.00011711 -3.51899e-05 -3.51087e-05 -6.45599e-05
0.00017854 -5.36146e-05 -5.35395e-05 -5.73893e-05
0.00012233 -3.67622e-05 -3.66721e-05 -6.45603e-05
0.00011972 -3.5976e-05 -3.58904e-05 -6.45601e-05
5.96001e-05 -1.79407e-05 -1.7854e-05 -6.88608e-05
5.69939e-05 -1.71524e-05 -1.70749e-05 -6.88604e-05
0.000166787 -5.00807e-05 -5.00172e-05 -5.73889e-05
0.000174623 -5.24366e-05 -5.23654e-05 -5.73892e-05
5.8297e-05 -1.75465e-05 -1.74645e-05 -6.88606e-05
0.00011189 -3.36177e-05 -3.35451e-05 -6.45595e-05
0.000170705 -5.12586e-05 -5.11913e-05 -5.7389e-05
0.00011711 -3.51899e-05 -3.51087e-05 -6.45599e-05
0.0001145 -3.44038e-05 -3.43269e-05 -6.45597e-05
5.69939e-05 -1.71524e-05 -1.70749e-05 -6.88604e-05
5.43874e-05 -1.63642e-05 -1.62957e-05 -6.88598e-05
0.000158952 -4.77249e-05 -4.76688e-05 -5.73885e-05
0.000166787 -5.00807e-05 -5.00172e-05 -5.73889e-05
5.56907e-05 -1.67583e-05 -1.66853e-05 -6.88601e-05
0.000106669 -3.20456e-05 -3.19814e-05 -6.4559e-05
0.00016287 -4.89028e-05 -4.8843e-05 -5.73887e-05
0.00011189 -3.36177e-05 -3.35451e-05 -6.45595e-05
0.000109279 -3.28316e-05 -3.27633e-05 -6.45593e-05
5.43874e-05 -1.63642e-05 -1.62957e-05 -6.88598e-05
5.17807e-05 -1.55759e-05 -1.55163e-05 -6.88591e-05
0.000151117 -4.53692e-05 -4.53204e-05 -5.7388e-05
0.000158952 -4.77249e-05 -4.76688e-05 -5.73885e-05
5.30841e-05 -1.59701e-05 -1.5906e-05 -6.88595e-05
0.000101448 -3.04735e-05 -3.04176e-05 -6.45584e-05
0.000155035 -4.65471e-05 -4.64946e-05 -5.73883e-05
0.000106669 -3.20456e-05 -3.19814e-05 -6.4559e-05
0.000104059 -3.12596e-05 -3.11995e-05 -6.45587e-05
5.17807e-05 -1.55759e-05 -1.55163e-05 -6.88591e-05
4.91734e-05 -1.47872e-05 -1.47369e-05 -6.88582e-05
0.000143281 -4.30134e-05 -4.29719e-05 -5.73872e-05
0.000151117 -4.53692e-05 -4.53204e-05 -5.7388e-05
5.04771e-05 -1.51816e-05 -1.51266e-05 -6.88587e-05
9.62267e-05 -2.89012e-05 -2.88538e-05 -6.45574e-05
0.000147199 -4.41913e-05 -4.41462e-05 -5.73877e-05
0.000101448 -3.04735e-05 -3.04176e-05 -6.45584e-05
9.88374e-05 -2.96874e-05 -2.96357e-05 -6.45579e-05
4.91734e-05 -1.47872e-05 -1.47369e-05 -6.88582e-05
4.65653e-05 -1.39977e-05 -1.39575e-05 -6.88572e-05
0.000135445 -4.0657e-05 -4.06236e-05 -5.73858e-05
0.000143281 -4.30134e-05 -4.29719e-05 -5.73872e-05
4.78694e-05 -1.43926e-05 -1.43472e-05 -6.88577e-05
9.10049e-05 -2.7328e-05 -2.72901e-05 -6.4556e-05
0.000139363 -4.18353e-05 -4.17978e-05 -5.73866e-05
9.62267e-05 -2.89012e-05 -2.88538e-05 -6.45574e-05
9.36159e-05 -2.81147e-05 -2.80719e-05 -6.45568e-05
4.65653e-05 -1.39977e-05 -1.39575e-05 -6.88572e-05
4.39557e-05 -1.32064e-05 -1.31783e-05 -6.88562e-05
0.000127609 -3.82991e-05 -3.82756e-05 -5.73833e-05
0.000135445 -4.0657e-05 -4.06236e-05 -5.73858e-05
4.52608e-05 -1.36023e-05 -1.35679e-05 -6.88566e-05
8.57818e-05 -2.5753e-05 -2.57266e-05 -6.4554e-05
0.000131527 -3.94783e-05 -3.94495e-05 -5.73847e-05
9.10049e-05 -2.7328e-05 -2.72901e-05 -6.4556e-05
8.83936e-05 -2.65408e-05 -2.65083e-05 -6.45551e-05
4.39557e-05 -1.32064e-05 -1.31783e-05 -6.88562e-05
4.13436e-05 -1.24119e-05 -1.23993e-05 -6.8856e-05
0.00011977 -3.5938e-05 -3.59282e-05 -5.73789e-05
0.000127609 -3.82991e-05 -3.82756e-05 -5.73833e-05
4.265e-05 -1.28097e-05 -1.27887e-05 -6.88559e-05
8.05561e-05 -2.41742e-05 -2.41637e-05 -6.45514e-05
0.00012369 -3.71191e-05 -3.71018e-05 -5.73814e-05
8.57818e-05 -2.5753e-05 -2.57266e-05 -6.4554e-05
8.31694e-05 -2.49642e-05 -2.49451e-05 -6.45527e-05
4.13436e-05 -1.24119e-05 -1.23993e-05 -6.8856e-05
3.87262e-05 -1.16115e-05 -1.16206e-05 -6.88589e-05
0.000111928 -3.35701e-05 -3.35819e-05 -5.73713e-05
0.00011977 -3.5938e-05 -3.59282e-05 -5.73789e-05
4.00359e-05 -1.20127e-05 -1.20099e-05 -6.88569e-05
7.53247e-05 -2.2588e-05 -2.26015e-05 -6.45488e-05
0.00011585 -3.47552e-05 -3.47548e-05 -5.73756e-05
8.05561e-05 -2.41742e-05 -2.41637e-05 -6.45514e-05
7.79414e-05 -2.33823e-05 -2.33824e-05 -6.45501e-05
3.87262e-05 -1.16115e-05 -1.16206e-05 -6.88589e-05
3.60999e-05 -1.08006e-05 -1.08425e-05 -6.88694e-05
0.000104075 -3.11888e-05 -3.12369e-05 -5.7359e-05
0.000111928 -3.35701e-05 -3.35819e-05 -5.73713e-05
3.74142e-05 -1.12077e-05 -1.12314e-05 -6.88628e-05
7.00818e-05 -2.09875e-05 -2.10404e-05 -6.45478e-05
0.000108003 -3.23818e-05 -3.24092e-05 -5.73659e-05
7.53247e-05 -2.2588e-05 -2.26015e-05 -6.45488e-05
7.27052e-05 -2.17901e-05 -2.18208e-05 -6.45478e-05
3.60999e-05 -1.08006e-05 -1.08425e-05 -6.88694e-05
3.34547e-05 -9.97162e-06 -1.00642e-05 -6.88972e-05
9.62024e-05 -2.87817e-05 -2.88946e-05 -5.7339e-05
0.000104075 -3.11888e-05 -3.12369e-05 -5.7359e-05
3.47808e-05 -1.03891e-05 -1.04536e-05 -6.88802e-05
6.48157e-05 -1.93611e-05 -1.94805e-05 -6.45526e-05
0.000100142 -2.99895e-05 -3.00652e-05 -5.73503e-05
7.00818e-05 -2.09875e-05 -2.10404e-05 -6.45478e-05
6.74526e-05 -2.01787e-05 -2.02602e-05 -6.45493e-05
3.34547e-05 -9.97162e-06 -1.00642e-05 -6.88972e-05
3.07805e-05 -9.1113e-06 -9.28682e-06 -6.89603e-05
8.82853e-05 -2.63276e-05 -2.65533e-05 -5.73091e-05
9.62024e-05 -2.87817e-05 -2.88946e-05 -5.7339e-05
3.21214e-05 -9.54624e-06 -9.67509e-06 -6.89229e-05
5.95051e-05 -1.76878e-05 -1.79217e-05 -6.4572e-05
9.22521e-05 -2.75626e-05 -2.77241e-05 -5.73253e-05
6.48157e-05 -1.93611e-05 -1.94805e-05 -6.45526e-05
6.21677e-05 -1.85319e-05 -1.87011e-05 -6.45592e-05
3.07805e-05 -9.1113e-06 -9.28682e-06 -6.89603e-05
2.80455e-05 -8.20133e-06 -8.50466e-06 -6.90926e-05
8.02925e-05 -2.37893e-05 -2.42157e-05 -5.72632e-05
8.82853e-05 -2.63276e-05 -2.65533e-05 -5.73091e-05
2.94244e-05 -8.66457e-06 -8.89709e-06 -6.90148e-05
5.41126e-05 -1.59363e-05 -1.63613e-05 -6.46236e-05
8.42996e-05 -2.50715e-05 -2.53835e-05 -5.72889e-05
5.95051e-05 -1.76878e-05 -1.79217e-05 -6.4572e-05
5.6822e-05 -1.6825e-05 -1.71416e-05 -6.45933e-05
2.80455e-05 -8.20133e-06 -8.50466e-06 -6.90926e-05
2.52265e-05 -7.21042e-06 -7.72119e-06 -6.93472e-05
7.21409e-05 -2.11138e-05 -2.18687e-05 -5.7205e-05
8.02925e-05 -2.37893e-05 -2.42157e-05 -5.72632e-05
2.66456e-05 -7.71707e-06 -8.11224e-06 -6.92005e-05
4.85745e-05 -1.40543e-05 -1.47944e-05 -6.47387e-05
7.62457e-05 -2.24742e-05 -2.30449e-05 -5.72346e-05
5.41126e-05 -1.59363e-05 -1.63613e-05 -6.46236e-05
5.13668e-05 -1.50143e-05 -1.55797e-05 -6.46683e-05
2.52265e-05 -7.21042e-06 -7.72119e-06 -6.93472e-05
2.22396e-05 -6.11234e-06 -6.91168e-06 -6.98119e-05
6.37504e-05 -1.82166e-05 -1.95145e-05 -5.71287e-05
7.21409e-05 -2.11138e-05 -2.18687e-05 -5.7205e-05
2.37655e-05 -6.6789e-06 -7.32281e-06 -6.95458e-05
4.27977e-05 -1.1988e-05 -1.32042e-05 -6.49713e-05
6.79763e-05 -1.96962e-05 -2.06915e-05 -5.71706e-05
4.85745e-05 -1.40543e-05 -1.47944e-05 -6.47387e-05
4.57225e-05 -1.30504e-05 -1.40024e-05 -6.48402e-05
2.22396e-05 -6.11234e-06 -6.91168e-06 -6.98119e-05
1.90697e-05 -4.8674e-06 -6.0867e-06 -7.05884e-05
5.49015e-05 -1.50276e-05 -1.70888e-05 -5.70845e-05
6.37504e-05 -1.82166e-05 -1.95145e-05 -5.71287e-05
2.0668e-05 -5.50385e-06 -6.49892e-06 -7.01547e-05
3.66444e-05 -9.66695e-06 -1.15618e-05 -6.54055e-05
5.94098e-05 -1.6668e-05 -1.83179e-05 -5.70953e-05
4.27977e-05 -1.1988e-05 -1.32042e-05 -6.49713e-05
3.97787e-05 -1.08563e-05 -1.23953e-05 -6.51476e-05
1.90697e-05 -4.8674e-06 -6.0867e-06 -7.05884e-05
1.55699e-05 -3.54227e-06 -5.1547e-06 -7.17931e-05
4.54974e-05 -1.14728e-05 -1.4582e-05 -5.71066e-05
5.49015e-05 -1.50276e-05 -1.70888e-05 -5.70845e-05
1.73889e-05 -4.21654e-06 -5.64531e-06 -7.11288e-05
3.00053e-05 -7.15129e-06 -9.79459e-06 -6.61539e-05
5.02543e-05 -1.3282e-05 -1.58453e-05 -5.70872e-05
3.66444e-05 -9.66695e-06 -1.15618e-05 -6.54055e-05
3.33886e-05 -8.43285e-06 -1.06953e-05 -6.5749e-05
1.55699e-05 -3.54227e-06 -5.1547e-06 -7.17931e-05
1.19538e-05 -2.26188e-06 -4.15369e-06 -7.33731e-05
3.5191e-05 -7.80357e-06 -1.17375e-05 -5.74765e-05
4.54974e-05 -1.14728e-05 -1.4582e-05 -5.71066e-05
1.37218e-05 -2.85456e-06 -4.65739e-06 -7.25506e-05
2.28222e-05 -4.64649e-06 -7.78959e-06 -6.73302e-05
4.05149e-05 -9.64501e-06 -1.32299e-05 -5.72144e-05
3.00053e-05 -7.15129e-06 -9.79459e-06 -6.61539e-05
2.6486e-05 -5.84399e-06 -8.84657e-06 -6.66489e-05
1.19538e-05 -2.26188e-06 -4.15369e-06 -7.33731e-05
8.25982e-06 -1.73258e-06 -2.79739e-06 -7.49524e-05
2.44849e-05 -4.62858e-06 -8.50984e-06 -5.84012e-05
3.5191e-05 -7.80357e-06 -1.17375e-05 -5.74765e-05
1.01663e-05 -1.87713e-06 -3.55252e-06 -7.42031e-05
1.55987e-05 -3.17271e-06 -5.32541e-06 -6.88867e-05
2.97672e-05 -6.0145e-06 -1.01797e-05 -5.78599e-05
2.28222e-05 -4.64649e-06 -7.78959e-06 -6.73302e-05
1.91483e-05 -3.71477e-06 -6.61437e-06 -6.81343e-05
8.25982e-06 -1.73258e-06 -2.79739e-06 -7.49524e-05
5.68543e-06 -2.77167e-06 -1.24876e-06 -7.50597e-05
1.40677e-05 -4.57672e-06 -4.06757e-06 -6.05561e-05
2.44849e-05 -4.62858e-06 -8.50984e-06 -5.84012e-05
6.63321e-06 -1.91022e-06 -2.02414e-06 -7.53401e-05
9.44924e-06 -4.38178e-06 -2.17177e-06 -7.01017e-05
1.92748e-05 -4.0456e-06 -6.52681e-06 -5.92646e-05
1.55987e-05 -3.17271e-06 -5.32541e-06 -6.88867e-05
1.23176e-05 -3.21876e-06 -3.89948e-06 -6.95139e-05
5.68543e-06 -2.77167e-06 -1.24876e-06 -7.50597e-05
4.37152e-06 -6.98741e-06 1.1211e-06 -7.0954e-05
8.51804e-06 -1.23357e-05 1.63613e-06 -6.23101e-05
1.40677e-05 -4.57672e-06 -4.06757e-06 -6.05561e-05
5.05277e-06 -4.58787e-06 -1.99244e-07 -7.37573e-05
7.26946e-06 -1.14462e-05 1.79004e-06 -6.80162e-05
1.00775e-05 -6.78573e-06 -1.41075e-06 -6.17176e-05
9.44924e-06 -4.38178e-06 -2.17177e-06 -7.01017e-05
7.57334e-06 -7.14094e-06 -1.85317e-07 -6.99808e-05
4.37152e-06 -6.98741e-06 1.1211e-06 -7.0954e-05
5.70607e-06 -1.25704e-05 2.94184e-06 -5.80764e-05
1.12379e-05 -3.66908e-05 1.09084e-05 -5.74082e-05
8.51804e-06 -1.23357e-05 1.63613e-06 -6.23101e-05
4.35235e-06 -9.5835e-06 2.24192e-06 -6.59133e-05
8.87767e-06 -2.42758e-05 6.59921e-06 -5.67082e-05
9.02597e-06 -2.25995e-05 5.81723e-06 -6.15095e-05
7.26946e-06 -1.14462e-05 1.79004e-06 -6.80162e-05
7.91256e-06 -1.71541e-05 3.96064e-06 -6.36098e-05
5.70607e-06 -1.25704e-05 2.94184e-06 -5.80764e-05
9.22727e-06 -2.0364e-05 4.77288e-06 -3.31016e-05
1.94469e-05 -6.65459e-05 2.01853e-05 -3.04213e-05
1.12379e-05 -3.66908e-05 1.09084e-05 -5.74082e-05
7.60641e-06 -1.61987e-05 3.68239e-06 -4.72378e-05
1.25599e-05 -4.13829e-05 1.23527e-05 -3.36235e-05
1.4822e-05 -5.26578e-05 1.62153e-05 -4.75022e-05
8.87767e-06 -2.42758e-05 6.59921e-06 -5.67082e-05
1.03612e-05 -3.26643e-05 9.55847e-06 -4.69642e-05
0.00126021 0 -0.00054009 0.000163969
0.00142632 -0.000190037 -0.000529836 -6.8845e-06
0.00246913 -0.000489704 -0.000848327 -0.000185618
0.00219403 2.22045e-16 -0.000940298 -0.000128359
0.00136634 -0.000106927 -0.000539749 6.07237e-05
0.00190504 -0.00029618 -0.000689512 -7.75962e-05
0.00234806 -0.000230856 -0.000907372 -0.000215161
0.00179339 0 -0.000768594 2.31936e-05
0.00182394 -0.000164311 -0.000711269 -2.6136e-05
0.00142632 -0.000190037 -0.000529836 -6.8845e-06
0.00149982 -0.000347506 -0.000493849 -5.99623e-05
0.0025661 -0.000696197 -0.000801388 -8.91122e-05
0.00246913 -0.000489704 -0.000848327 -0.000185618
0.00146313 -0.000273729 -0.000509745 -4.1082e-05
0.00203232 -0.000503285 -0.000655302 -9.02291e-05
0.00254566 -0.000635093 -0.000818813 -0.000134362
0.00190504 -0.00029618 -0.000689512 -7.75962e-05
0.00199006 -0.000412411 -0.000676138 -0.000101263
0.00149982 -0.000347506 -0.000493849 -5.99623e-05
0.00153741 -0.000427484 -0.000475682 -7.00747e-05
0.0025541 -0.000754629 -0.000771201 -3.3604e-05
0.0025661 -0.000696197 -0.000801388 -8.91122e-05
0.00152753 -0.00039704 -0.000484495 -6.92176e-05
0.00205338 -0.000587182 -0.000628372 -6.07567e-05
0.0025593 -0.000732517 -0.000782905 -5.27717e-05
0.00203232 -0.000503285 -0.000655302 -9.02291e-05
0.00204802 -0.000557922 -0.000638611 -7.15182e-05
0.00153741 -0.000427484 -0.000475682 -7.00747e-05
0.00153645 -0.000459241 -0.000461662 -6.46512e-05
0.00253619 -0.000763012 -0.000759932 -2.08845e-05
0.0025541 -0.000754629 -0.000771201 -3.3604e-05
0.00153765 -0.000447365 -0.000467265 -6.70603e-05
0.00204377 -0.000614302 -0.00061263 -4.60584e-05
0.00254743 -0.000762553 -0.000764945 -2.51052e-05
0.00205338 -0.000587182 -0.000628372 -6.07567e-05
0.00205108 -0.000604796 -0.000619837 -5.28579e-05
0.00153645 -0.000459241 -0.000461662 -6.46512e-05
0.00152593 -0.000465617 -0.000454421 -6.0895e-05
0.00251542 -0.000761953 -0.000751486 -2.00606e-05
0.00253619 -0.000763012 -0.000759932 -2.08845e-05
0.00153286 -0.000464472 -0.000457882 -6.27794e-05
0.00202516 -0.000616203 -0.000603839 -4.12934e-05
0.00252423 -0.000762757 -0.000754919 -1.92399e-05
0.00204377 -0.000614302 -0.00061263 -4.60584e-05
0.00203421 -0.000617099 -0.000607333 -4.21676e-05
0.00152593 -0.000465617 -0.000454421 -6.0895e-05
0.00151087 -0.00046353 -0.00044886 -5.8371e-05
0.00249965 -0.00075649 -0.000747067 -2.40721e-05
0.00251542 -0.000761953 -0.000751486 -2.00606e-05
0.00151786 -0.000465088 -0.000451189 -5.92568e-05
0.00200794 -0.00061211 -0.000598211 -4.14542e-05
0.00250786 -0.000759586 -0.000749259 -2.2157e-05
0.00202516 -0.000616203 -0.000603839 -4.12934e-05
0.00201646 -0.000614421 -0.000600873 -4.13459e-05
0.00151087 -0.00046353 -0.00044886 -5.8371e-05
0.0014977 -0.00045854 -0.000445355 -5.75511e-05
0.00248441 -0.000751092 -0.000742851 -2.75115e-05
0.00249965 -0.00075649 -0.000747067 -2.40721e-05
0.00150435 -0.000461194 -0.000447066 -5.7918e-05
0.00199241 -0.000606009 -0.000594172 -4.29298e-05
0.00249157 -0.000753686 -0.000744808 -2.57893e-05
0.00200794 -0.00061211 -0.000598211 -4.14542e-05
0.00199984 -0.000609157 -0.000596007 -4.20054e-05
0.0014977 -0.00045854 -0.000445355 -5.75511e-05
0.00148568 -0.000453583 -0.000442329 -5.71963e-05
0.00247075 -0.000745811 -0.000739258 -3.03517e-05
0.00248441 -0.000751092 -0.000742851 -2.75115e-05
0.00149134 -0.000455985 -0.000443723 -5.72856e-05
0.00197889 -0.000600479 -0.000590749 -4.44589e-05
0.00247764 -0.000748436 -0.000741089 -2.91141e-05
0.00199241 -0.000606009 -0.000594172 -4.29298e-05
0.00198548 -0.000603128 -0.000592438 -4.37943e-05
0.00148568 -0.000453583 -0.000442329 -5.71963e-05
0.00147543 -0.00044919 -0.000439817 -5.72008e-05
0.00245725 -0.00074102 -0.000735528 -3.2101e-05
0.00247075 -0.000745811 -0.000739258 -3.03517e-05
0.00148047 -0.000451308 -0.000441069 -5.71981e-05
0.00196662 -0.000595543 -0.000587602 -4.56224e-05
0.00246389 -0.000743352 -0.000737374 -3.13099e-05
0.00197889 -0.000600479 -0.000590749 -4.44589e-05
0.00197261 -0.000597939 -0.000589146 -4.50658e-05
0.00147543 -0.00044919 -0.000439817 -5.72008e-05
0.00146608 -0.000445493 -0.000437396 -5.72486e-05
0.00244412 -0.000736533 -0.000731825 -3.32207e-05
0.00245725 -0.00074102 -0.000735528 -3.2101e-05
0.00147062 -0.000447262 -0.000438581 -5.72121e-05
0.00195519 -0.00059129 -0.000584528 -4.6393e-05
0.0024507 -0.000738748 -0.000733695 -3.27458e-05
0.00196662 -0.000595543 -0.000587602 -4.56224e-05
0.00196083 -0.000593341 -0.000586067 -4.60655e-05
0.00146608 -0.000445493 -0.000437396 -5.72486e-05
0.00145748 -0.000442298 -0.000435076 -5.73304e-05
0.00243102 -0.000732284 -0.000728031 -3.38363e-05
0.00244412 -0.000736533 -0.000731825 -3.32207e-05
0.00146173 -0.000443844 -0.000436239 -5.72942e-05
0.00194423 -0.000587464 -0.000581473 -4.68702e-05
0.00243755 -0.000734384 -0.000729929 -3.35693e-05
0.00195519 -0.00059129 -0.000584528 -4.6393e-05
0.00194967 -0.000589335 -0.000582999 -4.66568e-05
0.00145748 -0.000442298 -0.000435076 -5.73304e-05
0.00144923 -0.000439451 -0.000432761 -5.73915e-05
0.00241799 -0.000728171 -0.000724208 -3.41862e-05
0.00243102 -0.000732284 -0.000728031 -3.38363e-05
0.00145331 -0.00044084 -0.000433915 -5.73613e-05
0.00193355 -0.000583936 -0.000578406 -4.71465e-05
0.00242451 -0.000730215 -0.000726126 -3.40405e-05
0.00194423 -0.000587464 -0.000581473 -4.68702e-05
0.00193887 -0.000585671 -0.000579943 -4.70307e-05
0.00144923 -0.000439451 -0.000432761 -5.73915e-05
0.00144121 -0.000436812 -0.000430458 -5.74407e-05
0.00240495 -0.000724141 -0.000720347 -3.43646e-05
0.00241799 -0.000728171 -0.000724208 -3.41862e-05
0.00144521 -0.000438112 -0.000431611 -5.74189e-05
0.00192301 -0.000580574 -0.000575327 -4.73025e-05
0.00241147 -0.000726148 -0.000722279 -3.42893e-05
0.00193355 -0.000583936 -0.000578406 -4.71465e-05
0.00192827 -0.00058224 -0.000576868 -4.72348e-05
0.00144121 -0.000436812 -0.000430458 -5.74407e-05
0.00143331 -0.000434293 -0.000428148 -5.74735e-05
0.00239192 -0.000720154 -0.00071647 -3.44581e-05
0.00240495 -0.000724141 -0.000720347 -3.43646e-05
0.00143725 -0.000435541 -0.000429303 -5.74584e-05
0.00191253 -0.000577311 -0.000572237 -4.73869e-05
0.00239843 -0.000722143 -0.000718411 -3.44198e-05
0.00192301 -0.000580574 -0.000575327 -4.73025e-05
0.00191776 -0.000578934 -0.000573784 -4.73519e-05
0.00143331 -0.000434293 -0.000428148 -5.74735e-05
0.00142546 -0.00043184 -0.000425837 -5.74962e-05
0.00237888 -0.000716191 -0.00071258 -3.45029e-05
0.00239192 -0.000720154 -0.00071647 -3.44581e-05
0.00142938 -0.000433061 -0.000426994 -5.74862e-05
0.00190209 -0.000574097 -0.000569138 -4.74321e-05
0.0023854 -0.000718171 -0.000714525 -3.44844e-05
0.00191253 -0.000577311 -0.000572237 -4.73869e-05
0.00190731 -0.000575699 -0.000570688 -4.74128e-05
0.00142546 -0.00043184 -0.000425837 -5.74962e-05
0.00141764 -0.000429421 -0.000423522 -5.75108e-05
0.00236583 -0.000712239 -0.000708684 -3.45248e-05
0.00237888 -0.000716191 -0.00071258 -3.45029e-05
0.00142155 -0.000430628 -0.00042468 -5.75043e-05
0.00189166 -0.000570909 -0.000566034 -4.74557e-05
0.00237236 -0.000714214 -0.000710632 -3.4516e-05
0.00190209 -0.000574097 -0.000569138 -4.74321e-05
0.00189687 -0.000572501 -0.000567587 -4.7446e-05
0.00141764 -0.000429421 -0.000423522 -5.75108e-05
0.00140983 -0.00042702 -0.000421205 -5.75202e-05
0.00235279 -0.000708293 -0.000704784 -3.45347e-05
0.00236583 -0.000712239 -0.000708684 -3.45248e-05
0.00141374 -0.000428219 -0.000422364 -5.75161e-05
0.00188123 -0.000567734 -0.000562927 -4.7468e-05
0.00235931 -0.000710266 -0.000706734 -3.45307e-05
0.00189166 -0.000570909 -0.000566034 -4.74557e-05
0.00188644 -0.00056932 -0.000564481 -4.74628e-05
0.00140983 -0.00042702 -0.000421205 -5.75202e-05
0.00140203 -0.000424627 -0.000418886 -5.75259e-05
0.00233974 -0.000704349 -0.000700882 -3.45391e-05
0.00235279 -0.000708293 -0.000704784 -3.45347e-05
0.00140593 -0.000425823 -0.000420046 -5.75234e-05
0.00187081 -0.000564565 -0.000559818 -4.74742e-05
0.00234626 -0.000706321 -0.000702833 -3.45374e-05
0.00188123 -0.000567734 -0.000562927 -4.7468e-05
0.00187602 -0.000566149 -0.000561373 -4.74716e-05
0.00140203 -0.000424627 -0.000418886 -5.75259e-05
0.00139423 -0.000422239 -0.000416567 -5.75292e-05
0.00232669 -0.000700406 -0.000696979 -3.45409e-05
0.00233974 -0.000704349 -0.000700882 -3.45391e-05
0.00139813 -0.000423433 -0.000417727 -5.75278e-05
0.00186038 -0.000561398 -0.000556707 -4.74772e-05
0.00233322 -0.000702377 -0.000698931 -3.45402e-05
0.00187081 -0.000564565 -0.000559818 -4.74742e-05
0.00186559 -0.000562981 -0.000558263 -4.7476e-05
0.00139423 -0.000422239 -0.000416567 -5.75292e-05
0.00138643 -0.000419852 -0.000414246 -5.7531e-05
0.00231364 -0.000696463 -0.000693075 -3.45414e-05
0.00232669 -0.000700406 -0.000696979 -3.45409e-05
0.00139033 -0.000421045 -0.000415406 -5.75303e-05
0.00184996 -0.000558233 -0.000553596 -4.74785e-05
0.00232016 -0.000698435 -0.000695027 -3.45412e-05
0.00186038 -0.000561398 -0.000556707 -4.74772e-05
0.00185517 -0.000559816 -0.000555152 -4.7478e-05
0.00138643 -0.000419852 -0.000414246 -5.7531e-05
0.00137863 -0.000417466 -0.000411925 -5.75318e-05
0.00230059 -0.000692521 -0.000689171 -3.45413e-05
0.00231364 -0.000696463 -0.000693075 -3.45414e-05
0.00138253 -0.000418659 -0.000413086 -5.75315e-05
0.00183953 -0.000555068 -0.000550484 -4.74789e-05
0.00230711 -0.000694492 -0.000691123 -3.45414e-05
0.00184996 -0.000558233 -0.000553596 -4.74785e-05
0.00184474 -0.000556651 -0.00055204 -4.74788e-05
0.00137863 -0.000417466 -0.000411925 -5.75318e-05
0.00137082 -0.000415081 -0.000409604 -5.75319e-05
0.00228753 -0.000688579 -0.000685267 -3.45409e-05
0.00230059 -0.000692521 -0.000689171 -3.45413e-05
0.00137472 -0.000416274 -0.000410764 -5.75319e-05
0.00182911 -0.000551904 -0.000547372 -4.74787e-05
0.00229406 -0.00069055 -0.000687219 -3.45411e-05
0.00183953 -0.000555068 -0.000550484 -4.74789e-05
0.00183432 -0.000553486 -0.000548928 -4.74788e-05
0.00137082 -0.000415081 -0.000409604 -5.75319e-05
0.00136302 -0.000412697 -0.000407282 -5.75316e-05
0.00227448 -0.000684636 -0.000681363 -3.45403e-05
0.00228753 -0.000688579 -0.000685267 -3.45409e-05
0.00136692 -0.000413889 -0.000408443 -5.75317e-05
0.00181868 -0.00054874 -0.00054426 -4.74782e-05
0.00228101 -0.000686607 -0.000683315 -3.45406e-05
0.00182911 -0.000551904 -0.000547372 -4.74787e-05
0.00182389 -0.000550322 -0.000545816 -4.74785e-05
0.00136302 -0.000412697 -0.000407282 -5.75316e-05
0.00135522 -0.000410312 -0.00040496 -5.7531e-05
0.00226143 -0.000680694 -0.000677458 -3.45397e-05
0.00227448 -0.000684636 -0.000681363 -3.45403e-05
0.00135912 -0.000411505 -0.000406121 -5.75313e-05
0.00180825 -0.000545576 -0.000541147 -4.74776e-05
0.00226796 -0.000682665 -0.00067941 -3.454e-05
0.00181868 -0.00054874 -0.00054426 -4.74782e-05
0.00181347 -0.000547158 -0.000542703 -4.74779e-05
0.00135522 -0.000410312 -0.00040496 -5.7531e-05
0.00134742 -0.000407928 -0.000402638 -5.75303e-05
0.00224838 -0.000676752 -0.000673553 -3.4539e-05
0.00226143 -0.000680694 -0.000677458 -3.45397e-05
0.00135132 -0.00040912 -0.000403799 -5.75307e-05
0.00179783 -0.000542412 -0.000538034 -4.74768e-05
0.0022549 -0.000678723 -0.000675506 -3.45394e-05
0.00180825 -0.000545576 -0.000541147 -4.74776e-05
0.00180304 -0.000543994 -0.000539591 -4.74772e-05
0.00134742 -0.000407928 -0.000402638 -5.75303e-05
0.00133961 -0.000405544 -0.000400315 -5.75295e-05
0.00223532 -0.00067281 -0.000669648 -3.45384e-05
0.00224838 -0.000676752 -0.000673553 -3.4539e-05
0.00134351 -0.000406736 -0.000401476 -5.75299e-05
0.0017874 -0.000539248 -0.000534921 -4.74761e-05
0.00224185 -0.000674781 -0.000671601 -3.45387e-05
0.00179783 -0.000542412 -0.000538034 -4.74768e-05
0.00179261 -0.00054083 -0.000536478 -4.74765e-05
0.00133961 -0.000405544 -0.000400315 -5.75295e-05
0.00133181 -0.000403161 -0.000397992 -5.75287e-05
0.00222227 -0.000668868 -0.000665743 -3.45377e-05
0.00223532 -0.00067281 -0.000669648 -3.45384e-05
0.00133571 -0.000404352 -0.000399154 -5.75291e-05
0.00177697 -0.000536084 -0.000531808 -4.74752e-05
0.0022288 -0.000670839 -0.000667696 -3.4538e-05
0.0017874 -0.000539248 -0.000534921 -4.74761e-05
0.00178218 -0.000537666 -0.000533365 -4.74757e-05
0.00133181 -0.000403161 -0.000397992 -5.75287e-05
0.00132401 -0.000400777 -0.00039567 -5.75278e-05
0.00220922 -0.000664927 -0.000661838 -3.4537e-05
0.00222227 -0.000668868 -0.000665743 -3.45377e-05
0.00132791 -0.000401969 -0.000396831 -5.75282e-05
0.00176654 -0.000532921 -0.000528695 -4.74744e-05
0.00221574 -0.000666898 -0.000663791 -3.45373e-05
0.00177697 -0.000536084 -0.000531808 -4.74752e-05
0.00177176 -0.000534503 -0.000530252 -4.74748e-05
0.00132401 -0.000400777 -0.00039567 -5.75278e-05
0.0013162 -0.000398394 -0.000393346 -5.75269e-05
0.00219616 -0.000660985 -0.000657933 -3.45363e-05
0.00220922 -0.000664927 -0.000661838 -3.4537e-05
0.0013201 -0.000399585 -0.000394508 -5.75274e-05
0.00175611 -0.000529758 -0.000525582 -4.74736e-05
0.00220269 -0.000662956 -0.000659886 -3.45367e-05
0.00176654 -0.000532921 -0.000528695 -4.74744e-05
0.00176133 -0.000531339 -0.000527138 -4.7474e-05
0.0013162 -0.000398394 -0.000393346 -5.75269e-05
0.0013084 -0.00039601 -0.000391023 -5.75261e-05
0.00218311 -0.000657044 -0.000654028 -3.45357e-05
0.00219616 -0.000660985 -0.000657933 -3.45363e-05
0.0013123 -0.000397202 -0.000392185 -5.75265e-05
0.00174569 -0.000526595 -0.000522468 -4.74728e-05
0.00218964 -0.000659014 -0.00065598 -3.4536e-05
0.00175611 -0.000529758 -0.000525582 -4.74736e-05
0.0017509 -0.000528176 -0.000524025 -4.74732e-05
0.0013084 -0.00039601 -0.000391023 -5.75261e-05
0.00130059 -0.000393627 -0.0003887 -5.75252e-05
0.00217005 -0.000653102 -0.000650123 -3.4535e-05
0.00218311 -0.000657044 -0.000654028 -3.45357e-05
0.0013045 -0.000394819 -0.000389862 -5.75256e-05
0.00173526 -0.000523432 -0.000519354 -4.7472e-05
0.00217658 -0.000655073 -0.000652075 -3.45353e-05
0.00174569 -0.000526595 -0.000522468 -4.74728e-05
0.00174047 -0.000525013 -0.000520911 -4.74724e-05
0.00130059 -0.000393627 -0.0003887 -5.75252e-05
0.00129279 -0.000391245 -0.000386376 -5.75243e-05
0.002157 -0.000649161 -0.000646217 -3.45344e-05
0.00217005 -0.000653102 -0.000650123 -3.4535e-05
0.00129669 -0.000392436 -0.000387538 -5.75248e-05
0.00172483 -0.000520269 -0.000516241 -4.74712e-05
0.00216353 -0.000651132 -0.00064817 -3.45347e-05
0.00173526 -0.000523432 -0.000519354 -4.7472e-05
0.00173004 -0.00052185 -0.000517797 -4.74716e-05
0.00129279 -0.000391245 -0.000386376 -5.75243e-05
0.00128498 -0.000388862 -0.000384052 -5.75235e-05
0.00214395 -0.00064522 -0.000642312 -3.45337e-05
0.002157 -0.000649161 -0.000646217 -3.45344e-05
0.00128889 -0.000390053 -0.000385214 -5.75239e-05
0.0017144 -0.000517106 -0.000513127 -4.74704e-05
0.00215047 -0.000647191 -0.000644264 -3.4534e-05
0.00172483 -0.000520269 -0.000516241 -4.74712e-05
0.00171962 -0.000518687 -0.000514684 -4.74708e-05
0.00128498 -0.000388862 -0.000384052 -5.75235e-05
0.00127718 -0.000386479 -0.000381729 -5.75226e-05
0.00213089 -0.000641279 -0.000638406 -3.45331e-05
0.00214395 -0.00064522 -0.000642312 -3.45337e-05
0.00128108 -0.000387671 -0.000382891 -5.7523e-05
0.00170397 -0.000513944 -0.000510012 -4.74696e-05
0.00213742 -0.00064325 -0.000640359 -3.45334e-05
0.0017144 -0.000517106 -0.000513127 -4.74704e-05
0.00170919 -0.000515525 -0.00051157 -4.747e-05
0.00127718 -0.000386479 -0.000381729 -5.75226e-05
0.00126937 -0.000384097 -0.000379404 -5.75217e-05
0.00211784 -0.000637338 -0.0006345 -3.45324e-05
0.00213089 -0.000641279 -0.000638406 -3.45331e-05
0.00127328 -0.000385288 -0.000380566 -5.75222e-05
0.00169354 -0.000510781 -0.000506898 -4.74688e-05
0.00212437 -0.000639309 -0.000636453 -3.45327e-05
0.00170397 -0.000513944 -0.000510012 -4.74696e-05
0.00169876 -0.000512362 -0.000508455 -4.74692e-05
0.00126937 -0.000384097 -0.000379404 -5.75217e-05
0.00126157 -0.000381715 -0.00037708 -5.75208e-05
0.00210478 -0.000633398 -0.000630594 -3.45318e-05
0.00211784 -0.000637338 -0.0006345 -3.45324e-05
0.00126547 -0.000382906 -0.000378242 -5.75213e-05
0.00168311 -0.000507619 -0.000503784 -4.74679e-05
0.00211131 -0.000635368 -0.000632547 -3.45321e-05
0.00169354 -0.000510781 -0.000506898 -4.74688e-05
0.00168833 -0.0005092 -0.000505341 -4.74683e-05
0.00126157 -0.000381715 -0.00037708 -5.75208e-05
0.00125376 -0.000379333 -0.000374756 -5.75199e-05
0.00209173 -0.000629457 -0.000626689 -3.45311e-05
0.00210478 -0.000633398 -0.000630594 -3.45318e-05
0.00125767 -0.000380524 -0.000375918 -5.75204e-05
0.00167269 -0.000504457 -0.000500669 -4.74671e-05
0.00209826 -0.000631427 -0.000628642 -3.45314e-05
0.00168311 -0.000507619 -0.000503784 -4.74679e-05
0.0016779 -0.000506038 -0.000502227 -4.74675e-05
0.00125376 -0.000379333 -0.000374756 -5.75199e-05
0.00124596 -0.000376951 -0.000372431 -5.7519e-05
0.00207868 -0.000625517 -0.000622783 -3.45304e-05
0.00209173 -0.000629457 -0.000626689 -3.45311e-05
0.00124986 -0.000378142 -0.000373593 -5.75195e-05
0.00166226 -0.000501295 -0.000497555 -4.74663e-05
0.0020852 -0.000627487 -0.000624736 -3.45308e-05
0.00167269 -0.000504457 -0.000500669 -4.74671e-05
0.00166747 -0.000502876 -0.000499112 -4.74667e-05
0.00124596 -0.000376951 -0.000372431 -5.7519e-05
0.00123815 -0.00037457 -0.000370106 -5.75181e-05
0.00206562 -0.000621576 -0.000618877 -3.45298e-05
0.00207868 -0.000625517 -0.000622783 -3.45304e-05
0.00124205 -0.00037576 -0.000371269 -5.75186e-05
0.00165183 -0.000498133 -0.00049444 -4.74654e-05
0.00207215 -0.000623546 -0.00062083 -3.45301e-05
0.00166226 -0.000501295 -0.000497555 -4.74663e-05
0.00165704 -0.000499714 -0.000495997 -4.74659e-05
0.00123815 -0.00037457 -0.000370106 -5.75181e-05
0.00123034 -0.000372188 -0.000367781 -5.75172e-05
0.00205257 -0.000617636 -0.00061497 -3.45291e-05
0.00206562 -0.000621576 -0.000618877 -3.45298e-05
0.00123425 -0.000373379 -0.000368944 -5.75176e-05
0.0016414 -0.000494972 -0.000491325 -4.74646e-05
0.00205909 -0.000619606 -0.000616923 -3.45294e-05
0.00165183 -0.000498133 -0.00049444 -4.74654e-05
0.00164661 -0.000496552 -0.000492882 -4.7465e-05
0.00123034 -0.000372188 -0.000367781 -5.75172e-05
0.00122254 -0.000369807 -0.000365456 -5.75162e-05
0.00203951 -0.000613696 -0.000611064 -3.45284e-05
0.00205257 -0.000617636 -0.00061497 -3.45291e-05
0.00122644 -0.000370998 -0.000366619 -5.75167e-05
0.00163097 -0.00049181 -0.00048821 -4.74637e-05
0.00204604 -0.000615666 -0.000613017 -3.45287e-05
0.0016414 -0.000494972 -0.000491325 -4.74646e-05
0.00163618 -0.000493391 -0.000489767 -4.74642e-05
0.00122254 -0.000369807 -0.000365456 -5.75162e-05
0.00121473 -0.000367426 -0.000363131 -5.75153e-05
0.00202646 -0.000609756 -0.000607158 -3.45277e-05
0.00203951 -0.000613696 -0.000611064 -3.45284e-05
0.00121863 -0.000368617 -0.000364293 -5.75158e-05
0.00162054 -0.000488649 -0.000485095 -4.74629e-05
0.00203298 -0.000611726 -0.000609111 -3.45281e-05
0.00163097 -0.00049181 -0.00048821 -4.74637e-05
0.00162575 -0.00049023 -0.000486652 -4.74633e-05
0.00121473 -0.000367426 -0.000363131 -5.75153e-05
0.00120692 -0.000365045 -0.000360805 -5.75144e-05
0.0020134 -0.000605816 -0.000603251 -3.4527e-05
0.00202646 -0.000609756 -0.000607158 -3.45277e-05
0.00121083 -0.000366236 -0.000361968 -5.75148e-05
0.00161011 -0.000485488 -0.000481979 -4.7462e-05
0.00201993 -0.000607786 -0.000605205 -3.45274e-05
0.00162054 -0.000488649 -0.000485095 -4.74629e-05
0.00161532 -0.000487068 -0.000483537 -4.74625e-05
0.00120692 -0.000365045 -0.000360805 -5.75144e-05
0.00119912 -0.000362665 -0.00035848 -5.75134e-05
0.00200035 -0.000601876 -0.000599345 -3.45263e-05
0.0020134 -0.000605816 -0.000603251 -3.4527e-05
0.00120302 -0.000363855 -0.000359642 -5.75139e-05
0.00159968 -0.000482327 -0.000478864 -4.74611e-05
0.00200688 -0.000603846 -0.000601298 -3.45267e-05
0.00161011 -0.000485488 -0.000481979 -4.7462e-05
0.00160489 -0.000483907 -0.000480422 -4.74616e-05
0.00119912 -0.000362665 -0.00035848 -5.75134e-05
0.00119131 -0.000360284 -0.000356154 -5.75124e-05
0.00198729 -0.000597937 -0.000595438 -3.45256e-05
0.00200035 -0.000601876 -0.000599345 -3.45263e-05
0.00119521 -0.000361474 -0.000357317 -5.75129e-05
0.00158925 -0.000479166 -0.000475748 -4.74603e-05
0.00199382 -0.000599906 -0.000597392 -3.4526e-05
0.00159968 -0.000482327 -0.000478864 -4.74611e-05
0.00159446 -0.000480747 -0.000477306 -4.74607e-05
0.00119131 -0.000360284 -0.000356154 -5.75124e-05
0.0011835 -0.000357904 -0.000353828 -5.75115e-05
0.00197424 -0.000593997 -0.000591532 -3.45249e-05
0.00198729 -0.000597937 -0.000595438 -3.45256e-05
0.00118741 -0.000359094 -0.000354991 -5.75119e-05
0.00157882 -0.000476006 -0.000472633 -4.74594e-05
0.00198077 -0.000595967 -0.000593485 -3.45253e-05
0.00158925 -0.000479166 -0.000475748 -4.74603e-05
0.00158403 -0.000477586 -0.000474191 -4.74598e-05
0.0011835 -0.000357904 -0.000353828 -5.75115e-05
0.00117569 -0.000355524 -0.000351502 -5.75105e-05
0.00196118 -0.000590058 -0.000587625 -3.45242e-05
0.00197424 -0.000593997 -0.000591532 -3.45249e-05
0.0011796 -0.000356714 -0.000352665 -5.7511e-05
0.00156838 -0.000472845 -0.000469517 -4.74585e-05
0.00196771 -0.000592028 -0.000589578 -3.45246e-05
0.00157882 -0.000476006 -0.000472633 -4.74594e-05
0.0015736 -0.000474425 -0.000471075 -4.74589e-05
0.00117569 -0.000355524 -0.000351502 -5.75105e-05
0.00116789 -0.000353144 -0.000349175 -5.75095e-05
0.00194813 -0.000586119 -0.000583718 -3.45235e-05
0.00196118 -0.000590058 -0.000587625 -3.45242e-05
0.00117179 -0.000354334 -0.000350338 -5.751e-05
0.00155795 -0.000469685 -0.000466401 -4.74576e-05
0.00195465 -0.000588088 -0.000585671 -3.45239e-05
0.00156838 -0.000472845 -0.000469517 -4.74585e-05
0.00156317 -0.000471265 -0.000467959 -4.7458e-05
0.00116789 -0.000353144 -0.000349175 -5.75095e-05
0.00116008 -0.000350764 -0.000346849 -5.75085e-05
0.00193507 -0.00058218 -0.000579811 -3.45228e-05
0.00194813 -0.000586119 -0.000583718 -3.45235e-05
0.00116398 -0.000351954 -0.000348012 -5.7509e-05
0.00154752 -0.000466525 -0.000463285 -4.74567e-05
0.0019416 -0.000584149 -0.000581765 -3.45231e-05
0.00155795 -0.000469685 -0.000466401 -4.74576e-05
0.00155274 -0.000468105 -0.000464843 -4.74571e-05
0.00116008 -0.000350764 -0.000346849 -5.75085e-05
0.00115227 -0.000348384 -0.000344522 -5.75075e-05
0.00192202 -0.000578241 -0.000575904 -3.45221e-05
0.00193507 -0.00058218 -0.000579811 -3.45228e-05
0.00115617 -0.000349574 -0.000345685 -5.7508e-05
0.00153709 -0.000463365 -0.000460169 -4.74558e-05
0.00192854 -0.00058021 -0.000577858 -3.45224e-05
0.00154752 -0.000466525 -0.000463285 -4.74567e-05
0.00154231 -0.000464945 -0.000461727 -4.74562e-05
0.00115227 -0.000348384 -0.000344522 -5.75075e-05
0.00114446 -0.000346005 -0.000342195 -5.75065e-05
0.00190896 -0.000574302 -0.000571997 -3.45213e-05
0.00192202 -0.000578241 -0.000575904 -3.45221e-05
0.00114837 -0.000347195 -0.000343359 -5.7507e-05
0.00152666 -0.000460205 -0.000457052 -4.74548e-05
0.00191549 -0.000576271 -0.000573951 -3.45217e-05
0.00153709 -0.000463365 -0.000460169 -4.74558e-05
0.00153188 -0.000461785 -0.00045861 -4.74553e-05
0.00114446 -0.000346005 -0.000342195 -5.75065e-05
0.00113665 -0.000343626 -0.000339868 -5.75054e-05
0.00189591 -0.000570363 -0.00056809 -3.45206e-05
0.00190896 -0.000574302 -0.000571997 -3.45213e-05
0.00114056 -0.000344815 -0.000341032 -5.75059e-05
0.00151623 -0.000457045 -0.000453936 -4.74539e-05
0.00190243 -0.000572332 -0.000570043 -3.4521e-05
0.00152666 -0.000460205 -0.000457052 -4.74548e-05
0.00152144 -0.000458625 -0.000455494 -4.74544e-05
0.00113665 -0.000343626 -0.000339868 -5.75054e-05
0.00112884 -0.000341247 -0.000337541 -5.75044e-05
0.00188285 -0.000566425 -0.000564183 -3.45199e-05
0.00189591 -0.000570363 -0.00056809 -3.45206e-05
0.00113275 -0.000342436 -0.000338705 -5.75049e-05
0.0015058 -0.000453886 -0.000450819 -4.7453e-05
0.00188938 -0.000568394 -0.000566136 -3.45202e-05
0.00151623 -0.000457045 -0.000453936 -4.74539e-05
0.00151101 -0.000455466 -0.000452377 -4.74535e-05
0.00112884 -0.000341247 -0.000337541 -5.75044e-05
0.00112103 -0.000338868 -0.000335214 -5.75034e-05
0.00186979 -0.000562486 -0.000560275 -3.45191e-05
0.00188285 -0.000566425 -0.000564183 -3.45199e-05
0.00112494 -0.000340058 -0.000336377 -5.75039e-05
0.00149537 -0.000450727 -0.000447702 -4.74521e-05
0.00187632 -0.000564455 -0.000562229 -3.45195e-05
0.0015058 -0.000453886 -0.000450819 -4.7453e-05
0.00150058 -0.000452306 -0.000449261 -4.74525e-05
0.00112103 -0.000338868 -0.000335214 -5.75034e-05
0.00111322 -0.00033649 -0.000332886 -5.75023e-05
0.00185674 -0.000558548 -0.000556368 -3.45184e-05
0.00186979 -0.000562486 -0.000560275 -3.45191e-05
0.00111713 -0.000337679 -0.00033405 -5.75029e-05
0.00148493 -0.000447567 -0.000444585 -4.74511e-05
0.00186327 -0.000560517 -0.000558321 -3.45188e-05
0.00149537 -0.000450727 -0.000447702 -4.74521e-05
0.00149015 -0.000449147 -0.000446144 -4.74516e-05
0.00111322 -0.00033649 -0.000332886 -5.75023e-05
0.00110541 -0.000334111 -0.000330558 -5.75013e-05
0.00184368 -0.00055461 -0.00055246 -3.45176e-05
0.00185674 -0.000558548 -0.000556368 -3.45184e-05
0.00110932 -0.0003353 -0.000331722 -5.75018e-05
0.0014745 -0.000444408 -0.000441468 -4.74502e-05
0.00185021 -0.000556579 -0.000554414 -3.4518e-05
0.00148493 -0.000447567 -0.000444585 -4.74511e-05
0.00147972 -0.000445988 -0.000443027 -4.74506e-05
0.00110541 -0.000334111 -0.000330558 -5.75013e-05
0.0010976 -0.000331733 -0.000328231 -5.75002e-05
0.00183063 -0.000550672 -0.000548553 -3.45169e-05
0.00184368 -0.00055461 -0.00055246 -3.45176e-05
0.00110151 -0.000332922 -0.000329395 -5.75008e-05
0.00146407 -0.00044125 -0.000438351 -4.74492e-05
0.00183716 -0.000552641 -0.000550506 -3.45173e-05
0.0014745 -0.000444408 -0.000441468 -4.74502e-05
0.00146929 -0.000442829 -0.00043991 -4.74497e-05
0.0010976 -0.000331733 -0.000328231 -5.75002e-05
0.00108979 -0.000329355 -0.000325903 -5.74992e-05
0.00181757 -0.000546734 -0.000544645 -3.45161e-05
0.00183063 -0.000550672 -0.000548553 -3.45169e-05
0.0010937 -0.000330544 -0.000327067 -5.74997e-05
0.00145364 -0.000438091 -0.000435234 -4.74483e-05
0.0018241 -0.000548703 -0.000546599 -3.45165e-05
0.00146407 -0.00044125 -0.000438351 -4.74492e-05
0.00145885 -0.00043967 -0.000436793 -4.74487e-05
0.00108979 -0.000329355 -0.000325903 -5.74992e-05
0.00108198 -0.000326977 -0.000323574 -5.74981e-05
0.00180452 -0.000542796 -0.000540737 -3.45154e-05
0.00181757 -0.000546734 -0.000544645 -3.45161e-05
0.00108589 -0.000328166 -0.000324739 -5.74986e-05
0.0014432 -0.000434933 -0.000432117 -4.74473e-05
0.00181104 -0.000544765 -0.000542691 -3.45158e-05
0.00145364 -0.000438091 -0.000435234 -4.74483e-05
0.00144842 -0.000436512 -0.000433675 -4.74478e-05
0.00108198 -0.000326977 -0.000323574 -5.74981e-05
0.00107417 -0.000324599 -0.000321246 -5.7497e-05
0.00179146 -0.000538858 -0.000536829 -3.45146e-05
0.00180452 -0.000542796 -0.000540737 -3.45154e-05
0.00107808 -0.000325788 -0.00032241 -5.74976e-05
0.00143277 -0.000431774 -0.000428999 -4.74463e-05
0.00179799 -0.000540827 -0.000538783 -3.4515e-05
0.0014432 -0.000434933 -0.000432117 -4.74473e-05
0.00143799 -0.000433353 -0.000430558 -4.74468e-05
0.00107417 -0.000324599 -0.000321246 -5.7497e-05
0.00106636 -0.000322222 -0.000318918 -5.7496e-05
0.0017784 -0.000534921 -0.000532921 -3.45139e-05
0.00179146 -0.000538858 -0.000536829 -3.45146e-05
0.00107027 -0.000323411 -0.000320082 -5.74965e-05
0.00142234 -0.000428616 -0.000425881 -4.74454e-05
0.00178493 -0.00053689 -0.000534875 -3.45142e-05
0.00143277 -0.000431774 -0.000428999 -4.74463e-05
0.00142756 -0.000430195 -0.00042744 -4.74459e-05
0.00106636 -0.000322222 -0.000318918 -5.7496e-05
0.00105855 -0.000319845 -0.000316589 -5.74949e-05
0.00176535 -0.000530984 -0.000529014 -3.45131e-05
0.0017784 -0.000534921 -0.000532921 -3.45139e-05
0.00106246 -0.000321033 -0.000317753 -5.74954e-05
0.00141191 -0.000425458 -0.000422764 -4.74444e-05
0.00177188 -0.000532952 -0.000530968 -3.45135e-05
0.00142234 -0.000428616 -0.000425881 -4.74454e-05
0.00141712 -0.000427037 -0.000424323 -4.74449e-05
0.00105855 -0.000319845 -0.000316589 -5.74949e-05
0.00105074 -0.000317468 -0.00031426 -5.74938e-05
0.00175229 -0.000527046 -0.000525105 -3.45123e-05
0.00176535 -0.000530984 -0.000529014 -3.45131e-05
0.00105465 -0.000318656 -0.000315424 -5.74944e-05
0.00140147 -0.0004223 -0.000419646 -4.74434e-05
0.00175882 -0.000529015 -0.000527059 -3.45127e-05
0.00141191 -0.000425458 -0.000422764 -4.74444e-05
0.00140669 -0.000423879 -0.000421205 -4.74439e-05
0.00105074 -0.000317468 -0.00031426 -5.74938e-05
0.00104293 -0.000315091 -0.000311931 -5.74927e-05
0.00173924 -0.000523109 -0.000521197 -3.45115e-05
0.00175229 -0.000527046 -0.000525105 -3.45123e-05
0.00104684 -0.000316279 -0.000313095 -5.74933e-05
0.00139104 -0.000419143 -0.000416528 -4.74425e-05
0.00174576 -0.000525078 -0.000523151 -3.45119e-05
0.00140147 -0.0004223 -0.000419646 -4.74434e-05
0.00139626 -0.000420722 -0.000418087 -4.74429e-05
0.00104293 -0.000315091 -0.000311931 -5.74927e-05
0.00103512 -0.000312714 -0.000309602 -5.74916e-05
0.00172618 -0.000519172 -0.000517289 -3.45108e-05
0.00173924 -0.000523109 -0.000521197 -3.45115e-05
0.00103902 -0.000313902 -0.000310766 -5.74922e-05
0.00138061 -0.000415985 -0.00041341 -4.74415e-05
0.00173271 -0.000521141 -0.000519243 -3.45112e-05
0.00139104 -0.000419143 -0.000416528 -4.74425e-05
0.00138582 -0.000417564 -0.000414969 -4.7442e-05
0.00103512 -0.000312714 -0.000309602 -5.74916e-05
0.00102731 -0.000310338 -0.000307272 -5.74905e-05
0.00171312 -0.000515236 -0.000513381 -3.451e-05
0.00172618 -0.000519172 -0.000517289 -3.45108e-05
0.00103121 -0.000311526 -0.000308437 -5.74911e-05
0.00137017 -0.000412828 -0.000410291 -4.74405e-05
0.00171965 -0.000517204 -0.000515335 -3.45104e-05
0.00138061 -0.000415985 -0.00041341 -4.74415e-05
0.00137539 -0.000414407 -0.00041185 -4.7441e-05
0.00102731 -0.000310338 -0.000307272 -5.74905e-05
0.00101949 -0.000307961 -0.000304943 -5.74895e-05
0.00170007 -0.000511299 -0.000509472 -3.45092e-05
0.00171312 -0.000515236 -0.000513381 -3.451e-05
0.0010234 -0.000309149 -0.000306108 -5.749e-05
0.00135974 -0.000409671 -0.000407173 -4.74395e-05
0.0017066 -0.000513267 -0.000511427 -3.45096e-05
0.00137017 -0.000412828 -0.000410291 -4.74405e-05
0.00136496 -0.000411249 -0.000408732 -4.744e-05
0.00101949 -0.000307961 -0.000304943 -5.74895e-05
0.00101168 -0.000305585 -0.000302613 -5.74884e-05
0.00168701 -0.000507362 -0.000505564 -3.45084e-05
0.00170007 -0.000511299 -0.000509472 -3.45092e-05
0.00101559 -0.000306773 -0.000303778 -5.74889e-05
0.00134931 -0.000406514 -0.000404054 -4.74385e-05
0.00169354 -0.000509331 -0.000507518 -3.45088e-05
0.00135974 -0.000409671 -0.000407173 -4.74395e-05
0.00135452 -0.000408092 -0.000405614 -4.7439e-05
0.00101168 -0.000305585 -0.000302613 -5.74884e-05
0.00100387 -0.000303209 -0.000300283 -5.74873e-05
0.00167396 -0.000503426 -0.000501655 -3.45077e-05
0.00168701 -0.000507362 -0.000505564 -3.45084e-05
0.00100778 -0.000304397 -0.000301448 -5.74878e-05
0.00133887 -0.000403357 -0.000400936 -4.74375e-05
0.00168048 -0.000505394 -0.00050361 -3.45081e-05
0.00134931 -0.000406514 -0.000404054 -4.74385e-05
0.00134409 -0.000404936 -0.000402495 -4.7438e-05
0.00100387 -0.000303209 -0.000300283 -5.74873e-05
0.000996058 -0.000300833 -0.000297953 -5.74861e-05
0.0016609 -0.00049949 -0.000497747 -3.45069e-05
0.00167396 -0.000503426 -0.000501655 -3.45077e-05
0.000999964 -0.000302021 -0.000299118 -5.74867e-05
0.00132844 -0.000400201 -0.000397817 -4.74365e-05
0.00166743 -0.000501458 -0.000499701 -3.45073e-05
0.00133887 -0.000403357 -0.000400936 -4.74375e-05
0.00133366 -0.000401779 -0.000399376 -4.7437e-05
0.000996058 -0.000300833 -0.000297953 -5.74861e-05
0.000988245 -0.000298458 -0.000295623 -5.7485e-05
0.00164784 -0.000495554 -0.000493838 -3.45061e-05
0.0016609 -0.00049949 -0.000497747 -3.45069e-05
0.000992152 -0.000299646 -0.000296788 -5.74856e-05
0.00131801 -0.000397044 -0.000394698 -4.74355e-05
0.00165437 -0.000497522 -0.000495792 -3.45065e-05
0.00132844 -0.000400201 -0.000397817 -4.74365e-05
0.00132322 -0.000398622 -0.000396257 -4.7436e-05
0.000988245 -0.000298458 -0.000295623 -5.7485e-05
0.000980432 -0.000296083 -0.000293293 -5.74839e-05
0.00163479 -0.000491618 -0.000489929 -3.45053e-05
0.00164784 -0.000495554 -0.000493838 -3.45061e-05
0.000984339 -0.00029727 -0.000294458 -5.74845e-05
0.00130757 -0.000393888 -0.000391579 -4.74345e-05
0.00164131 -0.000493586 -0.000491884 -3.45057e-05
0.00131801 -0.000397044 -0.000394698 -4.74355e-05
0.00131279 -0.000395466 -0.000393138 -4.7435e-05
0.000980432 -0.000296083 -0.000293293 -5.74839e-05
0.000972619 -0.000293707 -0.000290962 -5.74828e-05
0.00162173 -0.000487682 -0.000486021 -3.45045e-05
0.00163479 -0.000491618 -0.000489929 -3.45053e-05
0.000976526 -0.000294895 -0.000292128 -5.74834e-05
0.00129714 -0.000390732 -0.00038846 -4.74335e-05
0.00162826 -0.00048965 -0.000487975 -3.45049e-05
0.00130757 -0.000393888 -0.000391579 -4.74345e-05
0.00130235 -0.00039231 -0.000390019 -4.7434e-05
0.000972619 -0.000293707 -0.000290962 -5.74828e-05
0.000964806 -0.000291332 -0.000288632 -5.74817e-05
0.00160867 -0.000483746 -0.000482112 -3.45037e-05
0.00162173 -0.000487682 -0.000486021 -3.45045e-05
0.000968713 -0.00029252 -0.000289797 -5.74823e-05
0.0012867 -0.000387576 -0.00038534 -4.74325e-05
0.0016152 -0.000485714 -0.000484066 -3.45041e-05
0.00129714 -0.000390732 -0.00038846 -4.74335e-05
0.00129192 -0.000389154 -0.0003869 -4.7433e-05
0.000964806 -0.000291332 -0.000288632 -5.74817e-05
0.000956993 -0.000288958 -0.000286301 -5.74806e-05
0.00159562 -0.000479811 -0.000478203 -3.45029e-05
0.00160867 -0.000483746 -0.000482112 -3.45037e-05
0.0009609 -0.000290145 -0.000287466 -5.74811e-05
0.00127627 -0.00038442 -0.000382221 -4.74315e-05
0.00160214 -0.000481778 -0.000480157 -3.45033e-05
0.0012867 -0.000387576 -0.00038534 -4.74325e-05
0.00128149 -0.000385998 -0.000383781 -4.7432e-05
0.000956993 -0.000288958 -0.000286301 -5.74806e-05
0.000949179 -0.000286583 -0.00028397 -5.74795e-05
0.00158256 -0.000475875 -0.000474294 -3.45022e-05
0.00159562 -0.000479811 -0.000478203 -3.45029e-05
0.000953086 -0.00028777 -0.000285135 -5.748e-05
0.00126583 -0.000381264 -0.000379101 -4.74305e-05
0.00158909 -0.000477843 -0.000476248 -3.45026e-05
0.00127627 -0.00038442 -0.000382221 -4.74315e-05
0.00127105 -0.000382842 -0.000380661 -4.7431e-05
0.000949179 -0.000286583 -0.00028397 -5.74795e-05
0.000941365 -0.000284209 -0.000281639 -5.74784e-05
0.0015695 -0.00047194 -0.000470384 -3.45014e-05
0.00158256 -0.000475875 -0.000474294 -3.45022e-05
0.000945272 -0.000285396 -0.000282804 -5.74789e-05
0.0012554 -0.000378109 -0.000375982 -4.74295e-05
0.00157603 -0.000473908 -0.000472339 -3.45018e-05
0.00126583 -0.000381264 -0.000379101 -4.74305e-05
0.00126062 -0.000379687 -0.000377542 -4.743e-05
0.000941365 -0.000284209 -0.000281639 -5.74784e-05
0.000933551 -0.000281835 -0.000279307 -5.74772e-05
0.00155645 -0.000468005 -0.000466475 -3.45006e-05
0.0015695 -0.00047194 -0.000470384 -3.45014e-05
0.000937458 -0.000283022 -0.000280473 -5.74778e-05
0.00124497 -0.000374954 -0.000372862 -4.74285e-05
0.00156298 -0.000469972 -0.00046843 -3.4501e-05
0.0012554 -0.000378109 -0.000375982 -4.74295e-05
0.00125018 -0.000376531 -0.000374422 -4.7429e-05
0.000933551 -0.000281835 -0.000279307 -5.74772e-05
0.000925737 -0.000279461 -0.000276976 -5.74761e-05
0.00154339 -0.00046407 -0.000462566 -3.44998e-05
0.00155645 -0.000468005 -0.000466475 -3.45006e-05
0.000929644 -0.000280648 -0.000278142 -5.74767e-05
0.00123453 -0.000371799 -0.000369742 -4.74275e-05
0.00154992 -0.000466037 -0.000464521 -3.45002e-05
0.00124497 -0.000374954 -0.000372862 -4.74285e-05
0.00123975 -0.000373376 -0.000371302 -4.7428e-05
0.000925737 -0.000279461 -0.000276976 -5.74761e-05
0.000917923 -0.000277087 -0.000274644 -5.7475e-05
0.00153033 -0.000460135 -0.000458656 -3.4499e-05
0.00154339 -0.00046407 -0.000462566 -3.44998e-05
0.00092183 -0.000278274 -0.00027581 -5.74756e-05
0.0012241 -0.000368644 -0.000366622 -4.74265e-05
0.00153686 -0.000462102 -0.000460611 -3.44994e-05
0.00123453 -0.000371799 -0.000369742 -4.74275e-05
0.00122931 -0.000370221 -0.000368182 -4.7427e-05
0.000917923 -0.000277087 -0.000274644 -5.7475e-05
0.000910108 -0.000274713 -0.000272312 -5.74739e-05
0.00151728 -0.0004562 -0.000454747 -3.44982e-05
0.00153033 -0.000460135 -0.000458656 -3.4499e-05
0.000914016 -0.0002759 -0.000273478 -5.74744e-05
0.00121366 -0.000365489 -0.000363502 -4.74255e-05
0.0015238 -0.000458167 -0.000456702 -3.44986e-05
0.0012241 -0.000368644 -0.000366622 -4.74265e-05
0.00121888 -0.000367066 -0.000365062 -4.7426e-05
0.000910108 -0.000274713 -0.000272312 -5.74739e-05
0.000902294 -0.00027234 -0.00026998 -5.74728e-05
0.00150422 -0.000452266 -0.000450838 -3.44974e-05
0.00151728 -0.0004562 -0.000454747 -3.44982e-05
0.000906201 -0.000273526 -0.000271146 -5.74733e-05
0.00120323 -0.000362335 -0.000360382 -4.74245e-05
0.00151075 -0.000454233 -0.000452792 -3.44978e-05
0.00121366 -0.000365489 -0.000363502 -4.74255e-05
0.00120844 -0.000363912 -0.000361942 -4.7425e-05
0.000902294 -0.00027234 -0.00026998 -5.74728e-05
0.000894479 -0.000269966 -0.000267648 -5.74716e-05
0.00149116 -0.000448331 -0.000446928 -3.44966e-05
0.00150422 -0.000452266 -0.000450838 -3.44974e-05
0.000898386 -0.000271153 -0.000268814 -5.74722e-05
0.00119279 -0.00035918 -0.000357261 -4.74235e-05
0.00149769 -0.000450298 -0.000448883 -3.4497e-05
0.00120323 -0.000362335 -0.000360382 -4.74245e-05
0.00119801 -0.000360757 -0.000358821 -4.7424e-05
0.000894479 -0.000269966 -0.000267648 -5.74716e-05
0.000886664 -0.000267593 -0.000265316 -5.74705e-05
0.00147811 -0.000444397 -0.000443018 -3.44958e-05
0.00149116 -0.000448331 -0.000446928 -3.44966e-05
0.000890571 -0.00026878 -0.000266482 -5.74711e-05
0.00118235 -0.000356026 -0.000354141 -4.74225e-05
0.00148463 -0.000446364 -0.000444973 -3.44962e-05
0.00119279 -0.00035918 -0.000357261 -4.74235e-05
0.00118757 -0.000357603 -0.000355701 -4.7423e-05
0.000886664 -0.000267593 -0.000265316 -5.74705e-05
0.000878848 -0.000265221 -0.000262983 -5.74694e-05
0.00146505 -0.000440463 -0.000439108 -3.4495e-05
0.00147811 -0.000444397 -0.000443018 -3.44958e-05
0.000882756 -0.000266407 -0.00026415 -5.74699e-05
0.00117192 -0.000352872 -0.00035102 -4.74215e-05
0.00147158 -0.00044243 -0.000441063 -3.44954e-05
0.00118235 -0.000356026 -0.000354141 -4.74225e-05
0.00117714 -0.000354449 -0.00035258 -4.7422e-05
0.000878848 -0.000265221 -0.000262983 -5.74694e-05
0.000871033 -0.000262848 -0.000260651 -5.74683e-05
0.00145199 -0.000436529 -0.000435199 -3.44942e-05
0.00146505 -0.000440463 -0.000439108 -3.4495e-05
0.000874941 -0.000264034 -0.000261817 -5.74688e-05
0.00116148 -0.000349718 -0.000347899 -4.74205e-05
0.00145852 -0.000438496 -0.000437154 -3.44946e-05
0.00117192 -0.000352872 -0.00035102 -4.74215e-05
0.0011667 -0.000351295 -0.00034946 -4.7421e-05
0.000871033 -0.000262848 -0.000260651 -5.74683e-05
0.000863217 -0.000260476 -0.000258318 -5.74671e-05
0.00143894 -0.000432595 -0.000431289 -3.44934e-05
0.00145199 -0.000436529 -0.000435199 -3.44942e-05
0.000867125 -0.000261662 -0.000259484 -5.74677e-05
0.00115105 -0.000346564 -0.000344778 -4.74195e-05
0.00144546 -0.000434562 -0.000433244 -3.44938e-05
0.00116148 -0.000349718 -0.000347899 -4.74205e-05
0.00115627 -0.000348141 -0.000346339 -4.742e-05
0.000863217 -0.000260476 -0.000258318 -5.74671e-05
0.000855401 -0.000258103 -0.000255985 -5.7466e-05
0.00142588 -0.000428661 -0.000427379 -3.44927e-05
0.00143894 -0.000432595 -0.000431289 -3.44934e-05
0.000859309 -0.000259289 -0.000257151 -5.74666e-05
0.00114061 -0.000343411 -0.000341657 -4.74184e-05
0.00143241 -0.000430628 -0.000429334 -3.4493e-05
0.00115105 -0.000346564 -0.000344778 -4.74195e-05
0.00114583 -0.000344987 -0.000343218 -4.74189e-05
0.000855401 -0.000258103 -0.000255985 -5.7466e-05
0.000847585 -0.000255731 -0.000253652 -5.74649e-05
0.00141282 -0.000424727 -0.000423469 -3.44919e-05
0.00142588 -0.000428661 -0.000427379 -3.44927e-05
0.000851493 -0.000256917 -0.000254818 -5.74655e-05
0.00113018 -0.000340257 -0.000338536 -4.74174e-05
0.00141935 -0.000426694 -0.000425424 -3.44923e-05
0.00114061 -0.000343411 -0.000341657 -4.74184e-05
0.00113539 -0.000341834 -0.000340097 -4.74179e-05
0.000847585 -0.000255731 -0.000253652 -5.74649e-05
0.000839769 -0.000253359 -0.000251318 -5.74638e-05
0.00139976 -0.000420794 -0.000419559 -3.44911e-05
0.00141282 -0.000424727 -0.000423469 -3.44919e-05
0.000843677 -0.000254545 -0.000252485 -5.74643e-05
0.00111974 -0.000337104 -0.000335415 -4.74164e-05
0.00140629 -0.000422761 -0.000421514 -3.44915e-05
0.00113018 -0.000340257 -0.000338536 -4.74174e-05
0.00112496 -0.000338681 -0.000336976 -4.74169e-05
0.000839769 -0.000253359 -0.000251318 -5.74638e-05
0.000831952 -0.000250988 -0.000248985 -5.74627e-05
0.00138671 -0.00041686 -0.000415648 -3.44903e-05
0.00139976 -0.000420794 -0.000419559 -3.44911e-05
0.000835861 -0.000252173 -0.000250152 -5.74632e-05
0.0011093 -0.000333951 -0.000332293 -4.74154e-05
0.00139324 -0.000418827 -0.000417603 -3.44907e-05
0.00111974 -0.000337104 -0.000335415 -4.74164e-05
0.00111452 -0.000335528 -0.000333854 -4.74159e-05
0.000831952 -0.000250988 -0.000248985 -5.74627e-05
0.000824136 -0.000248616 -0.000246651 -5.74616e-05
0.00137365 -0.000412927 -0.000411738 -3.44895e-05
0.00138671 -0.00041686 -0.000415648 -3.44903e-05
0.000828044 -0.000249802 -0.000247818 -5.74621e-05
0.00109887 -0.000330798 -0.000329172 -4.74144e-05
0.00138018 -0.000414894 -0.000413693 -3.44899e-05
0.0011093 -0.000333951 -0.000332293 -4.74154e-05
0.00110408 -0.000332375 -0.000330733 -4.74149e-05
0.000824136 -0.000248616 -0.000246651 -5.74616e-05
0.000816319 -0.000246245 -0.000244317 -5.74604e-05
0.00136059 -0.000408994 -0.000407828 -3.44887e-05
0.00137365 -0.000412927 -0.000411738 -3.44895e-05
0.000820227 -0.00024743 -0.000245484 -5.7461e-05
0.00108843 -0.000327646 -0.00032605 -4.74134e-05
0.00136712 -0.000410961 -0.000409783 -3.44891e-05
0.00109887 -0.000330798 -0.000329172 -4.74144e-05
0.00109365 -0.000329222 -0.000327611 -4.74139e-05
0.000816319 -0.000246245 -0.000244317 -5.74604e-05
0.000808502 -0.000243874 -0.000241983 -5.74593e-05
0.00134753 -0.000405061 -0.000403917 -3.44879e-05
0.00136059 -0.000408994 -0.000407828 -3.44887e-05
0.00081241 -0.000245059 -0.00024315 -5.74599e-05
0.00107799 -0.000324493 -0.000322929 -4.74124e-05
0.00135406 -0.000407028 -0.000405872 -3.44883e-05
0.00108843 -0.000327646 -0.00032605 -4.74134e-05
0.00108321 -0.000326069 -0.000324489 -4.74129e-05
0.000808502 -0.000243874 -0.000241983 -5.74593e-05
0.000800685 -0.000241503 -0.000239649 -5.74582e-05
0.00133448 -0.000401128 -0.000400007 -3.44871e-05
0.00134753 -0.000405061 -0.000403917 -3.44879e-05
0.000804593 -0.000242688 -0.000240816 -5.74588e-05
0.00106756 -0.000321341 -0.000319807 -4.74114e-05
0.00134101 -0.000403095 -0.000401962 -3.44875e-05
0.00107799 -0.000324493 -0.000322929 -4.74124e-05
0.00107277 -0.000322917 -0.000321368 -4.74119e-05
0.000800685 -0.000241503 -0.000239649 -5.74582e-05
0.000792867 -0.000239132 -0.000237315 -5.74571e-05
0.00132142 -0.000397196 -0.000396096 -3.44864e-05
0.00133448 -0.000401128 -0.000400007 -3.44871e-05
0.000796776 -0.000240317 -0.000238482 -5.74577e-05
0.00105712 -0.000318189 -0.000316685 -4.74104e-05
0.00132795 -0.000399162 -0.000398051 -3.44867e-05
0.00106756 -0.000321341 -0.000319807 -4.74114e-05
0.00106234 -0.000319765 -0.000318246 -4.74109e-05
0.000792867 -0.000239132 -0.000237315 -5.74571e-05
0.00078505 -0.000236762 -0.000234981 -5.7456e-05
0.00130836 -0.000393263 -0.000392185 -3.44856e-05
0.00132142 -0.000397196 -0.000396096 -3.44864e-05
0.000788958 -0.000237947 -0.000236148 -5.74566e-05
0.00104668 -0.000315037 -0.000313562 -4.74094e-05
0.00131489 -0.00039523 -0.000394141 -3.4486e-05
0.00105712 -0.000318189 -0.000316685 -4.74104e-05
0.0010519 -0.000316613 -0.000315124 -4.74099e-05
0.00078505 -0.000236762 -0.000234981 -5.7456e-05
0.000777232 -0.000234391 -0.000232646 -5.74549e-05
0.00129531 -0.000389331 -0.000388275 -3.44848e-05
0.00130836 -0.000393263 -0.000392185 -3.44856e-05
0.000781141 -0.000235576 -0.000233813 -5.74555e-05
0.00103625 -0.000311885 -0.00031044 -4.74085e-05
0.00130183 -0.000391297 -0.00039023 -3.44852e-05
0.00104668 -0.000315037 -0.000313562 -4.74094e-05
0.00104146 -0.000313461 -0.000312001 -4.74089e-05
0.000777232 -0.000234391 -0.000232646 -5.74549e-05
0.000769414 -0.000232021 -0.000230311 -5.74538e-05
0.00128225 -0.000385399 -0.000384364 -3.4484e-05
0.00129531 -0.000389331 -0.000388275 -3.44848e-05
0.000773323 -0.000233206 -0.000231479 -5.74544e-05
0.00102581 -0.000308733 -0.000307318 -4.74075e-05
0.00128878 -0.000387365 -0.000386319 -3.44844e-05
0.00103625 -0.000311885 -0.00031044 -4.74085e-05
0.00103103 -0.000310309 -0.000308879 -4.7408e-05
0.000769414 -0.000232021 -0.000230311 -5.74538e-05
0.000761596 -0.000229651 -0.000227976 -5.74527e-05
0.00126919 -0.000381467 -0.000380453 -3.44832e-05
0.00128225 -0.000385399 -0.000384364 -3.4484e-05
0.000765505 -0.000230836 -0.000229144 -5.74533e-05
0.00101537 -0.000305582 -0.000304195 -4.74065e-05
0.00127572 -0.000383433 -0.000382408 -3.44836e-05
0.00102581 -0.000308733 -0.000307318 -4.74075e-05
0.00102059 -0.000307157 -0.000305756 -4.7407e-05
0.000761596 -0.000229651 -0.000227976 -5.74527e-05
0.000753777 -0.000227281 -0.000225641 -5.74516e-05
0.00125613 -0.000377535 -0.000376542 -3.44825e-05
0.00126919 -0.000381467 -0.000380453 -3.44832e-05
0.000757686 -0.000228466 -0.000226809 -5.74522e-05
0.00100493 -0.00030243 -0.000301073 -4.74055e-05
0.00126266 -0.000379501 -0.000378497 -3.44828e-05
0.00101537 -0.000305582 -0.000304195 -4.74065e-05
0.00101015 -0.000304006 -0.000302634 -4.7406e-05
0.000753777 -0.000227281 -0.000225641 -5.74516e-05
0.000745959 -0.000224912 -0.000223306 -5.74505e-05
0.00124307 -0.000373603 -0.000372631 -3.44817e-05
0.00125613 -0.000377535 -0.000376542 -3.44825e-05
0.000749868 -0.000226097 -0.000224473 -5.74511e-05
0.000994495 -0.000299279 -0.00029795 -4.74045e-05
0.0012496 -0.000375569 -0.000374586 -3.44821e-05
0.00100493 -0.00030243 -0.000301073 -4.74055e-05
0.000999714 -0.000300855 -0.000299511 -4.7405e-05
0.000745959 -0.000224912 -0.000223306 -5.74505e-05
0.00073814 -0.000222542 -0.00022097 -5.74494e-05
0.00123002 -0.000369671 -0.00036872 -3.44809e-05
0.00124307 -0.000373603 -0.000372631 -3.44817e-05
0.000742049 -0.000223727 -0.000222138 -5.745e-05
0.000984057 -0.000296128 -0.000294827 -4.74035e-05
0.00123655 -0.000371637 -0.000370675 -3.44813e-05
0.000994495 -0.000299279 -0.00029795 -4.74045e-05
0.000989276 -0.000297704 -0.000296388 -4.7404e-05
0.00073814 -0.000222542 -0.00022097 -5.74494e-05
0.000730321 -0.000220173 -0.000218635 -5.74484e-05
0.00121696 -0.00036574 -0.000364809 -3.44801e-05
0.00123002 -0.000369671 -0.00036872 -3.44809e-05
0.00073423 -0.000221358 -0.000219803 -5.74489e-05
0.000973619 -0.000292977 -0.000291704 -4.74026e-05
0.00122349 -0.000367705 -0.000366764 -3.44805e-05
0.000984057 -0.000296128 -0.000294827 -4.74035e-05
0.000978838 -0.000294553 -0.000293265 -4.7403e-05
0.000730321 -0.000220173 -0.000218635 -5.74484e-05
0.000722502 -0.000217804 -0.000216299 -5.74473e-05
0.0012039 -0.000361808 -0.000360897 -3.44794e-05
0.00121696 -0.00036574 -0.000364809 -3.44801e-05
0.000726411 -0.000218989 -0.000217467 -5.74478e-05
0.000963181 -0.000289827 -0.000288581 -4.74016e-05
0.00121043 -0.000363774 -0.000362853 -3.44798e-05
0.000973619 -0.000292977 -0.000291704 -4.74026e-05
0.0009684 -0.000291402 -0.000290142 -4.74021e-05
0.000722502 -0.000217804 -0.000216299 -5.74473e-05
0.000714682 -0.000215435 -0.000213963 -5.74462e-05
0.00119084 -0.000357877 -0.000356986 -3.44786e-05
0.0012039 -0.000361808 -0.000360897 -3.44794e-05
0.000718592 -0.00021662 -0.000215131 -5.74467e-05
0.000952743 -0.000286676 -0.000285457 -4.74006e-05
0.00119737 -0.000359842 -0.000358942 -3.4479e-05
0.000963181 -0.000289827 -0.000288581 -4.74016e-05
0.000957962 -0.000288251 -0.000287019 -4.74011e-05
0.000714682 -0.000215435 -0.000213963 -5.74462e-05
0.000706863 -0.000213067 -0.000211627 -5.74451e-05
0.00117779 -0.000353946 -0.000353074 -3.44778e-05
0.00119084 -0.000357877 -0.000356986 -3.44786e-05
0.000710773 -0.000214251 -0.000212795 -5.74457e-05
0.000942305 -0.000283526 -0.000282334 -4.73996e-05
0.00118431 -0.000355911 -0.00035503 -3.44782e-05
0.000952743 -0.000286676 -0.000285457 -4.74006e-05
0.000947524 -0.000285101 -0.000283896 -4.74001e-05
0.000706863 -0.000213067 -0.000211627 -5.74451e-05
0.000699043 -0.000210698 -0.000209291 -5.74441e-05
0.00116473 -0.000350015 -0.000349163 -3.44771e-05
0.00117779 -0.000353946 -0.000353074 -3.44778e-05
0.000702953 -0.000211883 -0.000210459 -5.74446e-05
0.000931867 -0.000280376 -0.00027921 -4.73987e-05
0.00117126 -0.00035198 -0.000351119 -3.44775e-05
0.000942305 -0.000283526 -0.000282334 -4.73996e-05
0.000937086 -0.000281951 -0.000280772 -4.73992e-05
0.000699043 -0.000210698 -0.000209291 -5.74441e-05
0.000691223 -0.00020833 -0.000206954 -5.7443e-05
0.00115167 -0.000346084 -0.000345251 -3.44763e-05
0.00116473 -0.000350015 -0.000349163 -3.44771e-05
0.000695133 -0.000209514 -0.000208122 -5.74435e-05
0.000921428 -0.000277226 -0.000276087 -4.73977e-05
0.0011582 -0.000348049 -0.000347207 -3.44767e-05
0.000931867 -0.000280376 -0.00027921 -4.73987e-05
0.000926647 -0.000278801 -0.000277649 -4.73982e-05
0.000691223 -0.00020833 -0.000206954 -5.7443e-05
0.000683403 -0.000205962 -0.000204617 -5.74419e-05
0.00113861 -0.000342153 -0.00034134 -3.44756e-05
0.00115167 -0.000346084 -0.000345251 -3.44763e-05
0.000687313 -0.000207146 -0.000205786 -5.74425e-05
0.000910989 -0.000274076 -0.000272963 -4.73968e-05
0.00114514 -0.000344118 -0.000343295 -3.44759e-05
0.000921428 -0.000277226 -0.000276087 -4.73977e-05
0.000916209 -0.000275651 -0.000274525 -4.73972e-05
0.000683403 -0.000205962 -0.000204617 -5.74419e-05
0.000675582 -0.000203594 -0.000202281 -5.74409e-05
0.00112555 -0.000338222 -0.000337428 -3.44748e-05
0.00113861 -0.000342153 -0.00034134 -3.44756e-05
0.000679493 -0.000204778 -0.000203449 -5.74414e-05
0.000900551 -0.000270926 -0.000269839 -4.73958e-05
0.00113208 -0.000340188 -0.000339384 -3.44752e-05
0.000910989 -0.000274076 -0.000272963 -4.73968e-05
0.00090577 -0.000272501 -0.000271401 -4.73963e-05
0.000675582 -0.000203594 -0.000202281 -5.74409e-05
0.000667762 -0.000201227 -0.000199944 -5.74398e-05
0.0011125 -0.000334292 -0.000333516 -3.44741e-05
0.00112555 -0.000338222 -0.000337428 -3.44748e-05
0.000671672 -0.00020241 -0.000201112 -5.74404e-05
0.000890112 -0.000267777 -0.000266715 -4.73949e-05
0.00111902 -0.000336257 -0.000335472 -3.44744e-05
0.000900551 -0.000270926 -0.000269839 -4.73958e-05
0.000895331 -0.000269351 -0.000268277 -4.73953e-05
0.000667762 -0.000201227 -0.000199944 -5.74398e-05
0.000659941 -0.000198859 -0.000197607 -5.74388e-05
0.00109944 -0.000330362 -0.000329604 -3.44733e-05
0.0011125 -0.000334292 -0.000333516 -3.44741e-05
0.000663852 -0.000200043 -0.000198775 -5.74393e-05
0.000879672 -0.000264627 -0.000263591 -4.73939e-05
0.00110597 -0.000332327 -0.00033156 -3.44737e-05
0.000890112 -0.000267777 -0.000266715 -4.73949e-05
0.000884892 -0.000266202 -0.000265153 -4.73944e-05
0.000659941 -0.000198859 -0.000197607 -5.74388e-05
0.00065212 -0.000196492 -0.000195269 -5.74378e-05
0.00108638 -0.000326431 -0.000325692 -3.44726e-05
0.00109944 -0.000330362 -0.000329604 -3.44733e-05
0.000656031 -0.000197676 -0.000196438 -5.74383e-05
0.000869233 -0.000261478 -0.000260466 -4.7393e-05
0.00109291 -0.000328397 -0.000327648 -3.4473e-05
0.000879672 -0.000264627 -0.000263591 -4.73939e-05
0.000874453 -0.000263053 -0.000262029 -4.73935e-05
0.00065212 -0.000196492 -0.000195269 -5.74378e-05
0.000644299 -0.000194125 -0.000192932 -5.74367e-05
0.00107332 -0.000322501 -0.00032178 -3.44718e-05
0.00108638 -0.000326431 -0.000325692 -3.44726e-05
0.00064821 -0.000195308 -0.000194101 -5.74372e-05
0.000858794 -0.000258329 -0.000257342 -4.7392e-05
0.00107985 -0.000324466 -0.000323736 -3.44722e-05
0.000869233 -0.000261478 -0.000260466 -4.7393e-05
0.000864014 -0.000259904 -0.000258904 -4.73925e-05
0.000644299 -0.000194125 -0.000192932 -5.74367e-05
0.000636478 -0.000191758 -0.000190594 -5.74357e-05
0.00106026 -0.000318571 -0.000317868 -3.44711e-05
0.00107332 -0.000322501 -0.00032178 -3.44718e-05
0.000640388 -0.000192941 -0.000191763 -5.74362e-05
0.000848354 -0.000255181 -0.000254217 -4.73911e-05
0.00106679 -0.000320536 -0.000319824 -3.44715e-05
0.000858794 -0.000258329 -0.000257342 -4.7392e-05
0.000853574 -0.000256755 -0.00025578 -4.73916e-05
0.000636478 -0.000191758 -0.000190594 -5.74357e-05
0.000628656 -0.000189391 -0.000188256 -5.74347e-05
0.0010472 -0.000314642 -0.000313955 -3.44704e-05
0.00106026 -0.000318571 -0.000317868 -3.44711e-05
0.000632567 -0.000190575 -0.000189425 -5.74352e-05
0.000837915 -0.000252032 -0.000251093 -4.73902e-05
0.00105373 -0.000316607 -0.000315912 -3.44707e-05
0.000848354 -0.000255181 -0.000254217 -4.73911e-05
0.000843135 -0.000253606 -0.000252655 -4.73906e-05
0.000628656 -0.000189391 -0.000188256 -5.74347e-05
0.000620834 -0.000187025 -0.000185918 -5.74336e-05
0.00103415 -0.000310712 -0.000310043 -3.44696e-05
0.0010472 -0.000314642 -0.000313955 -3.44704e-05
0.000624745 -0.000188208 -0.000187087 -5.74342e-05
0.000827475 -0.000248883 -0.000247968 -4.73893e-05
0.00104068 -0.000312677 -0.000311999 -3.447e-05
0.000837915 -0.000252032 -0.000251093 -4.73902e-05
0.000832695 -0.000250458 -0.00024953 -4.73897e-05
0.000620834 -0.000187025 -0.000185918 -5.74336e-05
0.000613012 -0.000184658 -0.00018358 -5.74326e-05
0.00102109 -0.000306782 -0.000306131 -3.44689e-05
0.00103415 -0.000310712 -0.000310043 -3.44696e-05
0.000616923 -0.000185842 -0.000184749 -5.74331e-05
0.000817035 -0.000245735 -0.000244843 -4.73883e-05
0.00102762 -0.000308747 -0.000308087 -3.44693e-05
0.000827475 -0.000248883 -0.000247968 -4.73893e-05
0.000822255 -0.000247309 -0.000246405 -4.73888e-05
0.000613012 -0.000184658 -0.00018358 -5.74326e-05
0.00060519 -0.000182292 -0.000181242 -5.74316e-05
0.00100803 -0.000302853 -0.000302218 -3.44682e-05
0.00102109 -0.000306782 -0.000306131 -3.44689e-05
0.000609101 -0.000183475 -0.000182411 -5.74321e-05
0.000806595 -0.000242587 -0.000241718 -4.73874e-05
0.00101456 -0.000304818 -0.000304174 -3.44685e-05
0.000817035 -0.000245735 -0.000244843 -4.73883e-05
0.000811815 -0.000244161 -0.00024328 -4.73879e-05
0.00060519 -0.000182292 -0.000181242 -5.74316e-05
0.000597368 -0.000179926 -0.000178903 -5.74306e-05
0.00099497 -0.000298924 -0.000298305 -3.44675e-05
0.00100803 -0.000302853 -0.000302218 -3.44682e-05
0.000601279 -0.000181109 -0.000180073 -5.74311e-05
0.000796155 -0.000239439 -0.000238593 -4.73865e-05
0.0010015 -0.000300888 -0.000300262 -3.44678e-05
0.000806595 -0.000242587 -0.000241718 -4.73874e-05
0.000801375 -0.000241013 -0.000240155 -4.7387e-05
0.000597368 -0.000179926 -0.000178903 -5.74306e-05
0.000589545 -0.000177561 -0.000176565 -5.74296e-05
0.000981911 -0.000294995 -0.000294393 -3.44667e-05
0.00099497 -0.000298924 -0.000298305 -3.44675e-05
0.000593456 -0.000178743 -0.000177734 -5.74301e-05
0.000785715 -0.000236291 -0.000235467 -4.73856e-05
0.00098844 -0.000296959 -0.000296349 -3.44671e-05
0.000796155 -0.000239439 -0.000238593 -4.73865e-05
0.000790935 -0.000237865 -0.00023703 -4.73861e-05
0.000589545 -0.000177561 -0.000176565 -5.74296e-05
0.000581722 -0.000175195 -0.000174226 -5.74286e-05
0.000968852 -0.000291066 -0.00029048 -3.4466e-05
0.000981911 -0.000294995 -0.000294393 -3.44667e-05
0.000585634 -0.000176378 -0.000175395 -5.74291e-05
0.000775274 -0.000233143 -0.000232342 -4.73847e-05
0.000975382 -0.00029303 -0.000292436 -3.44664e-05
0.000785715 -0.000236291 -0.000235467 -4.73856e-05
0.000780494 -0.000234717 -0.000233904 -4.73852e-05
0.000581722 -0.000175195 -0.000174226 -5.74286e-05
0.000573899 -0.00017283 -0.000171887 -5.74277e-05
0.000955793 -0.000287137 -0.000286567 -3.44653e-05
0.000968852 -0.000291066 -0.00029048 -3.4466e-05
0.000577811 -0.000174012 -0.000173056 -5.74281e-05
0.000764834 -0.000229996 -0.000229216 -4.73838e-05
0.000962323 -0.000289101 -0.000288524 -3.44657e-05
0.000775274 -0.000233143 -0.000232342 -4.73847e-05
0.000770054 -0.00023157 -0.000230779 -4.73843e-05
0.000573899 -0.00017283 -0.000171887 -5.74277e-05
0.000566076 -0.000170464 -0.000169548 -5.74267e-05
0.000942734 -0.000283208 -0.000282654 -3.44646e-05
0.000955793 -0.000287137 -0.000286567 -3.44653e-05
0.000569988 -0.000171647 -0.000170717 -5.74272e-05
0.000754393 -0.000226849 -0.00022609 -4.73829e-05
0.000949264 -0.000285172 -0.000284611 -3.4465e-05
0.000764834 -0.000229996 -0.000229216 -4.73838e-05
0.000759613 -0.000228422 -0.000227653 -4.73834e-05
0.000566076 -0.000170464 -0.000169548 -5.74267e-05
0.000558253 -0.000168099 -0.000167208 -5.74257e-05
0.000929675 -0.000279279 -0.000278741 -3.44639e-05
0.000942734 -0.000283208 -0.000282654 -3.44646e-05
0.000562164 -0.000169282 -0.000168378 -5.74262e-05
0.000743952 -0.000223701 -0.000222964 -4.73821e-05
0.000936205 -0.000281244 -0.000280698 -3.44643e-05
0.000754393 -0.000226849 -0.00022609 -4.73829e-05
0.000749172 -0.000225275 -0.000224527 -4.73825e-05
0.000558253 -0.000168099 -0.000167208 -5.74257e-05
0.000550429 -0.000165735 -0.000164869 -5.74247e-05
0.000916616 -0.000275351 -0.000274828 -3.44632e-05
0.000929675 -0.000279279 -0.000278741 -3.44639e-05
0.000554341 -0.000166917 -0.000166039 -5.74252e-05
0.000733511 -0.000220554 -0.000219838 -4.73812e-05
0.000923146 -0.000277315 -0.000276785 -3.44636e-05
0.000743952 -0.000223701 -0.000222964 -4.73821e-05
0.000738731 -0.000222128 -0.000221401 -4.73816e-05
0.000550429 -0.000165735 -0.000164869 -5.74247e-05
0.000542605 -0.00016337 -0.000162529 -5.74238e-05
0.000903557 -0.000271422 -0.000270915 -3.44625e-05
0.000916616 -0.000275351 -0.000274828 -3.44632e-05
0.000546517 -0.000164552 -0.000163699 -5.74243e-05
0.00072307 -0.000217408 -0.000216712 -4.73803e-05
0.000910087 -0.000273387 -0.000272871 -3.44629e-05
0.000733511 -0.000220554 -0.000219838 -4.73812e-05
0.00072829 -0.000218981 -0.000218275 -4.73807e-05
0.000542605 -0.00016337 -0.000162529 -5.74238e-05
0.000534781 -0.000161005 -0.000160189 -5.74228e-05
0.000890498 -0.000267494 -0.000267002 -3.44618e-05
0.000903557 -0.000271422 -0.000270915 -3.44625e-05
0.000538693 -0.000162188 -0.000161359 -5.74233e-05
0.000712628 -0.000214261 -0.000213586 -4.73794e-05
0.000897027 -0.000269458 -0.000268958 -3.44622e-05
0.00072307 -0.000217408 -0.000216712 -4.73803e-05
0.000717849 -0.000215834 -0.000215149 -4.73799e-05
0.000534781 -0.000161005 -0.000160189 -5.74228e-05
0.000526957 -0.000158641 -0.000157849 -5.74219e-05
0.000877438 -0.000263566 -0.000263088 -3.44611e-05
0.000890498 -0.000267494 -0.000267002 -3.44618e-05
0.000530869 -0.000159823 -0.000159019 -5.74224e-05
0.000702187 -0.000211114 -0.00021046 -4.73786e-05
0.000883968 -0.00026553 -0.000265045 -3.44615e-05
0.000712628 -0.000214261 -0.000213586 -4.73794e-05
0.000707407 -0.000212688 -0.000212023 -4.7379e-05
0.000526957 -0.000158641 -0.000157849 -5.74219e-05
0.000519132 -0.000156277 -0.000155509 -5.7421e-05
0.000864379 -0.000259638 -0.000259175 -3.44605e-05
0.000877438 -0.000263566 -0.000263088 -3.44611e-05
0.000523044 -0.000157459 -0.000156679 -5.74214e-05
0.000691745 -0.000207968 -0.000207333 -4.73777e-05
0.000870909 -0.000261602 -0.000261131 -3.44608e-05
0.000702187 -0.000211114 -0.00021046 -4.73786e-05
0.000696966 -0.000209541 -0.000208896 -4.73782e-05
0.000519132 -0.000156277 -0.000155509 -5.7421e-05
0.000511307 -0.000153913 -0.000153169 -5.742e-05
0.000851319 -0.00025571 -0.000255261 -3.44598e-05
0.000864379 -0.000259638 -0.000259175 -3.44605e-05
0.00051522 -0.000155095 -0.000154339 -5.74205e-05
0.000681303 -0.000204822 -0.000204206 -4.73769e-05
0.000857849 -0.000257674 -0.000257218 -3.44601e-05
0.000691745 -0.000207968 -0.000207333 -4.73777e-05
0.000686524 -0.000206395 -0.00020577 -4.73773e-05
0.000511307 -0.000153913 -0.000153169 -5.742e-05
0.000503482 -0.000151549 -0.000150828 -5.74191e-05
0.00083826 -0.000251782 -0.000251347 -3.44591e-05
0.000851319 -0.00025571 -0.000255261 -3.44598e-05
0.000507395 -0.000152731 -0.000151999 -5.74196e-05
0.000670861 -0.000201676 -0.000201079 -4.7376e-05
0.00084479 -0.000253746 -0.000253304 -3.44595e-05
0.000681303 -0.000204822 -0.000204206 -4.73769e-05
0.000676082 -0.000203249 -0.000202643 -4.73765e-05
0.000503482 -0.000151549 -0.000150828 -5.74191e-05
0.000495657 -0.000149186 -0.000148488 -5.74182e-05
0.0008252 -0.000247855 -0.000247434 -3.44585e-05
0.00083826 -0.000251782 -0.000251347 -3.44591e-05
0.00049957 -0.000150368 -0.000149658 -5.74187e-05
0.000660419 -0.00019853 -0.000197953 -4.73752e-05
0.00083173 -0.000249819 -0.000249391 -3.44588e-05
0.000670861 -0.000201676 -0.000201079 -4.7376e-05
0.00066564 -0.000200103 -0.000199516 -4.73756e-05
0.000495657 -0.000149186 -0.000148488 -5.74182e-05
0.000487832 -0.000146823 -0.000146147 -5.74173e-05
0.00081214 -0.000243927 -0.00024352 -3.44578e-05
0.0008252 -0.000247855 -0.000247434 -3.44585e-05
0.000491744 -0.000148004 -0.000147317 -5.74177e-05
0.000649977 -0.000195384 -0.000194825 -4.73744e-05
0.00081867 -0.000245891 -0.000245477 -3.44581e-05
0.000660419 -0.00019853 -0.000197953 -4.73752e-05
0.000655198 -0.000196957 -0.000196389 -4.73748e-05
0.000487832 -0.000146823 -0.000146147 -5.74173e-05
0.000480006 -0.000144459 -0.000143806 -5.74164e-05
0.000799081 -0.00024 -0.000239606 -3.44571e-05
0.00081214 -0.000243927 -0.00024352 -3.44578e-05
0.000483919 -0.000145641 -0.000144976 -5.74168e-05
0.000639534 -0.000192239 -0.000191698 -4.73735e-05
0.00080561 -0.000241964 -0.000241563 -3.44575e-05
0.000649977 -0.000195384 -0.000194825 -4.73744e-05
0.000644756 -0.000193811 -0.000193262 -4.7374e-05
0.000480006 -0.000144459 -0.000143806 -5.74164e-05
0.00047218 -0.000142096 -0.000141465 -5.74155e-05
0.000786021 -0.000236073 -0.000235692 -3.44565e-05
0.000799081 -0.00024 -0.000239606 -3.44571e-05
0.000476093 -0.000143278 -0.000142635 -5.74159e-05
0.000629092 -0.000189093 -0.000188571 -4.73727e-05
0.000792551 -0.000238036 -0.000237649 -3.44568e-05
0.000639534 -0.000192239 -0.000191698 -4.73735e-05
0.000634313 -0.000190666 -0.000190135 -4.73731e-05
0.00047218 -0.000142096 -0.000141465 -5.74155e-05
0.000464354 -0.000139734 -0.000139123 -5.74146e-05
0.000772961 -0.000232146 -0.000231778 -3.44558e-05
0.000786021 -0.000236073 -0.000235692 -3.44565e-05
0.000468267 -0.000140915 -0.000140294 -5.74151e-05
0.000618649 -0.000185948 -0.000185443 -4.73719e-05
0.000779491 -0.000234109 -0.000233735 -3.44561e-05
0.000629092 -0.000189093 -0.000188571 -4.73727e-05
0.00062387 -0.000187521 -0.000187007 -4.73723e-05
0.000464354 -0.000139734 -0.000139123 -5.74146e-05
0.000456528 -0.000137371 -0.000136782 -5.74137e-05
0.0007599 -0.000228219 -0.000227864 -3.44552e-05
0.000772961 -0.000232146 -0.000231778 -3.44558e-05
0.000460441 -0.000138552 -0.000137952 -5.74142e-05
0.000608206 -0.000182803 -0.000182316 -4.73711e-05
0.00076643 -0.000230182 -0.000229821 -3.44555e-05
0.000618649 -0.000185948 -0.000185443 -4.73719e-05
0.000613428 -0.000184375 -0.000183879 -4.73715e-05
0.000456528 -0.000137371 -0.000136782 -5.74137e-05
0.000448701 -0.000135009 -0.00013444 -5.74129e-05
0.00074684 -0.000224292 -0.000223949 -3.44545e-05
0.0007599 -0.000228219 -0.000227864 -3.44552e-05
0.000452615 -0.00013619 -0.000135611 -5.74133e-05
0.000597763 -0.000179658 -0.000179188 -4.73703e-05
0.00075337 -0.000226255 -0.000225906 -3.44549e-05
0.000608206 -0.000182803 -0.000182316 -4.73711e-05
0.000602985 -0.00018123 -0.000180752 -4.73707e-05
0.000448701 -0.000135009 -0.00013444 -5.74129e-05
0.000440875 -0.000132646 -0.000132098 -5.7412e-05
0.00073378 -0.000220365 -0.000220035 -3.44539e-05
0.00074684 -0.000224292 -0.000223949 -3.44545e-05
0.000444788 -0.000133827 -0.000133269 -5.74124e-05
0.00058732 -0.000176513 -0.00017606 -4.73695e-05
0.00074031 -0.000222328 -0.000221992 -3.44542e-05
0.000597763 -0.000179658 -0.000179188 -4.73703e-05
0.000592541 -0.000178086 -0.000177624 -4.73699e-05
0.000440875 -0.000132646 -0.000132098 -5.7412e-05
0.000433048 -0.000130284 -0.000129756 -5.74112e-05
0.000720719 -0.000216438 -0.00021612 -3.44533e-05
0.00073378 -0.000220365 -0.000220035 -3.44539e-05
0.000436961 -0.000131465 -0.000130927 -5.74116e-05
0.000576876 -0.000173369 -0.000172932 -4.73687e-05
0.00072725 -0.000218402 -0.000218078 -3.44536e-05
0.00058732 -0.000176513 -0.00017606 -4.73695e-05
0.000582098 -0.000174941 -0.000174496 -4.73691e-05
0.000433048 -0.000130284 -0.000129756 -5.74112e-05
0.000425221 -0.000127922 -0.000127413 -5.74103e-05
0.000707659 -0.000212512 -0.000212206 -3.44526e-05
0.000720719 -0.000216438 -0.00021612 -3.44533e-05
0.000429134 -0.000129103 -0.000128585 -5.74107e-05
0.000566433 -0.000170224 -0.000169804 -4.7368e-05
0.000714189 -0.000214475 -0.000214163 -3.4453e-05
0.000576876 -0.000173369 -0.000172932 -4.73687e-05
0.000571654 -0.000171796 -0.000171368 -4.73683e-05
0.000425221 -0.000127922 -0.000127413 -5.74103e-05
0.000417393 -0.000125561 -0.000125071 -5.74095e-05
0.000694598 -0.000208585 -0.000208291 -3.4452e-05
0.000707659 -0.000212512 -0.000212206 -3.44526e-05
0.000421307 -0.000126742 -0.000126242 -5.74099e-05
0.000555989 -0.00016708 -0.000166675 -4.73672e-05
0.000701129 -0.000210549 -0.000210249 -3.44523e-05
0.000566433 -0.000170224 -0.000169804 -4.7368e-05
0.000561211 -0.000168652 -0.000168239 -4.73676e-05
0.000417393 -0.000125561 -0.000125071 -5.74095e-05
0.000409565 -0.000123199 -0.000122728 -5.74087e-05
0.000681537 -0.000204659 -0.000204376 -3.44514e-05
0.000694598 -0.000208585 -0.000208291 -3.4452e-05
0.000413479 -0.00012438 -0.0001239 -5.74091e-05
0.000545545 -0.000163936 -0.000163547 -4.73664e-05
0.000688068 -0.000206622 -0.000206334 -3.44517e-05
0.000555989 -0.00016708 -0.000166675 -4.73672e-05
0.000550767 -0.000165508 -0.000165111 -4.73668e-05
0.000409565 -0.000123199 -0.000122728 -5.74087e-05
0.000401738 -0.000120838 -0.000120386 -5.74078e-05
0.000668477 -0.000200733 -0.000200462 -3.44508e-05
0.000681537 -0.000204659 -0.000204376 -3.44514e-05
0.000405652 -0.000122018 -0.000121557 -5.74082e-05
0.000535101 -0.000160792 -0.000160418 -4.73657e-05
0.000675007 -0.000202696 -0.000202419 -3.44511e-05
0.000545545 -0.000163936 -0.000163547 -4.73664e-05
0.000540323 -0.000162364 -0.000161983 -4.7366e-05
0.000401738 -0.000120838 -0.000120386 -5.74078e-05
0.000393909 -0.000118477 -0.000118043 -5.7407e-05
0.000655416 -0.000196807 -0.000196547 -3.44502e-05
0.000668477 -0.000200733 -0.000200462 -3.44508e-05
0.000397823 -0.000119657 -0.000119214 -5.74074e-05
0.000524656 -0.000157648 -0.000157289 -4.73649e-05
0.000661946 -0.00019877 -0.000198504 -3.44505e-05
0.000535101 -0.000160792 -0.000160418 -4.73657e-05
0.000529879 -0.00015922 -0.000158854 -4.73653e-05
0.000393909 -0.000118477 -0.000118043 -5.7407e-05
0.000386081 -0.000116116 -0.000115699 -5.74062e-05
0.000642355 -0.000192881 -0.000192632 -3.44496e-05
0.000655416 -0.000196807 -0.000196547 -3.44502e-05
0.000389995 -0.000117296 -0.000116871 -5.74066e-05
0.000514212 -0.000154504 -0.000154161 -4.73642e-05
0.000648885 -0.000194844 -0.000194589 -3.44499e-05
0.000524656 -0.000157648 -0.000157289 -4.73649e-05
0.000519434 -0.000156076 -0.000155725 -4.73645e-05
0.000386081 -0.000116116 -0.000115699 -5.74062e-05
0.000378252 -0.000113755 -0.000113356 -5.74054e-05
0.000629293 -0.000188955 -0.000188716 -3.4449e-05
0.000642355 -0.000192881 -0.000192632 -3.44496e-05
0.000382167 -0.000114935 -0.000114528 -5.74058e-05
0.000503767 -0.000151361 -0.000151031 -4.73634e-05
0.000635824 -0.000190918 -0.000190674 -3.44493e-05
0.000514212 -0.000154504 -0.000154161 -4.73642e-05
0.00050899 -0.000152932 -0.000152596 -4.73638e-05
0.000378252 -0.000113755 -0.000113356 -5.74054e-05
0.000370424 -0.000111394 -0.000111013 -5.74047e-05
0.000616232 -0.00018503 -0.000184801 -3.44484e-05
0.000629293 -0.000188955 -0.000188716 -3.4449e-05
0.000374338 -0.000112575 -0.000112184 -5.7405e-05
0.000493322 -0.000148217 -0.000147902 -4.73627e-05
0.000622763 -0.000186992 -0.000186759 -3.44487e-05
0.000503767 -0.000151361 -0.000151031 -4.73634e-05
0.000498545 -0.000149789 -0.000149467 -4.73631e-05
0.000370424 -0.000111394 -0.000111013 -5.74047e-05
0.000362595 -0.000109034 -0.000108669 -5.74039e-05
0.000603171 -0.000181104 -0.000180886 -3.44478e-05
0.000616232 -0.00018503 -0.000184801 -3.44484e-05
0.000366509 -0.000110214 -0.000109841 -5.74043e-05
0.000482877 -0.000145074 -0.000144773 -4.7362e-05
0.000609701 -0.000183067 -0.000182843 -3.44481e-05
0.000493322 -0.000148217 -0.000147902 -4.73627e-05
0.0004881 -0.000146646 -0.000146338 -4.73623e-05
0.000362595 -0.000109034 -0.000108669 -5.74039e-05
0.000354765 -0.000106674 -0.000106325 -5.74031e-05
0.000590109 -0.000177178 -0.00017697 -3.44472e-05
0.000603171 -0.000181104 -0.000180886 -3.44478e-05
0.00035868 -0.000107854 -0.000107497 -5.74035e-05
0.000472432 -0.000141931 -0.000141643 -4.73613e-05
0.00059664 -0.000179141 -0.000178928 -3.44475e-05
0.000482877 -0.000145074 -0.000144773 -4.7362e-05
0.000477655 -0.000143502 -0.000143208 -4.73616e-05
0.000354765 -0.000106674 -0.000106325 -5.74031e-05
0.000346936 -0.000104313 -0.000103981 -5.74024e-05
0.000577047 -0.000173253 -0.000173055 -3.44467e-05
0.000590109 -0.000177178 -0.00017697 -3.44472e-05
0.00035085 -0.000105493 -0.000105153 -5.74027e-05
0.000461987 -0.000138788 -0.000138514 -4.73606e-05
0.000583578 -0.000175216 -0.000175012 -3.4447e-05
0.000472432 -0.000141931 -0.000141643 -4.73613e-05
0.00046721 -0.000140359 -0.000140079 -4.73609e-05
0.000346936 -0.000104313 -0.000103981 -5.74024e-05
0.000339106 -0.000101954 -0.000101637 -5.74016e-05
0.000563986 -0.000169328 -0.000169139 -3.44461e-05
0.000577047 -0.000173253 -0.000173055 -3.44467e-05
0.000343021 -0.000103133 -0.000102809 -5.7402e-05
0.000451541 -0.000135645 -0.000135384 -4.73599e-05
0.000570517 -0.00017129 -0.000171097 -3.44464e-05
0.000461987 -0.000138788 -0.000138514 -4.73606e-05
0.000456764 -0.000137217 -0.000136949 -4.73602e-05
0.000339106 -0.000101954 -0.000101637 -5.74016e-05
0.000331276 -9.95938e-05 -9.92923e-05 -5.74009e-05
0.000550924 -0.000165403 -0.000165223 -3.44455e-05
0.000563986 -0.000169328 -0.000169139 -3.44461e-05
0.000335191 -0.000100774 -0.000100465 -5.74012e-05
0.000441095 -0.000132503 -0.000132254 -4.73592e-05
0.000557455 -0.000167365 -0.000167181 -3.44458e-05
0.000451541 -0.000135645 -0.000135384 -4.73599e-05
0.000446318 -0.000134074 -0.000133819 -4.73595e-05
0.000331276 -9.95938e-05 -9.92923e-05 -5.74009e-05
0.000323446 -9.72343e-05 -9.69477e-05 -5.74002e-05
0.000537862 -0.000161478 -0.000161307 -3.4445e-05
0.000550924 -0.000165403 -0.000165223 -3.44455e-05
0.000327361 -9.8414e-05 -9.812e-05 -5.74005e-05
0.00043065 -0.00012936 -0.000129124 -4.73585e-05
0.000544393 -0.00016344 -0.000163265 -3.44453e-05
0.000441095 -0.000132503 -0.000132254 -4.73592e-05
0.000435873 -0.000130931 -0.000130689 -4.73588e-05
0.000323446 -9.72343e-05 -9.69477e-05 -5.74002e-05
0.000315615 -9.48749e-05 -9.46029e-05 -5.73994e-05
0.000524799 -0.000157553 -0.000157391 -3.44444e-05
0.000537862 -0.000161478 -0.000161307 -3.4445e-05
0.00031953 -9.60546e-05 -9.57753e-05 -5.73998e-05
0.000420203 -0.000126218 -0.000125994 -4.73578e-05
0.000531331 -0.000159515 -0.000159349 -3.44447e-05
0.00043065 -0.00012936 -0.000129124 -4.73585e-05
0.000425426 -0.000127789 -0.000127559 -4.73582e-05
0.000315615 -9.48749e-05 -9.46029e-05 -5.73994e-05
0.000307784 -9.25157e-05 -9.2258e-05 -5.73987e-05
0.000511737 -0.000153628 -0.000153475 -3.44439e-05
0.000524799 -0.000157553 -0.000157391 -3.44444e-05
0.0003117 -9.36953e-05 -9.34305e-05 -5.73991e-05
0.000409757 -0.000123076 -0.000122863 -4.73572e-05
0.000518268 -0.00015559 -0.000155433 -3.44442e-05
0.000420203 -0.000126218 -0.000125994 -4.73578e-05
0.00041498 -0.000124647 -0.000124429 -4.73575e-05
0.000307784 -9.25157e-05 -9.2258e-05 -5.73987e-05
0.000299953 -9.01567e-05 -8.99128e-05 -5.7398e-05
0.000498675 -0.000149703 -0.000149559 -3.44434e-05
0.000511737 -0.000153628 -0.000153475 -3.44439e-05
0.000303869 -9.13362e-05 -9.10854e-05 -5.73984e-05
0.00039931 -0.000119934 -0.000119733 -4.73565e-05
0.000505206 -0.000151666 -0.000151517 -3.44436e-05
0.000409757 -0.000123076 -0.000122863 -4.73572e-05
0.000404534 -0.000121505 -0.000121298 -4.73568e-05
0.000299953 -9.01567e-05 -8.99128e-05 -5.7398e-05
0.000292122 -8.77978e-05 -8.75675e-05 -5.73973e-05
0.000485612 -0.000145779 -0.000145643 -3.44428e-05
0.000498675 -0.000149703 -0.000149559 -3.44434e-05
0.000296038 -8.89772e-05 -8.87402e-05 -5.73977e-05
0.000388864 -0.000116792 -0.000116602 -4.73558e-05
0.000492143 -0.000147741 -0.000147601 -3.44431e-05
0.00039931 -0.000119934 -0.000119733 -4.73565e-05
0.000394087 -0.000118363 -0.000118168 -4.73562e-05
0.000292122 -8.77978e-05 -8.75675e-05 -5.73973e-05
0.00028429 -8.54391e-05 -8.5222e-05 -5.73967e-05
0.000472549 -0.000141854 -0.000141726 -3.44423e-05
0.000485612 -0.000145779 -0.000145643 -3.44428e-05
0.000288206 -8.66185e-05 -8.63948e-05 -5.7397e-05
0.000378417 -0.00011365 -0.000113472 -4.73552e-05
0.000479081 -0.000143817 -0.000143685 -3.44426e-05
0.000388864 -0.000116792 -0.000116602 -4.73558e-05
0.00038364 -0.000115221 -0.000115037 -4.73555e-05
0.00028429 -8.54391e-05 -8.5222e-05 -5.73967e-05
0.000276459 -8.30806e-05 -8.28763e-05 -5.7396e-05
0.000459487 -0.00013793 -0.00013781 -3.44418e-05
0.000472549 -0.000141854 -0.000141726 -3.44423e-05
0.000280375 -8.42599e-05 -8.40492e-05 -5.73963e-05
0.00036797 -0.000110508 -0.000110341 -4.73546e-05
0.000466018 -0.000139892 -0.000139768 -3.4442e-05
0.000378417 -0.00011365 -0.000113472 -4.73552e-05
0.000373193 -0.000112079 -0.000111906 -4.73549e-05
0.000276459 -8.30806e-05 -8.28763e-05 -5.7396e-05
0.000268627 -8.07223e-05 -8.05304e-05 -5.73953e-05
0.000446424 -0.000134006 -0.000133893 -3.44413e-05
0.000459487 -0.00013793 -0.00013781 -3.44418e-05
0.000272543 -8.19015e-05 -8.17034e-05 -5.73957e-05
0.000357522 -0.000107367 -0.000107209 -4.73539e-05
0.000452955 -0.000135968 -0.000135852 -3.44415e-05
0.00036797 -0.000110508 -0.000110341 -4.73546e-05
0.000362746 -0.000108938 -0.000108775 -4.73542e-05
0.000268627 -8.07223e-05 -8.05304e-05 -5.73953e-05
0.000260794 -7.83642e-05 -7.81844e-05 -5.73947e-05
0.00043336 -0.000130082 -0.000129977 -3.44407e-05
0.000446424 -0.000134006 -0.000133893 -3.44413e-05
0.000264711 -7.95432e-05 -7.93574e-05 -5.7395e-05
0.000347075 -0.000104226 -0.000104078 -4.73533e-05
0.000439892 -0.000132044 -0.000131935 -3.4441e-05
0.000357522 -0.000107367 -0.000107209 -4.73539e-05
0.000352298 -0.000105796 -0.000105644 -4.73536e-05
0.000260794 -7.83642e-05 -7.81844e-05 -5.73947e-05
0.000252962 -7.60062e-05 -7.58381e-05 -5.7394e-05
0.000420297 -0.000126158 -0.00012606 -3.44402e-05
0.00043336 -0.000130082 -0.000129977 -3.44407e-05
0.000256878 -7.71852e-05 -7.70113e-05 -5.73944e-05
0.000336627 -0.000101084 -0.000100947 -4.73527e-05
0.000426829 -0.00012812 -0.000128018 -3.44405e-05
0.000347075 -0.000104226 -0.000104078 -4.73533e-05
0.000341851 -0.000102655 -0.000102513 -4.7353e-05
0.000252962 -7.60062e-05 -7.58381e-05 -5.7394e-05
0.000245129 -7.36484e-05 -7.34917e-05 -5.73934e-05
0.000407234 -0.000122234 -0.000122143 -3.44398e-05
0.000420297 -0.000126158 -0.00012606 -3.44402e-05
0.000249045 -7.48273e-05 -7.46649e-05 -5.73937e-05
0.000326179 -9.79433e-05 -9.78152e-05 -4.73521e-05
0.000413765 -0.000124196 -0.000124101 -3.444e-05
0.000336627 -0.000101084 -0.000100947 -4.73527e-05
0.000331403 -9.95138e-05 -9.9381e-05 -4.73524e-05
0.000245129 -7.36484e-05 -7.34917e-05 -5.73934e-05
0.000237296 -7.12908e-05 -7.11451e-05 -5.73928e-05
0.00039417 -0.00011831 -0.000118226 -3.44393e-05
0.000407234 -0.000122234 -0.000122143 -3.44398e-05
0.000241213 -7.24696e-05 -7.23184e-05 -5.73931e-05
0.000315731 -9.48025e-05 -9.46835e-05 -4.73515e-05
0.000400702 -0.000120272 -0.000120184 -3.44395e-05
0.000326179 -9.79433e-05 -9.78152e-05 -4.73521e-05
0.000320955 -9.63729e-05 -9.62494e-05 -4.73518e-05
0.000237296 -7.12908e-05 -7.11451e-05 -5.73928e-05
0.000229463 -6.89333e-05 -6.87983e-05 -5.73922e-05
0.000381106 -0.000114386 -0.000114309 -3.44388e-05
0.00039417 -0.00011831 -0.000118226 -3.44393e-05
0.000233379 -7.0112e-05 -6.99717e-05 -5.73925e-05
0.000305282 -9.16618e-05 -9.15517e-05 -4.7351e-05
0.000387638 -0.000116348 -0.000116267 -3.4439e-05
0.000315731 -9.48025e-05 -9.46835e-05 -4.73515e-05
0.000310507 -9.32321e-05 -9.31176e-05 -4.73513e-05
0.000229463 -6.89333e-05 -6.87983e-05 -5.73922e-05
0.000221629 -6.65761e-05 -6.64513e-05 -5.73917e-05
0.000368042 -0.000110463 -0.000110391 -3.44384e-05
0.000381106 -0.000114386 -0.000114309 -3.44388e-05
0.000225546 -6.77547e-05 -6.76248e-05 -5.7392e-05
0.000294834 -8.85212e-05 -8.84197e-05 -4.73505e-05
0.000374574 -0.000112424 -0.00011235 -3.44386e-05
0.000305282 -9.16618e-05 -9.15517e-05 -4.7351e-05
0.000300058 -9.00915e-05 -8.99857e-05 -4.73507e-05
0.000221629 -6.65761e-05 -6.64513e-05 -5.73917e-05
0.000213795 -6.4219e-05 -6.41041e-05 -5.73912e-05
0.000354978 -0.000106539 -0.000106474 -3.4438e-05
0.000368042 -0.000110463 -0.000110391 -3.44384e-05
0.000217712 -6.53975e-05 -6.52777e-05 -5.73914e-05
0.000284385 -8.53808e-05 -8.52875e-05 -4.735e-05
0.00036151 -0.000108501 -0.000108433 -3.44382e-05
0.000294834 -8.85212e-05 -8.84197e-05 -4.73505e-05
0.000289609 -8.6951e-05 -8.68536e-05 -4.73502e-05
0.000213795 -6.4219e-05 -6.41041e-05 -5.73912e-05
0.000205961 -6.18621e-05 -6.17567e-05 -5.73907e-05
0.000341914 -0.000102616 -0.000102556 -3.44376e-05
0.000354978 -0.000106539 -0.000106474 -3.4438e-05
0.000209878 -6.30406e-05 -6.29304e-05 -5.73909e-05
0.000273936 -8.22405e-05 -8.21551e-05 -4.73495e-05
0.000348446 -0.000104577 -0.000104515 -3.44378e-05
0.000284385 -8.53808e-05 -8.52875e-05 -4.735e-05
0.00027916 -8.38106e-05 -8.37213e-05 -4.73497e-05
0.000205961 -6.18621e-05 -6.17567e-05 -5.73907e-05
0.000198127 -5.95055e-05 -5.94092e-05 -5.73902e-05
0.000328849 -9.86924e-05 -9.86387e-05 -3.44372e-05
0.000341914 -0.000102616 -0.000102556 -3.44376e-05
0.000202044 -6.06838e-05 -6.0583e-05 -5.73904e-05
0.000263487 -7.91004e-05 -7.90226e-05 -4.73491e-05
0.000335382 -0.000100654 -0.000100598 -3.44374e-05
0.000273936 -8.22405e-05 -8.21551e-05 -4.73495e-05
0.000268711 -8.06704e-05 -8.05889e-05 -4.73493e-05
0.000198127 -5.95055e-05 -5.94092e-05 -5.73902e-05
0.000190292 -5.7149e-05 -5.70614e-05 -5.73898e-05
0.000315785 -9.47692e-05 -9.4721e-05 -3.44369e-05
0.000328849 -9.86924e-05 -9.86387e-05 -3.44372e-05
0.00019421 -5.83272e-05 -5.82353e-05 -5.739e-05
0.000253037 -7.59605e-05 -7.589e-05 -4.73487e-05
0.000322317 -9.67308e-05 -9.66799e-05 -3.44371e-05
0.000263487 -7.91004e-05 -7.90226e-05 -4.73491e-05
0.000258262 -7.75304e-05 -7.74563e-05 -4.73489e-05
0.000190292 -5.7149e-05 -5.70614e-05 -5.73898e-05
0.000182458 -5.47927e-05 -5.47135e-05 -5.73895e-05
0.00030272 -9.08461e-05 -9.08031e-05 -3.44367e-05
0.000315785 -9.47692e-05 -9.4721e-05 -3.44369e-05
0.000186375 -5.59708e-05 -5.58875e-05 -5.73896e-05
0.000242587 -7.28207e-05 -7.27572e-05 -4.73484e-05
0.000309252 -9.28076e-05 -9.2762e-05 -3.44368e-05
0.000253037 -7.59605e-05 -7.589e-05 -4.73487e-05
0.000247812 -7.43905e-05 -7.43236e-05 -4.73486e-05
0.000182458 -5.47927e-05 -5.47135e-05 -5.73895e-05
0.000174623 -5.24366e-05 -5.23654e-05 -5.73892e-05
0.000289655 -8.69231e-05 -8.6885e-05 -3.44366e-05
0.00030272 -9.08461e-05 -9.08031e-05 -3.44367e-05
0.00017854 -5.36146e-05 -5.35395e-05 -5.73893e-05
0.000232138 -6.9681e-05 -6.96242e-05 -4.73482e-05
0.000296187 -8.88846e-05 -8.88441e-05 -3.44366e-05
0.000242587 -7.28207e-05 -7.27572e-05 -4.73484e-05
0.000237362 -7.12508e-05 -7.11907e-05 -4.73483e-05
0.000174623 -5.24366e-05 -5.23654e-05 -5.73892e-05
0.000166787 -5.00807e-05 -5.00172e-05 -5.73889e-05
0.00027659 -8.30002e-05 -8.29669e-05 -3.44365e-05
0.000289655 -8.69231e-05 -8.6885e-05 -3.44366e-05
0.000170705 -5.12586e-05 -5.11913e-05 -5.7389e-05
0.000221687 -6.65415e-05 -6.64911e-05 -4.7348e-05
0.000283122 -8.49616e-05 -8.4926e-05 -3.44365e-05
0.000232138 -6.9681e-05 -6.96242e-05 -4.73482e-05
0.000226912 -6.81113e-05 -6.80577e-05 -4.73481e-05
0.000166787 -5.00807e-05 -5.00172e-05 -5.73889e-05
0.000158952 -4.77249e-05 -4.76688e-05 -5.73885e-05
0.000263524 -7.90774e-05 -7.90486e-05 -3.44365e-05
0.00027659 -8.30002e-05 -8.29669e-05 -3.44365e-05
0.00016287 -4.89028e-05 -4.8843e-05 -5.73887e-05
0.000211237 -6.34022e-05 -6.33579e-05 -4.73478e-05
0.000270057 -8.10388e-05 -8.10077e-05 -3.44365e-05
0.000221687 -6.65415e-05 -6.64911e-05 -4.7348e-05
0.000216462 -6.49719e-05 -6.49245e-05 -4.73479e-05
0.000158952 -4.77249e-05 -4.76688e-05 -5.73885e-05
0.000151117 -4.53692e-05 -4.53204e-05 -5.7388e-05
0.000250458 -7.51546e-05 -7.51302e-05 -3.44365e-05
0.000263524 -7.90774e-05 -7.90486e-05 -3.44365e-05
0.000155035 -4.65471e-05 -4.64946e-05 -5.73883e-05
0.000200787 -6.0263e-05 -6.02246e-05 -4.73476e-05
0.000256991 -7.7116e-05 -7.70894e-05 -3.44365e-05
0.000211237 -6.34022e-05 -6.33579e-05 -4.73478e-05
0.000206012 -6.18326e-05 -6.17912e-05 -4.73477e-05
0.000151117 -4.53692e-05 -4.53204e-05 -5.7388e-05
0.000143281 -4.30134e-05 -4.29719e-05 -5.73872e-05
0.000237393 -7.12319e-05 -7.12118e-05 -3.44364e-05
0.000250458 -7.51546e-05 -7.51302e-05 -3.44365e-05
0.000147199 -4.41913e-05 -4.41462e-05 -5.73877e-05
0.000190337 -5.71237e-05 -5.70912e-05 -4.73471e-05
0.000243926 -7.31933e-05 -7.3171e-05 -3.44365e-05
0.000200787 -6.0263e-05 -6.02246e-05 -4.73476e-05
0.000195562 -5.86933e-05 -5.86579e-05 -4.73474e-05
0.000143281 -4.30134e-05 -4.29719e-05 -5.73872e-05
0.000135445 -4.0657e-05 -4.06236e-05 -5.73858e-05
0.000224327 -6.73092e-05 -6.72934e-05 -3.4436e-05
0.000237393 -7.12319e-05 -7.12118e-05 -3.44364e-05
0.000139363 -4.18353e-05 -4.17978e-05 -5.73866e-05
0.000179886 -5.39842e-05 -5.3958e-05 -4.73461e-05
0.00023086 -6.92706e-05 -6.92526e-05 -3.44363e-05
0.000190337 -5.71237e-05 -5.70912e-05 -4.73471e-05
0.000185111 -5.5554e-05 -5.55246e-05 -4.73467e-05
0.000135445 -4.0657e-05 -4.06236e-05 -5.73858e-05
0.000127609 -3.82991e-05 -3.82756e-05 -5.73833e-05
0.000211262 -6.33862e-05 -6.33753e-05 -3.44347e-05
0.000224327 -6.73092e-05 -6.72934e-05 -3.4436e-05
0.000131527 -3.94783e-05 -3.94495e-05 -5.73847e-05
0.000169436 -5.08438e-05 -5.08252e-05 -4.73438e-05
0.000217794 -6.53477e-05 -6.53343e-05 -3.44355e-05
0.000179886 -5.39842e-05 -5.3958e-05 -4.73461e-05
0.000174661 -5.24142e-05 -5.23915e-05 -4.73451e-05
0.000127609 -3.82991e-05 -3.82756e-05 -5.73833e-05
0.00011977 -3.5938e-05 -3.59282e-05 -5.73789e-05
0.000198197 -5.94624e-05 -5.94579e-05 -3.44311e-05
0.000211262 -6.33862e-05 -6.33753e-05 -3.44347e-05
0.00012369 -3.71191e-05 -3.71018e-05 -5.73814e-05
0.000158985 -4.77014e-05 -4.7693e-05 -4.73389e-05
0.000204729 -6.14244e-05 -6.14164e-05 -3.44333e-05
0.000169436 -5.08438e-05 -5.08252e-05 -4.73438e-05
0.000164211 -4.9273e-05 -4.92589e-05 -4.73418e-05
0.00011977 -3.5938e-05 -3.59282e-05 -5.73789e-05
0.000111928 -3.35701e-05 -3.35819e-05 -5.73713e-05
0.000185134 -5.55368e-05 -5.55417e-05 -3.44231e-05
0.000198197 -5.94624e-05 -5.94579e-05 -3.44311e-05
0.00011585 -3.47552e-05 -3.47548e-05 -5.73756e-05
0.000148533 -4.45542e-05 -4.45622e-05 -4.73291e-05
0.000191666 -5.74999e-05 -5.74996e-05 -3.44279e-05
0.000158985 -4.77014e-05 -4.7693e-05 -4.73389e-05
0.000153759 -4.61286e-05 -4.61274e-05 -4.73348e-05
0.000111928 -3.35701e-05 -3.35819e-05 -5.73713e-05
0.000104075 -3.11888e-05 -3.12369e-05 -5.7359e-05
0.000172073 -5.16071e-05 -5.16284e-05 -3.44054e-05
0.000185134 -5.55368e-05 -5.55417e-05 -3.44231e-05
0.000108003 -3.23818e-05 -3.24092e-05 -5.73659e-05
0.000138076 -4.13976e-05 -4.14336e-05 -4.731e-05
0.000178603 -5.35726e-05 -5.35845e-05 -3.4416e-05
0.000148533 -4.45542e-05 -4.45622e-05 -4.73291e-05
0.000143305 -4.29777e-05 -4.29975e-05 -4.73212e-05
0.000104075 -3.11888e-05 -3.12369e-05 -5.7359e-05
9.62024e-05 -2.87817e-05 -2.88946e-05 -5.7339e-05
0.000159014 -4.76692e-05 -4.77193e-05 -3.43698e-05
0.000172073 -5.16071e-05 -5.16284e-05 -3.44054e-05
0.000100142 -2.99895e-05 -3.00652e-05 -5.73503e-05
0.000127609 -3.82216e-05 -3.83089e-05 -4.72737e-05
0.000165544 -4.96397e-05 -4.96733e-05 -3.43905e-05
0.000138076 -4.13976e-05 -4.14336e-05 -4.731e-05
0.000132844 -3.98127e-05 -3.98707e-05 -4.72945e-05
9.62024e-05 -2.87817e-05 -2.88946e-05 -5.7339e-05
8.82853e-05 -2.63276e-05 -2.65533e-05 -5.73091e-05
0.000145961 -4.3715e-05 -4.38196e-05 -3.42974e-05
0.000159014 -4.76692e-05 -4.77193e-05 -3.43698e-05
9.22521e-05 -2.75626e-05 -2.77241e-05 -5.73253e-05
0.000117119 -3.50101e-05 -3.51896e-05 -4.7207e-05
0.000152486 -4.56947e-05 -4.57677e-05 -3.434e-05
0.000127609 -3.82216e-05 -3.83089e-05 -4.72737e-05
0.000122368 -3.66222e-05 -3.67482e-05 -4.72458e-05
8.82853e-05 -2.63276e-05 -2.65533e-05 -5.73091e-05
8.02925e-05 -2.37893e-05 -2.42157e-05 -5.72632e-05
0.000132903 -3.9731e-05 -3.99308e-05 -3.4163e-05
0.000145961 -4.3715e-05 -4.38196e-05 -3.42974e-05
8.42996e-05 -2.50715e-05 -2.53835e-05 -5.72889e-05
0.00010658 -3.17308e-05 -3.20782e-05 -4.70878e-05
0.000139434 -4.17285e-05 -4.18739e-05 -3.42399e-05
0.000117119 -3.50101e-05 -3.51896e-05 -4.7207e-05
0.000111858 -3.33806e-05 -3.36331e-05 -4.71548e-05
8.02925e-05 -2.37893e-05 -2.42157e-05 -5.72632e-05
7.21409e-05 -2.11138e-05 -2.18687e-05 -5.7205e-05
0.00011985 -3.56908e-05 -3.60684e-05 -3.39078e-05
0.000132903 -3.9731e-05 -3.99308e-05 -3.4163e-05
7.62457e-05 -2.24742e-05 -2.30449e-05 -5.72346e-05
9.59474e-05 -2.83417e-05 -2.89739e-05 -4.68825e-05
0.000126373 -3.77185e-05 -3.79947e-05 -3.40562e-05
0.00010658 -3.17308e-05 -3.20782e-05 -4.70878e-05
0.000101278 -3.00559e-05 -3.05239e-05 -4.70009e-05
7.21409e-05 -2.11138e-05 -2.18687e-05 -5.7205e-05
6.37504e-05 -1.82166e-05 -1.95145e-05 -5.71287e-05
0.00010675 -3.15638e-05 -3.22227e-05 -3.34726e-05
0.00011985 -3.56908e-05 -3.60684e-05 -3.39078e-05
6.79763e-05 -1.96962e-05 -2.06915e-05 -5.71706e-05
8.51289e-05 -2.47559e-05 -2.58741e-05 -4.65462e-05
0.000113316 -3.36448e-05 -3.41448e-05 -3.37166e-05
9.59474e-05 -2.83417e-05 -2.89739e-05 -4.68825e-05
9.05698e-05 -2.65749e-05 -2.74264e-05 -4.67295e-05
6.37504e-05 -1.82166e-05 -1.95145e-05 -5.71287e-05
5.49015e-05 -1.50276e-05 -1.70888e-05 -5.70845e-05
9.36222e-05 -2.72734e-05 -2.84352e-05 -3.27087e-05
0.00010675 -3.15638e-05 -3.22227e-05 -3.34726e-05
5.94098e-05 -1.6668e-05 -1.83179e-05 -5.70953e-05
7.40058e-05 -2.09096e-05 -2.27555e-05 -4.60291e-05
0.000100177 -2.94348e-05 -3.03183e-05 -3.31462e-05
8.51289e-05 -2.47559e-05 -2.58741e-05 -4.65462e-05
7.96117e-05 -2.28803e-05 -2.43135e-05 -4.63234e-05
5.49015e-05 -1.50276e-05 -1.70888e-05 -5.70845e-05
4.54974e-05 -1.14728e-05 -1.4582e-05 -5.71066e-05
8.0218e-05 -2.28008e-05 -2.46074e-05 -3.15592e-05
9.36222e-05 -2.72734e-05 -2.84352e-05 -3.27087e-05
5.02543e-05 -1.3282e-05 -1.58453e-05 -5.70872e-05
6.2301e-05 -1.66436e-05 -1.95674e-05 -4.53309e-05
8.69979e-05 -2.50846e-05 -2.65342e-05 -3.21827e-05
7.40058e-05 -2.09096e-05 -2.27555e-05 -4.60291e-05
6.82544e-05 -1.88155e-05 -2.11881e-05 -4.56798e-05
4.54974e-05 -1.14728e-05 -1.4582e-05 -5.71066e-05
3.5191e-05 -7.80357e-06 -1.17375e-05 -5.74765e-05
6.65526e-05 -1.79561e-05 -2.08271e-05 -2.98031e-05
8.0218e-05 -2.28008e-05 -2.46074e-05 -3.15592e-05
4.05149e-05 -9.64501e-06 -1.32299e-05 -5.72144e-05
4.98297e-05 -1.21133e-05 -1.61641e-05 -4.45708e-05
7.33728e-05 -2.038e-05 -2.27112e-05 -3.07764e-05
6.2301e-05 -1.66436e-05 -1.95674e-05 -4.53309e-05
5.61559e-05 -1.44321e-05 -1.78816e-05 -4.49833e-05
3.5191e-05 -7.80357e-06 -1.17375e-05 -5.74765e-05
2.44849e-05 -4.62858e-06 -8.50984e-06 -5.84012e-05
5.16371e-05 -1.31308e-05 -1.65027e-05 -2.79062e-05
6.65526e-05 -1.79561e-05 -2.08271e-05 -2.98031e-05
2.97672e-05 -6.0145e-06 -1.01797e-05 -5.78599e-05
3.59888e-05 -7.48599e-06 -1.22155e-05 -4.43471e-05
5.94199e-05 -1.56219e-05 -1.87706e-05 -2.88218e-05
4.98297e-05 -1.21133e-05 -1.61641e-05 -4.45708e-05
4.3161e-05 -9.68172e-06 -1.43483e-05 -4.42471e-05
2.44849e-05 -4.62858e-06 -8.50984e-06 -5.84012e-05
1.40677e-05 -4.57672e-06 -4.06757e-06 -6.05561e-05
3.55424e-05 -8.33121e-06 -1.16619e-05 -2.6639e-05
5.16371e-05 -1.31308e-05 -1.65027e-05 -2.79062e-05
1.92748e-05 -4.0456e-06 -6.52681e-06 -5.92646e-05
2.15698e-05 -5.25905e-06 -6.99031e-06 -4.59529e-05
4.35595e-05 -1.03987e-05 -1.42118e-05 -2.70772e-05
3.59888e-05 -7.48599e-06 -1.22155e-05 -4.43471e-05
2.86721e-05 -5.92686e-06 -9.74795e-06 -4.495e-05
1.40677e-05 -4.57672e-06 -4.06757e-06 -6.05561e-05
8.51804e-06 -1.23357e-05 1.63613e-06 -6.23101e-05
1.67355e-05 -8.74877e-06 -3.4229e-06 -3.11957e-05
3.55424e-05 -8.33121e-06 -1.16619e-05 -2.6639e-05
1.00775e-05 -6.78573e-06 -1.41075e-06 -6.17176e-05
8.32793e-06 -1.09915e-05 1.14155e-06 -5.19075e-05
2.68472e-05 -7.82488e-06 -8.15244e-06 -2.76892e-05
2.15698e-05 -5.25905e-06 -6.99031e-06 -4.59529e-05
1.47618e-05 -6.14092e-06 -3.69464e-06 -4.78977e-05
8.51804e-06 -1.23357e-05 1.63613e-06 -6.23101e-05
1.12379e-05 -3.66908e-05 1.09084e-05 -5.74082e-05
7.82708e-06 -3.05087e-05 9.72068e-06 -4.83879e-05
1.67355e-05 -8.74877e-06 -3.4229e-06 -3.11957e-05
9.02597e-06 -2.25995e-05 5.81723e-06 -6.15095e-05
1.21351e-05 -4.15307e-05 1.25981e-05 -5.68414e-05
9.09846e-06 -1.28617e-05 1.61282e-06 -3.72932e-05
8.32793e-06 -1.09915e-05 1.14155e-06 -5.19075e-05
6.1564e-06 -2.2357e-05 6.9431e-06 -5.60512e-05
1.12379e-05 -3.66908e-05 1.09084e-05 -5.74082e-05
1.94469e-05 -6.65459e-05 2.01853e-05 -3.04213e-05
4.3475e-05 -0.000133422 3.85486e-05 -4.95537e-05
7.82708e-06 -3.05087e-05 9.72068e-06 -4.83879e-05
1.4822e-05 -5.26578e-05 1.62153e-05 -4.75022e-05
3.48956e-05 -9.68824e-05 2.65658e-05 -2.85956e-05
1.76947e-05 -7.13121e-05 2.29789e-05 -5.7416e-05
1.21351e-05 -4.15307e-05 1.25981e-05 -5.68414e-05
2.2852e-05 -6.82002e-05 1.94349e-05 -4.93002e-05
0.00219403 2.22045e-16 -0.000940298 -0.000128359
0.00246913 -0.000489704 -0.000848327 -0.000185618
0.00344846 -0.00109268 -0.00100962 6.20989e-05
0.00483473 -1.11022e-16 -0.00207203 -0.00164189
0.00234806 -0.000230856 -0.000907372 -0.000215161
0.00312643 -0.000759113 -0.00101457 -0.000240101
0.00383609 -0.00121646 -0.0011227 -0.000232551
0.00258137 0 -0.0011063 -0.000399361
0.00301602 -0.000513013 -0.00107272 -0.000375296
0.00246913 -0.000489704 -0.000848327 -0.000185618
0.0025661 -0.000696197 -0.000801388 -8.91122e-05
0.00340496 -0.00105495 -0.00100715 1.97064e-05
0.00344846 -0.00109268 -0.00100962 6.20989e-05
0.00254566 -0.000635093 -0.000818813 -0.000134362
0.00305714 -0.000891617 -0.000928083 -4.13599e-05
0.00339599 -0.00100845 -0.00102323 2.7652e-05
0.00312643 -0.000759113 -0.00101457 -0.000240101
0.00308319 -0.000860768 -0.000952467 -9.82717e-05
0.0025661 -0.000696197 -0.000801388 -8.91122e-05
0.0025541 -0.000754629 -0.000771201 -3.3604e-05
0.00345208 -0.00102487 -0.00104023 9.1531e-06
0.00340496 -0.00105495 -0.00100715 1.97064e-05
0.0025593 -0.000732517 -0.000782905 -5.27717e-05
0.0030248 -0.000907844 -0.000907268 -4.78749e-06
0.00343658 -0.00105249 -0.00102176 1.98794e-05
0.00305714 -0.000891617 -0.000928083 -4.13599e-05
0.00304034 -0.00090323 -0.000915905 -2.03566e-05
0.0025541 -0.000754629 -0.000771201 -3.3604e-05
0.00253619 -0.000763012 -0.000759932 -2.08845e-05
0.00347148 -0.00104454 -0.00104012 -9.9083e-07
0.00345208 -0.00102487 -0.00104023 9.1531e-06
0.00254743 -0.000762553 -0.000764945 -2.51052e-05
0.00300695 -0.000906161 -0.000900336 7.89718e-07
0.00346065 -0.00102823 -0.00104247 -1.71706e-06
0.0030248 -0.000907844 -0.000907268 -4.78749e-06
0.00301288 -0.000907929 -0.000902123 2.178e-06
0.00253619 -0.000763012 -0.000759932 -2.08845e-05
0.00251542 -0.000761953 -0.000751486 -2.00606e-05
0.00348152 -0.00104082 -0.00104602 7.06115e-07
0.00347148 -0.00104454 -0.00104012 -9.9083e-07
0.00252423 -0.000762757 -0.000754919 -1.92399e-05
0.00299804 -0.000903335 -0.000897731 -4.31922e-06
0.00347997 -0.00104614 -0.00104307 1.761e-06
0.00300695 -0.000906161 -0.000900336 7.89718e-07
0.00300325 -0.000904688 -0.000899383 -2.51026e-06
0.00251542 -0.000761953 -0.000751486 -2.00606e-05
0.00249965 -0.00075649 -0.000747067 -2.40721e-05
0.00347781 -0.00104379 -0.00104315 -6.33593e-07
0.00348152 -0.00104082 -0.00104602 7.06115e-07
0.00250786 -0.000759586 -0.000749259 -2.2157e-05
0.00298713 -0.000899455 -0.000894718 -9.12149e-06
0.00347964 -0.00104122 -0.00104504 -1.09146e-06
0.00299804 -0.000903335 -0.000897731 -4.31922e-06
0.00299233 -0.000901536 -0.000896055 -6.43752e-06
0.00249965 -0.00075649 -0.000747067 -2.40721e-05
0.00248441 -0.000751092 -0.000742851 -2.75115e-05
0.00346945 -0.00104001 -0.00104119 3.34215e-08
0.00347781 -0.00104379 -0.00104315 -6.33593e-07
0.00249157 -0.000753686 -0.000744808 -2.57893e-05
0.0029756 -0.000895267 -0.000891573 -1.29451e-05
0.00347481 -0.00104279 -0.00104229 2.02328e-07
0.00298713 -0.000899455 -0.000894718 -9.12149e-06
0.00298178 -0.000897369 -0.000893318 -1.13965e-05
0.00248441 -0.000751092 -0.000742851 -2.75115e-05
0.00247075 -0.000745811 -0.000739258 -3.03517e-05
0.00345585 -0.00103685 -0.00103671 -2.06934e-07
0.00346945 -0.00104001 -0.00104119 3.34215e-08
0.00247764 -0.000748436 -0.000741089 -2.91141e-05
0.00296228 -0.000890846 -0.000887758 -1.54283e-05
0.00346278 -0.00103826 -0.00103908 -3.50527e-07
0.0029756 -0.000895267 -0.000891573 -1.29451e-05
0.00296898 -0.000893087 -0.000889668 -1.42708e-05
0.00247075 -0.000745811 -0.000739258 -3.03517e-05
0.00245725 -0.00074102 -0.000735528 -3.2101e-05
0.00344041 -0.00103198 -0.00103218 -2.58571e-08
0.00345585 -0.00103685 -0.00103671 -2.06934e-07
0.00246389 -0.000743352 -0.000737374 -3.13099e-05
0.00294817 -0.00088628 -0.000883669 -1.69174e-05
0.00344846 -0.00103463 -0.0010345 7.65837e-09
0.00296228 -0.000890846 -0.000887758 -1.54283e-05
0.00295539 -0.000888573 -0.000885777 -1.63025e-05
0.00245725 -0.00074102 -0.000735528 -3.2101e-05
0.00244412 -0.000736533 -0.000731825 -3.32207e-05
0.00342337 -0.00102706 -0.00102699 -5.83229e-08
0.00344041 -0.00103198 -0.00103218 -2.58571e-08
0.0024507 -0.000738748 -0.000733695 -3.27458e-05
0.00293331 -0.000881648 -0.000879283 -1.77853e-05
0.00343196 -0.0010295 -0.00102962 -1.0263e-07
0.00294817 -0.00088628 -0.000883669 -1.69174e-05
0.00294077 -0.000883971 -0.000881486 -1.74058e-05
0.00244412 -0.000736533 -0.000731825 -3.32207e-05
0.00243102 -0.000732284 -0.000728031 -3.38363e-05
0.00340576 -0.00102173 -0.00102172 -1.39644e-08
0.00342337 -0.00102706 -0.00102699 -5.83229e-08
0.00243755 -0.000734384 -0.000729929 -3.35693e-05
0.00291811 -0.00087697 -0.000874776 -1.82455e-05
0.00341465 -0.00102444 -0.00102437 -6.53999e-09
0.00293331 -0.000881648 -0.000879283 -1.77853e-05
0.00292576 -0.000879313 -0.00087705 -1.8056e-05
0.00243102 -0.000732284 -0.000728031 -3.38363e-05
0.00241799 -0.000728171 -0.000724208 -3.41862e-05
0.00338773 -0.00101636 -0.0010163 -1.4557e-08
0.00340576 -0.00102173 -0.00102172 -1.39644e-08
0.00242451 -0.000730215 -0.000726126 -3.40405e-05
0.00290267 -0.000872273 -0.00087017 -1.84929e-05
0.00339676 -0.00101904 -0.00101902 -2.73083e-08
0.00291811 -0.00087697 -0.000874776 -1.82455e-05
0.0029104 -0.000874623 -0.000872477 -1.83886e-05
0.00241799 -0.000728171 -0.000724208 -3.41862e-05
0.00240495 -0.000724141 -0.000720347 -3.43646e-05
0.00336956 -0.0010109 -0.00101085 -4.66017e-09
0.00338773 -0.00101636 -0.0010163 -1.4557e-08
0.00241147 -0.000726148 -0.000722279 -3.42893e-05
0.00288712 -0.000867564 -0.000865524 -1.86126e-05
0.00337866 -0.00101364 -0.00101358 -2.90629e-09
0.00290267 -0.000872273 -0.00087017 -1.84929e-05
0.00289491 -0.000869919 -0.000867853 -1.85639e-05
0.00240495 -0.000724141 -0.000720347 -3.43646e-05
0.00239192 -0.000720154 -0.00071647 -3.44581e-05
0.0033513 -0.00100543 -0.00100537 -3.1774e-09
0.00336956 -0.0010109 -0.00101085 -4.66017e-09
0.00239843 -0.000722143 -0.000718411 -3.44198e-05
0.0028715 -0.00086285 -0.000860849 -1.8672e-05
0.00336043 -0.00100816 -0.00100812 -6.47281e-09
0.00288712 -0.000867564 -0.000865524 -1.86126e-05
0.00287931 -0.000865207 -0.000863188 -1.86476e-05
0.00239192 -0.000720154 -0.00071647 -3.44581e-05
0.00237888 -0.000716191 -0.00071258 -3.45029e-05
0.00333301 -0.000999936 -0.000999888 -1.23264e-09
0.0033513 -0.00100543 -0.00100537 -3.1774e-09
0.0023854 -0.000718171 -0.000714525 -3.44844e-05
0.00285585 -0.000858134 -0.000856164 -1.86982e-05
0.00334216 -0.00100268 -0.00100263 -7.9656e-10
0.0028715 -0.00086285 -0.000860849 -1.8672e-05
0.00286368 -0.000860492 -0.000858508 -1.86878e-05
0.00237888 -0.000716191 -0.00071258 -3.45029e-05
0.00236583 -0.000712239 -0.000708684 -3.45248e-05
0.0033147 -0.000994445 -0.000994396 -6.087e-10
0.00333301 -0.000999936 -0.000999888 -1.23264e-09
0.00237236 -0.000714214 -0.000710632 -3.4516e-05
0.00284018 -0.000853416 -0.000851471 -1.87099e-05
0.00332386 -0.000997191 -0.000997142 -1.35421e-09
0.00285585 -0.000858134 -0.000856164 -1.86982e-05
0.00284802 -0.000855775 -0.000853818 -1.87053e-05
0.00236583 -0.000712239 -0.000708684 -3.45248e-05
0.00235279 -0.000708293 -0.000704784 -3.45347e-05
0.00329639 -0.000988951 -0.000988903 -3.04106e-10
0.0033147 -0.000994445 -0.000994396 -6.087e-10
0.00235931 -0.000710266 -0.000706734 -3.45307e-05
0.00282451 -0.000848698 -0.000846776 -1.87145e-05
0.00330555 -0.000991698 -0.000991649 -1.90456e-10
0.00284018 -0.000853416 -0.000851471 -1.87099e-05
0.00283235 -0.000851057 -0.000849124 -1.87128e-05
0.00235279 -0.000708293 -0.000704784 -3.45347e-05
0.00233974 -0.000704349 -0.000700882 -3.45391e-05
0.00327808 -0.000983457 -0.00098341 -1.32978e-10
0.00329639 -0.000988951 -0.000988903 -3.04106e-10
0.00234626 -0.000706321 -0.000702833 -3.45374e-05
0.00280883 -0.00084398 -0.000842079 -1.87161e-05
0.00328724 -0.000986204 -0.000986156 -2.75493e-10
0.00282451 -0.000848698 -0.000846776 -1.87145e-05
0.00281667 -0.000846339 -0.000844428 -1.87155e-05
0.00233974 -0.000704349 -0.000700882 -3.45391e-05
0.00232669 -0.000700406 -0.000696979 -3.45409e-05
0.00325977 -0.000977963 -0.000977916 -1.0863e-10
0.00327808 -0.000983457 -0.00098341 -1.32978e-10
0.00233322 -0.000702377 -0.000698931 -3.45402e-05
0.00279315 -0.000839261 -0.000837382 -1.87165e-05
0.00326892 -0.00098071 -0.000980663 -7.86548e-11
0.00280883 -0.00084398 -0.000842079 -1.87161e-05
0.00280099 -0.00084162 -0.000839731 -1.87164e-05
0.00232669 -0.000700406 -0.000696979 -3.45409e-05
0.00231364 -0.000696463 -0.000693075 -3.45414e-05
0.00324146 -0.00097247 -0.000972423 -7.17459e-11
0.00325977 -0.000977963 -0.000977916 -1.0863e-10
0.00232016 -0.000698435 -0.000695027 -3.45412e-05
0.00277747 -0.000834542 -0.000832684 -1.87163e-05
0.00325061 -0.000975217 -0.000975169 -9.30641e-11
0.00279315 -0.000839261 -0.000837382 -1.87165e-05
0.00278531 -0.000836902 -0.000835033 -1.87164e-05
0.00231364 -0.000696463 -0.000693075 -3.45414e-05
0.00230059 -0.000692521 -0.000689171 -3.45413e-05
0.00322315 -0.000966976 -0.00096693 -7.74978e-11
0.00324146 -0.00097247 -0.000972423 -7.17459e-11
0.00230711 -0.000694492 -0.000691123 -3.45414e-05
0.00276179 -0.000829824 -0.000827986 -1.8716e-05
0.0032323 -0.000969723 -0.000969676 -7.01394e-11
0.00277747 -0.000834542 -0.000832684 -1.87163e-05
0.00276963 -0.000832183 -0.000830335 -1.87162e-05
0.00230059 -0.000692521 -0.000689171 -3.45413e-05
0.00228753 -0.000688579 -0.000685267 -3.45409e-05
0.00320483 -0.000961483 -0.000961436 -7.04417e-11
0.00322315 -0.000966976 -0.00096693 -7.74978e-11
0.00229406 -0.00069055 -0.000687219 -3.45411e-05
0.00274611 -0.000825105 -0.000823288 -1.87156e-05
0.00321399 -0.000964229 -0.000964183 -7.24015e-11
0.00276179 -0.000829824 -0.000827986 -1.8716e-05
0.00275395 -0.000827464 -0.000825637 -1.87158e-05
0.00228753 -0.000688579 -0.000685267 -3.45409e-05
0.00227448 -0.000684636 -0.000681363 -3.45403e-05
0.00318652 -0.000955989 -0.000955943 -7.36347e-11
0.00320483 -0.000961483 -0.000961436 -7.04417e-11
0.00228101 -0.000686607 -0.000683315 -3.45406e-05
0.00273043 -0.000820386 -0.00081859 -1.87151e-05
0.00319568 -0.000958736 -0.00095869 -7.22009e-11
0.00274611 -0.000825105 -0.000823288 -1.87156e-05
0.00273827 -0.000822746 -0.000820939 -1.87154e-05
0.00227448 -0.000684636 -0.000681363 -3.45403e-05
0.00226143 -0.000680694 -0.000677458 -3.45397e-05
0.00316821 -0.000950496 -0.00095045 -7.19696e-11
0.00318652 -0.000955989 -0.000955943 -7.36347e-11
0.00226796 -0.000682665 -0.00067941 -3.454e-05
0.00271475 -0.000815668 -0.000813892 -1.87147e-05
0.00317737 -0.000953242 -0.000953197 -7.19463e-11
0.00273043 -0.000820386 -0.00081859 -1.87151e-05
0.00272259 -0.000818027 -0.000816241 -1.87149e-05
0.00226143 -0.000680694 -0.000677458 -3.45397e-05
0.00224838 -0.000676752 -0.000673553 -3.4539e-05
0.0031499 -0.000945002 -0.000944957 -7.26734e-11
0.00316821 -0.000950496 -0.00095045 -7.19663e-11
0.0022549 -0.000678723 -0.000675506 -3.45394e-05
0.00269907 -0.000810949 -0.000809194 -1.87143e-05
0.00315906 -0.000947749 -0.000947704 -7.25601e-11
0.00271475 -0.000815668 -0.000813892 -1.87147e-05
0.00270691 -0.000813308 -0.000811543 -1.87145e-05
0.00224838 -0.000676752 -0.000673553 -3.4539e-05
0.00223532 -0.00067281 -0.000669648 -3.45384e-05
0.00313159 -0.000939509 -0.000939464 -7.20228e-11
0.0031499 -0.000945002 -0.000944957 -7.26734e-11
0.00224185 -0.000674781 -0.000671601 -3.45387e-05
0.00268339 -0.000806231 -0.000804496 -1.87139e-05
0.00314075 -0.000942256 -0.000942211 -7.20333e-11
0.00269907 -0.000810949 -0.000809194 -1.87143e-05
0.00269123 -0.00080859 -0.000806845 -1.87141e-05
0.00223532 -0.00067281 -0.000669648 -3.45384e-05
0.00222227 -0.000668868 -0.000665743 -3.45377e-05
0.00311328 -0.000934016 -0.000933971 -7.19667e-11
0.00313159 -0.000939509 -0.000939464 -7.20231e-11
0.0022288 -0.000670839 -0.000667696 -3.4538e-05
0.00266771 -0.000801512 -0.000799798 -1.87134e-05
0.00312244 -0.000936763 -0.000936718 -7.20618e-11
0.00268339 -0.000806231 -0.000804496 -1.87139e-05
0.00267555 -0.000803872 -0.000802147 -1.87137e-05
0.00222227 -0.000668868 -0.000665743 -3.45377e-05
0.00220922 -0.000664927 -0.000661838 -3.4537e-05
0.00309497 -0.000928523 -0.000928479 -7.16106e-11
0.00311328 -0.000934016 -0.000933971 -7.19667e-11
0.00221574 -0.000666898 -0.000663791 -3.45373e-05
0.00265203 -0.000796794 -0.000795099 -1.8713e-05
0.00310413 -0.000931269 -0.000931225 -7.16866e-11
0.00266771 -0.000801512 -0.000799798 -1.87134e-05
0.00265987 -0.000799153 -0.000797449 -1.87132e-05
0.00220922 -0.000664927 -0.000661838 -3.4537e-05
0.00219616 -0.000660985 -0.000657933 -3.45363e-05
0.00307666 -0.000923029 -0.000922986 -7.14154e-11
0.00309497 -0.000928523 -0.000928479 -7.16169e-11
0.00220269 -0.000662956 -0.000659886 -3.45367e-05
0.00263635 -0.000792076 -0.000790401 -1.87126e-05
0.00308582 -0.000925776 -0.000925732 -7.15338e-11
0.00265203 -0.000796794 -0.000795099 -1.8713e-05
0.00264419 -0.000794435 -0.00079275 -1.87128e-05
0.00219616 -0.000660985 -0.000657933 -3.45363e-05
0.00218311 -0.000657044 -0.000654028 -3.45357e-05
0.00305835 -0.000917536 -0.000917493 -7.11469e-11
0.00307666 -0.000923029 -0.000922986 -7.14154e-11
0.00218964 -0.000659014 -0.00065598 -3.4536e-05
0.00262066 -0.000787358 -0.000785703 -1.87122e-05
0.00306751 -0.000920283 -0.000920239 -7.12613e-11
0.00263635 -0.000792076 -0.000790401 -1.87126e-05
0.0026285 -0.000789717 -0.000788052 -1.87124e-05
0.00218311 -0.000657044 -0.000654028 -3.45357e-05
0.00217005 -0.000653102 -0.000650123 -3.4535e-05
0.00304004 -0.000912043 -0.000912 -7.09136e-11
0.00305835 -0.000917536 -0.000917493 -7.11507e-11
0.00217658 -0.000655073 -0.000652075 -3.45353e-05
0.00260498 -0.00078264 -0.000781004 -1.87118e-05
0.0030492 -0.00091479 -0.000914747 -7.10453e-11
0.00262066 -0.000787358 -0.000785703 -1.87122e-05
0.00261282 -0.000784999 -0.000783354 -1.8712e-05
0.00217005 -0.000653102 -0.000650123 -3.4535e-05
0.002157 -0.000649161 -0.000646217 -3.45344e-05
0.00302173 -0.00090655 -0.000906507 -7.06383e-11
0.00304004 -0.000912043 -0.000912 -7.09136e-11
0.00216353 -0.000651132 -0.00064817 -3.45347e-05
0.0025893 -0.000777922 -0.000776306 -1.87115e-05
0.00303089 -0.000909297 -0.000909254 -7.0787e-11
0.00260498 -0.00078264 -0.000781004 -1.87118e-05
0.00259714 -0.000780281 -0.000778655 -1.87116e-05
0.002157 -0.000649161 -0.000646217 -3.45344e-05
0.00214395 -0.00064522 -0.000642312 -3.45337e-05
0.00300342 -0.000901057 -0.000901015 -7.03538e-11
0.00302173 -0.00090655 -0.000906507 -7.06443e-11
0.00215047 -0.000647191 -0.000644264 -3.4534e-05
0.00257362 -0.000773204 -0.000771608 -1.87111e-05
0.00301258 -0.000903804 -0.000903761 -7.05298e-11
0.0025893 -0.000777922 -0.000776306 -1.87115e-05
0.00258146 -0.000775563 -0.000773957 -1.87113e-05
0.00214395 -0.00064522 -0.000642312 -3.45337e-05
0.00213089 -0.000641279 -0.000638406 -3.45331e-05
0.00298512 -0.000895564 -0.000895522 -7.0027e-11
0.00300342 -0.000901057 -0.000901015 -7.03538e-11
0.00213742 -0.00064325 -0.000640359 -3.45334e-05
0.00255794 -0.000768486 -0.000766909 -1.87107e-05
0.00299427 -0.00089831 -0.000898268 -7.02166e-11
0.00257362 -0.000773204 -0.000771608 -1.87111e-05
0.00256578 -0.000770845 -0.000769258 -1.87109e-05
0.00213089 -0.000641279 -0.000638406 -3.45331e-05
0.00211784 -0.000637338 -0.0006345 -3.45324e-05
0.00296681 -0.000890071 -0.000890029 -6.97008e-11
0.00298512 -0.000895564 -0.000895522 -7.00265e-11
0.00212437 -0.000639309 -0.000636453 -3.45327e-05
0.00254226 -0.000763768 -0.000762211 -1.87103e-05
0.00297596 -0.000892817 -0.000892776 -6.98918e-11
0.00255794 -0.000768486 -0.000766909 -1.87107e-05
0.0025501 -0.000766127 -0.00076456 -1.87105e-05
0.00211784 -0.000637338 -0.0006345 -3.45324e-05
0.00210478 -0.000633398 -0.000630594 -3.45318e-05
0.0029485 -0.000884578 -0.000884537 -6.93443e-11
0.00296681 -0.000890071 -0.000890029 -6.97008e-11
0.00211131 -0.000635368 -0.000632547 -3.45321e-05
0.00252658 -0.000759051 -0.000757512 -1.87099e-05
0.00295765 -0.000887324 -0.000887283 -6.95523e-11
0.00254226 -0.000763768 -0.000762211 -1.87103e-05
0.00253442 -0.00076141 -0.000759861 -1.87101e-05
0.00210478 -0.000633398 -0.000630594 -3.45318e-05
0.00209173 -0.000629457 -0.000626689 -3.45311e-05
0.00293019 -0.000879085 -0.000879044 -6.8952e-11
0.0029485 -0.000884578 -0.000884537 -6.9345e-11
0.00209826 -0.000631427 -0.000628642 -3.45314e-05
0.0025109 -0.000754333 -0.000752813 -1.87095e-05
0.00293934 -0.000881831 -0.00088179 -6.91747e-11
0.00252658 -0.000759051 -0.000757512 -1.87099e-05
0.00251874 -0.000756692 -0.000755163 -1.87097e-05
0.00209173 -0.000629457 -0.000626689 -3.45311e-05
0.00207868 -0.000625517 -0.000622783 -3.45304e-05
0.00291188 -0.000873592 -0.000873551 -6.85614e-11
0.00293019 -0.000879085 -0.000879044 -6.8952e-11
0.0020852 -0.000627487 -0.000624736 -3.45308e-05
0.00249522 -0.000749616 -0.000748115 -1.87091e-05
0.00292103 -0.000876338 -0.000876298 -6.87761e-11
0.0025109 -0.000754333 -0.000752813 -1.87095e-05
0.00250306 -0.000751974 -0.000750464 -1.87093e-05
0.00207868 -0.000625517 -0.000622783 -3.45304e-05
0.00206562 -0.000621576 -0.000618877 -3.45298e-05
0.00289357 -0.000868099 -0.000868059 -6.81878e-11
0.00291188 -0.000873592 -0.000873551 -6.8565e-11
0.00207215 -0.000623546 -0.00062083 -3.45301e-05
0.00247954 -0.000744898 -0.000743416 -1.87087e-05
0.00290272 -0.000870845 -0.000870805 -6.84062e-11
0.00249522 -0.000749616 -0.000748115 -1.87091e-05
0.00248738 -0.000747257 -0.000745765 -1.87089e-05
0.00206562 -0.000621576 -0.000618877 -3.45298e-05
0.00205257 -0.000617636 -0.00061497 -3.45291e-05
0.00287526 -0.000862606 -0.000862566 -6.77319e-11
0.00289357 -0.000868099 -0.000868059 -6.81878e-11
0.00205909 -0.000619606 -0.000616923 -3.45294e-05
0.00246385 -0.000740181 -0.000738717 -1.87083e-05
0.00288442 -0.000865352 -0.000865313 -6.79803e-11
0.00247954 -0.000744898 -0.000743416 -1.87087e-05
0.0024717 -0.00074254 -0.000741067 -1.87085e-05
0.00205257 -0.000617636 -0.00061497 -3.45291e-05
0.00203951 -0.000613696 -0.000611064 -3.45284e-05
0.00285695 -0.000857113 -0.000857074 -6.73306e-11
0.00287526 -0.000862606 -0.000862566 -6.77319e-11
0.00204604 -0.000615666 -0.000613017 -3.45287e-05
0.00244817 -0.000735464 -0.000734019 -1.87079e-05
0.00286611 -0.00085986 -0.00085982 -6.75568e-11
0.00246385 -0.000740181 -0.000738717 -1.87083e-05
0.00245601 -0.000737822 -0.000736368 -1.87081e-05
0.00203951 -0.000613696 -0.000611064 -3.45284e-05
0.00202646 -0.000609756 -0.000607158 -3.45277e-05
0.00283864 -0.00085162 -0.000851581 -6.69191e-11
0.00285695 -0.000857113 -0.000857074 -6.73447e-11
0.00203298 -0.000611726 -0.000609111 -3.45281e-05
0.00243249 -0.000730746 -0.00072932 -1.87075e-05
0.0028478 -0.000854367 -0.000854328 -6.71732e-11
0.00244817 -0.000735464 -0.000734019 -1.87079e-05
0.00244033 -0.000733105 -0.000731669 -1.87077e-05
0.00202646 -0.000609756 -0.000607158 -3.45277e-05
0.0020134 -0.000605816 -0.000603251 -3.4527e-05
0.00282033 -0.000846127 -0.000846089 -6.64974e-11
0.00283864 -0.00085162 -0.000851581 -6.69191e-11
0.00201993 -0.000607786 -0.000605205 -3.45274e-05
0.00241681 -0.000726029 -0.000724621 -1.87071e-05
0.00282949 -0.000848874 -0.000848835 -6.67381e-11
0.00243249 -0.000730746 -0.00072932 -1.87075e-05
0.00242465 -0.000728388 -0.000726971 -1.87073e-05
0.0020134 -0.000605816 -0.000603251 -3.4527e-05
0.00200035 -0.000601876 -0.000599345 -3.45263e-05
0.00280203 -0.000840635 -0.000840596 -6.60727e-11
0.00282033 -0.000846127 -0.000846089 -6.65046e-11
0.00200688 -0.000603846 -0.000601298 -3.45267e-05
0.00240113 -0.000721312 -0.000719922 -1.87067e-05
0.00281118 -0.000843381 -0.000843343 -6.63145e-11
0.00241681 -0.000726029 -0.000724621 -1.87071e-05
0.00240897 -0.000723671 -0.000722272 -1.87069e-05
0.00200035 -0.000601876 -0.000599345 -3.45263e-05
0.00198729 -0.000597937 -0.000595438 -3.45256e-05
0.00278372 -0.000835142 -0.000835104 -6.566e-11
0.00280203 -0.000840635 -0.000840596 -6.60727e-11
0.00199382 -0.000599906 -0.000597392 -3.4526e-05
0.00238545 -0.000716595 -0.000715223 -1.87063e-05
0.00279287 -0.000837888 -0.00083785 -6.58864e-11
0.00240113 -0.000721312 -0.000719922 -1.87067e-05
0.00239329 -0.000718954 -0.000717573 -1.87065e-05
0.00198729 -0.000597937 -0.000595438 -3.45256e-05
0.00197424 -0.000593997 -0.000591532 -3.45249e-05
0.00276541 -0.000829649 -0.000829612 -6.52306e-11
0.00278372 -0.000835142 -0.000835104 -6.56405e-11
0.00198077 -0.000595967 -0.000593485 -3.45253e-05
0.00236977 -0.000711879 -0.000710525 -1.87059e-05
0.00277456 -0.000832395 -0.000832358 -6.54683e-11
0.00238545 -0.000716595 -0.000715223 -1.87063e-05
0.00237761 -0.000714237 -0.000712874 -1.87061e-05
0.00197424 -0.000593997 -0.000591532 -3.45249e-05
0.00196118 -0.000590058 -0.000587625 -3.45242e-05
0.0027471 -0.000824156 -0.000824119 -6.48187e-11
0.00276541 -0.000829649 -0.000829612 -6.52306e-11
0.00196771 -0.000592028 -0.000589578 -3.45246e-05
0.00235409 -0.000707162 -0.000705826 -1.87055e-05
0.00275626 -0.000826903 -0.000826866 -6.50227e-11
0.00236977 -0.000711879 -0.000710525 -1.87059e-05
0.00236193 -0.00070952 -0.000708175 -1.87057e-05
0.00196118 -0.000590058 -0.000587625 -3.45242e-05
0.00194813 -0.000586119 -0.000583718 -3.45235e-05
0.00272879 -0.000818664 -0.000818627 -6.43981e-11
0.0027471 -0.000824156 -0.000824119 -6.48046e-11
0.00195465 -0.000588088 -0.000585671 -3.45239e-05
0.00233841 -0.000702445 -0.000701127 -1.87051e-05
0.00273795 -0.00082141 -0.000821373 -6.464e-11
0.00235409 -0.000707162 -0.000705826 -1.87055e-05
0.00234625 -0.000704803 -0.000703476 -1.87053e-05
0.00194813 -0.000586119 -0.000583718 -3.45235e-05
0.00193507 -0.00058218 -0.000579811 -3.45228e-05
0.00271049 -0.000813171 -0.000813135 -6.39115e-11
0.00272879 -0.000818664 -0.000818627 -6.43981e-11
0.0019416 -0.000584149 -0.000581765 -3.45231e-05
0.00232273 -0.000697728 -0.000696428 -1.87046e-05
0.00271964 -0.000815917 -0.000815881 -6.4154e-11
0.00233841 -0.000702445 -0.000701127 -1.87051e-05
0.00233057 -0.000700087 -0.000698777 -1.87048e-05
0.00193507 -0.00058218 -0.000579811 -3.45228e-05
0.00192202 -0.000578241 -0.000575904 -3.45221e-05
0.00269218 -0.000807678 -0.000807643 -6.35784e-11
0.00271049 -0.000813171 -0.000813135 -6.39046e-11
0.00192854 -0.00058021 -0.000577858 -3.45224e-05
0.00230705 -0.000693012 -0.000691729 -1.87042e-05
0.00270133 -0.000810425 -0.000810389 -6.37656e-11
0.00232273 -0.000697728 -0.000696428 -1.87046e-05
0.00231489 -0.00069537 -0.000694078 -1.87044e-05
0.00192202 -0.000578241 -0.000575904 -3.45221e-05
0.00190896 -0.000574302 -0.000571997 -3.45213e-05
0.00267387 -0.000802186 -0.00080215 -6.31018e-11
0.00269218 -0.000807678 -0.000807643 -6.35784e-11
0.00191549 -0.000576271 -0.000573951 -3.45217e-05
0.00229136 -0.000688296 -0.00068703 -1.87038e-05
0.00268302 -0.000804932 -0.000804896 -6.33924e-11
0.00230705 -0.000693012 -0.000691729 -1.87042e-05
0.00229921 -0.000690654 -0.000689379 -1.8704e-05
0.00190896 -0.000574302 -0.000571997 -3.45213e-05
0.00189591 -0.000570363 -0.00056809 -3.45206e-05
0.00265556 -0.000796693 -0.000796658 -6.26733e-11
0.00267387 -0.000802186 -0.00080215 -6.31018e-11
0.00190243 -0.000572332 -0.000570043 -3.4521e-05
0.00227568 -0.000683579 -0.000682331 -1.87034e-05
0.00266472 -0.00079944 -0.000799404 -6.28873e-11
0.00229136 -0.000688296 -0.00068703 -1.87038e-05
0.00228352 -0.000685937 -0.00068468 -1.87036e-05
0.00189591 -0.000570363 -0.00056809 -3.45206e-05
0.00188285 -0.000566425 -0.000564183 -3.45199e-05
0.00263725 -0.000791201 -0.000791166 -6.2252e-11
0.00265556 -0.000796693 -0.000796658 -6.26617e-11
0.00188938 -0.000568394 -0.000566136 -3.45202e-05
0.00226 -0.000678863 -0.000677632 -1.87029e-05
0.00264641 -0.000793947 -0.000793912 -6.24961e-11
0.00227568 -0.000683579 -0.000682331 -1.87034e-05
0.00226784 -0.000681221 -0.000679981 -1.87031e-05
0.00188285 -0.000566425 -0.000564183 -3.45199e-05
0.00186979 -0.000562486 -0.000560275 -3.45191e-05
0.00261895 -0.000785708 -0.000785674 -6.18404e-11
0.00263725 -0.000791201 -0.000791166 -6.22534e-11
0.00187632 -0.000564455 -0.000562229 -3.45195e-05
0.00224432 -0.000674147 -0.000672932 -1.87025e-05
0.0026281 -0.000788455 -0.00078842 -6.20456e-11
0.00226 -0.000678863 -0.000677632 -1.87029e-05
0.00225216 -0.000676505 -0.000675282 -1.87027e-05
0.00186979 -0.000562486 -0.000560275 -3.45191e-05
0.00185674 -0.000558548 -0.000556368 -3.45184e-05
0.00260064 -0.000780216 -0.000780182 -6.14114e-11
0.00261895 -0.000785708 -0.000785674 -6.18404e-11
0.00186327 -0.000560517 -0.000558321 -3.45188e-05
0.00222864 -0.000669431 -0.000668233 -1.87021e-05
0.00260979 -0.000782962 -0.000782928 -6.16506e-11
0.00224432 -0.000674147 -0.000672932 -1.87025e-05
0.00223648 -0.000671789 -0.000670583 -1.87023e-05
0.00185674 -0.000558548 -0.000556368 -3.45184e-05
0.00184368 -0.00055461 -0.00055246 -3.45176e-05
0.00258233 -0.000774723 -0.00077469 -6.09804e-11
0.00260064 -0.000780216 -0.000780182 -6.14114e-11
0.00185021 -0.000556579 -0.000554414 -3.4518e-05
0.00221296 -0.000664715 -0.000663534 -1.87016e-05
0.00259149 -0.00077747 -0.000777436 -6.12037e-11
0.00222864 -0.000669431 -0.000668233 -1.87021e-05
0.0022208 -0.000667073 -0.000665884 -1.87018e-05
0.00184368 -0.00055461 -0.00055246 -3.45176e-05
0.00183063 -0.000550672 -0.000548553 -3.45169e-05
0.00256403 -0.000769231 -0.000769198 -6.0554e-11
0.00258233 -0.000774723 -0.00077469 -6.09934e-11
0.00183716 -0.000552641 -0.000550506 -3.45173e-05
0.00219728 -0.000659999 -0.000658835 -1.87012e-05
0.00257318 -0.000771977 -0.000771944 -6.07945e-11
0.00221296 -0.000664715 -0.000663534 -1.87016e-05
0.00220512 -0.000662357 -0.000661184 -1.87014e-05
0.00183063 -0.000550672 -0.000548553 -3.45169e-05
0.00181757 -0.000546734 -0.000544645 -3.45161e-05
0.00254572 -0.000763739 -0.000763706 -6.01388e-11
0.00256403 -0.000769231 -0.000769198 -6.05603e-11
0.0018241 -0.000548703 -0.000546599 -3.45165e-05
0.0021816 -0.000655283 -0.000654136 -1.87007e-05
0.00255487 -0.000766485 -0.000766452 -6.03607e-11
0.00219728 -0.000659999 -0.000658835 -1.87012e-05
0.00218944 -0.000657641 -0.000656485 -1.8701e-05
0.00181757 -0.000546734 -0.000544645 -3.45161e-05
0.00180452 -0.000542796 -0.000540737 -3.45154e-05
0.00252741 -0.000758246 -0.000758214 -5.97069e-11
0.00254572 -0.000763739 -0.000763706 -6.01388e-11
0.00181104 -0.000544765 -0.000542691 -3.45158e-05
0.00216592 -0.000650567 -0.000649436 -1.87003e-05
0.00253657 -0.000760993 -0.00076096 -5.99535e-11
0.0021816 -0.000655283 -0.000654136 -1.87007e-05
0.00217376 -0.000652925 -0.000651786 -1.87005e-05
0.00180452 -0.000542796 -0.000540737 -3.45154e-05
0.00179146 -0.000538858 -0.000536829 -3.45146e-05
0.00250911 -0.000752754 -0.000752722 -5.92817e-11
0.00252741 -0.000758246 -0.000758214 -5.97069e-11
0.00179799 -0.000540827 -0.000538783 -3.4515e-05
0.00215024 -0.000645852 -0.000644737 -1.86999e-05
0.00251826 -0.0007555 -0.000755468 -5.95195e-11
0.00216592 -0.000650567 -0.000649436 -1.87003e-05
0.00215808 -0.00064821 -0.000647087 -1.87001e-05
0.00179146 -0.000538858 -0.000536829 -3.45146e-05
0.0017784 -0.000534921 -0.000532921 -3.45139e-05
0.0024908 -0.000747262 -0.000747231 -5.8854e-11
0.00250911 -0.000752754 -0.000752722 -5.92823e-11
0.00178493 -0.00053689 -0.000534875 -3.45142e-05
0.00213456 -0.000641136 -0.000640038 -1.86994e-05
0.00249995 -0.000750008 -0.000749976 -5.9087e-11
0.00215024 -0.000645852 -0.000644737 -1.86999e-05
0.0021424 -0.000643494 -0.000642388 -1.86996e-05
0.0017784 -0.000534921 -0.000532921 -3.45139e-05
0.00176535 -0.000530984 -0.000529014 -3.45131e-05
0.00247249 -0.00074177 -0.000741739 -5.84343e-11
0.0024908 -0.000747262 -0.000747231 -5.88537e-11
0.00177188 -0.000532952 -0.000530968 -3.45135e-05
0.00211888 -0.000636421 -0.000635339 -1.8699e-05
0.00248165 -0.000744516 -0.000744485 -5.86679e-11
0.00213456 -0.000641136 -0.000640038 -1.86994e-05
0.00212672 -0.000638779 -0.000637688 -1.86992e-05
0.00176535 -0.000530984 -0.000529014 -3.45131e-05
0.00175229 -0.000527046 -0.000525105 -3.45123e-05
0.00245419 -0.000736278 -0.000736247 -5.80169e-11
0.00247249 -0.00074177 -0.000741739 -5.84343e-11
0.00175882 -0.000529015 -0.000527059 -3.45127e-05
0.0021032 -0.000631706 -0.000630639 -1.86985e-05
0.00246334 -0.000739024 -0.000738993 -5.82408e-11
0.00211888 -0.000636421 -0.000635339 -1.8699e-05
0.00211104 -0.000634063 -0.000632989 -1.86987e-05
0.00175229 -0.000527046 -0.000525105 -3.45123e-05
0.00173924 -0.000523109 -0.000521197 -3.45115e-05
0.00243588 -0.000730786 -0.000730755 -5.75775e-11
0.00245419 -0.000736278 -0.000736247 -5.80169e-11
0.00174576 -0.000525078 -0.000523151 -3.45119e-05
0.00208752 -0.00062699 -0.00062594 -1.86981e-05
0.00244503 -0.000733532 -0.000733501 -5.78058e-11
0.0021032 -0.000631706 -0.000630639 -1.86985e-05
0.00209536 -0.000629348 -0.00062829 -1.86983e-05
0.00173924 -0.000523109 -0.000521197 -3.45115e-05
0.00172618 -0.000519172 -0.000517289 -3.45108e-05
0.00241758 -0.000725294 -0.000725264 -5.71458e-11
0.00243588 -0.000730786 -0.000730755 -5.75797e-11
0.00173271 -0.000521141 -0.000519243 -3.45112e-05
0.00207184 -0.000622275 -0.00062124 -1.86976e-05
0.00242673 -0.00072804 -0.00072801 -5.73879e-11
0.00208752 -0.00062699 -0.00062594 -1.86981e-05
0.00207968 -0.000624633 -0.00062359 -1.86978e-05
0.00172618 -0.000519172 -0.000517289 -3.45108e-05
0.00171312 -0.000515236 -0.000513381 -3.451e-05
0.00239927 -0.000719802 -0.000719772 -5.67152e-11
0.00241758 -0.000725294 -0.000725264 -5.71538e-11
0.00171965 -0.000517204 -0.000515335 -3.45104e-05
0.00205616 -0.00061756 -0.000616541 -1.86972e-05
0.00240842 -0.000722548 -0.000722518 -5.69518e-11
0.00207184 -0.000622275 -0.00062124 -1.86976e-05
0.002064 -0.000619918 -0.000618891 -1.86974e-05
0.00171312 -0.000515236 -0.000513381 -3.451e-05
0.00170007 -0.000511299 -0.000509472 -3.45092e-05
0.00238096 -0.00071431 -0.000714281 -5.63084e-11
0.00239927 -0.000719802 -0.000719772 -5.67152e-11
0.0017066 -0.000513267 -0.000511427 -3.45096e-05
0.00204048 -0.000612845 -0.000611842 -1.86967e-05
0.00239012 -0.000717056 -0.000717026 -5.65332e-11
0.00205616 -0.00061756 -0.000616541 -1.86972e-05
0.00204832 -0.000615203 -0.000614191 -1.86969e-05
0.00170007 -0.000511299 -0.000509472 -3.45092e-05
0.00168701 -0.000507362 -0.000505564 -3.45084e-05
0.00236266 -0.000708818 -0.000708789 -5.58786e-11
0.00238096 -0.00071431 -0.000714281 -5.63084e-11
0.00169354 -0.000509331 -0.000507518 -3.45088e-05
0.0020248 -0.00060813 -0.000607142 -1.86963e-05
0.00237181 -0.000711564 -0.000711535 -5.61038e-11
0.00204048 -0.000612845 -0.000611842 -1.86967e-05
0.00203264 -0.000610488 -0.000609492 -1.86965e-05
0.00168701 -0.000507362 -0.000505564 -3.45084e-05
0.00167396 -0.000503426 -0.000501655 -3.45077e-05
0.00234435 -0.000703326 -0.000703298 -5.54419e-11
0.00236266 -0.000708818 -0.000708789 -5.58786e-11
0.00168048 -0.000505394 -0.00050361 -3.45081e-05
0.00200912 -0.000603416 -0.000602443 -1.86958e-05
0.00235351 -0.000706072 -0.000706043 -5.56716e-11
0.0020248 -0.00060813 -0.000607142 -1.86963e-05
0.00201696 -0.000605773 -0.000604792 -1.8696e-05
0.00167396 -0.000503426 -0.000501655 -3.45077e-05
0.0016609 -0.00049949 -0.000497747 -3.45069e-05
0.00232605 -0.000697834 -0.000697806 -5.50145e-11
0.00234435 -0.000703326 -0.000703298 -5.54548e-11
0.00166743 -0.000501458 -0.000499701 -3.45073e-05
0.00199344 -0.000598701 -0.000597743 -1.86953e-05
0.0023352 -0.00070058 -0.000700552 -5.5257e-11
0.00200912 -0.000603416 -0.000602443 -1.86958e-05
0.00200128 -0.000601058 -0.000600093 -1.86956e-05
0.0016609 -0.00049949 -0.000497747 -3.45069e-05
0.00164784 -0.000495554 -0.000493838 -3.45061e-05
0.00230774 -0.000692342 -0.000692315 -5.45957e-11
0.00232605 -0.000697834 -0.000697806 -5.50145e-11
0.00165437 -0.000497522 -0.000495792 -3.45065e-05
0.00197776 -0.000593986 -0.000593044 -1.86949e-05
0.0023169 -0.000695088 -0.000695061 -5.48262e-11
0.00199344 -0.000598701 -0.000597743 -1.86953e-05
0.0019856 -0.000596344 -0.000595393 -1.86951e-05
0.00164784 -0.000495554 -0.000493838 -3.45061e-05
0.00163479 -0.000491618 -0.000489929 -3.45053e-05
0.00228944 -0.000686851 -0.000686824 -5.41771e-11
0.00230774 -0.000692342 -0.000692315 -5.45957e-11
0.00164131 -0.000493586 -0.000491884 -3.45057e-05
0.00196208 -0.000589272 -0.000588344 -1.86944e-05
0.00229859 -0.000689596 -0.000689569 -5.43964e-11
0.00197776 -0.000593986 -0.000593044 -1.86949e-05
0.00196992 -0.000591629 -0.000590694 -1.86947e-05
0.00163479 -0.000491618 -0.000489929 -3.45053e-05
0.00162173 -0.000487682 -0.000486021 -3.45045e-05
0.00227113 -0.000681359 -0.000681332 -5.37467e-11
0.00228944 -0.000686851 -0.000686824 -5.41724e-11
0.00162826 -0.00048965 -0.000487975 -3.45049e-05
0.0019464 -0.000584558 -0.000583645 -1.8694e-05
0.00228029 -0.000684105 -0.000684078 -5.39943e-11
0.00196208 -0.000589272 -0.000588344 -1.86944e-05
0.00195424 -0.000586915 -0.000585994 -1.86942e-05
0.00162173 -0.000487682 -0.000486021 -3.45045e-05
0.00160867 -0.000483746 -0.000482112 -3.45037e-05
0.00225283 -0.000675867 -0.000675841 -5.33072e-11
0.00227113 -0.000681359 -0.000681332 -5.3755e-11
0.0016152 -0.000485714 -0.000484066 -3.45041e-05
0.00193072 -0.000579843 -0.000578945 -1.86935e-05
0.00226198 -0.000678613 -0.000678587 -5.35489e-11
0.0019464 -0.000584558 -0.000583645 -1.8694e-05
0.00193856 -0.0005822 -0.000581295 -1.86937e-05
0.00160867 -0.000483746 -0.000482112 -3.45037e-05
0.00159562 -0.000479811 -0.000478203 -3.45029e-05
0.00223453 -0.000670376 -0.00067035 -5.29023e-11
0.00225283 -0.000675867 -0.000675841 -5.33072e-11
0.00160214 -0.000481778 -0.000480157 -3.45033e-05
0.00191504 -0.000575129 -0.000574246 -1.8693e-05
0.00224368 -0.000673121 -0.000673095 -5.31182e-11
0.00193072 -0.000579843 -0.000578945 -1.86935e-05
0.00192288 -0.000577486 -0.000576595 -1.86933e-05
0.00159562 -0.000479811 -0.000478203 -3.45029e-05
0.00158256 -0.000475875 -0.000474294 -3.45022e-05
0.00221622 -0.000664884 -0.000664859 -5.24829e-11
0.00223453 -0.000670376 -0.00067035 -5.29023e-11
0.00158909 -0.000477843 -0.000476248 -3.45026e-05
0.00189936 -0.000570415 -0.000569546 -1.86926e-05
0.00222537 -0.00066763 -0.000667604 -5.27197e-11
0.00191504 -0.000575129 -0.000574246 -1.8693e-05
0.0019072 -0.000572772 -0.000571896 -1.86928e-05
0.00158256 -0.000475875 -0.000474294 -3.45022e-05
0.0015695 -0.00047194 -0.000470384 -3.45014e-05
0.00219792 -0.000659392 -0.000659368 -5.20497e-11
0.00221622 -0.000664884 -0.000664859 -5.24631e-11
0.00157603 -0.000473908 -0.000472339 -3.45018e-05
0.00188368 -0.000565701 -0.000564846 -1.86921e-05
0.00220707 -0.000662138 -0.000662113 -5.22752e-11
0.00189936 -0.000570415 -0.000569546 -1.86926e-05
0.00189152 -0.000568058 -0.000567196 -1.86924e-05
0.0015695 -0.00047194 -0.000470384 -3.45014e-05
0.00155645 -0.000468005 -0.000466475 -3.45006e-05
0.00217961 -0.000653901 -0.000653876 -5.16053e-11
0.00219792 -0.000659392 -0.000659368 -5.20427e-11
0.00156298 -0.000469972 -0.00046843 -3.4501e-05
0.001868 -0.000560987 -0.000560147 -1.86917e-05
0.00218876 -0.000656647 -0.000656622 -5.18192e-11
0.00188368 -0.000565701 -0.000564846 -1.86921e-05
0.00187584 -0.000563344 -0.000562496 -1.86919e-05
0.00155645 -0.000468005 -0.000466475 -3.45006e-05
0.00154339 -0.00046407 -0.000462566 -3.44998e-05
0.00216131 -0.00064841 -0.000648385 -5.11723e-11
0.00217961 -0.000653901 -0.000653876 -5.16053e-11
0.00154992 -0.000466037 -0.000464521 -3.45002e-05
0.00185232 -0.000556273 -0.000555447 -1.86912e-05
0.00217046 -0.000651155 -0.000651131 -5.14132e-11
0.001868 -0.000560987 -0.000560147 -1.86917e-05
0.00186016 -0.00055863 -0.000557797 -1.86914e-05
0.00154339 -0.00046407 -0.000462566 -3.44998e-05
0.00153033 -0.000460135 -0.000458656 -3.4499e-05
0.00214301 -0.000642918 -0.000642895 -5.07475e-11
0.00216131 -0.00064841 -0.000648385 -5.11723e-11
0.00153686 -0.000462102 -0.000460611 -3.44994e-05
0.00183664 -0.00055156 -0.000550747 -1.86907e-05
0.00215216 -0.000645664 -0.00064564 -5.09818e-11
0.00185232 -0.000556273 -0.000555447 -1.86912e-05
0.00184448 -0.000553917 -0.000553097 -1.8691e-05
0.00153033 -0.000460135 -0.000458656 -3.4499e-05
0.00151728 -0.0004562 -0.000454747 -3.44982e-05
0.0021247 -0.000637427 -0.000637404 -5.03303e-11
0.00214301 -0.000642918 -0.000642895 -5.07544e-11
0.0015238 -0.000458167 -0.000456702 -3.44986e-05
0.00182096 -0.000546846 -0.000546048 -1.86903e-05
0.00213385 -0.000640173 -0.000640149 -5.05663e-11
0.00183664 -0.00055156 -0.000550747 -1.86907e-05
0.0018288 -0.000549203 -0.000548397 -1.86905e-05
0.00151728 -0.0004562 -0.000454747 -3.44982e-05
0.00150422 -0.000452266 -0.000450838 -3.44974e-05
0.0021064 -0.000631936 -0.000631913 -4.98697e-11
0.0021247 -0.000637427 -0.000637404 -5.03185e-11
0.00151075 -0.000454233 -0.000452792 -3.44978e-05
0.00180528 -0.000542133 -0.000541348 -1.86898e-05
0.00211555 -0.000634681 -0.000634658 -5.01182e-11
0.00182096 -0.000546846 -0.000546048 -1.86903e-05
0.00181312 -0.000544489 -0.000543698 -1.86901e-05
0.00150422 -0.000452266 -0.000450838 -3.44974e-05
0.00149116 -0.000448331 -0.000446928 -3.44966e-05
0.0020881 -0.000626444 -0.000626422 -4.94896e-11
0.0021064 -0.000631936 -0.000631913 -4.98697e-11
0.00149769 -0.000450298 -0.000448883 -3.4497e-05
0.0017896 -0.000537419 -0.000536648 -1.86894e-05
0.00209725 -0.00062919 -0.000629167 -4.9682e-11
0.00180528 -0.000542133 -0.000541348 -1.86898e-05
0.00179744 -0.000539776 -0.000538998 -1.86896e-05
0.00149116 -0.000448331 -0.000446928 -3.44966e-05
0.00147811 -0.000444397 -0.000443018 -3.44958e-05
0.00206979 -0.000620953 -0.000620931 -4.90437e-11
0.0020881 -0.000626444 -0.000626422 -4.94896e-11
0.00148463 -0.000446364 -0.000444973 -3.44962e-05
0.00177392 -0.000532706 -0.000531948 -1.86889e-05
0.00207894 -0.000623699 -0.000623677 -4.92852e-11
0.0017896 -0.000537419 -0.000536648 -1.86894e-05
0.00178176 -0.000535063 -0.000534298 -1.86891e-05
0.00147811 -0.000444397 -0.000443018 -3.44958e-05
0.00146505 -0.000440463 -0.000439108 -3.4495e-05
0.00205149 -0.000615462 -0.00061544 -4.86123e-11
0.00206979 -0.000620953 -0.000620931 -4.90441e-11
0.00147158 -0.00044243 -0.000441063 -3.44954e-05
0.00175824 -0.000527993 -0.000527249 -1.86884e-05
0.00206064 -0.000618208 -0.000618186 -4.88374e-11
0.00177392 -0.000532706 -0.000531948 -1.86889e-05
0.00176608 -0.000530349 -0.000529598 -1.86887e-05
0.00146505 -0.000440463 -0.000439108 -3.4495e-05
0.00145199 -0.000436529 -0.000435199 -3.44942e-05
0.00203319 -0.000609971 -0.00060995 -4.81849e-11
0.00205149 -0.000615462 -0.00061544 -4.86133e-11
0.00145852 -0.000438496 -0.000437154 -3.44946e-05
0.00174256 -0.00052328 -0.000522549 -1.8688e-05
0.00204234 -0.000612716 -0.000612695 -4.83962e-11
0.00175824 -0.000527993 -0.000527249 -1.86884e-05
0.0017504 -0.000525636 -0.000524899 -1.86882e-05
0.00145199 -0.000436529 -0.000435199 -3.44942e-05
0.00143894 -0.000432595 -0.000431289 -3.44934e-05
0.00201488 -0.00060448 -0.000604459 -4.77574e-11
0.00203319 -0.000609971 -0.00060995 -4.81849e-11
0.00144546 -0.000434562 -0.000433244 -3.44938e-05
0.00172688 -0.000518567 -0.000517849 -1.86875e-05
0.00202404 -0.000607225 -0.000607204 -4.7982e-11
0.00174256 -0.00052328 -0.000522549 -1.8688e-05
0.00173472 -0.000520923 -0.000520199 -1.86877e-05
0.00143894 -0.000432595 -0.000431289 -3.44934e-05
0.00142588 -0.000428661 -0.000427379 -3.44927e-05
0.00199658 -0.000598989 -0.000598968 -4.73294e-11
0.00201488 -0.00060448 -0.000604459 -4.77574e-11
0.00143241 -0.000430628 -0.000429334 -3.4493e-05
0.0017112 -0.000513854 -0.000513149 -1.86871e-05
0.00200573 -0.000601734 -0.000601714 -4.75686e-11
0.00172688 -0.000518567 -0.000517849 -1.86875e-05
0.00171904 -0.00051621 -0.000515499 -1.86873e-05
0.00142588 -0.000428661 -0.000427379 -3.44927e-05
0.00141282 -0.000424727 -0.000423469 -3.44919e-05
0.00197828 -0.000593498 -0.000593478 -4.69019e-11
0.00199658 -0.000598989 -0.000598968 -4.73364e-11
0.00141935 -0.000426694 -0.000425424 -3.44923e-05
0.00169552 -0.000509141 -0.000508449 -1.86866e-05
0.00198743 -0.000596243 -0.000596223 -4.71127e-11
0.0017112 -0.000513854 -0.000513149 -1.86871e-05
0.00170336 -0.000511497 -0.000510799 -1.86868e-05
0.00141282 -0.000424727 -0.000423469 -3.44919e-05
0.00139976 -0.000420794 -0.000419559 -3.44911e-05
0.00195998 -0.000588007 -0.000587987 -4.64677e-11
0.00197828 -0.000593498 -0.000593478 -4.69218e-11
0.00140629 -0.000422761 -0.000421514 -3.44915e-05
0.00167984 -0.000504428 -0.000503749 -1.86861e-05
0.00196913 -0.000590752 -0.000590733 -4.66875e-11
0.00169552 -0.000509141 -0.000508449 -1.86866e-05
0.00168768 -0.000506784 -0.000506099 -1.86864e-05
0.00139976 -0.000420794 -0.000419559 -3.44911e-05
0.00138671 -0.00041686 -0.000415648 -3.44903e-05
0.00194168 -0.000582516 -0.000582497 -4.60391e-11
0.00195998 -0.000588007 -0.000587987 -4.64677e-11
0.00139324 -0.000418827 -0.000417603 -3.44907e-05
0.00166416 -0.000499716 -0.000499049 -1.86857e-05
0.00195083 -0.000585262 -0.000585242 -4.62803e-11
0.00167984 -0.000504428 -0.000503749 -1.86861e-05
0.001672 -0.000502072 -0.000501399 -1.86859e-05
0.00138671 -0.00041686 -0.000415648 -3.44903e-05
0.00137365 -0.000412927 -0.000411738 -3.44895e-05
0.00192337 -0.000577025 -0.000577006 -4.5628e-11
0.00194168 -0.000582516 -0.000582497 -4.60391e-11
0.00138018 -0.000414894 -0.000413693 -3.44899e-05
0.00164849 -0.000495003 -0.00049435 -1.86852e-05
0.00193252 -0.000579771 -0.000579752 -4.58552e-11
0.00166416 -0.000499716 -0.000499049 -1.86857e-05
0.00165632 -0.000497359 -0.0004967 -1.86854e-05
0.00137365 -0.000412927 -0.000411738 -3.44895e-05
0.00136059 -0.000408994 -0.000407828 -3.44887e-05
0.00190507 -0.000571534 -0.000571516 -4.51877e-11
0.00192337 -0.000577025 -0.000577006 -4.56151e-11
0.00136712 -0.000410961 -0.000409783 -3.44891e-05
0.00163281 -0.000490291 -0.00048965 -1.86848e-05
0.00191422 -0.00057428 -0.000574261 -4.54324e-11
0.00164849 -0.000495003 -0.00049435 -1.86852e-05
0.00164065 -0.000492647 -0.000492 -1.8685e-05
0.00136059 -0.000408994 -0.000407828 -3.44887e-05
0.00134753 -0.000405061 -0.000403917 -3.44879e-05
0.00188677 -0.000566044 -0.000566026 -4.47479e-11
0.00190507 -0.000571534 -0.000571516 -4.52107e-11
0.00135406 -0.000407028 -0.000405872 -3.44883e-05
0.00161713 -0.000485578 -0.00048495 -1.86843e-05
0.00189592 -0.000568789 -0.000568771 -4.49906e-11
0.00163281 -0.000490291 -0.00048965 -1.86848e-05
0.00162497 -0.000487934 -0.0004873 -1.86845e-05
0.00134753 -0.000405061 -0.000403917 -3.44879e-05
0.00133448 -0.000401128 -0.000400007 -3.44871e-05
0.00186847 -0.000560553 -0.000560536 -4.43341e-11
0.00188677 -0.000566044 -0.000566026 -4.47479e-11
0.00134101 -0.000403095 -0.000401962 -3.44875e-05
0.00160145 -0.000480866 -0.00048025 -1.86838e-05
0.00187762 -0.000563298 -0.000563281 -4.45537e-11
0.00161713 -0.000485578 -0.00048495 -1.86843e-05
0.00160929 -0.000483222 -0.0004826 -1.86841e-05
0.00133448 -0.000401128 -0.000400007 -3.44871e-05
0.00132142 -0.000397196 -0.000396096 -3.44864e-05
0.00185017 -0.000555062 -0.000555045 -4.39254e-11
0.00186847 -0.000560553 -0.000560536 -4.43341e-11
0.00132795 -0.000399162 -0.000398051 -3.44867e-05
0.00158577 -0.000476154 -0.00047555 -1.86834e-05
0.00185932 -0.000557808 -0.00055779 -4.41544e-11
0.00160145 -0.000480866 -0.00048025 -1.86838e-05
0.00159361 -0.00047851 -0.0004779 -1.86836e-05
0.00132142 -0.000397196 -0.000396096 -3.44864e-05
0.00130836 -0.000393263 -0.000392185 -3.44856e-05
0.00183187 -0.000549572 -0.000549555 -4.34709e-11
0.00185017 -0.000555062 -0.000555045 -4.38873e-11
0.00131489 -0.00039523 -0.000394141 -3.4486e-05
0.00157009 -0.000471442 -0.00047085 -1.86829e-05
0.00184102 -0.000552317 -0.0005523 -4.36764e-11
0.00158577 -0.000476154 -0.00047555 -1.86834e-05
0.00157793 -0.000473798 -0.0004732 -1.86832e-05
0.00130836 -0.000393263 -0.000392185 -3.44856e-05
0.00129531 -0.000389331 -0.000388275 -3.44848e-05
0.00181357 -0.000544081 -0.000544065 -4.30598e-11
0.00183187 -0.000549572 -0.000549555 -4.34776e-11
0.00130183 -0.000391297 -0.00039023 -3.44852e-05
0.00155441 -0.00046673 -0.00046615 -1.86825e-05
0.00182272 -0.000546826 -0.00054681 -4.32482e-11
0.00157009 -0.000471442 -0.00047085 -1.86829e-05
0.00156225 -0.000469086 -0.0004685 -1.86827e-05
0.00129531 -0.000389331 -0.000388275 -3.44848e-05
0.00128225 -0.000385399 -0.000384364 -3.4484e-05
0.00179527 -0.000538591 -0.000538575 -4.26341e-11
0.00181357 -0.000544081 -0.000544065 -4.30598e-11
0.00128878 -0.000387365 -0.000386319 -3.44844e-05
0.00153873 -0.000462018 -0.00046145 -1.8682e-05
0.00180442 -0.000541336 -0.00054132 -4.28445e-11
0.00155441 -0.00046673 -0.00046615 -1.86825e-05
0.00154657 -0.000464374 -0.0004638 -1.86822e-05
0.00128225 -0.000385399 -0.000384364 -3.4484e-05
0.00126919 -0.000381467 -0.000380453 -3.44832e-05
0.00177696 -0.0005331 -0.000533085 -4.219e-11
0.00179527 -0.000538591 -0.000538575 -4.26341e-11
0.00127572 -0.000383433 -0.000382408 -3.44836e-05
0.00152305 -0.000457306 -0.000456749 -1.86816e-05
0.00178611 -0.000535845 -0.00053583 -4.2408e-11
0.00153873 -0.000462018 -0.00046145 -1.8682e-05
0.00153089 -0.000459662 -0.0004591 -1.86818e-05
0.00126919 -0.000381467 -0.000380453 -3.44832e-05
0.00125613 -0.000377535 -0.000376542 -3.44825e-05
0.00175866 -0.00052761 -0.000527595 -4.17607e-11
0.00177696 -0.0005331 -0.000533085 -4.21863e-11
0.00126266 -0.000379501 -0.000378497 -3.44828e-05
0.00150738 -0.000452595 -0.000452049 -1.86811e-05
0.00176781 -0.000530355 -0.00053034 -4.19903e-11
0.00152305 -0.000457306 -0.000456749 -1.86816e-05
0.00151522 -0.00045495 -0.000454399 -1.86813e-05
0.00125613 -0.000377535 -0.000376542 -3.44825e-05
0.00124307 -0.000373603 -0.000372631 -3.44817e-05
0.00174036 -0.000522119 -0.000522105 -4.13463e-11
0.00175866 -0.00052761 -0.000527595 -4.17606e-11
0.0012496 -0.000375569 -0.000374586 -3.44821e-05
0.0014917 -0.000447883 -0.000447349 -1.86807e-05
0.00174951 -0.000524865 -0.00052485 -4.1565e-11
0.00150738 -0.000452595 -0.000452049 -1.86811e-05
0.00149954 -0.000450239 -0.000449699 -1.86809e-05
0.00124307 -0.000373603 -0.000372631 -3.44817e-05
0.00123002 -0.000369671 -0.00036872 -3.44809e-05
0.00172206 -0.000516629 -0.000516615 -4.09167e-11
0.00174036 -0.000522119 -0.000522105 -4.13463e-11
0.00123655 -0.000371637 -0.000370675 -3.44813e-05
0.00147602 -0.000443171 -0.000442649 -1.86802e-05
0.00173121 -0.000519374 -0.00051936 -4.1148e-11
0.0014917 -0.000447883 -0.000447349 -1.86807e-05
0.00148386 -0.000445527 -0.000444999 -1.86804e-05
0.00123002 -0.000369671 -0.00036872 -3.44809e-05
0.00121696 -0.00036574 -0.000364809 -3.44801e-05
0.00170376 -0.000511139 -0.000511125 -4.04854e-11
0.00172206 -0.000516629 -0.000516615 -4.09167e-11
0.00122349 -0.000367705 -0.000366764 -3.44805e-05
0.00146034 -0.00043846 -0.000437949 -1.86798e-05
0.00171291 -0.000513884 -0.00051387 -4.07013e-11
0.00147602 -0.000443171 -0.000442649 -1.86802e-05
0.00146818 -0.000440816 -0.000440299 -1.868e-05
0.00121696 -0.00036574 -0.000364809 -3.44801e-05
0.0012039 -0.000361808 -0.000360897 -3.44794e-05
0.00168546 -0.000505648 -0.000505635 -4.00265e-11
0.00170376 -0.000511139 -0.000511125 -4.04854e-11
0.00121043 -0.000363774 -0.000362853 -3.44798e-05
0.00144466 -0.000433749 -0.000433249 -1.86793e-05
0.00169461 -0.000508394 -0.00050838 -4.02586e-11
0.00146034 -0.00043846 -0.000437949 -1.86798e-05
0.0014525 -0.000436104 -0.000435599 -1.86795e-05
0.0012039 -0.000361808 -0.000360897 -3.44794e-05
0.00119084 -0.000357877 -0.000356986 -3.44786e-05
0.00166716 -0.000500158 -0.000500145 -3.96035e-11
0.00168546 -0.000505648 -0.000505635 -4.00394e-11
0.00119737 -0.000359842 -0.000358942 -3.4479e-05
0.00142898 -0.000429038 -0.000428548 -1.86789e-05
0.00167631 -0.000502903 -0.00050289 -3.98022e-11
0.00144466 -0.000433749 -0.000433249 -1.86793e-05
0.00143682 -0.000431393 -0.000430899 -1.86791e-05
0.00119084 -0.000357877 -0.000356986 -3.44786e-05
0.00117779 -0.000353946 -0.000353074 -3.44778e-05
0.00164886 -0.000494668 -0.000494655 -3.91718e-11
0.00166716 -0.000500158 -0.000500145 -3.96035e-11
0.00118431 -0.000355911 -0.00035503 -3.44782e-05
0.00141331 -0.000424327 -0.000423848 -1.86784e-05
0.00165801 -0.000497413 -0.0004974 -3.93932e-11
0.00142898 -0.000429038 -0.000428548 -1.86789e-05
0.00142114 -0.000426682 -0.000426198 -1.86786e-05
0.00117779 -0.000353946 -0.000353074 -3.44778e-05
0.00116473 -0.000350015 -0.000349163 -3.44771e-05
0.00163056 -0.000489178 -0.000489166 -3.87367e-11
0.00164886 -0.000494668 -0.000494655 -3.91718e-11
0.00117126 -0.00035198 -0.000351119 -3.44775e-05
0.00139763 -0.000419616 -0.000419148 -1.8678e-05
0.00163971 -0.000491923 -0.000491911 -3.8963e-11
0.00141331 -0.000424327 -0.000423848 -1.86784e-05
0.00140547 -0.000421971 -0.000421498 -1.86782e-05
0.00116473 -0.000350015 -0.000349163 -3.44771e-05
0.00115167 -0.000346084 -0.000345251 -3.44763e-05
0.00161227 -0.000483688 -0.000483676 -3.82979e-11
0.00163056 -0.000489178 -0.000489166 -3.87496e-11
0.0011582 -0.000348049 -0.000347207 -3.44767e-05
0.00138195 -0.000414905 -0.000414448 -1.86775e-05
0.00162141 -0.000486433 -0.000486421 -3.85382e-11
0.00139763 -0.000419616 -0.000419148 -1.8678e-05
0.00138979 -0.00041726 -0.000416798 -1.86777e-05
0.00115167 -0.000346084 -0.000345251 -3.44763e-05
0.00113861 -0.000342153 -0.00034134 -3.44756e-05
0.00159397 -0.000478198 -0.000478186 -3.78984e-11
0.00161227 -0.000483688 -0.000483676 -3.82977e-11
0.00114514 -0.000344118 -0.000343295 -3.44759e-05
0.00136627 -0.000410194 -0.000409747 -1.86771e-05
0.00160312 -0.000480943 -0.000480931 -3.81058e-11
0.00138195 -0.000414905 -0.000414448 -1.86775e-05
0.00137411 -0.000412549 -0.000412098 -1.86773e-05
0.00113861 -0.000342153 -0.00034134 -3.44756e-05
0.00112555 -0.000338222 -0.000337428 -3.44748e-05
0.00157567 -0.000472708 -0.000472697 -3.74298e-11
0.00159397 -0.000478198 -0.000478186 -3.78984e-11
0.00113208 -0.000340188 -0.000339384 -3.44752e-05
0.00135059 -0.000405483 -0.000405047 -1.86766e-05
0.00158482 -0.000475453 -0.000475442 -3.76776e-11
0.00136627 -0.000410194 -0.000409747 -1.86771e-05
0.00135843 -0.000407838 -0.000407397 -1.86769e-05
0.00112555 -0.000338222 -0.000337428 -3.44748e-05
0.0011125 -0.000334292 -0.000333516 -3.44741e-05
0.00155737 -0.000467218 -0.000467207 -3.70216e-11
0.00157567 -0.000472708 -0.000472697 -3.74298e-11
0.00111902 -0.000336257 -0.000335472 -3.44744e-05
0.00133491 -0.000400772 -0.000400347 -1.86762e-05
0.00156652 -0.000469963 -0.000469952 -3.7247e-11
0.00135059 -0.000405483 -0.000405047 -1.86766e-05
0.00134275 -0.000403128 -0.000402697 -1.86764e-05
0.0011125 -0.000334292 -0.000333516 -3.44741e-05
0.00109944 -0.000330362 -0.000329604 -3.44733e-05
0.00153907 -0.000461728 -0.000461718 -3.6599e-11
0.00155737 -0.000467218 -0.000467207 -3.70213e-11
0.00110597 -0.000332327 -0.00033156 -3.44737e-05
0.00131924 -0.000396062 -0.000395646 -1.86758e-05
0.00154822 -0.000464473 -0.000464462 -3.68053e-11
0.00133491 -0.000400772 -0.000400347 -1.86762e-05
0.00132708 -0.000398417 -0.000397996 -1.8676e-05
0.00109944 -0.000330362 -0.000329604 -3.44733e-05
0.00108638 -0.000326431 -0.000325692 -3.44726e-05
0.00152077 -0.000456238 -0.000456228 -3.6172e-11
0.00153907 -0.000461728 -0.000461718 -3.65818e-11
0.00109291 -0.000328397 -0.000327648 -3.4473e-05
0.00130356 -0.000391351 -0.000390946 -1.86753e-05
0.00152992 -0.000458983 -0.000458973 -3.64009e-11
0.00131924 -0.000396062 -0.000395646 -1.86758e-05
0.0013114 -0.000393707 -0.000393296 -1.86756e-05
0.00108638 -0.000326431 -0.000325692 -3.44726e-05
0.00107332 -0.000322501 -0.00032178 -3.44718e-05
0.00150247 -0.000450748 -0.000450739 -3.57205e-11
0.00152077 -0.000456238 -0.000456228 -3.6172e-11
0.00107985 -0.000324466 -0.000323736 -3.44722e-05
0.00128788 -0.000386641 -0.000386245 -1.86749e-05
0.00151162 -0.000453493 -0.000453483 -3.59284e-11
0.00130356 -0.000391351 -0.000390946 -1.86753e-05
0.00129572 -0.000388996 -0.000388596 -1.86751e-05
0.00107332 -0.000322501 -0.00032178 -3.44718e-05
0.00106026 -0.000318571 -0.000317868 -3.44711e-05
0.00148417 -0.000445258 -0.000445249 -3.52892e-11
0.00150247 -0.000450748 -0.000450739 -3.57205e-11
0.00106679 -0.000320536 -0.000319824 -3.44715e-05
0.0012722 -0.000381931 -0.000381545 -1.86745e-05
0.00149332 -0.000448003 -0.000447994 -3.5525e-11
0.00128788 -0.000386641 -0.000386245 -1.86749e-05
0.00128004 -0.000384286 -0.000383895 -1.86747e-05
0.00106026 -0.000318571 -0.000317868 -3.44711e-05
0.0010472 -0.000314642 -0.000313955 -3.44704e-05
0.00146587 -0.000439768 -0.00043976 -3.48653e-11
0.00148417 -0.000445258 -0.000445249 -3.53245e-11
0.00105373 -0.000316607 -0.000315912 -3.44707e-05
0.00125652 -0.000377221 -0.000376844 -1.8674e-05
0.00147502 -0.000442513 -0.000442505 -3.50734e-11
0.0012722 -0.000381931 -0.000381545 -1.86745e-05
0.00126436 -0.000379576 -0.000379195 -1.86743e-05
0.0010472 -0.000314642 -0.000313955 -3.44704e-05
0.00103415 -0.000310712 -0.000310043 -3.44696e-05
0.00144758 -0.000434279 -0.000434271 -3.44076e-11
0.00146587 -0.000439768 -0.00043976 -3.48653e-11
0.00104068 -0.000312677 -0.000311999 -3.447e-05
0.00124085 -0.00037251 -0.000372144 -1.86736e-05
0.00145673 -0.000437024 -0.000437015 -3.46158e-11
0.00125652 -0.000377221 -0.000376844 -1.8674e-05
0.00124869 -0.000374866 -0.000374494 -1.86738e-05
0.00103415 -0.000310712 -0.000310043 -3.44696e-05
0.00102109 -0.000306782 -0.000306131 -3.44689e-05
0.00142928 -0.000428789 -0.000428781 -3.39961e-11
0.00144758 -0.000434279 -0.000434271 -3.44076e-11
0.00102762 -0.000308747 -0.000308087 -3.44693e-05
0.00122517 -0.0003678 -0.000367443 -1.86732e-05
0.00143843 -0.000431534 -0.000431526 -3.42188e-11
0.00124085 -0.00037251 -0.000372144 -1.86736e-05
0.00123301 -0.000370155 -0.000369794 -1.86734e-05
0.00102109 -0.000306782 -0.000306131 -3.44689e-05
0.00100803 -0.000302853 -0.000302218 -3.44682e-05
0.00141098 -0.000423299 -0.000423292 -3.35557e-11
0.00142928 -0.000428789 -0.000428781 -3.39961e-11
0.00101456 -0.000304818 -0.000304174 -3.44685e-05
0.00120949 -0.000363091 -0.000362743 -1.86728e-05
0.00142013 -0.000426044 -0.000426037 -3.37819e-11
0.00122517 -0.0003678 -0.000367443 -1.86732e-05
0.00121733 -0.000365445 -0.000365093 -1.8673e-05
0.00100803 -0.000302853 -0.000302218 -3.44682e-05
0.00099497 -0.000298924 -0.000298305 -3.44675e-05
0.00139268 -0.00041781 -0.000417803 -3.31411e-11
0.00141098 -0.000423299 -0.000423292 -3.35554e-11
0.0010015 -0.000300888 -0.000300262 -3.44678e-05
0.00119381 -0.000358381 -0.000358042 -1.86723e-05
0.00140183 -0.000420554 -0.000420547 -3.33485e-11
0.00120949 -0.000363091 -0.000362743 -1.86728e-05
0.00120165 -0.000360736 -0.000360392 -1.86725e-05
0.00099497 -0.000298924 -0.000298305 -3.44675e-05
0.000981911 -0.000294995 -0.000294393 -3.44667e-05
0.00137438 -0.00041232 -0.000412313 -3.26987e-11
0.00139268 -0.00041781 -0.000417803 -3.31274e-11
0.00098844 -0.000296959 -0.000296349 -3.44671e-05
0.00117813 -0.000353671 -0.000353342 -1.86719e-05
0.00138353 -0.000415065 -0.000415058 -3.2904e-11
0.00119381 -0.000358381 -0.000358042 -1.86723e-05
0.00118597 -0.000356026 -0.000355692 -1.86721e-05
0.000981911 -0.000294995 -0.000294393 -3.44667e-05
0.000968852 -0.000291066 -0.00029048 -3.4466e-05
0.00135609 -0.00040683 -0.000406824 -3.22596e-11
0.00137438 -0.00041232 -0.000412313 -3.26987e-11
0.000975382 -0.00029303 -0.000292436 -3.44664e-05
0.00116246 -0.000348961 -0.000348641 -1.86715e-05
0.00136524 -0.000409575 -0.000409569 -3.24897e-11
0.00117813 -0.000353671 -0.000353342 -1.86719e-05
0.0011703 -0.000351316 -0.000350991 -1.86717e-05
0.000968852 -0.000291066 -0.00029048 -3.4466e-05
0.000955793 -0.000287137 -0.000286567 -3.44653e-05
0.00133779 -0.000401341 -0.000401335 -3.18397e-11
0.00135609 -0.00040683 -0.000406824 -3.22596e-11
0.000962323 -0.000289101 -0.000288524 -3.44657e-05
0.00114678 -0.000344252 -0.00034394 -1.86711e-05
0.00134694 -0.000404086 -0.00040408 -3.20467e-11
0.00116246 -0.000348961 -0.000348641 -1.86715e-05
0.00115462 -0.000346606 -0.00034629 -1.86713e-05
0.000955793 -0.000287137 -0.000286567 -3.44653e-05
0.000942734 -0.000283208 -0.000282654 -3.44646e-05
0.00131949 -0.000395851 -0.000395846 -3.14076e-11
0.00133779 -0.000401341 -0.000401335 -3.18264e-11
0.000949264 -0.000285172 -0.000284611 -3.4465e-05
0.0011311 -0.000339542 -0.000339239 -1.86707e-05
0.00132864 -0.000398596 -0.000398591 -3.16251e-11
0.00114678 -0.000344252 -0.00034394 -1.86711e-05
0.00113894 -0.000341897 -0.00034159 -1.86709e-05
0.000942734 -0.000283208 -0.000282654 -3.44646e-05
0.000929675 -0.000279279 -0.000278741 -3.44639e-05
0.00130119 -0.000390362 -0.000390357 -3.09824e-11
0.00131949 -0.000395851 -0.000395846 -3.14075e-11
0.000936205 -0.000281244 -0.000280698 -3.44643e-05
0.00111542 -0.000334833 -0.000334539 -1.86703e-05
0.00131034 -0.000393107 -0.000393101 -3.1182e-11
0.0011311 -0.000339542 -0.000339239 -1.86707e-05
0.00112326 -0.000337188 -0.000336889 -1.86705e-05
0.000929675 -0.000279279 -0.000278741 -3.44639e-05
0.000916616 -0.000275351 -0.000274828 -3.44632e-05
0.0012829 -0.000384872 -0.000384868 -3.05395e-11
0.00130119 -0.000390362 -0.000390357 -3.09824e-11
0.000923146 -0.000277315 -0.000276785 -3.44636e-05
0.00109975 -0.000330124 -0.000329838 -1.86698e-05
0.00129205 -0.000387617 -0.000387612 -3.07552e-11
0.00111542 -0.000334833 -0.000334539 -1.86703e-05
0.00110758 -0.000332478 -0.000332188 -1.867e-05
0.000916616 -0.000275351 -0.000274828 -3.44632e-05
0.000903557 -0.000271422 -0.000270915 -3.44625e-05
0.0012646 -0.000379383 -0.000379379 -3.01185e-11
0.0012829 -0.000384872 -0.000384868 -3.05395e-11
0.000910087 -0.000273387 -0.000272871 -3.44629e-05
0.00108407 -0.000325414 -0.000325137 -1.86694e-05
0.00127375 -0.000382128 -0.000382123 -3.03179e-11
0.00109975 -0.000330124 -0.000329838 -1.86698e-05
0.00109191 -0.000327769 -0.000327487 -1.86696e-05
0.000903557 -0.000271422 -0.000270915 -3.44625e-05
0.000890498 -0.000267494 -0.000267002 -3.44618e-05
0.0012463 -0.000373894 -0.00037389 -2.96676e-11
0.0012646 -0.000379383 -0.000379379 -3.01191e-11
0.000897027 -0.000269458 -0.000268958 -3.44622e-05
0.00106839 -0.000320705 -0.000320436 -1.8669e-05
0.00125545 -0.000376638 -0.000376634 -2.98795e-11
0.00108407 -0.000325414 -0.000325137 -1.86694e-05
0.00107623 -0.00032306 -0.000322787 -1.86692e-05
0.000890498 -0.000267494 -0.000267002 -3.44618e-05
0.000877438 -0.000263566 -0.000263088 -3.44611e-05
0.00122801 -0.000368404 -0.000368401 -2.92335e-11
0.0012463 -0.000373894 -0.00037389 -2.96639e-11
0.000883968 -0.00026553 -0.000265045 -3.44615e-05
0.00105271 -0.000315996 -0.000315735 -1.86686e-05
0.00123715 -0.000371149 -0.000371145 -2.94647e-11
0.00106839 -0.000320705 -0.000320436 -1.8669e-05
0.00106055 -0.000318351 -0.000318086 -1.86688e-05
0.000877438 -0.000263566 -0.000263088 -3.44611e-05
0.000864379 -0.000259638 -0.000259175 -3.44605e-05
0.00120971 -0.000362915 -0.000362912 -2.87931e-11
0.00122801 -0.000368404 -0.000368401 -2.92335e-11
0.000870909 -0.000261602 -0.000261131 -3.44608e-05
0.00103703 -0.000311287 -0.000311034 -1.86682e-05
0.00121886 -0.00036566 -0.000365656 -2.90096e-11
0.00105271 -0.000315996 -0.000315735 -1.86686e-05
0.00104487 -0.000313642 -0.000313385 -1.86684e-05
0.000864379 -0.000259638 -0.000259175 -3.44605e-05
0.000851319 -0.00025571 -0.000255261 -3.44598e-05
0.00119141 -0.000357426 -0.000357423 -2.83744e-11
0.00120971 -0.000362915 -0.000362912 -2.87931e-11
0.000857849 -0.000257674 -0.000257218 -3.44601e-05
0.00102136 -0.000306578 -0.000306333 -1.86678e-05
0.00120056 -0.00036017 -0.000360167 -2.85868e-11
0.00103703 -0.000311287 -0.000311034 -1.86682e-05
0.00102919 -0.000308933 -0.000308684 -1.8668e-05
0.000851319 -0.00025571 -0.000255261 -3.44598e-05
0.00083826 -0.000251782 -0.000251347 -3.44591e-05
0.00117312 -0.000351936 -0.000351934 -2.78967e-11
0.00119141 -0.000357426 -0.000357423 -2.8384e-11
0.00084479 -0.000253746 -0.000253304 -3.44595e-05
0.00100568 -0.000301869 -0.000301632 -1.86674e-05
0.00118226 -0.000354681 -0.000354678 -2.81444e-11
0.00102136 -0.000306578 -0.000306333 -1.86678e-05
0.00101352 -0.000304224 -0.000303983 -1.86676e-05
0.00083826 -0.000251782 -0.000251347 -3.44591e-05
0.0008252 -0.000247855 -0.000247434 -3.44585e-05
0.00115482 -0.000346447 -0.000346445 -2.75005e-11
0.00117312 -0.000351936 -0.000351934 -2.78967e-11
0.00083173 -0.000249819 -0.000249391 -3.44588e-05
0.00099 -0.000297161 -0.000296931 -1.8667e-05
0.00116397 -0.000349192 -0.00034919 -2.77132e-11
0.00100568 -0.000301869 -0.000301632 -1.86674e-05
0.000997839 -0.000299515 -0.000299282 -1.86672e-05
0.0008252 -0.000247855 -0.000247434 -3.44585e-05
0.00081214 -0.000243927 -0.00024352 -3.44578e-05
0.00113652 -0.000340958 -0.000340956 -2.70993e-11
0.00115482 -0.000346447 -0.000346445 -2.75005e-11
0.00081867 -0.000245891 -0.000245477 -3.44581e-05
0.000974322 -0.000292452 -0.00029223 -1.86666e-05
0.00114567 -0.000343702 -0.000343701 -2.72641e-11
0.00099 -0.000297161 -0.000296931 -1.8667e-05
0.000982161 -0.000294806 -0.000294581 -1.86668e-05
0.00081214 -0.000243927 -0.00024352 -3.44578e-05
0.000799081 -0.00024 -0.000239606 -3.44571e-05
0.00111823 -0.000335469 -0.000335467 -2.6647e-11
0.00113652 -0.000340958 -0.000340956 -2.70993e-11
0.00080561 -0.000241964 -0.000241563 -3.44575e-05
0.000958644 -0.000287743 -0.000287529 -1.86663e-05
0.00112737 -0.000338213 -0.000338212 -2.68407e-11
0.000974322 -0.000292452 -0.00029223 -1.86666e-05
0.000966483 -0.000290098 -0.00028988 -1.86664e-05
0.000799081 -0.00024 -0.000239606 -3.44571e-05
0.000786021 -0.000236073 -0.000235692 -3.44565e-05
0.00109993 -0.000329979 -0.000329979 -2.61958e-11
0.00111823 -0.000335469 -0.000335467 -2.66467e-11
0.000792551 -0.000238036 -0.000237649 -3.44568e-05
0.000942967 -0.000283035 -0.000282828 -1.86659e-05
0.00110908 -0.000332724 -0.000332723 -2.64039e-11
0.000958644 -0.000287743 -0.000287529 -1.86663e-05
0.000950806 -0.000285389 -0.000285178 -1.86661e-05
0.000786021 -0.000236073 -0.000235692 -3.44565e-05
0.000772961 -0.000232146 -0.000231778 -3.44558e-05
0.00108163 -0.00032449 -0.00032449 -2.57464e-11
0.00109993 -0.000329979 -0.000329979 -2.61951e-11
0.000779491 -0.000234109 -0.000233735 -3.44561e-05
0.000927289 -0.000278326 -0.000278127 -1.86655e-05
0.00109078 -0.000327235 -0.000327234 -2.59733e-11
0.000942967 -0.000283035 -0.000282828 -1.86659e-05
0.000935128 -0.000280681 -0.000280477 -1.86657e-05
0.000772961 -0.000232146 -0.000231778 -3.44558e-05
0.0007599 -0.000228219 -0.000227864 -3.44552e-05
0.00106334 -0.000319001 -0.000319001 -2.53058e-11
0.00108163 -0.00032449 -0.00032449 -2.57464e-11
0.00076643 -0.000230182 -0.000229821 -3.44555e-05
0.000911611 -0.000273618 -0.000273425 -1.86651e-05
0.00107249 -0.000321746 -0.000321746 -2.55323e-11
0.000927289 -0.000278326 -0.000278127 -1.86655e-05
0.00091945 -0.000275972 -0.000275776 -1.86653e-05
0.0007599 -0.000228219 -0.000227864 -3.44552e-05
0.00074684 -0.000224292 -0.000223949 -3.44545e-05
0.00104504 -0.000313512 -0.000313512 -2.48749e-11
0.00106334 -0.000319001 -0.000319001 -2.53058e-11
0.00075337 -0.000226255 -0.000225906 -3.44549e-05
0.000895933 -0.00026891 -0.000268724 -1.86647e-05
0.00105419 -0.000316257 -0.000316257 -2.50751e-11
0.000911611 -0.000273618 -0.000273425 -1.86651e-05
0.000903772 -0.000271264 -0.000271075 -1.86649e-05
0.00074684 -0.000224292 -0.000223949 -3.44545e-05
0.00073378 -0.000220365 -0.000220035 -3.44539e-05
0.00102675 -0.000308023 -0.000308024 -2.44456e-11
0.00104504 -0.000313512 -0.000313512 -2.49015e-11
0.00074031 -0.000222328 -0.000221992 -3.44542e-05
0.000880255 -0.000264202 -0.000264023 -1.86643e-05
0.00103589 -0.000310768 -0.000310768 -2.46389e-11
0.000895933 -0.00026891 -0.000268724 -1.86647e-05
0.000888094 -0.000266556 -0.000266374 -1.86645e-05
0.00073378 -0.000220365 -0.000220035 -3.44539e-05
0.000720719 -0.000216438 -0.00021612 -3.44533e-05
0.00100845 -0.000302534 -0.000302535 -2.39964e-11
0.00102675 -0.000308023 -0.000308024 -2.44459e-11
0.00072725 -0.000218402 -0.000218078 -3.44536e-05
0.000864577 -0.000259493 -0.000259322 -1.8664e-05
0.0010176 -0.000305278 -0.000305279 -2.42628e-11
0.000880255 -0.000264202 -0.000264023 -1.86643e-05
0.000872416 -0.000261848 -0.000261672 -1.86642e-05
0.000720719 -0.000216438 -0.00021612 -3.44533e-05
0.000707659 -0.000212512 -0.000212206 -3.44526e-05
0.000990153 -0.000297045 -0.000297046 -2.35612e-11
0.00100845 -0.000302534 -0.000302535 -2.39964e-11
0.000714189 -0.000214475 -0.000214163 -3.4453e-05
0.000848899 -0.000254785 -0.00025462 -1.86636e-05
0.000999301 -0.000299789 -0.000299791 -2.37756e-11
0.000864577 -0.000259493 -0.000259322 -1.8664e-05
0.000856738 -0.000257139 -0.000256971 -1.86638e-05
0.000707659 -0.000212512 -0.000212206 -3.44526e-05
0.000694598 -0.000208585 -0.000208291 -3.4452e-05
0.000971857 -0.000291556 -0.000291558 -2.31583e-11
0.000990153 -0.000297045 -0.000297046 -2.35612e-11
0.000701129 -0.000210549 -0.000210249 -3.44523e-05
0.000833221 -0.000250077 -0.000249919 -1.86632e-05
0.000981005 -0.0002943 -0.000294302 -2.3335e-11
0.000848899 -0.000254785 -0.00025462 -1.86636e-05
0.00084106 -0.000252431 -0.000252269 -1.86634e-05
0.000694598 -0.000208585 -0.000208291 -3.4452e-05
0.000681537 -0.000204659 -0.000204376 -3.44514e-05
0.000953561 -0.000286067 -0.000286069 -2.27337e-11
0.000971857 -0.000291556 -0.000291558 -2.31582e-11
0.000688068 -0.000206622 -0.000206334 -3.44517e-05
0.000817543 -0.00024537 -0.000245217 -1.86629e-05
0.000962709 -0.000288811 -0.000288813 -2.29663e-11
0.000833221 -0.000250077 -0.000249919 -1.86632e-05
0.000825382 -0.000247724 -0.000247568 -1.8663e-05
0.000681537 -0.000204659 -0.000204376 -3.44514e-05
0.000668477 -0.000200733 -0.000200462 -3.44508e-05
0.000935266 -0.000280578 -0.00028058 -2.22774e-11
0.000953561 -0.000286067 -0.000286069 -2.27297e-11
0.000675007 -0.000202696 -0.000202419 -3.44511e-05
0.000801865 -0.000240662 -0.000240516 -1.86625e-05
0.000944413 -0.000283322 -0.000283325 -2.24999e-11
0.000817543 -0.00024537 -0.000245217 -1.86629e-05
0.000809704 -0.000243016 -0.000242866 -1.86627e-05
0.000668477 -0.000200733 -0.000200462 -3.44508e-05
0.000655416 -0.000196807 -0.000196547 -3.44502e-05
0.00091697 -0.000275089 -0.000275092 -2.18376e-11
0.000935266 -0.000280578 -0.00028058 -2.22774e-11
0.000661946 -0.00019877 -0.000198504 -3.44505e-05
0.000786187 -0.000235954 -0.000235814 -1.86621e-05
0.000926118 -0.000277833 -0.000277836 -2.20124e-11
0.000801865 -0.000240662 -0.000240516 -1.86625e-05
0.000794026 -0.000238308 -0.000238165 -1.86623e-05
0.000655416 -0.000196807 -0.000196547 -3.44502e-05
0.000642355 -0.000192881 -0.000192632 -3.44496e-05
0.000898674 -0.0002696 -0.000269603 -2.14244e-11
0.00091697 -0.000275089 -0.000275092 -2.18141e-11
0.000648885 -0.000194844 -0.000194589 -3.44499e-05
0.000770509 -0.000231246 -0.000231112 -1.86618e-05
0.000907822 -0.000272344 -0.000272348 -2.16485e-11
0.000786187 -0.000235954 -0.000235814 -1.86621e-05
0.000778348 -0.0002336 -0.000233463 -1.8662e-05
0.000642355 -0.000192881 -0.000192632 -3.44496e-05
0.000629293 -0.000188955 -0.000188716 -3.4449e-05
0.000880379 -0.000264111 -0.000264115 -2.09461e-11
0.000898674 -0.0002696 -0.000269603 -2.14244e-11
0.000635824 -0.000190918 -0.000190674 -3.44493e-05
0.00075483 -0.000226539 -0.000226411 -1.86614e-05
0.000889526 -0.000266855 -0.000266859 -2.1197e-11
0.000770509 -0.000231246 -0.000231112 -1.86618e-05
0.00076267 -0.000228893 -0.000228762 -1.86616e-05
0.000629293 -0.000188955 -0.000188716 -3.4449e-05
0.000616232 -0.00018503 -0.000184801 -3.44484e-05
0.000862083 -0.000258622 -0.000258626 -2.05147e-11
0.000880379 -0.000264111 -0.000264115 -2.09461e-11
0.000622763 -0.000186992 -0.000186759 -3.44487e-05
0.000739152 -0.000221831 -0.000221709 -1.86611e-05
0.000871231 -0.000261367 -0.00026137 -2.07149e-11
0.00075483 -0.000226539 -0.000226411 -1.86614e-05
0.000746991 -0.000224185 -0.00022406 -1.86613e-05
0.000616232 -0.00018503 -0.000184801 -3.44484e-05
0.000603171 -0.000181104 -0.000180886 -3.44478e-05
0.000843787 -0.000253133 -0.000253138 -2.00856e-11
0.000862083 -0.000258622 -0.000258626 -2.0514e-11
0.000609701 -0.000183067 -0.000182843 -3.44481e-05
0.000723474 -0.000217124 -0.000217007 -1.86607e-05
0.000852935 -0.000255878 -0.000255882 -2.03097e-11
0.000739152 -0.000221831 -0.000221709 -1.86611e-05
0.000731313 -0.000219477 -0.000219358 -1.86609e-05
0.000603171 -0.000181104 -0.000180886 -3.44478e-05
0.000590109 -0.000177178 -0.00017697 -3.44472e-05
0.000825492 -0.000247644 -0.000247649 -1.96797e-11
0.000843787 -0.000253133 -0.000253138 -2.00683e-11
0.00059664 -0.000179141 -0.000178928 -3.44475e-05
0.000707796 -0.000212416 -0.000212305 -1.86604e-05
0.00083464 -0.000250389 -0.000250393 -1.98774e-11
0.000723474 -0.000217124 -0.000217007 -1.86607e-05
0.000715635 -0.00021477 -0.000214656 -1.86606e-05
0.000590109 -0.000177178 -0.00017697 -3.44472e-05
0.000577047 -0.000173253 -0.000173055 -3.44467e-05
0.000807196 -0.000242155 -0.00024216 -1.9219e-11
0.000825492 -0.000247644 -0.000247649 -1.96797e-11
0.000583578 -0.000175216 -0.000175012 -3.4447e-05
0.000692117 -0.000207709 -0.000207604 -1.866e-05
0.000816344 -0.0002449 -0.000244905 -1.9438e-11
0.000707796 -0.000212416 -0.000212305 -1.86604e-05
0.000699956 -0.000210063 -0.000209955 -1.86602e-05
0.000577047 -0.000173253 -0.000173055 -3.44467e-05
0.000563986 -0.000169328 -0.000169139 -3.44461e-05
0.000788901 -0.000236667 -0.000236672 -1.87672e-11
0.000807196 -0.000242155 -0.00024216 -1.9219e-11
0.000570517 -0.00017129 -0.000171097 -3.44464e-05
0.000676439 -0.000203002 -0.000202902 -1.86597e-05
0.000798049 -0.000239411 -0.000239416 -1.89623e-11
0.000692117 -0.000207709 -0.000207604 -1.866e-05
0.000684278 -0.000205355 -0.000205253 -1.86599e-05
0.000563986 -0.000169328 -0.000169139 -3.44461e-05
0.000550924 -0.000165403 -0.000165223 -3.44455e-05
0.000770606 -0.000231178 -0.000231183 -1.83548e-11
0.000788901 -0.000236667 -0.000236672 -1.88037e-11
0.000557455 -0.000167365 -0.000167181 -3.44458e-05
0.00066076 -0.000198295 -0.0001982 -1.86594e-05
0.000779753 -0.000233922 -0.000233928 -1.85837e-11
0.000676439 -0.000203002 -0.000202902 -1.86597e-05
0.0006686 -0.000200648 -0.000200551 -1.86595e-05
0.000550924 -0.000165403 -0.000165223 -3.44455e-05
0.000537862 -0.000161478 -0.000161307 -3.4445e-05
0.00075231 -0.000225689 -0.000225695 -1.79171e-11
0.000770606 -0.000231178 -0.000231183 -1.83548e-11
0.000544393 -0.00016344 -0.000163265 -3.44453e-05
0.000645082 -0.000193587 -0.000193498 -1.8659e-05
0.000761458 -0.000228433 -0.000228439 -1.81511e-11
0.00066076 -0.000198295 -0.0001982 -1.86594e-05
0.000652921 -0.000195941 -0.000195849 -1.86592e-05
0.000537862 -0.000161478 -0.000161307 -3.4445e-05
0.000524799 -0.000157553 -0.000157391 -3.44444e-05
0.000734015 -0.0002202 -0.000220206 -1.74415e-11
0.00075231 -0.000225689 -0.000225695 -1.79171e-11
0.000531331 -0.000159515 -0.000159349 -3.44447e-05
0.000629403 -0.00018888 -0.000188796 -1.86587e-05
0.000743163 -0.000222944 -0.000222951 -1.76541e-11
0.000645082 -0.000193587 -0.000193498 -1.8659e-05
0.000637243 -0.000191234 -0.000191147 -1.86589e-05
0.000524799 -0.000157553 -0.000157391 -3.44444e-05
0.000511737 -0.000153628 -0.000153475 -3.44439e-05
0.00071572 -0.000214711 -0.000214718 -1.70355e-11
0.000734015 -0.0002202 -0.000220206 -1.74415e-11
0.000518268 -0.00015559 -0.000155433 -3.44442e-05
0.000613725 -0.000184173 -0.000184093 -1.86584e-05
0.000724867 -0.000217456 -0.000217462 -1.72683e-11
0.000629403 -0.00018888 -0.000188796 -1.86587e-05
0.000621564 -0.000186527 -0.000186445 -1.86585e-05
0.000511737 -0.000153628 -0.000153475 -3.44439e-05
0.000498675 -0.000149703 -0.000149559 -3.44434e-05
0.000697424 -0.000209222 -0.000209229 -1.66042e-11
0.00071572 -0.000214711 -0.000214718 -1.70355e-11
0.000505206 -0.000151666 -0.000151517 -3.44436e-05
0.000598046 -0.000179466 -0.000179391 -1.8658e-05
0.000706572 -0.000211967 -0.000211974 -1.68472e-11
0.000613725 -0.000184173 -0.000184093 -1.86584e-05
0.000605885 -0.00018182 -0.000181742 -1.86582e-05
0.000498675 -0.000149703 -0.000149559 -3.44434e-05
0.000485612 -0.000145779 -0.000145643 -3.44428e-05
0.000679129 -0.000203733 -0.000203741 -1.61483e-11
0.000697424 -0.000209222 -0.000209229 -1.66135e-11
0.000492143 -0.000147741 -0.000147601 -3.44431e-05
0.000582367 -0.000174759 -0.000174689 -1.86577e-05
0.000688277 -0.000206478 -0.000206485 -1.63689e-11
0.000598046 -0.000179466 -0.000179391 -1.8658e-05
0.000590207 -0.000177113 -0.00017704 -1.86579e-05
0.000485612 -0.000145779 -0.000145643 -3.44428e-05
0.000472549 -0.000141854 -0.000141726 -3.44423e-05
0.000660834 -0.000198245 -0.000198252 -1.57329e-11
0.000679129 -0.000203733 -0.000203741 -1.61483e-11
0.000479081 -0.000143817 -0.000143685 -3.44426e-05
0.000566688 -0.000170053 -0.000169987 -1.86574e-05
0.000669981 -0.000200989 -0.000200997 -1.59464e-11
0.000582367 -0.000174759 -0.000174689 -1.86577e-05
0.000574528 -0.000172406 -0.000172338 -1.86576e-05
0.000472549 -0.000141854 -0.000141726 -3.44423e-05
0.000459487 -0.00013793 -0.00013781 -3.44418e-05
0.000642538 -0.000192756 -0.000192764 -1.52783e-11
0.000660834 -0.000198245 -0.000198252 -1.57329e-11
0.000466018 -0.000139892 -0.000139768 -3.4442e-05
0.000551009 -0.000165346 -0.000165284 -1.86571e-05
0.000651686 -0.0001955 -0.000195508 -1.55374e-11
0.000566688 -0.000170053 -0.000169987 -1.86574e-05
0.000558849 -0.000167699 -0.000167636 -1.86572e-05
0.000459487 -0.00013793 -0.00013781 -3.44418e-05
0.000446424 -0.000134006 -0.000133893 -3.44413e-05
0.000624243 -0.000187267 -0.000187275 -1.47977e-11
0.000642538 -0.000192756 -0.000192764 -1.52514e-11
0.000452955 -0.000135968 -0.000135852 -3.44415e-05
0.00053533 -0.000160639 -0.000160582 -1.86568e-05
0.000633391 -0.000190011 -0.00019002 -1.50932e-11
0.000551009 -0.000165346 -0.000165284 -1.86571e-05
0.00054317 -0.000162993 -0.000162933 -1.86569e-05
0.000446424 -0.000134006 -0.000133893 -3.44413e-05
0.00043336 -0.000130082 -0.000129977 -3.44407e-05
0.000605948 -0.000181778 -0.000181787 -1.43047e-11
0.000624243 -0.000187267 -0.000187275 -1.47977e-11
0.000439892 -0.000132044 -0.000131935 -3.4441e-05
0.000519651 -0.000155933 -0.00015588 -1.86565e-05
0.000615095 -0.000184523 -0.000184531 -1.45521e-11
0.00053533 -0.000160639 -0.000160582 -1.86568e-05
0.000527491 -0.000158286 -0.000158231 -1.86566e-05
0.00043336 -0.000130082 -0.000129977 -3.44407e-05
0.000420297 -0.000126158 -0.00012606 -3.44402e-05
0.000587652 -0.000176289 -0.000176298 -1.37566e-11
0.000605948 -0.000181778 -0.000181787 -1.43047e-11
0.000426829 -0.00012812 -0.000128018 -3.44405e-05
0.000503972 -0.000151226 -0.000151177 -1.86562e-05
0.0005968 -0.000179034 -0.000179043 -1.40741e-11
0.000519651 -0.000155933 -0.00015588 -1.86565e-05
0.000511812 -0.000153579 -0.000153528 -1.86563e-05
0.000420297 -0.000126158 -0.00012606 -3.44402e-05
0.000407234 -0.000122234 -0.000122143 -3.44398e-05
0.000569357 -0.0001708 -0.00017081 -1.32004e-11
0.000587652 -0.000176289 -0.000176298 -1.37566e-11
0.000413765 -0.000124196 -0.000124101 -3.444e-05
0.000488293 -0.000146519 -0.000146474 -1.86559e-05
0.000578505 -0.000173545 -0.000173554 -1.34947e-11
0.000503972 -0.000151226 -0.000151177 -1.86562e-05
0.000496133 -0.000148873 -0.000148826 -1.8656e-05
0.000407234 -0.000122234 -0.000122143 -3.44398e-05
0.00039417 -0.00011831 -0.000118226 -3.44393e-05
0.000551062 -0.000165312 -0.000165322 -1.26288e-11
0.000569357 -0.0001708 -0.00017081 -1.32007e-11
0.000400702 -0.000120272 -0.000120184 -3.44395e-05
0.000472614 -0.000141813 -0.000141772 -1.86556e-05
0.00056021 -0.000168056 -0.000168066 -1.29334e-11
0.000488293 -0.000146519 -0.000146474 -1.86559e-05
0.000480453 -0.000144166 -0.000144123 -1.86557e-05
0.00039417 -0.00011831 -0.000118226 -3.44393e-05
0.000381106 -0.000114386 -0.000114309 -3.44388e-05
0.000532767 -0.000159823 -0.000159833 -1.1931e-11
0.000551062 -0.000165312 -0.000165322 -1.25985e-11
0.000387638 -0.000116348 -0.000116267 -3.4439e-05
0.000456934 -0.000137107 -0.000137069 -1.86553e-05
0.000541914 -0.000162567 -0.000162577 -1.23027e-11
0.000472614 -0.000141813 -0.000141772 -1.86556e-05
0.000464774 -0.00013946 -0.00013942 -1.86554e-05
0.000381106 -0.000114386 -0.000114309 -3.44388e-05
0.000368042 -0.000110463 -0.000110391 -3.44384e-05
0.000514471 -0.000154334 -0.000154345 -1.1172e-11
0.000532767 -0.000159823 -0.000159833 -1.1931e-11
0.000374574 -0.000112424 -0.00011235 -3.44386e-05
0.000441255 -0.0001324 -0.000132366 -1.8655e-05
0.000523619 -0.000157078 -0.000157089 -1.15741e-11
0.000456934 -0.000137107 -0.000137069 -1.86553e-05
0.000449095 -0.000134753 -0.000134718 -1.86552e-05
0.000368042 -0.000110463 -0.000110391 -3.44384e-05
0.000354978 -0.000106539 -0.000106474 -3.4438e-05
0.000496176 -0.000148845 -0.000148856 -1.02898e-11
0.000514471 -0.000154334 -0.000154345 -1.1172e-11
0.00036151 -0.000108501 -0.000108433 -3.44382e-05
0.000425575 -0.000127694 -0.000127663 -1.86548e-05
0.000505323 -0.00015159 -0.0001516 -1.07229e-11
0.000441255 -0.0001324 -0.000132366 -1.8655e-05
0.000433415 -0.000130047 -0.000130015 -1.86549e-05
0.000354978 -0.000106539 -0.000106474 -3.4438e-05
0.000341914 -0.000102616 -0.000102556 -3.44376e-05
0.00047788 -0.000143356 -0.000143367 -9.2374e-12
0.000496176 -0.000148845 -0.000148856 -1.03124e-11
0.000348446 -0.000104577 -0.000104515 -3.44378e-05
0.000409895 -0.000122988 -0.00012296 -1.86545e-05
0.000487028 -0.000146101 -0.000146112 -9.75164e-12
0.000425575 -0.000127694 -0.000127663 -1.86548e-05
0.000417735 -0.000125341 -0.000125312 -1.86546e-05
0.000341914 -0.000102616 -0.000102556 -3.44376e-05
0.000328849 -9.86924e-05 -9.86387e-05 -3.44372e-05
0.000459585 -0.000137867 -0.000137879 -8.09069e-12
0.00047788 -0.000143356 -0.000143367 -9.23739e-12
0.000335382 -0.000100654 -0.000100598 -3.44374e-05
0.000394216 -0.000118281 -0.000118257 -1.86543e-05
0.000468733 -0.000140612 -0.000140623 -8.57432e-12
0.000409895 -0.000122988 -0.00012296 -1.86545e-05
0.000402055 -0.000120634 -0.000120609 -1.86544e-05
0.000328849 -9.86924e-05 -9.86387e-05 -3.44372e-05
0.000315785 -9.47692e-05 -9.4721e-05 -3.44369e-05
0.000441289 -0.000132378 -0.00013239 -6.53795e-12
0.000459585 -0.000137867 -0.000137879 -8.09069e-12
0.000322317 -9.67308e-05 -9.66799e-05 -3.44371e-05
0.000378535 -0.000113575 -0.000113554 -1.86542e-05
0.000450437 -0.000135123 -0.000135135 -7.27051e-12
0.000394216 -0.000118281 -0.000118257 -1.86543e-05
0.000386376 -0.000115928 -0.000115906 -1.86542e-05
0.000315785 -9.47692e-05 -9.4721e-05 -3.44369e-05
0.00030272 -9.08461e-05 -9.08031e-05 -3.44367e-05
0.000422993 -0.000126889 -0.000126902 -5.07009e-12
0.000441289 -0.000132378 -0.00013239 -6.53795e-12
0.000309252 -9.28076e-05 -9.2762e-05 -3.44368e-05
0.000362855 -0.000108869 -0.000108851 -1.8654e-05
0.000432141 -0.000129634 -0.000129646 -5.65868e-12
0.000378535 -0.000113575 -0.000113554 -1.86542e-05
0.000370695 -0.000111222 -0.000111203 -1.86541e-05
0.00030272 -9.08461e-05 -9.08031e-05 -3.44367e-05
0.000289655 -8.69231e-05 -8.6885e-05 -3.44366e-05
0.000404697 -0.0001214 -0.000121413 -2.70732e-12
0.000422993 -0.000126889 -0.000126902 -5.07009e-12
0.000296187 -8.88846e-05 -8.88441e-05 -3.44366e-05
0.000347175 -0.000104163 -0.000104148 -1.86539e-05
0.000413845 -0.000124145 -0.000124157 -3.71666e-12
0.000362855 -0.000108869 -0.000108851 -1.8654e-05
0.000355015 -0.000106516 -0.0001065 -1.8654e-05
0.000289655 -8.69231e-05 -8.6885e-05 -3.44366e-05
0.00027659 -8.30002e-05 -8.29669e-05 -3.44365e-05
0.000386401 -0.000115911 -0.000115924 -1.38014e-12
0.000404697 -0.0001214 -0.000121413 -2.70357e-12
0.000283122 -8.49616e-05 -8.4926e-05 -3.44365e-05
0.000331494 -9.94567e-05 -9.94445e-05 -1.86539e-05
0.000395549 -0.000118656 -0.000118668 -1.72197e-12
0.000347175 -0.000104163 -0.000104148 -1.86539e-05
0.000339334 -0.00010181 -0.000101796 -1.86539e-05
0.00027659 -8.30002e-05 -8.29669e-05 -3.44365e-05
0.000263524 -7.90774e-05 -7.90486e-05 -3.44365e-05
0.000368104 -0.000110422 -0.000110435 1.63624e-12
0.000386401 -0.000115911 -0.000115924 -1.38014e-12
0.000270057 -8.10388e-05 -8.10077e-05 -3.44365e-05
0.000315813 -9.47506e-05 -9.4741e-05 -1.8654e-05
0.000377253 -0.000113167 -0.00011318 1.42923e-12
0.000331494 -9.94567e-05 -9.94445e-05 -1.86539e-05
0.000323653 -9.71037e-05 -9.70928e-05 -1.8654e-05
0.000263524 -7.90774e-05 -7.90486e-05 -3.44365e-05
0.000250458 -7.51546e-05 -7.51302e-05 -3.44365e-05
0.000349807 -0.000104933 -0.000104946 4.0869e-14
0.000368104 -0.000110422 -0.000110435 1.63624e-12
0.000256991 -7.7116e-05 -7.70894e-05 -3.44365e-05
0.000300132 -9.00445e-05 -9.00373e-05 -1.86541e-05
0.000358956 -0.000107677 -0.000107691 5.01698e-13
0.000315813 -9.47506e-05 -9.4741e-05 -1.8654e-05
0.000307972 -9.23975e-05 -9.23892e-05 -1.86541e-05
0.000250458 -7.51546e-05 -7.51302e-05 -3.44365e-05
0.000237393 -7.12319e-05 -7.12118e-05 -3.44364e-05
0.000331509 -9.9443e-05 -9.94568e-05 -3.23273e-12
0.000349807 -0.000104933 -0.000104946 1.83299e-14
0.000243926 -7.31933e-05 -7.3171e-05 -3.44365e-05
0.00028445 -8.53383e-05 -8.53335e-05 -1.86543e-05
0.000340658 -0.000102188 -0.000102201 6.29285e-12
0.000300132 -9.00445e-05 -9.00373e-05 -1.86541e-05
0.000292291 -8.76914e-05 -8.76854e-05 -1.86542e-05
0.000237393 -7.12319e-05 -7.12118e-05 -3.44364e-05
0.000224327 -6.73092e-05 -6.72934e-05 -3.4436e-05
0.00031321 -9.39531e-05 -9.39673e-05 -2.07938e-11
0.000331509 -9.9443e-05 -9.94568e-05 -3.23256e-12
0.00023086 -6.92706e-05 -6.92526e-05 -3.44363e-05
0.000268768 -8.06321e-05 -8.06297e-05 -1.86544e-05
0.00032236 -9.66981e-05 -9.67121e-05 -1.93319e-11
0.00028445 -8.53383e-05 -8.53335e-05 -1.86543e-05
0.000276609 -8.29852e-05 -8.29816e-05 -1.86544e-05
0.000224327 -6.73092e-05 -6.72934e-05 -3.4436e-05
0.000211262 -6.33862e-05 -6.33753e-05 -3.44347e-05
0.000294911 -8.8463e-05 -8.84776e-05 -7.96686e-11
0.00031321 -9.39531e-05 -9.39673e-05 -2.07938e-11
0.000217794 -6.53477e-05 -6.53343e-05 -3.44355e-05
0.000253086 -7.5926e-05 -7.59259e-05 -1.86541e-05
0.00030406 -9.12081e-05 -9.12225e-05 -8.48328e-12
0.000268768 -8.06321e-05 -8.06297e-05 -1.86544e-05
0.000260927 -7.82791e-05 -7.82778e-05 -1.86543e-05
0.000211262 -6.33862e-05 -6.33753e-05 -3.44347e-05
0.000198197 -5.94624e-05 -5.94579e-05 -3.44311e-05
0.000276611 -8.29727e-05 -8.29876e-05 -1.58659e-10
0.000294911 -8.8463e-05 -8.84776e-05 -7.96686e-11
0.000204729 -6.14244e-05 -6.14164e-05 -3.44333e-05
0.000237406 -7.12199e-05 -7.12224e-05 -1.86528e-05
0.000285761 -8.57179e-05 -8.57326e-05 -1.71028e-10
0.000253086 -7.5926e-05 -7.59259e-05 -1.86541e-05
0.000245246 -7.35729e-05 -7.35741e-05 -1.86536e-05
0.000198197 -5.94624e-05 -5.94579e-05 -3.44311e-05
0.000185134 -5.55368e-05 -5.55417e-05 -3.44231e-05
0.000258311 -7.74824e-05 -7.74981e-05 -5.3383e-10
0.000276611 -8.29727e-05 -8.29876e-05 -1.58659e-10
0.000191666 -5.74999e-05 -5.74996e-05 -3.44279e-05
0.000221727 -6.65141e-05 -6.65199e-05 -1.8649e-05
0.000267461 -8.02274e-05 -8.02428e-05 -1.46308e-10
0.000237406 -7.12199e-05 -7.12224e-05 -1.86528e-05
0.000229566 -6.88669e-05 -6.8871e-05 -1.86513e-05
0.000185134 -5.55368e-05 -5.55417e-05 -3.44231e-05
0.000172073 -5.16071e-05 -5.16284e-05 -3.44054e-05
0.000240015 -7.19939e-05 -7.20091e-05 -7.7742e-10
0.000258311 -7.74824e-05 -7.74981e-05 -5.33826e-10
0.000178603 -5.35726e-05 -5.35845e-05 -3.4416e-05
0.000206054 -6.18087e-05 -6.18195e-05 -1.86393e-05
0.000249163 -7.47382e-05 -7.47534e-05 -9.4887e-10
0.000221727 -6.65141e-05 -6.65199e-05 -1.8649e-05
0.00021389 -6.41613e-05 -6.41694e-05 -1.86451e-05
0.000172073 -5.16071e-05 -5.16284e-05 -3.44054e-05
0.000159014 -4.76692e-05 -4.77193e-05 -3.43698e-05
0.000221732 -6.65073e-05 -6.65247e-05 -2.62833e-09
0.000240015 -7.19939e-05 -7.20091e-05 -7.7742e-10
0.000165544 -4.96397e-05 -4.96733e-05 -3.43905e-05
0.000190394 -5.71045e-05 -5.71242e-05 -1.86181e-05
0.000230871 -6.92491e-05 -6.92663e-05 -8.1387e-10
0.000206054 -6.18087e-05 -6.18195e-05 -1.86393e-05
0.000198222 -5.94565e-05 -5.94708e-05 -1.86308e-05
0.000159014 -4.76692e-05 -4.77193e-05 -3.43698e-05
0.000145961 -4.3715e-05 -4.38196e-05 -3.42974e-05
0.000203471 -6.10338e-05 -6.10446e-05 -3.01283e-09
0.000221732 -6.65073e-05 -6.65247e-05 -2.62833e-09
0.000152486 -4.56947e-05 -4.57677e-05 -3.434e-05
0.000174757 -5.24027e-05 -5.24375e-05 -1.85721e-05
0.000212598 -6.37706e-05 -6.37833e-05 -4.3056e-09
0.000190394 -5.71045e-05 -5.71242e-05 -1.86181e-05
0.000182572 -5.47531e-05 -5.47797e-05 -1.85989e-05
0.000145961 -4.3715e-05 -4.38196e-05 -3.42974e-05
0.000132903 -3.9731e-05 -3.99308e-05 -3.4163e-05
0.000185282 -5.55702e-05 -5.55906e-05 -1.08883e-08
0.000203471 -6.10338e-05 -6.10446e-05 -3.0128e-09
0.000139434 -4.17285e-05 -4.18739e-05 -3.42399e-05
0.000159171 -4.77056e-05 -4.77709e-05 -1.84805e-05
0.000194362 -5.82942e-05 -5.83147e-05 -3.15596e-09
0.000174757 -5.24027e-05 -5.24375e-05 -1.85721e-05
0.000166954 -5.00536e-05 -5.01003e-05 -1.85349e-05
0.000132903 -3.9731e-05 -3.99308e-05 -3.4163e-05
0.00011985 -3.56908e-05 -3.60684e-05 -3.39078e-05
0.000167203 -5.01744e-05 -5.01551e-05 -9.63968e-09
0.000185282 -5.55702e-05 -5.55906e-05 -1.08883e-08
0.000126373 -3.77185e-05 -3.79947e-05 -3.40562e-05
0.000143665 -4.30166e-05 -4.3135e-05 -1.8301e-05
0.000176229 -5.2874e-05 -5.28665e-05 -1.73505e-08
0.000159171 -4.77056e-05 -4.77709e-05 -1.84805e-05
0.000151408 -4.5359e-05 -4.54494e-05 -1.84032e-05
0.00011985 -3.56908e-05 -3.60684e-05 -3.39078e-05
0.00010675 -3.15638e-05 -3.22227e-05 -3.34726e-05
0.000149424 -4.48091e-05 -4.48351e-05 -3.97333e-08
0.000167203 -5.01744e-05 -5.01551e-05 -9.63968e-09
0.000113316 -3.36448e-05 -3.41448e-05 -3.37166e-05
0.000128334 -3.83463e-05 -3.85662e-05 -1.79657e-05
0.000158252 -4.74559e-05 -4.7484e-05 -8.56626e-09
0.000143665 -4.30166e-05 -4.3135e-05 -1.8301e-05
0.000135966 -4.06804e-05 -4.08366e-05 -1.81645e-05
0.00010675 -3.15638e-05 -3.22227e-05 -3.34726e-05
9.36222e-05 -2.72734e-05 -2.84352e-05 -3.27087e-05
0.000132082 -3.97486e-05 -3.95713e-05 -2.52928e-08
0.000149424 -4.48091e-05 -4.48351e-05 -3.97333e-08
0.000100177 -2.94348e-05 -3.03183e-05 -3.31462e-05
0.000113232 -3.36946e-05 -3.40874e-05 -1.73678e-05
0.000140706 -4.22948e-05 -4.21761e-05 -6.55242e-08
0.000128334 -3.83463e-05 -3.85662e-05 -1.79657e-05
0.000120759 -3.60126e-05 -3.63201e-05 -1.76969e-05
9.36222e-05 -2.72734e-05 -2.84352e-05 -3.27087e-05
8.0218e-05 -2.28008e-05 -2.46074e-05 -3.15592e-05
0.00011581 -3.47188e-05 -3.47535e-05 -1.30809e-07
0.000132082 -3.97486e-05 -3.95713e-05 -2.52928e-08
8.69979e-05 -2.50846e-05 -2.65342e-05 -3.21827e-05
9.8645e-05 -2.91054e-05 -2.98027e-05 -1.63108e-05
0.000123725 -3.708e-05 -3.71337e-05 -7.8538e-09
0.000113232 -3.36946e-05 -3.40874e-05 -1.73678e-05
0.000105833 -3.1402e-05 -3.18991e-05 -1.6943e-05
8.0218e-05 -2.28008e-05 -2.46074e-05 -3.15592e-05
6.65526e-05 -1.79561e-05 -2.08271e-05 -2.98031e-05
0.000101054 -3.09638e-05 -3.00389e-05 -4.80575e-08
0.00011581 -3.47188e-05 -3.47535e-05 -1.30809e-07
7.33728e-05 -2.038e-05 -2.27112e-05 -3.07764e-05
8.4498e-05 -2.45125e-05 -2.5708e-05 -1.46516e-05
0.000108274 -3.29506e-05 -3.22815e-05 -2.44174e-07
9.8645e-05 -2.91054e-05 -2.98027e-05 -1.63108e-05
9.15667e-05 -2.67867e-05 -2.77629e-05 -1.55092e-05
6.65526e-05 -1.79561e-05 -2.08271e-05 -2.98031e-05
5.16371e-05 -1.31308e-05 -1.65027e-05 -2.79062e-05
8.95597e-05 -2.6842e-05 -2.6879e-05 -3.59624e-07
0.000101054 -3.09638e-05 -3.00389e-05 -4.80575e-08
5.94199e-05 -1.56219e-05 -1.87706e-05 -2.88218e-05
7.15242e-05 -2.00777e-05 -2.20485e-05 -1.19354e-05
9.46501e-05 -2.82788e-05 -2.84449e-05 1.02584e-07
8.4498e-05 -2.45125e-05 -2.5708e-05 -1.46516e-05
7.77225e-05 -2.23244e-05 -2.37421e-05 -1.35981e-05
5.16371e-05 -1.31308e-05 -1.65027e-05 -2.79062e-05
3.55424e-05 -8.33121e-06 -1.16619e-05 -2.6639e-05
8.32872e-05 -2.76294e-05 -2.38533e-05 5.58892e-07
8.95597e-05 -2.6842e-05 -2.6879e-05 -3.59624e-07
4.35595e-05 -1.03987e-05 -1.42118e-05 -2.70772e-05
5.80224e-05 -1.52889e-05 -1.83144e-05 -8.95833e-06
8.57748e-05 -2.79192e-05 -2.47952e-05 -7.92013e-07
7.15242e-05 -2.00777e-05 -2.20485e-05 -1.19354e-05
6.51939e-05 -1.76621e-05 -2.03708e-05 -1.01288e-05
3.55424e-05 -8.33121e-06 -1.16619e-05 -2.6639e-05
1.67355e-05 -8.74877e-06 -3.4229e-06 -3.11957e-05
8.85822e-05 -2.42888e-05 -2.75543e-05 3.44477e-06
8.32872e-05 -2.76294e-05 -2.38533e-05 5.58892e-07
2.68472e-05 -7.82488e-06 -8.15244e-06 -2.76892e-05
4.36421e-05 -1.1287e-05 -1.38665e-05 -7.02973e-06
8.36914e-05 -2.3556e-05 -2.57723e-05 2.44549e-06
5.80224e-05 -1.52889e-05 -1.83144e-05 -8.95833e-06
5.06313e-05 -1.31813e-05 -1.605e-05 -8.22551e-06
1.67355e-05 -8.74877e-06 -3.4229e-06 -3.11957e-05
7.82708e-06 -3.05087e-05 9.72068e-06 -4.83879e-05
0.000120871 -2.48656e-05 -4.11451e-05 2.71518e-05
8.85822e-05 -2.42888e-05 -2.75543e-05 3.44477e-06
9.09846e-06 -1.28617e-05 1.61282e-06 -3.72932e-05
1.32149e-05 -1.96214e-05 2.74563e-06 -2.75209e-05
0.000100221 -3.35853e-05 -2.85583e-05 7.25982e-06
4.36421e-05 -1.1287e-05 -1.38665e-05 -7.02973e-06
3.26406e-05 -1.09807e-05 -9.28282e-06 -1.08629e-05
7.82708e-06 -3.05087e-05 9.72068e-06 -4.83879e-05
4.3475e-05 -0.000133422 3.85486e-05 -4.95537e-05
7.7423e-05 -0.00017672 4.25559e-05 -0.000132478
0.000120871 -2.48656e-05 -4.11451e-05 2.71518e-05
1.76947e-05 -7.13121e-05 2.29789e-05 -5.7416e-05
3.95866e-05 -0.000164082 5.33551e-05 -7.96771e-05
0.000122561 -8.96011e-06 -4.86861e-05 1.27723e-05
1.32149e-05 -1.96214e-05 2.74563e-06 -2.75209e-05
7.98978e-06 -5.41798e-05 1.97957e-05 -5.20797e-05
      </DataArray> 
    </PointData>
    <CellData>
      <DataArray type="Float64" NumberOfComponents="1" Name="Process" format="ascii">
3
3
3
3
3
3
3
3
3
3
3
3
3
3
3
3
3
3
3
3
3
3
3
3
3
2
2
2
2
2
2
2
2
2
2
2
2
2
2
2
2
2
2
2
2
2
2
2
2
1
1
1
1
1
1
1
1
1
1
1
1
1
1
1
1
1
1
1
1
1
1
1
1
1
0
0
0
0
0
0
0
0
0
0
0
0
0
0
0
0
0
0
0
0
0
0
0
0
0
5
5
5
5
5
5
5
5
5
5
5
5
5
5
5
5
5
5
5
5
5
5
5
5
5
4
4
4
4
4
4
4
4
4
4
4
4
4
4
4
4
4
4
4
4
4
4
4
4
7
7
7
7
7
7
7
7
7
7
7
7
7
7
7
7
7
7
7
7
7
7
7
7
7
6
6
6
6
6
6
6
6
6
6
6
6
6
6
6
6
6
6
6
6
6
6
6
6
3
3
3
3
3
3
3
3
3
3
3
3
3
3
3
3
3
3
3
3
3
3
3
3
3
2
2
2
2
2
2
2
2
2
2
2
2
2
2
2
2
2
2
2
2
2
2
2
2
1
1
1
1
1
1
1
1
1
1
1
1
1
1
1
1
1
1
1
1
1
1
1
1
1
0
0
0
0
0
0
0
0
0
0
0
0
0
0
0
0
0
0
0
0
0
0
0
0
0
5
5
5
5
5
5
5
5
5
5
5
5
5
5
5
5
5
5
5
5
5
5
5
5
5
4
4
4
4
4
4
4
4
4
4
4
4
4
4
4
4
4
4
4
4
4
4
4
4
7
7
7
7
7
7
7
7
7
7
7
7
7
7
7
7
7
7
7
7
7
7
7
7
7
6
6
6
6
6
6
6
6
6
6
6
6
6
6
6
6
6
6
6
6
6
6
6
6
3
3
3
3
3
3
3
3
3
3
3
3
3
3
3
3
3
3
3
3
3
3
3
3
3
2
2
2
2
2
2
2
2
2
2
2
2
2
2
2
2
2
2
2
2
2
2
2
2
1
1
1
1
1
1
1
1
1
1
1
1
1
1
1
1
1
1
1
1
1
1
1
1
1
0
0
0
0
0
0
0
0
0
0
0
0
0
0
0
0
0
0
0
0
0
0
0
0
0
5
5
5
5
5
5
5
5
5
5
5
5
5
5
5
5
5
5
5
5
5
5
5
5
5
4
4
4
4
4
4
4
4
4
4
4
4
4
4
4
4
4
4
4
4
4
4
4
4
7
7
7
7
7
7
7
7
7
7
7
7
7
7
7
7
7
7
7
7
7
7
7
7
7
6
6
6
6
6
6
6
6
6
6
6
6
6
6
6
6
6
6
6
6
6
6
6
6
3
3
3
3
3
3
3
3
3
3
3
3
3
3
3
3
3
3
3
3
3
3
3
3
3
2
2
2
2
2
2
2
2
2
2
2
2
2
2
2
2
2
2
2
2
2
2
2
2
1
1
1
1
1
1
1
1
1
1
1
1
1
1
1
1
1
1
1
1
1
1
1
1
1
0
0
0
0
0
0
0
0
0
0
0
0
0
0
0
0
0
0
0
0
0
0
0
0
0
5
5
5
5
5
5
5
5
5
5
5
5
5
5
5
5
5
5
5
5
5
5
5
5
5
4
4
4
4
4
4
4
4
4
4
4
4
4
4
4
4
4
4
4
4
4
4
4
4
7
7
7
7
7
7
7
7
7
7
7
7
7
7
7
7
7
7
7
7
7
7
7
7
7
6
6
6
6
6
6
6
6
6
6
6
6
6
6
6
6
6
6
6
6
6
6
6
6
3
3
3
3
3
3
3
3
3
3
3
3
3
3
3
3
3
3
3
3
3
3
3
3
3
2
2
2
2
2
2
2
2
2
2
2
2
2
2
2
2
2
2
2
2
2
2
2
2
1
1
1
1
1
1
1
1
1
1
1
1
1
1
1
1
1
1
1
1
1
1
1
1
1
0
0
0
0
0
0
0
0
0
0
0
0
0
0
0
0
0
0
0
0
0
0
0
0
0
5
5
5
5
5
5
5
5
5
5
5
5
5
5
5
5
5
5
5
5
5
5
5
5
5
4
4
4
4
4
4
4
4
4
4
4
4
4
4
4
4
4
4
4
4
4
4
4
4
7
7
7
7
7
7
7
7
7
7
7
7
7
7
7
7
7
7
7
7
7
7
7
7
7
6
6
6
6
6
6
6
6
6
6
6
6
6
6
6
6
6
6
6
6
6
6
6
6
3
3
3
3
3
3
3
3
3
3
3
3
3
3
3
3
3
3
3
3
3
3
3
3
3
2
2
2
2
2
2
2
2
2
2
2
2
2
2
2
2
2
2
2
2
2
2
2
2
1
1
1
1
1
1
1
1
1
1
1
1
1
1
1
1
1
1
1
1
1
1
1
1
1
0
0
0
0
0
0
0
0
0
0
0
0
0
0
0
0
0
0
0
0
0
0
0
0
0
5
5
5
5
5
5
5
5
5
5
5
5
5
5
5
5
5
5
5
5
5
5
5
5
5
4
4
4
4
4
4
4
4
4
4
4
4
4
4
4
4
4
4
4
4
4
4
4
4
7
7
7
7
7
7
7
7
7
7
7
7
7
7
7
7
7
7
7
7
7
7
7
7
7
6
6
6
6
6
6
6
6
6
6
6
6
6
6
6
6
6
6
6
6
6
6
6
6
3
3
3
3
3
3
3
3
3
3
3
3
3
3
3
3
3
3
3
3
3
3
3
3
3
2
2
2
2
2
2
2
2
2
2
2
2
2
2
2
2
2
2
2
2
2
2
2
2
1
1
1
1
1
1
1
1
1
1
1
1
1
1
1
1
1
1
1
1
1
1
1
1
1
0
0
0
0
0
0
0
0
0
0
0
0
0
0
0
0
0
0
0
0
0
0
0
0
0
5
5
5
5
5
5
5
5
5
5
5
5
5
5
5
5
5
5
5
5
5
5
5
5
5
4
4
4
4
4
4
4
4
4
4
4
4
4
4
4
4
4
4
4
4
4
4
4
4
7
7
7
7
7
7
7
7
7
7
7
7
7
7
7
7
7
7
7
7
7
7
7
7
7
6
6
6
6
6
6
6
6
6
6
6
6
6
6
6
6
6
6
6
6
6
6
6
6
      </DataArray> 
    </CellData>
  </Piece>
  </UnstructuredGrid>
</VTKFile>
