<?xml version="1.0"?>
<VTKFile type="UnstructuredGrid">
  <UnstructuredGrid>
  <Piece NumberOfPoints="12411"  NumberOfCells="1379">
    <Points>
      <DataArray type="Float64" NumberOfComponents="3" format="ascii">
0 0 0
2.53499 -0.00153554 0
2.53624 4.2852 0
0 4.28571 0
1.26736 -0.000957189 0
2.53575 2.14193 0
1.26815 4.28553 0
0 2.14286 0
1.26793 2.14245 0
2.53499 -0.00153554 0
5.0704 -0.002667 0
5.07232 4.28422 0
2.53624 4.2852 0
3.80269 -0.0020799 0
5.07141 2.14083 0
3.80429 4.28475 0
2.53575 2.14193 0
3.80358 2.1414 0
5.0704 -0.002667 0
7.60579 -0.00403204 0
7.60839 4.28287 0
5.07232 4.28422 0
6.3381 -0.00330953 0
7.6071 2.13946 0
6.34035 4.28359 0
5.07141 2.14083 0
6.33925 2.14019 0
7.60579 -0.00403204 0
10.1412 -0.00578856 0
10.1445 4.28112 0
7.60839 4.28287 0
8.87347 -0.00485724 0
10.1428 2.13771 0
8.87643 4.28205 0
7.6071 2.13946 0
8.87496 2.13864 0
10.1412 -0.00578856 0
12.6765 -0.00797284 0
12.6806 4.27893 0
10.1445 4.28112 0
11.4088 -0.00682574 0
12.6785 2.13552 0
11.4125 4.28008 0
10.1428 2.13771 0
11.4107 2.13667 0
12.6765 -0.00797284 0
15.2118 -0.0106094 0
15.2167 4.27629 0
12.6806 4.27893 0
13.9442 -0.00923402 0
15.2143 2.13289 0
13.9486 4.27767 0
12.6785 2.13552 0
13.9464 2.13426 0
15.2118 -0.0106094 0
17.7472 -0.0137017 0
17.7528 4.27319 0
15.2167 4.27629 0
16.4795 -0.0120984 0
17.75 2.12979 0
16.4847 4.2748 0
15.2143 2.13289 0
16.4821 2.1314 0
17.7472 -0.0137017 0
20.2826 -0.0172526 0
20.2889 4.26963 0
17.7528 4.27319 0
19.0149 -0.0154198 0
20.2857 2.12624 0
19.0208 4.27147 0
17.75 2.12979 0
19.0179 2.12807 0
20.2826 -0.0172526 0
22.8179 -0.0212604 0
22.8251 4.26562 0
20.2889 4.26963 0
21.5502 -0.0191995 0
22.8215 2.12223 0
21.557 4.26768 0
20.2857 2.12624 0
21.5536 2.12429 0
22.8179 -0.0212604 0
25.3533 -0.0257235 0
25.3612 4.26115 0
22.8251 4.26562 0
24.0856 -0.0234352 0
25.3573 2.11776 0
24.0931 4.26344 0
22.8215 2.12223 0
24.0894 2.12005 0
25.3533 -0.0257235 0
27.8887 -0.0306393 0
27.8974 4.25622 0
25.3612 4.26115 0
26.621 -0.0281249 0
27.893 2.11284 0
26.6293 4.25874 0
25.3573 2.11776 0
26.6252 2.11536 0
27.8887 -0.0306393 0
30.4241 -0.0360054 0
30.4335 4.25085 0
27.8974 4.25622 0
29.1564 -0.0332662 0
30.4288 2.10747 0
29.1654 4.25359 0
27.893 2.11284 0
29.1609 2.11021 0
30.4241 -0.0360054 0
32.9595 -0.0418193 0
32.9697 4.24503 0
30.4335 4.25085 0
31.6918 -0.0388565 0
32.9646 2.10165 0
31.7016 4.24799 0
30.4288 2.10747 0
31.6967 2.10462 0
32.9595 -0.0418193 0
35.495 -0.0480786 0
35.5059 4.23876 0
32.9697 4.24503 0
34.2273 -0.0448934 0
35.5004 2.09539 0
34.2378 4.24195 0
32.9646 2.10165 0
34.2325 2.09857 0
35.495 -0.0480786 0
38.0304 -0.0547806 0
38.0421 4.23205 0
35.5059 4.23876 0
36.7627 -0.0513744 0
38.0363 2.08868 0
36.774 4.23546 0
35.5004 2.09539 0
36.7684 2.09209 0
38.0304 -0.0547806 0
40.5659 -0.0619231 0
40.5783 4.2249 0
38.0421 4.23205 0
39.2982 -0.058297 0
40.5721 2.08153 0
39.3102 4.22853 0
38.0363 2.08868 0
39.3042 2.08516 0
40.5659 -0.0619231 0
43.1014 -0.0695036 0
43.1145 4.21731 0
40.5783 4.2249 0
41.8336 -0.0656587 0
43.1079 2.07395 0
41.8464 4.22116 0
40.5721 2.08153 0
41.84 2.0778 0
43.1014 -0.0695036 0
45.6368 -0.0775195 0
45.6507 4.20928 0
43.1145 4.21731 0
44.3691 -0.0734573 0
45.6438 2.06593 0
44.3826 4.21335 0
43.1079 2.07395 0
44.3759 2.06999 0
45.6368 -0.0775195 0
48.1723 -0.0859687 0
48.187 4.20083 0
45.6507 4.20928 0
46.9046 -0.0816901 0
48.1797 2.05748 0
46.9188 4.20511 0
45.6438 2.06593 0
46.9117 2.06176 0
48.1723 -0.0859687 0
50.7079 -0.0948485 0
50.7232 4.19194 0
48.187 4.20083 0
49.4401 -0.0903549 0
50.7155 2.04859 0
49.4551 4.19644 0
48.1797 2.05748 0
49.4476 2.05309 0
50.7079 -0.0948485 0
53.2434 -0.104157 0
53.2594 4.18262 0
50.7232 4.19194 0
51.9756 -0.0994492 0
53.2514 2.03928 0
51.9913 4.18733 0
50.7155 2.04859 0
51.9835 2.04399 0
53.2434 -0.104157 0
55.7789 -0.113891 0
55.7957 4.17288 0
53.2594 4.18262 0
54.5112 -0.108971 0
55.7873 2.02954 0
54.5276 4.1778 0
53.2514 2.03928 0
54.5194 2.03446 0
55.7789 -0.113891 0
58.3145 -0.124048 0
58.332 4.16271 0
55.7957 4.17288 0
57.0467 -0.118917 0
58.3232 2.01938 0
57.0638 4.16785 0
55.7873 2.02954 0
57.0553 2.02451 0
58.3145 -0.124048 0
60.85 -0.134627 0
60.8682 4.15212 0
58.332 4.16271 0
59.5823 -0.129285 0
60.8592 2.00879 0
59.6001 4.15747 0
58.3232 2.01938 0
59.5912 2.01414 0
60.85 -0.134627 0
63.3856 -0.145624 0
63.4045 4.14112 0
60.8682 4.15212 0
62.1178 -0.140073 0
63.3951 1.99779 0
62.1364 4.14667 0
60.8592 2.00879 0
62.1271 2.00334 0
63.3856 -0.145624 0
65.9212 -0.157037 0
65.9408 4.12969 0
63.4045 4.14112 0
64.6534 -0.151278 0
65.931 1.98637 0
64.6727 4.13546 0
63.3951 1.99779 0
64.6631 1.99213 0
65.9212 -0.157037 0
68.4568 -0.168864 0
68.4771 4.11786 0
65.9408 4.12969 0
67.189 -0.162899 0
68.467 1.97454 0
67.209 4.12383 0
65.931 1.98637 0
67.199 1.98051 0
68.4568 -0.168864 0
70.9924 -0.181103 0
71.0134 4.10561 0
68.4771 4.11786 0
69.7246 -0.174932 0
71.0029 1.9623 0
69.7453 4.11179 0
68.467 1.97454 0
69.735 1.96847 0
70.9924 -0.181103 0
73.5281 -0.19375 0
73.5497 4.09295 0
71.0134 4.10561 0
72.2602 -0.187376 0
73.5389 1.94964 0
72.2816 4.09933 0
71.0029 1.9623 0
72.2709 1.95602 0
73.5281 -0.19375 0
76.0637 -0.206804 0
76.0861 4.07989 0
73.5497 4.09295 0
74.7959 -0.200227 0
76.0749 1.93659 0
74.8179 4.08647 0
73.5389 1.94964 0
74.8069 1.94317 0
76.0637 -0.206804 0
78.5993 -0.220263 0
78.6224 4.06642 0
76.0861 4.07989 0
77.3315 -0.213483 0
78.6109 1.92312 0
77.3542 4.07321 0
76.0749 1.93659 0
77.3429 1.9299 0
78.5993 -0.220263 0
81.135 -0.234122 0
81.1587 4.05255 0
78.6224 4.06642 0
79.8672 -0.227142 0
81.1469 1.90926 0
79.8906 4.05954 0
78.6109 1.92312 0
79.8789 1.91624 0
81.135 -0.234122 0
83.6707 -0.248382 0
83.6951 4.03828 0
81.1587 4.05255 0
82.4028 -0.241202 0
83.6829 1.89499 0
82.4269 4.04547 0
81.1469 1.90926 0
82.4149 1.90217 0
83.6707 -0.248382 0
86.2064 -0.263038 0
86.2314 4.02362 0
83.6951 4.03828 0
84.9385 -0.25566 0
86.2189 1.88033 0
84.9633 4.031 0
83.6829 1.89499 0
84.9509 1.88771 0
86.2064 -0.263038 0
88.7421 -0.278088 0
88.7678 4.00856 0
86.2314 4.02362 0
87.4742 -0.270514 0
88.7549 1.86528 0
87.4996 4.01613 0
86.2189 1.88033 0
87.4869 1.87285 0
88.7421 -0.278088 0
91.2778 -0.293531 0
91.3042 3.9931 0
88.7678 4.00856 0
90.0099 -0.285761 0
91.291 1.84983 0
90.036 4.00088 0
88.7549 1.86528 0
90.023 1.8576 0
91.2778 -0.293531 0
93.8135 -0.309363 0
93.8406 3.97726 0
91.3042 3.9931 0
92.5456 -0.301399 0
93.827 1.83399 0
92.5724 3.98523 0
91.291 1.84983 0
92.559 1.84196 0
93.8135 -0.309363 0
96.3492 -0.325583 0
96.3769 3.96103 0
93.8406 3.97726 0
95.0814 -0.317425 0
96.3631 1.81776 0
95.1087 3.96919 0
93.827 1.83399 0
95.0951 1.82593 0
96.3492 -0.325583 0
98.885 -0.342187 0
98.9133 3.94441 0
96.3769 3.96103 0
97.6171 -0.333837 0
98.8992 1.80115 0
97.6451 3.95277 0
96.3631 1.81776 0
97.6311 1.80951 0
98.885 -0.342187 0
101.421 -0.359174 0
101.45 3.92742 0
98.9133 3.94441 0
100.153 -0.350633 0
101.435 1.78416 0
100.182 3.93596 0
98.8992 1.80115 0
100.167 1.79271 0
101.421 -0.359174 0
103.957 -0.376541 0
103.986 3.91004 0
101.45 3.92742 0
102.689 -0.36781 0
103.971 1.76679 0
102.718 3.91878 0
101.435 1.78416 0
102.703 1.77552 0
103.957 -0.376541 0
106.492 -0.394285 0
106.523 3.89229 0
103.986 3.91004 0
105.224 -0.385366 0
106.507 1.74904 0
105.254 3.90121 0
103.971 1.76679 0
105.239 1.75796 0
106.492 -0.394285 0
109.028 -0.412405 0
109.059 3.87416 0
106.523 3.89229 0
107.76 -0.403298 0
109.044 1.73092 0
107.791 3.88327 0
106.507 1.74904 0
107.776 1.74002 0
109.028 -0.412405 0
111.564 -0.430897 0
111.595 3.85565 0
109.059 3.87416 0
110.296 -0.421604 0
111.58 1.71242 0
110.327 3.86495 0
109.044 1.73092 0
110.312 1.72171 0
111.564 -0.430897 0
114.1 -0.449759 0
114.132 3.83678 0
111.595 3.85565 0
112.832 -0.440282 0
114.116 1.69355 0
112.864 3.84626 0
111.58 1.71242 0
112.848 1.70303 0
114.1 -0.449759 0
116.636 -0.46899 0
116.668 3.81754 0
114.132 3.83678 0
115.368 -0.459329 0
116.652 1.67431 0
115.4 3.8272 0
114.116 1.69355 0
115.384 1.68398 0
116.636 -0.46899 0
119.171 -0.488586 0
119.205 3.79793 0
116.668 3.81754 0
117.903 -0.478742 0
119.188 1.65471 0
117.937 3.80778 0
116.652 1.67431 0
117.92 1.66456 0
119.171 -0.488586 0
121.707 -0.508545 0
121.741 3.77796 0
119.205 3.79793 0
120.439 -0.49852 0
121.724 1.63475 0
120.473 3.78799 0
119.188 1.65471 0
120.456 1.64477 0
121.707 -0.508545 0
124.243 -0.528864 0
124.278 3.75763 0
121.741 3.77796 0
122.975 -0.518659 0
124.26 1.61442 0
123.009 3.76784 0
121.724 1.63475 0
122.992 1.62463 0
124.243 -0.528864 0
126.779 -0.549542 0
126.814 3.73694 0
124.278 3.75763 0
125.511 -0.539158 0
126.797 1.59374 0
125.546 3.74733 0
124.26 1.61442 0
125.529 1.60412 0
126.779 -0.549542 0
129.315 -0.570576 0
129.351 3.7159 0
126.814 3.73694 0
128.047 -0.560015 0
129.333 1.5727 0
128.082 3.72646 0
126.797 1.59374 0
128.065 1.58326 0
129.315 -0.570576 0
131.851 -0.591963 0
131.887 3.6945 0
129.351 3.7159 0
130.583 -0.581225 0
131.869 1.55131 0
130.619 3.70524 0
129.333 1.5727 0
130.601 1.56205 0
131.851 -0.591963 0
134.387 -0.613701 0
134.424 3.67275 0
131.887 3.6945 0
133.119 -0.602788 0
134.405 1.52956 0
133.155 3.68367 0
131.869 1.55131 0
133.137 1.54048 0
134.387 -0.613701 0
136.923 -0.635787 0
136.96 3.65065 0
134.424 3.67275 0
135.655 -0.624701 0
136.941 1.50747 0
135.692 3.66174 0
134.405 1.52956 0
135.673 1.51856 0
136.923 -0.635787 0
139.459 -0.65822 0
139.497 3.62821 0
136.96 3.65065 0
138.191 -0.646961 0
139.478 1.48503 0
138.228 3.63947 0
136.941 1.50747 0
138.21 1.49629 0
139.459 -0.65822 0
141.994 -0.680997 0
142.033 3.60542 0
139.497 3.62821 0
140.726 -0.669566 0
142.014 1.46225 0
140.765 3.61686 0
139.478 1.48503 0
140.746 1.47368 0
141.994 -0.680997 0
144.53 -0.704115 0
144.57 3.58229 0
142.033 3.60542 0
143.262 -0.692513 0
144.55 1.43912 0
143.301 3.5939 0
142.014 1.46225 0
143.282 1.45073 0
144.53 -0.704115 0
147.066 -0.727571 0
147.106 3.55882 0
144.57 3.58229 0
145.798 -0.715801 0
147.086 1.41566 0
145.838 3.5706 0
144.55 1.43912 0
145.818 1.42743 0
147.066 -0.727571 0
149.602 -0.751365 0
149.643 3.53502 0
147.106 3.55882 0
148.334 -0.739426 0
149.623 1.39186 0
148.375 3.54696 0
147.086 1.41566 0
148.354 1.4038 0
149.602 -0.751365 0
152.138 -0.775492 0
152.179 3.51088 0
149.643 3.53502 0
150.87 -0.763387 0
152.159 1.36773 0
150.911 3.52299 0
149.623 1.39186 0
150.891 1.37984 0
152.138 -0.775492 0
154.674 -0.799951 0
154.716 3.48641 0
152.179 3.51088 0
153.406 -0.78768 0
154.695 1.34326 0
153.448 3.49868 0
152.159 1.36773 0
153.427 1.35554 0
154.674 -0.799951 0
157.21 -0.824739 0
157.252 3.46161 0
154.716 3.48641 0
155.942 -0.812304 0
157.231 1.31847 0
155.984 3.47405 0
154.695 1.34326 0
155.963 1.33091 0
157.21 -0.824739 0
159.746 -0.849854 0
159.789 3.43648 0
157.252 3.46161 0
158.478 -0.837256 0
159.768 1.29335 0
158.521 3.44908 0
157.231 1.31847 0
158.5 1.30595 0
159.746 -0.849854 0
162.282 -0.875294 0
162.326 3.41103 0
159.789 3.43648 0
161.014 -0.862533 0
162.304 1.2679 0
161.057 3.42379 0
159.768 1.29335 0
161.036 1.28067 0
162.282 -0.875294 0
164.818 -0.901055 0
164.862 3.38526 0
162.326 3.41103 0
163.55 -0.888134 0
164.84 1.24213 0
163.594 3.39818 0
162.304 1.2679 0
163.572 1.25506 0
164.818 -0.901055 0
167.355 -0.927136 0
167.399 3.35916 0
164.862 3.38526 0
166.086 -0.914056 0
167.377 1.21605 0
166.131 3.37225 0
164.84 1.24213 0
166.109 1.22913 0
167.355 -0.927136 0
169.891 -0.953534 0
169.935 3.33275 0
167.399 3.35916 0
168.623 -0.940296 0
169.913 1.18964 0
168.667 3.346 0
167.377 1.21605 0
168.645 1.20288 0
169.891 -0.953534 0
172.427 -0.980247 0
172.472 3.30603 0
169.935 3.33275 0
171.159 -0.966851 0
172.449 1.16292 0
171.204 3.31943 0
169.913 1.18964 0
171.181 1.17632 0
172.427 -0.980247 0
174.963 -1.00727 0
175.009 3.27899 0
172.472 3.30603 0
173.695 -0.993721 0
174.986 1.13589 0
173.74 3.29255 0
172.449 1.16292 0
173.718 1.14945 0
174.963 -1.00727 0
177.499 -1.03461 0
177.545 3.25164 0
175.009 3.27899 0
176.231 -1.0209 0
177.522 1.10855 0
176.277 3.26536 0
174.986 1.13589 0
176.254 1.12226 0
177.499 -1.03461 0
180.035 -1.06225 0
180.082 3.22399 0
177.545 3.25164 0
178.767 -1.04839 0
180.058 1.0809 0
178.814 3.23786 0
177.522 1.10855 0
178.79 1.09477 0
180.035 -1.06225 0
182.571 -1.0902 0
182.619 3.19603 0
180.082 3.22399 0
181.303 -1.07619 0
182.595 1.05295 0
181.35 3.21005 0
180.058 1.0809 0
181.327 1.06696 0
182.571 -1.0902 0
185.107 -1.11845 0
185.155 3.16777 0
182.619 3.19603 0
183.839 -1.10429 0
185.131 1.02469 0
183.887 3.18194 0
182.595 1.05295 0
183.863 1.03886 0
185.107 -1.11845 0
187.643 -1.147 0
187.692 3.13921 0
185.155 3.16777 0
186.375 -1.13269 0
187.668 0.996136 0
186.423 3.15352 0
185.131 1.02469 0
186.399 1.01045 0
187.643 -1.147 0
190.179 -1.17585 0
190.228 3.11035 0
187.692 3.13921 0
188.911 -1.16139 0
190.204 0.967281 0
188.96 3.12481 0
187.668 0.996136 0
188.936 0.981745 0
190.179 -1.17585 0
192.716 -1.20499 0
192.765 3.08119 0
190.228 3.11035 0
191.448 -1.19038 0
192.74 0.938131 0
191.497 3.0958 0
190.204 0.967281 0
191.472 0.952743 0
192.716 -1.20499 0
195.252 -1.23443 0
195.302 3.05174 0
192.765 3.08119 0
193.984 -1.21967 0
195.277 0.908688 0
194.033 3.0665 0
192.74 0.938131 0
194.009 0.923446 0
195.252 -1.23443 0
197.788 -1.26415 0
197.838 3.022 0
195.302 3.05174 0
196.52 -1.24925 0
197.813 0.878955 0
196.57 3.03691 0
195.277 0.908688 0
196.545 0.893857 0
197.788 -1.26415 0
200.324 -1.29417 0
200.375 2.99197 0
197.838 3.022 0
199.056 -1.27913 0
200.35 0.848933 0
199.107 3.00702 0
197.813 0.878955 0
199.081 0.86398 0
200.324 -1.29417 0
202.86 -1.32447 0
202.912 2.96166 0
200.375 2.99197 0
201.592 -1.30929 0
202.886 0.818625 0
201.643 2.97685 0
200.35 0.848933 0
201.618 0.833815 0
202.86 -1.32447 0
205.397 -1.35506 0
205.449 2.93107 0
202.912 2.96166 0
204.129 -1.33973 0
205.423 0.788035 0
204.18 2.9464 0
202.886 0.818625 0
204.154 0.803365 0
205.397 -1.35506 0
207.933 -1.38592 0
207.985 2.90019 0
205.449 2.93107 0
206.665 -1.37045 0
207.959 0.757163 0
206.717 2.91566 0
205.423 0.788035 0
206.691 0.772634 0
207.933 -1.38592 0
210.469 -1.41707 0
210.522 2.86903 0
207.985 2.90019 0
209.201 -1.40146 0
210.496 0.726013 0
209.254 2.88464 0
207.959 0.757163 0
209.227 0.741623 0
210.469 -1.41707 0
213.005 -1.44848 0
213.059 2.8376 0
210.522 2.86903 0
211.737 -1.43274 0
213.032 0.694587 0
211.79 2.85335 0
210.496 0.726013 0
211.764 0.710334 0
213.005 -1.44848 0
215.542 -1.48018 0
215.595 2.80589 0
213.059 2.8376 0
214.273 -1.4643 0
215.569 0.662887 0
214.327 2.82178 0
213.032 0.694587 0
214.3 0.678771 0
215.542 -1.48018 0
218.078 -1.51214 0
218.132 2.77392 0
215.595 2.80589 0
216.81 -1.49613 0
218.105 0.630916 0
216.864 2.78994 0
215.569 0.662887 0
216.837 0.646935 0
218.078 -1.51214 0
220.614 -1.54438 0
220.669 2.74167 0
218.132 2.77392 0
219.346 -1.52823 0
220.642 0.598676 0
219.4 2.75783 0
218.105 0.630916 0
219.373 0.614829 0
220.614 -1.54438 0
223.15 -1.57688 0
223.206 2.70916 0
220.669 2.74167 0
221.882 -1.56059 0
223.178 0.56617 0
221.937 2.72545 0
220.642 0.598676 0
221.91 0.582456 0
223.15 -1.57688 0
225.687 -1.60964 0
225.742 2.67638 0
223.206 2.70916 0
224.419 -1.59323 0
225.715 0.533399 0
224.474 2.69281 0
223.178 0.56617 0
224.446 0.549817 0
225.687 -1.60964 0
228.223 -1.64267 0
228.279 2.64335 0
225.742 2.67638 0
226.955 -1.62612 0
228.251 0.500368 0
227.011 2.6599 0
225.715 0.533399 0
226.983 0.516916 0
228.223 -1.64267 0
230.759 -1.67595 0
230.816 2.61005 0
228.279 2.64335 0
229.491 -1.65928 0
230.788 0.467077 0
229.547 2.62673 0
228.251 0.500368 0
229.519 0.483754 0
230.759 -1.67595 0
233.296 -1.70949 0
233.353 2.5765 0
230.816 2.61005 0
232.028 -1.69269 0
233.324 0.433529 0
232.084 2.59331 0
230.788 0.467077 0
232.056 0.450335 0
233.296 -1.70949 0
235.832 -1.74329 0
235.889 2.54269 0
233.353 2.5765 0
234.564 -1.72636 0
235.861 0.399727 0
234.621 2.55962 0
233.324 0.433529 0
234.592 0.41666 0
235.832 -1.74329 0
238.368 -1.77734 0
238.426 2.50863 0
235.889 2.54269 0
237.1 -1.76028 0
238.397 0.365673 0
237.158 2.52569 0
235.861 0.399727 0
237.129 0.382732 0
238.368 -1.77734 0
240.905 -1.81163 0
240.963 2.47432 0
238.426 2.50863 0
239.637 -1.79445 0
240.934 0.33137 0
239.695 2.49151 0
238.397 0.365673 0
239.666 0.348553 0
240.905 -1.81163 0
243.441 -1.84618 0
243.5 2.43976 0
240.963 2.47432 0
242.173 -1.82887 0
243.471 0.29682 0
242.231 2.45707 0
240.934 0.33137 0
242.202 0.314126 0
243.441 -1.84618 0
245.978 -1.88097 0
246.037 2.40496 0
243.5 2.43976 0
244.709 -1.86354 0
246.007 0.262025 0
244.768 2.42239 0
243.471 0.29682 0
244.739 0.279453 0
245.978 -1.88097 0
248.514 -1.916 0
248.573 2.36992 0
246.037 2.40496 0
247.246 -1.89845 0
248.544 0.226988 0
247.305 2.38747 0
246.007 0.262025 0
247.275 0.244536 0
248.514 -1.916 0
251.05 -1.95127 0
251.11 2.33464 0
248.573 2.36992 0
249.782 -1.9336 0
251.08 0.191711 0
249.842 2.35231 0
248.544 0.226988 0
249.812 0.209379 0
251.05 -1.95127 0
253.587 -1.98678 0
253.647 2.29912 0
251.11 2.33464 0
252.319 -1.96899 0
253.617 0.156197 0
252.379 2.31691 0
251.08 0.191711 0
252.349 0.173983 0
253.587 -1.98678 0
256.123 -2.02252 0
256.184 2.26336 0
253.647 2.29912 0
254.855 -2.00462 0
256.154 0.120447 0
254.915 2.28127 0
253.617 0.156197 0
254.885 0.138351 0
256.123 -2.02252 0
258.66 -2.05849 0
258.721 2.22738 0
256.184 2.26336 0
257.392 -2.04048 0
258.69 0.0844656 0
257.452 2.2454 0
256.154 0.120447 0
257.422 0.102485 0
258.66 -2.05849 0
261.196 -2.0947 0
261.258 2.19116 0
258.721 2.22738 0
259.928 -2.07657 0
261.227 0.0482537 0
259.989 2.2093 0
258.69 0.0844656 0
259.959 0.0663882 0
261.196 -2.0947 0
263.733 -2.13113 0
263.794 2.15471 0
261.258 2.19116 0
262.464 -2.11289 0
263.764 0.0118141 0
262.526 2.17296 0
261.227 0.0482537 0
262.495 0.0300622 0
263.733 -2.13113 0
266.269 -2.16779 0
266.331 2.11804 0
263.794 2.15471 0
265.001 -2.14944 0
266.3 -0.0248508 0
265.063 2.13641 0
263.764 0.0118141 0
265.032 -0.00649033 0
266.269 -2.16779 0
268.806 -2.20467 0
268.868 2.08115 0
266.331 2.11804 0
267.537 -2.18621 0
268.837 -0.0617385 0
267.6 2.09962 0
266.3 -0.0248508 0
267.569 -0.0432669 0
268.806 -2.20467 0
271.342 -2.24178 0
271.405 2.04404 0
268.868 2.08115 0
270.074 -2.2232 0
271.374 -0.0988466 0
270.137 2.06262 0
268.837 -0.0617385 0
270.105 -0.0802652 0
271.342 -2.24178 0
273.879 -2.2791 0
273.942 2.0067 0
271.405 2.04404 0
272.61 -2.26041 0
273.91 -0.136173 0
272.673 2.0254 0
271.374 -0.0988466 0
272.642 -0.117483 0
273.879 -2.2791 0
276.415 -2.31663 0
276.479 1.96916 0
273.942 2.0067 0
275.147 -2.29784 0
276.447 -0.173715 0
275.21 1.98796 0
273.91 -0.136173 0
275.179 -0.154917 0
276.415 -2.31663 0
278.952 -2.35438 0
279.016 1.9314 0
276.479 1.96916 0
277.683 -2.33548 0
278.984 -0.21147 0
277.747 1.9503 0
276.447 -0.173715 0
277.715 -0.192566 0
278.952 -2.35438 0
281.488 -2.39234 0
281.553 1.89343 0
279.016 1.9314 0
280.22 -2.37333 0
281.52 -0.249435 0
280.284 1.91244 0
278.984 -0.21147 0
280.252 -0.230426 0
281.488 -2.39234 0
284.025 -2.43051 0
284.089 1.85525 0
281.553 1.89343 0
282.757 -2.4114 0
284.057 -0.287609 0
282.821 1.87436 0
281.52 -0.249435 0
282.789 -0.268496 0
284.025 -2.43051 0
286.561 -2.46888 0
286.626 1.81686 0
284.089 1.85525 0
285.293 -2.44967 0
286.594 -0.325989 0
285.358 1.83608 0
284.057 -0.287609 0
285.326 -0.306774 0
286.561 -2.46888 0
289.098 -2.50746 0
289.163 1.77827 0
286.626 1.81686 0
287.83 -2.48815 0
289.131 -0.364573 0
287.895 1.79759 0
286.594 -0.325989 0
287.862 -0.345256 0
289.098 -2.50746 0
291.635 -2.54624 0
291.7 1.73948 0
289.163 1.77827 0
290.366 -2.52682 0
291.667 -0.403357 0
290.432 1.7589 0
289.131 -0.364573 0
290.399 -0.38394 0
291.635 -2.54624 0
294.171 -2.58522 0
294.237 1.70049 0
291.7 1.73948 0
292.903 -2.5657 0
294.204 -0.442341 0
292.969 1.72001 0
291.667 -0.403357 0
292.936 -0.422824 0
294.171 -2.58522 0
296.708 -2.62439 0
296.774 1.66131 0
294.237 1.70049 0
295.44 -2.60478 0
296.741 -0.48152 0
295.506 1.68093 0
294.204 -0.442341 0
295.473 -0.461906 0
296.708 -2.62439 0
299.244 -2.66376 0
299.311 1.62193 0
296.774 1.66131 0
297.976 -2.64405 0
299.278 -0.520893 0
298.043 1.64164 0
296.741 -0.48152 0
298.009 -0.501183 0
299.244 -2.66376 0
301.781 -2.70332 0
301.848 1.58236 0
299.311 1.62193 0
300.513 -2.68351 0
301.815 -0.560458 0
300.58 1.60217 0
299.278 -0.520893 0
300.546 -0.540652 0
301.781 -2.70332 0
304.318 -2.74306 0
304.385 1.5426 0
301.848 1.58236 0
303.049 -2.72317 0
304.351 -0.600212 0
303.117 1.5625 0
301.815 -0.560458 0
303.083 -0.580312 0
304.318 -2.74306 0
306.854 -2.783 0
306.922 1.50265 0
304.385 1.5426 0
305.586 -2.76301 0
306.888 -0.640152 0
305.654 1.52265 0
304.351 -0.600212 0
305.62 -0.620159 0
306.854 -2.783 0
309.391 -2.82312 0
309.459 1.46253 0
306.922 1.50265 0
308.123 -2.80304 0
309.425 -0.680277 0
308.19 1.48261 0
306.888 -0.640152 0
308.157 -0.660192 0
309.391 -2.82312 0
311.928 -2.86342 0
311.996 1.42221 0
309.459 1.46253 0
310.659 -2.84324 0
311.962 -0.720583 0
310.727 1.44239 0
309.425 -0.680277 0
310.693 -0.700407 0
311.928 -2.86342 0
314.464 -2.9039 0
314.533 1.38172 0
311.996 1.42221 0
313.196 -2.88364 0
314.499 -0.761069 0
313.264 1.40199 0
311.962 -0.720583 0
313.23 -0.740803 0
314.464 -2.9039 0
317.001 -2.94455 0
317.07 1.34106 0
314.533 1.38172 0
315.733 -2.9242 0
317.036 -0.801731 0
315.801 1.36141 0
314.499 -0.761069 0
315.767 -0.781378 0
317.001 -2.94455 0
319.538 -2.98539 0
319.607 1.30021 0
317.07 1.34106 0
318.27 -2.96495 0
319.572 -0.842568 0
318.338 1.32066 0
317.036 -0.801731 0
318.304 -0.822128 0
319.538 -2.98539 0
322.075 -3.02639 0
322.144 1.2592 0
319.607 1.30021 0
320.806 -3.00587 0
322.109 -0.883577 0
320.876 1.27973 0
319.572 -0.842568 0
320.841 -0.863051 0
322.075 -3.02639 0
324.611 -3.06756 0
324.681 1.21802 0
322.144 1.2592 0
323.343 -3.04695 0
324.646 -0.924755 0
323.413 1.23863 0
322.109 -0.883577 0
323.378 -0.904145 0
324.611 -3.06756 0
327.148 -3.1089 0
327.218 1.17666 0
324.681 1.21802 0
325.88 -3.08821 0
327.183 -0.966101 0
325.95 1.19736 0
324.646 -0.924755 0
325.915 -0.945408 0
327.148 -3.1089 0
329.685 -3.15041 0
329.755 1.13515 0
327.218 1.17666 0
328.417 -3.12963 0
329.72 -1.00761 0
328.487 1.15593 0
327.183 -0.966101 0
328.452 -0.986836 0
329.685 -3.15041 0
332.222 -3.19207 0
332.292 1.09347 0
329.755 1.13515 0
330.953 -3.17122 0
332.257 -1.04928 0
331.024 1.11433 0
329.72 -1.00761 0
330.988 -1.02843 0
332.222 -3.19207 0
334.758 -3.2339 0
334.829 1.05163 0
332.292 1.09347 0
333.49 -3.21297 0
334.794 -1.09112 0
333.561 1.07257 0
332.257 -1.04928 0
333.525 -1.07018 0
334.758 -3.2339 0
337.295 -3.27589 0
337.366 1.00964 0
334.829 1.05163 0
336.027 -3.25487 0
337.331 -1.13311 0
336.098 1.03065 0
334.794 -1.09112 0
336.062 -1.11209 0
337.295 -3.27589 0
339.832 -3.31803 0
339.903 0.967486 0
337.366 1.00964 0
338.564 -3.29694 0
339.868 -1.17525 0
338.635 0.988581 0
337.331 -1.13311 0
338.599 -1.15416 0
339.832 -3.31803 0
342.369 -3.36032 0
342.44 0.925183 0
339.903 0.967486 0
341.1 -3.33915 0
342.405 -1.21755 0
341.172 0.946354 0
339.868 -1.17525 0
341.136 -1.19638 0
342.369 -3.36032 0
344.906 -3.40276 0
344.978 0.882729 0
342.44 0.925183 0
343.637 -3.38152 0
344.942 -1.26 0
343.709 0.903975 0
342.405 -1.21755 0
343.673 -1.23876 0
344.906 -3.40276 0
347.443 -3.44535 0
347.515 0.840128 0
344.978 0.882729 0
346.174 -3.42404 0
347.479 -1.3026 0
346.246 0.861447 0
344.942 -1.26 0
346.21 -1.28128 0
347.443 -3.44535 0
349.979 -3.48809 0
350.052 0.797381 0
347.515 0.840128 0
348.711 -3.4667 0
350.016 -1.34534 0
348.783 0.818773 0
347.479 -1.3026 0
348.747 -1.32395 0
349.979 -3.48809 0
352.516 -3.53097 0
352.589 0.754491 0
350.052 0.797381 0
351.248 -3.50951 0
352.553 -1.38822 0
351.32 0.775954 0
350.016 -1.34534 0
351.284 -1.36676 0
352.516 -3.53097 0
355.053 -3.57399 0
355.126 0.711461 0
352.589 0.754491 0
353.785 -3.55246 0
355.09 -1.43125 0
353.857 0.732994 0
352.553 -1.38822 0
353.821 -1.40972 0
355.053 -3.57399 0
357.59 -3.61715 0
357.663 0.668292 0
355.126 0.711461 0
356.322 -3.59555 0
357.627 -1.47441 0
356.395 0.689894 0
355.09 -1.43125 0
356.358 -1.45281 0
357.59 -3.61715 0
360.127 -3.66044 0
360.2 0.624988 0
357.663 0.668292 0
358.859 -3.63878 0
360.164 -1.51771 0
358.932 0.646657 0
357.627 -1.47441 0
358.895 -1.49605 0
360.127 -3.66044 0
362.664 -3.70387 0
362.737 0.58155 0
360.2 0.624988 0
361.395 -3.68214 0
362.701 -1.56115 0
361.469 0.603286 0
360.164 -1.51771 0
361.432 -1.53941 0
362.664 -3.70387 0
365.201 -3.74743 0
365.275 0.537982 0
362.737 0.58155 0
363.932 -3.72563 0
365.238 -1.60471 0
364.006 0.559782 0
362.701 -1.56115 0
363.969 -1.58291 0
365.201 -3.74743 0
367.738 -3.79112 0
367.812 0.494285 0
365.275 0.537982 0
366.469 -3.76926 0
367.775 -1.6484 0
366.543 0.516149 0
365.238 -1.60471 0
366.506 -1.62654 0
367.738 -3.79112 0
370.275 -3.83493 0
370.349 0.450462 0
367.812 0.494285 0
369.006 -3.81301 0
370.312 -1.69222 0
369.08 0.472389 0
367.775 -1.6484 0
369.043 -1.6703 0
370.275 -3.83493 0
372.812 -3.87887 0
372.886 0.406515 0
370.349 0.450462 0
371.543 -3.85688 0
372.849 -1.73616 0
371.617 0.428504 0
370.312 -1.69222 0
371.58 -1.71418 0
372.812 -3.87887 0
375.349 -3.92292 0
375.423 0.362447 0
372.886 0.406515 0
374.08 -3.90088 0
375.386 -1.78023 0
374.155 0.384496 0
372.849 -1.73616 0
374.117 -1.75818 0
375.349 -3.92292 0
377.886 -3.9671 0
377.96 0.31826 0
375.423 0.362447 0
376.617 -3.945 0
377.923 -1.82441 0
376.692 0.340368 0
375.386 -1.78023 0
376.655 -1.8023 0
377.886 -3.9671 0
380.423 -4.01139 0
380.498 0.273957 0
377.96 0.31826 0
379.154 -3.98923 0
380.46 -1.86871 0
379.229 0.296123 0
377.923 -1.82441 0
379.192 -1.84654 0
380.423 -4.01139 0
382.96 -4.0558 0
383.035 0.22954 0
380.498 0.273957 0
381.691 -4.03358 0
382.997 -1.91312 0
381.766 0.251763 0
380.46 -1.86871 0
381.729 -1.8909 0
382.96 -4.0558 0
385.497 -4.10032 0
385.572 0.185012 0
383.035 0.22954 0
384.228 -4.07805 0
385.534 -1.95764 0
384.303 0.20729 0
382.997 -1.91312 0
384.266 -1.93537 0
385.497 -4.10032 0
388.034 -4.14495 0
388.109 0.140374 0
385.572 0.185012 0
386.765 -4.12262 0
388.072 -2.00228 0
386.841 0.162706 0
385.534 -1.95764 0
386.803 -1.97995 0
388.034 -4.14495 0
390.571 -4.18969 0
390.646 0.0956293 0
388.109 0.140374 0
389.302 -4.1673 0
390.609 -2.04702 0
389.378 0.118015 0
388.072 -2.00228 0
389.34 -2.02463 0
390.571 -4.18969 0
393.108 -4.23452 0
393.184 0.0507806 0
390.646 0.0956293 0
391.839 -4.21209 0
393.146 -2.09186 0
391.915 0.0732178 0
390.609 -2.04702 0
391.877 -2.06943 0
393.108 -4.23452 0
395.645 -4.27947 0
395.721 0.00583002 0
393.184 0.0507806 0
394.376 -4.25698 0
395.683 -2.13681 0
394.452 0.0283179 0
393.146 -2.09186 0
394.414 -2.11432 0
395.645 -4.27947 0
398.182 -4.32451 0
398.258 -0.03922 0
395.721 0.00583002 0
396.914 -4.30197 0
398.22 -2.18185 0
396.99 -0.0166827 0
395.683 -2.13681 0
396.952 -2.15932 0
398.182 -4.32451 0
400.719 -4.36964 0
400.795 -0.084367 0
398.258 -0.03922 0
399.451 -4.34706 0
400.757 -2.227 0
399.527 -0.0617815 0
398.22 -2.18185 0
399.489 -2.20441 0
400.719 -4.36964 0
403.256 -4.41488 0
403.333 -0.129609 0
400.795 -0.084367 0
401.988 -4.39225 0
403.295 -2.27223 0
402.064 -0.106976 0
400.757 -2.227 0
402.026 -2.2496 0
403.256 -4.41488 0
405.793 -4.4602 0
405.87 -0.174942 0
403.333 -0.129609 0
404.525 -4.43753 0
405.832 -2.31756 0
404.601 -0.152264 0
403.295 -2.27223 0
404.563 -2.29489 0
405.793 -4.4602 0
408.331 -4.50562 0
408.407 -0.220366 0
405.87 -0.174942 0
407.062 -4.4829 0
408.369 -2.36298 0
407.139 -0.197643 0
405.832 -2.31756 0
407.1 -2.34026 0
408.331 -4.50562 0
410.868 -4.55112 0
410.945 -0.265877 0
408.407 -0.220366 0
409.599 -4.52836 0
410.906 -2.40849 0
409.676 -0.243111 0
408.369 -2.36298 0
409.638 -2.38572 0
410.868 -4.55112 0
413.405 -4.59671 0
413.482 -0.311473 0
410.945 -0.265877 0
412.136 -4.5739 0
413.443 -2.45408 0
412.213 -0.288664 0
410.906 -2.40849 0
412.175 -2.43127 0
413.405 -4.59671 0
415.942 -4.64238 0
416.019 -0.357151 0
413.482 -0.311473 0
414.673 -4.61953 0
415.981 -2.49976 0
414.751 -0.334302 0
413.443 -2.45408 0
414.712 -2.47691 0
415.942 -4.64238 0
418.479 -4.68813 0
418.557 -0.40291 0
416.019 -0.357151 0
417.211 -4.66524 0
418.518 -2.54551 0
417.288 -0.38002 0
415.981 -2.49976 0
417.249 -2.52262 0
418.479 -4.68813 0
421.016 -4.73395 0
421.094 -0.448746 0
418.557 -0.40291 0
419.748 -4.71103 0
421.055 -2.59134 0
419.825 -0.425818 0
418.518 -2.54551 0
419.787 -2.56842 0
421.016 -4.73395 0
423.554 -4.77986 0
423.631 -0.494657 0
421.094 -0.448746 0
422.285 -4.7569 0
423.592 -2.63725 0
422.363 -0.471692 0
421.055 -2.59134 0
422.324 -2.61429 0
423.554 -4.77986 0
426.091 -4.82583 0
426.169 -0.540641 0
423.631 -0.494657 0
424.822 -4.80283 0
426.13 -2.68323 0
424.9 -0.51764 0
423.592 -2.63725 0
424.861 -2.66023 0
426.091 -4.82583 0
428.628 -4.87188 0
428.706 -0.586696 0
426.169 -0.540641 0
427.36 -4.84885 0
428.667 -2.72928 0
427.437 -0.56366 0
426.13 -2.68323 0
427.398 -2.70625 0
428.628 -4.87188 0
431.165 -4.91799 0
431.243 -0.632818 0
428.706 -0.586696 0
429.897 -4.89493 0
431.204 -2.7754 0
429.975 -0.609748 0
428.667 -2.72928 0
429.936 -2.75233 0
431.165 -4.91799 0
433.703 -4.96417 0
433.781 -0.679006 0
431.243 -0.632818 0
432.434 -4.94107 0
433.742 -2.82158 0
432.512 -0.655904 0
431.204 -2.7754 0
432.473 -2.79848 0
433.703 -4.96417 0
436.24 -5.01041 0
436.318 -0.725257 0
433.781 -0.679006 0
434.971 -4.98729 0
436.279 -2.86783 0
435.049 -0.702124 0
433.742 -2.82158 0
435.01 -2.8447 0
436.24 -5.01041 0
438.777 -5.05672 0
438.856 -0.771569 0
436.318 -0.725257 0
437.509 -5.03356 0
438.816 -2.91414 0
437.587 -0.748406 0
436.279 -2.86783 0
437.548 -2.89098 0
438.777 -5.05672 0
441.315 -5.10308 0
441.393 -0.817939 0
438.856 -0.771569 0
440.046 -5.07989 0
441.354 -2.9605 0
440.124 -0.794747 0
438.816 -2.91414 0
440.085 -2.93731 0
441.315 -5.10308 0
443.852 -5.1495 0
443.93 -0.864365 0
441.393 -0.817939 0
442.583 -5.12628 0
443.891 -3.00693 0
442.662 -0.841145 0
441.354 -2.9605 0
442.622 -2.98371 0
443.852 -5.1495 0
446.389 -5.19597 0
446.468 -0.910845 0
443.93 -0.864365 0
445.121 -5.17273 0
446.429 -3.0534 0
445.199 -0.887599 0
443.891 -3.00693 0
445.16 -3.03016 0
446.389 -5.19597 0
448.927 -5.24249 0
449.005 -0.957375 0
446.468 -0.910845 0
447.658 -5.21923 0
448.966 -3.09993 0
447.736 -0.934104 0
446.429 -3.0534 0
447.697 -3.07666 0
448.927 -5.24249 0
451.464 -5.28906 0
451.543 -1.00395 0
449.005 -0.957375 0
450.195 -5.26577 0
451.503 -3.1465 0
450.274 -0.980659 0
448.966 -3.09993 0
450.235 -3.12321 0
451.464 -5.28906 0
454.001 -5.33568 0
454.08 -1.05058 0
451.543 -1.00395 0
452.733 -5.31237 0
454.041 -3.19313 0
452.811 -1.02726 0
451.503 -3.1465 0
452.772 -3.16981 0
454.001 -5.33568 0
456.539 -5.38234 0
456.618 -1.09725 0
454.08 -1.05058 0
455.27 -5.35901 0
456.578 -3.23979 0
455.349 -1.07391 0
454.041 -3.19313 0
455.309 -3.21645 0
456.539 -5.38234 0
459.076 -5.42905 0
459.155 -1.14396 0
456.618 -1.09725 0
457.807 -5.40569 0
459.116 -3.2865 0
457.886 -1.1206 0
456.578 -3.23979 0
457.847 -3.26314 0
459.076 -5.42905 0
461.614 -5.47579 0
461.693 -1.19071 0
459.155 -1.14396 0
460.345 -5.45241 0
461.653 -3.33325 0
460.424 -1.16733 0
459.116 -3.2865 0
460.384 -3.30987 0
461.614 -5.47579 0
464.151 -5.52257 0
464.23 -1.23749 0
461.693 -1.19071 0
462.882 -5.49917 0
464.191 -3.38003 0
462.961 -1.2141 0
461.653 -3.33325 0
462.922 -3.35663 0
464.151 -5.52257 0
466.688 -5.56938 0
466.768 -1.28431 0
464.23 -1.23749 0
465.42 -5.54597 0
466.728 -3.42684 0
465.499 -1.2609 0
464.191 -3.38003 0
465.459 -3.40343 0
466.688 -5.56938 0
469.226 -5.61622 0
469.305 -1.33117 0
466.768 -1.28431 0
467.957 -5.5928 0
469.265 -3.47369 0
468.036 -1.30774 0
466.728 -3.42684 0
467.997 -3.45026 0
469.226 -5.61622 0
471.763 -5.6631 0
471.843 -1.37805 0
469.305 -1.33117 0
470.495 -5.63966 0
471.803 -3.52057 0
470.574 -1.3546 0
469.265 -3.47369 0
470.534 -3.49713 0
471.763 -5.6631 0
474.301 -5.71 0
474.38 -1.42495 0
471.843 -1.37805 0
473.032 -5.68655 0
474.34 -3.56747 0
473.111 -1.4015 0
471.803 -3.52057 0
473.072 -3.54402 0
474.301 -5.71 0
476.838 -5.75692 0
476.918 -1.47189 0
474.38 -1.42495 0
475.57 -5.73346 0
476.878 -3.6144 0
475.649 -1.44842 0
474.34 -3.56747 0
475.609 -3.59094 0
476.838 -5.75692 0
479.376 -5.80387 0
479.455 -1.51884 0
476.918 -1.47189 0
478.107 -5.78039 0
479.416 -3.66135 0
478.186 -1.49536 0
476.878 -3.6144 0
478.147 -3.63788 0
479.376 -5.80387 0
481.913 -5.85084 0
481.993 -1.56581 0
479.455 -1.51884 0
480.645 -5.82735 0
481.953 -3.70832 0
480.724 -1.54232 0
479.416 -3.66135 0
480.684 -3.68484 0
481.913 -5.85084 0
484.451 -5.89782 0
484.53 -1.6128 0
481.993 -1.56581 0
483.182 -5.87433 0
484.491 -3.75531 0
483.262 -1.58931 0
481.953 -3.70832 0
483.222 -3.73181 0
484.451 -5.89782 0
486.989 -5.94482 0
487.068 -1.65981 0
484.53 -1.6128 0
485.72 -5.92132 0
487.028 -3.80231 0
485.799 -1.6363 0
484.491 -3.75531 0
485.759 -3.77881 0
486.989 -5.94482 0
489.526 -5.99183 0
489.605 -1.70683 0
487.068 -1.65981 0
488.257 -5.96832 0
489.566 -3.84933 0
488.337 -1.68332 0
487.028 -3.80231 0
488.297 -3.82582 0
489.526 -5.99183 0
492.064 -6.03886 0
492.143 -1.75386 0
489.605 -1.70683 0
490.795 -6.01534 0
492.103 -3.89636 0
490.874 -1.73034 0
489.566 -3.84933 0
490.835 -3.87284 0
492.064 -6.03886 0
494.601 -6.0859 0
494.681 -1.80091 0
492.143 -1.75386 0
493.332 -6.06238 0
494.641 -3.94341 0
493.412 -1.77738 0
492.103 -3.89636 0
493.372 -3.91988 0
494.601 -6.0859 0
497.139 -6.13299 0
497.218 -1.84799 0
494.681 -1.80091 0
495.87 -6.10944 0
497.179 -3.99049 0
495.949 -1.82445 0
494.641 -3.94341 0
495.91 -3.96694 0
497.139 -6.13299 0
499.676 -6.18027 0
499.756 -1.89509 0
497.218 -1.84799 0
498.408 -6.15658 0
499.716 -4.03767 0
498.487 -1.87154 0
497.179 -3.99049 0
498.447 -4.01407 0
0 4.28571 0
2.53624 4.2852 0
2.537 8.57132 0
0 8.57143 0
1.26815 4.28553 0
2.53663 6.42831 0
1.26852 8.57146 0
0 6.42857 0
1.26833 6.42852 0
2.53624 4.2852 0
5.07232 4.28422 0
5.07393 8.5706 0
2.537 8.57132 0
3.80429 4.28475 0
5.07315 6.42747 0
3.80547 8.57103 0
2.53663 6.42831 0
3.80491 6.42795 0
5.07232 4.28422 0
7.60839 4.28287 0
7.6108 8.56936 0
5.07393 8.5706 0
6.34035 4.28359 0
7.60962 6.42617 0
6.34237 8.57004 0
5.07315 6.42747 0
6.34139 6.42687 0
7.60839 4.28287 0
10.1445 4.28112 0
10.1477 8.56764 0
7.6108 8.56936 0
8.87643 4.28205 0
10.1461 6.42443 0
8.87923 8.56856 0
7.60962 6.42617 0
8.87785 6.42535 0
10.1445 4.28112 0
12.6806 4.27893 0
12.6845 8.56545 0
10.1477 8.56764 0
11.4125 4.28008 0
12.6826 6.42224 0
11.4161 8.5666 0
10.1461 6.42443 0
11.4143 6.42339 0
12.6806 4.27893 0
15.2167 4.27629 0
15.2214 8.5628 0
12.6845 8.56545 0
13.9486 4.27767 0
15.219 6.41959 0
13.953 8.56418 0
12.6826 6.42224 0
13.9508 6.42097 0
15.2167 4.27629 0
17.7528 4.27319 0
17.7583 8.55969 0
15.2214 8.5628 0
16.4847 4.2748 0
17.7556 6.41649 0
16.4899 8.56131 0
15.219 6.41959 0
16.4873 6.4181 0
17.7528 4.27319 0
20.2889 4.26963 0
20.2952 8.55613 0
17.7583 8.55969 0
19.0208 4.27147 0
20.2921 6.41293 0
19.0268 8.55797 0
17.7556 6.41649 0
19.0238 6.41477 0
20.2889 4.26963 0
22.8251 4.26562 0
22.8321 8.55211 0
20.2952 8.55613 0
21.557 4.26768 0
22.8286 6.40891 0
21.5637 8.55417 0
20.2921 6.41293 0
21.5603 6.41098 0
22.8251 4.26562 0
25.3612 4.26115 0
25.369 8.54763 0
22.8321 8.55211 0
24.0931 4.26344 0
25.3651 6.40443 0
24.1006 8.54992 0
22.8286 6.40891 0
24.0969 6.40673 0
25.3612 4.26115 0
27.8974 4.25622 0
27.9059 8.5427 0
25.369 8.54763 0
26.6293 4.25874 0
27.9017 6.39951 0
26.6375 8.54522 0
25.3651 6.40443 0
26.6334 6.40203 0
27.8974 4.25622 0
30.4335 4.25085 0
30.4429 8.53732 0
27.9059 8.5427 0
29.1654 4.25359 0
30.4382 6.39413 0
29.1744 8.54006 0
27.9017 6.39951 0
29.1699 6.39688 0
30.4335 4.25085 0
32.9697 4.24503 0
32.9798 8.53149 0
30.4429 8.53732 0
31.7016 4.24799 0
32.9748 6.38831 0
31.7113 8.53446 0
30.4382 6.39413 0
31.7065 6.39127 0
32.9697 4.24503 0
35.5059 4.23876 0
35.5167 8.52522 0
32.9798 8.53149 0
34.2378 4.24195 0
35.5113 6.38204 0
34.2483 8.52841 0
32.9748 6.38831 0
34.243 6.38523 0
35.5059 4.23876 0
38.0421 4.23205 0
38.0537 8.5185 0
35.5167 8.52522 0
36.774 4.23546 0
38.0479 6.37532 0
36.7852 8.52191 0
35.5113 6.38204 0
36.7796 6.37873 0
38.0421 4.23205 0
40.5783 4.2249 0
40.5906 8.51134 0
38.0537 8.5185 0
39.3102 4.22853 0
40.5845 6.36817 0
39.3222 8.51498 0
38.0479 6.37532 0
39.3162 6.3718 0
40.5783 4.2249 0
43.1145 4.21731 0
43.1276 8.50375 0
40.5906 8.51134 0
41.8464 4.22116 0
43.121 6.36057 0
41.8591 8.5076 0
40.5845 6.36817 0
41.8528 6.36443 0
43.1145 4.21731 0
45.6507 4.20928 0
45.6645 8.49572 0
43.1276 8.50375 0
44.3826 4.21335 0
45.6576 6.35255 0
44.3961 8.49979 0
43.121 6.36057 0
44.3893 6.35662 0
45.6507 4.20928 0
48.187 4.20083 0
48.2015 8.48725 0
45.6645 8.49572 0
46.9188 4.20511 0
48.1942 6.34409 0
46.933 8.49154 0
45.6576 6.35255 0
46.9259 6.34837 0
48.187 4.20083 0
50.7232 4.19194 0
50.7385 8.47836 0
48.2015 8.48725 0
49.4551 4.19644 0
50.7308 6.33519 0
49.47 8.48286 0
48.1942 6.34409 0
49.4625 6.33969 0
50.7232 4.19194 0
53.2594 4.18262 0
53.2754 8.46903 0
50.7385 8.47836 0
51.9913 4.18733 0
53.2674 6.32587 0
52.0069 8.47375 0
50.7308 6.33519 0
51.9991 6.33059 0
53.2594 4.18262 0
55.7957 4.17288 0
55.8124 8.45928 0
53.2754 8.46903 0
54.5276 4.1778 0
55.8041 6.31613 0
54.5439 8.46421 0
53.2674 6.32587 0
54.5358 6.32105 0
55.7957 4.17288 0
58.332 4.16271 0
58.3494 8.44911 0
55.8124 8.45928 0
57.0638 4.16785 0
58.3407 6.30596 0
57.0809 8.45425 0
55.8041 6.31613 0
57.0724 6.31109 0
58.332 4.16271 0
60.8682 4.15212 0
60.8864 8.43852 0
58.3494 8.44911 0
59.6001 4.15747 0
60.8773 6.29536 0
59.6179 8.44387 0
58.3407 6.30596 0
59.609 6.30071 0
60.8682 4.15212 0
63.4045 4.14112 0
63.4234 8.4275 0
60.8864 8.43852 0
62.1364 4.14667 0
63.4139 6.28435 0
62.1549 8.43306 0
60.8773 6.29536 0
62.1456 6.28991 0
63.4045 4.14112 0
65.9408 4.12969 0
65.9604 8.41607 0
63.4234 8.4275 0
64.6727 4.13546 0
65.9506 6.27293 0
64.6919 8.42184 0
63.4139 6.28435 0
64.6823 6.27869 0
65.9408 4.12969 0
68.4771 4.11786 0
68.4973 8.40423 0
65.9604 8.41607 0
67.209 4.12383 0
68.4872 6.26109 0
67.2288 8.4102 0
65.9506 6.27293 0
67.2189 6.26706 0
68.4771 4.11786 0
71.0134 4.10561 0
71.0343 8.39197 0
68.4973 8.40423 0
69.7453 4.11179 0
71.0239 6.24884 0
69.7658 8.39815 0
68.4872 6.26109 0
69.7556 6.25501 0
71.0134 4.10561 0
73.5497 4.09295 0
73.5714 8.37931 0
71.0343 8.39197 0
72.2816 4.09933 0
73.5606 6.23617 0
72.3029 8.38569 0
71.0239 6.24884 0
72.2922 6.24256 0
73.5497 4.09295 0
76.0861 4.07989 0
76.1084 8.36624 0
73.5714 8.37931 0
74.8179 4.08647 0
76.0972 6.22311 0
74.8399 8.37282 0
73.5606 6.23617 0
74.8289 6.22969 0
76.0861 4.07989 0
78.6224 4.06642 0
78.6454 8.35276 0
76.1084 8.36624 0
77.3542 4.07321 0
78.6339 6.20963 0
77.3769 8.35955 0
76.0972 6.22311 0
77.3656 6.21642 0
78.6224 4.06642 0
81.1587 4.05255 0
81.1824 8.33888 0
78.6454 8.35276 0
79.8906 4.05954 0
81.1706 6.19576 0
79.9139 8.34587 0
78.6339 6.20963 0
79.9022 6.20275 0
81.1587 4.05255 0
83.6951 4.03828 0
83.7194 8.32461 0
81.1824 8.33888 0
82.4269 4.04547 0
83.7073 6.18149 0
82.4509 8.33179 0
81.1706 6.19576 0
82.4389 6.18867 0
83.6951 4.03828 0
86.2314 4.02362 0
86.2564 8.30993 0
83.7194 8.32461 0
84.9633 4.031 0
86.2439 6.16682 0
84.9879 8.31732 0
83.7073 6.18149 0
84.9756 6.1742 0
86.2314 4.02362 0
88.7678 4.00856 0
88.7935 8.29486 0
86.2564 8.30993 0
87.4996 4.01613 0
88.7806 6.15175 0
87.525 8.30245 0
86.2439 6.16682 0
87.5123 6.15933 0
88.7678 4.00856 0
91.3042 3.9931 0
91.3305 8.2794 0
88.7935 8.29486 0
90.036 4.00088 0
91.3173 6.13629 0
90.062 8.28718 0
88.7806 6.15175 0
90.049 6.14407 0
91.3042 3.9931 0
93.8406 3.97726 0
93.8675 8.26355 0
91.3305 8.2794 0
92.5724 3.98523 0
93.8541 6.12045 0
92.599 8.27152 0
91.3173 6.13629 0
92.5857 6.12842 0
93.8406 3.97726 0
96.3769 3.96103 0
96.4046 8.24731 0
93.8675 8.26355 0
95.1087 3.96919 0
96.3908 6.10421 0
95.1361 8.25548 0
93.8541 6.12045 0
95.1224 6.11238 0
96.3769 3.96103 0
98.9133 3.94441 0
98.9416 8.23069 0
96.4046 8.24731 0
97.6451 3.95277 0
98.9275 6.08759 0
97.6731 8.23905 0
96.3908 6.10421 0
97.6591 6.09595 0
98.9133 3.94441 0
101.45 3.92742 0
101.479 8.21368 0
98.9416 8.23069 0
100.182 3.93596 0
101.464 6.07059 0
100.21 8.22223 0
98.9275 6.08759 0
100.196 6.07914 0
101.45 3.92742 0
103.986 3.91004 0
104.016 8.1963 0
101.479 8.21368 0
102.718 3.91878 0
104.001 6.05321 0
102.747 8.20504 0
101.464 6.07059 0
102.733 6.06195 0
103.986 3.91004 0
106.523 3.89229 0
106.553 8.17853 0
104.016 8.1963 0
105.254 3.90121 0
106.538 6.03545 0
105.284 8.18746 0
104.001 6.05321 0
105.269 6.04438 0
106.523 3.89229 0
109.059 3.87416 0
109.09 8.1604 0
106.553 8.17853 0
107.791 3.88327 0
109.074 6.01732 0
107.821 8.16951 0
106.538 6.03545 0
107.806 6.02643 0
109.059 3.87416 0
111.595 3.85565 0
111.627 8.14188 0
109.09 8.1604 0
110.327 3.86495 0
111.611 5.99881 0
110.358 8.15119 0
109.074 6.01732 0
110.343 6.00811 0
111.595 3.85565 0
114.132 3.83678 0
114.164 8.123 0
111.627 8.14188 0
112.864 3.84626 0
114.148 5.97993 0
112.895 8.13249 0
111.611 5.99881 0
112.88 5.98941 0
114.132 3.83678 0
116.668 3.81754 0
116.701 8.10375 0
114.164 8.123 0
115.4 3.8272 0
116.685 5.96068 0
115.432 8.11342 0
114.148 5.97993 0
115.416 5.97035 0
116.668 3.81754 0
119.205 3.79793 0
119.238 8.08414 0
116.701 8.10375 0
117.937 3.80778 0
119.221 5.94107 0
117.97 8.09399 0
116.685 5.96068 0
117.953 5.95092 0
119.205 3.79793 0
121.741 3.77796 0
121.775 8.06416 0
119.238 8.08414 0
120.473 3.78799 0
121.758 5.9211 0
120.507 8.07419 0
119.221 5.94107 0
120.49 5.93113 0
121.741 3.77796 0
124.278 3.75763 0
124.312 8.04382 0
121.775 8.06416 0
123.009 3.76784 0
124.295 5.90076 0
123.044 8.05403 0
121.758 5.9211 0
123.027 5.91097 0
124.278 3.75763 0
126.814 3.73694 0
126.849 8.02312 0
124.312 8.04382 0
125.546 3.74733 0
126.832 5.88007 0
125.581 8.03351 0
124.295 5.90076 0
125.563 5.89046 0
126.814 3.73694 0
129.351 3.7159 0
129.386 8.00207 0
126.849 8.02312 0
128.082 3.72646 0
129.369 5.85902 0
128.118 8.01264 0
126.832 5.88007 0
128.1 5.86959 0
129.351 3.7159 0
131.887 3.6945 0
131.924 7.98066 0
129.386 8.00207 0
130.619 3.70524 0
131.905 5.83762 0
130.655 7.99141 0
129.369 5.85902 0
130.637 5.84836 0
131.887 3.6945 0
134.424 3.67275 0
134.461 7.9589 0
131.924 7.98066 0
133.155 3.68367 0
134.442 5.81586 0
133.192 7.96982 0
131.905 5.83762 0
133.174 5.82678 0
134.424 3.67275 0
136.96 3.65065 0
136.998 7.93679 0
134.461 7.9589 0
135.692 3.66174 0
136.979 5.79376 0
135.729 7.94789 0
134.442 5.81586 0
135.711 5.80485 0
136.96 3.65065 0
139.497 3.62821 0
139.535 7.91434 0
136.998 7.93679 0
138.228 3.63947 0
139.516 5.77131 0
138.266 7.92561 0
136.979 5.79376 0
138.247 5.78258 0
139.497 3.62821 0
142.033 3.60542 0
142.072 7.89154 0
139.535 7.91434 0
140.765 3.61686 0
142.053 5.74852 0
140.803 7.90298 0
139.516 5.77131 0
140.784 5.75996 0
142.033 3.60542 0
144.57 3.58229 0
144.609 7.8684 0
142.072 7.89154 0
143.301 3.5939 0
144.589 5.72538 0
143.34 7.88001 0
142.053 5.74852 0
143.321 5.73699 0
144.57 3.58229 0
147.106 3.55882 0
147.146 7.84493 0
144.609 7.8684 0
145.838 3.5706 0
147.126 5.70191 0
145.878 7.85671 0
144.589 5.72538 0
145.858 5.71369 0
147.106 3.55882 0
149.643 3.53502 0
149.683 7.82111 0
147.146 7.84493 0
148.375 3.54696 0
149.663 5.6781 0
148.415 7.83306 0
147.126 5.70191 0
148.395 5.69005 0
149.643 3.53502 0
152.179 3.51088 0
152.22 7.79696 0
149.683 7.82111 0
150.911 3.52299 0
152.2 5.65396 0
150.952 7.80908 0
149.663 5.6781 0
150.931 5.66607 0
152.179 3.51088 0
154.716 3.48641 0
154.757 7.77248 0
152.22 7.79696 0
153.448 3.49868 0
154.737 5.62948 0
153.489 7.78476 0
152.2 5.65396 0
153.468 5.64176 0
154.716 3.48641 0
157.252 3.46161 0
157.295 7.74767 0
154.757 7.77248 0
155.984 3.47405 0
157.274 5.60468 0
156.026 7.76012 0
154.737 5.62948 0
156.005 5.61712 0
157.252 3.46161 0
159.789 3.43648 0
159.832 7.72254 0
157.295 7.74767 0
158.521 3.44908 0
159.81 5.57954 0
158.563 7.73515 0
157.274 5.60468 0
158.542 5.59215 0
159.789 3.43648 0
162.326 3.41103 0
162.369 7.69708 0
159.832 7.72254 0
161.057 3.42379 0
162.347 5.55409 0
161.1 7.70985 0
159.81 5.57954 0
161.079 5.56686 0
162.326 3.41103 0
164.862 3.38526 0
164.906 7.67129 0
162.369 7.69708 0
163.594 3.39818 0
164.884 5.52831 0
163.637 7.68423 0
162.347 5.55409 0
163.616 5.54124 0
164.862 3.38526 0
167.399 3.35916 0
167.443 7.64519 0
164.906 7.67129 0
166.131 3.37225 0
167.421 5.50221 0
166.174 7.65828 0
164.884 5.52831 0
166.153 5.5153 0
167.399 3.35916 0
169.935 3.33275 0
169.98 7.61877 0
167.443 7.64519 0
168.667 3.346 0
169.958 5.4758 0
168.712 7.63202 0
167.421 5.50221 0
168.689 5.48904 0
169.935 3.33275 0
172.472 3.30603 0
172.517 7.59204 0
169.98 7.61877 0
171.204 3.31943 0
172.495 5.44907 0
171.249 7.60544 0
169.958 5.4758 0
171.226 5.46247 0
172.472 3.30603 0
175.009 3.27899 0
175.054 7.56499 0
172.517 7.59204 0
173.74 3.29255 0
175.032 5.42202 0
173.786 7.57855 0
172.495 5.44907 0
173.763 5.43558 0
175.009 3.27899 0
177.545 3.25164 0
177.592 7.53763 0
175.054 7.56499 0
176.277 3.26536 0
177.568 5.39467 0
176.323 7.55135 0
175.032 5.42202 0
176.3 5.40839 0
177.545 3.25164 0
180.082 3.22399 0
180.129 7.50997 0
177.592 7.53763 0
178.814 3.23786 0
180.105 5.36701 0
178.86 7.52384 0
177.568 5.39467 0
178.837 5.38088 0
180.082 3.22399 0
182.619 3.19603 0
182.666 7.482 0
180.129 7.50997 0
181.35 3.21005 0
182.642 5.33905 0
181.397 7.49602 0
180.105 5.36701 0
181.374 5.35307 0
182.619 3.19603 0
185.155 3.16777 0
185.203 7.45373 0
182.666 7.482 0
183.887 3.18194 0
185.179 5.31078 0
183.934 7.4679 0
182.642 5.33905 0
183.911 5.32495 0
185.155 3.16777 0
187.692 3.13921 0
187.74 7.42516 0
185.203 7.45373 0
186.423 3.15352 0
187.716 5.28221 0
186.472 7.43948 0
185.179 5.31078 0
186.448 5.29653 0
187.692 3.13921 0
190.228 3.11035 0
190.277 7.39629 0
187.74 7.42516 0
188.96 3.12481 0
190.253 5.25335 0
189.009 7.41076 0
187.716 5.28221 0
188.984 5.26782 0
190.228 3.11035 0
192.765 3.08119 0
192.815 7.36712 0
190.277 7.39629 0
191.497 3.0958 0
192.79 5.22419 0
191.546 7.38174 0
190.253 5.25335 0
191.521 5.2388 0
192.765 3.08119 0
195.302 3.05174 0
195.352 7.33766 0
192.815 7.36712 0
194.033 3.0665 0
195.327 5.19473 0
194.083 7.35243 0
192.79 5.22419 0
194.058 5.2095 0
195.302 3.05174 0
197.838 3.022 0
197.889 7.30791 0
195.352 7.33766 0
196.57 3.03691 0
197.864 5.16499 0
196.62 7.32282 0
195.327 5.19473 0
196.595 5.1799 0
197.838 3.022 0
200.375 2.99197 0
200.426 7.27788 0
197.889 7.30791 0
199.107 3.00702 0
200.401 5.13496 0
199.157 7.29293 0
197.864 5.16499 0
199.132 5.15001 0
200.375 2.99197 0
202.912 2.96166 0
202.963 7.24755 0
200.426 7.27788 0
201.643 2.97685 0
202.938 5.10464 0
201.695 7.26275 0
200.401 5.13496 0
201.669 5.11983 0
202.912 2.96166 0
205.449 2.93107 0
205.5 7.21695 0
202.963 7.24755 0
204.18 2.9464 0
205.474 5.07404 0
204.232 7.23228 0
202.938 5.10464 0
204.206 5.08937 0
205.449 2.93107 0
207.985 2.90019 0
208.038 7.18606 0
205.5 7.21695 0
206.717 2.91566 0
208.011 5.04315 0
206.769 7.20154 0
205.474 5.07404 0
206.743 5.05863 0
207.985 2.90019 0
210.522 2.86903 0
210.575 7.15489 0
208.038 7.18606 0
209.254 2.88464 0
210.548 5.01199 0
209.306 7.17051 0
208.011 5.04315 0
209.28 5.02761 0
210.522 2.86903 0
213.059 2.8376 0
213.112 7.12345 0
210.575 7.15489 0
211.79 2.85335 0
213.085 4.98056 0
211.843 7.13921 0
210.548 5.01199 0
211.817 4.99631 0
213.059 2.8376 0
215.595 2.80589 0
215.649 7.09174 0
213.112 7.12345 0
214.327 2.82178 0
215.622 4.94884 0
214.38 7.10763 0
213.085 4.98056 0
214.354 4.96473 0
215.595 2.80589 0
218.132 2.77392 0
218.186 7.05975 0
215.649 7.09174 0
216.864 2.78994 0
218.159 4.91686 0
216.918 7.07578 0
215.622 4.94884 0
216.891 4.93289 0
218.132 2.77392 0
220.669 2.74167 0
220.723 7.02749 0
218.186 7.05975 0
219.4 2.75783 0
220.696 4.88461 0
219.455 7.04366 0
218.159 4.91686 0
219.428 4.90077 0
220.669 2.74167 0
223.206 2.70916 0
223.261 6.99497 0
220.723 7.02749 0
221.937 2.72545 0
223.233 4.85209 0
221.992 7.01127 0
220.696 4.88461 0
221.965 4.86839 0
223.206 2.70916 0
225.742 2.67638 0
225.798 6.96219 0
223.261 6.99497 0
224.474 2.69281 0
225.77 4.81931 0
224.529 6.97861 0
223.233 4.85209 0
224.502 4.83574 0
225.742 2.67638 0
228.279 2.64335 0
228.335 6.92914 0
225.798 6.96219 0
227.011 2.6599 0
228.307 4.78627 0
227.066 6.9457 0
225.77 4.81931 0
227.039 4.80282 0
228.279 2.64335 0
230.816 2.61005 0
230.872 6.89583 0
228.335 6.92914 0
229.547 2.62673 0
230.844 4.75297 0
229.604 6.91252 0
228.307 4.78627 0
229.576 4.76965 0
230.816 2.61005 0
233.353 2.5765 0
233.409 6.86227 0
230.872 6.89583 0
232.084 2.59331 0
233.381 4.71941 0
232.141 6.87908 0
230.844 4.75297 0
232.113 4.73622 0
233.353 2.5765 0
235.889 2.54269 0
235.947 6.82845 0
233.409 6.86227 0
234.621 2.55962 0
235.918 4.6856 0
234.678 6.84539 0
233.381 4.71941 0
234.65 4.70254 0
235.889 2.54269 0
238.426 2.50863 0
238.484 6.79438 0
235.947 6.82845 0
237.158 2.52569 0
238.455 4.65153 0
237.215 6.81145 0
235.918 4.6856 0
237.187 4.6686 0
238.426 2.50863 0
240.963 2.47432 0
241.021 6.76006 0
238.484 6.79438 0
239.695 2.49151 0
240.992 4.61722 0
239.752 6.77725 0
238.455 4.65153 0
239.724 4.63441 0
240.963 2.47432 0
243.5 2.43976 0
243.558 6.7255 0
241.021 6.76006 0
242.231 2.45707 0
243.529 4.58266 0
242.29 6.74281 0
240.992 4.61722 0
242.261 4.59997 0
243.5 2.43976 0
246.037 2.40496 0
246.095 6.69069 0
243.558 6.7255 0
244.768 2.42239 0
246.066 4.54785 0
244.827 6.70812 0
243.529 4.58266 0
244.798 4.56529 0
246.037 2.40496 0
248.573 2.36992 0
248.633 6.65564 0
246.095 6.69069 0
247.305 2.38747 0
248.603 4.5128 0
247.364 6.67319 0
246.066 4.54785 0
247.335 4.53036 0
248.573 2.36992 0
251.11 2.33464 0
251.17 6.62034 0
248.633 6.65564 0
249.842 2.35231 0
251.14 4.47752 0
249.901 6.63802 0
248.603 4.5128 0
249.872 4.49519 0
251.11 2.33464 0
253.647 2.29912 0
253.707 6.58481 0
251.17 6.62034 0
252.379 2.31691 0
253.677 4.44199 0
252.439 6.60261 0
251.14 4.47752 0
252.409 4.45978 0
253.647 2.29912 0
256.184 2.26336 0
256.244 6.54905 0
253.707 6.58481 0
254.915 2.28127 0
256.214 4.40623 0
254.976 6.56696 0
253.677 4.44199 0
254.946 4.42414 0
256.184 2.26336 0
258.721 2.22738 0
258.782 6.51305 0
256.244 6.54905 0
257.452 2.2454 0
258.751 4.37024 0
257.513 6.53108 0
256.214 4.40623 0
257.483 4.38826 0
258.721 2.22738 0
261.258 2.19116 0
261.319 6.47682 0
258.782 6.51305 0
259.989 2.2093 0
261.288 4.33402 0
260.05 6.49497 0
258.751 4.37024 0
260.02 4.35216 0
261.258 2.19116 0
263.794 2.15471 0
263.856 6.44037 0
261.319 6.47682 0
262.526 2.17296 0
263.825 4.29757 0
262.587 6.45863 0
261.288 4.33402 0
262.557 4.31582 0
263.794 2.15471 0
266.331 2.11804 0
266.393 6.40369 0
263.856 6.44037 0
265.063 2.13641 0
266.362 4.26089 0
265.125 6.42206 0
263.825 4.29757 0
265.094 4.27926 0
266.331 2.11804 0
268.868 2.08115 0
268.931 6.36679 0
266.393 6.40369 0
267.6 2.09962 0
268.899 4.22399 0
267.662 6.38527 0
266.362 4.26089 0
267.631 4.24247 0
268.868 2.08115 0
271.405 2.04404 0
271.468 6.32966 0
268.931 6.36679 0
270.137 2.06262 0
271.436 4.18687 0
270.199 6.34825 0
268.899 4.22399 0
270.168 4.20546 0
271.405 2.04404 0
273.942 2.0067 0
274.005 6.29232 0
271.468 6.32966 0
272.673 2.0254 0
273.973 4.14954 0
272.736 6.31102 0
271.436 4.18687 0
272.705 4.16823 0
273.942 2.0067 0
276.479 1.96916 0
276.542 6.25477 0
274.005 6.29232 0
275.21 1.98796 0
276.511 4.11198 0
275.274 6.27357 0
273.973 4.14954 0
275.242 4.13079 0
276.479 1.96916 0
279.016 1.9314 0
279.08 6.217 0
276.542 6.25477 0
277.747 1.9503 0
279.048 4.07422 0
277.811 6.23591 0
276.511 4.11198 0
277.779 4.09313 0
279.016 1.9314 0
281.553 1.89343 0
281.617 6.17902 0
279.08 6.217 0
280.284 1.91244 0
281.585 4.03624 0
280.348 6.19803 0
279.048 4.07422 0
280.316 4.05526 0
281.553 1.89343 0
284.089 1.85525 0
284.154 6.14083 0
281.617 6.17902 0
282.821 1.87436 0
284.122 3.99806 0
282.885 6.15995 0
281.585 4.03624 0
282.853 4.01718 0
284.089 1.85525 0
286.626 1.81686 0
286.691 6.10243 0
284.154 6.14083 0
285.358 1.83608 0
286.659 3.95967 0
285.423 6.12165 0
284.122 3.99806 0
285.39 3.97889 0
286.626 1.81686 0
289.163 1.77827 0
289.229 6.06383 0
286.691 6.10243 0
287.895 1.79759 0
289.196 3.92107 0
287.96 6.08316 0
286.659 3.95967 0
287.927 3.9404 0
289.163 1.77827 0
291.7 1.73948 0
291.766 6.02503 0
289.229 6.06383 0
290.432 1.7589 0
291.733 3.88228 0
290.497 6.04446 0
289.196 3.92107 0
290.465 3.9017 0
291.7 1.73948 0
294.237 1.70049 0
294.303 5.98604 0
291.766 6.02503 0
292.969 1.72001 0
294.27 3.84329 0
293.034 6.00556 0
291.733 3.88228 0
293.002 3.86281 0
294.237 1.70049 0
296.774 1.66131 0
296.84 5.94684 0
294.303 5.98604 0
295.506 1.68093 0
296.807 3.8041 0
295.572 5.96646 0
294.27 3.84329 0
295.539 3.82372 0
296.774 1.66131 0
299.311 1.62193 0
299.378 5.90745 0
296.84 5.94684 0
298.043 1.64164 0
299.344 3.76471 0
298.109 5.92717 0
296.807 3.8041 0
298.076 3.78443 0
299.311 1.62193 0
301.848 1.58236 0
301.915 5.86787 0
299.378 5.90745 0
300.58 1.60217 0
301.882 3.72514 0
300.646 5.88769 0
299.344 3.76471 0
300.613 3.74495 0
301.848 1.58236 0
304.385 1.5426 0
304.452 5.82811 0
301.915 5.86787 0
303.117 1.5625 0
304.419 3.68537 0
303.184 5.84801 0
301.882 3.72514 0
303.15 3.70528 0
304.385 1.5426 0
306.922 1.50265 0
306.99 5.78815 0
304.452 5.82811 0
305.654 1.52265 0
306.956 3.64542 0
305.721 5.80815 0
304.419 3.68537 0
305.687 3.66542 0
306.922 1.50265 0
309.459 1.46253 0
309.527 5.74801 0
306.99 5.78815 0
308.19 1.48261 0
309.493 3.60529 0
308.258 5.76811 0
306.956 3.64542 0
308.224 3.62538 0
309.459 1.46253 0
311.996 1.42221 0
312.064 5.70769 0
309.527 5.74801 0
310.727 1.44239 0
312.03 3.56497 0
310.795 5.72788 0
309.493 3.60529 0
310.761 3.58515 0
311.996 1.42221 0
314.533 1.38172 0
314.601 5.66719 0
312.064 5.70769 0
313.264 1.40199 0
314.567 3.52448 0
313.333 5.68747 0
312.03 3.56497 0
313.299 3.54475 0
314.533 1.38172 0
317.07 1.34106 0
317.139 5.62652 0
314.601 5.66719 0
315.801 1.36141 0
317.104 3.4838 0
315.87 5.64688 0
314.567 3.52448 0
315.836 3.50416 0
317.07 1.34106 0
319.607 1.30021 0
319.676 5.58567 0
317.139 5.62652 0
318.338 1.32066 0
319.642 3.44296 0
318.407 5.60611 0
317.104 3.4838 0
318.373 3.4634 0
319.607 1.30021 0
322.144 1.2592 0
322.213 5.54464 0
319.676 5.58567 0
320.876 1.27973 0
322.179 3.40194 0
320.945 5.56518 0
319.642 3.44296 0
320.91 3.42247 0
322.144 1.2592 0
324.681 1.21802 0
324.751 5.50345 0
322.213 5.54464 0
323.413 1.23863 0
324.716 3.36075 0
323.482 5.52407 0
322.179 3.40194 0
323.447 3.38137 0
324.681 1.21802 0
327.218 1.17666 0
327.288 5.46209 0
324.751 5.50345 0
325.95 1.19736 0
327.253 3.31939 0
326.019 5.48279 0
324.716 3.36075 0
325.984 3.34009 0
327.218 1.17666 0
329.755 1.13515 0
329.825 5.42057 0
327.288 5.46209 0
328.487 1.15593 0
329.79 3.27787 0
328.557 5.44135 0
327.253 3.31939 0
328.522 3.29866 0
329.755 1.13515 0
332.292 1.09347 0
332.363 5.37888 0
329.825 5.42057 0
331.024 1.11433 0
332.327 3.23619 0
331.094 5.39974 0
329.79 3.27787 0
331.059 3.25705 0
332.292 1.09347 0
334.829 1.05163 0
334.9 5.33703 0
332.363 5.37888 0
333.561 1.07257 0
334.865 3.19435 0
333.631 5.35798 0
332.327 3.23619 0
333.596 3.21529 0
334.829 1.05163 0
337.366 1.00964 0
337.437 5.29503 0
334.9 5.33703 0
336.098 1.03065 0
337.402 3.15235 0
336.169 5.31605 0
334.865 3.19435 0
336.133 3.17337 0
337.366 1.00964 0
339.903 0.967486 0
339.975 5.25287 0
337.437 5.29503 0
338.635 0.988581 0
339.939 3.11019 0
338.706 5.27397 0
337.402 3.15235 0
338.67 3.13129 0
339.903 0.967486 0
342.44 0.925183 0
342.512 5.21056 0
339.975 5.25287 0
341.172 0.946354 0
342.476 3.06789 0
341.243 5.23173 0
339.939 3.11019 0
341.208 3.08906 0
342.44 0.925183 0
344.978 0.882729 0
345.049 5.1681 0
342.512 5.21056 0
343.709 0.903975 0
345.013 3.02543 0
343.781 5.18935 0
342.476 3.06789 0
343.745 3.04668 0
344.978 0.882729 0
347.515 0.840128 0
347.587 5.12549 0
345.049 5.1681 0
346.246 0.861447 0
347.551 2.98282 0
346.318 5.14681 0
345.013 3.02543 0
346.282 3.00414 0
347.515 0.840128 0
350.052 0.797381 0
350.124 5.08273 0
347.587 5.12549 0
348.783 0.818773 0
350.088 2.94007 0
348.855 5.10413 0
347.551 2.98282 0
348.819 2.96147 0
350.052 0.797381 0
352.589 0.754491 0
352.661 5.03983 0
350.124 5.08273 0
351.32 0.775954 0
352.625 2.89718 0
351.393 5.0613 0
350.088 2.94007 0
351.356 2.91864 0
352.589 0.754491 0
355.126 0.711461 0
355.199 4.99679 0
352.661 5.03983 0
353.857 0.732994 0
355.162 2.85414 0
353.93 5.01833 0
352.625 2.89718 0
353.894 2.87568 0
355.126 0.711461 0
357.663 0.668292 0
357.736 4.95362 0
355.199 4.99679 0
356.395 0.689894 0
357.7 2.81097 0
356.467 4.97522 0
355.162 2.85414 0
356.431 2.83257 0
357.663 0.668292 0
360.2 0.624988 0
360.273 4.91031 0
357.736 4.95362 0
358.932 0.646657 0
360.237 2.76766 0
359.005 4.93198 0
357.7 2.81097 0
358.968 2.78933 0
360.2 0.624988 0
362.737 0.58155 0
362.811 4.86686 0
360.273 4.91031 0
361.469 0.603286 0
362.774 2.72422 0
361.542 4.8886 0
360.237 2.76766 0
361.505 2.74596 0
362.737 0.58155 0
365.275 0.537982 0
365.348 4.82328 0
362.811 4.86686 0
364.006 0.559782 0
365.311 2.68065 0
364.079 4.84509 0
362.774 2.72422 0
364.043 2.70245 0
365.275 0.537982 0
367.812 0.494285 0
367.885 4.77958 0
365.348 4.82328 0
366.543 0.516149 0
367.849 2.63695 0
366.617 4.80145 0
365.311 2.68065 0
366.58 2.65881 0
367.812 0.494285 0
370.349 0.450462 0
370.423 4.73575 0
367.885 4.77958 0
369.08 0.472389 0
370.386 2.59312 0
369.154 4.75768 0
367.849 2.63695 0
369.117 2.61505 0
370.349 0.450462 0
372.886 0.406515 0
372.96 4.69179 0
370.423 4.73575 0
371.617 0.428504 0
372.923 2.54917 0
371.692 4.71379 0
370.386 2.59312 0
371.654 2.57116 0
372.886 0.406515 0
375.423 0.362447 0
375.498 4.64772 0
372.96 4.69179 0
374.155 0.384496 0
375.46 2.5051 0
374.229 4.66977 0
372.923 2.54917 0
374.192 2.52715 0
375.423 0.362447 0
377.96 0.31826 0
378.035 4.60352 0
375.498 4.64772 0
376.692 0.340368 0
377.998 2.4609 0
376.766 4.62564 0
375.46 2.5051 0
376.729 2.48301 0
377.96 0.31826 0
380.498 0.273957 0
380.572 4.55921 0
378.035 4.60352 0
379.229 0.296123 0
380.535 2.4166 0
379.304 4.58138 0
377.998 2.4609 0
379.266 2.43877 0
380.498 0.273957 0
383.035 0.22954 0
383.11 4.51479 0
380.572 4.55921 0
381.766 0.251763 0
383.072 2.37218 0
381.841 4.53701 0
380.535 2.4166 0
381.804 2.3944 0
383.035 0.22954 0
385.572 0.185012 0
385.647 4.47025 0
383.11 4.51479 0
384.303 0.20729 0
385.61 2.32764 0
384.378 4.49253 0
383.072 2.37218 0
384.341 2.34992 0
385.572 0.185012 0
388.109 0.140374 0
388.185 4.42561 0
385.647 4.47025 0
386.841 0.162706 0
388.147 2.283 0
386.916 4.44794 0
385.61 2.32764 0
386.878 2.30534 0
388.109 0.140374 0
390.646 0.0956293 0
390.722 4.38086 0
388.185 4.42561 0
389.378 0.118015 0
390.684 2.23825 0
389.453 4.40324 0
388.147 2.283 0
389.416 2.26064 0
390.646 0.0956293 0
393.184 0.0507806 0
393.259 4.336 0
390.722 4.38086 0
391.915 0.0732178 0
393.222 2.1934 0
391.991 4.35844 0
390.684 2.23825 0
391.953 2.21584 0
393.184 0.0507806 0
395.721 0.00583002 0
395.797 4.29104 0
393.259 4.336 0
394.452 0.0283179 0
395.759 2.14845 0
394.528 4.31353 0
393.222 2.1934 0
394.49 2.17094 0
395.721 0.00583002 0
398.258 -0.03922 0
398.334 4.24599 0
395.797 4.29104 0
396.99 -0.0166827 0
398.296 2.10339 0
397.066 4.26853 0
395.759 2.14845 0
397.028 2.12593 0
398.258 -0.03922 0
400.795 -0.084367 0
400.872 4.20083 0
398.334 4.24599 0
399.527 -0.0617815 0
400.834 2.05824 0
399.603 4.22342 0
398.296 2.10339 0
399.565 2.08083 0
400.795 -0.084367 0
403.333 -0.129609 0
403.409 4.15558 0
400.872 4.20083 0
402.064 -0.106976 0
403.371 2.013 0
402.14 4.17822 0
400.834 2.05824 0
402.102 2.03563 0
403.333 -0.129609 0
405.87 -0.174942 0
405.947 4.11024 0
403.409 4.15558 0
404.601 -0.152264 0
405.908 1.96766 0
404.678 4.13292 0
403.371 2.013 0
404.64 1.99034 0
405.87 -0.174942 0
408.407 -0.220366 0
408.484 4.06481 0
405.947 4.11024 0
407.139 -0.197643 0
408.446 1.92223 0
407.215 4.08754 0
405.908 1.96766 0
407.177 1.94496 0
408.407 -0.220366 0
410.945 -0.265877 0
411.021 4.01929 0
408.484 4.06481 0
409.676 -0.243111 0
410.983 1.87672 0
409.753 4.04206 0
408.446 1.92223 0
409.714 1.89949 0
410.945 -0.265877 0
413.482 -0.311473 0
413.559 3.97369 0
411.021 4.01929 0
412.213 -0.288664 0
413.52 1.83112 0
412.29 3.9965 0
410.983 1.87672 0
412.252 1.85393 0
413.482 -0.311473 0
416.019 -0.357151 0
416.096 3.92801 0
413.559 3.97369 0
414.751 -0.334302 0
416.058 1.78544 0
414.828 3.95086 0
413.52 1.83112 0
414.789 1.80829 0
416.019 -0.357151 0
418.557 -0.40291 0
418.634 3.88224 0
416.096 3.92801 0
417.288 -0.38002 0
418.595 1.73967 0
417.365 3.90513 0
416.058 1.78544 0
417.326 1.76256 0
418.557 -0.40291 0
421.094 -0.448746 0
421.171 3.8364 0
418.634 3.88224 0
419.825 -0.425818 0
421.133 1.69383 0
419.903 3.85933 0
418.595 1.73967 0
419.864 1.71676 0
421.094 -0.448746 0
423.631 -0.494657 0
423.709 3.79048 0
421.171 3.8364 0
422.363 -0.471692 0
423.67 1.64792 0
422.44 3.81345 0
421.133 1.69383 0
422.401 1.67089 0
423.631 -0.494657 0
426.169 -0.540641 0
426.246 3.74449 0
423.709 3.79048 0
424.9 -0.51764 0
426.207 1.60193 0
424.977 3.76749 0
423.67 1.64792 0
424.939 1.62493 0
426.169 -0.540641 0
428.706 -0.586696 0
428.784 3.69843 0
426.246 3.74449 0
427.437 -0.56366 0
428.745 1.55587 0
427.515 3.72147 0
426.207 1.60193 0
427.476 1.57891 0
428.706 -0.586696 0
431.243 -0.632818 0
431.321 3.6523 0
428.784 3.69843 0
429.975 -0.609748 0
431.282 1.50975 0
430.052 3.67537 0
428.745 1.55587 0
430.014 1.53282 0
431.243 -0.632818 0
433.781 -0.679006 0
433.859 3.60611 0
431.321 3.6523 0
432.512 -0.655904 0
433.82 1.46356 0
432.59 3.62921 0
431.282 1.50975 0
432.551 1.48666 0
433.781 -0.679006 0
436.318 -0.725257 0
436.396 3.55985 0
433.859 3.60611 0
435.049 -0.702124 0
436.357 1.4173 0
435.127 3.58299 0
433.82 1.46356 0
435.088 1.44044 0
436.318 -0.725257 0
438.856 -0.771569 0
438.934 3.51353 0
436.396 3.55985 0
437.587 -0.748406 0
438.895 1.37099 0
437.665 3.5367 0
436.357 1.4173 0
437.626 1.39415 0
438.856 -0.771569 0
441.393 -0.817939 0
441.471 3.46716 0
438.934 3.51353 0
440.124 -0.794747 0
441.432 1.32461 0
440.202 3.49035 0
438.895 1.37099 0
440.163 1.34781 0
441.393 -0.817939 0
443.93 -0.864365 0
444.009 3.42072 0
441.471 3.46716 0
442.662 -0.841145 0
443.97 1.27818 0
442.74 3.44395 0
441.432 1.32461 0
442.701 1.30141 0
443.93 -0.864365 0
446.468 -0.910845 0
446.546 3.37424 0
444.009 3.42072 0
445.199 -0.887599 0
446.507 1.2317 0
445.277 3.39749 0
443.97 1.27818 0
445.238 1.25495 0
446.468 -0.910845 0
449.005 -0.957375 0
449.084 3.3277 0
446.546 3.37424 0
447.736 -0.934104 0
449.044 1.18517 0
447.815 3.35098 0
446.507 1.2317 0
447.776 1.20844 0
449.005 -0.957375 0
451.543 -1.00395 0
451.621 3.28112 0
449.084 3.3277 0
450.274 -0.980659 0
451.582 1.13859 0
450.352 3.30442 0
449.044 1.18517 0
450.313 1.16188 0
451.543 -1.00395 0
454.08 -1.05058 0
454.159 3.23449 0
451.621 3.28112 0
452.811 -1.02726 0
454.119 1.09196 0
452.89 3.25781 0
451.582 1.13859 0
452.851 1.11528 0
454.08 -1.05058 0
456.618 -1.09725 0
456.696 3.18781 0
454.159 3.23449 0
455.349 -1.07391 0
456.657 1.04529 0
455.428 3.21116 0
454.119 1.09196 0
455.388 1.06863 0
456.618 -1.09725 0
459.155 -1.14396 0
459.234 3.1411 0
456.696 3.18781 0
457.886 -1.1206 0
459.194 0.998573 0
457.965 3.16446 0
456.657 1.04529 0
457.926 1.02193 0
459.155 -1.14396 0
461.693 -1.19071 0
461.771 3.09434 0
459.234 3.1411 0
460.424 -1.16733 0
461.732 0.95182 0
460.503 3.11772 0
459.194 0.998573 0
460.463 0.975201 0
461.693 -1.19071 0
464.23 -1.23749 0
464.309 3.04755 0
461.771 3.09434 0
462.961 -1.2141 0
464.269 0.905032 0
463.04 3.07095 0
461.732 0.95182 0
463.001 0.928431 0
464.23 -1.23749 0
466.768 -1.28431 0
466.846 3.00073 0
464.309 3.04755 0
465.499 -1.2609 0
466.807 0.858209 0
465.578 3.02414 0
464.269 0.905032 0
465.538 0.881624 0
466.768 -1.28431 0
469.305 -1.33117 0
469.384 2.95387 0
466.846 3.00073 0
468.036 -1.30774 0
469.345 0.811355 0
468.115 2.9773 0
466.807 0.858209 0
468.076 0.834786 0
469.305 -1.33117 0
471.843 -1.37805 0
471.922 2.90698 0
469.384 2.95387 0
470.574 -1.3546 0
471.882 0.764471 0
470.653 2.93043 0
469.345 0.811355 0
470.613 0.787916 0
471.843 -1.37805 0
474.38 -1.42495 0
474.459 2.86007 0
471.922 2.90698 0
473.111 -1.4015 0
474.42 0.717561 0
473.19 2.88353 0
471.882 0.764471 0
473.151 0.741019 0
474.38 -1.42495 0
476.918 -1.47189 0
476.997 2.81313 0
474.459 2.86007 0
475.649 -1.44842 0
476.957 0.670626 0
475.728 2.8366 0
474.42 0.717561 0
475.688 0.694096 0
476.918 -1.47189 0
479.455 -1.51884 0
479.534 2.76617 0
476.997 2.81313 0
478.186 -1.49536 0
479.495 0.623669 0
478.266 2.78966 0
476.957 0.670626 0
478.226 0.64715 0
479.455 -1.51884 0
481.993 -1.56581 0
482.072 2.7192 0
479.534 2.76617 0
480.724 -1.54232 0
482.032 0.576693 0
480.803 2.74269 0
479.495 0.623669 0
480.764 0.600184 0
481.993 -1.56581 0
484.53 -1.6128 0
484.61 2.6722 0
482.072 2.7192 0
483.262 -1.58931 0
484.57 0.5297 0
483.341 2.6957 0
482.032 0.576693 0
483.301 0.553199 0
484.53 -1.6128 0
487.068 -1.65981 0
487.147 2.62519 0
484.61 2.6722 0
485.799 -1.6363 0
487.108 0.482692 0
485.878 2.6487 0
484.57 0.5297 0
485.839 0.506198 0
487.068 -1.65981 0
489.605 -1.70683 0
489.685 2.57816 0
487.147 2.62519 0
488.337 -1.68332 0
489.645 0.43567 0
488.416 2.60168 0
487.108 0.482692 0
488.376 0.459182 0
489.605 -1.70683 0
492.143 -1.75386 0
492.222 2.53113 0
489.685 2.57816 0
490.874 -1.73034 0
492.183 0.388634 0
490.954 2.55465 0
489.645 0.43567 0
490.914 0.412154 0
492.143 -1.75386 0
494.681 -1.80091 0
494.76 2.48408 0
492.222 2.53113 0
493.412 -1.77738 0
494.72 0.341585 0
493.491 2.50761 0
492.183 0.388634 0
493.452 0.365112 0
494.681 -1.80091 0
497.218 -1.84799 0
497.298 2.43704 0
494.76 2.48408 0
495.949 -1.82445 0
497.258 0.294524 0
496.029 2.46056 0
494.72 0.341585 0
495.989 0.318055 0
497.218 -1.84799 0
499.756 -1.89509 0
499.835 2.39002 0
497.298 2.43704 0
498.487 -1.87154 0
499.796 0.247475 0
498.566 2.41352 0
497.258 0.294524 0
498.527 0.270994 0
0 8.57143 0
2.537 8.57132 0
2.53772 12.8572 0
0 12.8571 0
1.26852 8.57146 0
2.53736 10.7143 0
1.26886 12.8573 0
0 10.7143 0
1.26869 10.7144 0
2.537 8.57132 0
5.07393 8.5706 0
5.07541 12.8566 0
2.53772 12.8572 0
3.80547 8.57103 0
5.07467 10.7136 0
3.80657 12.857 0
2.53736 10.7143 0
3.80602 10.714 0
5.07393 8.5706 0
7.6108 8.56936 0
7.61309 12.8554 0
5.07541 12.8566 0
6.34237 8.57004 0
7.61195 10.7124 0
6.34425 12.8561 0
5.07467 10.7136 0
6.34332 10.7131 0
7.6108 8.56936 0
10.1477 8.56764 0
10.1508 12.8537 0
7.61309 12.8554 0
8.87923 8.56856 0
10.1492 10.7107 0
8.88192 12.8547 0
7.61195 10.7124 0
8.88059 10.7117 0
10.1477 8.56764 0
12.6845 8.56545 0
12.6884 12.8516 0
10.1508 12.8537 0
11.4161 8.5666 0
12.6865 10.7086 0
11.4196 12.8527 0
10.1492 10.7107 0
11.4179 10.7097 0
12.6845 8.56545 0
15.2214 8.5628 0
15.2261 12.8489 0
12.6884 12.8516 0
13.953 8.56418 0
15.2238 10.7059 0
13.9573 12.8503 0
12.6865 10.7086 0
13.9551 10.7073 0
15.2214 8.5628 0
17.7583 8.55969 0
17.7638 12.8458 0
15.2261 12.8489 0
16.4899 8.56131 0
17.761 10.7028 0
16.4949 12.8474 0
15.2238 10.7059 0
16.4924 10.7044 0
17.7583 8.55969 0
20.2952 8.55613 0
20.3014 12.8422 0
17.7638 12.8458 0
19.0268 8.55797 0
20.2983 10.6992 0
19.0326 12.8441 0
17.761 10.7028 0
19.0297 10.7011 0
20.2952 8.55613 0
22.8321 8.55211 0
22.8391 12.8382 0
20.3014 12.8422 0
21.5637 8.55417 0
22.8356 10.6952 0
21.5703 12.8403 0
20.2983 10.6992 0
21.567 10.6973 0
22.8321 8.55211 0
25.369 8.54763 0
25.3768 12.8337 0
22.8391 12.8382 0
24.1006 8.54992 0
25.3729 10.6907 0
24.108 12.836 0
22.8356 10.6952 0
24.1043 10.693 0
25.369 8.54763 0
27.9059 8.5427 0
27.9145 12.8288 0
25.3768 12.8337 0
26.6375 8.54522 0
27.9102 10.6858 0
26.6456 12.8313 0
25.3729 10.6907 0
26.6416 10.6883 0
27.9059 8.5427 0
30.4429 8.53732 0
30.4522 12.8234 0
27.9145 12.8288 0
29.1744 8.54006 0
30.4475 10.6804 0
29.1833 12.8262 0
27.9102 10.6858 0
29.1789 10.6832 0
30.4429 8.53732 0
32.9798 8.53149 0
32.9899 12.8176 0
30.4522 12.8234 0
31.7113 8.53446 0
32.9848 10.6746 0
31.721 12.8205 0
30.4475 10.6804 0
31.7162 10.6775 0
32.9798 8.53149 0
35.5167 8.52522 0
35.5275 12.8113 0
32.9899 12.8176 0
34.2483 8.52841 0
35.5221 10.6683 0
34.2587 12.8145 0
32.9848 10.6746 0
34.2535 10.6715 0
35.5167 8.52522 0
38.0537 8.5185 0
38.0652 12.8046 0
35.5275 12.8113 0
36.7852 8.52191 0
38.0595 10.6616 0
36.7964 12.808 0
35.5221 10.6683 0
36.7908 10.665 0
38.0537 8.5185 0
40.5906 8.51134 0
40.6029 12.7974 0
38.0652 12.8046 0
39.3222 8.51498 0
40.5968 10.6544 0
39.3341 12.801 0
38.0595 10.6616 0
39.3281 10.6581 0
40.5906 8.51134 0
43.1276 8.50375 0
43.1406 12.7898 0
40.6029 12.7974 0
41.8591 8.5076 0
43.1341 10.6468 0
41.8718 12.7937 0
40.5968 10.6544 0
41.8654 10.6507 0
43.1276 8.50375 0
45.6645 8.49572 0
45.6783 12.7818 0
43.1406 12.7898 0
44.3961 8.49979 0
45.6714 10.6388 0
44.4095 12.7859 0
43.1341 10.6468 0
44.4028 10.6429 0
45.6645 8.49572 0
48.2015 8.48725 0
48.216 12.7733 0
45.6783 12.7818 0
46.933 8.49154 0
48.2087 10.6303 0
46.9471 12.7776 0
45.6714 10.6388 0
46.9401 10.6346 0
48.2015 8.48725 0
50.7385 8.47836 0
50.7537 12.7644 0
48.216 12.7733 0
49.47 8.48286 0
50.7461 10.6214 0
49.4848 12.7689 0
48.2087 10.6303 0
49.4774 10.6259 0
50.7385 8.47836 0
53.2754 8.46903 0
53.2914 12.7551 0
50.7537 12.7644 0
52.0069 8.47375 0
53.2834 10.6121 0
52.0225 12.7598 0
50.7461 10.6214 0
52.0147 10.6168 0
53.2754 8.46903 0
55.8124 8.45928 0
55.8291 12.7453 0
53.2914 12.7551 0
54.5439 8.46421 0
55.8207 10.6024 0
54.5602 12.7503 0
53.2834 10.6121 0
54.5521 10.6073 0
55.8124 8.45928 0
58.3494 8.44911 0
58.3668 12.7351 0
55.8291 12.7453 0
57.0809 8.45425 0
58.3581 10.5922 0
57.0979 12.7403 0
55.8207 10.6024 0
57.0894 10.5973 0
58.3494 8.44911 0
60.8864 8.43852 0
60.9045 12.7245 0
58.3668 12.7351 0
59.6179 8.44387 0
60.8954 10.5816 0
59.6356 12.7299 0
58.3581 10.5922 0
59.6267 10.5869 0
60.8864 8.43852 0
63.4234 8.4275 0
63.4422 12.7135 0
60.9045 12.7245 0
62.1549 8.43306 0
63.4328 10.5706 0
62.1733 12.7191 0
60.8954 10.5816 0
62.1641 10.5761 0
63.4234 8.4275 0
65.9604 8.41607 0
65.9798 12.7021 0
63.4422 12.7135 0
64.6919 8.42184 0
65.9701 10.5591 0
64.711 12.7079 0
63.4328 10.5706 0
64.7014 10.5649 0
65.9604 8.41607 0
68.4973 8.40423 0
68.5175 12.6902 0
65.9798 12.7021 0
67.2288 8.4102 0
68.5074 10.5473 0
67.2487 12.6962 0
65.9701 10.5591 0
67.2388 10.5533 0
68.4973 8.40423 0
71.0343 8.39197 0
71.0552 12.678 0
68.5175 12.6902 0
69.7658 8.39815 0
71.0448 10.535 0
69.7864 12.6842 0
68.5074 10.5473 0
69.7761 10.5412 0
71.0343 8.39197 0
73.5714 8.37931 0
73.5929 12.6653 0
71.0552 12.678 0
72.3029 8.38569 0
73.5821 10.5224 0
72.3241 12.6717 0
71.0448 10.535 0
72.3135 10.5287 0
73.5714 8.37931 0
76.1084 8.36624 0
76.1306 12.6522 0
73.5929 12.6653 0
74.8399 8.37282 0
76.1195 10.5093 0
74.8618 12.6588 0
73.5821 10.5224 0
74.8508 10.5159 0
76.1084 8.36624 0
78.6454 8.35276 0
78.6683 12.6388 0
76.1306 12.6522 0
77.3769 8.35955 0
78.6568 10.4958 0
77.3995 12.6455 0
76.1195 10.5093 0
77.3882 10.5026 0
78.6454 8.35276 0
81.1824 8.33888 0
81.206 12.6249 0
78.6683 12.6388 0
79.9139 8.34587 0
81.1942 10.4819 0
79.9372 12.6319 0
78.6568 10.4958 0
79.9255 10.4889 0
81.1824 8.33888 0
83.7194 8.32461 0
83.7437 12.6106 0
81.206 12.6249 0
82.4509 8.33179 0
83.7316 10.4676 0
82.4749 12.6178 0
81.1942 10.4819 0
82.4629 10.4748 0
83.7194 8.32461 0
86.2564 8.30993 0
86.2814 12.5959 0
83.7437 12.6106 0
84.9879 8.31732 0
86.2689 10.453 0
85.0125 12.6033 0
83.7316 10.4676 0
85.0002 10.4604 0
86.2564 8.30993 0
88.7935 8.29486 0
88.8191 12.5808 0
86.2814 12.5959 0
87.525 8.30245 0
88.8063 10.4379 0
87.5502 12.5884 0
86.2689 10.453 0
87.5376 10.4455 0
88.7935 8.29486 0
91.3305 8.2794 0
91.3568 12.5654 0
88.8191 12.5808 0
90.062 8.28718 0
91.3436 10.4224 0
90.0879 12.5732 0
88.8063 10.4379 0
90.075 10.4302 0
91.3305 8.2794 0
93.8675 8.26355 0
93.8945 12.5495 0
91.3568 12.5654 0
92.599 8.27152 0
93.881 10.4066 0
92.6256 12.5575 0
91.3436 10.4224 0
92.6123 10.4145 0
93.8675 8.26355 0
96.4046 8.24731 0
96.4322 12.5333 0
93.8945 12.5495 0
95.1361 8.25548 0
96.4184 10.3903 0
95.1633 12.5414 0
93.881 10.4066 0
95.1497 10.3985 0
96.4046 8.24731 0
98.9416 8.23069 0
98.9699 12.5166 0
96.4322 12.5333 0
97.6731 8.23905 0
98.9557 10.3737 0
97.701 12.525 0
96.4184 10.3903 0
97.6871 10.3821 0
98.9416 8.23069 0
101.479 8.21368 0
101.508 12.4996 0
98.9699 12.5166 0
100.21 8.22223 0
101.493 10.3567 0
100.239 12.5082 0
98.9557 10.3737 0
100.224 10.3652 0
101.479 8.21368 0
104.016 8.1963 0
104.045 12.4822 0
101.508 12.4996 0
102.747 8.20504 0
104.03 10.3393 0
102.776 12.491 0
101.493 10.3567 0
102.762 10.348 0
104.016 8.1963 0
106.553 8.17853 0
106.583 12.4645 0
104.045 12.4822 0
105.284 8.18746 0
106.568 10.3215 0
105.314 12.4734 0
104.03 10.3393 0
105.299 10.3305 0
106.553 8.17853 0
109.09 8.1604 0
109.121 12.4463 0
106.583 12.4645 0
107.821 8.16951 0
109.105 10.3034 0
107.852 12.4554 0
106.568 10.3215 0
107.837 10.3125 0
109.09 8.1604 0
111.627 8.14188 0
111.658 12.4278 0
109.121 12.4463 0
110.358 8.15119 0
111.643 10.2849 0
110.389 12.4371 0
109.105 10.3034 0
110.374 10.2942 0
111.627 8.14188 0
114.164 8.123 0
114.196 12.4089 0
111.658 12.4278 0
112.895 8.13249 0
114.18 10.266 0
112.927 12.4184 0
111.643 10.2849 0
112.911 10.2755 0
114.164 8.123 0
116.701 8.10375 0
116.734 12.3897 0
114.196 12.4089 0
115.432 8.11342 0
116.717 10.2467 0
115.465 12.3993 0
114.18 10.266 0
115.449 10.2564 0
116.701 8.10375 0
119.238 8.08414 0
119.271 12.37 0
116.734 12.3897 0
117.97 8.09399 0
119.255 10.2271 0
118.003 12.3799 0
116.717 10.2467 0
117.986 10.237 0
119.238 8.08414 0
121.775 8.06416 0
121.809 12.35 0
119.271 12.37 0
120.507 8.07419 0
121.792 10.2071 0
120.54 12.3601 0
119.255 10.2271 0
120.523 10.2172 0
121.775 8.06416 0
124.312 8.04382 0
124.347 12.3297 0
121.809 12.35 0
123.044 8.05403 0
124.33 10.1868 0
123.078 12.3399 0
121.792 10.2071 0
123.061 10.197 0
124.312 8.04382 0
126.849 8.02312 0
126.884 12.309 0
124.347 12.3297 0
125.581 8.03351 0
126.867 10.1661 0
125.616 12.3194 0
124.33 10.1868 0
125.598 10.1765 0
126.849 8.02312 0
129.386 8.00207 0
129.422 12.2879 0
126.884 12.309 0
128.118 8.01264 0
129.404 10.145 0
128.153 12.2985 0
126.867 10.1661 0
128.136 10.1556 0
129.386 8.00207 0
131.924 7.98066 0
131.96 12.2665 0
129.422 12.2879 0
130.655 7.99141 0
131.942 10.1236 0
130.691 12.2773 0
129.404 10.145 0
130.673 10.1344 0
131.924 7.98066 0
134.461 7.9589 0
134.497 12.2448 0
131.96 12.2665 0
133.192 7.96982 0
134.479 10.1019 0
133.229 12.2557 0
131.942 10.1236 0
133.21 10.1128 0
134.461 7.9589 0
136.998 7.93679 0
137.035 12.2226 0
134.497 12.2448 0
135.729 7.94789 0
137.016 10.0798 0
135.766 12.2337 0
134.479 10.1019 0
135.748 10.0909 0
136.998 7.93679 0
139.535 7.91434 0
139.573 12.2002 0
137.035 12.2226 0
138.266 7.92561 0
139.554 10.0573 0
138.304 12.2115 0
137.016 10.0798 0
138.285 10.0686 0
139.535 7.91434 0
142.072 7.89154 0
142.111 12.1774 0
139.573 12.2002 0
140.803 7.90298 0
142.091 10.0345 0
140.842 12.1888 0
139.554 10.0573 0
140.823 10.0459 0
142.072 7.89154 0
144.609 7.8684 0
144.648 12.1542 0
142.111 12.1774 0
143.34 7.88001 0
144.629 10.0114 0
143.379 12.1658 0
142.091 10.0345 0
143.36 10.023 0
144.609 7.8684 0
147.146 7.84493 0
147.186 12.1307 0
144.648 12.1542 0
145.878 7.85671 0
147.166 9.98787 0
145.917 12.1425 0
144.629 10.0114 0
145.897 9.99965 0
147.146 7.84493 0
149.683 7.82111 0
149.724 12.1069 0
147.186 12.1307 0
148.415 7.83306 0
149.703 9.96405 0
148.455 12.1189 0
147.166 9.98787 0
148.435 9.976 0
149.683 7.82111 0
152.22 7.79696 0
152.261 12.0828 0
149.724 12.1069 0
150.952 7.80908 0
152.241 9.9399 0
150.992 12.0949 0
149.703 9.96405 0
150.972 9.95202 0
152.22 7.79696 0
154.757 7.77248 0
154.799 12.0583 0
152.261 12.0828 0
153.489 7.78476 0
154.778 9.91542 0
153.53 12.0706 0
152.241 9.9399 0
153.509 9.9277 0
154.757 7.77248 0
157.295 7.74767 0
157.337 12.0335 0
154.799 12.0583 0
156.026 7.76012 0
157.316 9.8906 0
156.068 12.0459 0
154.778 9.91542 0
156.047 9.90305 0
157.295 7.74767 0
159.832 7.72254 0
159.874 12.0083 0
157.337 12.0335 0
158.563 7.73515 0
159.853 9.86546 0
158.605 12.0209 0
157.316 9.8906 0
158.584 9.87807 0
159.832 7.72254 0
162.369 7.69708 0
162.412 11.9828 0
159.874 12.0083 0
161.1 7.70985 0
162.39 9.84 0
161.143 11.9956 0
159.853 9.86546 0
161.122 9.85277 0
162.369 7.69708 0
164.906 7.67129 0
164.95 11.9571 0
162.412 11.9828 0
163.637 7.68423 0
164.928 9.81421 0
163.681 11.97 0
162.39 9.84 0
163.659 9.82714 0
164.906 7.67129 0
167.443 7.64519 0
167.487 11.9309 0
164.95 11.9571 0
166.174 7.65828 0
167.465 9.7881 0
166.218 11.944 0
164.928 9.81421 0
166.196 9.8012 0
167.443 7.64519 0
169.98 7.61877 0
170.025 11.9045 0
167.487 11.9309 0
168.712 7.63202 0
170.003 9.76168 0
168.756 11.9178 0
167.465 9.7881 0
168.734 9.77493 0
169.98 7.61877 0
172.517 7.59204 0
172.563 11.8778 0
170.025 11.9045 0
171.249 7.60544 0
172.54 9.73494 0
171.294 11.8912 0
170.003 9.76168 0
171.271 9.74835 0
172.517 7.59204 0
175.054 7.56499 0
175.1 11.8507 0
172.563 11.8778 0
173.786 7.57855 0
175.077 9.70789 0
173.831 11.8643 0
172.54 9.73494 0
173.809 9.72146 0
175.054 7.56499 0
177.592 7.53763 0
177.638 11.8234 0
175.1 11.8507 0
176.323 7.55135 0
177.615 9.68053 0
176.369 11.8371 0
175.077 9.70789 0
176.346 9.69425 0
177.592 7.53763 0
180.129 7.50997 0
180.176 11.7957 0
177.638 11.8234 0
178.86 7.52384 0
180.152 9.65286 0
178.907 11.8096 0
177.615 9.68053 0
178.883 9.66673 0
180.129 7.50997 0
182.666 7.482 0
182.713 11.7677 0
180.176 11.7957 0
181.397 7.49602 0
182.69 9.62489 0
181.444 11.7817 0
180.152 9.65286 0
181.421 9.63891 0
182.666 7.482 0
185.203 7.45373 0
185.251 11.7394 0
182.713 11.7677 0
183.934 7.4679 0
185.227 9.59661 0
183.982 11.7536 0
182.69 9.62489 0
183.958 9.61079 0
185.203 7.45373 0
187.74 7.42516 0
187.789 11.7109 0
185.251 11.7394 0
186.472 7.43948 0
187.764 9.56804 0
186.52 11.7252 0
185.227 9.59661 0
186.496 9.58236 0
187.74 7.42516 0
190.277 7.39629 0
190.326 11.682 0
187.789 11.7109 0
189.009 7.41076 0
190.302 9.53916 0
189.057 11.6964 0
187.764 9.56804 0
189.033 9.55364 0
190.277 7.39629 0
192.815 7.36712 0
192.864 11.6528 0
190.326 11.682 0
191.546 7.38174 0
192.839 9.50999 0
191.595 11.6674 0
190.302 9.53916 0
191.57 9.52461 0
192.815 7.36712 0
195.352 7.33766 0
195.402 11.6233 0
192.864 11.6528 0
194.083 7.35243 0
195.377 9.48053 0
194.133 11.6381 0
192.839 9.50999 0
194.108 9.4953 0
195.352 7.33766 0
197.889 7.30791 0
197.939 11.5936 0
195.402 11.6233 0
196.62 7.32282 0
197.914 9.45078 0
196.67 11.6085 0
195.377 9.48053 0
196.645 9.46569 0
197.889 7.30791 0
200.426 7.27788 0
200.477 11.5635 0
197.939 11.5936 0
199.157 7.29293 0
200.451 9.42073 0
199.208 11.5786 0
197.914 9.45078 0
199.183 9.43579 0
200.426 7.27788 0
202.963 7.24755 0
203.014 11.5332 0
200.477 11.5635 0
201.695 7.26275 0
202.989 9.39041 0
201.746 11.5484 0
200.451 9.42073 0
201.72 9.40561 0
202.963 7.24755 0
205.5 7.21695 0
205.552 11.5026 0
203.014 11.5332 0
204.232 7.23228 0
205.526 9.3598 0
204.283 11.5179 0
202.989 9.39041 0
204.258 9.37514 0
205.5 7.21695 0
208.038 7.18606 0
208.09 11.4717 0
205.552 11.5026 0
206.769 7.20154 0
208.064 9.32891 0
206.821 11.4872 0
205.526 9.3598 0
206.795 9.34439 0
208.038 7.18606 0
210.575 7.15489 0
210.627 11.4405 0
208.09 11.4717 0
209.306 7.17051 0
210.601 9.29774 0
209.359 11.4561 0
208.064 9.32891 0
209.332 9.31336 0
210.575 7.15489 0
213.112 7.12345 0
213.165 11.4091 0
210.627 11.4405 0
211.843 7.13921 0
213.138 9.26629 0
211.896 11.4248 0
210.601 9.29774 0
211.87 9.28205 0
213.112 7.12345 0
215.649 7.09174 0
215.703 11.3773 0
213.165 11.4091 0
214.38 7.10763 0
215.676 9.23457 0
214.434 11.3932 0
213.138 9.26629 0
214.407 9.25046 0
215.649 7.09174 0
218.186 7.05975 0
218.24 11.3454 0
215.703 11.3773 0
216.918 7.07578 0
218.213 9.20258 0
216.972 11.3614 0
215.676 9.23457 0
216.945 9.21861 0
218.186 7.05975 0
220.723 7.02749 0
220.778 11.3131 0
218.24 11.3454 0
219.455 7.04366 0
220.751 9.17032 0
219.509 11.3293 0
218.213 9.20258 0
219.482 9.18648 0
220.723 7.02749 0
223.261 6.99497 0
223.316 11.2806 0
220.778 11.3131 0
221.992 7.01127 0
223.288 9.13779 0
222.047 11.2969 0
220.751 9.17032 0
222.019 9.15409 0
223.261 6.99497 0
225.798 6.96219 0
225.853 11.2478 0
223.316 11.2806 0
224.529 6.97861 0
225.826 9.105 0
224.584 11.2642 0
223.288 9.13779 0
224.557 9.12143 0
225.798 6.96219 0
228.335 6.92914 0
228.391 11.2147 0
225.853 11.2478 0
227.066 6.9457 0
228.363 9.07195 0
227.122 11.2313 0
225.826 9.105 0
227.094 9.08851 0
228.335 6.92914 0
230.872 6.89583 0
230.929 11.1814 0
228.391 11.2147 0
229.604 6.91252 0
230.9 9.03864 0
229.66 11.1981 0
228.363 9.07195 0
229.632 9.05533 0
230.872 6.89583 0
233.409 6.86227 0
233.466 11.1478 0
230.929 11.1814 0
232.141 6.87908 0
233.438 9.00507 0
232.197 11.1646 0
230.9 9.03864 0
232.169 9.02189 0
233.409 6.86227 0
235.947 6.82845 0
236.004 11.114 0
233.466 11.1478 0
234.678 6.84539 0
235.975 8.97125 0
234.735 11.1309 0
233.438 9.00507 0
234.706 8.9882 0
235.947 6.82845 0
238.484 6.79438 0
238.541 11.0799 0
236.004 11.114 0
237.215 6.81145 0
238.513 8.93718 0
237.273 11.097 0
235.975 8.97125 0
237.244 8.95425 0
238.484 6.79438 0
241.021 6.76006 0
241.079 11.0456 0
238.541 11.0799 0
239.752 6.77725 0
241.05 8.90286 0
239.81 11.0628 0
238.513 8.93718 0
239.781 8.92005 0
241.021 6.76006 0
243.558 6.7255 0
243.617 11.011 0
241.079 11.0456 0
242.29 6.74281 0
243.587 8.86829 0
242.348 11.0283 0
241.05 8.90286 0
242.319 8.8856 0
243.558 6.7255 0
246.095 6.69069 0
246.154 10.9762 0
243.617 11.011 0
244.827 6.70812 0
246.125 8.83347 0
244.885 10.9936 0
243.587 8.86829 0
244.856 8.85091 0
246.095 6.69069 0
248.633 6.65564 0
248.692 10.9411 0
246.154 10.9762 0
247.364 6.67319 0
248.662 8.79842 0
247.423 10.9587 0
246.125 8.83347 0
247.394 8.81597 0
248.633 6.65564 0
251.17 6.62034 0
251.23 10.9058 0
248.692 10.9411 0
249.901 6.63802 0
251.2 8.76312 0
249.961 10.9235 0
248.662 8.79842 0
249.931 8.7808 0
251.17 6.62034 0
253.707 6.58481 0
253.767 10.8703 0
251.23 10.9058 0
252.439 6.60261 0
253.737 8.72759 0
252.498 10.8881 0
251.2 8.76312 0
252.468 8.74538 0
253.707 6.58481 0
256.244 6.54905 0
256.305 10.8345 0
253.767 10.8703 0
254.976 6.56696 0
256.275 8.69182 0
255.036 10.8525 0
253.737 8.72759 0
255.006 8.70973 0
256.244 6.54905 0
258.782 6.51305 0
258.842 10.7985 0
256.305 10.8345 0
257.513 6.53108 0
258.812 8.65582 0
257.574 10.8166 0
256.275 8.69182 0
257.543 8.67385 0
258.782 6.51305 0
261.319 6.47682 0
261.38 10.7623 0
258.842 10.7985 0
260.05 6.49497 0
261.349 8.61958 0
260.111 10.7804 0
258.812 8.65582 0
260.081 8.63773 0
261.319 6.47682 0
263.856 6.44037 0
263.918 10.7258 0
261.38 10.7623 0
262.587 6.45863 0
263.887 8.58313 0
262.649 10.7441 0
261.349 8.61958 0
262.618 8.60138 0
263.856 6.44037 0
266.393 6.40369 0
266.455 10.6891 0
263.918 10.7258 0
265.125 6.42206 0
266.424 8.54644 0
265.186 10.7075 0
263.887 8.58313 0
265.156 8.56481 0
266.393 6.40369 0
268.931 6.36679 0
268.993 10.6522 0
266.455 10.6891 0
267.662 6.38527 0
268.962 8.50953 0
267.724 10.6707 0
266.424 8.54644 0
267.693 8.52802 0
268.931 6.36679 0
271.468 6.32966 0
271.53 10.6151 0
268.993 10.6522 0
270.199 6.34825 0
271.499 8.47241 0
270.262 10.6337 0
268.962 8.50953 0
270.23 8.491 0
271.468 6.32966 0
274.005 6.29232 0
274.068 10.5778 0
271.53 10.6151 0
272.736 6.31102 0
274.037 8.43506 0
272.799 10.5965 0
271.499 8.47241 0
272.768 8.45376 0
274.005 6.29232 0
276.542 6.25477 0
276.606 10.5402 0
274.068 10.5778 0
275.274 6.27357 0
276.574 8.3975 0
275.337 10.559 0
274.037 8.43506 0
275.305 8.41631 0
276.542 6.25477 0
279.08 6.217 0
279.143 10.5024 0
276.606 10.5402 0
277.811 6.23591 0
279.111 8.35973 0
277.875 10.5213 0
276.574 8.3975 0
277.843 8.37864 0
279.08 6.217 0
281.617 6.17902 0
281.681 10.4644 0
279.143 10.5024 0
280.348 6.19803 0
281.649 8.32174 0
280.412 10.4834 0
279.111 8.35973 0
280.38 8.34076 0
281.617 6.17902 0
284.154 6.14083 0
284.219 10.4262 0
281.681 10.4644 0
282.885 6.15995 0
284.186 8.28355 0
282.95 10.4454 0
281.649 8.32174 0
282.918 8.30267 0
284.154 6.14083 0
286.691 6.10243 0
286.756 10.3878 0
284.219 10.4262 0
285.423 6.12165 0
286.724 8.24515 0
285.487 10.4071 0
284.186 8.28355 0
285.455 8.26438 0
286.691 6.10243 0
289.229 6.06383 0
289.294 10.3492 0
286.756 10.3878 0
287.96 6.08316 0
289.261 8.20655 0
288.025 10.3686 0
286.724 8.24515 0
287.992 8.22588 0
289.229 6.06383 0
291.766 6.02503 0
291.831 10.3104 0
289.294 10.3492 0
290.497 6.04446 0
291.799 8.16775 0
290.563 10.3298 0
289.261 8.20655 0
290.53 8.18717 0
291.766 6.02503 0
294.303 5.98604 0
294.369 10.2714 0
291.831 10.3104 0
293.034 6.00556 0
294.336 8.12874 0
293.1 10.2909 0
291.799 8.16775 0
293.067 8.14827 0
294.303 5.98604 0
296.84 5.94684 0
296.907 10.2322 0
294.369 10.2714 0
295.572 5.96646 0
296.873 8.08955 0
295.638 10.2518 0
294.336 8.12874 0
295.605 8.10917 0
296.84 5.94684 0
299.378 5.90745 0
299.444 10.1928 0
296.907 10.2322 0
298.109 5.92717 0
299.411 8.05016 0
298.175 10.2125 0
296.873 8.08955 0
298.142 8.06987 0
299.378 5.90745 0
301.915 5.86787 0
301.982 10.1532 0
299.444 10.1928 0
300.646 5.88769 0
301.948 8.01057 0
300.713 10.173 0
299.411 8.05016 0
300.68 8.03039 0
301.915 5.86787 0
304.452 5.82811 0
304.519 10.1135 0
301.982 10.1532 0
303.184 5.84801 0
304.486 7.9708 0
303.251 10.1334 0
301.948 8.01057 0
303.217 7.99071 0
304.452 5.82811 0
306.99 5.78815 0
307.057 10.0735 0
304.519 10.1135 0
305.721 5.80815 0
307.023 7.93084 0
305.788 10.0935 0
304.486 7.9708 0
305.755 7.95084 0
306.99 5.78815 0
309.527 5.74801 0
309.595 10.0333 0
307.057 10.0735 0
308.258 5.76811 0
309.561 7.8907 0
308.326 10.0534 0
307.023 7.93084 0
308.292 7.91079 0
309.527 5.74801 0
312.064 5.70769 0
312.132 9.99302 0
309.595 10.0333 0
310.795 5.72788 0
312.098 7.85038 0
310.863 10.0132 0
309.561 7.8907 0
310.829 7.87056 0
312.064 5.70769 0
314.601 5.66719 0
314.67 9.95251 0
312.132 9.99302 0
313.333 5.68747 0
314.636 7.80987 0
313.401 9.97279 0
312.098 7.85038 0
313.367 7.83015 0
314.601 5.66719 0
317.139 5.62652 0
317.207 9.91183 0
314.67 9.95251 0
315.87 5.64688 0
317.173 7.76919 0
315.939 9.93219 0
314.636 7.80987 0
315.904 7.78955 0
317.139 5.62652 0
319.676 5.58567 0
319.745 9.87097 0
317.207 9.91183 0
318.407 5.60611 0
319.71 7.72834 0
318.476 9.89142 0
317.173 7.76919 0
318.442 7.74879 0
319.676 5.58567 0
322.213 5.54464 0
322.283 9.82994 0
319.745 9.87097 0
320.945 5.56518 0
322.248 7.68731 0
321.014 9.85048 0
319.71 7.72834 0
320.979 7.70784 0
322.213 5.54464 0
324.751 5.50345 0
324.82 9.78874 0
322.283 9.82994 0
323.482 5.52407 0
324.785 7.64611 0
323.551 9.80936 0
322.248 7.68731 0
323.517 7.66673 0
324.751 5.50345 0
327.288 5.46209 0
327.358 9.74738 0
324.82 9.78874 0
326.019 5.48279 0
327.323 7.60475 0
326.089 9.76808 0
324.785 7.64611 0
326.054 7.62545 0
327.288 5.46209 0
329.825 5.42057 0
329.895 9.70585 0
327.358 9.74738 0
328.557 5.44135 0
329.86 7.56322 0
328.627 9.72663 0
327.323 7.60475 0
328.592 7.58401 0
329.825 5.42057 0
332.363 5.37888 0
332.433 9.66415 0
329.895 9.70585 0
331.094 5.39974 0
332.398 7.52153 0
331.164 9.68502 0
329.86 7.56322 0
331.129 7.5424 0
332.363 5.37888 0
334.9 5.33703 0
334.971 9.6223 0
332.433 9.66415 0
333.631 5.35798 0
334.935 7.47968 0
333.702 9.64325 0
332.398 7.52153 0
333.666 7.50063 0
334.9 5.33703 0
337.437 5.29503 0
337.508 9.58029 0
334.971 9.6223 0
336.169 5.31605 0
337.473 7.43768 0
336.239 9.60131 0
334.935 7.47968 0
336.204 7.4587 0
337.437 5.29503 0
339.975 5.25287 0
340.046 9.53812 0
337.508 9.58029 0
338.706 5.27397 0
340.01 7.39551 0
338.777 9.55923 0
337.473 7.43768 0
338.741 7.41661 0
339.975 5.25287 0
342.512 5.21056 0
342.583 9.49581 0
340.046 9.53812 0
341.243 5.23173 0
342.548 7.3532 0
341.315 9.51698 0
340.01 7.39551 0
341.279 7.37437 0
342.512 5.21056 0
345.049 5.1681 0
345.121 9.45334 0
342.583 9.49581 0
343.781 5.18935 0
345.085 7.31073 0
343.852 9.47459 0
342.548 7.3532 0
343.816 7.33198 0
345.049 5.1681 0
347.587 5.12549 0
347.658 9.41072 0
345.121 9.45334 0
346.318 5.14681 0
347.623 7.26812 0
346.39 9.43205 0
345.085 7.31073 0
346.354 7.28944 0
347.587 5.12549 0
350.124 5.08273 0
350.196 9.36796 0
347.658 9.41072 0
348.855 5.10413 0
350.16 7.22536 0
348.927 9.38936 0
347.623 7.26812 0
348.891 7.24676 0
350.124 5.08273 0
352.661 5.03983 0
352.734 9.32506 0
350.196 9.36796 0
351.393 5.0613 0
352.697 7.18246 0
351.465 9.34653 0
350.16 7.22536 0
351.429 7.20393 0
352.661 5.03983 0
355.199 4.99679 0
355.271 9.28201 0
352.734 9.32506 0
353.93 5.01833 0
355.235 7.13942 0
354.002 9.30355 0
352.697 7.18246 0
353.966 7.16096 0
355.199 4.99679 0
357.736 4.95362 0
357.809 9.23883 0
355.271 9.28201 0
356.467 4.97522 0
357.772 7.09624 0
356.54 9.26044 0
355.235 7.13942 0
356.504 7.11784 0
357.736 4.95362 0
360.273 4.91031 0
360.346 9.19551 0
357.809 9.23883 0
359.005 4.93198 0
360.31 7.05292 0
359.078 9.21719 0
357.772 7.09624 0
359.041 7.0746 0
360.273 4.91031 0
362.811 4.86686 0
362.884 9.15206 0
360.346 9.19551 0
361.542 4.8886 0
362.847 7.00947 0
361.615 9.1738 0
360.31 7.05292 0
361.579 7.03121 0
362.811 4.86686 0
365.348 4.82328 0
365.422 9.10848 0
362.884 9.15206 0
364.079 4.84509 0
365.385 6.96589 0
364.153 9.13028 0
362.847 7.00947 0
364.116 6.9877 0
365.348 4.82328 0
367.885 4.77958 0
367.959 9.06477 0
365.422 9.10848 0
366.617 4.80145 0
367.922 6.92219 0
366.69 9.08664 0
365.385 6.96589 0
366.654 6.94406 0
367.885 4.77958 0
370.423 4.73575 0
370.497 9.02093 0
367.959 9.06477 0
369.154 4.75768 0
370.46 6.87835 0
369.228 9.04286 0
367.922 6.92219 0
369.191 6.90028 0
370.423 4.73575 0
372.96 4.69179 0
373.034 8.97697 0
370.497 9.02093 0
371.692 4.71379 0
372.997 6.83439 0
371.766 8.99896 0
370.46 6.87835 0
371.729 6.85639 0
372.96 4.69179 0
375.498 4.64772 0
375.572 8.93289 0
373.034 8.97697 0
374.229 4.66977 0
375.535 6.79032 0
374.303 8.95494 0
372.997 6.83439 0
374.266 6.81237 0
375.498 4.64772 0
378.035 4.60352 0
378.11 8.88869 0
375.572 8.93289 0
376.766 4.62564 0
378.072 6.74612 0
376.841 8.9108 0
375.535 6.79032 0
376.804 6.76823 0
378.035 4.60352 0
380.572 4.55921 0
380.647 8.84437 0
378.11 8.88869 0
379.304 4.58138 0
380.61 6.7018 0
379.378 8.86654 0
378.072 6.74612 0
379.341 6.72398 0
380.572 4.55921 0
383.11 4.51479 0
383.185 8.79994 0
380.647 8.84437 0
381.841 4.53701 0
383.147 6.65738 0
381.916 8.82217 0
380.61 6.7018 0
381.879 6.67961 0
383.11 4.51479 0
385.647 4.47025 0
385.722 8.7554 0
383.185 8.79994 0
384.378 4.49253 0
385.685 6.61284 0
384.454 8.77769 0
383.147 6.65738 0
384.416 6.63512 0
385.647 4.47025 0
388.185 4.42561 0
388.26 8.71075 0
385.722 8.7554 0
386.916 4.44794 0
388.222 6.56819 0
386.991 8.73309 0
385.685 6.61284 0
386.954 6.59053 0
388.185 4.42561 0
390.722 4.38086 0
390.797 8.66599 0
388.26 8.71075 0
389.453 4.40324 0
390.76 6.52344 0
389.529 8.68839 0
388.222 6.56819 0
389.491 6.54583 0
390.722 4.38086 0
393.259 4.336 0
393.335 8.62113 0
390.797 8.66599 0
391.991 4.35844 0
393.297 6.47858 0
392.066 8.64358 0
390.76 6.52344 0
392.028 6.50102 0
393.259 4.336 0
395.797 4.29104 0
395.873 8.57617 0
393.335 8.62113 0
394.528 4.31353 0
395.835 6.43362 0
394.604 8.59866 0
393.297 6.47858 0
394.566 6.45611 0
395.797 4.29104 0
398.334 4.24599 0
398.41 8.53111 0
395.873 8.57617 0
397.066 4.26853 0
398.372 6.38856 0
397.141 8.55365 0
395.835 6.43362 0
397.104 6.4111 0
398.334 4.24599 0
400.872 4.20083 0
400.948 8.48595 0
398.41 8.53111 0
399.603 4.22342 0
400.91 6.3434 0
399.679 8.50854 0
398.372 6.38856 0
399.641 6.36599 0
400.872 4.20083 0
403.409 4.15558 0
403.485 8.4407 0
400.948 8.48595 0
402.14 4.17822 0
403.447 6.29815 0
402.217 8.46333 0
400.91 6.3434 0
402.179 6.32079 0
403.409 4.15558 0
405.947 4.11024 0
406.023 8.39535 0
403.485 8.4407 0
404.678 4.13292 0
405.985 6.25281 0
404.754 8.41803 0
403.447 6.29815 0
404.716 6.27549 0
405.947 4.11024 0
408.484 4.06481 0
408.561 8.34991 0
406.023 8.39535 0
407.215 4.08754 0
408.522 6.20737 0
407.292 8.37264 0
405.985 6.25281 0
407.254 6.2301 0
408.484 4.06481 0
411.021 4.01929 0
411.098 8.30439 0
408.561 8.34991 0
409.753 4.04206 0
411.06 6.16185 0
409.829 8.32716 0
408.522 6.20737 0
409.791 6.18462 0
411.021 4.01929 0
413.559 3.97369 0
413.636 8.25879 0
411.098 8.30439 0
412.29 3.9965 0
413.597 6.11625 0
412.367 8.2816 0
411.06 6.16185 0
412.329 6.13906 0
413.559 3.97369 0
416.096 3.92801 0
416.173 8.2131 0
413.636 8.25879 0
414.828 3.95086 0
416.135 6.07056 0
414.905 8.23595 0
413.597 6.11625 0
414.866 6.09341 0
416.096 3.92801 0
418.634 3.88224 0
418.711 8.16733 0
416.173 8.2131 0
417.365 3.90513 0
418.672 6.02479 0
417.442 8.19022 0
416.135 6.07056 0
417.404 6.04769 0
418.634 3.88224 0
421.171 3.8364 0
421.249 8.12148 0
418.711 8.16733 0
419.903 3.85933 0
421.21 5.97895 0
419.98 8.14441 0
418.672 6.02479 0
419.941 6.00188 0
421.171 3.8364 0
423.709 3.79048 0
423.786 8.07556 0
421.249 8.12148 0
422.44 3.81345 0
423.747 5.93303 0
422.517 8.09853 0
421.21 5.97895 0
422.479 5.956 0
423.709 3.79048 0
426.246 3.74449 0
426.324 8.02956 0
423.786 8.07556 0
424.977 3.76749 0
426.285 5.88703 0
425.055 8.05257 0
423.747 5.93303 0
425.016 5.91004 0
426.246 3.74449 0
428.784 3.69843 0
428.861 7.9835 0
426.324 8.02956 0
427.515 3.72147 0
428.823 5.84097 0
427.593 8.00654 0
426.285 5.88703 0
427.554 5.86401 0
428.784 3.69843 0
431.321 3.6523 0
431.399 7.93737 0
428.861 7.9835 0
430.052 3.67537 0
431.36 5.79484 0
430.13 7.96044 0
428.823 5.84097 0
430.091 5.81791 0
431.321 3.6523 0
433.859 3.60611 0
433.937 7.89117 0
431.399 7.93737 0
432.59 3.62921 0
433.898 5.74864 0
432.668 7.91427 0
431.36 5.79484 0
432.629 5.77175 0
433.859 3.60611 0
436.396 3.55985 0
436.474 7.84491 0
433.937 7.89117 0
435.127 3.58299 0
436.435 5.70238 0
435.205 7.86804 0
433.898 5.74864 0
435.166 5.72552 0
436.396 3.55985 0
438.934 3.51353 0
439.012 7.79858 0
436.474 7.84491 0
437.665 3.5367 0
438.973 5.65606 0
437.743 7.82175 0
436.435 5.70238 0
437.704 5.67923 0
438.934 3.51353 0
441.471 3.46716 0
441.549 7.7522 0
439.012 7.79858 0
440.202 3.49035 0
441.51 5.60969 0
440.281 7.7754 0
438.973 5.65606 0
440.241 5.63288 0
441.471 3.46716 0
444.009 3.42072 0
444.087 7.70577 0
441.549 7.7522 0
442.74 3.44395 0
444.048 5.56325 0
442.818 7.72899 0
441.51 5.60969 0
442.779 5.58648 0
444.009 3.42072 0
446.546 3.37424 0
446.625 7.65928 0
444.087 7.70577 0
445.277 3.39749 0
446.585 5.51676 0
445.356 7.68253 0
444.048 5.56325 0
445.317 5.54001 0
446.546 3.37424 0
449.084 3.3277 0
449.162 7.61274 0
446.625 7.65928 0
447.815 3.35098 0
449.123 5.47023 0
447.893 7.63602 0
446.585 5.51676 0
447.854 5.4935 0
449.084 3.3277 0
451.621 3.28112 0
451.7 7.56615 0
449.162 7.61274 0
450.352 3.30442 0
451.66 5.42364 0
450.431 7.58945 0
449.123 5.47023 0
450.392 5.44694 0
451.621 3.28112 0
454.159 3.23449 0
454.237 7.51952 0
451.7 7.56615 0
452.89 3.25781 0
454.198 5.37701 0
452.969 7.54284 0
451.66 5.42364 0
452.929 5.40033 0
454.159 3.23449 0
456.696 3.18781 0
456.775 7.47284 0
454.237 7.51952 0
455.428 3.21116 0
456.736 5.33033 0
455.506 7.49618 0
454.198 5.37701 0
455.467 5.35367 0
456.696 3.18781 0
459.234 3.1411 0
459.313 7.42612 0
456.775 7.47284 0
457.965 3.16446 0
459.273 5.28361 0
458.044 7.44948 0
456.736 5.33033 0
458.004 5.30698 0
459.234 3.1411 0
461.771 3.09434 0
461.85 7.37936 0
459.313 7.42612 0
460.503 3.11772 0
461.811 5.23686 0
460.581 7.40275 0
459.273 5.28361 0
460.542 5.26024 0
461.771 3.09434 0
464.309 3.04755 0
464.388 7.33257 0
461.85 7.37936 0
463.04 3.07095 0
464.348 5.19006 0
463.119 7.35597 0
461.811 5.23686 0
463.08 5.21346 0
464.309 3.04755 0
466.846 3.00073 0
466.925 7.28574 0
464.388 7.33257 0
465.578 3.02414 0
466.886 5.14324 0
465.657 7.30916 0
464.348 5.19006 0
465.617 5.16665 0
466.846 3.00073 0
469.384 2.95387 0
469.463 7.23888 0
466.925 7.28574 0
468.115 2.9773 0
469.424 5.09638 0
468.194 7.26231 0
466.886 5.14324 0
468.155 5.11981 0
469.384 2.95387 0
471.922 2.90698 0
472.001 7.19199 0
469.463 7.23888 0
470.653 2.93043 0
471.961 5.04949 0
470.732 7.21544 0
469.424 5.09638 0
470.692 5.07294 0
471.922 2.90698 0
474.459 2.86007 0
474.538 7.14508 0
472.001 7.19199 0
473.19 2.88353 0
474.499 5.00258 0
473.269 7.16854 0
471.961 5.04949 0
473.23 5.02604 0
474.459 2.86007 0
476.997 2.81313 0
477.076 7.09814 0
474.538 7.14508 0
475.728 2.8366 0
477.036 4.95564 0
475.807 7.12161 0
474.499 5.00258 0
475.768 4.97911 0
476.997 2.81313 0
479.534 2.76617 0
479.613 7.05117 0
477.076 7.09814 0
478.266 2.78966 0
479.574 4.90868 0
478.345 7.07466 0
477.036 4.95564 0
478.305 4.93216 0
479.534 2.76617 0
482.072 2.7192 0
482.151 7.00419 0
479.613 7.05117 0
480.803 2.74269 0
482.112 4.8617 0
480.882 7.02768 0
479.574 4.90868 0
480.843 4.88519 0
482.072 2.7192 0
484.61 2.6722 0
484.689 6.95719 0
482.151 7.00419 0
483.341 2.6957 0
484.649 4.8147 0
483.42 6.98069 0
482.112 4.8617 0
483.38 4.8382 0
484.61 2.6722 0
487.147 2.62519 0
487.226 6.91018 0
484.689 6.95719 0
485.878 2.6487 0
487.187 4.76768 0
485.958 6.93369 0
484.649 4.8147 0
485.918 4.79119 0
487.147 2.62519 0
489.685 2.57816 0
489.764 6.86315 0
487.226 6.91018 0
488.416 2.60168 0
489.724 4.72066 0
488.495 6.88666 0
487.187 4.76768 0
488.456 4.74417 0
489.685 2.57816 0
492.222 2.53113 0
492.302 6.81611 0
489.764 6.86315 0
490.954 2.55465 0
492.262 4.67362 0
491.033 6.83963 0
489.724 4.72066 0
490.993 4.69714 0
492.222 2.53113 0
494.76 2.48408 0
494.839 6.76908 0
492.302 6.81611 0
493.491 2.50761 0
494.8 4.62658 0
493.57 6.7926 0
492.262 4.67362 0
493.531 4.6501 0
494.76 2.48408 0
497.298 2.43704 0
497.377 6.72205 0
494.839 6.76908 0
496.029 2.46056 0
497.337 4.57955 0
496.108 6.74556 0
494.8 4.62658 0
496.068 4.60306 0
497.298 2.43704 0
499.835 2.39002 0
499.915 6.67505 0
497.377 6.72205 0
498.566 2.41352 0
499.875 4.53254 0
498.646 6.69855 0
497.337 4.57955 0
498.606 4.55604 0
0 12.8571 0
2.53772 12.8572 0
2.53842 17.1429 0
0 17.1429 0
1.26886 12.8573 0
2.53807 15.0001 0
1.26921 17.143 0
0 15 0
1.26903 15.0001 0
2.53772 12.8572 0
5.07541 12.8566 0
5.07687 17.1423 0
2.53842 17.1429 0
3.80657 12.857 0
5.07614 14.9995 0
3.80764 17.1427 0
2.53807 15.0001 0
3.8071 14.9999 0
5.07541 12.8566 0
7.61309 12.8554 0
7.61533 17.1411 0
5.07687 17.1423 0
6.34425 12.8561 0
7.61421 14.9983 0
6.3461 17.1418 0
5.07614 14.9995 0
6.34517 14.999 0
7.61309 12.8554 0
10.1508 12.8537 0
10.1538 17.1395 0
7.61533 17.1411 0
8.88192 12.8547 0
10.1523 14.9967 0
8.88457 17.1404 0
7.61421 14.9983 0
8.88324 14.9976 0
10.1508 12.8537 0
12.6884 12.8516 0
12.6923 17.1373 0
10.1538 17.1395 0
11.4196 12.8527 0
12.6903 14.9945 0
11.423 17.1384 0
10.1523 14.9967 0
11.4213 14.9956 0
12.6884 12.8516 0
15.2261 12.8489 0
15.2307 17.1346 0
12.6923 17.1373 0
13.9573 12.8503 0
15.2284 14.9918 0
13.9615 17.136 0
12.6903 14.9945 0
13.9594 14.9932 0
15.2261 12.8489 0
17.7638 12.8458 0
17.7692 17.1315 0
15.2307 17.1346 0
16.4949 12.8474 0
17.7665 14.9887 0
16.5 17.1331 0
15.2284 14.9918 0
16.4975 14.9903 0
17.7638 12.8458 0
20.3014 12.8422 0
20.3077 17.1279 0
17.7692 17.1315 0
19.0326 12.8441 0
20.3046 14.9851 0
19.0384 17.1298 0
17.7665 14.9887 0
19.0355 14.987 0
20.3014 12.8422 0
22.8391 12.8382 0
22.8461 17.1239 0
20.3077 17.1279 0
21.5703 12.8403 0
22.8426 14.9811 0
21.5769 17.126 0
20.3046 14.9851 0
21.5736 14.9832 0
22.8391 12.8382 0
25.3768 12.8337 0
25.3846 17.1194 0
22.8461 17.1239 0
24.108 12.836 0
25.3807 14.9766 0
24.1153 17.1217 0
22.8426 14.9811 0
24.1117 14.9789 0
25.3768 12.8337 0
27.9145 12.8288 0
27.923 17.1145 0
25.3846 17.1194 0
26.6456 12.8313 0
27.9188 14.9717 0
26.6538 17.117 0
25.3807 14.9766 0
26.6497 14.9742 0
27.9145 12.8288 0
30.4522 12.8234 0
30.4615 17.1091 0
27.923 17.1145 0
29.1833 12.8262 0
30.4568 14.9663 0
29.1922 17.1119 0
27.9188 14.9717 0
29.1878 14.9691 0
30.4522 12.8234 0
32.9899 12.8176 0
32.9999 17.1033 0
30.4615 17.1091 0
31.721 12.8205 0
32.9949 14.9605 0
31.7307 17.1062 0
30.4568 14.9663 0
31.7258 14.9634 0
32.9899 12.8176 0
35.5275 12.8113 0
35.5383 17.097 0
32.9999 17.1033 0
34.2587 12.8145 0
35.5329 14.9542 0
34.2691 17.1002 0
32.9949 14.9605 0
34.2639 14.9574 0
35.5275 12.8113 0
38.0652 12.8046 0
38.0768 17.0903 0
35.5383 17.097 0
36.7964 12.808 0
38.071 14.9475 0
36.8076 17.0937 0
35.5329 14.9542 0
36.802 14.9509 0
38.0652 12.8046 0
40.6029 12.7974 0
40.6152 17.0831 0
38.0768 17.0903 0
39.3341 12.801 0
40.6091 14.9403 0
39.346 17.0867 0
38.071 14.9475 0
39.34 14.9439 0
40.6029 12.7974 0
43.1406 12.7898 0
43.1536 17.0755 0
40.6152 17.0831 0
41.8718 12.7937 0
43.1471 14.9327 0
41.8844 17.0794 0
40.6091 14.9403 0
41.8781 14.9366 0
43.1406 12.7898 0
45.6783 12.7818 0
45.6921 17.0675 0
43.1536 17.0755 0
44.4095 12.7859 0
45.6852 14.9247 0
44.4228 17.0715 0
43.1471 14.9327 0
44.4161 14.9287 0
45.6783 12.7818 0
48.216 12.7733 0
48.2305 17.059 0
45.6921 17.0675 0
46.9471 12.7776 0
48.2232 14.9162 0
46.9613 17.0633 0
45.6852 14.9247 0
46.9542 14.9205 0
48.216 12.7733 0
50.7537 12.7644 0
50.7689 17.0501 0
48.2305 17.059 0
49.4848 12.7689 0
50.7613 14.9073 0
49.4997 17.0546 0
48.2232 14.9162 0
49.4923 14.9118 0
50.7537 12.7644 0
53.2914 12.7551 0
53.3073 17.0408 0
50.7689 17.0501 0
52.0225 12.7598 0
53.2993 14.898 0
52.0381 17.0455 0
50.7613 14.9073 0
52.0303 14.9027 0
53.2914 12.7551 0
55.8291 12.7453 0
55.8457 17.031 0
53.3073 17.0408 0
54.5602 12.7503 0
55.8374 14.8882 0
54.5765 17.0359 0
53.2993 14.898 0
54.5684 14.8931 0
55.8291 12.7453 0
58.3668 12.7351 0
58.3841 17.0208 0
55.8457 17.031 0
57.0979 12.7403 0
58.3754 14.878 0
57.1149 17.026 0
55.8374 14.8882 0
57.1064 14.8832 0
58.3668 12.7351 0
60.9045 12.7245 0
60.9225 17.0102 0
58.3841 17.0208 0
59.6356 12.7299 0
60.9135 14.8674 0
59.6533 17.0156 0
58.3754 14.878 0
59.6445 14.8728 0
60.9045 12.7245 0
63.4422 12.7135 0
63.4609 16.9992 0
60.9225 17.0102 0
62.1733 12.7191 0
63.4515 14.8564 0
62.1917 17.0048 0
60.9135 14.8674 0
62.1825 14.862 0
63.4422 12.7135 0
65.9798 12.7021 0
65.9993 16.9878 0
63.4609 16.9992 0
64.711 12.7079 0
65.9896 14.845 0
64.7301 16.9935 0
63.4515 14.8564 0
64.7206 14.8507 0
65.9798 12.7021 0
68.5175 12.6902 0
68.5377 16.9759 0
65.9993 16.9878 0
67.2487 12.6962 0
68.5276 14.8331 0
67.2685 16.9819 0
65.9896 14.845 0
67.2586 14.8391 0
68.5175 12.6902 0
71.0552 12.678 0
71.0761 16.9636 0
68.5377 16.9759 0
69.7864 12.6842 0
71.0657 14.8209 0
69.8069 16.9698 0
68.5276 14.8331 0
69.7966 14.827 0
71.0552 12.678 0
73.5929 12.6653 0
73.6145 16.951 0
71.0761 16.9636 0
72.3241 12.6717 0
73.6037 14.8082 0
72.3453 16.9574 0
71.0657 14.8209 0
72.3347 14.8146 0
73.5929 12.6653 0
76.1306 12.6522 0
76.1529 16.9379 0
73.6145 16.951 0
74.8618 12.6588 0
76.1417 14.7951 0
74.8837 16.9445 0
73.6037 14.8082 0
74.8727 14.8017 0
76.1306 12.6522 0
78.6683 12.6388 0
78.6912 16.9244 0
76.1529 16.9379 0
77.3995 12.6455 0
78.6798 14.7816 0
77.4221 16.9312 0
76.1417 14.7951 0
77.4108 14.7884 0
78.6683 12.6388 0
81.206 12.6249 0
81.2296 16.9105 0
78.6912 16.9244 0
79.9372 12.6319 0
81.2178 14.7677 0
79.9604 16.9175 0
78.6798 14.7816 0
79.9488 14.7747 0
81.206 12.6249 0
83.7437 12.6106 0
83.768 16.8962 0
81.2296 16.9105 0
82.4749 12.6178 0
83.7558 14.7535 0
82.4988 16.9034 0
81.2178 14.7677 0
82.4868 14.7606 0
83.7437 12.6106 0
86.2814 12.5959 0
86.3063 16.8816 0
83.768 16.8962 0
85.0125 12.6033 0
86.2939 14.7388 0
85.0372 16.8889 0
83.7558 14.7535 0
85.0249 14.7462 0
86.2814 12.5959 0
88.8191 12.5808 0
88.8447 16.8665 0
86.3063 16.8816 0
87.5502 12.5884 0
88.8319 14.7237 0
87.5755 16.8741 0
86.2939 14.7388 0
87.5629 14.7313 0
88.8191 12.5808 0
91.3568 12.5654 0
91.383 16.851 0
88.8447 16.8665 0
90.0879 12.5732 0
91.3699 14.7082 0
90.1139 16.8588 0
88.8319 14.7237 0
90.1009 14.716 0
91.3568 12.5654 0
93.8945 12.5495 0
93.9214 16.8351 0
91.383 16.851 0
92.6256 12.5575 0
93.9079 14.6924 0
92.6522 16.8431 0
91.3699 14.7082 0
92.6389 14.7003 0
93.8945 12.5495 0
96.4322 12.5333 0
96.4597 16.8189 0
93.9214 16.8351 0
95.1633 12.5414 0
96.446 14.6761 0
95.1906 16.8271 0
93.9079 14.6924 0
95.1769 14.6843 0
96.4322 12.5333 0
98.9699 12.5166 0
98.9981 16.8023 0
96.4597 16.8189 0
97.701 12.525 0
98.984 14.6595 0
97.7289 16.8106 0
96.446 14.6761 0
97.715 14.6679 0
98.9699 12.5166 0
101.508 12.4996 0
101.536 16.7852 0
98.9981 16.8023 0
100.239 12.5082 0
101.522 14.6425 0
100.267 16.7938 0
98.984 14.6595 0
100.253 14.651 0
101.508 12.4996 0
104.045 12.4822 0
104.075 16.7678 0
101.536 16.7852 0
102.776 12.491 0
104.06 14.6251 0
102.806 16.7766 0
101.522 14.6425 0
102.791 14.6338 0
104.045 12.4822 0
106.583 12.4645 0
106.613 16.7501 0
104.075 16.7678 0
105.314 12.4734 0
106.598 14.6073 0
105.344 16.759 0
104.06 14.6251 0
105.329 14.6162 0
106.583 12.4645 0
109.121 12.4463 0
109.151 16.7319 0
106.613 16.7501 0
107.852 12.4554 0
109.136 14.5892 0
107.882 16.741 0
106.598 14.6073 0
107.867 14.5983 0
109.121 12.4463 0
111.658 12.4278 0
111.69 16.7134 0
109.151 16.7319 0
110.389 12.4371 0
111.674 14.5706 0
110.421 16.7227 0
109.136 14.5892 0
110.405 14.5799 0
111.658 12.4278 0
114.196 12.4089 0
114.228 16.6945 0
111.69 16.7134 0
112.927 12.4184 0
114.212 14.5517 0
112.959 16.704 0
111.674 14.5706 0
112.943 14.5612 0
114.196 12.4089 0
116.734 12.3897 0
116.766 16.6752 0
114.228 16.6945 0
115.465 12.3993 0
116.75 14.5325 0
115.497 16.6849 0
114.212 14.5517 0
115.481 14.5422 0
116.734 12.3897 0
119.271 12.37 0
119.305 16.6556 0
116.766 16.6752 0
118.003 12.3799 0
119.288 14.5129 0
118.035 16.6655 0
116.75 14.5325 0
118.019 14.5227 0
119.271 12.37 0
121.809 12.35 0
121.843 16.6356 0
119.305 16.6556 0
120.54 12.3601 0
121.826 14.4929 0
120.574 16.6457 0
119.288 14.5129 0
120.557 14.5029 0
121.809 12.35 0
124.347 12.3297 0
124.381 16.6153 0
121.843 16.6356 0
123.078 12.3399 0
124.364 14.4725 0
123.112 16.6255 0
121.826 14.4929 0
123.095 14.4827 0
124.347 12.3297 0
126.884 12.309 0
126.92 16.5946 0
124.381 16.6153 0
125.616 12.3194 0
126.902 14.4518 0
125.65 16.605 0
124.364 14.4725 0
125.633 14.4622 0
126.884 12.309 0
129.422 12.2879 0
129.458 16.5735 0
126.92 16.5946 0
128.153 12.2985 0
129.44 14.4308 0
128.189 16.5841 0
126.902 14.4518 0
128.171 14.4413 0
129.422 12.2879 0
131.96 12.2665 0
131.996 16.5521 0
129.458 16.5735 0
130.691 12.2773 0
131.978 14.4093 0
130.727 16.5628 0
129.44 14.4308 0
130.709 14.4201 0
131.96 12.2665 0
134.497 12.2448 0
134.534 16.5303 0
131.996 16.5521 0
133.229 12.2557 0
134.516 14.3876 0
133.265 16.5412 0
131.978 14.4093 0
133.247 14.3985 0
134.497 12.2448 0
137.035 12.2226 0
137.073 16.5082 0
134.534 16.5303 0
135.766 12.2337 0
137.054 14.3654 0
135.803 16.5193 0
134.516 14.3876 0
135.785 14.3766 0
137.035 12.2226 0
139.573 12.2002 0
139.611 16.4857 0
137.073 16.5082 0
138.304 12.2115 0
139.592 14.343 0
138.342 16.497 0
137.054 14.3654 0
138.323 14.3543 0
139.573 12.2002 0
142.111 12.1774 0
142.149 16.4629 0
139.611 16.4857 0
140.842 12.1888 0
142.13 14.3202 0
140.88 16.4744 0
139.592 14.343 0
140.861 14.3316 0
142.111 12.1774 0
144.648 12.1542 0
144.687 16.4398 0
142.149 16.4629 0
143.379 12.1658 0
144.668 14.297 0
143.418 16.4514 0
142.13 14.3202 0
143.399 14.3086 0
144.648 12.1542 0
147.186 12.1307 0
147.226 16.4163 0
144.687 16.4398 0
145.917 12.1425 0
147.206 14.2735 0
145.957 16.4281 0
144.668 14.297 0
145.937 14.2853 0
147.186 12.1307 0
149.724 12.1069 0
149.764 16.3924 0
147.226 16.4163 0
148.455 12.1189 0
149.744 14.2497 0
148.495 16.4044 0
147.206 14.2735 0
148.475 14.2617 0
149.724 12.1069 0
152.261 12.0828 0
152.302 16.3683 0
149.764 16.3924 0
150.992 12.0949 0
152.282 14.2256 0
151.033 16.3804 0
149.744 14.2497 0
151.013 14.2377 0
152.261 12.0828 0
154.799 12.0583 0
154.84 16.3438 0
152.302 16.3683 0
153.53 12.0706 0
154.82 14.2011 0
153.571 16.3561 0
152.282 14.2256 0
153.551 14.2134 0
154.799 12.0583 0
157.337 12.0335 0
157.379 16.319 0
154.84 16.3438 0
156.068 12.0459 0
157.358 14.1762 0
156.109 16.3314 0
154.82 14.2011 0
156.089 14.1887 0
157.337 12.0335 0
159.874 12.0083 0
159.917 16.2938 0
157.379 16.319 0
158.605 12.0209 0
159.896 14.1511 0
158.648 16.3064 0
157.358 14.1762 0
158.627 14.1637 0
159.874 12.0083 0
162.412 11.9828 0
162.455 16.2683 0
159.917 16.2938 0
161.143 11.9956 0
162.433 14.1256 0
161.186 16.2811 0
159.896 14.1511 0
161.164 14.1384 0
162.412 11.9828 0
164.95 11.9571 0
164.993 16.2425 0
162.455 16.2683 0
163.681 11.97 0
164.971 14.0998 0
163.724 16.2555 0
162.433 14.1256 0
163.702 14.1128 0
164.95 11.9571 0
167.487 11.9309 0
167.531 16.2164 0
164.993 16.2425 0
166.218 11.944 0
167.509 14.0737 0
166.262 16.2295 0
164.971 14.0998 0
166.24 14.0868 0
167.487 11.9309 0
170.025 11.9045 0
170.07 16.19 0
167.531 16.2164 0
168.756 11.9178 0
170.047 14.0473 0
168.801 16.2033 0
167.509 14.0737 0
168.778 14.0605 0
170.025 11.9045 0
172.563 11.8778 0
172.608 16.1633 0
170.07 16.19 0
171.294 11.8912 0
172.585 14.0205 0
171.339 16.1767 0
170.047 14.0473 0
171.316 14.034 0
172.563 11.8778 0
175.1 11.8507 0
175.146 16.1362 0
172.608 16.1633 0
173.831 11.8643 0
175.123 13.9935 0
173.877 16.1498 0
172.585 14.0205 0
173.854 14.0071 0
175.1 11.8507 0
177.638 11.8234 0
177.684 16.1088 0
175.146 16.1362 0
176.369 11.8371 0
177.661 13.9661 0
176.415 16.1225 0
175.123 13.9935 0
176.392 13.9798 0
177.638 11.8234 0
180.176 11.7957 0
180.222 16.0811 0
177.684 16.1088 0
178.907 11.8096 0
180.199 13.9384 0
178.953 16.095 0
177.661 13.9661 0
178.93 13.9523 0
180.176 11.7957 0
182.713 11.7677 0
182.761 16.0532 0
180.222 16.0811 0
181.444 11.7817 0
182.737 13.9105 0
181.491 16.0672 0
180.199 13.9384 0
181.468 13.9245 0
182.713 11.7677 0
185.251 11.7394 0
185.299 16.0249 0
182.761 16.0532 0
183.982 11.7536 0
185.275 13.8822 0
184.03 16.0391 0
182.737 13.9105 0
184.006 13.8964 0
185.251 11.7394 0
187.789 11.7109 0
187.837 15.9963 0
185.299 16.0249 0
186.52 11.7252 0
187.813 13.8536 0
186.568 16.0106 0
185.275 13.8822 0
186.544 13.8679 0
187.789 11.7109 0
190.326 11.682 0
190.375 15.9674 0
187.837 15.9963 0
189.057 11.6964 0
190.351 13.8247 0
189.106 15.9819 0
187.813 13.8536 0
189.082 13.8392 0
190.326 11.682 0
192.864 11.6528 0
192.913 15.9382 0
190.375 15.9674 0
191.595 11.6674 0
192.889 13.7955 0
191.644 15.9529 0
190.351 13.8247 0
191.62 13.8102 0
192.864 11.6528 0
195.402 11.6233 0
195.451 15.9088 0
192.913 15.9382 0
194.133 11.6381 0
195.426 13.7661 0
194.182 15.9235 0
192.889 13.7955 0
194.157 13.7808 0
195.402 11.6233 0
197.939 11.5936 0
197.989 15.879 0
195.451 15.9088 0
196.67 11.6085 0
197.964 13.7363 0
196.72 15.8939 0
195.426 13.7661 0
196.695 13.7512 0
197.939 11.5936 0
200.477 11.5635 0
200.528 15.8489 0
197.989 15.879 0
199.208 11.5786 0
200.502 13.7063 0
199.259 15.864 0
197.964 13.7363 0
199.233 13.7213 0
200.477 11.5635 0
203.014 11.5332 0
203.066 15.8186 0
200.528 15.8489 0
201.746 11.5484 0
203.04 13.6759 0
201.797 15.8338 0
200.502 13.7063 0
201.771 13.6911 0
203.014 11.5332 0
205.552 11.5026 0
205.604 15.788 0
203.066 15.8186 0
204.283 11.5179 0
205.578 13.6453 0
204.335 15.8033 0
203.04 13.6759 0
204.309 13.6607 0
205.552 11.5026 0
208.09 11.4717 0
208.142 15.7571 0
205.604 15.788 0
206.821 11.4872 0
208.116 13.6144 0
206.873 15.7726 0
205.578 13.6453 0
206.847 13.6299 0
208.09 11.4717 0
210.627 11.4405 0
210.68 15.7259 0
208.142 15.7571 0
209.359 11.4561 0
210.654 13.5832 0
209.411 15.7415 0
208.116 13.6144 0
209.385 13.5989 0
210.627 11.4405 0
213.165 11.4091 0
213.218 15.6945 0
210.68 15.7259 0
211.896 11.4248 0
213.192 13.5518 0
211.949 15.7102 0
210.654 13.5832 0
211.923 13.5676 0
213.165 11.4091 0
215.703 11.3773 0
215.756 15.6627 0
213.218 15.6945 0
214.434 11.3932 0
215.729 13.5201 0
214.487 15.6786 0
213.192 13.5518 0
214.461 13.536 0
215.703 11.3773 0
218.24 11.3454 0
218.294 15.6307 0
215.756 15.6627 0
216.972 11.3614 0
218.267 13.4881 0
217.025 15.6468 0
215.729 13.5201 0
216.998 13.5041 0
218.24 11.3454 0
220.778 11.3131 0
220.832 15.5985 0
218.294 15.6307 0
219.509 11.3293 0
220.805 13.4558 0
219.563 15.6146 0
218.267 13.4881 0
219.536 13.472 0
220.778 11.3131 0
223.316 11.2806 0
223.371 15.5659 0
220.832 15.5985 0
222.047 11.2969 0
223.343 13.4233 0
222.102 15.5822 0
220.805 13.4558 0
222.074 13.4396 0
223.316 11.2806 0
225.853 11.2478 0
225.909 15.5331 0
223.371 15.5659 0
224.584 11.2642 0
225.881 13.3905 0
224.64 15.5496 0
223.343 13.4233 0
224.612 13.4069 0
225.853 11.2478 0
228.391 11.2147 0
228.447 15.5001 0
225.909 15.5331 0
227.122 11.2313 0
228.419 13.3574 0
227.178 15.5166 0
225.881 13.3905 0
227.15 13.374 0
228.391 11.2147 0
230.929 11.1814 0
230.985 15.4667 0
228.447 15.5001 0
229.66 11.1981 0
230.957 13.3241 0
229.716 15.4834 0
228.419 13.3574 0
229.688 13.3408 0
230.929 11.1814 0
233.466 11.1478 0
233.523 15.4332 0
230.985 15.4667 0
232.197 11.1646 0
233.495 13.2905 0
232.254 15.45 0
230.957 13.3241 0
232.226 13.3073 0
233.466 11.1478 0
236.004 11.114 0
236.061 15.3993 0
233.523 15.4332 0
234.735 11.1309 0
236.032 13.2567 0
234.792 15.4163 0
233.495 13.2905 0
234.763 13.2736 0
236.004 11.114 0
238.541 11.0799 0
238.599 15.3652 0
236.061 15.3993 0
237.273 11.097 0
238.57 13.2226 0
237.33 15.3823 0
236.032 13.2567 0
237.301 13.2397 0
238.541 11.0799 0
241.079 11.0456 0
241.137 15.3309 0
238.599 15.3652 0
239.81 11.0628 0
241.108 13.1883 0
239.868 15.3481 0
238.57 13.2226 0
239.839 13.2055 0
241.079 11.0456 0
243.617 11.011 0
243.675 15.2963 0
241.137 15.3309 0
242.348 11.0283 0
243.646 13.1537 0
242.406 15.3137 0
241.108 13.1883 0
242.377 13.171 0
243.617 11.011 0
246.154 10.9762 0
246.213 15.2615 0
243.675 15.2963 0
244.885 10.9936 0
246.184 13.1189 0
244.944 15.279 0
243.646 13.1537 0
244.915 13.1363 0
246.154 10.9762 0
248.692 10.9411 0
248.751 15.2264 0
246.213 15.2615 0
247.423 10.9587 0
248.722 13.0838 0
247.482 15.244 0
246.184 13.1189 0
247.453 13.1014 0
248.692 10.9411 0
251.23 10.9058 0
251.289 15.1911 0
248.751 15.2264 0
249.961 10.9235 0
251.259 13.0485 0
250.02 15.2088 0
248.722 13.0838 0
249.99 13.0662 0
251.23 10.9058 0
253.767 10.8703 0
253.827 15.1556 0
251.289 15.1911 0
252.498 10.8881 0
253.797 13.013 0
252.558 15.1734 0
251.259 13.0485 0
252.528 13.0308 0
253.767 10.8703 0
256.305 10.8345 0
256.365 15.1198 0
253.827 15.1556 0
255.036 10.8525 0
256.335 12.9772 0
255.096 15.1377 0
253.797 13.013 0
255.066 12.9951 0
256.305 10.8345 0
258.842 10.7985 0
258.903 15.0838 0
256.365 15.1198 0
257.574 10.8166 0
258.873 12.9412 0
257.634 15.1018 0
256.335 12.9772 0
257.604 12.9592 0
258.842 10.7985 0
261.38 10.7623 0
261.441 15.0476 0
258.903 15.0838 0
260.111 10.7804 0
261.411 12.905 0
260.172 15.0657 0
258.873 12.9412 0
260.142 12.9231 0
261.38 10.7623 0
263.918 10.7258 0
263.979 15.0111 0
261.441 15.0476 0
262.649 10.7441 0
263.948 12.8685 0
262.71 15.0294 0
261.411 12.905 0
262.68 12.8868 0
263.918 10.7258 0
266.455 10.6891 0
266.517 14.9744 0
263.979 15.0111 0
265.186 10.7075 0
266.486 12.8318 0
265.248 14.9928 0
263.948 12.8685 0
265.217 12.8502 0
266.455 10.6891 0
268.993 10.6522 0
269.055 14.9375 0
266.517 14.9744 0
267.724 10.6707 0
269.024 12.7949 0
267.786 14.956 0
266.486 12.8318 0
267.755 12.8134 0
268.993 10.6522 0
271.53 10.6151 0
271.593 14.9004 0
269.055 14.9375 0
270.262 10.6337 0
271.562 12.7578 0
270.324 14.919 0
269.024 12.7949 0
270.293 12.7764 0
271.53 10.6151 0
274.068 10.5778 0
274.131 14.863 0
271.593 14.9004 0
272.799 10.5965 0
274.1 12.7204 0
272.862 14.8817 0
271.562 12.7578 0
272.831 12.7391 0
274.068 10.5778 0
276.606 10.5402 0
276.669 14.8254 0
274.131 14.863 0
275.337 10.559 0
276.637 12.6828 0
275.4 14.8442 0
274.1 12.7204 0
275.369 12.7016 0
276.606 10.5402 0
279.143 10.5024 0
279.207 14.7877 0
276.669 14.8254 0
277.875 10.5213 0
279.175 12.6451 0
277.938 14.8066 0
276.637 12.6828 0
277.906 12.664 0
279.143 10.5024 0
281.681 10.4644 0
281.745 14.7497 0
279.207 14.7877 0
280.412 10.4834 0
281.713 12.6071 0
280.476 14.7687 0
279.175 12.6451 0
280.444 12.6261 0
281.681 10.4644 0
284.219 10.4262 0
284.283 14.7115 0
281.745 14.7497 0
282.95 10.4454 0
284.251 12.5689 0
283.014 14.7306 0
281.713 12.6071 0
282.982 12.588 0
284.219 10.4262 0
286.756 10.3878 0
286.821 14.6731 0
284.283 14.7115 0
285.487 10.4071 0
286.789 12.5305 0
285.552 14.6923 0
284.251 12.5689 0
285.52 12.5497 0
286.756 10.3878 0
289.294 10.3492 0
289.359 14.6344 0
286.821 14.6731 0
288.025 10.3686 0
289.326 12.4919 0
288.09 14.6538 0
286.789 12.5305 0
288.057 12.5112 0
289.294 10.3492 0
291.831 10.3104 0
291.897 14.5956 0
289.359 14.6344 0
290.563 10.3298 0
291.864 12.453 0
290.628 14.6151 0
289.326 12.4919 0
290.595 12.4725 0
291.831 10.3104 0
294.369 10.2714 0
294.435 14.5566 0
291.897 14.5956 0
293.1 10.2909 0
294.402 12.414 0
293.166 14.5761 0
291.864 12.453 0
293.133 12.4336 0
294.369 10.2714 0
296.907 10.2322 0
296.973 14.5174 0
294.435 14.5566 0
295.638 10.2518 0
296.94 12.3748 0
295.704 14.537 0
294.402 12.414 0
295.671 12.3945 0
296.907 10.2322 0
299.444 10.1928 0
299.511 14.478 0
296.973 14.5174 0
298.175 10.2125 0
299.477 12.3354 0
298.242 14.4977 0
296.94 12.3748 0
298.209 12.3552 0
299.444 10.1928 0
301.982 10.1532 0
302.049 14.4384 0
299.511 14.478 0
300.713 10.173 0
302.015 12.2958 0
300.78 14.4582 0
299.477 12.3354 0
300.746 12.3157 0
301.982 10.1532 0
304.519 10.1135 0
304.587 14.3986 0
302.049 14.4384 0
303.251 10.1334 0
304.553 12.2561 0
303.318 14.4186 0
302.015 12.2958 0
303.284 12.276 0
304.519 10.1135 0
307.057 10.0735 0
307.124 14.3587 0
304.587 14.3986 0
305.788 10.0935 0
307.091 12.2161 0
305.855 14.3787 0
304.553 12.2561 0
305.822 12.2361 0
307.057 10.0735 0
309.595 10.0333 0
309.662 14.3185 0
307.124 14.3587 0
308.326 10.0534 0
309.628 12.176 0
308.393 14.3386 0
307.091 12.2161 0
308.36 12.1961 0
309.595 10.0333 0
312.132 9.99302 0
312.2 14.2782 0
309.662 14.3185 0
310.863 10.0132 0
312.166 12.1356 0
310.931 14.2984 0
309.628 12.176 0
310.897 12.1558 0
312.132 9.99302 0
314.67 9.95251 0
314.738 14.2377 0
312.2 14.2782 0
313.401 9.97279 0
314.704 12.0951 0
313.469 14.258 0
312.166 12.1356 0
313.435 12.1154 0
314.67 9.95251 0
317.207 9.91183 0
317.276 14.197 0
314.738 14.2377 0
315.939 9.93219 0
317.242 12.0544 0
316.007 14.2174 0
314.704 12.0951 0
315.973 12.0748 0
317.207 9.91183 0
319.745 9.87097 0
319.814 14.1561 0
317.276 14.197 0
318.476 9.89142 0
319.779 12.0136 0
318.545 14.1766 0
317.242 12.0544 0
318.511 12.034 0
319.745 9.87097 0
322.283 9.82994 0
322.352 14.1151 0
319.814 14.1561 0
321.014 9.85048 0
322.317 11.9725 0
321.083 14.1356 0
319.779 12.0136 0
321.048 11.9931 0
322.283 9.82994 0
324.82 9.78874 0
324.89 14.0739 0
322.352 14.1151 0
323.551 9.80936 0
324.855 11.9313 0
323.621 14.0945 0
322.317 11.9725 0
323.586 11.952 0
324.82 9.78874 0
327.358 9.74738 0
327.428 14.0325 0
324.89 14.0739 0
326.089 9.76808 0
327.393 11.89 0
326.159 14.0532 0
324.855 11.9313 0
326.124 11.9107 0
327.358 9.74738 0
329.895 9.70585 0
329.965 13.991 0
327.428 14.0325 0
328.627 9.72663 0
329.93 11.8484 0
328.697 14.0118 0
327.393 11.89 0
328.662 11.8692 0
329.895 9.70585 0
332.433 9.66415 0
332.503 13.9493 0
329.965 13.991 0
331.164 9.68502 0
332.468 11.8067 0
331.234 13.9702 0
329.93 11.8484 0
331.199 11.8276 0
332.433 9.66415 0
334.971 9.6223 0
335.041 13.9074 0
332.503 13.9493 0
333.702 9.64325 0
335.006 11.7649 0
333.772 13.9284 0
332.468 11.8067 0
333.737 11.7858 0
334.971 9.6223 0
337.508 9.58029 0
337.579 13.8654 0
335.041 13.9074 0
336.239 9.60131 0
337.544 11.7229 0
336.31 13.8864 0
335.006 11.7649 0
336.275 11.7439 0
337.508 9.58029 0
340.046 9.53812 0
340.117 13.8232 0
337.579 13.8654 0
338.777 9.55923 0
340.081 11.6807 0
338.848 13.8444 0
337.544 11.7229 0
338.812 11.7018 0
340.046 9.53812 0
342.583 9.49581 0
342.655 13.7809 0
340.117 13.8232 0
341.315 9.51698 0
342.619 11.6384 0
341.386 13.8021 0
340.081 11.6807 0
341.35 11.6596 0
342.583 9.49581 0
345.121 9.45334 0
345.193 13.7385 0
342.655 13.7809 0
343.852 9.47459 0
345.157 11.5959 0
343.924 13.7597 0
342.619 11.6384 0
343.888 11.6172 0
345.121 9.45334 0
347.658 9.41072 0
347.73 13.6958 0
345.193 13.7385 0
346.39 9.43205 0
347.694 11.5533 0
346.461 13.7172 0
345.157 11.5959 0
346.426 11.5746 0
347.658 9.41072 0
350.196 9.36796 0
350.268 13.6531 0
347.73 13.6958 0
348.927 9.38936 0
350.232 11.5105 0
348.999 13.6745 0
347.694 11.5533 0
348.963 11.5319 0
350.196 9.36796 0
352.734 9.32506 0
352.806 13.6102 0
350.268 13.6531 0
351.465 9.34653 0
352.77 11.4676 0
351.537 13.6316 0
350.232 11.5105 0
351.501 11.4891 0
352.734 9.32506 0
355.271 9.28201 0
355.344 13.5671 0
352.806 13.6102 0
354.002 9.30355 0
355.308 11.4246 0
354.075 13.5887 0
352.77 11.4676 0
354.039 11.4461 0
355.271 9.28201 0
357.809 9.23883 0
357.882 13.5239 0
355.344 13.5671 0
356.54 9.26044 0
357.845 11.3814 0
356.613 13.5455 0
355.308 11.4246 0
356.576 11.403 0
357.809 9.23883 0
360.346 9.19551 0
360.42 13.4806 0
357.882 13.5239 0
359.078 9.21719 0
360.383 11.3381 0
359.151 13.5023 0
357.845 11.3814 0
359.114 11.3597 0
360.346 9.19551 0
362.884 9.15206 0
362.957 13.4371 0
360.42 13.4806 0
361.615 9.1738 0
362.921 11.2946 0
361.688 13.4589 0
360.383 11.3381 0
361.652 11.3164 0
362.884 9.15206 0
365.422 9.10848 0
365.495 13.3936 0
362.957 13.4371 0
364.153 9.13028 0
365.458 11.251 0
364.226 13.4154 0
362.921 11.2946 0
364.19 11.2728 0
365.422 9.10848 0
367.959 9.06477 0
368.033 13.3498 0
365.495 13.3936 0
366.69 9.08664 0
367.996 11.2073 0
366.764 13.3717 0
365.458 11.251 0
366.727 11.2292 0
367.959 9.06477 0
370.497 9.02093 0
370.571 13.306 0
368.033 13.3498 0
369.228 9.04286 0
370.534 11.1635 0
369.302 13.3279 0
367.996 11.2073 0
369.265 11.1854 0
370.497 9.02093 0
373.034 8.97697 0
373.109 13.262 0
370.571 13.306 0
371.766 8.99896 0
373.071 11.1195 0
371.84 13.284 0
370.534 11.1635 0
371.803 11.1415 0
373.034 8.97697 0
375.572 8.93289 0
375.646 13.218 0
373.109 13.262 0
374.303 8.95494 0
375.609 11.0754 0
374.377 13.24 0
373.071 11.1195 0
374.34 11.0975 0
375.572 8.93289 0
378.11 8.88869 0
378.184 13.1738 0
375.646 13.218 0
376.841 8.9108 0
378.147 11.0312 0
376.915 13.1959 0
375.609 11.0754 0
376.878 11.0533 0
378.11 8.88869 0
380.647 8.84437 0
380.722 13.1294 0
378.184 13.1738 0
379.378 8.86654 0
380.685 10.9869 0
379.453 13.1516 0
378.147 11.0312 0
379.416 11.0091 0
380.647 8.84437 0
383.185 8.79994 0
383.26 13.085 0
380.722 13.1294 0
381.916 8.82217 0
383.222 10.9425 0
381.991 13.1072 0
380.685 10.9869 0
381.953 10.9647 0
383.185 8.79994 0
385.722 8.7554 0
385.797 13.0405 0
383.26 13.085 0
384.454 8.77769 0
385.76 10.8979 0
384.529 13.0627 0
383.222 10.9425 0
384.491 10.9202 0
385.722 8.7554 0
388.26 8.71075 0
388.335 12.9958 0
385.797 13.0405 0
386.991 8.73309 0
388.298 10.8533 0
387.066 13.0181 0
385.76 10.8979 0
387.029 10.8756 0
388.26 8.71075 0
390.797 8.66599 0
390.873 12.951 0
388.335 12.9958 0
389.529 8.68839 0
390.835 10.8085 0
389.604 12.9734 0
388.298 10.8533 0
389.566 10.8309 0
390.797 8.66599 0
393.335 8.62113 0
393.411 12.9062 0
390.873 12.951 0
392.066 8.64358 0
393.373 10.7637 0
392.142 12.9286 0
390.835 10.8085 0
392.104 10.7861 0
393.335 8.62113 0
395.873 8.57617 0
395.948 12.8612 0
393.411 12.9062 0
394.604 8.59866 0
395.911 10.7187 0
394.68 12.8837 0
393.373 10.7637 0
394.642 10.7412 0
395.873 8.57617 0
398.41 8.53111 0
398.486 12.8161 0
395.948 12.8612 0
397.141 8.55365 0
398.448 10.6736 0
397.217 12.8387 0
395.911 10.7187 0
397.179 10.6962 0
398.41 8.53111 0
400.948 8.48595 0
401.024 12.771 0
398.486 12.8161 0
399.679 8.50854 0
400.986 10.6285 0
399.755 12.7936 0
398.448 10.6736 0
399.717 10.6511 0
400.948 8.48595 0
403.485 8.4407 0
403.562 12.7257 0
401.024 12.771 0
402.217 8.46333 0
403.524 10.5832 0
402.293 12.7484 0
400.986 10.6285 0
402.255 10.6059 0
403.485 8.4407 0
406.023 8.39535 0
406.099 12.6804 0
403.562 12.7257 0
404.754 8.41803 0
406.061 10.5379 0
404.831 12.7031 0
403.524 10.5832 0
404.792 10.5606 0
406.023 8.39535 0
408.561 8.34991 0
408.637 12.6349 0
406.099 12.6804 0
407.292 8.37264 0
408.599 10.4924 0
407.368 12.6577 0
406.061 10.5379 0
407.33 10.5152 0
408.561 8.34991 0
411.098 8.30439 0
411.175 12.5894 0
408.637 12.6349 0
409.829 8.32716 0
411.137 10.4469 0
409.906 12.6122 0
408.599 10.4924 0
409.868 10.4697 0
411.098 8.30439 0
413.636 8.25879 0
413.713 12.5438 0
411.175 12.5894 0
412.367 8.2816 0
413.674 10.4013 0
412.444 12.5666 0
411.137 10.4469 0
412.405 10.4241 0
413.636 8.25879 0
416.173 8.2131 0
416.25 12.4981 0
413.713 12.5438 0
414.905 8.23595 0
416.212 10.3556 0
414.982 12.521 0
413.674 10.4013 0
414.943 10.3785 0
416.173 8.2131 0
418.711 8.16733 0
418.788 12.4523 0
416.25 12.4981 0
417.442 8.19022 0
418.75 10.3098 0
417.519 12.4752 0
416.212 10.3556 0
417.481 10.3327 0
418.711 8.16733 0
421.249 8.12148 0
421.326 12.4065 0
418.788 12.4523 0
419.98 8.14441 0
421.287 10.264 0
420.057 12.4294 0
418.75 10.3098 0
420.018 10.2869 0
421.249 8.12148 0
423.786 8.07556 0
423.864 12.3606 0
421.326 12.4065 0
422.517 8.09853 0
423.825 10.2181 0
422.595 12.3835 0
421.287 10.264 0
422.556 10.241 0
423.786 8.07556 0
426.324 8.02956 0
426.401 12.3146 0
423.864 12.3606 0
425.055 8.05257 0
426.363 10.1721 0
425.132 12.3376 0
423.825 10.2181 0
425.094 10.1951 0
426.324 8.02956 0
428.861 7.9835 0
428.939 12.2685 0
426.401 12.3146 0
427.593 8.00654 0
428.9 10.126 0
427.67 12.2916 0
426.363 10.1721 0
427.631 10.1491 0
428.861 7.9835 0
431.399 7.93737 0
431.477 12.2224 0
428.939 12.2685 0
430.13 7.96044 0
431.438 10.0799 0
430.208 12.2454 0
428.9 10.126 0
430.169 10.103 0
431.399 7.93737 0
433.937 7.89117 0
434.014 12.1762 0
431.477 12.2224 0
432.668 7.91427 0
433.975 10.0337 0
432.746 12.1993 0
431.438 10.0799 0
432.707 10.0568 0
433.937 7.89117 0
436.474 7.84491 0
436.552 12.1299 0
434.014 12.1762 0
435.205 7.86804 0
436.513 9.98741 0
435.283 12.153 0
433.975 10.0337 0
435.244 10.0106 0
436.474 7.84491 0
439.012 7.79858 0
439.09 12.0836 0
436.552 12.1299 0
437.743 7.82175 0
439.051 9.94109 0
437.821 12.1068 0
436.513 9.98741 0
437.782 9.96426 0
439.012 7.79858 0
441.549 7.7522 0
441.628 12.0372 0
439.09 12.0836 0
440.281 7.7754 0
441.588 9.89471 0
440.359 12.0604 0
439.051 9.94109 0
440.32 9.91791 0
441.549 7.7522 0
444.087 7.70577 0
444.165 11.9908 0
441.628 12.0372 0
442.818 7.72899 0
444.126 9.84827 0
442.896 12.014 0
441.588 9.89471 0
442.857 9.8715 0
444.087 7.70577 0
446.625 7.65928 0
446.703 11.9443 0
444.165 11.9908 0
445.356 7.68253 0
446.664 9.80178 0
445.434 11.9675 0
444.126 9.84827 0
445.395 9.82504 0
446.625 7.65928 0
449.162 7.61274 0
449.241 11.8977 0
446.703 11.9443 0
447.893 7.63602 0
449.201 9.75524 0
447.972 11.921 0
446.664 9.80178 0
447.933 9.77852 0
449.162 7.61274 0
451.7 7.56615 0
451.778 11.8511 0
449.241 11.8977 0
450.431 7.58945 0
451.739 9.70865 0
450.509 11.8744 0
449.201 9.75524 0
450.47 9.73195 0
451.7 7.56615 0
454.237 7.51952 0
454.316 11.8045 0
451.778 11.8511 0
452.969 7.54284 0
454.277 9.66202 0
453.047 11.8278 0
451.739 9.70865 0
453.008 9.68534 0
454.237 7.51952 0
456.775 7.47284 0
456.854 11.7578 0
454.316 11.8045 0
455.506 7.49618 0
456.814 9.61534 0
455.585 11.7812 0
454.277 9.66202 0
455.545 9.63868 0
456.775 7.47284 0
459.313 7.42612 0
459.391 11.7111 0
456.854 11.7578 0
458.044 7.44948 0
459.352 9.56862 0
458.122 11.7345 0
456.814 9.61534 0
458.083 9.59198 0
459.313 7.42612 0
461.85 7.37936 0
461.929 11.6644 0
459.391 11.7111 0
460.581 7.40275 0
461.89 9.52186 0
460.66 11.6877 0
459.352 9.56862 0
460.621 9.54525 0
461.85 7.37936 0
464.388 7.33257 0
464.467 11.6176 0
461.929 11.6644 0
463.119 7.35597 0
464.427 9.47507 0
463.198 11.641 0
461.89 9.52186 0
463.158 9.49847 0
464.388 7.33257 0
466.925 7.28574 0
467.004 11.5707 0
464.467 11.6176 0
465.657 7.30916 0
466.965 9.42824 0
465.735 11.5941 0
464.427 9.47507 0
465.696 9.45166 0
466.925 7.28574 0
469.463 7.23888 0
469.542 11.5239 0
467.004 11.5707 0
468.194 7.26231 0
469.503 9.38138 0
468.273 11.5473 0
466.965 9.42824 0
468.234 9.40481 0
469.463 7.23888 0
472.001 7.19199 0
472.08 11.477 0
469.542 11.5239 0
470.732 7.21544 0
472.04 9.33449 0
470.811 11.5004 0
469.503 9.38138 0
470.771 9.35794 0
472.001 7.19199 0
474.538 7.14508 0
474.617 11.4301 0
472.08 11.477 0
473.269 7.16854 0
474.578 9.28757 0
473.348 11.4535 0
472.04 9.33449 0
473.309 9.31103 0
474.538 7.14508 0
477.076 7.09814 0
477.155 11.3831 0
474.617 11.4301 0
475.807 7.12161 0
477.115 9.24063 0
475.886 11.4066 0
474.578 9.28757 0
475.847 9.2641 0
477.076 7.09814 0
479.613 7.05117 0
479.693 11.3362 0
477.155 11.3831 0
478.345 7.07466 0
479.653 9.19367 0
478.424 11.3596 0
477.115 9.24063 0
478.384 9.21715 0
479.613 7.05117 0
482.151 7.00419 0
482.23 11.2892 0
479.693 11.3362 0
480.882 7.02768 0
482.191 9.14668 0
480.961 11.3127 0
479.653 9.19367 0
480.922 9.17018 0
482.151 7.00419 0
484.689 6.95719 0
484.768 11.2422 0
482.23 11.2892 0
483.42 6.98069 0
484.728 9.09968 0
483.499 11.2657 0
482.191 9.14668 0
483.46 9.12319 0
484.689 6.95719 0
487.226 6.91018 0
487.306 11.1952 0
484.768 11.2422 0
485.958 6.93369 0
487.266 9.05267 0
486.037 11.2187 0
484.728 9.09968 0
485.997 9.07618 0
487.226 6.91018 0
489.764 6.86315 0
489.843 11.1481 0
487.306 11.1952 0
488.495 6.88666 0
489.804 9.00564 0
488.574 11.1716 0
487.266 9.05267 0
488.535 9.02916 0
489.764 6.86315 0
492.302 6.81611 0
492.381 11.1011 0
489.843 11.1481 0
491.033 6.83963 0
492.341 8.95861 0
491.112 11.1246 0
489.804 9.00564 0
491.072 8.98212 0
492.302 6.81611 0
494.839 6.76908 0
494.918 11.0541 0
492.381 11.1011 0
493.57 6.7926 0
494.879 8.91157 0
493.65 11.0776 0
492.341 8.95861 0
493.61 8.93509 0
494.839 6.76908 0
497.377 6.72205 0
497.456 11.007 0
494.918 11.0541 0
496.108 6.74556 0
497.417 8.86455 0
496.187 11.0305 0
494.879 8.91157 0
496.148 8.88806 0
497.377 6.72205 0
499.915 6.67505 0
499.994 10.96 0
497.456 11.007 0
498.646 6.69855 0
499.954 8.81755 0
498.725 10.9835 0
497.417 8.86455 0
498.685 8.84104 0
0 17.1429 0
2.53842 17.1429 0
2.53914 21.4285 0
0 21.4286 0
1.26921 17.143 0
2.53878 19.2857 0
1.26955 21.4286 0
0 19.2857 0
1.26938 19.2858 0
2.53842 17.1429 0
5.07687 17.1423 0
5.07835 21.4277 0
2.53914 21.4285 0
3.80764 17.1427 0
5.0776 19.2851 0
3.80874 21.4282 0
2.53878 19.2857 0
3.80818 19.2855 0
5.07687 17.1423 0
7.61533 17.1411 0
7.61762 21.4265 0
5.07835 21.4277 0
6.3461 17.1418 0
7.61646 19.2839 0
6.34798 21.4272 0
5.0776 19.2851 0
6.34703 19.2845 0
7.61533 17.1411 0
10.1538 17.1395 0
10.1569 21.4248 0
7.61762 21.4265 0
8.88457 17.1404 0
10.1553 19.2822 0
8.88725 21.4257 0
7.61646 19.2839 0
8.8859 19.2831 0
10.1538 17.1395 0
12.6923 17.1373 0
12.6962 21.4226 0
10.1569 21.4248 0
11.423 17.1384 0
12.6942 19.28 0
11.4265 21.4237 0
10.1553 19.2822 0
11.4248 19.2811 0
12.6923 17.1373 0
15.2307 17.1346 0
15.2354 21.4199 0
12.6962 21.4226 0
13.9615 17.136 0
15.2331 19.2773 0
13.9658 21.4213 0
12.6942 19.28 0
13.9636 19.2787 0
15.2307 17.1346 0
17.7692 17.1315 0
17.7747 21.4168 0
15.2354 21.4199 0
16.5 17.1331 0
17.7719 19.2742 0
16.505 21.4184 0
15.2331 19.2773 0
16.5025 19.2758 0
17.7692 17.1315 0
20.3077 17.1279 0
20.3139 21.4133 0
17.7747 21.4168 0
19.0384 17.1298 0
20.3108 19.2706 0
19.0443 21.4151 0
17.7719 19.2742 0
19.0414 19.2725 0
20.3077 17.1279 0
22.8461 17.1239 0
22.8531 21.4092 0
20.3139 21.4133 0
21.5769 17.126 0
22.8496 19.2666 0
21.5835 21.4113 0
20.3108 19.2706 0
21.5802 19.2687 0
22.8461 17.1239 0
25.3846 17.1194 0
25.3923 21.4047 0
22.8531 21.4092 0
24.1153 17.1217 0
25.3885 19.2621 0
24.1227 21.407 0
22.8496 19.2666 0
24.119 19.2644 0
25.3846 17.1194 0
27.923 17.1145 0
27.9316 21.3998 0
25.3923 21.4047 0
26.6538 17.117 0
27.9273 19.2572 0
26.662 21.4023 0
25.3885 19.2621 0
26.6579 19.2597 0
27.923 17.1145 0
30.4615 17.1091 0
30.4708 21.3944 0
27.9316 21.3998 0
29.1922 17.1119 0
30.4661 19.2518 0
29.2012 21.3972 0
27.9273 19.2572 0
29.1967 19.2546 0
30.4615 17.1091 0
32.9999 17.1033 0
33.01 21.3886 0
30.4708 21.3944 0
31.7307 17.1062 0
33.0049 19.246 0
31.7404 21.3916 0
30.4661 19.2518 0
31.7355 19.249 0
32.9999 17.1033 0
35.5383 17.097 0
35.5491 21.3823 0
33.01 21.3886 0
34.2691 17.1002 0
35.5437 19.2397 0
34.2795 21.3855 0
33.0049 19.246 0
34.2743 19.2429 0
35.5383 17.097 0
38.0768 17.0903 0
38.0883 21.3756 0
35.5491 21.3823 0
36.8076 17.0937 0
38.0825 19.233 0
36.8187 21.379 0
35.5437 19.2397 0
36.8131 19.2364 0
38.0768 17.0903 0
40.6152 17.0831 0
40.6275 21.3684 0
38.0883 21.3756 0
39.346 17.0867 0
40.6213 19.2258 0
39.3579 21.3721 0
38.0825 19.233 0
39.3519 19.2295 0
40.6152 17.0831 0
43.1536 17.0755 0
43.1667 21.3608 0
40.6275 21.3684 0
41.8844 17.0794 0
43.1601 19.2182 0
41.8971 21.3647 0
40.6213 19.2258 0
41.8907 19.2221 0
43.1536 17.0755 0
45.6921 17.0675 0
45.7058 21.3528 0
43.1667 21.3608 0
44.4228 17.0715 0
45.6989 19.2102 0
44.4362 21.3569 0
43.1601 19.2182 0
44.4295 19.2142 0
45.6921 17.0675 0
48.2305 17.059 0
48.245 21.3443 0
45.7058 21.3528 0
46.9613 17.0633 0
48.2377 19.2017 0
46.9754 21.3486 0
45.6989 19.2102 0
46.9683 19.206 0
48.2305 17.059 0
50.7689 17.0501 0
50.7841 21.3354 0
48.245 21.3443 0
49.4997 17.0546 0
50.7765 19.1928 0
49.5145 21.3399 0
48.2377 19.2017 0
49.5071 19.1973 0
50.7689 17.0501 0
53.3073 17.0408 0
53.3232 21.3261 0
50.7841 21.3354 0
52.0381 17.0455 0
53.3153 19.1835 0
52.0537 21.3308 0
50.7765 19.1928 0
52.0459 19.1882 0
53.3073 17.0408 0
55.8457 17.031 0
55.8624 21.3163 0
53.3232 21.3261 0
54.5765 17.0359 0
55.854 19.1737 0
54.5928 21.3213 0
53.3153 19.1835 0
54.5847 19.1786 0
55.8457 17.031 0
58.3841 17.0208 0
58.4015 21.3061 0
55.8624 21.3163 0
57.1149 17.026 0
58.3928 19.1635 0
57.1319 21.3113 0
55.854 19.1737 0
57.1234 19.1687 0
58.3841 17.0208 0
60.9225 17.0102 0
60.9406 21.2955 0
58.4015 21.3061 0
59.6533 17.0156 0
60.9316 19.1529 0
59.6711 21.3009 0
58.3928 19.1635 0
59.6622 19.1583 0
60.9225 17.0102 0
63.4609 16.9992 0
63.4797 21.2845 0
60.9406 21.2955 0
62.1917 17.0048 0
63.4703 19.1419 0
62.2102 21.2901 0
60.9316 19.1529 0
62.2009 19.1475 0
63.4609 16.9992 0
65.9993 16.9878 0
66.0188 21.2731 0
63.4797 21.2845 0
64.7301 16.9935 0
66.0091 19.1305 0
64.7493 21.2788 0
63.4703 19.1419 0
64.7397 19.1362 0
65.9993 16.9878 0
68.5377 16.9759 0
68.5579 21.2612 0
66.0188 21.2731 0
67.2685 16.9819 0
68.5478 19.1186 0
67.2884 21.2672 0
66.0091 19.1305 0
67.2784 19.1246 0
68.5377 16.9759 0
71.0761 16.9636 0
71.097 21.249 0
68.5579 21.2612 0
69.8069 16.9698 0
71.0865 19.1063 0
69.8274 21.2551 0
68.5478 19.1186 0
69.8172 19.1125 0
71.0761 16.9636 0
73.6145 16.951 0
73.6361 21.2363 0
71.097 21.249 0
72.3453 16.9574 0
73.6253 19.0937 0
72.3665 21.2427 0
71.0865 19.1063 0
72.3559 19.1001 0
73.6145 16.951 0
76.1529 16.9379 0
76.1751 21.2232 0
73.6361 21.2363 0
74.8837 16.9445 0
76.164 19.0806 0
74.9056 21.2298 0
73.6253 19.0937 0
74.8946 19.0872 0
76.1529 16.9379 0
78.6912 16.9244 0
78.7142 21.2097 0
76.1751 21.2232 0
77.4221 16.9312 0
78.7027 19.0671 0
77.4446 21.2165 0
76.164 19.0806 0
77.4333 19.0739 0
78.6912 16.9244 0
81.2296 16.9105 0
81.2532 21.1958 0
78.7142 21.2097 0
79.9604 16.9175 0
81.2414 19.0532 0
79.9837 21.2028 0
78.7027 19.0671 0
79.9721 19.0602 0
81.2296 16.9105 0
83.768 16.8962 0
83.7923 21.1815 0
81.2532 21.1958 0
82.4988 16.9034 0
83.7801 19.0389 0
82.5227 21.1887 0
81.2414 19.0532 0
82.5108 19.0461 0
83.768 16.8962 0
86.3063 16.8816 0
86.3313 21.1669 0
83.7923 21.1815 0
85.0372 16.8889 0
86.3188 19.0242 0
85.0618 21.1742 0
83.7801 19.0389 0
85.0495 19.0316 0
86.3063 16.8816 0
88.8447 16.8665 0
88.8703 21.1518 0
86.3313 21.1669 0
87.5755 16.8741 0
88.8575 19.0092 0
87.6008 21.1594 0
86.3188 19.0242 0
87.5882 19.0168 0
88.8447 16.8665 0
91.383 16.851 0
91.4093 21.1363 0
88.8703 21.1518 0
90.1139 16.8588 0
91.3962 18.9937 0
90.1398 21.1441 0
88.8575 19.0092 0
90.1268 19.0015 0
91.383 16.851 0
93.9214 16.8351 0
93.9483 21.1204 0
91.4093 21.1363 0
92.6522 16.8431 0
93.9349 18.9778 0
92.6788 21.1284 0
91.3962 18.9937 0
92.6655 18.9858 0
93.9214 16.8351 0
96.4597 16.8189 0
96.4873 21.1042 0
93.9483 21.1204 0
95.1906 16.8271 0
96.4735 18.9616 0
95.2178 21.1124 0
93.9349 18.9778 0
95.2042 18.9698 0
96.4597 16.8189 0
98.9981 16.8023 0
99.0263 21.0875 0
96.4873 21.1042 0
97.7289 16.8106 0
99.0122 18.9449 0
97.7568 21.0959 0
96.4735 18.9616 0
97.7429 18.9533 0
98.9981 16.8023 0
101.536 16.7852 0
101.565 21.0705 0
99.0263 21.0875 0
100.267 16.7938 0
101.551 18.9279 0
100.296 21.0791 0
99.0122 18.9449 0
100.282 18.9365 0
101.536 16.7852 0
104.075 16.7678 0
104.104 21.0531 0
101.565 21.0705 0
102.806 16.7766 0
104.09 18.9105 0
102.835 21.0619 0
101.551 18.9279 0
102.82 18.9193 0
104.075 16.7678 0
106.613 16.7501 0
106.643 21.0354 0
104.104 21.0531 0
105.344 16.759 0
106.628 18.8928 0
105.374 21.0443 0
104.09 18.9105 0
105.359 18.9017 0
106.613 16.7501 0
109.151 16.7319 0
109.182 21.0172 0
106.643 21.0354 0
107.882 16.741 0
109.167 18.8746 0
107.913 21.0263 0
106.628 18.8928 0
107.897 18.8837 0
109.151 16.7319 0
111.69 16.7134 0
111.721 20.9987 0
109.182 21.0172 0
110.421 16.7227 0
111.705 18.8561 0
110.452 21.008 0
109.167 18.8746 0
110.436 18.8654 0
111.69 16.7134 0
114.228 16.6945 0
114.26 20.9798 0
111.721 20.9987 0
112.959 16.704 0
114.244 18.8372 0
112.991 20.9893 0
111.705 18.8561 0
112.975 18.8467 0
114.228 16.6945 0
116.766 16.6752 0
116.799 20.9605 0
114.26 20.9798 0
115.497 16.6849 0
116.783 18.8179 0
115.53 20.9702 0
114.244 18.8372 0
115.513 18.8276 0
116.766 16.6752 0
119.305 16.6556 0
119.338 20.9409 0
116.799 20.9605 0
118.035 16.6655 0
119.321 18.7983 0
118.068 20.9507 0
116.783 18.8179 0
118.052 18.8082 0
119.305 16.6556 0
121.843 16.6356 0
121.877 20.9209 0
119.338 20.9409 0
120.574 16.6457 0
121.86 18.7783 0
120.607 20.9309 0
119.321 18.7983 0
120.591 18.7883 0
121.843 16.6356 0
124.381 16.6153 0
124.416 20.9005 0
121.877 20.9209 0
123.112 16.6255 0
124.398 18.7579 0
123.146 20.9108 0
121.86 18.7783 0
123.129 18.7682 0
124.381 16.6153 0
126.92 16.5946 0
126.955 20.8798 0
124.416 20.9005 0
125.65 16.605 0
126.937 18.7372 0
125.685 20.8902 0
124.398 18.7579 0
125.668 18.7476 0
126.92 16.5946 0
129.458 16.5735 0
129.493 20.8588 0
126.955 20.8798 0
128.189 16.5841 0
129.476 18.7162 0
128.224 20.8693 0
126.937 18.7372 0
128.206 18.7267 0
129.458 16.5735 0
131.996 16.5521 0
132.032 20.8373 0
129.493 20.8588 0
130.727 16.5628 0
132.014 18.6947 0
130.763 20.8481 0
129.476 18.7162 0
130.745 18.7055 0
131.996 16.5521 0
134.534 16.5303 0
134.571 20.8156 0
132.032 20.8373 0
133.265 16.5412 0
134.553 18.673 0
133.302 20.8265 0
132.014 18.6947 0
133.284 18.6839 0
134.534 16.5303 0
137.073 16.5082 0
137.11 20.7934 0
134.571 20.8156 0
135.803 16.5193 0
137.091 18.6509 0
135.841 20.8045 0
134.553 18.673 0
135.822 18.662 0
137.073 16.5082 0
139.611 16.4857 0
139.649 20.771 0
137.11 20.7934 0
138.342 16.497 0
139.63 18.6284 0
138.38 20.7822 0
137.091 18.6509 0
138.361 18.6397 0
139.611 16.4857 0
142.149 16.4629 0
142.188 20.7482 0
139.649 20.771 0
140.88 16.4744 0
142.168 18.6056 0
140.918 20.7596 0
139.63 18.6284 0
140.899 18.617 0
142.149 16.4629 0
144.687 16.4398 0
144.727 20.725 0
142.188 20.7482 0
143.418 16.4514 0
144.707 18.5824 0
143.457 20.7366 0
142.168 18.6056 0
143.438 18.594 0
144.687 16.4398 0
147.226 16.4163 0
147.265 20.7015 0
144.727 20.725 0
145.957 16.4281 0
147.246 18.5589 0
145.996 20.7133 0
144.707 18.5824 0
145.976 18.5707 0
147.226 16.4163 0
149.764 16.3924 0
149.804 20.6777 0
147.265 20.7015 0
148.495 16.4044 0
149.784 18.5351 0
148.535 20.6896 0
147.246 18.5589 0
148.515 18.5471 0
149.764 16.3924 0
152.302 16.3683 0
152.343 20.6535 0
149.804 20.6777 0
151.033 16.3804 0
152.323 18.5109 0
151.074 20.6656 0
149.784 18.5351 0
151.053 18.5231 0
152.302 16.3683 0
154.84 16.3438 0
154.882 20.629 0
152.343 20.6535 0
153.571 16.3561 0
154.861 18.4864 0
153.612 20.6413 0
152.323 18.5109 0
153.592 18.4987 0
154.84 16.3438 0
157.379 16.319 0
157.421 20.6042 0
154.882 20.629 0
156.109 16.3314 0
157.4 18.4616 0
156.151 20.6166 0
154.861 18.4864 0
156.13 18.4741 0
157.379 16.319 0
159.917 16.2938 0
159.959 20.579 0
157.421 20.6042 0
158.648 16.3064 0
159.938 18.4365 0
158.69 20.5917 0
157.4 18.4616 0
158.669 18.4491 0
159.917 16.2938 0
162.455 16.2683 0
162.498 20.5536 0
159.959 20.579 0
161.186 16.2811 0
162.477 18.411 0
161.229 20.5663 0
159.938 18.4365 0
161.207 18.4238 0
162.455 16.2683 0
164.993 16.2425 0
165.037 20.5278 0
162.498 20.5536 0
163.724 16.2555 0
165.015 18.3852 0
163.767 20.5407 0
162.477 18.411 0
163.746 18.3981 0
164.993 16.2425 0
167.531 16.2164 0
167.576 20.5016 0
165.037 20.5278 0
166.262 16.2295 0
167.554 18.3591 0
166.306 20.5147 0
165.015 18.3852 0
166.284 18.3722 0
167.531 16.2164 0
170.07 16.19 0
170.114 20.4752 0
167.576 20.5016 0
168.801 16.2033 0
170.092 18.3326 0
168.845 20.4885 0
167.554 18.3591 0
168.823 18.3459 0
170.07 16.19 0
172.608 16.1633 0
172.653 20.4485 0
170.114 20.4752 0
171.339 16.1767 0
172.63 18.3059 0
171.384 20.4619 0
170.092 18.3326 0
171.361 18.3193 0
172.608 16.1633 0
175.146 16.1362 0
175.192 20.4214 0
172.653 20.4485 0
173.877 16.1498 0
175.169 18.2788 0
173.922 20.435 0
172.63 18.3059 0
173.9 18.2924 0
175.146 16.1362 0
177.684 16.1088 0
177.73 20.394 0
175.192 20.4214 0
176.415 16.1225 0
177.707 18.2515 0
176.461 20.4077 0
175.169 18.2788 0
176.438 18.2652 0
177.684 16.1088 0
180.222 16.0811 0
180.269 20.3663 0
177.73 20.394 0
178.953 16.095 0
180.246 18.2238 0
179 20.3802 0
177.707 18.2515 0
178.977 18.2377 0
180.222 16.0811 0
182.761 16.0532 0
182.808 20.3384 0
180.269 20.3663 0
181.491 16.0672 0
182.784 18.1958 0
181.539 20.3524 0
180.246 18.2238 0
181.515 18.2098 0
182.761 16.0532 0
185.299 16.0249 0
185.347 20.3101 0
182.808 20.3384 0
184.03 16.0391 0
185.323 18.1675 0
184.077 20.3242 0
182.784 18.1958 0
184.053 18.1817 0
185.299 16.0249 0
187.837 15.9963 0
187.885 20.2815 0
185.347 20.3101 0
186.568 16.0106 0
187.861 18.1389 0
186.616 20.2958 0
185.323 18.1675 0
186.592 18.1532 0
187.837 15.9963 0
190.375 15.9674 0
190.424 20.2526 0
187.885 20.2815 0
189.106 15.9819 0
190.399 18.11 0
189.155 20.2671 0
187.861 18.1389 0
189.13 18.1245 0
190.375 15.9674 0
192.913 15.9382 0
192.963 20.2234 0
190.424 20.2526 0
191.644 15.9529 0
192.938 18.0809 0
191.693 20.238 0
190.399 18.11 0
191.669 18.0955 0
192.913 15.9382 0
195.451 15.9088 0
195.501 20.1939 0
192.963 20.2234 0
194.182 15.9235 0
195.476 18.0514 0
194.232 20.2087 0
192.938 18.0809 0
194.207 18.0662 0
195.451 15.9088 0
197.989 15.879 0
198.04 20.1642 0
195.501 20.1939 0
196.72 15.8939 0
198.015 18.0216 0
196.77 20.1791 0
195.476 18.0514 0
196.745 18.0365 0
197.989 15.879 0
200.528 15.8489 0
200.578 20.1341 0
198.04 20.1642 0
199.259 15.864 0
200.553 17.9916 0
199.309 20.1492 0
198.015 18.0216 0
199.284 18.0066 0
200.528 15.8489 0
203.066 15.8186 0
203.117 20.1038 0
200.578 20.1341 0
201.797 15.8338 0
203.091 17.9612 0
201.848 20.119 0
200.553 17.9916 0
201.822 17.9764 0
203.066 15.8186 0
205.604 15.788 0
205.656 20.0731 0
203.117 20.1038 0
204.335 15.8033 0
205.63 17.9306 0
204.386 20.0885 0
203.091 17.9612 0
204.361 17.9459 0
205.604 15.788 0
208.142 15.7571 0
208.194 20.0422 0
205.656 20.0731 0
206.873 15.7726 0
208.168 17.8997 0
206.925 20.0577 0
205.63 17.9306 0
206.899 17.9152 0
208.142 15.7571 0
210.68 15.7259 0
210.733 20.0111 0
208.194 20.0422 0
209.411 15.7415 0
210.706 17.8685 0
209.464 20.0267 0
208.168 17.8997 0
209.437 17.8841 0
210.68 15.7259 0
213.218 15.6945 0
213.271 19.9796 0
210.733 20.0111 0
211.949 15.7102 0
213.245 17.8371 0
212.002 19.9954 0
210.706 17.8685 0
211.976 17.8528 0
213.218 15.6945 0
215.756 15.6627 0
215.81 19.9479 0
213.271 19.9796 0
214.487 15.6786 0
215.783 17.8053 0
214.541 19.9638 0
213.245 17.8371 0
214.514 17.8212 0
215.756 15.6627 0
218.294 15.6307 0
218.348 19.9159 0
215.81 19.9479 0
217.025 15.6468 0
218.321 17.7733 0
217.079 19.9319 0
215.783 17.8053 0
217.052 17.7894 0
218.294 15.6307 0
220.832 15.5985 0
220.887 19.8836 0
218.348 19.9159 0
219.563 15.6146 0
220.86 17.7411 0
219.618 19.8998 0
218.321 17.7733 0
219.591 17.7572 0
220.832 15.5985 0
223.371 15.5659 0
223.426 19.8511 0
220.887 19.8836 0
222.102 15.5822 0
223.398 17.7085 0
222.156 19.8674 0
220.86 17.7411 0
222.129 17.7248 0
223.371 15.5659 0
225.909 15.5331 0
225.964 19.8183 0
223.426 19.8511 0
224.64 15.5496 0
225.936 17.6757 0
224.695 19.8347 0
223.398 17.7085 0
224.667 17.6921 0
225.909 15.5331 0
228.447 15.5001 0
228.503 19.7852 0
225.964 19.8183 0
227.178 15.5166 0
228.475 17.6427 0
227.233 19.8018 0
225.936 17.6757 0
227.206 17.6592 0
228.447 15.5001 0
230.985 15.4667 0
231.041 19.7519 0
228.503 19.7852 0
229.716 15.4834 0
231.013 17.6093 0
229.772 19.7686 0
228.475 17.6427 0
229.744 17.626 0
230.985 15.4667 0
233.523 15.4332 0
233.58 19.7183 0
231.041 19.7519 0
232.254 15.45 0
233.551 17.5758 0
232.31 19.7351 0
231.013 17.6093 0
232.282 17.5926 0
233.523 15.4332 0
236.061 15.3993 0
236.118 19.6844 0
233.58 19.7183 0
234.792 15.4163 0
236.09 17.5419 0
234.849 19.7014 0
233.551 17.5758 0
234.82 17.5589 0
236.061 15.3993 0
238.599 15.3652 0
238.657 19.6504 0
236.118 19.6844 0
237.33 15.3823 0
238.628 17.5078 0
237.387 19.6674 0
236.09 17.5419 0
237.359 17.5249 0
238.599 15.3652 0
241.137 15.3309 0
241.195 19.616 0
238.657 19.6504 0
239.868 15.3481 0
241.166 17.4735 0
239.926 19.6332 0
238.628 17.5078 0
239.897 17.4907 0
241.137 15.3309 0
243.675 15.2963 0
243.733 19.5814 0
241.195 19.616 0
242.406 15.3137 0
243.704 17.4389 0
242.464 19.5988 0
241.166 17.4735 0
242.435 17.4562 0
243.675 15.2963 0
246.213 15.2615 0
246.272 19.5466 0
243.733 19.5814 0
244.944 15.279 0
246.243 17.4041 0
245.003 19.5641 0
243.704 17.4389 0
244.973 17.4215 0
246.213 15.2615 0
248.751 15.2264 0
248.81 19.5115 0
246.272 19.5466 0
247.482 15.244 0
248.781 17.369 0
247.541 19.5291 0
246.243 17.4041 0
247.512 17.3866 0
248.751 15.2264 0
251.289 15.1911 0
251.349 19.4762 0
248.81 19.5115 0
250.02 15.2088 0
251.319 17.3337 0
250.08 19.4939 0
248.781 17.369 0
250.05 17.3514 0
251.289 15.1911 0
253.827 15.1556 0
253.887 19.4407 0
251.349 19.4762 0
252.558 15.1734 0
253.857 17.2982 0
252.618 19.4585 0
251.319 17.3337 0
252.588 17.316 0
253.827 15.1556 0
256.365 15.1198 0
256.426 19.4049 0
253.887 19.4407 0
255.096 15.1377 0
256.395 17.2624 0
255.156 19.4228 0
253.857 17.2982 0
255.126 17.2803 0
256.365 15.1198 0
258.903 15.0838 0
258.964 19.3689 0
256.426 19.4049 0
257.634 15.1018 0
258.934 17.2264 0
257.695 19.3869 0
256.395 17.2624 0
257.665 17.2444 0
258.903 15.0838 0
261.441 15.0476 0
261.502 19.3327 0
258.964 19.3689 0
260.172 15.0657 0
261.472 17.1901 0
260.233 19.3508 0
258.934 17.2264 0
260.203 17.2083 0
261.441 15.0476 0
263.979 15.0111 0
264.041 19.2962 0
261.502 19.3327 0
262.71 15.0294 0
264.01 17.1537 0
262.772 19.3144 0
261.472 17.1901 0
262.741 17.1719 0
263.979 15.0111 0
266.517 14.9744 0
266.579 19.2595 0
264.041 19.2962 0
265.248 14.9928 0
266.548 17.117 0
265.31 19.2779 0
264.01 17.1537 0
265.279 17.1353 0
266.517 14.9744 0
269.055 14.9375 0
269.118 19.2226 0
266.579 19.2595 0
267.786 14.956 0
269.086 17.0801 0
267.848 19.2411 0
266.548 17.117 0
267.817 17.0985 0
269.055 14.9375 0
271.593 14.9004 0
271.656 19.1854 0
269.118 19.2226 0
270.324 14.919 0
271.625 17.0429 0
270.387 19.204 0
269.086 17.0801 0
270.355 17.0615 0
271.593 14.9004 0
274.131 14.863 0
274.194 19.1481 0
271.656 19.1854 0
272.862 14.8817 0
274.163 17.0056 0
272.925 19.1668 0
271.625 17.0429 0
272.894 17.0243 0
274.131 14.863 0
276.669 14.8254 0
276.733 19.1105 0
274.194 19.1481 0
275.4 14.8442 0
276.701 16.968 0
275.463 19.1293 0
274.163 17.0056 0
275.432 16.9868 0
276.669 14.8254 0
279.207 14.7877 0
279.271 19.0727 0
276.733 19.1105 0
277.938 14.8066 0
279.239 16.9302 0
278.002 19.0916 0
276.701 16.968 0
277.97 16.9491 0
279.207 14.7877 0
281.745 14.7497 0
281.809 19.0347 0
279.271 19.0727 0
280.476 14.7687 0
281.777 16.8922 0
280.54 19.0537 0
279.239 16.9302 0
280.508 16.9112 0
281.745 14.7497 0
284.283 14.7115 0
284.348 18.9965 0
281.809 19.0347 0
283.014 14.7306 0
284.315 16.854 0
283.078 19.0156 0
281.777 16.8922 0
283.046 16.8731 0
284.283 14.7115 0
286.821 14.6731 0
286.886 18.9581 0
284.348 18.9965 0
285.552 14.6923 0
286.853 16.8156 0
285.617 18.9773 0
284.315 16.854 0
285.584 16.8348 0
286.821 14.6731 0
289.359 14.6344 0
289.424 18.9195 0
286.886 18.9581 0
288.09 14.6538 0
289.392 16.777 0
288.155 18.9388 0
286.853 16.8156 0
288.122 16.7963 0
289.359 14.6344 0
291.897 14.5956 0
291.962 18.8807 0
289.424 18.9195 0
290.628 14.6151 0
291.93 16.7382 0
290.693 18.9001 0
289.392 16.777 0
290.661 16.7576 0
291.897 14.5956 0
294.435 14.5566 0
294.501 18.8417 0
291.962 18.8807 0
293.166 14.5761 0
294.468 16.6992 0
293.232 18.8612 0
291.93 16.7382 0
293.199 16.7187 0
294.435 14.5566 0
296.973 14.5174 0
297.039 18.8024 0
294.501 18.8417 0
295.704 14.537 0
297.006 16.66 0
295.77 18.8221 0
294.468 16.6992 0
295.737 16.6796 0
296.973 14.5174 0
299.511 14.478 0
299.577 18.763 0
297.039 18.8024 0
298.242 14.4977 0
299.544 16.6206 0
298.308 18.7828 0
297.006 16.66 0
298.275 16.6403 0
299.511 14.478 0
302.049 14.4384 0
302.115 18.7235 0
299.577 18.763 0
300.78 14.4582 0
302.082 16.581 0
300.846 18.7433 0
299.544 16.6206 0
300.813 16.6008 0
302.049 14.4384 0
304.587 14.3986 0
304.654 18.6837 0
302.115 18.7235 0
303.318 14.4186 0
304.62 16.5412 0
303.385 18.7036 0
302.082 16.581 0
303.351 16.5611 0
304.587 14.3986 0
307.124 14.3587 0
307.192 18.6437 0
304.654 18.6837 0
305.855 14.3787 0
307.158 16.5012 0
305.923 18.6637 0
304.62 16.5412 0
305.889 16.5212 0
307.124 14.3587 0
309.662 14.3185 0
309.73 18.6035 0
307.192 18.6437 0
308.393 14.3386 0
309.696 16.4611 0
308.461 18.6236 0
307.158 16.5012 0
308.427 16.4812 0
309.662 14.3185 0
312.2 14.2782 0
312.268 18.5632 0
309.73 18.6035 0
310.931 14.2984 0
312.234 16.4207 0
310.999 18.5834 0
309.696 16.4611 0
310.965 16.4409 0
312.2 14.2782 0
314.738 14.2377 0
314.807 18.5227 0
312.268 18.5632 0
313.469 14.258 0
314.772 16.3802 0
313.537 18.543 0
312.234 16.4207 0
313.503 16.4005 0
314.738 14.2377 0
317.276 14.197 0
317.345 18.482 0
314.807 18.5227 0
316.007 14.2174 0
317.31 16.3395 0
316.076 18.5024 0
314.772 16.3802 0
316.041 16.3599 0
317.276 14.197 0
319.814 14.1561 0
319.883 18.4411 0
317.345 18.482 0
318.545 14.1766 0
319.848 16.2987 0
318.614 18.4616 0
317.31 16.3395 0
318.579 16.3191 0
319.814 14.1561 0
322.352 14.1151 0
322.421 18.4001 0
319.883 18.4411 0
321.083 14.1356 0
322.386 16.2576 0
321.152 18.4206 0
319.848 16.2987 0
321.117 16.2782 0
322.352 14.1151 0
324.89 14.0739 0
324.959 18.3589 0
322.421 18.4001 0
323.621 14.0945 0
324.924 16.2164 0
323.69 18.3795 0
322.386 16.2576 0
323.655 16.237 0
324.89 14.0739 0
327.428 14.0325 0
327.497 18.3175 0
324.959 18.3589 0
326.159 14.0532 0
327.462 16.175 0
326.228 18.3382 0
324.924 16.2164 0
326.193 16.1957 0
327.428 14.0325 0
329.965 13.991 0
330.036 18.276 0
327.497 18.3175 0
328.697 14.0118 0
330 16.1335 0
328.766 18.2968 0
327.462 16.175 0
328.731 16.1543 0
329.965 13.991 0
332.503 13.9493 0
332.574 18.2343 0
330.036 18.276 0
331.234 13.9702 0
332.538 16.0918 0
331.305 18.2552 0
330 16.1335 0
331.269 16.1127 0
332.503 13.9493 0
335.041 13.9074 0
335.112 18.1924 0
332.574 18.2343 0
333.772 13.9284 0
335.076 16.0499 0
333.843 18.2134 0
332.538 16.0918 0
333.807 16.0709 0
335.041 13.9074 0
337.579 13.8654 0
337.65 18.1504 0
335.112 18.1924 0
336.31 13.8864 0
337.614 16.0079 0
336.381 18.1714 0
335.076 16.0499 0
336.345 16.029 0
337.579 13.8654 0
340.117 13.8232 0
340.188 18.1082 0
337.65 18.1504 0
338.848 13.8444 0
340.152 15.9658 0
338.919 18.1293 0
337.614 16.0079 0
338.883 15.9869 0
340.117 13.8232 0
342.655 13.7809 0
342.726 18.0659 0
340.188 18.1082 0
341.386 13.8021 0
342.69 15.9234 0
341.457 18.0871 0
340.152 15.9658 0
341.421 15.9446 0
342.655 13.7809 0
345.193 13.7385 0
345.264 18.0234 0
342.726 18.0659 0
343.924 13.7597 0
345.228 15.881 0
343.995 18.0447 0
342.69 15.9234 0
343.959 15.9022 0
345.193 13.7385 0
347.73 13.6958 0
347.802 17.9808 0
345.264 18.0234 0
346.461 13.7172 0
347.766 15.8383 0
346.533 18.0021 0
345.228 15.881 0
346.497 15.8597 0
347.73 13.6958 0
350.268 13.6531 0
350.34 17.9381 0
347.802 17.9808 0
348.999 13.6745 0
350.304 15.7956 0
349.071 17.9595 0
347.766 15.8383 0
349.035 15.817 0
350.268 13.6531 0
352.806 13.6102 0
352.878 17.8951 0
350.34 17.9381 0
351.537 13.6316 0
352.842 15.7527 0
351.609 17.9166 0
350.304 15.7956 0
351.573 15.7741 0
352.806 13.6102 0
355.344 13.5671 0
355.417 17.8521 0
352.878 17.8951 0
354.075 13.5887 0
355.38 15.7096 0
354.147 17.8736 0
352.842 15.7527 0
354.111 15.7312 0
355.344 13.5671 0
357.882 13.5239 0
357.955 17.8089 0
355.417 17.8521 0
356.613 13.5455 0
357.918 15.6664 0
356.686 17.8305 0
355.38 15.7096 0
356.649 15.688 0
357.882 13.5239 0
360.42 13.4806 0
360.493 17.7656 0
357.955 17.8089 0
359.151 13.5023 0
360.456 15.6231 0
359.224 17.7873 0
357.918 15.6664 0
359.187 15.6448 0
360.42 13.4806 0
362.957 13.4371 0
363.031 17.7221 0
360.493 17.7656 0
361.688 13.4589 0
362.994 15.5796 0
361.762 17.7439 0
360.456 15.6231 0
361.725 15.6014 0
362.957 13.4371 0
365.495 13.3936 0
365.569 17.6785 0
363.031 17.7221 0
364.226 13.4154 0
365.532 15.5361 0
364.3 17.7003 0
362.994 15.5796 0
364.263 15.5579 0
365.495 13.3936 0
368.033 13.3498 0
368.107 17.6348 0
365.569 17.6785 0
366.764 13.3717 0
368.07 15.4923 0
366.838 17.6567 0
365.532 15.5361 0
366.801 15.5142 0
368.033 13.3498 0
370.571 13.306 0
370.645 17.591 0
368.107 17.6348 0
369.302 13.3279 0
370.608 15.4485 0
369.376 17.6129 0
368.07 15.4923 0
369.339 15.4704 0
370.571 13.306 0
373.109 13.262 0
373.183 17.547 0
370.645 17.591 0
371.84 13.284 0
373.146 15.4045 0
371.914 17.569 0
370.608 15.4485 0
371.877 15.4265 0
373.109 13.262 0
375.646 13.218 0
375.721 17.5029 0
373.183 17.547 0
374.377 13.24 0
375.684 15.3605 0
374.452 17.525 0
373.146 15.4045 0
374.415 15.3825 0
375.646 13.218 0
378.184 13.1738 0
378.259 17.4587 0
375.721 17.5029 0
376.915 13.1959 0
378.221 15.3162 0
376.99 17.4808 0
375.684 15.3605 0
376.952 15.3384 0
378.184 13.1738 0
380.722 13.1294 0
380.797 17.4144 0
378.259 17.4587 0
379.453 13.1516 0
380.759 15.2719 0
379.528 17.4366 0
378.221 15.3162 0
379.49 15.2941 0
380.722 13.1294 0
383.26 13.085 0
383.335 17.37 0
380.797 17.4144 0
381.991 13.1072 0
383.297 15.2275 0
382.066 17.3922 0
380.759 15.2719 0
382.028 15.2497 0
383.26 13.085 0
385.797 13.0405 0
385.873 17.3254 0
383.335 17.37 0
384.529 13.0627 0
385.835 15.1829 0
384.604 17.3477 0
383.297 15.2275 0
384.566 15.2052 0
385.797 13.0405 0
388.335 12.9958 0
388.411 17.2808 0
385.873 17.3254 0
387.066 13.0181 0
388.373 15.1383 0
387.142 17.3031 0
385.835 15.1829 0
387.104 15.1606 0
388.335 12.9958 0
390.873 12.951 0
390.948 17.236 0
388.411 17.2808 0
389.604 12.9734 0
390.911 15.0935 0
389.679 17.2584 0
388.373 15.1383 0
389.642 15.1159 0
390.873 12.951 0
393.411 12.9062 0
393.486 17.1911 0
390.948 17.236 0
392.142 12.9286 0
393.449 15.0487 0
392.217 17.2136 0
390.911 15.0935 0
392.18 15.0711 0
393.411 12.9062 0
395.948 12.8612 0
396.024 17.1462 0
393.486 17.1911 0
394.68 12.8837 0
395.986 15.0037 0
394.755 17.1687 0
393.449 15.0487 0
394.717 15.0262 0
395.948 12.8612 0
398.486 12.8161 0
398.562 17.1011 0
396.024 17.1462 0
397.217 12.8387 0
398.524 14.9586 0
397.293 17.1237 0
395.986 15.0037 0
397.255 14.9812 0
398.486 12.8161 0
401.024 12.771 0
401.1 17.0559 0
398.562 17.1011 0
399.755 12.7936 0
401.062 14.9135 0
399.831 17.0785 0
398.524 14.9586 0
399.793 14.9361 0
401.024 12.771 0
403.562 12.7257 0
403.638 17.0107 0
401.1 17.0559 0
402.293 12.7484 0
403.6 14.8682 0
402.369 17.0333 0
401.062 14.9135 0
402.331 14.8909 0
403.562 12.7257 0
406.099 12.6804 0
406.176 16.9653 0
403.638 17.0107 0
404.831 12.7031 0
406.138 14.8229 0
404.907 16.988 0
403.6 14.8682 0
404.869 14.8456 0
406.099 12.6804 0
408.637 12.6349 0
408.714 16.9199 0
406.176 16.9653 0
407.368 12.6577 0
408.676 14.7774 0
407.445 16.9426 0
406.138 14.8229 0
407.407 14.8002 0
408.637 12.6349 0
411.175 12.5894 0
411.252 16.8744 0
408.714 16.9199 0
409.906 12.6122 0
411.213 14.7319 0
409.983 16.8971 0
408.676 14.7774 0
409.944 14.7547 0
411.175 12.5894 0
413.713 12.5438 0
413.79 16.8288 0
411.252 16.8744 0
412.444 12.5666 0
413.751 14.6863 0
412.521 16.8516 0
411.213 14.7319 0
412.482 14.7091 0
413.713 12.5438 0
416.25 12.4981 0
416.327 16.7831 0
413.79 16.8288 0
414.982 12.521 0
416.289 14.6406 0
415.059 16.8059 0
413.751 14.6863 0
415.02 14.6635 0
416.25 12.4981 0
418.788 12.4523 0
418.865 16.7373 0
416.327 16.7831 0
417.519 12.4752 0
418.827 14.5948 0
417.596 16.7602 0
416.289 14.6406 0
417.558 14.6177 0
418.788 12.4523 0
421.326 12.4065 0
421.403 16.6914 0
418.865 16.7373 0
420.057 12.4294 0
421.365 14.549 0
420.134 16.7144 0
418.827 14.5948 0
420.096 14.5719 0
421.326 12.4065 0
423.864 12.3606 0
423.941 16.6455 0
421.403 16.6914 0
422.595 12.3835 0
423.902 14.5031 0
422.672 16.6685 0
421.365 14.549 0
422.633 14.526 0
423.864 12.3606 0
426.401 12.3146 0
426.479 16.5995 0
423.941 16.6455 0
425.132 12.3376 0
426.44 14.4571 0
425.21 16.6225 0
423.902 14.5031 0
425.171 14.4801 0
426.401 12.3146 0
428.939 12.2685 0
429.017 16.5535 0
426.479 16.5995 0
427.67 12.2916 0
428.978 14.411 0
427.748 16.5765 0
426.44 14.4571 0
427.709 14.434 0
428.939 12.2685 0
431.477 12.2224 0
431.555 16.5073 0
429.017 16.5535 0
430.208 12.2454 0
431.516 14.3649 0
430.286 16.5304 0
428.978 14.411 0
430.247 14.3879 0
431.477 12.2224 0
434.014 12.1762 0
434.092 16.4611 0
431.555 16.5073 0
432.746 12.1993 0
434.053 14.3187 0
432.823 16.4842 0
431.516 14.3649 0
432.784 14.3418 0
434.014 12.1762 0
436.552 12.1299 0
436.63 16.4149 0
434.092 16.4611 0
435.283 12.153 0
436.591 14.2724 0
435.361 16.438 0
434.053 14.3187 0
435.322 14.2955 0
436.552 12.1299 0
439.09 12.0836 0
439.168 16.3685 0
436.63 16.4149 0
437.821 12.1068 0
439.129 14.2261 0
437.899 16.3917 0
436.591 14.2724 0
437.86 14.2492 0
439.09 12.0836 0
441.628 12.0372 0
441.706 16.3222 0
439.168 16.3685 0
440.359 12.0604 0
441.667 14.1797 0
440.437 16.3454 0
439.129 14.2261 0
440.398 14.2029 0
441.628 12.0372 0
444.165 11.9908 0
444.244 16.2757 0
441.706 16.3222 0
442.896 12.014 0
444.204 14.1333 0
442.975 16.2989 0
441.667 14.1797 0
442.935 14.1565 0
444.165 11.9908 0
446.703 11.9443 0
446.781 16.2292 0
444.244 16.2757 0
445.434 11.9675 0
446.742 14.0868 0
445.512 16.2525 0
444.204 14.1333 0
445.473 14.11 0
446.703 11.9443 0
449.241 11.8977 0
449.319 16.1827 0
446.781 16.2292 0
447.972 11.921 0
449.28 14.0402 0
448.05 16.206 0
446.742 14.0868 0
448.011 14.0635 0
449.241 11.8977 0
451.778 11.8511 0
451.857 16.1361 0
449.319 16.1827 0
450.509 11.8744 0
451.818 13.9936 0
450.588 16.1594 0
449.28 14.0402 0
450.549 14.0169 0
451.778 11.8511 0
454.316 11.8045 0
454.395 16.0895 0
451.857 16.1361 0
453.047 11.8278 0
454.355 13.947 0
453.126 16.1128 0
451.818 13.9936 0
453.086 13.9703 0
454.316 11.8045 0
456.854 11.7578 0
456.932 16.0428 0
454.395 16.0895 0
455.585 11.7812 0
456.893 13.9003 0
455.663 16.0661 0
454.355 13.947 0
455.624 13.9237 0
456.854 11.7578 0
459.391 11.7111 0
459.47 15.9961 0
456.932 16.0428 0
458.122 11.7345 0
459.431 13.8536 0
458.201 16.0194 0
456.893 13.9003 0
458.162 13.877 0
459.391 11.7111 0
461.929 11.6644 0
462.008 15.9493 0
459.47 15.9961 0
460.66 11.6877 0
461.968 13.8068 0
460.739 15.9727 0
459.431 13.8536 0
460.7 13.8302 0
461.929 11.6644 0
464.467 11.6176 0
464.546 15.9025 0
462.008 15.9493 0
463.198 11.641 0
464.506 13.76 0
463.277 15.9259 0
461.968 13.8068 0
463.237 13.7834 0
464.467 11.6176 0
467.004 11.5707 0
467.083 15.8557 0
464.546 15.9025 0
465.735 11.5941 0
467.044 13.7132 0
465.814 15.8791 0
464.506 13.76 0
465.775 13.7366 0
467.004 11.5707 0
469.542 11.5239 0
469.621 15.8088 0
467.083 15.8557 0
468.273 11.5473 0
469.581 13.6664 0
468.352 15.8323 0
467.044 13.7132 0
468.313 13.6898 0
469.542 11.5239 0
472.08 11.477 0
472.159 15.7619 0
469.621 15.8088 0
470.811 11.5004 0
472.119 13.6195 0
470.89 15.7854 0
469.581 13.6664 0
470.85 13.6429 0
472.08 11.477 0
474.617 11.4301 0
474.696 15.715 0
472.159 15.7619 0
473.348 11.4535 0
474.657 13.5725 0
473.428 15.7385 0
472.119 13.6195 0
473.388 13.596 0
474.617 11.4301 0
477.155 11.3831 0
477.234 15.6681 0
474.696 15.715 0
475.886 11.4066 0
477.195 13.5256 0
475.965 15.6916 0
474.657 13.5725 0
475.926 13.5491 0
477.155 11.3831 0
479.693 11.3362 0
479.772 15.6211 0
477.234 15.6681 0
478.424 11.3596 0
479.732 13.4786 0
478.503 15.6446 0
477.195 13.5256 0
478.463 13.5021 0
479.693 11.3362 0
482.23 11.2892 0
482.309 15.5741 0
479.772 15.6211 0
480.961 11.3127 0
482.27 13.4317 0
481.041 15.5976 0
479.732 13.4786 0
481.001 13.4552 0
482.23 11.2892 0
484.768 11.2422 0
484.847 15.5271 0
482.309 15.5741 0
483.499 11.2657 0
484.808 13.3847 0
483.578 15.5506 0
482.27 13.4317 0
483.539 13.4082 0
484.768 11.2422 0
487.306 11.1952 0
487.385 15.4801 0
484.847 15.5271 0
486.037 11.2187 0
487.345 13.3376 0
486.116 15.5036 0
484.808 13.3847 0
486.076 13.3612 0
487.306 11.1952 0
489.843 11.1481 0
489.922 15.4331 0
487.385 15.4801 0
488.574 11.1716 0
489.883 13.2906 0
488.654 15.4566 0
487.345 13.3376 0
488.614 13.3141 0
489.843 11.1481 0
492.381 11.1011 0
492.46 15.3861 0
489.922 15.4331 0
491.112 11.1246 0
492.42 13.2436 0
491.191 15.4096 0
489.883 13.2906 0
491.152 13.2671 0
492.381 11.1011 0
494.918 11.0541 0
494.998 15.339 0
492.46 15.3861 0
493.65 11.0776 0
494.958 13.1965 0
493.729 15.3626 0
492.42 13.2436 0
493.689 13.2201 0
494.918 11.0541 0
497.456 11.007 0
497.535 15.292 0
494.998 15.339 0
496.187 11.0305 0
497.496 13.1495 0
496.267 15.3155 0
494.958 13.1965 0
496.227 13.173 0
497.456 11.007 0
499.994 10.96 0
500.073 15.245 0
497.535 15.292 0
498.725 10.9835 0
500.033 13.1025 0
498.804 15.2685 0
497.496 13.1495 0
498.765 13.126 0
0 21.4286 0
2.53914 21.4285 0
2.5399 25.7138 0
0 25.7143 0
1.26955 21.4286 0
2.5395 23.5712 0
1.26992 25.7141 0
0 23.5714 0
1.26974 23.5714 0
2.53914 21.4285 0
5.07835 21.4277 0
5.07996 25.7128 0
2.5399 25.7138 0
3.80874 21.4282 0
5.07913 23.5703 0
3.80992 25.7133 0
2.5395 23.5712 0
3.8093 23.5708 0
5.07835 21.4277 0
7.61762 21.4265 0
7.62003 25.7114 0
5.07996 25.7128 0
6.34798 21.4272 0
7.6188 23.569 0
6.34999 25.7122 0
5.07913 23.5703 0
6.34896 23.5697 0
7.61762 21.4265 0
10.1569 21.4248 0
10.1601 25.7097 0
7.62003 25.7114 0
8.88725 21.4257 0
10.1585 23.5673 0
8.89006 25.7106 0
7.6188 23.569 0
8.88864 23.5682 0
10.1569 21.4248 0
12.6962 21.4226 0
12.7001 25.7075 0
10.1601 25.7097 0
11.4265 21.4237 0
12.6981 23.5651 0
11.4301 25.7086 0
10.1585 23.5673 0
11.4283 23.5662 0
12.6962 21.4226 0
15.2354 21.4199 0
15.2402 25.7048 0
12.7001 25.7075 0
13.9658 21.4213 0
15.2378 23.5624 0
13.9702 25.7062 0
12.6981 23.5651 0
13.968 23.5638 0
15.2354 21.4199 0
17.7747 21.4168 0
17.7802 25.7017 0
15.2402 25.7048 0
16.505 21.4184 0
17.7774 23.5593 0
16.5102 25.7033 0
15.2378 23.5624 0
16.5076 23.5609 0
17.7747 21.4168 0
20.3139 21.4133 0
20.3202 25.6982 0
17.7802 25.7017 0
19.0443 21.4151 0
20.317 23.5558 0
19.0502 25.7 0
17.7774 23.5593 0
19.0472 23.5576 0
20.3139 21.4133 0
22.8531 21.4092 0
22.8602 25.6942 0
20.3202 25.6982 0
21.5835 21.4113 0
22.8566 23.5517 0
21.5902 25.6962 0
20.317 23.5558 0
21.5868 23.5538 0
22.8531 21.4092 0
25.3923 21.4047 0
25.4002 25.6897 0
22.8602 25.6942 0
24.1227 21.407 0
25.3962 23.5473 0
24.1302 25.692 0
22.8566 23.5517 0
24.1264 23.5496 0
25.3923 21.4047 0
27.9316 21.3998 0
27.9401 25.6847 0
25.4002 25.6897 0
26.662 21.4023 0
27.9358 23.5423 0
26.6702 25.6873 0
25.3962 23.5473 0
26.666 23.5448 0
27.9316 21.3998 0
30.4708 21.3944 0
30.4801 25.6794 0
27.9401 25.6847 0
29.2012 21.3972 0
30.4754 23.5369 0
29.2101 25.6821 0
27.9358 23.5423 0
29.2056 23.5397 0
30.4708 21.3944 0
33.01 21.3886 0
33.02 25.6735 0
30.4801 25.6794 0
31.7404 21.3916 0
33.015 23.5311 0
31.7501 25.6765 0
30.4754 23.5369 0
31.7452 23.5341 0
33.01 21.3886 0
35.5491 21.3823 0
35.56 25.6673 0
33.02 25.6735 0
34.2795 21.3855 0
35.5546 23.5248 0
34.29 25.6704 0
33.015 23.5311 0
34.2848 23.528 0
35.5491 21.3823 0
38.0883 21.3756 0
38.0999 25.6605 0
35.56 25.6673 0
36.8187 21.379 0
38.0941 23.5181 0
36.8299 25.664 0
35.5546 23.5248 0
36.8243 23.5215 0
38.0883 21.3756 0
40.6275 21.3684 0
40.6398 25.6534 0
38.0999 25.6605 0
39.3579 21.3721 0
40.6337 23.5109 0
39.3699 25.657 0
38.0941 23.5181 0
39.3639 23.5146 0
40.6275 21.3684 0
43.1667 21.3608 0
43.1797 25.6458 0
40.6398 25.6534 0
41.8971 21.3647 0
43.1732 23.5033 0
41.9098 25.6496 0
40.6337 23.5109 0
41.9034 23.5072 0
43.1667 21.3608 0
45.7058 21.3528 0
45.7196 25.6377 0
43.1797 25.6458 0
44.4362 21.3569 0
45.7127 23.4953 0
44.4497 25.6418 0
43.1732 23.5033 0
44.443 23.4994 0
45.7058 21.3528 0
48.245 21.3443 0
48.2595 25.6293 0
45.7196 25.6377 0
46.9754 21.3486 0
48.2522 23.4868 0
46.9896 25.6336 0
45.7127 23.4953 0
46.9825 23.4911 0
48.245 21.3443 0
50.7841 21.3354 0
50.7994 25.6204 0
48.2595 25.6293 0
49.5145 21.3399 0
50.7917 23.4779 0
49.5294 25.6249 0
48.2522 23.4868 0
49.522 23.4824 0
50.7841 21.3354 0
53.3232 21.3261 0
53.3392 25.611 0
50.7994 25.6204 0
52.0537 21.3308 0
53.3312 23.4686 0
52.0693 25.6158 0
50.7917 23.4779 0
52.0615 23.4733 0
53.3232 21.3261 0
55.8624 21.3163 0
55.8791 25.6013 0
53.3392 25.611 0
54.5928 21.3213 0
55.8707 23.4588 0
54.6092 25.6062 0
53.3312 23.4686 0
54.601 23.4638 0
55.8624 21.3163 0
58.4015 21.3061 0
58.4189 25.5911 0
55.8791 25.6013 0
57.1319 21.3113 0
58.4102 23.4487 0
57.149 25.5962 0
55.8707 23.4588 0
57.1405 23.4538 0
58.4015 21.3061 0
60.9406 21.2955 0
60.9587 25.5805 0
58.4189 25.5911 0
59.6711 21.3009 0
60.9497 23.4381 0
59.6888 25.5859 0
58.4102 23.4487 0
59.6799 23.4434 0
60.9406 21.2955 0
63.4797 21.2845 0
63.4985 25.5695 0
60.9587 25.5805 0
62.2102 21.2901 0
63.4891 23.427 0
62.2286 25.575 0
60.9497 23.4381 0
62.2194 23.4326 0
63.4797 21.2845 0
66.0188 21.2731 0
66.0383 25.558 0
63.4985 25.5695 0
64.7493 21.2788 0
66.0286 23.4156 0
64.7684 25.5638 0
63.4891 23.427 0
64.7588 23.4214 0
66.0188 21.2731 0
68.5579 21.2612 0
68.5781 25.5462 0
66.0383 25.558 0
67.2884 21.2672 0
68.568 23.4037 0
67.3082 25.5522 0
66.0286 23.4156 0
67.2983 23.4097 0
68.5579 21.2612 0
71.097 21.249 0
71.1179 25.5339 0
68.5781 25.5462 0
69.8274 21.2551 0
71.1074 23.3915 0
69.848 25.5401 0
68.568 23.4037 0
69.8377 23.3977 0
71.097 21.249 0
73.6361 21.2363 0
73.6577 25.5212 0
71.1179 25.5339 0
72.3665 21.2427 0
73.6469 23.3788 0
72.3878 25.5276 0
71.1074 23.3915 0
72.3771 23.3852 0
73.6361 21.2363 0
76.1751 21.2232 0
76.1974 25.5082 0
73.6577 25.5212 0
74.9056 21.2298 0
76.1863 23.3657 0
74.9275 25.5148 0
73.6469 23.3788 0
74.9166 23.3723 0
76.1751 21.2232 0
78.7142 21.2097 0
78.7371 25.4947 0
76.1974 25.5082 0
77.4446 21.2165 0
78.7257 23.3522 0
77.4673 25.5015 0
76.1863 23.3657 0
77.456 23.359 0
78.7142 21.2097 0
81.2532 21.1958 0
81.2769 25.4808 0
78.7371 25.4947 0
79.9837 21.2028 0
81.265 23.3384 0
80.007 25.4878 0
78.7257 23.3522 0
79.9953 23.3453 0
81.2532 21.1958 0
83.7923 21.1815 0
83.8166 25.4665 0
81.2769 25.4808 0
82.5227 21.1887 0
83.8044 23.3241 0
82.5467 25.4737 0
81.265 23.3384 0
82.5347 23.3313 0
83.7923 21.1815 0
86.3313 21.1669 0
86.3563 25.4518 0
83.8166 25.4665 0
85.0618 21.1742 0
86.3438 23.3094 0
85.0864 25.4592 0
83.8044 23.3241 0
85.0741 23.3168 0
86.3313 21.1669 0
88.8703 21.1518 0
88.896 25.4367 0
86.3563 25.4518 0
87.6008 21.1594 0
88.8831 23.2943 0
87.6261 25.4443 0
86.3438 23.3094 0
87.6135 23.3019 0
88.8703 21.1518 0
91.4093 21.1363 0
91.4356 25.4213 0
88.896 25.4367 0
90.1398 21.1441 0
91.4225 23.2788 0
90.1658 25.429 0
88.8831 23.2943 0
90.1528 23.2866 0
91.4093 21.1363 0
93.9483 21.1204 0
93.9753 25.4054 0
91.4356 25.4213 0
92.6788 21.1284 0
93.9618 23.263 0
92.7055 25.4134 0
91.4225 23.2788 0
92.6921 23.2709 0
93.9483 21.1204 0
96.4873 21.1042 0
96.515 25.3892 0
93.9753 25.4054 0
95.2178 21.1124 0
96.5011 23.2467 0
95.2451 25.3973 0
93.9618 23.263 0
95.2315 23.2549 0
96.4873 21.1042 0
99.0263 21.0875 0
99.0546 25.3725 0
96.515 25.3892 0
97.7568 21.0959 0
99.0404 23.2301 0
97.7848 25.3809 0
96.5011 23.2467 0
97.7708 23.2384 0
99.0263 21.0875 0
101.565 21.0705 0
101.594 25.3555 0
99.0546 25.3725 0
100.296 21.0791 0
101.58 23.2131 0
100.324 25.3641 0
99.0404 23.2301 0
100.31 23.2216 0
101.565 21.0705 0
104.104 21.0531 0
104.134 25.3381 0
101.594 25.3555 0
102.835 21.0619 0
104.119 23.1957 0
102.864 25.3468 0
101.58 23.2131 0
102.849 23.2044 0
104.104 21.0531 0
106.643 21.0354 0
106.673 25.3203 0
104.134 25.3381 0
105.374 21.0443 0
106.658 23.1779 0
105.404 25.3293 0
104.119 23.1957 0
105.389 23.1868 0
106.643 21.0354 0
109.182 21.0172 0
109.213 25.3022 0
106.673 25.3203 0
107.913 21.0263 0
109.198 23.1597 0
107.943 25.3113 0
106.658 23.1779 0
107.928 23.1688 0
109.182 21.0172 0
111.721 20.9987 0
111.753 25.2836 0
109.213 25.3022 0
110.452 21.008 0
111.737 23.1412 0
110.483 25.293 0
109.198 23.1597 0
110.467 23.1505 0
111.721 20.9987 0
114.26 20.9798 0
114.292 25.2647 0
111.753 25.2836 0
112.991 20.9893 0
114.276 23.1223 0
113.022 25.2742 0
111.737 23.1412 0
113.006 23.1318 0
114.26 20.9798 0
116.799 20.9605 0
116.832 25.2455 0
114.292 25.2647 0
115.53 20.9702 0
116.815 23.103 0
115.562 25.2552 0
114.276 23.1223 0
115.546 23.1127 0
116.799 20.9605 0
119.338 20.9409 0
119.371 25.2259 0
116.832 25.2455 0
118.068 20.9507 0
119.355 23.0834 0
118.101 25.2357 0
116.815 23.103 0
118.085 23.0933 0
119.338 20.9409 0
121.877 20.9209 0
121.911 25.2059 0
119.371 25.2259 0
120.607 20.9309 0
121.894 23.0634 0
120.641 25.2159 0
119.355 23.0834 0
120.624 23.0735 0
121.877 20.9209 0
124.416 20.9005 0
124.45 25.1855 0
121.911 25.2059 0
123.146 20.9108 0
124.433 23.0431 0
123.18 25.1957 0
121.894 23.0634 0
123.163 23.0533 0
124.416 20.9005 0
126.955 20.8798 0
126.99 25.1648 0
124.45 25.1855 0
125.685 20.8902 0
126.972 23.0223 0
125.72 25.1752 0
124.433 23.0431 0
125.703 23.0327 0
126.955 20.8798 0
129.493 20.8588 0
129.529 25.1437 0
126.99 25.1648 0
128.224 20.8693 0
129.511 23.0013 0
128.259 25.1543 0
126.972 23.0223 0
128.242 23.0119 0
129.493 20.8588 0
132.032 20.8373 0
132.069 25.1223 0
129.529 25.1437 0
130.763 20.8481 0
132.051 22.9799 0
130.799 25.1331 0
129.511 23.0013 0
130.781 22.9906 0
132.032 20.8373 0
134.571 20.8156 0
134.608 25.1005 0
132.069 25.1223 0
133.302 20.8265 0
134.59 22.9581 0
133.338 25.1115 0
132.051 22.9799 0
133.32 22.969 0
134.571 20.8156 0
137.11 20.7934 0
137.148 25.0784 0
134.608 25.1005 0
135.841 20.8045 0
137.129 22.936 0
135.878 25.0895 0
134.59 22.9581 0
135.859 22.9471 0
137.11 20.7934 0
139.649 20.771 0
139.687 25.0559 0
137.148 25.0784 0
138.38 20.7822 0
139.668 22.9135 0
138.417 25.0672 0
137.129 22.936 0
138.398 22.9248 0
139.649 20.771 0
142.188 20.7482 0
142.226 25.0331 0
139.687 25.0559 0
140.918 20.7596 0
142.207 22.8907 0
140.957 25.0446 0
139.668 22.9135 0
140.938 22.9021 0
142.188 20.7482 0
144.727 20.725 0
144.766 25.01 0
142.226 25.0331 0
143.457 20.7366 0
144.746 22.8675 0
143.496 25.0216 0
142.207 22.8907 0
143.477 22.8791 0
144.727 20.725 0
147.265 20.7015 0
147.305 24.9865 0
144.766 25.01 0
145.996 20.7133 0
147.285 22.844 0
146.036 24.9983 0
144.746 22.8675 0
146.016 22.8558 0
147.265 20.7015 0
149.804 20.6777 0
149.845 24.9626 0
147.305 24.9865 0
148.535 20.6896 0
149.824 22.8202 0
148.575 24.9746 0
147.285 22.844 0
148.555 22.8322 0
149.804 20.6777 0
152.343 20.6535 0
152.384 24.9385 0
149.845 24.9626 0
151.074 20.6656 0
152.363 22.796 0
151.114 24.9506 0
149.824 22.8202 0
151.094 22.8082 0
152.343 20.6535 0
154.882 20.629 0
154.923 24.914 0
152.384 24.9385 0
153.612 20.6413 0
154.903 22.7715 0
153.654 24.9263 0
152.363 22.796 0
153.633 22.7838 0
154.882 20.629 0
157.421 20.6042 0
157.463 24.8891 0
154.923 24.914 0
156.151 20.6166 0
157.442 22.7467 0
156.193 24.9016 0
154.903 22.7715 0
156.172 22.7592 0
157.421 20.6042 0
159.959 20.579 0
160.002 24.864 0
157.463 24.8891 0
158.69 20.5917 0
159.981 22.7216 0
158.732 24.8766 0
157.442 22.7467 0
158.711 22.7342 0
159.959 20.579 0
162.498 20.5536 0
162.541 24.8385 0
160.002 24.864 0
161.229 20.5663 0
162.52 22.6961 0
161.272 24.8513 0
159.981 22.7216 0
161.25 22.7089 0
162.498 20.5536 0
165.037 20.5278 0
165.081 24.8127 0
162.541 24.8385 0
163.767 20.5407 0
165.059 22.6703 0
163.811 24.8257 0
162.52 22.6961 0
163.789 22.6832 0
165.037 20.5278 0
167.576 20.5016 0
167.62 24.7866 0
165.081 24.8127 0
166.306 20.5147 0
167.598 22.6442 0
166.35 24.7997 0
165.059 22.6703 0
166.328 22.6573 0
167.576 20.5016 0
170.114 20.4752 0
170.159 24.7602 0
167.62 24.7866 0
168.845 20.4885 0
170.137 22.6177 0
168.889 24.7734 0
167.598 22.6442 0
168.867 22.631 0
170.114 20.4752 0
172.653 20.4485 0
172.698 24.7334 0
170.159 24.7602 0
171.384 20.4619 0
172.676 22.591 0
171.429 24.7468 0
170.137 22.6177 0
171.406 22.6044 0
172.653 20.4485 0
175.192 20.4214 0
175.238 24.7063 0
172.698 24.7334 0
173.922 20.435 0
175.215 22.5639 0
173.968 24.7199 0
172.676 22.591 0
173.945 22.5775 0
175.192 20.4214 0
177.73 20.394 0
177.777 24.679 0
175.238 24.7063 0
176.461 20.4077 0
177.754 22.5365 0
176.507 24.6927 0
175.215 22.5639 0
176.484 22.5503 0
177.73 20.394 0
180.269 20.3663 0
180.316 24.6513 0
177.777 24.679 0
179 20.3802 0
180.293 22.5088 0
179.046 24.6652 0
177.754 22.5365 0
179.023 22.5227 0
180.269 20.3663 0
182.808 20.3384 0
182.855 24.6233 0
180.316 24.6513 0
181.539 20.3524 0
182.832 22.4809 0
181.586 24.6373 0
180.293 22.5088 0
181.562 22.4949 0
182.808 20.3384 0
185.347 20.3101 0
185.394 24.595 0
182.855 24.6233 0
184.077 20.3242 0
185.37 22.4526 0
184.125 24.6092 0
182.832 22.4809 0
184.101 22.4667 0
185.347 20.3101 0
187.885 20.2815 0
187.934 24.5664 0
185.394 24.595 0
186.616 20.2958 0
187.909 22.424 0
186.664 24.5807 0
185.37 22.4526 0
186.64 22.4383 0
187.885 20.2815 0
190.424 20.2526 0
190.473 24.5375 0
187.934 24.5664 0
189.155 20.2671 0
190.448 22.3951 0
189.203 24.552 0
187.909 22.424 0
189.179 22.4096 0
190.424 20.2526 0
192.963 20.2234 0
193.012 24.5083 0
190.473 24.5375 0
191.693 20.238 0
192.987 22.3659 0
191.742 24.523 0
190.448 22.3951 0
191.718 22.3805 0
192.963 20.2234 0
195.501 20.1939 0
195.551 24.4789 0
193.012 24.5083 0
194.232 20.2087 0
195.526 22.3364 0
194.281 24.4936 0
192.987 22.3659 0
194.257 22.3512 0
195.501 20.1939 0
198.04 20.1642 0
198.09 24.4491 0
195.551 24.4789 0
196.77 20.1791 0
198.065 22.3067 0
196.821 24.464 0
195.526 22.3364 0
196.796 22.3216 0
198.04 20.1642 0
200.578 20.1341 0
200.629 24.419 0
198.09 24.4491 0
199.309 20.1492 0
200.604 22.2766 0
199.36 24.4341 0
198.065 22.3067 0
199.334 22.2917 0
200.578 20.1341 0
203.117 20.1038 0
203.168 24.3887 0
200.629 24.419 0
201.848 20.119 0
203.143 22.2463 0
201.899 24.4039 0
200.604 22.2766 0
201.873 22.2615 0
203.117 20.1038 0
205.656 20.0731 0
205.707 24.3581 0
203.168 24.3887 0
204.386 20.0885 0
205.682 22.2156 0
204.438 24.3734 0
203.143 22.2463 0
204.412 22.231 0
205.656 20.0731 0
208.194 20.0422 0
208.246 24.3272 0
205.707 24.3581 0
206.925 20.0577 0
208.22 22.1847 0
206.977 24.3427 0
205.682 22.2156 0
206.951 22.2002 0
208.194 20.0422 0
210.733 20.0111 0
210.786 24.296 0
208.246 24.3272 0
209.464 20.0267 0
210.759 22.1535 0
209.516 24.3116 0
208.22 22.1847 0
209.49 22.1692 0
210.733 20.0111 0
213.271 19.9796 0
213.325 24.2645 0
210.786 24.296 0
212.002 19.9954 0
213.298 22.1221 0
212.055 24.2803 0
210.759 22.1535 0
212.029 22.1379 0
213.271 19.9796 0
215.81 19.9479 0
215.864 24.2328 0
213.325 24.2645 0
214.541 19.9638 0
215.837 22.0904 0
214.594 24.2487 0
213.298 22.1221 0
214.567 22.1063 0
215.81 19.9479 0
218.348 19.9159 0
218.403 24.2008 0
215.864 24.2328 0
217.079 19.9319 0
218.376 22.0584 0
217.133 24.2168 0
215.837 22.0904 0
217.106 22.0744 0
218.348 19.9159 0
220.887 19.8836 0
220.942 24.1685 0
218.403 24.2008 0
219.618 19.8998 0
220.914 22.0261 0
219.672 24.1847 0
218.376 22.0584 0
219.645 22.0422 0
220.887 19.8836 0
223.426 19.8511 0
223.481 24.136 0
220.942 24.1685 0
222.156 19.8674 0
223.453 21.9935 0
222.211 24.1523 0
220.914 22.0261 0
222.184 22.0098 0
223.426 19.8511 0
225.964 19.8183 0
226.02 24.1032 0
223.481 24.136 0
224.695 19.8347 0
225.992 21.9607 0
224.75 24.1196 0
223.453 21.9935 0
224.722 21.9772 0
225.964 19.8183 0
228.503 19.7852 0
228.559 24.0701 0
226.02 24.1032 0
227.233 19.8018 0
228.531 21.9277 0
227.289 24.0867 0
225.992 21.9607 0
227.261 21.9442 0
228.503 19.7852 0
231.041 19.7519 0
231.097 24.0368 0
228.559 24.0701 0
229.772 19.7686 0
231.069 21.8943 0
229.828 24.0535 0
228.531 21.9277 0
229.8 21.911 0
231.041 19.7519 0
233.58 19.7183 0
233.636 24.0032 0
231.097 24.0368 0
232.31 19.7351 0
233.608 21.8608 0
232.367 24.02 0
231.069 21.8943 0
232.339 21.8776 0
233.58 19.7183 0
236.118 19.6844 0
236.175 23.9694 0
233.636 24.0032 0
234.849 19.7014 0
236.147 21.8269 0
234.906 23.9863 0
233.608 21.8608 0
234.877 21.8439 0
236.118 19.6844 0
238.657 19.6504 0
238.714 23.9353 0
236.175 23.9694 0
237.387 19.6674 0
238.685 21.7928 0
237.445 23.9523 0
236.147 21.8269 0
237.416 21.8099 0
238.657 19.6504 0
241.195 19.616 0
241.253 23.9009 0
238.714 23.9353 0
239.926 19.6332 0
241.224 21.7585 0
239.984 23.9181 0
238.685 21.7928 0
239.955 21.7757 0
241.195 19.616 0
243.733 19.5814 0
243.792 23.8663 0
241.253 23.9009 0
242.464 19.5988 0
243.763 21.7239 0
242.523 23.8837 0
241.224 21.7585 0
242.493 21.7412 0
243.733 19.5814 0
246.272 19.5466 0
246.331 23.8315 0
243.792 23.8663 0
245.003 19.5641 0
246.301 21.6891 0
245.061 23.849 0
243.763 21.7239 0
245.032 21.7065 0
246.272 19.5466 0
248.81 19.5115 0
248.87 23.7964 0
246.331 23.8315 0
247.541 19.5291 0
248.84 21.654 0
247.6 23.814 0
246.301 21.6891 0
247.571 21.6716 0
248.81 19.5115 0
251.349 19.4762 0
251.408 23.7611 0
248.87 23.7964 0
250.08 19.4939 0
251.379 21.6187 0
250.139 23.7788 0
248.84 21.654 0
250.109 21.6364 0
251.349 19.4762 0
253.887 19.4407 0
253.947 23.7256 0
251.408 23.7611 0
252.618 19.4585 0
253.917 21.5832 0
252.678 23.7434 0
251.379 21.6187 0
252.648 21.601 0
253.887 19.4407 0
256.426 19.4049 0
256.486 23.6898 0
253.947 23.7256 0
255.156 19.4228 0
256.456 21.5474 0
255.217 23.7077 0
253.917 21.5832 0
255.187 21.5653 0
256.426 19.4049 0
258.964 19.3689 0
259.025 23.6538 0
256.486 23.6898 0
257.695 19.3869 0
258.994 21.5114 0
257.756 23.6718 0
256.456 21.5474 0
257.725 21.5294 0
258.964 19.3689 0
261.502 19.3327 0
261.564 23.6175 0
259.025 23.6538 0
260.233 19.3508 0
261.533 21.4751 0
260.294 23.6357 0
258.994 21.5114 0
260.264 21.4933 0
261.502 19.3327 0
264.041 19.2962 0
264.102 23.5811 0
261.564 23.6175 0
262.772 19.3144 0
264.072 21.4387 0
262.833 23.5993 0
261.533 21.4751 0
262.802 21.4569 0
264.041 19.2962 0
266.579 19.2595 0
266.641 23.5444 0
264.102 23.5811 0
265.31 19.2779 0
266.61 21.402 0
265.372 23.5627 0
264.072 21.4387 0
265.341 21.4203 0
266.579 19.2595 0
269.118 19.2226 0
269.18 23.5075 0
266.641 23.5444 0
267.848 19.2411 0
269.149 21.365 0
267.911 23.5259 0
266.61 21.402 0
267.879 21.3835 0
269.118 19.2226 0
271.656 19.1854 0
271.719 23.4703 0
269.18 23.5075 0
270.387 19.204 0
271.687 21.3279 0
270.449 23.4889 0
269.149 21.365 0
270.418 21.3465 0
271.656 19.1854 0
274.194 19.1481 0
274.257 23.433 0
271.719 23.4703 0
272.925 19.1668 0
274.226 21.2905 0
272.988 23.4517 0
271.687 21.3279 0
272.957 21.3092 0
274.194 19.1481 0
276.733 19.1105 0
276.796 23.3954 0
274.257 23.433 0
275.463 19.1293 0
276.764 21.253 0
275.527 23.4142 0
274.226 21.2905 0
275.495 21.2718 0
276.733 19.1105 0
279.271 19.0727 0
279.335 23.3576 0
276.796 23.3954 0
278.002 19.0916 0
279.303 21.2152 0
278.065 23.3765 0
276.764 21.253 0
278.034 21.2341 0
279.271 19.0727 0
281.809 19.0347 0
281.873 23.3196 0
279.335 23.3576 0
280.54 19.0537 0
281.841 21.1772 0
280.604 23.3386 0
279.303 21.2152 0
280.572 21.1962 0
281.809 19.0347 0
284.348 18.9965 0
284.412 23.2814 0
281.873 23.3196 0
283.078 19.0156 0
284.38 21.139 0
283.143 23.3005 0
281.841 21.1772 0
283.111 21.1581 0
284.348 18.9965 0
286.886 18.9581 0
286.951 23.243 0
284.412 23.2814 0
285.617 18.9773 0
286.918 21.1006 0
285.681 23.2622 0
284.38 21.139 0
285.649 21.1198 0
286.886 18.9581 0
289.424 18.9195 0
289.489 23.2044 0
286.951 23.243 0
288.155 18.9388 0
289.457 21.0619 0
288.22 23.2237 0
286.918 21.1006 0
288.188 21.0813 0
289.424 18.9195 0
291.962 18.8807 0
292.028 23.1655 0
289.489 23.2044 0
290.693 18.9001 0
291.995 21.0231 0
290.759 23.185 0
289.457 21.0619 0
290.726 21.0426 0
291.962 18.8807 0
294.501 18.8417 0
294.567 23.1265 0
292.028 23.1655 0
293.232 18.8612 0
294.534 20.9841 0
293.297 23.1461 0
291.995 21.0231 0
293.264 21.0036 0
294.501 18.8417 0
297.039 18.8024 0
297.105 23.0873 0
294.567 23.1265 0
295.77 18.8221 0
297.072 20.9449 0
295.836 23.107 0
294.534 20.9841 0
295.803 20.9645 0
297.039 18.8024 0
299.577 18.763 0
299.644 23.0479 0
297.105 23.0873 0
298.308 18.7828 0
299.61 20.9055 0
298.374 23.0676 0
297.072 20.9449 0
298.341 20.9252 0
299.577 18.763 0
302.115 18.7235 0
302.182 23.0083 0
299.644 23.0479 0
300.846 18.7433 0
302.149 20.8659 0
300.913 23.0281 0
299.61 20.9055 0
300.88 20.8857 0
302.115 18.7235 0
304.654 18.6837 0
304.721 22.9685 0
302.182 23.0083 0
303.385 18.7036 0
304.687 20.8261 0
303.452 22.9885 0
302.149 20.8659 0
303.418 20.846 0
304.654 18.6837 0
307.192 18.6437 0
307.259 22.9286 0
304.721 22.9685 0
305.923 18.6637 0
307.226 20.7862 0
305.99 22.9486 0
304.687 20.8261 0
305.956 20.8062 0
307.192 18.6437 0
309.73 18.6035 0
309.798 22.8884 0
307.259 22.9286 0
308.461 18.6236 0
309.764 20.746 0
308.529 22.9085 0
307.226 20.7862 0
308.495 20.7661 0
309.73 18.6035 0
312.268 18.5632 0
312.336 22.8481 0
309.798 22.8884 0
310.999 18.5834 0
312.302 20.7057 0
311.067 22.8683 0
309.764 20.746 0
311.033 20.7259 0
312.268 18.5632 0
314.807 18.5227 0
314.875 22.8076 0
312.336 22.8481 0
313.537 18.543 0
314.841 20.6651 0
313.606 22.8278 0
312.302 20.7057 0
313.572 20.6854 0
314.807 18.5227 0
317.345 18.482 0
317.413 22.7669 0
314.875 22.8076 0
316.076 18.5024 0
317.379 20.6245 0
316.144 22.7872 0
314.841 20.6651 0
316.11 20.6448 0
317.345 18.482 0
319.883 18.4411 0
319.952 22.726 0
317.413 22.7669 0
318.614 18.4616 0
319.917 20.5836 0
318.683 22.7465 0
317.379 20.6245 0
318.648 20.604 0
319.883 18.4411 0
322.421 18.4001 0
322.49 22.685 0
319.952 22.726 0
321.152 18.4206 0
322.456 20.5426 0
321.221 22.7055 0
319.917 20.5836 0
321.187 20.5631 0
322.421 18.4001 0
324.959 18.3589 0
325.029 22.6438 0
322.49 22.685 0
323.69 18.3795 0
324.994 20.5013 0
323.76 22.6644 0
322.456 20.5426 0
323.725 20.522 0
324.959 18.3589 0
327.497 18.3175 0
327.567 22.6024 0
325.029 22.6438 0
326.228 18.3382 0
327.532 20.46 0
326.298 22.6231 0
324.994 20.5013 0
326.263 20.4807 0
327.497 18.3175 0
330.036 18.276 0
330.106 22.5609 0
327.567 22.6024 0
328.766 18.2968 0
330.071 20.4184 0
328.836 22.5816 0
327.532 20.46 0
328.801 20.4392 0
330.036 18.276 0
332.574 18.2343 0
332.644 22.5192 0
330.106 22.5609 0
331.305 18.2552 0
332.609 20.3767 0
331.375 22.54 0
330.071 20.4184 0
331.34 20.3976 0
332.574 18.2343 0
335.112 18.1924 0
335.182 22.4773 0
332.644 22.5192 0
333.843 18.2134 0
335.147 20.3349 0
333.913 22.4982 0
332.609 20.3767 0
333.878 20.3558 0
335.112 18.1924 0
337.65 18.1504 0
337.721 22.4353 0
335.182 22.4773 0
336.381 18.1714 0
337.685 20.2929 0
336.452 22.4563 0
335.147 20.3349 0
336.416 20.3139 0
337.65 18.1504 0
340.188 18.1082 0
340.259 22.3931 0
337.721 22.4353 0
338.919 18.1293 0
340.224 20.2507 0
338.99 22.4142 0
337.685 20.2929 0
338.955 20.2718 0
340.188 18.1082 0
342.726 18.0659 0
342.798 22.3508 0
340.259 22.3931 0
341.457 18.0871 0
342.762 20.2084 0
341.528 22.372 0
340.224 20.2507 0
341.493 20.2295 0
342.726 18.0659 0
345.264 18.0234 0
345.336 22.3083 0
342.798 22.3508 0
343.995 18.0447 0
345.3 20.1659 0
344.067 22.3296 0
342.762 20.2084 0
344.031 20.1871 0
345.264 18.0234 0
347.802 17.9808 0
347.874 22.2657 0
345.336 22.3083 0
346.533 18.0021 0
347.838 20.1233 0
346.605 22.287 0
345.3 20.1659 0
346.569 20.1446 0
347.802 17.9808 0
350.34 17.9381 0
350.413 22.2229 0
347.874 22.2657 0
349.071 17.9595 0
350.376 20.0805 0
349.143 22.2443 0
347.838 20.1233 0
349.107 20.1019 0
350.34 17.9381 0
352.878 17.8951 0
352.951 22.18 0
350.413 22.2229 0
351.609 17.9166 0
352.915 20.0376 0
351.682 22.2015 0
350.376 20.0805 0
351.646 20.0591 0
352.878 17.8951 0
355.417 17.8521 0
355.489 22.137 0
352.951 22.18 0
354.147 17.8736 0
355.453 19.9945 0
354.22 22.1585 0
352.915 20.0376 0
354.184 20.0161 0
355.417 17.8521 0
357.955 17.8089 0
358.027 22.0938 0
355.489 22.137 0
356.686 17.8305 0
357.991 19.9513 0
356.758 22.1154 0
355.453 19.9945 0
356.722 19.973 0
357.955 17.8089 0
360.493 17.7656 0
360.566 22.0504 0
358.027 22.0938 0
359.224 17.7873 0
360.529 19.908 0
359.297 22.0721 0
357.991 19.9513 0
359.26 19.9297 0
360.493 17.7656 0
363.031 17.7221 0
363.104 22.007 0
360.566 22.0504 0
361.762 17.7439 0
363.067 19.8646 0
361.835 22.0287 0
360.529 19.908 0
361.798 19.8863 0
363.031 17.7221 0
365.569 17.6785 0
365.642 21.9634 0
363.104 22.007 0
364.3 17.7003 0
365.605 19.821 0
364.373 21.9852 0
363.067 19.8646 0
364.336 19.8428 0
365.569 17.6785 0
368.107 17.6348 0
368.18 21.9197 0
365.642 21.9634 0
366.838 17.6567 0
368.144 19.7773 0
366.911 21.9416 0
365.605 19.821 0
366.875 19.7991 0
368.107 17.6348 0
370.645 17.591 0
370.719 21.8758 0
368.18 21.9197 0
369.376 17.6129 0
370.682 19.7334 0
369.45 21.8978 0
368.144 19.7773 0
369.413 19.7554 0
370.645 17.591 0
373.183 17.547 0
373.257 21.8319 0
370.719 21.8758 0
371.914 17.569 0
373.22 19.6895 0
371.988 21.8539 0
370.682 19.7334 0
371.951 19.7115 0
373.183 17.547 0
375.721 17.5029 0
375.795 21.7878 0
373.257 21.8319 0
374.452 17.525 0
375.758 19.6454 0
374.526 21.8098 0
373.22 19.6895 0
374.489 19.6674 0
375.721 17.5029 0
378.259 17.4587 0
378.333 21.7436 0
375.795 21.7878 0
376.99 17.4808 0
378.296 19.6012 0
377.064 21.7657 0
375.758 19.6454 0
377.027 19.6233 0
378.259 17.4587 0
380.797 17.4144 0
380.871 21.6993 0
378.333 21.7436 0
379.528 17.4366 0
380.834 19.5568 0
379.602 21.7214 0
378.296 19.6012 0
379.565 19.579 0
380.797 17.4144 0
383.335 17.37 0
383.41 21.6548 0
380.871 21.6993 0
382.066 17.3922 0
383.372 19.5124 0
382.141 21.6771 0
380.834 19.5568 0
382.103 19.5346 0
383.335 17.37 0
385.873 17.3254 0
385.948 21.6103 0
383.41 21.6548 0
384.604 17.3477 0
385.91 19.4679 0
384.679 21.6326 0
383.372 19.5124 0
384.641 19.4902 0
385.873 17.3254 0
388.411 17.2808 0
388.486 21.5656 0
385.948 21.6103 0
387.142 17.3031 0
388.448 19.4232 0
387.217 21.588 0
385.91 19.4679 0
387.179 19.4456 0
388.411 17.2808 0
390.948 17.236 0
391.024 21.5209 0
388.486 21.5656 0
389.679 17.2584 0
390.986 19.3784 0
389.755 21.5433 0
388.448 19.4232 0
389.717 19.4008 0
390.948 17.236 0
393.486 17.1911 0
393.562 21.476 0
391.024 21.5209 0
392.217 17.2136 0
393.524 19.3336 0
392.293 21.4985 0
390.986 19.3784 0
392.255 19.356 0
393.486 17.1911 0
396.024 17.1462 0
396.1 21.431 0
393.562 21.476 0
394.755 17.1687 0
396.062 19.2886 0
394.831 21.4535 0
393.524 19.3336 0
394.793 19.3111 0
396.024 17.1462 0
398.562 17.1011 0
398.638 21.386 0
396.1 21.431 0
397.293 17.1237 0
398.6 19.2436 0
397.369 21.4085 0
396.062 19.2886 0
397.331 19.2661 0
398.562 17.1011 0
401.1 17.0559 0
401.176 21.3408 0
398.638 21.386 0
399.831 17.0785 0
401.138 19.1984 0
399.907 21.3634 0
398.6 19.2436 0
399.869 19.221 0
401.1 17.0559 0
403.638 17.0107 0
403.714 21.2956 0
401.176 21.3408 0
402.369 17.0333 0
403.676 19.1531 0
402.445 21.3182 0
401.138 19.1984 0
402.407 19.1758 0
403.638 17.0107 0
406.176 16.9653 0
406.252 21.2502 0
403.714 21.2956 0
404.907 16.988 0
406.214 19.1078 0
404.983 21.2729 0
403.676 19.1531 0
404.945 19.1305 0
406.176 16.9653 0
408.714 16.9199 0
408.791 21.2048 0
406.252 21.2502 0
407.445 16.9426 0
408.752 19.0623 0
407.522 21.2275 0
406.214 19.1078 0
407.483 19.0851 0
408.714 16.9199 0
411.252 16.8744 0
411.329 21.1593 0
408.791 21.2048 0
409.983 16.8971 0
411.29 19.0168 0
410.06 21.182 0
408.752 19.0623 0
410.021 19.0396 0
411.252 16.8744 0
413.79 16.8288 0
413.867 21.1136 0
411.329 21.1593 0
412.521 16.8516 0
413.828 18.9712 0
412.598 21.1365 0
411.29 19.0168 0
412.559 18.994 0
413.79 16.8288 0
416.327 16.7831 0
416.405 21.068 0
413.867 21.1136 0
415.059 16.8059 0
416.366 18.9255 0
415.136 21.0908 0
413.828 18.9712 0
415.097 18.9484 0
416.327 16.7831 0
418.865 16.7373 0
418.943 21.0222 0
416.405 21.068 0
417.596 16.7602 0
418.904 18.8797 0
417.674 21.0451 0
416.366 18.9255 0
417.635 18.9026 0
418.865 16.7373 0
421.403 16.6914 0
421.481 20.9763 0
418.943 21.0222 0
420.134 16.7144 0
421.442 18.8339 0
420.212 20.9993 0
418.904 18.8797 0
420.173 18.8568 0
421.403 16.6914 0
423.941 16.6455 0
424.019 20.9304 0
421.481 20.9763 0
422.672 16.6685 0
423.98 18.788 0
422.75 20.9534 0
421.442 18.8339 0
422.711 18.8109 0
423.941 16.6455 0
426.479 16.5995 0
426.556 20.8844 0
424.019 20.9304 0
425.21 16.6225 0
426.518 18.742 0
425.287 20.9074 0
423.98 18.788 0
425.249 18.765 0
426.479 16.5995 0
429.017 16.5535 0
429.094 20.8384 0
426.556 20.8844 0
427.748 16.5765 0
429.056 18.6959 0
427.825 20.8614 0
426.518 18.742 0
427.787 18.719 0
429.017 16.5535 0
431.555 16.5073 0
431.632 20.7922 0
429.094 20.8384 0
430.286 16.5304 0
431.593 18.6498 0
430.363 20.8153 0
429.056 18.6959 0
430.324 18.6729 0
431.555 16.5073 0
434.092 16.4611 0
434.17 20.746 0
431.632 20.7922 0
432.823 16.4842 0
434.131 18.6036 0
432.901 20.7691 0
431.593 18.6498 0
432.862 18.6267 0
434.092 16.4611 0
436.63 16.4149 0
436.708 20.6998 0
434.17 20.746 0
435.361 16.438 0
436.669 18.5573 0
435.439 20.7229 0
434.131 18.6036 0
435.4 18.5805 0
436.63 16.4149 0
439.168 16.3685 0
439.246 20.6534 0
436.708 20.6998 0
437.899 16.3917 0
439.207 18.511 0
437.977 20.6766 0
436.669 18.5573 0
437.938 18.5342 0
439.168 16.3685 0
441.706 16.3222 0
441.784 20.6071 0
439.246 20.6534 0
440.437 16.3454 0
441.745 18.4646 0
440.515 20.6303 0
439.207 18.511 0
440.476 18.4878 0
441.706 16.3222 0
444.244 16.2757 0
444.322 20.5606 0
441.784 20.6071 0
442.975 16.2989 0
444.283 18.4182 0
443.053 20.5839 0
441.745 18.4646 0
443.014 18.4414 0
444.244 16.2757 0
446.781 16.2292 0
446.86 20.5141 0
444.322 20.5606 0
445.512 16.2525 0
446.82 18.3717 0
445.591 20.5374 0
444.283 18.4182 0
445.552 18.3949 0
446.781 16.2292 0
449.319 16.1827 0
449.398 20.4676 0
446.86 20.5141 0
448.05 16.206 0
449.358 18.3252 0
448.129 20.4909 0
446.82 18.3717 0
448.089 18.3484 0
449.319 16.1827 0
451.857 16.1361 0
451.935 20.421 0
449.398 20.4676 0
450.588 16.1594 0
451.896 18.2786 0
450.666 20.4443 0
449.358 18.3252 0
450.627 18.3019 0
451.857 16.1361 0
454.395 16.0895 0
454.473 20.3744 0
451.935 20.421 0
453.126 16.1128 0
454.434 18.2319 0
453.204 20.3977 0
451.896 18.2786 0
453.165 18.2553 0
454.395 16.0895 0
456.932 16.0428 0
457.011 20.3277 0
454.473 20.3744 0
455.663 16.0661 0
456.972 18.1853 0
455.742 20.3511 0
454.434 18.2319 0
455.703 18.2086 0
456.932 16.0428 0
459.47 15.9961 0
459.549 20.281 0
457.011 20.3277 0
458.201 16.0194 0
459.509 18.1385 0
458.28 20.3044 0
456.972 18.1853 0
458.241 18.1619 0
459.47 15.9961 0
462.008 15.9493 0
462.087 20.2342 0
459.549 20.281 0
460.739 15.9727 0
462.047 18.0918 0
460.818 20.2576 0
459.509 18.1385 0
460.778 18.1152 0
462.008 15.9493 0
464.546 15.9025 0
464.624 20.1874 0
462.087 20.2342 0
463.277 15.9259 0
464.585 18.045 0
463.356 20.2108 0
462.047 18.0918 0
463.316 18.0684 0
464.546 15.9025 0
467.083 15.8557 0
467.162 20.1406 0
464.624 20.1874 0
465.814 15.8791 0
467.123 17.9982 0
465.893 20.164 0
464.585 18.045 0
465.854 18.0216 0
467.083 15.8557 0
469.621 15.8088 0
469.7 20.0938 0
467.162 20.1406 0
468.352 15.8323 0
469.66 17.9513 0
468.431 20.1172 0
467.123 17.9982 0
468.392 17.9747 0
469.621 15.8088 0
472.159 15.7619 0
472.238 20.0469 0
469.7 20.0938 0
470.89 15.7854 0
472.198 17.9044 0
470.969 20.0703 0
469.66 17.9513 0
470.929 17.9279 0
472.159 15.7619 0
474.696 15.715 0
474.775 20 0
472.238 20.0469 0
473.428 15.7385 0
474.736 17.8575 0
473.507 20.0234 0
472.198 17.9044 0
473.467 17.881 0
474.696 15.715 0
477.234 15.6681 0
477.313 19.953 0
474.775 20 0
475.965 15.6916 0
477.274 17.8106 0
476.044 19.9765 0
474.736 17.8575 0
476.005 17.834 0
477.234 15.6681 0
479.772 15.6211 0
479.851 19.9061 0
477.313 19.953 0
478.503 15.6446 0
479.811 17.7636 0
478.582 19.9296 0
477.274 17.8106 0
478.543 17.7871 0
479.772 15.6211 0
482.309 15.5741 0
482.389 19.8591 0
479.851 19.9061 0
481.041 15.5976 0
482.349 17.7166 0
481.12 19.8826 0
479.811 17.7636 0
481.08 17.7401 0
482.309 15.5741 0
484.847 15.5271 0
484.926 19.8121 0
482.389 19.8591 0
483.578 15.5506 0
484.887 17.6696 0
483.658 19.8356 0
482.349 17.7166 0
483.618 17.6931 0
484.847 15.5271 0
487.385 15.4801 0
487.464 19.7651 0
484.926 19.8121 0
486.116 15.5036 0
487.424 17.6226 0
486.195 19.7886 0
484.887 17.6696 0
486.156 17.6461 0
487.385 15.4801 0
489.922 15.4331 0
490.002 19.7181 0
487.464 19.7651 0
488.654 15.4566 0
489.962 17.5756 0
488.733 19.7416 0
487.424 17.6226 0
488.693 17.5991 0
489.922 15.4331 0
492.46 15.3861 0
492.539 19.671 0
490.002 19.7181 0
491.191 15.4096 0
492.5 17.5286 0
491.271 19.6946 0
489.962 17.5756 0
491.231 17.5521 0
492.46 15.3861 0
494.998 15.339 0
495.077 19.624 0
492.539 19.671 0
493.729 15.3626 0
495.037 17.4815 0
493.808 19.6475 0
492.5 17.5286 0
493.769 17.505 0
494.998 15.339 0
497.535 15.292 0
497.615 19.5769 0
495.077 19.624 0
496.267 15.3155 0
497.575 17.4344 0
496.346 19.6005 0
495.037 17.4815 0
496.306 17.458 0
497.535 15.292 0
500.073 15.245 0
500.152 19.5298 0
497.615 19.5769 0
498.804 15.2685 0
500.113 17.3874 0
498.884 19.5534 0
497.575 17.4344 0
498.844 17.4109 0
0 25.7143 0
2.5399 25.7138 0
2.54114 29.9985 0
0 30 0
1.26992 25.7141 0
2.54039 27.8562 0
1.27071 29.999 0
0 27.8571 0
1.27014 27.8567 0
2.5399 25.7138 0
5.07996 25.7128 0
5.08188 29.9973 0
2.54114 29.9985 0
3.80992 25.7133 0
5.08087 27.8551 0
3.81151 29.9979 0
2.54039 27.8562 0
3.81063 27.8557 0
5.07996 25.7128 0
7.62003 25.7114 0
7.62263 29.996 0
5.08188 29.9973 0
6.34999 25.7122 0
7.62131 27.8537 0
6.35225 29.9967 0
5.08087 27.8551 0
6.35109 27.8545 0
7.62003 25.7114 0
10.1601 25.7097 0
10.1634 29.9942 0
7.62263 29.996 0
8.89006 25.7106 0
10.1617 27.852 0
8.89301 29.9951 0
7.62131 27.8537 0
8.89153 27.8529 0
10.1601 25.7097 0
12.7001 25.7075 0
12.7042 29.992 0
10.1634 29.9942 0
11.4301 25.7086 0
12.7022 27.8498 0
11.4338 29.9932 0
10.1617 27.852 0
11.4319 27.8509 0
12.7001 25.7075 0
15.2402 25.7048 0
15.245 29.9894 0
12.7042 29.992 0
13.9702 25.7062 0
15.2426 27.8471 0
13.9746 29.9907 0
12.7022 27.8498 0
13.9724 27.8485 0
15.2402 25.7048 0
17.7802 25.7017 0
17.7858 29.9863 0
15.245 29.9894 0
16.5102 25.7033 0
17.783 27.844 0
16.5154 29.9879 0
15.2426 27.8471 0
16.5128 27.8457 0
17.7802 25.7017 0
20.3202 25.6982 0
20.3265 29.9827 0
17.7858 29.9863 0
19.0502 25.7 0
20.3234 27.8405 0
19.0562 29.9845 0
17.783 27.844 0
19.0532 27.8423 0
20.3202 25.6982 0
22.8602 25.6942 0
22.8673 29.9787 0
20.3265 29.9827 0
21.5902 25.6962 0
22.8637 27.8365 0
21.5969 29.9808 0
20.3234 27.8405 0
21.5935 27.8385 0
22.8602 25.6942 0
25.4002 25.6897 0
25.408 29.9742 0
22.8673 29.9787 0
24.1302 25.692 0
25.4041 27.832 0
24.1377 29.9765 0
22.8637 27.8365 0
24.1339 27.8343 0
25.4002 25.6897 0
27.9401 25.6847 0
27.9488 29.9693 0
25.408 29.9742 0
26.6702 25.6873 0
27.9444 27.8271 0
26.6784 29.9718 0
25.4041 27.832 0
26.6743 27.8296 0
27.9401 25.6847 0
30.4801 25.6794 0
30.4895 29.9639 0
27.9488 29.9693 0
29.2101 25.6821 0
30.4848 27.8217 0
29.2191 29.9667 0
27.9444 27.8271 0
29.2146 27.8244 0
30.4801 25.6794 0
33.02 25.6735 0
33.0302 29.9581 0
30.4895 29.9639 0
31.7501 25.6765 0
33.0251 27.8159 0
31.7599 29.9611 0
30.4848 27.8217 0
31.755 27.8188 0
33.02 25.6735 0
35.56 25.6673 0
35.5709 29.9518 0
33.0302 29.9581 0
34.29 25.6704 0
35.5654 27.8096 0
34.3006 29.955 0
33.0251 27.8159 0
34.2953 27.8128 0
35.56 25.6673 0
38.0999 25.6605 0
38.1116 29.9451 0
35.5709 29.9518 0
36.8299 25.664 0
38.1057 27.8029 0
36.8412 29.9485 0
35.5654 27.8096 0
36.8356 27.8063 0
38.0999 25.6605 0
40.6398 25.6534 0
40.6522 29.9379 0
38.1116 29.9451 0
39.3699 25.657 0
40.646 27.7957 0
39.3819 29.9416 0
38.1057 27.8029 0
39.3759 27.7993 0
40.6398 25.6534 0
43.1797 25.6458 0
43.1929 29.9303 0
40.6522 29.9379 0
41.9098 25.6496 0
43.1863 27.7881 0
41.9225 29.9342 0
40.646 27.7957 0
41.9162 27.792 0
43.1797 25.6458 0
45.7196 25.6377 0
45.7335 29.9223 0
43.1929 29.9303 0
44.4497 25.6418 0
45.7265 27.7801 0
44.4632 29.9264 0
43.1863 27.7881 0
44.4564 27.7841 0
45.7196 25.6377 0
48.2595 25.6293 0
48.2741 29.9139 0
45.7335 29.9223 0
46.9896 25.6336 0
48.2668 27.7716 0
47.0038 29.9181 0
45.7265 27.7801 0
46.9967 27.7759 0
48.2595 25.6293 0
50.7994 25.6204 0
50.8147 29.905 0
48.2741 29.9139 0
49.5294 25.6249 0
50.807 27.7627 0
49.5444 29.9095 0
48.2668 27.7716 0
49.5369 27.7672 0
50.7994 25.6204 0
53.3392 25.611 0
53.3553 29.8956 0
50.8147 29.905 0
52.0693 25.6158 0
53.3472 27.7534 0
52.085 29.9003 0
50.807 27.7627 0
52.0771 27.7581 0
53.3392 25.611 0
55.8791 25.6013 0
55.8958 29.8859 0
53.3553 29.8956 0
54.6092 25.6062 0
55.8874 27.7436 0
54.6256 29.8908 0
53.3472 27.7534 0
54.6173 27.7486 0
55.8791 25.6013 0
58.4189 25.5911 0
58.4364 29.8757 0
55.8958 29.8859 0
57.149 25.5962 0
58.4276 27.7334 0
57.1661 29.8808 0
55.8874 27.7436 0
57.1575 27.7386 0
58.4189 25.5911 0
60.9587 25.5805 0
60.9769 29.8651 0
58.4364 29.8757 0
59.6888 25.5859 0
60.9678 27.7228 0
59.7067 29.8704 0
58.4276 27.7334 0
59.6977 27.7282 0
60.9587 25.5805 0
63.4985 25.5695 0
63.5174 29.8541 0
60.9769 29.8651 0
62.2286 25.575 0
63.508 27.7118 0
62.2472 29.8596 0
60.9678 27.7228 0
62.2379 27.7174 0
63.4985 25.5695 0
66.0383 25.558 0
66.0579 29.8426 0
63.5174 29.8541 0
64.7684 25.5638 0
66.0481 27.7004 0
64.7877 29.8484 0
63.508 27.7118 0
64.7781 27.7062 0
66.0383 25.558 0
68.5781 25.5462 0
68.5984 29.8308 0
66.0579 29.8426 0
67.3082 25.5522 0
68.5883 27.6885 0
67.3282 29.8368 0
66.0481 27.7004 0
67.3182 27.6945 0
68.5781 25.5462 0
71.1179 25.5339 0
71.1389 29.8185 0
68.5984 29.8308 0
69.848 25.5401 0
71.1284 27.6763 0
69.8687 29.8247 0
68.5883 27.6885 0
69.8583 27.6825 0
71.1179 25.5339 0
73.6577 25.5212 0
73.6793 29.8059 0
71.1389 29.8185 0
72.3878 25.5276 0
73.6685 27.6636 0
72.4091 29.8122 0
71.1284 27.6763 0
72.3984 27.67 0
73.6577 25.5212 0
76.1974 25.5082 0
76.2198 29.7928 0
73.6793 29.8059 0
74.9275 25.5148 0
76.2086 27.6505 0
74.9496 29.7994 0
73.6685 27.6636 0
74.9385 27.6571 0
76.1974 25.5082 0
78.7371 25.4947 0
78.7602 29.7793 0
76.2198 29.7928 0
77.4673 25.5015 0
78.7487 27.637 0
77.49 29.7861 0
76.2086 27.6505 0
77.4786 27.6438 0
78.7371 25.4947 0
81.2769 25.4808 0
81.3006 29.7654 0
78.7602 29.7793 0
80.007 25.4878 0
81.2887 27.6231 0
80.0304 29.7724 0
78.7487 27.637 0
80.0187 27.6301 0
81.2769 25.4808 0
83.8166 25.4665 0
83.841 29.7511 0
81.3006 29.7654 0
82.5467 25.4737 0
83.8288 27.6089 0
82.5708 29.7583 0
81.2887 27.6231 0
82.5587 27.6161 0
83.8166 25.4665 0
86.3563 25.4518 0
86.3813 29.7364 0
83.841 29.7511 0
85.0864 25.4592 0
86.3688 27.5942 0
85.1112 29.7438 0
83.8288 27.6089 0
85.0988 27.6016 0
86.3563 25.4518 0
88.896 25.4367 0
88.9217 29.7214 0
86.3813 29.7364 0
87.6261 25.4443 0
88.9088 27.5791 0
87.6515 29.729 0
86.3688 27.5942 0
87.6388 27.5867 0
88.896 25.4367 0
91.4356 25.4213 0
91.462 29.7059 0
88.9217 29.7214 0
90.1658 25.429 0
91.4488 27.5636 0
90.1919 29.7137 0
88.9088 27.5791 0
90.1788 27.5714 0
91.4356 25.4213 0
93.9753 25.4054 0
94.0023 29.69 0
91.462 29.7059 0
92.7055 25.4134 0
93.9888 27.5478 0
92.7322 29.698 0
91.4488 27.5636 0
92.7188 27.5557 0
93.9753 25.4054 0
96.515 25.3892 0
96.5426 29.6738 0
94.0023 29.69 0
95.2451 25.3973 0
96.5288 27.5315 0
95.2725 29.682 0
93.9888 27.5478 0
95.2588 27.5397 0
96.515 25.3892 0
99.0546 25.3725 0
99.0829 29.6572 0
96.5426 29.6738 0
97.7848 25.3809 0
99.0687 27.5149 0
97.8128 29.6655 0
96.5288 27.5315 0
97.7988 27.5232 0
99.0546 25.3725 0
101.594 25.3555 0
101.623 29.6401 0
99.0829 29.6572 0
100.324 25.3641 0
101.609 27.4979 0
100.353 29.6487 0
99.0687 27.5149 0
100.339 27.5064 0
101.594 25.3555 0
104.134 25.3381 0
104.163 29.6227 0
101.623 29.6401 0
102.864 25.3468 0
104.149 27.4805 0
102.893 29.6315 0
101.609 27.4979 0
102.879 27.4892 0
104.134 25.3381 0
106.673 25.3203 0
106.704 29.605 0
104.163 29.6227 0
105.404 25.3293 0
106.689 27.4627 0
105.434 29.6139 0
104.149 27.4805 0
105.419 27.4716 0
106.673 25.3203 0
109.213 25.3022 0
109.244 29.5868 0
106.704 29.605 0
107.943 25.3113 0
109.228 27.4445 0
107.974 29.5959 0
106.689 27.4627 0
107.958 27.4537 0
109.213 25.3022 0
111.753 25.2836 0
111.784 29.5683 0
109.244 29.5868 0
110.483 25.293 0
111.768 27.426 0
110.514 29.5776 0
109.228 27.4445 0
110.498 27.4353 0
111.753 25.2836 0
114.292 25.2647 0
114.324 29.5494 0
111.784 29.5683 0
113.022 25.2742 0
114.308 27.4071 0
113.054 29.5589 0
111.768 27.426 0
113.038 27.4166 0
114.292 25.2647 0
116.832 25.2455 0
116.864 29.5301 0
114.324 29.5494 0
115.562 25.2552 0
116.848 27.3878 0
115.594 29.5398 0
114.308 27.4071 0
115.578 27.3975 0
116.832 25.2455 0
119.371 25.2259 0
119.405 29.5105 0
116.864 29.5301 0
118.101 25.2357 0
119.388 27.3682 0
118.135 29.5204 0
116.848 27.3878 0
118.118 27.3781 0
119.371 25.2259 0
121.911 25.2059 0
121.945 29.4905 0
119.405 29.5105 0
120.641 25.2159 0
121.928 27.3482 0
120.675 29.5006 0
119.388 27.3682 0
120.658 27.3583 0
121.911 25.2059 0
124.45 25.1855 0
124.485 29.4702 0
121.945 29.4905 0
123.18 25.1957 0
124.468 27.3279 0
123.215 29.4804 0
121.928 27.3482 0
123.198 27.3381 0
124.45 25.1855 0
126.99 25.1648 0
127.025 29.4494 0
124.485 29.4702 0
125.72 25.1752 0
127.007 27.3072 0
125.755 29.4598 0
124.468 27.3279 0
125.737 27.3176 0
126.99 25.1648 0
129.529 25.1437 0
129.565 29.4284 0
127.025 29.4494 0
128.259 25.1543 0
129.547 27.2861 0
128.295 29.439 0
127.007 27.3072 0
128.277 27.2967 0
129.529 25.1437 0
132.069 25.1223 0
132.105 29.407 0
129.565 29.4284 0
130.799 25.1331 0
132.087 27.2647 0
130.835 29.4177 0
129.547 27.2861 0
130.817 27.2754 0
132.069 25.1223 0
134.608 25.1005 0
134.645 29.3852 0
132.105 29.407 0
133.338 25.1115 0
134.627 27.2429 0
133.375 29.3961 0
132.087 27.2647 0
133.357 27.2538 0
134.608 25.1005 0
137.148 25.0784 0
137.185 29.3631 0
134.645 29.3852 0
135.878 25.0895 0
137.166 27.2208 0
135.915 29.3742 0
134.627 27.2429 0
135.896 27.2319 0
137.148 25.0784 0
139.687 25.0559 0
139.725 29.3406 0
137.185 29.3631 0
138.417 25.0672 0
139.706 27.1983 0
138.455 29.3519 0
137.166 27.2208 0
138.436 27.2096 0
139.687 25.0559 0
142.226 25.0331 0
142.265 29.3178 0
139.725 29.3406 0
140.957 25.0446 0
142.246 27.1755 0
140.995 29.3292 0
139.706 27.1983 0
140.976 27.1869 0
142.226 25.0331 0
144.766 25.01 0
144.805 29.2946 0
142.265 29.3178 0
143.496 25.0216 0
144.785 27.1523 0
143.535 29.3062 0
142.246 27.1755 0
143.516 27.1639 0
144.766 25.01 0
147.305 24.9865 0
147.345 29.2711 0
144.805 29.2946 0
146.036 24.9983 0
147.325 27.1288 0
146.075 29.2829 0
144.785 27.1523 0
146.055 27.1406 0
147.305 24.9865 0
149.845 24.9626 0
149.885 29.2473 0
147.345 29.2711 0
148.575 24.9746 0
149.865 27.105 0
148.615 29.2593 0
147.325 27.1288 0
148.595 27.117 0
149.845 24.9626 0
152.384 24.9385 0
152.425 29.2231 0
149.885 29.2473 0
151.114 24.9506 0
152.404 27.0808 0
151.155 29.2353 0
149.865 27.105 0
151.135 27.093 0
152.384 24.9385 0
154.923 24.914 0
154.965 29.1986 0
152.425 29.2231 0
153.654 24.9263 0
154.944 27.0563 0
153.695 29.2109 0
152.404 27.0808 0
153.674 27.0686 0
154.923 24.914 0
157.463 24.8891 0
157.505 29.1738 0
154.965 29.1986 0
156.193 24.9016 0
157.484 27.0315 0
156.235 29.1863 0
154.944 27.0563 0
156.214 27.044 0
157.463 24.8891 0
160.002 24.864 0
160.045 29.1487 0
157.505 29.1738 0
158.732 24.8766 0
160.023 27.0064 0
158.775 29.1613 0
157.484 27.0315 0
158.753 27.019 0
160.002 24.864 0
162.541 24.8385 0
162.584 29.1232 0
160.045 29.1487 0
161.272 24.8513 0
162.563 26.9809 0
161.315 29.136 0
160.023 27.0064 0
161.293 26.9937 0
162.541 24.8385 0
165.081 24.8127 0
165.124 29.0974 0
162.584 29.1232 0
163.811 24.8257 0
165.102 26.9551 0
163.854 29.1103 0
162.563 26.9809 0
163.833 26.968 0
165.081 24.8127 0
167.62 24.7866 0
167.664 29.0713 0
165.124 29.0974 0
166.35 24.7997 0
167.642 26.929 0
166.394 29.0844 0
165.102 26.9551 0
166.372 26.9421 0
167.62 24.7866 0
170.159 24.7602 0
170.204 29.0448 0
167.664 29.0713 0
168.889 24.7734 0
170.182 26.9025 0
168.934 29.0581 0
167.642 26.929 0
168.912 26.9158 0
170.159 24.7602 0
172.698 24.7334 0
172.744 29.0181 0
170.204 29.0448 0
171.429 24.7468 0
172.721 26.8758 0
171.474 29.0315 0
170.182 26.9025 0
171.451 26.8892 0
172.698 24.7334 0
175.238 24.7063 0
175.283 28.991 0
172.744 29.0181 0
173.968 24.7199 0
175.261 26.8487 0
174.014 29.0046 0
172.721 26.8758 0
173.991 26.8623 0
175.238 24.7063 0
177.777 24.679 0
177.823 28.9636 0
175.283 28.991 0
176.507 24.6927 0
177.8 26.8213 0
176.553 28.9774 0
175.261 26.8487 0
176.53 26.8351 0
177.777 24.679 0
180.316 24.6513 0
180.363 28.936 0
177.823 28.9636 0
179.046 24.6652 0
180.339 26.7936 0
179.093 28.9498 0
177.8 26.8213 0
179.07 26.8075 0
180.316 24.6513 0
182.855 24.6233 0
182.903 28.908 0
180.363 28.936 0
181.586 24.6373 0
182.879 26.7657 0
181.633 28.922 0
180.339 26.7936 0
181.609 26.7797 0
182.855 24.6233 0
185.394 24.595 0
185.442 28.8797 0
182.903 28.908 0
184.125 24.6092 0
185.418 26.7374 0
184.173 28.8939 0
182.879 26.7657 0
184.149 26.7516 0
185.394 24.595 0
187.934 24.5664 0
187.982 28.8511 0
185.442 28.8797 0
186.664 24.5807 0
187.958 26.7088 0
186.712 28.8654 0
185.418 26.7374 0
186.688 26.7231 0
187.934 24.5664 0
190.473 24.5375 0
190.522 28.8222 0
187.982 28.8511 0
189.203 24.552 0
190.497 26.6799 0
189.252 28.8367 0
187.958 26.7088 0
189.228 26.6944 0
190.473 24.5375 0
193.012 24.5083 0
193.061 28.793 0
190.522 28.8222 0
191.742 24.523 0
193.037 26.6507 0
191.792 28.8076 0
190.497 26.6799 0
191.767 26.6653 0
193.012 24.5083 0
195.551 24.4789 0
195.601 28.7635 0
193.061 28.793 0
194.281 24.4936 0
195.576 26.6212 0
194.331 28.7783 0
193.037 26.6507 0
194.306 26.636 0
195.551 24.4789 0
198.09 24.4491 0
198.141 28.7338 0
195.601 28.7635 0
196.821 24.464 0
198.115 26.5915 0
196.871 28.7487 0
195.576 26.6212 0
196.846 26.6064 0
198.09 24.4491 0
200.629 24.419 0
200.68 28.7037 0
198.141 28.7338 0
199.36 24.4341 0
200.655 26.5614 0
199.41 28.7188 0
198.115 26.5915 0
199.385 26.5765 0
200.629 24.419 0
203.168 24.3887 0
203.22 28.6734 0
200.68 28.7037 0
201.899 24.4039 0
203.194 26.5311 0
201.95 28.6886 0
200.655 26.5614 0
201.924 26.5463 0
203.168 24.3887 0
205.707 24.3581 0
205.759 28.6427 0
203.22 28.6734 0
204.438 24.3734 0
205.733 26.5004 0
204.49 28.6581 0
203.194 26.5311 0
204.464 26.5158 0
205.707 24.3581 0
208.246 24.3272 0
208.299 28.6118 0
205.759 28.6427 0
206.977 24.3427 0
208.273 26.4695 0
207.029 28.6273 0
205.733 26.5004 0
207.003 26.485 0
208.246 24.3272 0
210.786 24.296 0
210.838 28.5807 0
208.299 28.6118 0
209.516 24.3116 0
210.812 26.4383 0
209.569 28.5963 0
208.273 26.4695 0
209.542 26.454 0
210.786 24.296 0
213.325 24.2645 0
213.378 28.5492 0
210.838 28.5807 0
212.055 24.2803 0
213.351 26.4069 0
212.108 28.565 0
210.812 26.4383 0
212.082 26.4227 0
213.325 24.2645 0
215.864 24.2328 0
215.917 28.5175 0
213.378 28.5492 0
214.594 24.2487 0
215.89 26.3752 0
214.648 28.5334 0
213.351 26.4069 0
214.621 26.3911 0
215.864 24.2328 0
218.403 24.2008 0
218.457 28.4855 0
215.917 28.5175 0
217.133 24.2168 0
218.43 26.3431 0
217.187 28.5015 0
215.89 26.3752 0
217.16 26.3592 0
218.403 24.2008 0
220.942 24.1685 0
220.996 28.4532 0
218.457 28.4855 0
219.672 24.1847 0
220.969 26.3109 0
219.727 28.4694 0
218.43 26.3431 0
219.699 26.327 0
220.942 24.1685 0
223.481 24.136 0
223.536 28.4206 0
220.996 28.4532 0
222.211 24.1523 0
223.508 26.2783 0
222.266 28.4369 0
220.969 26.3109 0
222.239 26.2946 0
223.481 24.136 0
226.02 24.1032 0
226.075 28.3878 0
223.536 28.4206 0
224.75 24.1196 0
226.047 26.2455 0
224.805 28.4043 0
223.508 26.2783 0
224.778 26.262 0
226.02 24.1032 0
228.559 24.0701 0
228.614 28.3548 0
226.075 28.3878 0
227.289 24.0867 0
228.586 26.2125 0
227.345 28.3713 0
226.047 26.2455 0
227.317 26.229 0
228.559 24.0701 0
231.097 24.0368 0
231.154 28.3215 0
228.614 28.3548 0
229.828 24.0535 0
231.126 26.1791 0
229.884 28.3381 0
228.586 26.2125 0
229.856 26.1958 0
231.097 24.0368 0
233.636 24.0032 0
233.693 28.2879 0
231.154 28.3215 0
232.367 24.02 0
233.665 26.1456 0
232.424 28.3047 0
231.126 26.1791 0
232.395 26.1624 0
233.636 24.0032 0
236.175 23.9694 0
236.233 28.254 0
233.693 28.2879 0
234.906 23.9863 0
236.204 26.1117 0
234.963 28.271 0
233.665 26.1456 0
234.934 26.1287 0
236.175 23.9694 0
238.714 23.9353 0
238.772 28.2199 0
236.233 28.254 0
237.445 23.9523 0
238.743 26.0776 0
237.502 28.237 0
236.204 26.1117 0
237.473 26.0947 0
238.714 23.9353 0
241.253 23.9009 0
241.311 28.1856 0
238.772 28.2199 0
239.984 23.9181 0
241.282 26.0433 0
240.042 28.2028 0
238.743 26.0776 0
240.013 26.0605 0
241.253 23.9009 0
243.792 23.8663 0
243.85 28.151 0
241.311 28.1856 0
242.523 23.8837 0
243.821 26.0087 0
242.581 28.1684 0
241.282 26.0433 0
242.552 26.026 0
243.792 23.8663 0
246.331 23.8315 0
246.39 28.1162 0
243.85 28.151 0
245.061 23.849 0
246.36 25.9739 0
245.12 28.1336 0
243.821 26.0087 0
245.091 25.9913 0
246.331 23.8315 0
248.87 23.7964 0
248.929 28.0811 0
246.39 28.1162 0
247.6 23.814 0
248.899 25.9388 0
247.659 28.0987 0
246.36 25.9739 0
247.63 25.9564 0
248.87 23.7964 0
251.408 23.7611 0
251.468 28.0458 0
248.929 28.0811 0
250.139 23.7788 0
251.438 25.9035 0
250.199 28.0635 0
248.899 25.9388 0
250.169 25.9212 0
251.408 23.7611 0
253.947 23.7256 0
254.007 28.0103 0
251.468 28.0458 0
252.678 23.7434 0
253.977 25.868 0
252.738 28.0281 0
251.438 25.9035 0
252.708 25.8858 0
253.947 23.7256 0
256.486 23.6898 0
256.547 27.9745 0
254.007 28.0103 0
255.217 23.7077 0
256.516 25.8322 0
255.277 27.9924 0
253.977 25.868 0
255.247 25.8501 0
256.486 23.6898 0
259.025 23.6538 0
259.086 27.9385 0
256.547 27.9745 0
257.756 23.6718 0
259.055 25.7962 0
257.816 27.9565 0
256.516 25.8322 0
257.786 25.8142 0
259.025 23.6538 0
261.564 23.6175 0
261.625 27.9022 0
259.086 27.9385 0
260.294 23.6357 0
261.594 25.7599 0
260.355 27.9204 0
259.055 25.7962 0
260.325 25.7781 0
261.564 23.6175 0
264.102 23.5811 0
264.164 27.8658 0
261.625 27.9022 0
262.833 23.5993 0
264.133 25.7234 0
262.895 27.884 0
261.594 25.7599 0
262.864 25.7417 0
264.102 23.5811 0
266.641 23.5444 0
266.703 27.8291 0
264.164 27.8658 0
265.372 23.5627 0
266.672 25.6867 0
265.434 27.8474 0
264.133 25.7234 0
265.403 25.7051 0
266.641 23.5444 0
269.18 23.5075 0
269.242 27.7921 0
266.703 27.8291 0
267.911 23.5259 0
269.211 25.6498 0
267.973 27.8106 0
266.672 25.6867 0
267.942 25.6683 0
269.18 23.5075 0
271.719 23.4703 0
271.781 27.755 0
269.242 27.7921 0
270.449 23.4889 0
271.75 25.6127 0
270.512 27.7736 0
269.211 25.6498 0
270.481 25.6313 0
271.719 23.4703 0
274.257 23.433 0
274.321 27.7176 0
271.781 27.755 0
272.988 23.4517 0
274.289 25.5753 0
273.051 27.7364 0
271.75 25.6127 0
273.02 25.594 0
274.257 23.433 0
276.796 23.3954 0
276.86 27.6801 0
274.321 27.7176 0
275.527 23.4142 0
276.828 25.5377 0
275.59 27.6989 0
274.289 25.5753 0
275.558 25.5566 0
276.796 23.3954 0
279.335 23.3576 0
279.399 27.6423 0
276.86 27.6801 0
278.065 23.3765 0
279.367 25.5 0
278.129 27.6612 0
276.828 25.5377 0
278.097 25.5189 0
279.335 23.3576 0
281.873 23.3196 0
281.938 27.6043 0
279.399 27.6423 0
280.604 23.3386 0
281.906 25.462 0
280.668 27.6233 0
279.367 25.5 0
280.636 25.481 0
281.873 23.3196 0
284.412 23.2814 0
284.477 27.5661 0
281.938 27.6043 0
283.143 23.3005 0
284.444 25.4238 0
283.207 27.5852 0
281.906 25.462 0
283.175 25.4429 0
284.412 23.2814 0
286.951 23.243 0
287.016 27.5277 0
284.477 27.5661 0
285.681 23.2622 0
286.983 25.3853 0
285.746 27.5469 0
284.444 25.4238 0
285.714 25.4046 0
286.951 23.243 0
289.489 23.2044 0
289.555 27.4891 0
287.016 27.5277 0
288.22 23.2237 0
289.522 25.3467 0
288.285 27.5084 0
286.983 25.3853 0
288.253 25.3661 0
289.489 23.2044 0
292.028 23.1655 0
292.094 27.4502 0
289.555 27.4891 0
290.759 23.185 0
292.061 25.3079 0
290.824 27.4697 0
289.522 25.3467 0
290.791 25.3273 0
292.028 23.1655 0
294.567 23.1265 0
294.633 27.4112 0
292.094 27.4502 0
293.297 23.1461 0
294.6 25.2689 0
293.363 27.4308 0
292.061 25.3079 0
293.33 25.2884 0
294.567 23.1265 0
297.105 23.0873 0
297.171 27.372 0
294.633 27.4112 0
295.836 23.107 0
297.138 25.2297 0
295.902 27.3917 0
294.6 25.2689 0
295.869 25.2493 0
297.105 23.0873 0
299.644 23.0479 0
299.71 27.3326 0
297.171 27.372 0
298.374 23.0676 0
299.677 25.1903 0
298.441 27.3523 0
297.138 25.2297 0
298.408 25.21 0
299.644 23.0479 0
302.182 23.0083 0
302.249 27.293 0
299.71 27.3326 0
300.913 23.0281 0
302.216 25.1507 0
300.98 27.3128 0
299.677 25.1903 0
300.946 25.1705 0
302.182 23.0083 0
304.721 22.9685 0
304.788 27.2532 0
302.249 27.293 0
303.452 22.9885 0
304.754 25.1109 0
303.519 27.2732 0
302.216 25.1507 0
303.485 25.1308 0
304.721 22.9685 0
307.259 22.9286 0
307.327 27.2133 0
304.788 27.2532 0
305.99 22.9486 0
307.293 25.0709 0
306.058 27.2333 0
304.754 25.1109 0
306.024 25.091 0
307.259 22.9286 0
309.798 22.8884 0
309.866 27.1731 0
307.327 27.2133 0
308.529 22.9085 0
309.832 25.0308 0
308.596 27.1932 0
307.293 25.0709 0
308.563 25.0509 0
309.798 22.8884 0
312.336 22.8481 0
312.405 27.1328 0
309.866 27.1731 0
311.067 22.8683 0
312.371 24.9905 0
311.135 27.153 0
309.832 25.0308 0
311.101 25.0106 0
312.336 22.8481 0
314.875 22.8076 0
314.943 27.0923 0
312.405 27.1328 0
313.606 22.8278 0
314.909 24.9499 0
313.674 27.1126 0
312.371 24.9905 0
313.64 24.9702 0
314.875 22.8076 0
317.413 22.7669 0
317.482 27.0516 0
314.943 27.0923 0
316.144 22.7872 0
317.448 24.9092 0
316.213 27.072 0
314.909 24.9499 0
316.179 24.9296 0
317.413 22.7669 0
319.952 22.726 0
320.021 27.0107 0
317.482 27.0516 0
318.683 22.7465 0
319.986 24.8684 0
318.752 27.0312 0
317.448 24.9092 0
318.717 24.8888 0
319.952 22.726 0
322.49 22.685 0
322.56 26.9697 0
320.021 27.0107 0
321.221 22.7055 0
322.525 24.8273 0
321.29 26.9902 0
319.986 24.8684 0
321.256 24.8479 0
322.49 22.685 0
325.029 22.6438 0
325.098 26.9285 0
322.56 26.9697 0
323.76 22.6644 0
325.064 24.7861 0
323.829 26.9491 0
322.525 24.8273 0
323.794 24.8068 0
325.029 22.6438 0
327.567 22.6024 0
327.637 26.8871 0
325.098 26.9285 0
326.298 22.6231 0
327.602 24.7448 0
326.368 26.9078 0
325.064 24.7861 0
326.333 24.7655 0
327.567 22.6024 0
330.106 22.5609 0
330.176 26.8456 0
327.637 26.8871 0
328.836 22.5816 0
330.141 24.7032 0
328.907 26.8664 0
327.602 24.7448 0
328.871 24.724 0
330.106 22.5609 0
332.644 22.5192 0
332.715 26.8039 0
330.176 26.8456 0
331.375 22.54 0
332.679 24.6615 0
331.445 26.8247 0
330.141 24.7032 0
331.41 24.6824 0
332.644 22.5192 0
335.182 22.4773 0
335.253 26.762 0
332.715 26.8039 0
333.913 22.4982 0
335.218 24.6197 0
333.984 26.783 0
332.679 24.6615 0
333.949 24.6406 0
335.182 22.4773 0
337.721 22.4353 0
337.792 26.72 0
335.253 26.762 0
336.452 22.4563 0
337.756 24.5777 0
336.523 26.741 0
335.218 24.6197 0
336.487 24.5987 0
337.721 22.4353 0
340.259 22.3931 0
340.33 26.6778 0
337.792 26.72 0
338.99 22.4142 0
340.295 24.5355 0
339.061 26.6989 0
337.756 24.5777 0
339.026 24.5566 0
340.259 22.3931 0
342.798 22.3508 0
342.869 26.6355 0
340.33 26.6778 0
341.528 22.372 0
342.833 24.4932 0
341.6 26.6567 0
340.295 24.5355 0
341.564 24.5143 0
342.798 22.3508 0
345.336 22.3083 0
345.408 26.593 0
342.869 26.6355 0
344.067 22.3296 0
345.372 24.4507 0
344.138 26.6143 0
342.833 24.4932 0
344.103 24.4719 0
345.336 22.3083 0
347.874 22.2657 0
347.946 26.5504 0
345.408 26.593 0
346.605 22.287 0
347.91 24.4081 0
346.677 26.5717 0
345.372 24.4507 0
346.641 24.4294 0
347.874 22.2657 0
350.413 22.2229 0
350.485 26.5077 0
347.946 26.5504 0
349.143 22.2443 0
350.449 24.3653 0
349.216 26.5291 0
347.91 24.4081 0
349.179 24.3867 0
350.413 22.2229 0
352.951 22.18 0
353.023 26.4647 0
350.485 26.5077 0
351.682 22.2015 0
352.987 24.3224 0
351.754 26.4862 0
350.449 24.3653 0
351.718 24.3439 0
352.951 22.18 0
355.489 22.137 0
355.562 26.4217 0
353.023 26.4647 0
354.22 22.1585 0
355.526 24.2793 0
354.293 26.4432 0
352.987 24.3224 0
354.256 24.3009 0
355.489 22.137 0
358.027 22.0938 0
358.1 26.3785 0
355.562 26.4217 0
356.758 22.1154 0
358.064 24.2362 0
356.831 26.4001 0
355.526 24.2793 0
356.795 24.2578 0
358.027 22.0938 0
360.566 22.0504 0
360.639 26.3352 0
358.1 26.3785 0
359.297 22.0721 0
360.602 24.1928 0
359.37 26.3569 0
358.064 24.2362 0
359.333 24.2145 0
360.566 22.0504 0
363.104 22.007 0
363.177 26.2917 0
360.639 26.3352 0
361.835 22.0287 0
363.141 24.1494 0
361.908 26.3135 0
360.602 24.1928 0
361.872 24.1711 0
363.104 22.007 0
365.642 21.9634 0
365.716 26.2481 0
363.177 26.2917 0
364.373 21.9852 0
365.679 24.1058 0
364.447 26.27 0
363.141 24.1494 0
364.41 24.1276 0
365.642 21.9634 0
368.18 21.9197 0
368.254 26.2044 0
365.716 26.2481 0
366.911 21.9416 0
368.217 24.0621 0
366.985 26.2263 0
365.679 24.1058 0
366.948 24.0839 0
368.18 21.9197 0
370.719 21.8758 0
370.793 26.1606 0
368.254 26.2044 0
369.45 21.8978 0
370.756 24.0182 0
369.524 26.1825 0
368.217 24.0621 0
369.487 24.0402 0
370.719 21.8758 0
373.257 21.8319 0
373.331 26.1166 0
370.793 26.1606 0
371.988 21.8539 0
373.294 23.9743 0
372.062 26.1386 0
370.756 24.0182 0
372.025 23.9963 0
373.257 21.8319 0
375.795 21.7878 0
375.87 26.0726 0
373.331 26.1166 0
374.526 21.8098 0
375.832 23.9302 0
374.6 26.0946 0
373.294 23.9743 0
374.563 23.9522 0
375.795 21.7878 0
378.333 21.7436 0
378.408 26.0284 0
375.87 26.0726 0
377.064 21.7657 0
378.371 23.886 0
377.139 26.0505 0
375.832 23.9302 0
377.101 23.9081 0
378.333 21.7436 0
380.871 21.6993 0
380.946 25.984 0
378.408 26.0284 0
379.602 21.7214 0
380.909 23.8417 0
379.677 26.0062 0
378.371 23.886 0
379.64 23.8638 0
380.871 21.6993 0
383.41 21.6548 0
383.485 25.9396 0
380.946 25.984 0
382.141 21.6771 0
383.447 23.7972 0
382.215 25.9618 0
380.909 23.8417 0
382.178 23.8195 0
383.41 21.6548 0
385.948 21.6103 0
386.023 25.8951 0
383.485 25.9396 0
384.679 21.6326 0
385.985 23.7527 0
384.754 25.9173 0
383.447 23.7972 0
384.716 23.775 0
385.948 21.6103 0
388.486 21.5656 0
388.561 25.8504 0
386.023 25.8951 0
387.217 21.588 0
388.524 23.708 0
387.292 25.8727 0
385.985 23.7527 0
387.254 23.7304 0
388.486 21.5656 0
391.024 21.5209 0
391.1 25.8057 0
388.561 25.8504 0
389.755 21.5433 0
391.062 23.6633 0
389.83 25.828 0
388.524 23.708 0
389.793 23.6857 0
391.024 21.5209 0
393.562 21.476 0
393.638 25.7608 0
391.1 25.8057 0
392.293 21.4985 0
393.6 23.6184 0
392.369 25.7832 0
391.062 23.6633 0
392.331 23.6409 0
393.562 21.476 0
396.1 21.431 0
396.176 25.7158 0
393.638 25.7608 0
394.831 21.4535 0
396.138 23.5734 0
394.907 25.7383 0
393.6 23.6184 0
394.869 23.5959 0
396.1 21.431 0
398.638 21.386 0
398.714 25.6708 0
396.176 25.7158 0
397.369 21.4085 0
398.676 23.5284 0
397.445 25.6933 0
396.138 23.5734 0
397.407 23.5509 0
398.638 21.386 0
401.176 21.3408 0
401.253 25.6256 0
398.714 25.6708 0
399.907 21.3634 0
401.214 23.4832 0
399.984 25.6482 0
398.676 23.5284 0
399.945 23.5058 0
401.176 21.3408 0
403.714 21.2956 0
403.791 25.5804 0
401.253 25.6256 0
402.445 21.3182 0
403.753 23.438 0
402.522 25.603 0
401.214 23.4832 0
402.484 23.4606 0
403.714 21.2956 0
406.252 21.2502 0
406.329 25.535 0
403.791 25.5804 0
404.983 21.2729 0
406.291 23.3926 0
405.06 25.5577 0
403.753 23.438 0
405.022 23.4153 0
406.252 21.2502 0
408.791 21.2048 0
408.867 25.4896 0
406.329 25.535 0
407.522 21.2275 0
408.829 23.3472 0
407.598 25.5123 0
406.291 23.3926 0
407.56 23.3699 0
408.791 21.2048 0
411.329 21.1593 0
411.405 25.4441 0
408.867 25.4896 0
410.06 21.182 0
411.367 23.3017 0
410.136 25.4668 0
408.829 23.3472 0
410.098 23.3244 0
411.329 21.1593 0
413.867 21.1136 0
413.944 25.3985 0
411.405 25.4441 0
412.598 21.1365 0
413.905 23.2561 0
412.674 25.4213 0
411.367 23.3017 0
412.636 23.2789 0
413.867 21.1136 0
416.405 21.068 0
416.482 25.3528 0
413.944 25.3985 0
415.136 21.0908 0
416.443 23.2104 0
415.213 25.3756 0
413.905 23.2561 0
415.174 23.2332 0
416.405 21.068 0
418.943 21.0222 0
419.02 25.307 0
416.482 25.3528 0
417.674 21.0451 0
418.981 23.1646 0
417.751 25.3299 0
416.443 23.2104 0
417.712 23.1875 0
418.943 21.0222 0
421.481 20.9763 0
421.558 25.2612 0
419.02 25.307 0
420.212 20.9993 0
421.519 23.1188 0
420.289 25.2841 0
418.981 23.1646 0
420.25 23.1417 0
421.481 20.9763 0
424.019 20.9304 0
424.096 25.2152 0
421.558 25.2612 0
422.75 20.9534 0
424.057 23.0728 0
422.827 25.2382 0
421.519 23.1188 0
422.788 23.0958 0
424.019 20.9304 0
426.556 20.8844 0
426.634 25.1692 0
424.096 25.2152 0
425.287 20.9074 0
426.595 23.0268 0
425.365 25.1923 0
424.057 23.0728 0
425.326 23.0498 0
426.556 20.8844 0
429.094 20.8384 0
429.172 25.1232 0
426.634 25.1692 0
427.825 20.8614 0
429.133 22.9808 0
427.903 25.1462 0
426.595 23.0268 0
427.864 23.0038 0
429.094 20.8384 0
431.632 20.7922 0
431.71 25.0771 0
429.172 25.1232 0
430.363 20.8153 0
431.671 22.9346 0
430.441 25.1001 0
429.133 22.9808 0
430.402 22.9577 0
431.632 20.7922 0
434.17 20.746 0
434.248 25.0309 0
431.71 25.0771 0
432.901 20.7691 0
434.209 22.8885 0
432.979 25.054 0
431.671 22.9346 0
432.94 22.9116 0
434.17 20.746 0
436.708 20.6998 0
436.786 24.9846 0
434.248 25.0309 0
435.439 20.7229 0
436.747 22.8422 0
435.517 25.0077 0
434.209 22.8885 0
435.478 22.8653 0
436.708 20.6998 0
439.246 20.6534 0
439.324 24.9383 0
436.786 24.9846 0
437.977 20.6766 0
439.285 22.7959 0
438.055 24.9615 0
436.747 22.8422 0
438.016 22.819 0
439.246 20.6534 0
441.784 20.6071 0
441.862 24.8919 0
439.324 24.9383 0
440.515 20.6303 0
441.823 22.7495 0
440.593 24.9151 0
439.285 22.7959 0
440.554 22.7727 0
441.784 20.6071 0
444.322 20.5606 0
444.4 24.8455 0
441.862 24.8919 0
443.053 20.5839 0
444.361 22.7031 0
443.131 24.8687 0
441.823 22.7495 0
443.092 22.7263 0
444.322 20.5606 0
446.86 20.5141 0
446.938 24.799 0
444.4 24.8455 0
445.591 20.5374 0
446.899 22.6566 0
445.669 24.8223 0
444.361 22.7031 0
445.63 22.6798 0
446.86 20.5141 0
449.398 20.4676 0
449.476 24.7525 0
446.938 24.799 0
448.129 20.4909 0
449.437 22.61 0
448.207 24.7757 0
446.899 22.6566 0
448.168 22.6333 0
449.398 20.4676 0
451.935 20.421 0
452.014 24.7059 0
449.476 24.7525 0
450.666 20.4443 0
451.975 22.5635 0
450.745 24.7292 0
449.437 22.61 0
450.706 22.5868 0
451.935 20.421 0
454.473 20.3744 0
454.552 24.6593 0
452.014 24.7059 0
453.204 20.3977 0
454.513 22.5168 0
453.283 24.6826 0
451.975 22.5635 0
453.244 22.5401 0
454.473 20.3744 0
457.011 20.3277 0
457.09 24.6126 0
454.552 24.6593 0
455.742 20.3511 0
457.05 22.4702 0
455.821 24.6359 0
454.513 22.5168 0
455.782 22.4935 0
457.011 20.3277 0
459.549 20.281 0
459.628 24.5659 0
457.09 24.6126 0
458.28 20.3044 0
459.588 22.4234 0
458.359 24.5892 0
457.05 22.4702 0
458.319 22.4468 0
459.549 20.281 0
462.087 20.2342 0
462.166 24.5191 0
459.628 24.5659 0
460.818 20.2576 0
462.126 22.3767 0
460.897 24.5425 0
459.588 22.4234 0
460.857 22.4001 0
462.087 20.2342 0
464.624 20.1874 0
464.703 24.4723 0
462.166 24.5191 0
463.356 20.2108 0
464.664 22.3299 0
463.435 24.4957 0
462.126 22.3767 0
463.395 22.3533 0
464.624 20.1874 0
467.162 20.1406 0
467.241 24.4255 0
464.703 24.4723 0
465.893 20.164 0
467.202 22.2831 0
465.972 24.4489 0
464.664 22.3299 0
465.933 22.3065 0
467.162 20.1406 0
469.7 20.0938 0
469.779 24.3787 0
467.241 24.4255 0
468.431 20.1172 0
469.74 22.2362 0
468.51 24.4021 0
467.202 22.2831 0
468.471 22.2597 0
469.7 20.0938 0
472.238 20.0469 0
472.317 24.3318 0
469.779 24.3787 0
470.969 20.0703 0
472.277 22.1893 0
471.048 24.3552 0
469.74 22.2362 0
471.008 22.2128 0
472.238 20.0469 0
474.775 20 0
474.855 24.2849 0
472.317 24.3318 0
473.507 20.0234 0
474.815 22.1424 0
473.586 24.3083 0
472.277 22.1893 0
473.546 22.1659 0
474.775 20 0
477.313 19.953 0
477.392 24.238 0
474.855 24.2849 0
476.044 19.9765 0
477.353 22.0955 0
476.124 24.2614 0
474.815 22.1424 0
476.084 22.119 0
477.313 19.953 0
479.851 19.9061 0
479.93 24.191 0
477.392 24.238 0
478.582 19.9296 0
479.891 22.0485 0
478.661 24.2145 0
477.353 22.0955 0
478.622 22.072 0
479.851 19.9061 0
482.389 19.8591 0
482.468 24.144 0
479.93 24.191 0
481.12 19.8826 0
482.428 22.0016 0
481.199 24.1675 0
479.891 22.0485 0
481.159 22.0251 0
482.389 19.8591 0
484.926 19.8121 0
485.006 24.097 0
482.468 24.144 0
483.658 19.8356 0
484.966 21.9546 0
483.737 24.1205 0
482.428 22.0016 0
483.697 21.9781 0
484.926 19.8121 0
487.464 19.7651 0
487.543 24.05 0
485.006 24.097 0
486.195 19.7886 0
487.504 21.9076 0
486.275 24.0736 0
484.966 21.9546 0
486.235 21.9311 0
487.464 19.7651 0
490.002 19.7181 0
490.081 24.003 0
487.543 24.05 0
488.733 19.7416 0
490.041 21.8606 0
488.812 24.0265 0
487.504 21.9076 0
488.773 21.8841 0
490.002 19.7181 0
492.539 19.671 0
492.619 23.956 0
490.081 24.003 0
491.271 19.6946 0
492.579 21.8135 0
491.35 23.9795 0
490.041 21.8606 0
491.31 21.837 0
492.539 19.671 0
495.077 19.624 0
495.157 23.909 0
492.619 23.956 0
493.808 19.6475 0
495.117 21.7665 0
493.888 23.9325 0
492.579 21.8135 0
493.848 21.79 0
495.077 19.624 0
497.615 19.5769 0
497.694 23.8619 0
495.157 23.909 0
496.346 19.6005 0
497.654 21.7194 0
496.425 23.8854 0
495.117 21.7665 0
496.386 21.7429 0
497.615 19.5769 0
500.152 19.5298 0
500.232 23.8146 0
497.694 23.8619 0
498.884 19.5534 0
500.192 21.6722 0
498.963 23.8383 0
497.654 21.7194 0
498.923 21.6958 0
      </DataArray>
    </Points>
    <Cells>
      <DataArray type="Int32" Name="connectivity" format="ascii">
0 1 2 3 4 5 6 7 8 
9 10 11 12 13 14 15 16 17 
18 19 20 21 22 23 24 25 26 
27 28 29 30 31 32 33 34 35 
36 37 38 39 40 41 42 43 44 
45 46 47 48 49 50 51 52 53 
54 55 56 57 58 59 60 61 62 
63 64 65 66 67 68 69 70 71 
72 73 74 75 76 77 78 79 80 
81 82 83 84 85 86 87 88 89 
90 91 92 93 94 95 96 97 98 
99 100 101 102 103 104 105 106 107 
108 109 110 111 112 113 114 115 116 
117 118 119 120 121 122 123 124 125 
126 127 128 129 130 131 132 133 134 
135 136 137 138 139 140 141 142 143 
144 145 146 147 148 149 150 151 152 
153 154 155 156 157 158 159 160 161 
162 163 164 165 166 167 168 169 170 
171 172 173 174 175 176 177 178 179 
180 181 182 183 184 185 186 187 188 
189 190 191 192 193 194 195 196 197 
198 199 200 201 202 203 204 205 206 
207 208 209 210 211 212 213 214 215 
216 217 218 219 220 221 222 223 224 
225 226 227 228 229 230 231 232 233 
234 235 236 237 238 239 240 241 242 
243 244 245 246 247 248 249 250 251 
252 253 254 255 256 257 258 259 260 
261 262 263 264 265 266 267 268 269 
270 271 272 273 274 275 276 277 278 
279 280 281 282 283 284 285 286 287 
288 289 290 291 292 293 294 295 296 
297 298 299 300 301 302 303 304 305 
306 307 308 309 310 311 312 313 314 
315 316 317 318 319 320 321 322 323 
324 325 326 327 328 329 330 331 332 
333 334 335 336 337 338 339 340 341 
342 343 344 345 346 347 348 349 350 
351 352 353 354 355 356 357 358 359 
360 361 362 363 364 365 366 367 368 
369 370 371 372 373 374 375 376 377 
378 379 380 381 382 383 384 385 386 
387 388 389 390 391 392 393 394 395 
396 397 398 399 400 401 402 403 404 
405 406 407 408 409 410 411 412 413 
414 415 416 417 418 419 420 421 422 
423 424 425 426 427 428 429 430 431 
432 433 434 435 436 437 438 439 440 
441 442 443 444 445 446 447 448 449 
450 451 452 453 454 455 456 457 458 
459 460 461 462 463 464 465 466 467 
468 469 470 471 472 473 474 475 476 
477 478 479 480 481 482 483 484 485 
486 487 488 489 490 491 492 493 494 
495 496 497 498 499 500 501 502 503 
504 505 506 507 508 509 510 511 512 
513 514 515 516 517 518 519 520 521 
522 523 524 525 526 527 528 529 530 
531 532 533 534 535 536 537 538 539 
540 541 542 543 544 545 546 547 548 
549 550 551 552 553 554 555 556 557 
558 559 560 561 562 563 564 565 566 
567 568 569 570 571 572 573 574 575 
576 577 578 579 580 581 582 583 584 
585 586 587 588 589 590 591 592 593 
594 595 596 597 598 599 600 601 602 
603 604 605 606 607 608 609 610 611 
612 613 614 615 616 617 618 619 620 
621 622 623 624 625 626 627 628 629 
630 631 632 633 634 635 636 637 638 
639 640 641 642 643 644 645 646 647 
648 649 650 651 652 653 654 655 656 
657 658 659 660 661 662 663 664 665 
666 667 668 669 670 671 672 673 674 
675 676 677 678 679 680 681 682 683 
684 685 686 687 688 689 690 691 692 
693 694 695 696 697 698 699 700 701 
702 703 704 705 706 707 708 709 710 
711 712 713 714 715 716 717 718 719 
720 721 722 723 724 725 726 727 728 
729 730 731 732 733 734 735 736 737 
738 739 740 741 742 743 744 745 746 
747 748 749 750 751 752 753 754 755 
756 757 758 759 760 761 762 763 764 
765 766 767 768 769 770 771 772 773 
774 775 776 777 778 779 780 781 782 
783 784 785 786 787 788 789 790 791 
792 793 794 795 796 797 798 799 800 
801 802 803 804 805 806 807 808 809 
810 811 812 813 814 815 816 817 818 
819 820 821 822 823 824 825 826 827 
828 829 830 831 832 833 834 835 836 
837 838 839 840 841 842 843 844 845 
846 847 848 849 850 851 852 853 854 
855 856 857 858 859 860 861 862 863 
864 865 866 867 868 869 870 871 872 
873 874 875 876 877 878 879 880 881 
882 883 884 885 886 887 888 889 890 
891 892 893 894 895 896 897 898 899 
900 901 902 903 904 905 906 907 908 
909 910 911 912 913 914 915 916 917 
918 919 920 921 922 923 924 925 926 
927 928 929 930 931 932 933 934 935 
936 937 938 939 940 941 942 943 944 
945 946 947 948 949 950 951 952 953 
954 955 956 957 958 959 960 961 962 
963 964 965 966 967 968 969 970 971 
972 973 974 975 976 977 978 979 980 
981 982 983 984 985 986 987 988 989 
990 991 992 993 994 995 996 997 998 
999 1000 1001 1002 1003 1004 1005 1006 1007 
1008 1009 1010 1011 1012 1013 1014 1015 1016 
1017 1018 1019 1020 1021 1022 1023 1024 1025 
1026 1027 1028 1029 1030 1031 1032 1033 1034 
1035 1036 1037 1038 1039 1040 1041 1042 1043 
1044 1045 1046 1047 1048 1049 1050 1051 1052 
1053 1054 1055 1056 1057 1058 1059 1060 1061 
1062 1063 1064 1065 1066 1067 1068 1069 1070 
1071 1072 1073 1074 1075 1076 1077 1078 1079 
1080 1081 1082 1083 1084 1085 1086 1087 1088 
1089 1090 1091 1092 1093 1094 1095 1096 1097 
1098 1099 1100 1101 1102 1103 1104 1105 1106 
1107 1108 1109 1110 1111 1112 1113 1114 1115 
1116 1117 1118 1119 1120 1121 1122 1123 1124 
1125 1126 1127 1128 1129 1130 1131 1132 1133 
1134 1135 1136 1137 1138 1139 1140 1141 1142 
1143 1144 1145 1146 1147 1148 1149 1150 1151 
1152 1153 1154 1155 1156 1157 1158 1159 1160 
1161 1162 1163 1164 1165 1166 1167 1168 1169 
1170 1171 1172 1173 1174 1175 1176 1177 1178 
1179 1180 1181 1182 1183 1184 1185 1186 1187 
1188 1189 1190 1191 1192 1193 1194 1195 1196 
1197 1198 1199 1200 1201 1202 1203 1204 1205 
1206 1207 1208 1209 1210 1211 1212 1213 1214 
1215 1216 1217 1218 1219 1220 1221 1222 1223 
1224 1225 1226 1227 1228 1229 1230 1231 1232 
1233 1234 1235 1236 1237 1238 1239 1240 1241 
1242 1243 1244 1245 1246 1247 1248 1249 1250 
1251 1252 1253 1254 1255 1256 1257 1258 1259 
1260 1261 1262 1263 1264 1265 1266 1267 1268 
1269 1270 1271 1272 1273 1274 1275 1276 1277 
1278 1279 1280 1281 1282 1283 1284 1285 1286 
1287 1288 1289 1290 1291 1292 1293 1294 1295 
1296 1297 1298 1299 1300 1301 1302 1303 1304 
1305 1306 1307 1308 1309 1310 1311 1312 1313 
1314 1315 1316 1317 1318 1319 1320 1321 1322 
1323 1324 1325 1326 1327 1328 1329 1330 1331 
1332 1333 1334 1335 1336 1337 1338 1339 1340 
1341 1342 1343 1344 1345 1346 1347 1348 1349 
1350 1351 1352 1353 1354 1355 1356 1357 1358 
1359 1360 1361 1362 1363 1364 1365 1366 1367 
1368 1369 1370 1371 1372 1373 1374 1375 1376 
1377 1378 1379 1380 1381 1382 1383 1384 1385 
1386 1387 1388 1389 1390 1391 1392 1393 1394 
1395 1396 1397 1398 1399 1400 1401 1402 1403 
1404 1405 1406 1407 1408 1409 1410 1411 1412 
1413 1414 1415 1416 1417 1418 1419 1420 1421 
1422 1423 1424 1425 1426 1427 1428 1429 1430 
1431 1432 1433 1434 1435 1436 1437 1438 1439 
1440 1441 1442 1443 1444 1445 1446 1447 1448 
1449 1450 1451 1452 1453 1454 1455 1456 1457 
1458 1459 1460 1461 1462 1463 1464 1465 1466 
1467 1468 1469 1470 1471 1472 1473 1474 1475 
1476 1477 1478 1479 1480 1481 1482 1483 1484 
1485 1486 1487 1488 1489 1490 1491 1492 1493 
1494 1495 1496 1497 1498 1499 1500 1501 1502 
1503 1504 1505 1506 1507 1508 1509 1510 1511 
1512 1513 1514 1515 1516 1517 1518 1519 1520 
1521 1522 1523 1524 1525 1526 1527 1528 1529 
1530 1531 1532 1533 1534 1535 1536 1537 1538 
1539 1540 1541 1542 1543 1544 1545 1546 1547 
1548 1549 1550 1551 1552 1553 1554 1555 1556 
1557 1558 1559 1560 1561 1562 1563 1564 1565 
1566 1567 1568 1569 1570 1571 1572 1573 1574 
1575 1576 1577 1578 1579 1580 1581 1582 1583 
1584 1585 1586 1587 1588 1589 1590 1591 1592 
1593 1594 1595 1596 1597 1598 1599 1600 1601 
1602 1603 1604 1605 1606 1607 1608 1609 1610 
1611 1612 1613 1614 1615 1616 1617 1618 1619 
1620 1621 1622 1623 1624 1625 1626 1627 1628 
1629 1630 1631 1632 1633 1634 1635 1636 1637 
1638 1639 1640 1641 1642 1643 1644 1645 1646 
1647 1648 1649 1650 1651 1652 1653 1654 1655 
1656 1657 1658 1659 1660 1661 1662 1663 1664 
1665 1666 1667 1668 1669 1670 1671 1672 1673 
1674 1675 1676 1677 1678 1679 1680 1681 1682 
1683 1684 1685 1686 1687 1688 1689 1690 1691 
1692 1693 1694 1695 1696 1697 1698 1699 1700 
1701 1702 1703 1704 1705 1706 1707 1708 1709 
1710 1711 1712 1713 1714 1715 1716 1717 1718 
1719 1720 1721 1722 1723 1724 1725 1726 1727 
1728 1729 1730 1731 1732 1733 1734 1735 1736 
1737 1738 1739 1740 1741 1742 1743 1744 1745 
1746 1747 1748 1749 1750 1751 1752 1753 1754 
1755 1756 1757 1758 1759 1760 1761 1762 1763 
1764 1765 1766 1767 1768 1769 1770 1771 1772 
1773 1774 1775 1776 1777 1778 1779 1780 1781 
1782 1783 1784 1785 1786 1787 1788 1789 1790 
1791 1792 1793 1794 1795 1796 1797 1798 1799 
1800 1801 1802 1803 1804 1805 1806 1807 1808 
1809 1810 1811 1812 1813 1814 1815 1816 1817 
1818 1819 1820 1821 1822 1823 1824 1825 1826 
1827 1828 1829 1830 1831 1832 1833 1834 1835 
1836 1837 1838 1839 1840 1841 1842 1843 1844 
1845 1846 1847 1848 1849 1850 1851 1852 1853 
1854 1855 1856 1857 1858 1859 1860 1861 1862 
1863 1864 1865 1866 1867 1868 1869 1870 1871 
1872 1873 1874 1875 1876 1877 1878 1879 1880 
1881 1882 1883 1884 1885 1886 1887 1888 1889 
1890 1891 1892 1893 1894 1895 1896 1897 1898 
1899 1900 1901 1902 1903 1904 1905 1906 1907 
1908 1909 1910 1911 1912 1913 1914 1915 1916 
1917 1918 1919 1920 1921 1922 1923 1924 1925 
1926 1927 1928 1929 1930 1931 1932 1933 1934 
1935 1936 1937 1938 1939 1940 1941 1942 1943 
1944 1945 1946 1947 1948 1949 1950 1951 1952 
1953 1954 1955 1956 1957 1958 1959 1960 1961 
1962 1963 1964 1965 1966 1967 1968 1969 1970 
1971 1972 1973 1974 1975 1976 1977 1978 1979 
1980 1981 1982 1983 1984 1985 1986 1987 1988 
1989 1990 1991 1992 1993 1994 1995 1996 1997 
1998 1999 2000 2001 2002 2003 2004 2005 2006 
2007 2008 2009 2010 2011 2012 2013 2014 2015 
2016 2017 2018 2019 2020 2021 2022 2023 2024 
2025 2026 2027 2028 2029 2030 2031 2032 2033 
2034 2035 2036 2037 2038 2039 2040 2041 2042 
2043 2044 2045 2046 2047 2048 2049 2050 2051 
2052 2053 2054 2055 2056 2057 2058 2059 2060 
2061 2062 2063 2064 2065 2066 2067 2068 2069 
2070 2071 2072 2073 2074 2075 2076 2077 2078 
2079 2080 2081 2082 2083 2084 2085 2086 2087 
2088 2089 2090 2091 2092 2093 2094 2095 2096 
2097 2098 2099 2100 2101 2102 2103 2104 2105 
2106 2107 2108 2109 2110 2111 2112 2113 2114 
2115 2116 2117 2118 2119 2120 2121 2122 2123 
2124 2125 2126 2127 2128 2129 2130 2131 2132 
2133 2134 2135 2136 2137 2138 2139 2140 2141 
2142 2143 2144 2145 2146 2147 2148 2149 2150 
2151 2152 2153 2154 2155 2156 2157 2158 2159 
2160 2161 2162 2163 2164 2165 2166 2167 2168 
2169 2170 2171 2172 2173 2174 2175 2176 2177 
2178 2179 2180 2181 2182 2183 2184 2185 2186 
2187 2188 2189 2190 2191 2192 2193 2194 2195 
2196 2197 2198 2199 2200 2201 2202 2203 2204 
2205 2206 2207 2208 2209 2210 2211 2212 2213 
2214 2215 2216 2217 2218 2219 2220 2221 2222 
2223 2224 2225 2226 2227 2228 2229 2230 2231 
2232 2233 2234 2235 2236 2237 2238 2239 2240 
2241 2242 2243 2244 2245 2246 2247 2248 2249 
2250 2251 2252 2253 2254 2255 2256 2257 2258 
2259 2260 2261 2262 2263 2264 2265 2266 2267 
2268 2269 2270 2271 2272 2273 2274 2275 2276 
2277 2278 2279 2280 2281 2282 2283 2284 2285 
2286 2287 2288 2289 2290 2291 2292 2293 2294 
2295 2296 2297 2298 2299 2300 2301 2302 2303 
2304 2305 2306 2307 2308 2309 2310 2311 2312 
2313 2314 2315 2316 2317 2318 2319 2320 2321 
2322 2323 2324 2325 2326 2327 2328 2329 2330 
2331 2332 2333 2334 2335 2336 2337 2338 2339 
2340 2341 2342 2343 2344 2345 2346 2347 2348 
2349 2350 2351 2352 2353 2354 2355 2356 2357 
2358 2359 2360 2361 2362 2363 2364 2365 2366 
2367 2368 2369 2370 2371 2372 2373 2374 2375 
2376 2377 2378 2379 2380 2381 2382 2383 2384 
2385 2386 2387 2388 2389 2390 2391 2392 2393 
2394 2395 2396 2397 2398 2399 2400 2401 2402 
2403 2404 2405 2406 2407 2408 2409 2410 2411 
2412 2413 2414 2415 2416 2417 2418 2419 2420 
2421 2422 2423 2424 2425 2426 2427 2428 2429 
2430 2431 2432 2433 2434 2435 2436 2437 2438 
2439 2440 2441 2442 2443 2444 2445 2446 2447 
2448 2449 2450 2451 2452 2453 2454 2455 2456 
2457 2458 2459 2460 2461 2462 2463 2464 2465 
2466 2467 2468 2469 2470 2471 2472 2473 2474 
2475 2476 2477 2478 2479 2480 2481 2482 2483 
2484 2485 2486 2487 2488 2489 2490 2491 2492 
2493 2494 2495 2496 2497 2498 2499 2500 2501 
2502 2503 2504 2505 2506 2507 2508 2509 2510 
2511 2512 2513 2514 2515 2516 2517 2518 2519 
2520 2521 2522 2523 2524 2525 2526 2527 2528 
2529 2530 2531 2532 2533 2534 2535 2536 2537 
2538 2539 2540 2541 2542 2543 2544 2545 2546 
2547 2548 2549 2550 2551 2552 2553 2554 2555 
2556 2557 2558 2559 2560 2561 2562 2563 2564 
2565 2566 2567 2568 2569 2570 2571 2572 2573 
2574 2575 2576 2577 2578 2579 2580 2581 2582 
2583 2584 2585 2586 2587 2588 2589 2590 2591 
2592 2593 2594 2595 2596 2597 2598 2599 2600 
2601 2602 2603 2604 2605 2606 2607 2608 2609 
2610 2611 2612 2613 2614 2615 2616 2617 2618 
2619 2620 2621 2622 2623 2624 2625 2626 2627 
2628 2629 2630 2631 2632 2633 2634 2635 2636 
2637 2638 2639 2640 2641 2642 2643 2644 2645 
2646 2647 2648 2649 2650 2651 2652 2653 2654 
2655 2656 2657 2658 2659 2660 2661 2662 2663 
2664 2665 2666 2667 2668 2669 2670 2671 2672 
2673 2674 2675 2676 2677 2678 2679 2680 2681 
2682 2683 2684 2685 2686 2687 2688 2689 2690 
2691 2692 2693 2694 2695 2696 2697 2698 2699 
2700 2701 2702 2703 2704 2705 2706 2707 2708 
2709 2710 2711 2712 2713 2714 2715 2716 2717 
2718 2719 2720 2721 2722 2723 2724 2725 2726 
2727 2728 2729 2730 2731 2732 2733 2734 2735 
2736 2737 2738 2739 2740 2741 2742 2743 2744 
2745 2746 2747 2748 2749 2750 2751 2752 2753 
2754 2755 2756 2757 2758 2759 2760 2761 2762 
2763 2764 2765 2766 2767 2768 2769 2770 2771 
2772 2773 2774 2775 2776 2777 2778 2779 2780 
2781 2782 2783 2784 2785 2786 2787 2788 2789 
2790 2791 2792 2793 2794 2795 2796 2797 2798 
2799 2800 2801 2802 2803 2804 2805 2806 2807 
2808 2809 2810 2811 2812 2813 2814 2815 2816 
2817 2818 2819 2820 2821 2822 2823 2824 2825 
2826 2827 2828 2829 2830 2831 2832 2833 2834 
2835 2836 2837 2838 2839 2840 2841 2842 2843 
2844 2845 2846 2847 2848 2849 2850 2851 2852 
2853 2854 2855 2856 2857 2858 2859 2860 2861 
2862 2863 2864 2865 2866 2867 2868 2869 2870 
2871 2872 2873 2874 2875 2876 2877 2878 2879 
2880 2881 2882 2883 2884 2885 2886 2887 2888 
2889 2890 2891 2892 2893 2894 2895 2896 2897 
2898 2899 2900 2901 2902 2903 2904 2905 2906 
2907 2908 2909 2910 2911 2912 2913 2914 2915 
2916 2917 2918 2919 2920 2921 2922 2923 2924 
2925 2926 2927 2928 2929 2930 2931 2932 2933 
2934 2935 2936 2937 2938 2939 2940 2941 2942 
2943 2944 2945 2946 2947 2948 2949 2950 2951 
2952 2953 2954 2955 2956 2957 2958 2959 2960 
2961 2962 2963 2964 2965 2966 2967 2968 2969 
2970 2971 2972 2973 2974 2975 2976 2977 2978 
2979 2980 2981 2982 2983 2984 2985 2986 2987 
2988 2989 2990 2991 2992 2993 2994 2995 2996 
2997 2998 2999 3000 3001 3002 3003 3004 3005 
3006 3007 3008 3009 3010 3011 3012 3013 3014 
3015 3016 3017 3018 3019 3020 3021 3022 3023 
3024 3025 3026 3027 3028 3029 3030 3031 3032 
3033 3034 3035 3036 3037 3038 3039 3040 3041 
3042 3043 3044 3045 3046 3047 3048 3049 3050 
3051 3052 3053 3054 3055 3056 3057 3058 3059 
3060 3061 3062 3063 3064 3065 3066 3067 3068 
3069 3070 3071 3072 3073 3074 3075 3076 3077 
3078 3079 3080 3081 3082 3083 3084 3085 3086 
3087 3088 3089 3090 3091 3092 3093 3094 3095 
3096 3097 3098 3099 3100 3101 3102 3103 3104 
3105 3106 3107 3108 3109 3110 3111 3112 3113 
3114 3115 3116 3117 3118 3119 3120 3121 3122 
3123 3124 3125 3126 3127 3128 3129 3130 3131 
3132 3133 3134 3135 3136 3137 3138 3139 3140 
3141 3142 3143 3144 3145 3146 3147 3148 3149 
3150 3151 3152 3153 3154 3155 3156 3157 3158 
3159 3160 3161 3162 3163 3164 3165 3166 3167 
3168 3169 3170 3171 3172 3173 3174 3175 3176 
3177 3178 3179 3180 3181 3182 3183 3184 3185 
3186 3187 3188 3189 3190 3191 3192 3193 3194 
3195 3196 3197 3198 3199 3200 3201 3202 3203 
3204 3205 3206 3207 3208 3209 3210 3211 3212 
3213 3214 3215 3216 3217 3218 3219 3220 3221 
3222 3223 3224 3225 3226 3227 3228 3229 3230 
3231 3232 3233 3234 3235 3236 3237 3238 3239 
3240 3241 3242 3243 3244 3245 3246 3247 3248 
3249 3250 3251 3252 3253 3254 3255 3256 3257 
3258 3259 3260 3261 3262 3263 3264 3265 3266 
3267 3268 3269 3270 3271 3272 3273 3274 3275 
3276 3277 3278 3279 3280 3281 3282 3283 3284 
3285 3286 3287 3288 3289 3290 3291 3292 3293 
3294 3295 3296 3297 3298 3299 3300 3301 3302 
3303 3304 3305 3306 3307 3308 3309 3310 3311 
3312 3313 3314 3315 3316 3317 3318 3319 3320 
3321 3322 3323 3324 3325 3326 3327 3328 3329 
3330 3331 3332 3333 3334 3335 3336 3337 3338 
3339 3340 3341 3342 3343 3344 3345 3346 3347 
3348 3349 3350 3351 3352 3353 3354 3355 3356 
3357 3358 3359 3360 3361 3362 3363 3364 3365 
3366 3367 3368 3369 3370 3371 3372 3373 3374 
3375 3376 3377 3378 3379 3380 3381 3382 3383 
3384 3385 3386 3387 3388 3389 3390 3391 3392 
3393 3394 3395 3396 3397 3398 3399 3400 3401 
3402 3403 3404 3405 3406 3407 3408 3409 3410 
3411 3412 3413 3414 3415 3416 3417 3418 3419 
3420 3421 3422 3423 3424 3425 3426 3427 3428 
3429 3430 3431 3432 3433 3434 3435 3436 3437 
3438 3439 3440 3441 3442 3443 3444 3445 3446 
3447 3448 3449 3450 3451 3452 3453 3454 3455 
3456 3457 3458 3459 3460 3461 3462 3463 3464 
3465 3466 3467 3468 3469 3470 3471 3472 3473 
3474 3475 3476 3477 3478 3479 3480 3481 3482 
3483 3484 3485 3486 3487 3488 3489 3490 3491 
3492 3493 3494 3495 3496 3497 3498 3499 3500 
3501 3502 3503 3504 3505 3506 3507 3508 3509 
3510 3511 3512 3513 3514 3515 3516 3517 3518 
3519 3520 3521 3522 3523 3524 3525 3526 3527 
3528 3529 3530 3531 3532 3533 3534 3535 3536 
3537 3538 3539 3540 3541 3542 3543 3544 3545 
3546 3547 3548 3549 3550 3551 3552 3553 3554 
3555 3556 3557 3558 3559 3560 3561 3562 3563 
3564 3565 3566 3567 3568 3569 3570 3571 3572 
3573 3574 3575 3576 3577 3578 3579 3580 3581 
3582 3583 3584 3585 3586 3587 3588 3589 3590 
3591 3592 3593 3594 3595 3596 3597 3598 3599 
3600 3601 3602 3603 3604 3605 3606 3607 3608 
3609 3610 3611 3612 3613 3614 3615 3616 3617 
3618 3619 3620 3621 3622 3623 3624 3625 3626 
3627 3628 3629 3630 3631 3632 3633 3634 3635 
3636 3637 3638 3639 3640 3641 3642 3643 3644 
3645 3646 3647 3648 3649 3650 3651 3652 3653 
3654 3655 3656 3657 3658 3659 3660 3661 3662 
3663 3664 3665 3666 3667 3668 3669 3670 3671 
3672 3673 3674 3675 3676 3677 3678 3679 3680 
3681 3682 3683 3684 3685 3686 3687 3688 3689 
3690 3691 3692 3693 3694 3695 3696 3697 3698 
3699 3700 3701 3702 3703 3704 3705 3706 3707 
3708 3709 3710 3711 3712 3713 3714 3715 3716 
3717 3718 3719 3720 3721 3722 3723 3724 3725 
3726 3727 3728 3729 3730 3731 3732 3733 3734 
3735 3736 3737 3738 3739 3740 3741 3742 3743 
3744 3745 3746 3747 3748 3749 3750 3751 3752 
3753 3754 3755 3756 3757 3758 3759 3760 3761 
3762 3763 3764 3765 3766 3767 3768 3769 3770 
3771 3772 3773 3774 3775 3776 3777 3778 3779 
3780 3781 3782 3783 3784 3785 3786 3787 3788 
3789 3790 3791 3792 3793 3794 3795 3796 3797 
3798 3799 3800 3801 3802 3803 3804 3805 3806 
3807 3808 3809 3810 3811 3812 3813 3814 3815 
3816 3817 3818 3819 3820 3821 3822 3823 3824 
3825 3826 3827 3828 3829 3830 3831 3832 3833 
3834 3835 3836 3837 3838 3839 3840 3841 3842 
3843 3844 3845 3846 3847 3848 3849 3850 3851 
3852 3853 3854 3855 3856 3857 3858 3859 3860 
3861 3862 3863 3864 3865 3866 3867 3868 3869 
3870 3871 3872 3873 3874 3875 3876 3877 3878 
3879 3880 3881 3882 3883 3884 3885 3886 3887 
3888 3889 3890 3891 3892 3893 3894 3895 3896 
3897 3898 3899 3900 3901 3902 3903 3904 3905 
3906 3907 3908 3909 3910 3911 3912 3913 3914 
3915 3916 3917 3918 3919 3920 3921 3922 3923 
3924 3925 3926 3927 3928 3929 3930 3931 3932 
3933 3934 3935 3936 3937 3938 3939 3940 3941 
3942 3943 3944 3945 3946 3947 3948 3949 3950 
3951 3952 3953 3954 3955 3956 3957 3958 3959 
3960 3961 3962 3963 3964 3965 3966 3967 3968 
3969 3970 3971 3972 3973 3974 3975 3976 3977 
3978 3979 3980 3981 3982 3983 3984 3985 3986 
3987 3988 3989 3990 3991 3992 3993 3994 3995 
3996 3997 3998 3999 4000 4001 4002 4003 4004 
4005 4006 4007 4008 4009 4010 4011 4012 4013 
4014 4015 4016 4017 4018 4019 4020 4021 4022 
4023 4024 4025 4026 4027 4028 4029 4030 4031 
4032 4033 4034 4035 4036 4037 4038 4039 4040 
4041 4042 4043 4044 4045 4046 4047 4048 4049 
4050 4051 4052 4053 4054 4055 4056 4057 4058 
4059 4060 4061 4062 4063 4064 4065 4066 4067 
4068 4069 4070 4071 4072 4073 4074 4075 4076 
4077 4078 4079 4080 4081 4082 4083 4084 4085 
4086 4087 4088 4089 4090 4091 4092 4093 4094 
4095 4096 4097 4098 4099 4100 4101 4102 4103 
4104 4105 4106 4107 4108 4109 4110 4111 4112 
4113 4114 4115 4116 4117 4118 4119 4120 4121 
4122 4123 4124 4125 4126 4127 4128 4129 4130 
4131 4132 4133 4134 4135 4136 4137 4138 4139 
4140 4141 4142 4143 4144 4145 4146 4147 4148 
4149 4150 4151 4152 4153 4154 4155 4156 4157 
4158 4159 4160 4161 4162 4163 4164 4165 4166 
4167 4168 4169 4170 4171 4172 4173 4174 4175 
4176 4177 4178 4179 4180 4181 4182 4183 4184 
4185 4186 4187 4188 4189 4190 4191 4192 4193 
4194 4195 4196 4197 4198 4199 4200 4201 4202 
4203 4204 4205 4206 4207 4208 4209 4210 4211 
4212 4213 4214 4215 4216 4217 4218 4219 4220 
4221 4222 4223 4224 4225 4226 4227 4228 4229 
4230 4231 4232 4233 4234 4235 4236 4237 4238 
4239 4240 4241 4242 4243 4244 4245 4246 4247 
4248 4249 4250 4251 4252 4253 4254 4255 4256 
4257 4258 4259 4260 4261 4262 4263 4264 4265 
4266 4267 4268 4269 4270 4271 4272 4273 4274 
4275 4276 4277 4278 4279 4280 4281 4282 4283 
4284 4285 4286 4287 4288 4289 4290 4291 4292 
4293 4294 4295 4296 4297 4298 4299 4300 4301 
4302 4303 4304 4305 4306 4307 4308 4309 4310 
4311 4312 4313 4314 4315 4316 4317 4318 4319 
4320 4321 4322 4323 4324 4325 4326 4327 4328 
4329 4330 4331 4332 4333 4334 4335 4336 4337 
4338 4339 4340 4341 4342 4343 4344 4345 4346 
4347 4348 4349 4350 4351 4352 4353 4354 4355 
4356 4357 4358 4359 4360 4361 4362 4363 4364 
4365 4366 4367 4368 4369 4370 4371 4372 4373 
4374 4375 4376 4377 4378 4379 4380 4381 4382 
4383 4384 4385 4386 4387 4388 4389 4390 4391 
4392 4393 4394 4395 4396 4397 4398 4399 4400 
4401 4402 4403 4404 4405 4406 4407 4408 4409 
4410 4411 4412 4413 4414 4415 4416 4417 4418 
4419 4420 4421 4422 4423 4424 4425 4426 4427 
4428 4429 4430 4431 4432 4433 4434 4435 4436 
4437 4438 4439 4440 4441 4442 4443 4444 4445 
4446 4447 4448 4449 4450 4451 4452 4453 4454 
4455 4456 4457 4458 4459 4460 4461 4462 4463 
4464 4465 4466 4467 4468 4469 4470 4471 4472 
4473 4474 4475 4476 4477 4478 4479 4480 4481 
4482 4483 4484 4485 4486 4487 4488 4489 4490 
4491 4492 4493 4494 4495 4496 4497 4498 4499 
4500 4501 4502 4503 4504 4505 4506 4507 4508 
4509 4510 4511 4512 4513 4514 4515 4516 4517 
4518 4519 4520 4521 4522 4523 4524 4525 4526 
4527 4528 4529 4530 4531 4532 4533 4534 4535 
4536 4537 4538 4539 4540 4541 4542 4543 4544 
4545 4546 4547 4548 4549 4550 4551 4552 4553 
4554 4555 4556 4557 4558 4559 4560 4561 4562 
4563 4564 4565 4566 4567 4568 4569 4570 4571 
4572 4573 4574 4575 4576 4577 4578 4579 4580 
4581 4582 4583 4584 4585 4586 4587 4588 4589 
4590 4591 4592 4593 4594 4595 4596 4597 4598 
4599 4600 4601 4602 4603 4604 4605 4606 4607 
4608 4609 4610 4611 4612 4613 4614 4615 4616 
4617 4618 4619 4620 4621 4622 4623 4624 4625 
4626 4627 4628 4629 4630 4631 4632 4633 4634 
4635 4636 4637 4638 4639 4640 4641 4642 4643 
4644 4645 4646 4647 4648 4649 4650 4651 4652 
4653 4654 4655 4656 4657 4658 4659 4660 4661 
4662 4663 4664 4665 4666 4667 4668 4669 4670 
4671 4672 4673 4674 4675 4676 4677 4678 4679 
4680 4681 4682 4683 4684 4685 4686 4687 4688 
4689 4690 4691 4692 4693 4694 4695 4696 4697 
4698 4699 4700 4701 4702 4703 4704 4705 4706 
4707 4708 4709 4710 4711 4712 4713 4714 4715 
4716 4717 4718 4719 4720 4721 4722 4723 4724 
4725 4726 4727 4728 4729 4730 4731 4732 4733 
4734 4735 4736 4737 4738 4739 4740 4741 4742 
4743 4744 4745 4746 4747 4748 4749 4750 4751 
4752 4753 4754 4755 4756 4757 4758 4759 4760 
4761 4762 4763 4764 4765 4766 4767 4768 4769 
4770 4771 4772 4773 4774 4775 4776 4777 4778 
4779 4780 4781 4782 4783 4784 4785 4786 4787 
4788 4789 4790 4791 4792 4793 4794 4795 4796 
4797 4798 4799 4800 4801 4802 4803 4804 4805 
4806 4807 4808 4809 4810 4811 4812 4813 4814 
4815 4816 4817 4818 4819 4820 4821 4822 4823 
4824 4825 4826 4827 4828 4829 4830 4831 4832 
4833 4834 4835 4836 4837 4838 4839 4840 4841 
4842 4843 4844 4845 4846 4847 4848 4849 4850 
4851 4852 4853 4854 4855 4856 4857 4858 4859 
4860 4861 4862 4863 4864 4865 4866 4867 4868 
4869 4870 4871 4872 4873 4874 4875 4876 4877 
4878 4879 4880 4881 4882 4883 4884 4885 4886 
4887 4888 4889 4890 4891 4892 4893 4894 4895 
4896 4897 4898 4899 4900 4901 4902 4903 4904 
4905 4906 4907 4908 4909 4910 4911 4912 4913 
4914 4915 4916 4917 4918 4919 4920 4921 4922 
4923 4924 4925 4926 4927 4928 4929 4930 4931 
4932 4933 4934 4935 4936 4937 4938 4939 4940 
4941 4942 4943 4944 4945 4946 4947 4948 4949 
4950 4951 4952 4953 4954 4955 4956 4957 4958 
4959 4960 4961 4962 4963 4964 4965 4966 4967 
4968 4969 4970 4971 4972 4973 4974 4975 4976 
4977 4978 4979 4980 4981 4982 4983 4984 4985 
4986 4987 4988 4989 4990 4991 4992 4993 4994 
4995 4996 4997 4998 4999 5000 5001 5002 5003 
5004 5005 5006 5007 5008 5009 5010 5011 5012 
5013 5014 5015 5016 5017 5018 5019 5020 5021 
5022 5023 5024 5025 5026 5027 5028 5029 5030 
5031 5032 5033 5034 5035 5036 5037 5038 5039 
5040 5041 5042 5043 5044 5045 5046 5047 5048 
5049 5050 5051 5052 5053 5054 5055 5056 5057 
5058 5059 5060 5061 5062 5063 5064 5065 5066 
5067 5068 5069 5070 5071 5072 5073 5074 5075 
5076 5077 5078 5079 5080 5081 5082 5083 5084 
5085 5086 5087 5088 5089 5090 5091 5092 5093 
5094 5095 5096 5097 5098 5099 5100 5101 5102 
5103 5104 5105 5106 5107 5108 5109 5110 5111 
5112 5113 5114 5115 5116 5117 5118 5119 5120 
5121 5122 5123 5124 5125 5126 5127 5128 5129 
5130 5131 5132 5133 5134 5135 5136 5137 5138 
5139 5140 5141 5142 5143 5144 5145 5146 5147 
5148 5149 5150 5151 5152 5153 5154 5155 5156 
5157 5158 5159 5160 5161 5162 5163 5164 5165 
5166 5167 5168 5169 5170 5171 5172 5173 5174 
5175 5176 5177 5178 5179 5180 5181 5182 5183 
5184 5185 5186 5187 5188 5189 5190 5191 5192 
5193 5194 5195 5196 5197 5198 5199 5200 5201 
5202 5203 5204 5205 5206 5207 5208 5209 5210 
5211 5212 5213 5214 5215 5216 5217 5218 5219 
5220 5221 5222 5223 5224 5225 5226 5227 5228 
5229 5230 5231 5232 5233 5234 5235 5236 5237 
5238 5239 5240 5241 5242 5243 5244 5245 5246 
5247 5248 5249 5250 5251 5252 5253 5254 5255 
5256 5257 5258 5259 5260 5261 5262 5263 5264 
5265 5266 5267 5268 5269 5270 5271 5272 5273 
5274 5275 5276 5277 5278 5279 5280 5281 5282 
5283 5284 5285 5286 5287 5288 5289 5290 5291 
5292 5293 5294 5295 5296 5297 5298 5299 5300 
5301 5302 5303 5304 5305 5306 5307 5308 5309 
5310 5311 5312 5313 5314 5315 5316 5317 5318 
5319 5320 5321 5322 5323 5324 5325 5326 5327 
5328 5329 5330 5331 5332 5333 5334 5335 5336 
5337 5338 5339 5340 5341 5342 5343 5344 5345 
5346 5347 5348 5349 5350 5351 5352 5353 5354 
5355 5356 5357 5358 5359 5360 5361 5362 5363 
5364 5365 5366 5367 5368 5369 5370 5371 5372 
5373 5374 5375 5376 5377 5378 5379 5380 5381 
5382 5383 5384 5385 5386 5387 5388 5389 5390 
5391 5392 5393 5394 5395 5396 5397 5398 5399 
5400 5401 5402 5403 5404 5405 5406 5407 5408 
5409 5410 5411 5412 5413 5414 5415 5416 5417 
5418 5419 5420 5421 5422 5423 5424 5425 5426 
5427 5428 5429 5430 5431 5432 5433 5434 5435 
5436 5437 5438 5439 5440 5441 5442 5443 5444 
5445 5446 5447 5448 5449 5450 5451 5452 5453 
5454 5455 5456 5457 5458 5459 5460 5461 5462 
5463 5464 5465 5466 5467 5468 5469 5470 5471 
5472 5473 5474 5475 5476 5477 5478 5479 5480 
5481 5482 5483 5484 5485 5486 5487 5488 5489 
5490 5491 5492 5493 5494 5495 5496 5497 5498 
5499 5500 5501 5502 5503 5504 5505 5506 5507 
5508 5509 5510 5511 5512 5513 5514 5515 5516 
5517 5518 5519 5520 5521 5522 5523 5524 5525 
5526 5527 5528 5529 5530 5531 5532 5533 5534 
5535 5536 5537 5538 5539 5540 5541 5542 5543 
5544 5545 5546 5547 5548 5549 5550 5551 5552 
5553 5554 5555 5556 5557 5558 5559 5560 5561 
5562 5563 5564 5565 5566 5567 5568 5569 5570 
5571 5572 5573 5574 5575 5576 5577 5578 5579 
5580 5581 5582 5583 5584 5585 5586 5587 5588 
5589 5590 5591 5592 5593 5594 5595 5596 5597 
5598 5599 5600 5601 5602 5603 5604 5605 5606 
5607 5608 5609 5610 5611 5612 5613 5614 5615 
5616 5617 5618 5619 5620 5621 5622 5623 5624 
5625 5626 5627 5628 5629 5630 5631 5632 5633 
5634 5635 5636 5637 5638 5639 5640 5641 5642 
5643 5644 5645 5646 5647 5648 5649 5650 5651 
5652 5653 5654 5655 5656 5657 5658 5659 5660 
5661 5662 5663 5664 5665 5666 5667 5668 5669 
5670 5671 5672 5673 5674 5675 5676 5677 5678 
5679 5680 5681 5682 5683 5684 5685 5686 5687 
5688 5689 5690 5691 5692 5693 5694 5695 5696 
5697 5698 5699 5700 5701 5702 5703 5704 5705 
5706 5707 5708 5709 5710 5711 5712 5713 5714 
5715 5716 5717 5718 5719 5720 5721 5722 5723 
5724 5725 5726 5727 5728 5729 5730 5731 5732 
5733 5734 5735 5736 5737 5738 5739 5740 5741 
5742 5743 5744 5745 5746 5747 5748 5749 5750 
5751 5752 5753 5754 5755 5756 5757 5758 5759 
5760 5761 5762 5763 5764 5765 5766 5767 5768 
5769 5770 5771 5772 5773 5774 5775 5776 5777 
5778 5779 5780 5781 5782 5783 5784 5785 5786 
5787 5788 5789 5790 5791 5792 5793 5794 5795 
5796 5797 5798 5799 5800 5801 5802 5803 5804 
5805 5806 5807 5808 5809 5810 5811 5812 5813 
5814 5815 5816 5817 5818 5819 5820 5821 5822 
5823 5824 5825 5826 5827 5828 5829 5830 5831 
5832 5833 5834 5835 5836 5837 5838 5839 5840 
5841 5842 5843 5844 5845 5846 5847 5848 5849 
5850 5851 5852 5853 5854 5855 5856 5857 5858 
5859 5860 5861 5862 5863 5864 5865 5866 5867 
5868 5869 5870 5871 5872 5873 5874 5875 5876 
5877 5878 5879 5880 5881 5882 5883 5884 5885 
5886 5887 5888 5889 5890 5891 5892 5893 5894 
5895 5896 5897 5898 5899 5900 5901 5902 5903 
5904 5905 5906 5907 5908 5909 5910 5911 5912 
5913 5914 5915 5916 5917 5918 5919 5920 5921 
5922 5923 5924 5925 5926 5927 5928 5929 5930 
5931 5932 5933 5934 5935 5936 5937 5938 5939 
5940 5941 5942 5943 5944 5945 5946 5947 5948 
5949 5950 5951 5952 5953 5954 5955 5956 5957 
5958 5959 5960 5961 5962 5963 5964 5965 5966 
5967 5968 5969 5970 5971 5972 5973 5974 5975 
5976 5977 5978 5979 5980 5981 5982 5983 5984 
5985 5986 5987 5988 5989 5990 5991 5992 5993 
5994 5995 5996 5997 5998 5999 6000 6001 6002 
6003 6004 6005 6006 6007 6008 6009 6010 6011 
6012 6013 6014 6015 6016 6017 6018 6019 6020 
6021 6022 6023 6024 6025 6026 6027 6028 6029 
6030 6031 6032 6033 6034 6035 6036 6037 6038 
6039 6040 6041 6042 6043 6044 6045 6046 6047 
6048 6049 6050 6051 6052 6053 6054 6055 6056 
6057 6058 6059 6060 6061 6062 6063 6064 6065 
6066 6067 6068 6069 6070 6071 6072 6073 6074 
6075 6076 6077 6078 6079 6080 6081 6082 6083 
6084 6085 6086 6087 6088 6089 6090 6091 6092 
6093 6094 6095 6096 6097 6098 6099 6100 6101 
6102 6103 6104 6105 6106 6107 6108 6109 6110 
6111 6112 6113 6114 6115 6116 6117 6118 6119 
6120 6121 6122 6123 6124 6125 6126 6127 6128 
6129 6130 6131 6132 6133 6134 6135 6136 6137 
6138 6139 6140 6141 6142 6143 6144 6145 6146 
6147 6148 6149 6150 6151 6152 6153 6154 6155 
6156 6157 6158 6159 6160 6161 6162 6163 6164 
6165 6166 6167 6168 6169 6170 6171 6172 6173 
6174 6175 6176 6177 6178 6179 6180 6181 6182 
6183 6184 6185 6186 6187 6188 6189 6190 6191 
6192 6193 6194 6195 6196 6197 6198 6199 6200 
6201 6202 6203 6204 6205 6206 6207 6208 6209 
6210 6211 6212 6213 6214 6215 6216 6217 6218 
6219 6220 6221 6222 6223 6224 6225 6226 6227 
6228 6229 6230 6231 6232 6233 6234 6235 6236 
6237 6238 6239 6240 6241 6242 6243 6244 6245 
6246 6247 6248 6249 6250 6251 6252 6253 6254 
6255 6256 6257 6258 6259 6260 6261 6262 6263 
6264 6265 6266 6267 6268 6269 6270 6271 6272 
6273 6274 6275 6276 6277 6278 6279 6280 6281 
6282 6283 6284 6285 6286 6287 6288 6289 6290 
6291 6292 6293 6294 6295 6296 6297 6298 6299 
6300 6301 6302 6303 6304 6305 6306 6307 6308 
6309 6310 6311 6312 6313 6314 6315 6316 6317 
6318 6319 6320 6321 6322 6323 6324 6325 6326 
6327 6328 6329 6330 6331 6332 6333 6334 6335 
6336 6337 6338 6339 6340 6341 6342 6343 6344 
6345 6346 6347 6348 6349 6350 6351 6352 6353 
6354 6355 6356 6357 6358 6359 6360 6361 6362 
6363 6364 6365 6366 6367 6368 6369 6370 6371 
6372 6373 6374 6375 6376 6377 6378 6379 6380 
6381 6382 6383 6384 6385 6386 6387 6388 6389 
6390 6391 6392 6393 6394 6395 6396 6397 6398 
6399 6400 6401 6402 6403 6404 6405 6406 6407 
6408 6409 6410 6411 6412 6413 6414 6415 6416 
6417 6418 6419 6420 6421 6422 6423 6424 6425 
6426 6427 6428 6429 6430 6431 6432 6433 6434 
6435 6436 6437 6438 6439 6440 6441 6442 6443 
6444 6445 6446 6447 6448 6449 6450 6451 6452 
6453 6454 6455 6456 6457 6458 6459 6460 6461 
6462 6463 6464 6465 6466 6467 6468 6469 6470 
6471 6472 6473 6474 6475 6476 6477 6478 6479 
6480 6481 6482 6483 6484 6485 6486 6487 6488 
6489 6490 6491 6492 6493 6494 6495 6496 6497 
6498 6499 6500 6501 6502 6503 6504 6505 6506 
6507 6508 6509 6510 6511 6512 6513 6514 6515 
6516 6517 6518 6519 6520 6521 6522 6523 6524 
6525 6526 6527 6528 6529 6530 6531 6532 6533 
6534 6535 6536 6537 6538 6539 6540 6541 6542 
6543 6544 6545 6546 6547 6548 6549 6550 6551 
6552 6553 6554 6555 6556 6557 6558 6559 6560 
6561 6562 6563 6564 6565 6566 6567 6568 6569 
6570 6571 6572 6573 6574 6575 6576 6577 6578 
6579 6580 6581 6582 6583 6584 6585 6586 6587 
6588 6589 6590 6591 6592 6593 6594 6595 6596 
6597 6598 6599 6600 6601 6602 6603 6604 6605 
6606 6607 6608 6609 6610 6611 6612 6613 6614 
6615 6616 6617 6618 6619 6620 6621 6622 6623 
6624 6625 6626 6627 6628 6629 6630 6631 6632 
6633 6634 6635 6636 6637 6638 6639 6640 6641 
6642 6643 6644 6645 6646 6647 6648 6649 6650 
6651 6652 6653 6654 6655 6656 6657 6658 6659 
6660 6661 6662 6663 6664 6665 6666 6667 6668 
6669 6670 6671 6672 6673 6674 6675 6676 6677 
6678 6679 6680 6681 6682 6683 6684 6685 6686 
6687 6688 6689 6690 6691 6692 6693 6694 6695 
6696 6697 6698 6699 6700 6701 6702 6703 6704 
6705 6706 6707 6708 6709 6710 6711 6712 6713 
6714 6715 6716 6717 6718 6719 6720 6721 6722 
6723 6724 6725 6726 6727 6728 6729 6730 6731 
6732 6733 6734 6735 6736 6737 6738 6739 6740 
6741 6742 6743 6744 6745 6746 6747 6748 6749 
6750 6751 6752 6753 6754 6755 6756 6757 6758 
6759 6760 6761 6762 6763 6764 6765 6766 6767 
6768 6769 6770 6771 6772 6773 6774 6775 6776 
6777 6778 6779 6780 6781 6782 6783 6784 6785 
6786 6787 6788 6789 6790 6791 6792 6793 6794 
6795 6796 6797 6798 6799 6800 6801 6802 6803 
6804 6805 6806 6807 6808 6809 6810 6811 6812 
6813 6814 6815 6816 6817 6818 6819 6820 6821 
6822 6823 6824 6825 6826 6827 6828 6829 6830 
6831 6832 6833 6834 6835 6836 6837 6838 6839 
6840 6841 6842 6843 6844 6845 6846 6847 6848 
6849 6850 6851 6852 6853 6854 6855 6856 6857 
6858 6859 6860 6861 6862 6863 6864 6865 6866 
6867 6868 6869 6870 6871 6872 6873 6874 6875 
6876 6877 6878 6879 6880 6881 6882 6883 6884 
6885 6886 6887 6888 6889 6890 6891 6892 6893 
6894 6895 6896 6897 6898 6899 6900 6901 6902 
6903 6904 6905 6906 6907 6908 6909 6910 6911 
6912 6913 6914 6915 6916 6917 6918 6919 6920 
6921 6922 6923 6924 6925 6926 6927 6928 6929 
6930 6931 6932 6933 6934 6935 6936 6937 6938 
6939 6940 6941 6942 6943 6944 6945 6946 6947 
6948 6949 6950 6951 6952 6953 6954 6955 6956 
6957 6958 6959 6960 6961 6962 6963 6964 6965 
6966 6967 6968 6969 6970 6971 6972 6973 6974 
6975 6976 6977 6978 6979 6980 6981 6982 6983 
6984 6985 6986 6987 6988 6989 6990 6991 6992 
6993 6994 6995 6996 6997 6998 6999 7000 7001 
7002 7003 7004 7005 7006 7007 7008 7009 7010 
7011 7012 7013 7014 7015 7016 7017 7018 7019 
7020 7021 7022 7023 7024 7025 7026 7027 7028 
7029 7030 7031 7032 7033 7034 7035 7036 7037 
7038 7039 7040 7041 7042 7043 7044 7045 7046 
7047 7048 7049 7050 7051 7052 7053 7054 7055 
7056 7057 7058 7059 7060 7061 7062 7063 7064 
7065 7066 7067 7068 7069 7070 7071 7072 7073 
7074 7075 7076 7077 7078 7079 7080 7081 7082 
7083 7084 7085 7086 7087 7088 7089 7090 7091 
7092 7093 7094 7095 7096 7097 7098 7099 7100 
7101 7102 7103 7104 7105 7106 7107 7108 7109 
7110 7111 7112 7113 7114 7115 7116 7117 7118 
7119 7120 7121 7122 7123 7124 7125 7126 7127 
7128 7129 7130 7131 7132 7133 7134 7135 7136 
7137 7138 7139 7140 7141 7142 7143 7144 7145 
7146 7147 7148 7149 7150 7151 7152 7153 7154 
7155 7156 7157 7158 7159 7160 7161 7162 7163 
7164 7165 7166 7167 7168 7169 7170 7171 7172 
7173 7174 7175 7176 7177 7178 7179 7180 7181 
7182 7183 7184 7185 7186 7187 7188 7189 7190 
7191 7192 7193 7194 7195 7196 7197 7198 7199 
7200 7201 7202 7203 7204 7205 7206 7207 7208 
7209 7210 7211 7212 7213 7214 7215 7216 7217 
7218 7219 7220 7221 7222 7223 7224 7225 7226 
7227 7228 7229 7230 7231 7232 7233 7234 7235 
7236 7237 7238 7239 7240 7241 7242 7243 7244 
7245 7246 7247 7248 7249 7250 7251 7252 7253 
7254 7255 7256 7257 7258 7259 7260 7261 7262 
7263 7264 7265 7266 7267 7268 7269 7270 7271 
7272 7273 7274 7275 7276 7277 7278 7279 7280 
7281 7282 7283 7284 7285 7286 7287 7288 7289 
7290 7291 7292 7293 7294 7295 7296 7297 7298 
7299 7300 7301 7302 7303 7304 7305 7306 7307 
7308 7309 7310 7311 7312 7313 7314 7315 7316 
7317 7318 7319 7320 7321 7322 7323 7324 7325 
7326 7327 7328 7329 7330 7331 7332 7333 7334 
7335 7336 7337 7338 7339 7340 7341 7342 7343 
7344 7345 7346 7347 7348 7349 7350 7351 7352 
7353 7354 7355 7356 7357 7358 7359 7360 7361 
7362 7363 7364 7365 7366 7367 7368 7369 7370 
7371 7372 7373 7374 7375 7376 7377 7378 7379 
7380 7381 7382 7383 7384 7385 7386 7387 7388 
7389 7390 7391 7392 7393 7394 7395 7396 7397 
7398 7399 7400 7401 7402 7403 7404 7405 7406 
7407 7408 7409 7410 7411 7412 7413 7414 7415 
7416 7417 7418 7419 7420 7421 7422 7423 7424 
7425 7426 7427 7428 7429 7430 7431 7432 7433 
7434 7435 7436 7437 7438 7439 7440 7441 7442 
7443 7444 7445 7446 7447 7448 7449 7450 7451 
7452 7453 7454 7455 7456 7457 7458 7459 7460 
7461 7462 7463 7464 7465 7466 7467 7468 7469 
7470 7471 7472 7473 7474 7475 7476 7477 7478 
7479 7480 7481 7482 7483 7484 7485 7486 7487 
7488 7489 7490 7491 7492 7493 7494 7495 7496 
7497 7498 7499 7500 7501 7502 7503 7504 7505 
7506 7507 7508 7509 7510 7511 7512 7513 7514 
7515 7516 7517 7518 7519 7520 7521 7522 7523 
7524 7525 7526 7527 7528 7529 7530 7531 7532 
7533 7534 7535 7536 7537 7538 7539 7540 7541 
7542 7543 7544 7545 7546 7547 7548 7549 7550 
7551 7552 7553 7554 7555 7556 7557 7558 7559 
7560 7561 7562 7563 7564 7565 7566 7567 7568 
7569 7570 7571 7572 7573 7574 7575 7576 7577 
7578 7579 7580 7581 7582 7583 7584 7585 7586 
7587 7588 7589 7590 7591 7592 7593 7594 7595 
7596 7597 7598 7599 7600 7601 7602 7603 7604 
7605 7606 7607 7608 7609 7610 7611 7612 7613 
7614 7615 7616 7617 7618 7619 7620 7621 7622 
7623 7624 7625 7626 7627 7628 7629 7630 7631 
7632 7633 7634 7635 7636 7637 7638 7639 7640 
7641 7642 7643 7644 7645 7646 7647 7648 7649 
7650 7651 7652 7653 7654 7655 7656 7657 7658 
7659 7660 7661 7662 7663 7664 7665 7666 7667 
7668 7669 7670 7671 7672 7673 7674 7675 7676 
7677 7678 7679 7680 7681 7682 7683 7684 7685 
7686 7687 7688 7689 7690 7691 7692 7693 7694 
7695 7696 7697 7698 7699 7700 7701 7702 7703 
7704 7705 7706 7707 7708 7709 7710 7711 7712 
7713 7714 7715 7716 7717 7718 7719 7720 7721 
7722 7723 7724 7725 7726 7727 7728 7729 7730 
7731 7732 7733 7734 7735 7736 7737 7738 7739 
7740 7741 7742 7743 7744 7745 7746 7747 7748 
7749 7750 7751 7752 7753 7754 7755 7756 7757 
7758 7759 7760 7761 7762 7763 7764 7765 7766 
7767 7768 7769 7770 7771 7772 7773 7774 7775 
7776 7777 7778 7779 7780 7781 7782 7783 7784 
7785 7786 7787 7788 7789 7790 7791 7792 7793 
7794 7795 7796 7797 7798 7799 7800 7801 7802 
7803 7804 7805 7806 7807 7808 7809 7810 7811 
7812 7813 7814 7815 7816 7817 7818 7819 7820 
7821 7822 7823 7824 7825 7826 7827 7828 7829 
7830 7831 7832 7833 7834 7835 7836 7837 7838 
7839 7840 7841 7842 7843 7844 7845 7846 7847 
7848 7849 7850 7851 7852 7853 7854 7855 7856 
7857 7858 7859 7860 7861 7862 7863 7864 7865 
7866 7867 7868 7869 7870 7871 7872 7873 7874 
7875 7876 7877 7878 7879 7880 7881 7882 7883 
7884 7885 7886 7887 7888 7889 7890 7891 7892 
7893 7894 7895 7896 7897 7898 7899 7900 7901 
7902 7903 7904 7905 7906 7907 7908 7909 7910 
7911 7912 7913 7914 7915 7916 7917 7918 7919 
7920 7921 7922 7923 7924 7925 7926 7927 7928 
7929 7930 7931 7932 7933 7934 7935 7936 7937 
7938 7939 7940 7941 7942 7943 7944 7945 7946 
7947 7948 7949 7950 7951 7952 7953 7954 7955 
7956 7957 7958 7959 7960 7961 7962 7963 7964 
7965 7966 7967 7968 7969 7970 7971 7972 7973 
7974 7975 7976 7977 7978 7979 7980 7981 7982 
7983 7984 7985 7986 7987 7988 7989 7990 7991 
7992 7993 7994 7995 7996 7997 7998 7999 8000 
8001 8002 8003 8004 8005 8006 8007 8008 8009 
8010 8011 8012 8013 8014 8015 8016 8017 8018 
8019 8020 8021 8022 8023 8024 8025 8026 8027 
8028 8029 8030 8031 8032 8033 8034 8035 8036 
8037 8038 8039 8040 8041 8042 8043 8044 8045 
8046 8047 8048 8049 8050 8051 8052 8053 8054 
8055 8056 8057 8058 8059 8060 8061 8062 8063 
8064 8065 8066 8067 8068 8069 8070 8071 8072 
8073 8074 8075 8076 8077 8078 8079 8080 8081 
8082 8083 8084 8085 8086 8087 8088 8089 8090 
8091 8092 8093 8094 8095 8096 8097 8098 8099 
8100 8101 8102 8103 8104 8105 8106 8107 8108 
8109 8110 8111 8112 8113 8114 8115 8116 8117 
8118 8119 8120 8121 8122 8123 8124 8125 8126 
8127 8128 8129 8130 8131 8132 8133 8134 8135 
8136 8137 8138 8139 8140 8141 8142 8143 8144 
8145 8146 8147 8148 8149 8150 8151 8152 8153 
8154 8155 8156 8157 8158 8159 8160 8161 8162 
8163 8164 8165 8166 8167 8168 8169 8170 8171 
8172 8173 8174 8175 8176 8177 8178 8179 8180 
8181 8182 8183 8184 8185 8186 8187 8188 8189 
8190 8191 8192 8193 8194 8195 8196 8197 8198 
8199 8200 8201 8202 8203 8204 8205 8206 8207 
8208 8209 8210 8211 8212 8213 8214 8215 8216 
8217 8218 8219 8220 8221 8222 8223 8224 8225 
8226 8227 8228 8229 8230 8231 8232 8233 8234 
8235 8236 8237 8238 8239 8240 8241 8242 8243 
8244 8245 8246 8247 8248 8249 8250 8251 8252 
8253 8254 8255 8256 8257 8258 8259 8260 8261 
8262 8263 8264 8265 8266 8267 8268 8269 8270 
8271 8272 8273 8274 8275 8276 8277 8278 8279 
8280 8281 8282 8283 8284 8285 8286 8287 8288 
8289 8290 8291 8292 8293 8294 8295 8296 8297 
8298 8299 8300 8301 8302 8303 8304 8305 8306 
8307 8308 8309 8310 8311 8312 8313 8314 8315 
8316 8317 8318 8319 8320 8321 8322 8323 8324 
8325 8326 8327 8328 8329 8330 8331 8332 8333 
8334 8335 8336 8337 8338 8339 8340 8341 8342 
8343 8344 8345 8346 8347 8348 8349 8350 8351 
8352 8353 8354 8355 8356 8357 8358 8359 8360 
8361 8362 8363 8364 8365 8366 8367 8368 8369 
8370 8371 8372 8373 8374 8375 8376 8377 8378 
8379 8380 8381 8382 8383 8384 8385 8386 8387 
8388 8389 8390 8391 8392 8393 8394 8395 8396 
8397 8398 8399 8400 8401 8402 8403 8404 8405 
8406 8407 8408 8409 8410 8411 8412 8413 8414 
8415 8416 8417 8418 8419 8420 8421 8422 8423 
8424 8425 8426 8427 8428 8429 8430 8431 8432 
8433 8434 8435 8436 8437 8438 8439 8440 8441 
8442 8443 8444 8445 8446 8447 8448 8449 8450 
8451 8452 8453 8454 8455 8456 8457 8458 8459 
8460 8461 8462 8463 8464 8465 8466 8467 8468 
8469 8470 8471 8472 8473 8474 8475 8476 8477 
8478 8479 8480 8481 8482 8483 8484 8485 8486 
8487 8488 8489 8490 8491 8492 8493 8494 8495 
8496 8497 8498 8499 8500 8501 8502 8503 8504 
8505 8506 8507 8508 8509 8510 8511 8512 8513 
8514 8515 8516 8517 8518 8519 8520 8521 8522 
8523 8524 8525 8526 8527 8528 8529 8530 8531 
8532 8533 8534 8535 8536 8537 8538 8539 8540 
8541 8542 8543 8544 8545 8546 8547 8548 8549 
8550 8551 8552 8553 8554 8555 8556 8557 8558 
8559 8560 8561 8562 8563 8564 8565 8566 8567 
8568 8569 8570 8571 8572 8573 8574 8575 8576 
8577 8578 8579 8580 8581 8582 8583 8584 8585 
8586 8587 8588 8589 8590 8591 8592 8593 8594 
8595 8596 8597 8598 8599 8600 8601 8602 8603 
8604 8605 8606 8607 8608 8609 8610 8611 8612 
8613 8614 8615 8616 8617 8618 8619 8620 8621 
8622 8623 8624 8625 8626 8627 8628 8629 8630 
8631 8632 8633 8634 8635 8636 8637 8638 8639 
8640 8641 8642 8643 8644 8645 8646 8647 8648 
8649 8650 8651 8652 8653 8654 8655 8656 8657 
8658 8659 8660 8661 8662 8663 8664 8665 8666 
8667 8668 8669 8670 8671 8672 8673 8674 8675 
8676 8677 8678 8679 8680 8681 8682 8683 8684 
8685 8686 8687 8688 8689 8690 8691 8692 8693 
8694 8695 8696 8697 8698 8699 8700 8701 8702 
8703 8704 8705 8706 8707 8708 8709 8710 8711 
8712 8713 8714 8715 8716 8717 8718 8719 8720 
8721 8722 8723 8724 8725 8726 8727 8728 8729 
8730 8731 8732 8733 8734 8735 8736 8737 8738 
8739 8740 8741 8742 8743 8744 8745 8746 8747 
8748 8749 8750 8751 8752 8753 8754 8755 8756 
8757 8758 8759 8760 8761 8762 8763 8764 8765 
8766 8767 8768 8769 8770 8771 8772 8773 8774 
8775 8776 8777 8778 8779 8780 8781 8782 8783 
8784 8785 8786 8787 8788 8789 8790 8791 8792 
8793 8794 8795 8796 8797 8798 8799 8800 8801 
8802 8803 8804 8805 8806 8807 8808 8809 8810 
8811 8812 8813 8814 8815 8816 8817 8818 8819 
8820 8821 8822 8823 8824 8825 8826 8827 8828 
8829 8830 8831 8832 8833 8834 8835 8836 8837 
8838 8839 8840 8841 8842 8843 8844 8845 8846 
8847 8848 8849 8850 8851 8852 8853 8854 8855 
8856 8857 8858 8859 8860 8861 8862 8863 8864 
8865 8866 8867 8868 8869 8870 8871 8872 8873 
8874 8875 8876 8877 8878 8879 8880 8881 8882 
8883 8884 8885 8886 8887 8888 8889 8890 8891 
8892 8893 8894 8895 8896 8897 8898 8899 8900 
8901 8902 8903 8904 8905 8906 8907 8908 8909 
8910 8911 8912 8913 8914 8915 8916 8917 8918 
8919 8920 8921 8922 8923 8924 8925 8926 8927 
8928 8929 8930 8931 8932 8933 8934 8935 8936 
8937 8938 8939 8940 8941 8942 8943 8944 8945 
8946 8947 8948 8949 8950 8951 8952 8953 8954 
8955 8956 8957 8958 8959 8960 8961 8962 8963 
8964 8965 8966 8967 8968 8969 8970 8971 8972 
8973 8974 8975 8976 8977 8978 8979 8980 8981 
8982 8983 8984 8985 8986 8987 8988 8989 8990 
8991 8992 8993 8994 8995 8996 8997 8998 8999 
9000 9001 9002 9003 9004 9005 9006 9007 9008 
9009 9010 9011 9012 9013 9014 9015 9016 9017 
9018 9019 9020 9021 9022 9023 9024 9025 9026 
9027 9028 9029 9030 9031 9032 9033 9034 9035 
9036 9037 9038 9039 9040 9041 9042 9043 9044 
9045 9046 9047 9048 9049 9050 9051 9052 9053 
9054 9055 9056 9057 9058 9059 9060 9061 9062 
9063 9064 9065 9066 9067 9068 9069 9070 9071 
9072 9073 9074 9075 9076 9077 9078 9079 9080 
9081 9082 9083 9084 9085 9086 9087 9088 9089 
9090 9091 9092 9093 9094 9095 9096 9097 9098 
9099 9100 9101 9102 9103 9104 9105 9106 9107 
9108 9109 9110 9111 9112 9113 9114 9115 9116 
9117 9118 9119 9120 9121 9122 9123 9124 9125 
9126 9127 9128 9129 9130 9131 9132 9133 9134 
9135 9136 9137 9138 9139 9140 9141 9142 9143 
9144 9145 9146 9147 9148 9149 9150 9151 9152 
9153 9154 9155 9156 9157 9158 9159 9160 9161 
9162 9163 9164 9165 9166 9167 9168 9169 9170 
9171 9172 9173 9174 9175 9176 9177 9178 9179 
9180 9181 9182 9183 9184 9185 9186 9187 9188 
9189 9190 9191 9192 9193 9194 9195 9196 9197 
9198 9199 9200 9201 9202 9203 9204 9205 9206 
9207 9208 9209 9210 9211 9212 9213 9214 9215 
9216 9217 9218 9219 9220 9221 9222 9223 9224 
9225 9226 9227 9228 9229 9230 9231 9232 9233 
9234 9235 9236 9237 9238 9239 9240 9241 9242 
9243 9244 9245 9246 9247 9248 9249 9250 9251 
9252 9253 9254 9255 9256 9257 9258 9259 9260 
9261 9262 9263 9264 9265 9266 9267 9268 9269 
9270 9271 9272 9273 9274 9275 9276 9277 9278 
9279 9280 9281 9282 9283 9284 9285 9286 9287 
9288 9289 9290 9291 9292 9293 9294 9295 9296 
9297 9298 9299 9300 9301 9302 9303 9304 9305 
9306 9307 9308 9309 9310 9311 9312 9313 9314 
9315 9316 9317 9318 9319 9320 9321 9322 9323 
9324 9325 9326 9327 9328 9329 9330 9331 9332 
9333 9334 9335 9336 9337 9338 9339 9340 9341 
9342 9343 9344 9345 9346 9347 9348 9349 9350 
9351 9352 9353 9354 9355 9356 9357 9358 9359 
9360 9361 9362 9363 9364 9365 9366 9367 9368 
9369 9370 9371 9372 9373 9374 9375 9376 9377 
9378 9379 9380 9381 9382 9383 9384 9385 9386 
9387 9388 9389 9390 9391 9392 9393 9394 9395 
9396 9397 9398 9399 9400 9401 9402 9403 9404 
9405 9406 9407 9408 9409 9410 9411 9412 9413 
9414 9415 9416 9417 9418 9419 9420 9421 9422 
9423 9424 9425 9426 9427 9428 9429 9430 9431 
9432 9433 9434 9435 9436 9437 9438 9439 9440 
9441 9442 9443 9444 9445 9446 9447 9448 9449 
9450 9451 9452 9453 9454 9455 9456 9457 9458 
9459 9460 9461 9462 9463 9464 9465 9466 9467 
9468 9469 9470 9471 9472 9473 9474 9475 9476 
9477 9478 9479 9480 9481 9482 9483 9484 9485 
9486 9487 9488 9489 9490 9491 9492 9493 9494 
9495 9496 9497 9498 9499 9500 9501 9502 9503 
9504 9505 9506 9507 9508 9509 9510 9511 9512 
9513 9514 9515 9516 9517 9518 9519 9520 9521 
9522 9523 9524 9525 9526 9527 9528 9529 9530 
9531 9532 9533 9534 9535 9536 9537 9538 9539 
9540 9541 9542 9543 9544 9545 9546 9547 9548 
9549 9550 9551 9552 9553 9554 9555 9556 9557 
9558 9559 9560 9561 9562 9563 9564 9565 9566 
9567 9568 9569 9570 9571 9572 9573 9574 9575 
9576 9577 9578 9579 9580 9581 9582 9583 9584 
9585 9586 9587 9588 9589 9590 9591 9592 9593 
9594 9595 9596 9597 9598 9599 9600 9601 9602 
9603 9604 9605 9606 9607 9608 9609 9610 9611 
9612 9613 9614 9615 9616 9617 9618 9619 9620 
9621 9622 9623 9624 9625 9626 9627 9628 9629 
9630 9631 9632 9633 9634 9635 9636 9637 9638 
9639 9640 9641 9642 9643 9644 9645 9646 9647 
9648 9649 9650 9651 9652 9653 9654 9655 9656 
9657 9658 9659 9660 9661 9662 9663 9664 9665 
9666 9667 9668 9669 9670 9671 9672 9673 9674 
9675 9676 9677 9678 9679 9680 9681 9682 9683 
9684 9685 9686 9687 9688 9689 9690 9691 9692 
9693 9694 9695 9696 9697 9698 9699 9700 9701 
9702 9703 9704 9705 9706 9707 9708 9709 9710 
9711 9712 9713 9714 9715 9716 9717 9718 9719 
9720 9721 9722 9723 9724 9725 9726 9727 9728 
9729 9730 9731 9732 9733 9734 9735 9736 9737 
9738 9739 9740 9741 9742 9743 9744 9745 9746 
9747 9748 9749 9750 9751 9752 9753 9754 9755 
9756 9757 9758 9759 9760 9761 9762 9763 9764 
9765 9766 9767 9768 9769 9770 9771 9772 9773 
9774 9775 9776 9777 9778 9779 9780 9781 9782 
9783 9784 9785 9786 9787 9788 9789 9790 9791 
9792 9793 9794 9795 9796 9797 9798 9799 9800 
9801 9802 9803 9804 9805 9806 9807 9808 9809 
9810 9811 9812 9813 9814 9815 9816 9817 9818 
9819 9820 9821 9822 9823 9824 9825 9826 9827 
9828 9829 9830 9831 9832 9833 9834 9835 9836 
9837 9838 9839 9840 9841 9842 9843 9844 9845 
9846 9847 9848 9849 9850 9851 9852 9853 9854 
9855 9856 9857 9858 9859 9860 9861 9862 9863 
9864 9865 9866 9867 9868 9869 9870 9871 9872 
9873 9874 9875 9876 9877 9878 9879 9880 9881 
9882 9883 9884 9885 9886 9887 9888 9889 9890 
9891 9892 9893 9894 9895 9896 9897 9898 9899 
9900 9901 9902 9903 9904 9905 9906 9907 9908 
9909 9910 9911 9912 9913 9914 9915 9916 9917 
9918 9919 9920 9921 9922 9923 9924 9925 9926 
9927 9928 9929 9930 9931 9932 9933 9934 9935 
9936 9937 9938 9939 9940 9941 9942 9943 9944 
9945 9946 9947 9948 9949 9950 9951 9952 9953 
9954 9955 9956 9957 9958 9959 9960 9961 9962 
9963 9964 9965 9966 9967 9968 9969 9970 9971 
9972 9973 9974 9975 9976 9977 9978 9979 9980 
9981 9982 9983 9984 9985 9986 9987 9988 9989 
9990 9991 9992 9993 9994 9995 9996 9997 9998 
9999 10000 10001 10002 10003 10004 10005 10006 10007 
10008 10009 10010 10011 10012 10013 10014 10015 10016 
10017 10018 10019 10020 10021 10022 10023 10024 10025 
10026 10027 10028 10029 10030 10031 10032 10033 10034 
10035 10036 10037 10038 10039 10040 10041 10042 10043 
10044 10045 10046 10047 10048 10049 10050 10051 10052 
10053 10054 10055 10056 10057 10058 10059 10060 10061 
10062 10063 10064 10065 10066 10067 10068 10069 10070 
10071 10072 10073 10074 10075 10076 10077 10078 10079 
10080 10081 10082 10083 10084 10085 10086 10087 10088 
10089 10090 10091 10092 10093 10094 10095 10096 10097 
10098 10099 10100 10101 10102 10103 10104 10105 10106 
10107 10108 10109 10110 10111 10112 10113 10114 10115 
10116 10117 10118 10119 10120 10121 10122 10123 10124 
10125 10126 10127 10128 10129 10130 10131 10132 10133 
10134 10135 10136 10137 10138 10139 10140 10141 10142 
10143 10144 10145 10146 10147 10148 10149 10150 10151 
10152 10153 10154 10155 10156 10157 10158 10159 10160 
10161 10162 10163 10164 10165 10166 10167 10168 10169 
10170 10171 10172 10173 10174 10175 10176 10177 10178 
10179 10180 10181 10182 10183 10184 10185 10186 10187 
10188 10189 10190 10191 10192 10193 10194 10195 10196 
10197 10198 10199 10200 10201 10202 10203 10204 10205 
10206 10207 10208 10209 10210 10211 10212 10213 10214 
10215 10216 10217 10218 10219 10220 10221 10222 10223 
10224 10225 10226 10227 10228 10229 10230 10231 10232 
10233 10234 10235 10236 10237 10238 10239 10240 10241 
10242 10243 10244 10245 10246 10247 10248 10249 10250 
10251 10252 10253 10254 10255 10256 10257 10258 10259 
10260 10261 10262 10263 10264 10265 10266 10267 10268 
10269 10270 10271 10272 10273 10274 10275 10276 10277 
10278 10279 10280 10281 10282 10283 10284 10285 10286 
10287 10288 10289 10290 10291 10292 10293 10294 10295 
10296 10297 10298 10299 10300 10301 10302 10303 10304 
10305 10306 10307 10308 10309 10310 10311 10312 10313 
10314 10315 10316 10317 10318 10319 10320 10321 10322 
10323 10324 10325 10326 10327 10328 10329 10330 10331 
10332 10333 10334 10335 10336 10337 10338 10339 10340 
10341 10342 10343 10344 10345 10346 10347 10348 10349 
10350 10351 10352 10353 10354 10355 10356 10357 10358 
10359 10360 10361 10362 10363 10364 10365 10366 10367 
10368 10369 10370 10371 10372 10373 10374 10375 10376 
10377 10378 10379 10380 10381 10382 10383 10384 10385 
10386 10387 10388 10389 10390 10391 10392 10393 10394 
10395 10396 10397 10398 10399 10400 10401 10402 10403 
10404 10405 10406 10407 10408 10409 10410 10411 10412 
10413 10414 10415 10416 10417 10418 10419 10420 10421 
10422 10423 10424 10425 10426 10427 10428 10429 10430 
10431 10432 10433 10434 10435 10436 10437 10438 10439 
10440 10441 10442 10443 10444 10445 10446 10447 10448 
10449 10450 10451 10452 10453 10454 10455 10456 10457 
10458 10459 10460 10461 10462 10463 10464 10465 10466 
10467 10468 10469 10470 10471 10472 10473 10474 10475 
10476 10477 10478 10479 10480 10481 10482 10483 10484 
10485 10486 10487 10488 10489 10490 10491 10492 10493 
10494 10495 10496 10497 10498 10499 10500 10501 10502 
10503 10504 10505 10506 10507 10508 10509 10510 10511 
10512 10513 10514 10515 10516 10517 10518 10519 10520 
10521 10522 10523 10524 10525 10526 10527 10528 10529 
10530 10531 10532 10533 10534 10535 10536 10537 10538 
10539 10540 10541 10542 10543 10544 10545 10546 10547 
10548 10549 10550 10551 10552 10553 10554 10555 10556 
10557 10558 10559 10560 10561 10562 10563 10564 10565 
10566 10567 10568 10569 10570 10571 10572 10573 10574 
10575 10576 10577 10578 10579 10580 10581 10582 10583 
10584 10585 10586 10587 10588 10589 10590 10591 10592 
10593 10594 10595 10596 10597 10598 10599 10600 10601 
10602 10603 10604 10605 10606 10607 10608 10609 10610 
10611 10612 10613 10614 10615 10616 10617 10618 10619 
10620 10621 10622 10623 10624 10625 10626 10627 10628 
10629 10630 10631 10632 10633 10634 10635 10636 10637 
10638 10639 10640 10641 10642 10643 10644 10645 10646 
10647 10648 10649 10650 10651 10652 10653 10654 10655 
10656 10657 10658 10659 10660 10661 10662 10663 10664 
10665 10666 10667 10668 10669 10670 10671 10672 10673 
10674 10675 10676 10677 10678 10679 10680 10681 10682 
10683 10684 10685 10686 10687 10688 10689 10690 10691 
10692 10693 10694 10695 10696 10697 10698 10699 10700 
10701 10702 10703 10704 10705 10706 10707 10708 10709 
10710 10711 10712 10713 10714 10715 10716 10717 10718 
10719 10720 10721 10722 10723 10724 10725 10726 10727 
10728 10729 10730 10731 10732 10733 10734 10735 10736 
10737 10738 10739 10740 10741 10742 10743 10744 10745 
10746 10747 10748 10749 10750 10751 10752 10753 10754 
10755 10756 10757 10758 10759 10760 10761 10762 10763 
10764 10765 10766 10767 10768 10769 10770 10771 10772 
10773 10774 10775 10776 10777 10778 10779 10780 10781 
10782 10783 10784 10785 10786 10787 10788 10789 10790 
10791 10792 10793 10794 10795 10796 10797 10798 10799 
10800 10801 10802 10803 10804 10805 10806 10807 10808 
10809 10810 10811 10812 10813 10814 10815 10816 10817 
10818 10819 10820 10821 10822 10823 10824 10825 10826 
10827 10828 10829 10830 10831 10832 10833 10834 10835 
10836 10837 10838 10839 10840 10841 10842 10843 10844 
10845 10846 10847 10848 10849 10850 10851 10852 10853 
10854 10855 10856 10857 10858 10859 10860 10861 10862 
10863 10864 10865 10866 10867 10868 10869 10870 10871 
10872 10873 10874 10875 10876 10877 10878 10879 10880 
10881 10882 10883 10884 10885 10886 10887 10888 10889 
10890 10891 10892 10893 10894 10895 10896 10897 10898 
10899 10900 10901 10902 10903 10904 10905 10906 10907 
10908 10909 10910 10911 10912 10913 10914 10915 10916 
10917 10918 10919 10920 10921 10922 10923 10924 10925 
10926 10927 10928 10929 10930 10931 10932 10933 10934 
10935 10936 10937 10938 10939 10940 10941 10942 10943 
10944 10945 10946 10947 10948 10949 10950 10951 10952 
10953 10954 10955 10956 10957 10958 10959 10960 10961 
10962 10963 10964 10965 10966 10967 10968 10969 10970 
10971 10972 10973 10974 10975 10976 10977 10978 10979 
10980 10981 10982 10983 10984 10985 10986 10987 10988 
10989 10990 10991 10992 10993 10994 10995 10996 10997 
10998 10999 11000 11001 11002 11003 11004 11005 11006 
11007 11008 11009 11010 11011 11012 11013 11014 11015 
11016 11017 11018 11019 11020 11021 11022 11023 11024 
11025 11026 11027 11028 11029 11030 11031 11032 11033 
11034 11035 11036 11037 11038 11039 11040 11041 11042 
11043 11044 11045 11046 11047 11048 11049 11050 11051 
11052 11053 11054 11055 11056 11057 11058 11059 11060 
11061 11062 11063 11064 11065 11066 11067 11068 11069 
11070 11071 11072 11073 11074 11075 11076 11077 11078 
11079 11080 11081 11082 11083 11084 11085 11086 11087 
11088 11089 11090 11091 11092 11093 11094 11095 11096 
11097 11098 11099 11100 11101 11102 11103 11104 11105 
11106 11107 11108 11109 11110 11111 11112 11113 11114 
11115 11116 11117 11118 11119 11120 11121 11122 11123 
11124 11125 11126 11127 11128 11129 11130 11131 11132 
11133 11134 11135 11136 11137 11138 11139 11140 11141 
11142 11143 11144 11145 11146 11147 11148 11149 11150 
11151 11152 11153 11154 11155 11156 11157 11158 11159 
11160 11161 11162 11163 11164 11165 11166 11167 11168 
11169 11170 11171 11172 11173 11174 11175 11176 11177 
11178 11179 11180 11181 11182 11183 11184 11185 11186 
11187 11188 11189 11190 11191 11192 11193 11194 11195 
11196 11197 11198 11199 11200 11201 11202 11203 11204 
11205 11206 11207 11208 11209 11210 11211 11212 11213 
11214 11215 11216 11217 11218 11219 11220 11221 11222 
11223 11224 11225 11226 11227 11228 11229 11230 11231 
11232 11233 11234 11235 11236 11237 11238 11239 11240 
11241 11242 11243 11244 11245 11246 11247 11248 11249 
11250 11251 11252 11253 11254 11255 11256 11257 11258 
11259 11260 11261 11262 11263 11264 11265 11266 11267 
11268 11269 11270 11271 11272 11273 11274 11275 11276 
11277 11278 11279 11280 11281 11282 11283 11284 11285 
11286 11287 11288 11289 11290 11291 11292 11293 11294 
11295 11296 11297 11298 11299 11300 11301 11302 11303 
11304 11305 11306 11307 11308 11309 11310 11311 11312 
11313 11314 11315 11316 11317 11318 11319 11320 11321 
11322 11323 11324 11325 11326 11327 11328 11329 11330 
11331 11332 11333 11334 11335 11336 11337 11338 11339 
11340 11341 11342 11343 11344 11345 11346 11347 11348 
11349 11350 11351 11352 11353 11354 11355 11356 11357 
11358 11359 11360 11361 11362 11363 11364 11365 11366 
11367 11368 11369 11370 11371 11372 11373 11374 11375 
11376 11377 11378 11379 11380 11381 11382 11383 11384 
11385 11386 11387 11388 11389 11390 11391 11392 11393 
11394 11395 11396 11397 11398 11399 11400 11401 11402 
11403 11404 11405 11406 11407 11408 11409 11410 11411 
11412 11413 11414 11415 11416 11417 11418 11419 11420 
11421 11422 11423 11424 11425 11426 11427 11428 11429 
11430 11431 11432 11433 11434 11435 11436 11437 11438 
11439 11440 11441 11442 11443 11444 11445 11446 11447 
11448 11449 11450 11451 11452 11453 11454 11455 11456 
11457 11458 11459 11460 11461 11462 11463 11464 11465 
11466 11467 11468 11469 11470 11471 11472 11473 11474 
11475 11476 11477 11478 11479 11480 11481 11482 11483 
11484 11485 11486 11487 11488 11489 11490 11491 11492 
11493 11494 11495 11496 11497 11498 11499 11500 11501 
11502 11503 11504 11505 11506 11507 11508 11509 11510 
11511 11512 11513 11514 11515 11516 11517 11518 11519 
11520 11521 11522 11523 11524 11525 11526 11527 11528 
11529 11530 11531 11532 11533 11534 11535 11536 11537 
11538 11539 11540 11541 11542 11543 11544 11545 11546 
11547 11548 11549 11550 11551 11552 11553 11554 11555 
11556 11557 11558 11559 11560 11561 11562 11563 11564 
11565 11566 11567 11568 11569 11570 11571 11572 11573 
11574 11575 11576 11577 11578 11579 11580 11581 11582 
11583 11584 11585 11586 11587 11588 11589 11590 11591 
11592 11593 11594 11595 11596 11597 11598 11599 11600 
11601 11602 11603 11604 11605 11606 11607 11608 11609 
11610 11611 11612 11613 11614 11615 11616 11617 11618 
11619 11620 11621 11622 11623 11624 11625 11626 11627 
11628 11629 11630 11631 11632 11633 11634 11635 11636 
11637 11638 11639 11640 11641 11642 11643 11644 11645 
11646 11647 11648 11649 11650 11651 11652 11653 11654 
11655 11656 11657 11658 11659 11660 11661 11662 11663 
11664 11665 11666 11667 11668 11669 11670 11671 11672 
11673 11674 11675 11676 11677 11678 11679 11680 11681 
11682 11683 11684 11685 11686 11687 11688 11689 11690 
11691 11692 11693 11694 11695 11696 11697 11698 11699 
11700 11701 11702 11703 11704 11705 11706 11707 11708 
11709 11710 11711 11712 11713 11714 11715 11716 11717 
11718 11719 11720 11721 11722 11723 11724 11725 11726 
11727 11728 11729 11730 11731 11732 11733 11734 11735 
11736 11737 11738 11739 11740 11741 11742 11743 11744 
11745 11746 11747 11748 11749 11750 11751 11752 11753 
11754 11755 11756 11757 11758 11759 11760 11761 11762 
11763 11764 11765 11766 11767 11768 11769 11770 11771 
11772 11773 11774 11775 11776 11777 11778 11779 11780 
11781 11782 11783 11784 11785 11786 11787 11788 11789 
11790 11791 11792 11793 11794 11795 11796 11797 11798 
11799 11800 11801 11802 11803 11804 11805 11806 11807 
11808 11809 11810 11811 11812 11813 11814 11815 11816 
11817 11818 11819 11820 11821 11822 11823 11824 11825 
11826 11827 11828 11829 11830 11831 11832 11833 11834 
11835 11836 11837 11838 11839 11840 11841 11842 11843 
11844 11845 11846 11847 11848 11849 11850 11851 11852 
11853 11854 11855 11856 11857 11858 11859 11860 11861 
11862 11863 11864 11865 11866 11867 11868 11869 11870 
11871 11872 11873 11874 11875 11876 11877 11878 11879 
11880 11881 11882 11883 11884 11885 11886 11887 11888 
11889 11890 11891 11892 11893 11894 11895 11896 11897 
11898 11899 11900 11901 11902 11903 11904 11905 11906 
11907 11908 11909 11910 11911 11912 11913 11914 11915 
11916 11917 11918 11919 11920 11921 11922 11923 11924 
11925 11926 11927 11928 11929 11930 11931 11932 11933 
11934 11935 11936 11937 11938 11939 11940 11941 11942 
11943 11944 11945 11946 11947 11948 11949 11950 11951 
11952 11953 11954 11955 11956 11957 11958 11959 11960 
11961 11962 11963 11964 11965 11966 11967 11968 11969 
11970 11971 11972 11973 11974 11975 11976 11977 11978 
11979 11980 11981 11982 11983 11984 11985 11986 11987 
11988 11989 11990 11991 11992 11993 11994 11995 11996 
11997 11998 11999 12000 12001 12002 12003 12004 12005 
12006 12007 12008 12009 12010 12011 12012 12013 12014 
12015 12016 12017 12018 12019 12020 12021 12022 12023 
12024 12025 12026 12027 12028 12029 12030 12031 12032 
12033 12034 12035 12036 12037 12038 12039 12040 12041 
12042 12043 12044 12045 12046 12047 12048 12049 12050 
12051 12052 12053 12054 12055 12056 12057 12058 12059 
12060 12061 12062 12063 12064 12065 12066 12067 12068 
12069 12070 12071 12072 12073 12074 12075 12076 12077 
12078 12079 12080 12081 12082 12083 12084 12085 12086 
12087 12088 12089 12090 12091 12092 12093 12094 12095 
12096 12097 12098 12099 12100 12101 12102 12103 12104 
12105 12106 12107 12108 12109 12110 12111 12112 12113 
12114 12115 12116 12117 12118 12119 12120 12121 12122 
12123 12124 12125 12126 12127 12128 12129 12130 12131 
12132 12133 12134 12135 12136 12137 12138 12139 12140 
12141 12142 12143 12144 12145 12146 12147 12148 12149 
12150 12151 12152 12153 12154 12155 12156 12157 12158 
12159 12160 12161 12162 12163 12164 12165 12166 12167 
12168 12169 12170 12171 12172 12173 12174 12175 12176 
12177 12178 12179 12180 12181 12182 12183 12184 12185 
12186 12187 12188 12189 12190 12191 12192 12193 12194 
12195 12196 12197 12198 12199 12200 12201 12202 12203 
12204 12205 12206 12207 12208 12209 12210 12211 12212 
12213 12214 12215 12216 12217 12218 12219 12220 12221 
12222 12223 12224 12225 12226 12227 12228 12229 12230 
12231 12232 12233 12234 12235 12236 12237 12238 12239 
12240 12241 12242 12243 12244 12245 12246 12247 12248 
12249 12250 12251 12252 12253 12254 12255 12256 12257 
12258 12259 12260 12261 12262 12263 12264 12265 12266 
12267 12268 12269 12270 12271 12272 12273 12274 12275 
12276 12277 12278 12279 12280 12281 12282 12283 12284 
12285 12286 12287 12288 12289 12290 12291 12292 12293 
12294 12295 12296 12297 12298 12299 12300 12301 12302 
12303 12304 12305 12306 12307 12308 12309 12310 12311 
12312 12313 12314 12315 12316 12317 12318 12319 12320 
12321 12322 12323 12324 12325 12326 12327 12328 12329 
12330 12331 12332 12333 12334 12335 12336 12337 12338 
12339 12340 12341 12342 12343 12344 12345 12346 12347 
12348 12349 12350 12351 12352 12353 12354 12355 12356 
12357 12358 12359 12360 12361 12362 12363 12364 12365 
12366 12367 12368 12369 12370 12371 12372 12373 12374 
12375 12376 12377 12378 12379 12380 12381 12382 12383 
12384 12385 12386 12387 12388 12389 12390 12391 12392 
12393 12394 12395 12396 12397 12398 12399 12400 12401 
12402 12403 12404 12405 12406 12407 12408 12409 12410 
      </DataArray>
      <DataArray type="Int32" Name="offsets" format="ascii">
9
18
27
36
45
54
63
72
81
90
99
108
117
126
135
144
153
162
171
180
189
198
207
216
225
234
243
252
261
270
279
288
297
306
315
324
333
342
351
360
369
378
387
396
405
414
423
432
441
450
459
468
477
486
495
504
513
522
531
540
549
558
567
576
585
594
603
612
621
630
639
648
657
666
675
684
693
702
711
720
729
738
747
756
765
774
783
792
801
810
819
828
837
846
855
864
873
882
891
900
909
918
927
936
945
954
963
972
981
990
999
1008
1017
1026
1035
1044
1053
1062
1071
1080
1089
1098
1107
1116
1125
1134
1143
1152
1161
1170
1179
1188
1197
1206
1215
1224
1233
1242
1251
1260
1269
1278
1287
1296
1305
1314
1323
1332
1341
1350
1359
1368
1377
1386
1395
1404
1413
1422
1431
1440
1449
1458
1467
1476
1485
1494
1503
1512
1521
1530
1539
1548
1557
1566
1575
1584
1593
1602
1611
1620
1629
1638
1647
1656
1665
1674
1683
1692
1701
1710
1719
1728
1737
1746
1755
1764
1773
1782
1791
1800
1809
1818
1827
1836
1845
1854
1863
1872
1881
1890
1899
1908
1917
1926
1935
1944
1953
1962
1971
1980
1989
1998
2007
2016
2025
2034
2043
2052
2061
2070
2079
2088
2097
2106
2115
2124
2133
2142
2151
2160
2169
2178
2187
2196
2205
2214
2223
2232
2241
2250
2259
2268
2277
2286
2295
2304
2313
2322
2331
2340
2349
2358
2367
2376
2385
2394
2403
2412
2421
2430
2439
2448
2457
2466
2475
2484
2493
2502
2511
2520
2529
2538
2547
2556
2565
2574
2583
2592
2601
2610
2619
2628
2637
2646
2655
2664
2673
2682
2691
2700
2709
2718
2727
2736
2745
2754
2763
2772
2781
2790
2799
2808
2817
2826
2835
2844
2853
2862
2871
2880
2889
2898
2907
2916
2925
2934
2943
2952
2961
2970
2979
2988
2997
3006
3015
3024
3033
3042
3051
3060
3069
3078
3087
3096
3105
3114
3123
3132
3141
3150
3159
3168
3177
3186
3195
3204
3213
3222
3231
3240
3249
3258
3267
3276
3285
3294
3303
3312
3321
3330
3339
3348
3357
3366
3375
3384
3393
3402
3411
3420
3429
3438
3447
3456
3465
3474
3483
3492
3501
3510
3519
3528
3537
3546
3555
3564
3573
3582
3591
3600
3609
3618
3627
3636
3645
3654
3663
3672
3681
3690
3699
3708
3717
3726
3735
3744
3753
3762
3771
3780
3789
3798
3807
3816
3825
3834
3843
3852
3861
3870
3879
3888
3897
3906
3915
3924
3933
3942
3951
3960
3969
3978
3987
3996
4005
4014
4023
4032
4041
4050
4059
4068
4077
4086
4095
4104
4113
4122
4131
4140
4149
4158
4167
4176
4185
4194
4203
4212
4221
4230
4239
4248
4257
4266
4275
4284
4293
4302
4311
4320
4329
4338
4347
4356
4365
4374
4383
4392
4401
4410
4419
4428
4437
4446
4455
4464
4473
4482
4491
4500
4509
4518
4527
4536
4545
4554
4563
4572
4581
4590
4599
4608
4617
4626
4635
4644
4653
4662
4671
4680
4689
4698
4707
4716
4725
4734
4743
4752
4761
4770
4779
4788
4797
4806
4815
4824
4833
4842
4851
4860
4869
4878
4887
4896
4905
4914
4923
4932
4941
4950
4959
4968
4977
4986
4995
5004
5013
5022
5031
5040
5049
5058
5067
5076
5085
5094
5103
5112
5121
5130
5139
5148
5157
5166
5175
5184
5193
5202
5211
5220
5229
5238
5247
5256
5265
5274
5283
5292
5301
5310
5319
5328
5337
5346
5355
5364
5373
5382
5391
5400
5409
5418
5427
5436
5445
5454
5463
5472
5481
5490
5499
5508
5517
5526
5535
5544
5553
5562
5571
5580
5589
5598
5607
5616
5625
5634
5643
5652
5661
5670
5679
5688
5697
5706
5715
5724
5733
5742
5751
5760
5769
5778
5787
5796
5805
5814
5823
5832
5841
5850
5859
5868
5877
5886
5895
5904
5913
5922
5931
5940
5949
5958
5967
5976
5985
5994
6003
6012
6021
6030
6039
6048
6057
6066
6075
6084
6093
6102
6111
6120
6129
6138
6147
6156
6165
6174
6183
6192
6201
6210
6219
6228
6237
6246
6255
6264
6273
6282
6291
6300
6309
6318
6327
6336
6345
6354
6363
6372
6381
6390
6399
6408
6417
6426
6435
6444
6453
6462
6471
6480
6489
6498
6507
6516
6525
6534
6543
6552
6561
6570
6579
6588
6597
6606
6615
6624
6633
6642
6651
6660
6669
6678
6687
6696
6705
6714
6723
6732
6741
6750
6759
6768
6777
6786
6795
6804
6813
6822
6831
6840
6849
6858
6867
6876
6885
6894
6903
6912
6921
6930
6939
6948
6957
6966
6975
6984
6993
7002
7011
7020
7029
7038
7047
7056
7065
7074
7083
7092
7101
7110
7119
7128
7137
7146
7155
7164
7173
7182
7191
7200
7209
7218
7227
7236
7245
7254
7263
7272
7281
7290
7299
7308
7317
7326
7335
7344
7353
7362
7371
7380
7389
7398
7407
7416
7425
7434
7443
7452
7461
7470
7479
7488
7497
7506
7515
7524
7533
7542
7551
7560
7569
7578
7587
7596
7605
7614
7623
7632
7641
7650
7659
7668
7677
7686
7695
7704
7713
7722
7731
7740
7749
7758
7767
7776
7785
7794
7803
7812
7821
7830
7839
7848
7857
7866
7875
7884
7893
7902
7911
7920
7929
7938
7947
7956
7965
7974
7983
7992
8001
8010
8019
8028
8037
8046
8055
8064
8073
8082
8091
8100
8109
8118
8127
8136
8145
8154
8163
8172
8181
8190
8199
8208
8217
8226
8235
8244
8253
8262
8271
8280
8289
8298
8307
8316
8325
8334
8343
8352
8361
8370
8379
8388
8397
8406
8415
8424
8433
8442
8451
8460
8469
8478
8487
8496
8505
8514
8523
8532
8541
8550
8559
8568
8577
8586
8595
8604
8613
8622
8631
8640
8649
8658
8667
8676
8685
8694
8703
8712
8721
8730
8739
8748
8757
8766
8775
8784
8793
8802
8811
8820
8829
8838
8847
8856
8865
8874
8883
8892
8901
8910
8919
8928
8937
8946
8955
8964
8973
8982
8991
9000
9009
9018
9027
9036
9045
9054
9063
9072
9081
9090
9099
9108
9117
9126
9135
9144
9153
9162
9171
9180
9189
9198
9207
9216
9225
9234
9243
9252
9261
9270
9279
9288
9297
9306
9315
9324
9333
9342
9351
9360
9369
9378
9387
9396
9405
9414
9423
9432
9441
9450
9459
9468
9477
9486
9495
9504
9513
9522
9531
9540
9549
9558
9567
9576
9585
9594
9603
9612
9621
9630
9639
9648
9657
9666
9675
9684
9693
9702
9711
9720
9729
9738
9747
9756
9765
9774
9783
9792
9801
9810
9819
9828
9837
9846
9855
9864
9873
9882
9891
9900
9909
9918
9927
9936
9945
9954
9963
9972
9981
9990
9999
10008
10017
10026
10035
10044
10053
10062
10071
10080
10089
10098
10107
10116
10125
10134
10143
10152
10161
10170
10179
10188
10197
10206
10215
10224
10233
10242
10251
10260
10269
10278
10287
10296
10305
10314
10323
10332
10341
10350
10359
10368
10377
10386
10395
10404
10413
10422
10431
10440
10449
10458
10467
10476
10485
10494
10503
10512
10521
10530
10539
10548
10557
10566
10575
10584
10593
10602
10611
10620
10629
10638
10647
10656
10665
10674
10683
10692
10701
10710
10719
10728
10737
10746
10755
10764
10773
10782
10791
10800
10809
10818
10827
10836
10845
10854
10863
10872
10881
10890
10899
10908
10917
10926
10935
10944
10953
10962
10971
10980
10989
10998
11007
11016
11025
11034
11043
11052
11061
11070
11079
11088
11097
11106
11115
11124
11133
11142
11151
11160
11169
11178
11187
11196
11205
11214
11223
11232
11241
11250
11259
11268
11277
11286
11295
11304
11313
11322
11331
11340
11349
11358
11367
11376
11385
11394
11403
11412
11421
11430
11439
11448
11457
11466
11475
11484
11493
11502
11511
11520
11529
11538
11547
11556
11565
11574
11583
11592
11601
11610
11619
11628
11637
11646
11655
11664
11673
11682
11691
11700
11709
11718
11727
11736
11745
11754
11763
11772
11781
11790
11799
11808
11817
11826
11835
11844
11853
11862
11871
11880
11889
11898
11907
11916
11925
11934
11943
11952
11961
11970
11979
11988
11997
12006
12015
12024
12033
12042
12051
12060
12069
12078
12087
12096
12105
12114
12123
12132
12141
12150
12159
12168
12177
12186
12195
12204
12213
12222
12231
12240
12249
12258
12267
12276
12285
12294
12303
12312
12321
12330
12339
12348
12357
12366
12375
12384
12393
12402
12411
      </DataArray>
      <DataArray type="UInt8" Name="types" format="ascii">
70
70
70
70
70
70
70
70
70
70
70
70
70
70
70
70
70
70
70
70
70
70
70
70
70
70
70
70
70
70
70
70
70
70
70
70
70
70
70
70
70
70
70
70
70
70
70
70
70
70
70
70
70
70
70
70
70
70
70
70
70
70
70
70
70
70
70
70
70
70
70
70
70
70
70
70
70
70
70
70
70
70
70
70
70
70
70
70
70
70
70
70
70
70
70
70
70
70
70
70
70
70
70
70
70
70
70
70
70
70
70
70
70
70
70
70
70
70
70
70
70
70
70
70
70
70
70
70
70
70
70
70
70
70
70
70
70
70
70
70
70
70
70
70
70
70
70
70
70
70
70
70
70
70
70
70
70
70
70
70
70
70
70
70
70
70
70
70
70
70
70
70
70
70
70
70
70
70
70
70
70
70
70
70
70
70
70
70
70
70
70
70
70
70
70
70
70
70
70
70
70
70
70
70
70
70
70
70
70
70
70
70
70
70
70
70
70
70
70
70
70
70
70
70
70
70
70
70
70
70
70
70
70
70
70
70
70
70
70
70
70
70
70
70
70
70
70
70
70
70
70
70
70
70
70
70
70
70
70
70
70
70
70
70
70
70
70
70
70
70
70
70
70
70
70
70
70
70
70
70
70
70
70
70
70
70
70
70
70
70
70
70
70
70
70
70
70
70
70
70
70
70
70
70
70
70
70
70
70
70
70
70
70
70
70
70
70
70
70
70
70
70
70
70
70
70
70
70
70
70
70
70
70
70
70
70
70
70
70
70
70
70
70
70
70
70
70
70
70
70
70
70
70
70
70
70
70
70
70
70
70
70
70
70
70
70
70
70
70
70
70
70
70
70
70
70
70
70
70
70
70
70
70
70
70
70
70
70
70
70
70
70
70
70
70
70
70
70
70
70
70
70
70
70
70
70
70
70
70
70
70
70
70
70
70
70
70
70
70
70
70
70
70
70
70
70
70
70
70
70
70
70
70
70
70
70
70
70
70
70
70
70
70
70
70
70
70
70
70
70
70
70
70
70
70
70
70
70
70
70
70
70
70
70
70
70
70
70
70
70
70
70
70
70
70
70
70
70
70
70
70
70
70
70
70
70
70
70
70
70
70
70
70
70
70
70
70
70
70
70
70
70
70
70
70
70
70
70
70
70
70
70
70
70
70
70
70
70
70
70
70
70
70
70
70
70
70
70
70
70
70
70
70
70
70
70
70
70
70
70
70
70
70
70
70
70
70
70
70
70
70
70
70
70
70
70
70
70
70
70
70
70
70
70
70
70
70
70
70
70
70
70
70
70
70
70
70
70
70
70
70
70
70
70
70
70
70
70
70
70
70
70
70
70
70
70
70
70
70
70
70
70
70
70
70
70
70
70
70
70
70
70
70
70
70
70
70
70
70
70
70
70
70
70
70
70
70
70
70
70
70
70
70
70
70
70
70
70
70
70
70
70
70
70
70
70
70
70
70
70
70
70
70
70
70
70
70
70
70
70
70
70
70
70
70
70
70
70
70
70
70
70
70
70
70
70
70
70
70
70
70
70
70
70
70
70
70
70
70
70
70
70
70
70
70
70
70
70
70
70
70
70
70
70
70
70
70
70
70
70
70
70
70
70
70
70
70
70
70
70
70
70
70
70
70
70
70
70
70
70
70
70
70
70
70
70
70
70
70
70
70
70
70
70
70
70
70
70
70
70
70
70
70
70
70
70
70
70
70
70
70
70
70
70
70
70
70
70
70
70
70
70
70
70
70
70
70
70
70
70
70
70
70
70
70
70
70
70
70
70
70
70
70
70
70
70
70
70
70
70
70
70
70
70
70
70
70
70
70
70
70
70
70
70
70
70
70
70
70
70
70
70
70
70
70
70
70
70
70
70
70
70
70
70
70
70
70
70
70
70
70
70
70
70
70
70
70
70
70
70
70
70
70
70
70
70
70
70
70
70
70
70
70
70
70
70
70
70
70
70
70
70
70
70
70
70
70
70
70
70
70
70
70
70
70
70
70
70
70
70
70
70
70
70
70
70
70
70
70
70
70
70
70
70
70
70
70
70
70
70
70
70
70
70
70
70
70
70
70
70
70
70
70
70
70
70
70
70
70
70
70
70
70
70
70
70
70
70
70
70
70
70
70
70
70
70
70
70
70
70
70
70
70
70
70
70
70
70
70
70
70
70
70
70
70
70
70
70
70
70
70
70
70
70
70
70
70
70
70
70
70
70
70
70
70
70
70
70
70
70
70
70
70
70
70
70
70
70
70
70
70
70
70
70
70
70
70
70
70
70
70
70
70
70
70
70
70
70
70
70
70
70
70
70
70
70
70
70
70
70
70
70
70
70
70
70
70
70
70
70
70
70
70
70
70
70
70
70
70
70
70
70
70
70
70
70
70
70
70
70
70
70
70
70
70
70
70
70
70
70
70
70
70
70
70
70
70
70
70
70
70
70
70
70
70
70
70
70
70
70
70
70
70
70
70
70
70
70
70
70
70
70
70
70
70
70
70
70
70
70
70
70
70
70
70
70
70
70
70
70
70
70
70
70
70
70
70
70
70
70
70
70
70
70
70
70
70
70
70
70
70
70
70
70
70
70
70
70
70
70
70
70
70
70
70
70
70
70
70
70
70
70
70
70
70
70
70
70
70
70
70
70
70
70
70
70
70
70
70
70
70
70
70
70
70
70
70
70
70
70
70
70
70
70
70
70
70
70
70
70
70
70
70
70
70
70
70
70
70
70
70
70
70
70
70
70
70
70
70
70
70
70
70
70
70
70
70
70
70
70
70
70
70
70
70
70
70
70
70
70
70
70
70
70
70
70
70
70
70
70
70
70
70
70
70
70
70
70
70
70
70
70
70
70
70
70
70
70
70
70
70
70
70
70
70
70
70
70
70
70
70
70
70
70
70
70
70
70
70
70
70
70
70
70
70
70
70
70
70
70
70
70
70
70
70
70
70
70
70
70
70
70
70
70
70
70
70
70
70
70
70
70
70
70
70
70
70
70
70
70
70
70
70
70
70
70
70
70
70
70
70
70
70
70
70
70
70
70
70
70
70
70
70
70
70
70
70
70
70
70
70
70
70
70
70
70
70
70
70
70
70
70
70
70
70
70
70
70
70
      </DataArray>
    </Cells>
    <PointData>
      <DataArray type="Float64" NumberOfComponents="3" Name="Displacement" format="ascii">
0 0 0
-0.00307713 -0.00153554 -0.00153554
-0.00183442 -0.000518904 -0.000518904
0 0 0
-0.00167431 -0.000957189 -0.000957189
-0.00231742 -0.000928093 -0.000928093
-0.000890156 -0.000185982 -0.000185982
0 0 0
-0.00110524 -0.00040907 -0.00040907
-0.00307713 -0.00153554 -0.00153554
-0.0057397 -0.002667 -0.002667
-0.00382068 -0.00149825 -0.00149825
-0.00183442 -0.000518904 -0.000518904
-0.00441234 -0.0020799 -0.0020799
-0.00473186 -0.00202341 -0.00202341
-0.0028181 -0.000961279 -0.000961279
-0.00231742 -0.000928093 -0.000928093
-0.00353145 -0.00145925 -0.00145925
-0.0057397 -0.002667 -0.002667
-0.00842565 -0.00403204 -0.00403204
-0.00582485 -0.00284386 -0.00284386
-0.00382068 -0.00149825 -0.00149825
-0.00707793 -0.00330953 -0.00330953
-0.00711094 -0.00339311 -0.00339311
-0.00482396 -0.0021237 -0.0021237
-0.00473186 -0.00202341 -0.00202341
-0.00592451 -0.00266364 -0.00266364
-0.00842565 -0.00403204 -0.00403204
-0.0111336 -0.00578856 -0.00578856
-0.007819 -0.00459645 -0.00459645
-0.00582485 -0.00284386 -0.00284386
-0.00977765 -0.00485724 -0.00485724
-0.00946963 -0.00514566 -0.00514566
-0.00682365 -0.0036669 -0.0036669
-0.00711094 -0.00339311 -0.00339311
-0.00829197 -0.00421791 -0.00421791
-0.0111336 -0.00578856 -0.00578856
-0.0138559 -0.00797284 -0.00797284
-0.0097963 -0.00678506 -0.00678506
-0.007819 -0.00459645 -0.00459645
-0.0124937 -0.00682574 -0.00682574
-0.0118203 -0.0073325 -0.0073325
-0.00880964 -0.00563501 -0.00563501
-0.00946963 -0.00514566 -0.00514566
-0.0106458 -0.00618319 -0.00618319
-0.0138559 -0.00797284 -0.00797284
-0.0165792 -0.0106094 -0.0106094
-0.0117607 -0.00942646 -0.00942646
-0.0097963 -0.00678506 -0.00678506
-0.0152179 -0.00923402 -0.00923402
-0.0141632 -0.00997008 -0.00997008
-0.01078 -0.00804868 -0.00804868
-0.0118203 -0.0073325 -0.0073325
-0.0129927 -0.00859443 -0.00859443
-0.0165792 -0.0106094 -0.0106094
-0.0192989 -0.0137017 -0.0137017
-0.0137131 -0.0125254 -0.0125254
-0.0117607 -0.00942646 -0.00942646
-0.0179398 -0.0120984 -0.0120984
-0.0164981 -0.0130654 -0.0130654
-0.0127383 -0.0109186 -0.0109186
-0.0141632 -0.00997008 -0.00997008
-0.0153317 -0.0114604 -0.0114604
-0.0192989 -0.0137017 -0.0137017
-0.0220098 -0.0172526 -0.0172526
-0.015655 -0.0160832 -0.0160832
-0.0137131 -0.0125254 -0.0125254
-0.0206556 -0.0154198 -0.0154198
-0.0188236 -0.0166194 -0.0166194
-0.0146853 -0.014247 -0.014247
-0.0164981 -0.0130654 -0.0130654
-0.0176621 -0.0147851 -0.0147851
-0.0220098 -0.0172526 -0.0172526
-0.02471 -0.0212604 -0.0212604
-0.0175868 -0.0200984 -0.0200984
-0.015655 -0.0160832 -0.0160832
-0.0233613 -0.0191995 -0.0191995
-0.021139 -0.0206309 -0.0206309
-0.0166222 -0.0180337 -0.0180337
-0.0188236 -0.0166194 -0.0166194
-0.0199826 -0.0185681 -0.0185681
-0.02471 -0.0212604 -0.0212604
-0.027398 -0.0257235 -0.0257235
-0.019509 -0.0245689 -0.0245689
-0.0175868 -0.0200984 -0.0200984
-0.0260556 -0.0234352 -0.0234352
-0.0234438 -0.0250978 -0.0250978
-0.0185491 -0.0222769 -0.0222769
-0.021139 -0.0206309 -0.0206309
-0.0222928 -0.0228076 -0.0228076
-0.027398 -0.0257235 -0.0257235
-0.0300732 -0.0306393 -0.0306393
-0.0214217 -0.0294925 -0.0294925
-0.019509 -0.0245689 -0.0245689
-0.0287372 -0.0281249 -0.0281249
-0.0257375 -0.0300177 -0.0300177
-0.0204665 -0.0269742 -0.0269742
-0.0234438 -0.0250978 -0.0250978
-0.024592 -0.0275013 -0.0275013
-0.0300732 -0.0306393 -0.0306393
-0.0327352 -0.0360054 -0.0360054
-0.0233251 -0.0348664 -0.0348664
-0.0214217 -0.0294925 -0.0294925
-0.0314058 -0.0332662 -0.0332662
-0.0280201 -0.035388 -0.035388
-0.0223745 -0.0321233 -0.0321233
-0.0257375 -0.0300177 -0.0300177
-0.0268802 -0.0326467 -0.0326467
-0.0327352 -0.0360054 -0.0360054
-0.035384 -0.0418193 -0.0418193
-0.0252191 -0.0406883 -0.0406883
-0.0233251 -0.0348664 -0.0348664
-0.0340613 -0.0388565 -0.0388565
-0.0302914 -0.0412061 -0.0412061
-0.0242733 -0.0377215 -0.0377215
-0.0280201 -0.035388 -0.035388
-0.0291571 -0.0382412 -0.0382412
-0.035384 -0.0418193 -0.0418193
-0.0380196 -0.0480786 -0.0480786
-0.027104 -0.0469556 -0.0469556
-0.0252191 -0.0406883 -0.0406883
-0.0367034 -0.0448934 -0.0448934
-0.0325516 -0.0474696 -0.0474696
-0.0261627 -0.0437664 -0.0437664
-0.0302914 -0.0412061 -0.0412061
-0.0314229 -0.0442823 -0.0442823
-0.0380196 -0.0480786 -0.0480786
-0.0406419 -0.0547806 -0.0547806
-0.0289798 -0.0536658 -0.0536658
-0.027104 -0.0469556 -0.0469556
-0.0393324 -0.0513744 -0.0513744
-0.0348007 -0.054176 -0.054176
-0.0280431 -0.0502555 -0.0502555
-0.0325516 -0.0474696 -0.0474696
-0.0336775 -0.0507676 -0.0507676
-0.0406419 -0.0547806 -0.0547806
-0.0432511 -0.0619231 -0.0619231
-0.0308466 -0.0608166 -0.0608166
-0.0289798 -0.0536658 -0.0536658
-0.0419482 -0.058297 -0.058297
-0.0370387 -0.0613229 -0.0613229
-0.0299143 -0.0571863 -0.0571863
-0.0348007 -0.054176 -0.054176
-0.0359211 -0.0576946 -0.0576946
-0.0432511 -0.0619231 -0.0619231
-0.0458473 -0.0695036 -0.0695036
-0.0327044 -0.0684055 -0.0684055
-0.0308466 -0.0608166 -0.0608166
-0.0445508 -0.0656587 -0.0656587
-0.0392656 -0.0689078 -0.0689078
-0.0317766 -0.0645564 -0.0645564
-0.0370387 -0.0613229 -0.0613229
-0.0381535 -0.0650608 -0.0650608
-0.0458473 -0.0695036 -0.0695036
-0.0484304 -0.0775195 -0.0775195
-0.0345533 -0.07643 -0.07643
-0.0327044 -0.0684055 -0.0684055
-0.0471404 -0.0734573 -0.0734573
-0.0414816 -0.0769284 -0.0769284
-0.0336299 -0.0723634 -0.0723634
-0.0392656 -0.0689078 -0.0689078
-0.040375 -0.0728638 -0.0728638
-0.0484304 -0.0775195 -0.0775195
-0.0510006 -0.0859687 -0.0859687
-0.0363933 -0.0848878 -0.0848878
-0.0345533 -0.07643 -0.07643
-0.0497171 -0.0816901 -0.0816901
-0.0436867 -0.0853821 -0.0853821
-0.0354744 -0.0806049 -0.0806049
-0.0414816 -0.0769284 -0.0769284
-0.0425855 -0.0811012 -0.0811012
-0.0510006 -0.0859687 -0.0859687
-0.0535579 -0.0948485 -0.0948485
-0.0382246 -0.0937763 -0.0937763
-0.0363933 -0.0848878 -0.0848878
-0.0522809 -0.0903549 -0.0903549
-0.0458811 -0.0942665 -0.0942665
-0.0373101 -0.0892783 -0.0892783
-0.0436867 -0.0853821 -0.0853821
-0.0447853 -0.0897706 -0.0897706
-0.0535579 -0.0948485 -0.0948485
-0.0561025 -0.104157 -0.104157
-0.0400472 -0.103093 -0.103093
-0.0382246 -0.0937763 -0.0937763
-0.0548318 -0.0994492 -0.0994492
-0.0480646 -0.103579 -0.103579
-0.039137 -0.0983814 -0.0983814
-0.0458811 -0.0942665 -0.0942665
-0.0469742 -0.0988695 -0.0988695
-0.0561025 -0.104157 -0.104157
-0.0586343 -0.113891 -0.113891
-0.0418612 -0.112836 -0.112836
-0.0400472 -0.103093 -0.103093
-0.05737 -0.108971 -0.108971
-0.0502375 -0.113318 -0.113318
-0.0409553 -0.107912 -0.107912
-0.0480646 -0.103579 -0.103579
-0.0491524 -0.108396 -0.108396
-0.0586343 -0.113891 -0.113891
-0.0611534 -0.124048 -0.124048
-0.0436665 -0.123003 -0.123003
-0.0418612 -0.112836 -0.112836
-0.0598954 -0.118917 -0.118917
-0.0523997 -0.12348 -0.12348
-0.0427649 -0.117867 -0.117867
-0.0502375 -0.113318 -0.113318
-0.0513199 -0.118346 -0.118346
-0.0611534 -0.124048 -0.124048
-0.0636599 -0.134627 -0.134627
-0.0454634 -0.13359 -0.13359
-0.0436665 -0.123003 -0.123003
-0.0624083 -0.129285 -0.129285
-0.0545514 -0.134064 -0.134064
-0.044566 -0.128244 -0.128244
-0.0523997 -0.12348 -0.12348
-0.0534769 -0.12872 -0.12872
-0.0636599 -0.134627 -0.134627
-0.0661539 -0.145624 -0.145624
-0.0472517 -0.144597 -0.144597
-0.0454634 -0.13359 -0.13359
-0.0649085 -0.140073 -0.140073
-0.0566926 -0.145066 -0.145066
-0.0463586 -0.139041 -0.139041
-0.0545514 -0.134064 -0.134064
-0.0556233 -0.139512 -0.139512
-0.0661539 -0.145624 -0.145624
-0.0686354 -0.157037 -0.157037
-0.0490317 -0.15602 -0.15602
-0.0472517 -0.144597 -0.144597
-0.0673962 -0.151278 -0.151278
-0.0588233 -0.156484 -0.156484
-0.0481428 -0.150256 -0.150256
-0.0566926 -0.145066 -0.145066
-0.0577592 -0.150723 -0.150723
-0.0686354 -0.157037 -0.157037
-0.0711044 -0.168864 -0.168864
-0.0508034 -0.167856 -0.167856
-0.0490317 -0.15602 -0.15602
-0.0698714 -0.162899 -0.162899
-0.0609436 -0.168316 -0.168316
-0.0499186 -0.161886 -0.161886
-0.0588233 -0.156484 -0.156484
-0.0598848 -0.162348 -0.162348
-0.0711044 -0.168864 -0.168864
-0.0735611 -0.181103 -0.181103
-0.0525667 -0.180104 -0.180104
-0.0508034 -0.167856 -0.167856
-0.0723343 -0.174932 -0.174932
-0.0630536 -0.18056 -0.18056
-0.0516861 -0.173929 -0.173929
-0.0609436 -0.168316 -0.168316
-0.0619999 -0.174387 -0.174387
-0.0735611 -0.181103 -0.181103
-0.0760054 -0.19375 -0.19375
-0.0543219 -0.192761 -0.192761
-0.0525667 -0.180104 -0.180104
-0.0747848 -0.187376 -0.187376
-0.0651533 -0.193212 -0.193212
-0.0534453 -0.186382 -0.186382
-0.0630536 -0.18056 -0.18056
-0.0641048 -0.186835 -0.186835
-0.0760054 -0.19375 -0.19375
-0.0784375 -0.206804 -0.206804
-0.0560688 -0.205825 -0.205825
-0.0543219 -0.192761 -0.192761
-0.077223 -0.200227 -0.200227
-0.0672428 -0.206272 -0.206272
-0.0551963 -0.199243 -0.199243
-0.0651533 -0.193212 -0.193212
-0.0661994 -0.199691 -0.199691
-0.0784375 -0.206804 -0.206804
-0.0808573 -0.220263 -0.220263
-0.0578076 -0.219293 -0.219293
-0.0560688 -0.205825 -0.205825
-0.0796489 -0.213483 -0.213483
-0.0693222 -0.219735 -0.219735
-0.0569392 -0.212509 -0.212509
-0.0672428 -0.206272 -0.206272
-0.0682838 -0.212953 -0.212953
-0.0808573 -0.220263 -0.220263
-0.083265 -0.234122 -0.234122
-0.0595383 -0.233163 -0.233163
-0.0578076 -0.219293 -0.219293
-0.0820626 -0.227142 -0.227142
-0.0713914 -0.2336 -0.2336
-0.058674 -0.226178 -0.226178
-0.0693222 -0.219735 -0.219735
-0.070358 -0.226617 -0.226617
-0.083265 -0.234122 -0.234122
-0.0856605 -0.248382 -0.248382
-0.0612611 -0.247432 -0.247432
-0.0595383 -0.233163 -0.233163
-0.0844643 -0.241202 -0.241202
-0.0734505 -0.247865 -0.247865
-0.0604007 -0.240248 -0.240248
-0.0713914 -0.2336 -0.2336
-0.0724222 -0.240683 -0.240683
-0.0856605 -0.248382 -0.248382
-0.088044 -0.263038 -0.263038
-0.0629758 -0.262099 -0.262099
-0.0612611 -0.247432 -0.247432
-0.0868538 -0.25566 -0.25566
-0.0754996 -0.262526 -0.262526
-0.0621194 -0.254716 -0.254716
-0.0734505 -0.247865 -0.247865
-0.0744763 -0.255146 -0.255146
-0.088044 -0.263038 -0.263038
-0.0904155 -0.278088 -0.278088
-0.0646826 -0.277159 -0.277159
-0.0629758 -0.262099 -0.262099
-0.0892312 -0.270514 -0.270514
-0.0775387 -0.277582 -0.277582
-0.0638302 -0.26958 -0.26958
-0.0754996 -0.262526 -0.262526
-0.0765204 -0.270005 -0.270005
-0.0904155 -0.278088 -0.278088
-0.0927749 -0.293531 -0.293531
-0.0663815 -0.292612 -0.292612
-0.0646826 -0.277159 -0.277159
-0.0915967 -0.285761 -0.285761
-0.0795679 -0.29303 -0.29303
-0.0655331 -0.284837 -0.284837
-0.0775387 -0.277582 -0.277582
-0.0785546 -0.285257 -0.285257
-0.0927749 -0.293531 -0.293531
-0.0951225 -0.309363 -0.309363
-0.0680726 -0.308455 -0.308455
-0.0663815 -0.292612 -0.292612
-0.0939502 -0.301399 -0.301399
-0.0815872 -0.308868 -0.308868
-0.0672281 -0.300485 -0.300485
-0.0795679 -0.29303 -0.29303
-0.0805788 -0.3009 -0.3009
-0.0951225 -0.309363 -0.309363
-0.0974582 -0.325583 -0.325583
-0.0697559 -0.324685 -0.324685
-0.0680726 -0.308455 -0.308455
-0.0962918 -0.317425 -0.317425
-0.0835967 -0.325093 -0.325093
-0.0689152 -0.316521 -0.316521
-0.0815872 -0.308868 -0.308868
-0.0825932 -0.316932 -0.316932
-0.0974582 -0.325583 -0.325583
-0.099782 -0.342187 -0.342187
-0.0714315 -0.3413 -0.3413
-0.0697559 -0.324685 -0.324685
-0.0986215 -0.333837 -0.333837
-0.0855964 -0.341703 -0.341703
-0.0705947 -0.332944 -0.332944
-0.0835967 -0.325093 -0.325093
-0.0845978 -0.33335 -0.33335
-0.099782 -0.342187 -0.342187
-0.102094 -0.359174 -0.359174
-0.0730993 -0.358297 -0.358297
-0.0714315 -0.3413 -0.3413
-0.100939 -0.350633 -0.350633
-0.0875863 -0.358695 -0.358695
-0.0722664 -0.349751 -0.349751
-0.0855964 -0.341703 -0.341703
-0.0865926 -0.350151 -0.350151
-0.102094 -0.359174 -0.359174
-0.104394 -0.376541 -0.376541
-0.0747595 -0.375674 -0.375674
-0.0730993 -0.358297 -0.358297
-0.103246 -0.36781 -0.36781
-0.0895666 -0.376067 -0.376067
-0.0739304 -0.366938 -0.366938
-0.0875863 -0.358695 -0.358695
-0.0885777 -0.367334 -0.367334
-0.104394 -0.376541 -0.376541
-0.106683 -0.394285 -0.394285
-0.0764121 -0.393429 -0.393429
-0.0747595 -0.375674 -0.375674
-0.10554 -0.385366 -0.385366
-0.0915371 -0.393817 -0.393817
-0.0755867 -0.384505 -0.384505
-0.0895666 -0.376067 -0.376067
-0.090553 -0.384895 -0.384895
-0.106683 -0.394285 -0.394285
-0.10896 -0.412405 -0.412405
-0.078057 -0.411559 -0.411559
-0.0764121 -0.393429 -0.393429
-0.107823 -0.403298 -0.403298
-0.093498 -0.411942 -0.411942
-0.0772355 -0.402447 -0.402447
-0.0915371 -0.393817 -0.393817
-0.0925188 -0.402833 -0.402833
-0.10896 -0.412405 -0.412405
-0.111225 -0.430897 -0.430897
-0.0796945 -0.430062 -0.430062
-0.078057 -0.411559 -0.411559
-0.110094 -0.421604 -0.421604
-0.0954493 -0.43044 -0.43044
-0.0788767 -0.420764 -0.420764
-0.093498 -0.411942 -0.411942
-0.0944749 -0.421145 -0.421145
-0.111225 -0.430897 -0.430897
-0.113479 -0.449759 -0.449759
-0.0813244 -0.448936 -0.448936
-0.0796945 -0.430062 -0.430062
-0.112353 -0.440282 -0.440282
-0.0973911 -0.449308 -0.449308
-0.0805103 -0.439453 -0.439453
-0.0954493 -0.43044 -0.43044
-0.0964214 -0.439828 -0.439828
-0.113479 -0.449759 -0.449759
-0.115721 -0.46899 -0.46899
-0.0829468 -0.468177 -0.468177
-0.0813244 -0.448936 -0.448936
-0.114601 -0.459329 -0.459329
-0.0993234 -0.468544 -0.468544
-0.0821365 -0.45851 -0.45851
-0.0973911 -0.449308 -0.449308
-0.0983584 -0.45888 -0.45888
-0.115721 -0.46899 -0.46899
-0.117951 -0.488586 -0.488586
-0.0845618 -0.487784 -0.487784
-0.0829468 -0.468177 -0.468177
-0.116837 -0.478742 -0.478742
-0.101246 -0.488146 -0.488146
-0.0837552 -0.477935 -0.477935
-0.0993234 -0.468544 -0.468544
-0.100286 -0.478299 -0.478299
-0.117951 -0.488586 -0.488586
-0.12017 -0.508545 -0.508545
-0.0861694 -0.507754 -0.507754
-0.0845618 -0.487784 -0.487784
-0.119062 -0.49852 -0.49852
-0.103159 -0.508111 -0.508111
-0.0853665 -0.497724 -0.497724
-0.101246 -0.488146 -0.488146
-0.102204 -0.498083 -0.498083
-0.12017 -0.508545 -0.508545
-0.122378 -0.528864 -0.528864
-0.0877696 -0.528084 -0.528084
-0.0861694 -0.507754 -0.507754
-0.121275 -0.518659 -0.518659
-0.105063 -0.528436 -0.528436
-0.0869704 -0.517874 -0.517874
-0.103159 -0.508111 -0.508111
-0.104113 -0.518228 -0.518228
-0.122378 -0.528864 -0.528864
-0.124574 -0.549542 -0.549542
-0.0893625 -0.548773 -0.548773
-0.0877696 -0.528084 -0.528084
-0.123477 -0.539158 -0.539158
-0.106958 -0.54912 -0.54912
-0.088567 -0.538384 -0.538384
-0.105063 -0.528436 -0.528436
-0.106012 -0.538733 -0.538733
-0.124574 -0.549542 -0.549542
-0.126759 -0.570576 -0.570576
-0.090948 -0.569818 -0.569818
-0.0893625 -0.548773 -0.548773
-0.125668 -0.560015 -0.560015
-0.108843 -0.570159 -0.570159
-0.0901562 -0.559252 -0.559252
-0.106958 -0.54912 -0.54912
-0.107902 -0.559595 -0.559595
-0.126759 -0.570576 -0.570576
-0.128932 -0.591963 -0.591963
-0.0925263 -0.591217 -0.591217
-0.090948 -0.569818 -0.569818
-0.127847 -0.581225 -0.581225
-0.110719 -0.591552 -0.591552
-0.0917381 -0.580473 -0.580473
-0.108843 -0.570159 -0.570159
-0.109782 -0.580812 -0.580812
-0.128932 -0.591963 -0.591963
-0.131094 -0.613701 -0.613701
-0.0940974 -0.612966 -0.612966
-0.0925263 -0.591217 -0.591217
-0.130014 -0.602788 -0.602788
-0.112585 -0.613296 -0.613296
-0.0933127 -0.602048 -0.602048
-0.110719 -0.591552 -0.591552
-0.111653 -0.60238 -0.60238
-0.131094 -0.613701 -0.613701
-0.133245 -0.635787 -0.635787
-0.0956612 -0.635064 -0.635064
-0.0940974 -0.612966 -0.612966
-0.132171 -0.624701 -0.624701
-0.114443 -0.635389 -0.635389
-0.0948802 -0.623971 -0.623971
-0.112585 -0.613296 -0.613296
-0.113515 -0.624299 -0.624299
-0.133245 -0.635787 -0.635787
-0.135384 -0.65822 -0.65822
-0.0972178 -0.657508 -0.657508
-0.0956612 -0.635064 -0.635064
-0.134316 -0.646961 -0.646961
-0.11629 -0.657827 -0.657827
-0.0964404 -0.646243 -0.646243
-0.114443 -0.635389 -0.635389
-0.115368 -0.646565 -0.646565
-0.135384 -0.65822 -0.65822
-0.137512 -0.680997 -0.680997
-0.0987672 -0.680296 -0.680296
-0.0972178 -0.657508 -0.657508
-0.136449 -0.669566 -0.669566
-0.118129 -0.68061 -0.68061
-0.0979934 -0.668859 -0.668859
-0.11629 -0.657827 -0.657827
-0.117211 -0.669176 -0.669176
-0.137512 -0.680997 -0.680997
-0.139629 -0.704115 -0.704115
-0.100309 -0.703425 -0.703425
-0.0987672 -0.680296 -0.680296
-0.138572 -0.692513 -0.692513
-0.119959 -0.703734 -0.703734
-0.0995392 -0.691818 -0.691818
-0.118129 -0.68061 -0.68061
-0.119045 -0.692129 -0.692129
-0.139629 -0.704115 -0.704115
-0.141735 -0.727571 -0.727571
-0.101845 -0.726893 -0.726893
-0.100309 -0.703425 -0.703425
-0.140683 -0.715801 -0.715801
-0.121779 -0.727196 -0.727196
-0.101078 -0.715117 -0.715117
-0.119959 -0.703734 -0.703734
-0.12087 -0.715423 -0.715423
-0.141735 -0.727571 -0.727571
-0.143829 -0.751365 -0.751365
-0.103373 -0.750698 -0.750698
-0.101845 -0.726893 -0.726893
-0.142783 -0.739426 -0.739426
-0.123591 -0.750996 -0.750996
-0.10261 -0.738754 -0.738754
-0.121779 -0.727196 -0.727196
-0.122686 -0.739054 -0.739054
-0.143829 -0.751365 -0.751365
-0.145912 -0.775492 -0.775492
-0.104894 -0.774837 -0.774837
-0.103373 -0.750698 -0.750698
-0.144872 -0.763387 -0.763387
-0.125393 -0.775129 -0.775129
-0.104134 -0.762726 -0.762726
-0.123591 -0.750996 -0.750996
-0.124493 -0.763021 -0.763021
-0.145912 -0.775492 -0.775492
-0.147985 -0.799951 -0.799951
-0.106408 -0.799308 -0.799308
-0.104894 -0.774837 -0.774837
-0.14695 -0.78768 -0.78768
-0.127186 -0.799594 -0.799594
-0.105651 -0.787031 -0.787031
-0.125393 -0.775129 -0.775129
-0.12629 -0.78732 -0.78732
-0.147985 -0.799951 -0.799951
-0.150046 -0.824739 -0.824739
-0.107914 -0.824107 -0.824107
-0.106408 -0.799308 -0.799308
-0.149016 -0.812304 -0.812304
-0.12897 -0.824388 -0.824388
-0.107162 -0.811667 -0.811667
-0.127186 -0.799594 -0.799594
-0.128079 -0.81195 -0.81195
-0.150046 -0.824739 -0.824739
-0.152095 -0.849854 -0.849854
-0.109414 -0.849234 -0.849234
-0.107914 -0.824107 -0.824107
-0.151072 -0.837256 -0.837256
-0.130744 -0.849509 -0.849509
-0.108665 -0.83663 -0.83663
-0.12897 -0.824388 -0.824388
-0.129858 -0.836908 -0.836908
-0.152095 -0.849854 -0.849854
-0.154134 -0.875294 -0.875294
-0.110907 -0.874685 -0.874685
-0.109414 -0.849234 -0.849234
-0.153116 -0.862533 -0.862533
-0.13251 -0.874955 -0.874955
-0.110162 -0.861919 -0.861919
-0.130744 -0.849509 -0.849509
-0.131629 -0.862192 -0.862192
-0.154134 -0.875294 -0.875294
-0.156162 -0.901055 -0.901055
-0.112393 -0.900458 -0.900458
-0.110907 -0.874685 -0.874685
-0.15515 -0.888134 -0.888134
-0.134267 -0.900723 -0.900723
-0.111651 -0.887532 -0.887532
-0.13251 -0.874955 -0.874955
-0.13339 -0.887799 -0.887799
-0.156162 -0.901055 -0.901055
-0.158179 -0.927136 -0.927136
-0.113872 -0.926551 -0.926551
-0.112393 -0.900458 -0.900458
-0.157172 -0.914056 -0.914056
-0.136015 -0.92681 -0.92681
-0.113133 -0.913465 -0.913465
-0.134267 -0.900723 -0.900723
-0.135142 -0.913726 -0.913726
-0.158179 -0.927136 -0.927136
-0.160184 -0.953534 -0.953534
-0.115344 -0.952961 -0.952961
-0.113872 -0.926551 -0.926551
-0.159183 -0.940296 -0.940296
-0.137754 -0.953214 -0.953214
-0.114609 -0.939717 -0.939717
-0.136015 -0.92681 -0.92681
-0.136885 -0.939972 -0.939972
-0.160184 -0.953534 -0.953534
-0.162179 -0.980247 -0.980247
-0.116809 -0.979686 -0.979686
-0.115344 -0.952961 -0.952961
-0.161183 -0.966851 -0.966851
-0.139483 -0.979933 -0.979933
-0.116077 -0.966284 -0.966284
-0.137754 -0.953214 -0.953214
-0.13862 -0.966534 -0.966534
-0.162179 -0.980247 -0.980247
-0.164162 -1.00727 -1.00727
-0.118267 -1.00672 -1.00672
-0.116809 -0.979686 -0.979686
-0.163172 -0.993721 -0.993721
-0.141204 -1.00696 -1.00696
-0.117539 -0.993165 -0.993165
-0.139483 -0.979933 -0.979933
-0.140345 -0.99341 -0.99341
-0.164162 -1.00727 -1.00727
-0.166135 -1.03461 -1.03461
-0.119718 -1.03407 -1.03407
-0.118267 -1.00672 -1.00672
-0.16515 -1.0209 -1.0209
-0.142916 -1.03431 -1.03431
-0.118993 -1.02036 -1.02036
-0.141204 -1.00696 -1.00696
-0.142061 -1.0206 -1.0206
-0.166135 -1.03461 -1.03461
-0.168097 -1.06225 -1.06225
-0.121162 -1.06172 -1.06172
-0.119718 -1.03407 -1.03407
-0.167117 -1.04839 -1.04839
-0.144619 -1.06195 -1.06195
-0.120441 -1.04786 -1.04786
-0.142916 -1.03431 -1.03431
-0.143769 -1.04809 -1.04809
-0.168097 -1.06225 -1.06225
-0.170047 -1.0902 -1.0902
-0.1226 -1.08968 -1.08968
-0.121162 -1.06172 -1.06172
-0.169073 -1.07619 -1.07619
-0.146313 -1.08991 -1.08991
-0.121882 -1.07567 -1.07567
-0.144619 -1.06195 -1.06195
-0.145467 -1.07589 -1.07589
-0.170047 -1.0902 -1.0902
-0.171987 -1.11845 -1.11845
-0.12403 -1.11795 -1.11795
-0.1226 -1.08968 -1.08968
-0.171018 -1.10429 -1.10429
-0.147998 -1.11816 -1.11816
-0.123316 -1.10378 -1.10378
-0.146313 -1.08991 -1.08991
-0.147157 -1.104 -1.104
-0.171987 -1.11845 -1.11845
-0.173915 -1.147 -1.147
-0.125454 -1.14651 -1.14651
-0.12403 -1.11795 -1.11795
-0.172952 -1.13269 -1.13269
-0.149674 -1.14672 -1.14672
-0.124743 -1.13219 -1.13219
-0.147998 -1.11816 -1.11816
-0.148837 -1.13241 -1.13241
-0.173915 -1.147 -1.147
-0.175833 -1.17585 -1.17585
-0.12687 -1.17537 -1.17537
-0.125454 -1.14651 -1.14651
-0.174876 -1.16139 -1.16139
-0.151341 -1.17558 -1.17558
-0.126163 -1.1609 -1.1609
-0.149674 -1.14672 -1.14672
-0.150509 -1.16111 -1.16111
-0.175833 -1.17585 -1.17585
-0.17774 -1.20499 -1.20499
-0.12828 -1.20452 -1.20452
-0.12687 -1.17537 -1.17537
-0.176788 -1.19038 -1.19038
-0.153 -1.20473 -1.20473
-0.127576 -1.18991 -1.18991
-0.151341 -1.17558 -1.17558
-0.152172 -1.19011 -1.19011
-0.17774 -1.20499 -1.20499
-0.179635 -1.23443 -1.23443
-0.129683 -1.23397 -1.23397
-0.12828 -1.20452 -1.20452
-0.178689 -1.21967 -1.21967
-0.154649 -1.23417 -1.23417
-0.128983 -1.21921 -1.21921
-0.153 -1.20473 -1.20473
-0.153825 -1.21941 -1.21941
-0.179635 -1.23443 -1.23443
-0.18152 -1.26415 -1.26415
-0.13108 -1.26371 -1.26371
-0.129683 -1.23397 -1.23397
-0.180579 -1.24925 -1.24925
-0.156289 -1.2639 -1.2639
-0.130382 -1.24881 -1.24881
-0.154649 -1.23417 -1.23417
-0.15547 -1.249 -1.249
-0.18152 -1.26415 -1.26415
-0.183394 -1.29417 -1.29417
-0.132469 -1.29374 -1.29374
-0.13108 -1.26371 -1.26371
-0.182459 -1.27913 -1.27913
-0.157921 -1.29392 -1.29392
-0.131775 -1.27869 -1.27869
-0.156289 -1.2639 -1.2639
-0.157106 -1.27888 -1.27888
-0.183394 -1.29417 -1.29417
-0.185257 -1.32447 -1.32447
-0.133851 -1.32405 -1.32405
-0.132469 -1.29374 -1.29374
-0.184327 -1.30929 -1.30929
-0.159544 -1.32423 -1.32423
-0.133161 -1.30886 -1.30886
-0.157921 -1.29392 -1.29392
-0.158734 -1.30904 -1.30904
-0.185257 -1.32447 -1.32447
-0.187109 -1.35506 -1.35506
-0.135227 -1.35465 -1.35465
-0.133851 -1.32405 -1.32405
-0.186185 -1.33973 -1.33973
-0.161158 -1.35482 -1.35482
-0.13454 -1.33932 -1.33932
-0.159544 -1.32423 -1.32423
-0.160352 -1.33949 -1.33949
-0.187109 -1.35506 -1.35506
-0.18895 -1.38592 -1.38592
-0.136596 -1.38553 -1.38553
-0.135227 -1.35465 -1.35465
-0.188031 -1.37045 -1.37045
-0.162763 -1.38569 -1.38569
-0.135912 -1.37005 -1.37005
-0.161158 -1.35482 -1.35482
-0.161961 -1.37022 -1.37022
-0.18895 -1.38592 -1.38592
-0.190781 -1.41707 -1.41707
-0.137958 -1.41668 -1.41668
-0.136596 -1.38553 -1.38553
-0.189867 -1.40146 -1.40146
-0.164359 -1.41684 -1.41684
-0.137278 -1.40107 -1.40107
-0.162763 -1.38569 -1.38569
-0.163562 -1.40123 -1.40123
-0.190781 -1.41707 -1.41707
-0.1926 -1.44848 -1.44848
-0.139313 -1.44811 -1.44811
-0.137958 -1.41668 -1.41668
-0.191692 -1.43274 -1.43274
-0.165946 -1.44827 -1.44827
-0.138636 -1.43236 -1.43236
-0.164359 -1.41684 -1.41684
-0.165153 -1.43252 -1.43252
-0.1926 -1.44848 -1.44848
-0.194408 -1.48018 -1.48018
-0.140661 -1.47982 -1.47982
-0.139313 -1.44811 -1.44811
-0.193505 -1.4643 -1.4643
-0.167524 -1.47997 -1.47997
-0.139988 -1.46393 -1.46393
-0.165946 -1.44827 -1.44827
-0.166736 -1.46409 -1.46409
-0.194408 -1.48018 -1.48018
-0.196206 -1.51214 -1.51214
-0.142003 -1.5118 -1.5118
-0.140661 -1.47982 -1.47982
-0.195308 -1.49613 -1.49613
-0.169094 -1.51194 -1.51194
-0.141333 -1.49577 -1.49577
-0.167524 -1.47997 -1.47997
-0.16831 -1.49592 -1.49592
-0.196206 -1.51214 -1.51214
-0.197992 -1.54438 -1.54438
-0.143338 -1.54404 -1.54404
-0.142003 -1.5118 -1.5118
-0.1971 -1.52823 -1.52823
-0.170654 -1.54418 -1.54418
-0.142671 -1.52789 -1.52789
-0.169094 -1.51194 -1.51194
-0.169875 -1.52803 -1.52803
-0.197992 -1.54438 -1.54438
-0.199768 -1.57688 -1.57688
-0.144665 -1.57655 -1.57655
-0.143338 -1.54404 -1.54404
-0.198881 -1.56059 -1.56059
-0.172206 -1.57669 -1.57669
-0.144002 -1.56026 -1.56026
-0.170654 -1.54418 -1.54418
-0.171431 -1.5604 -1.5604
-0.199768 -1.57688 -1.57688
-0.201532 -1.60964 -1.60964
-0.145986 -1.60933 -1.60933
-0.144665 -1.57655 -1.57655
-0.200651 -1.59323 -1.59323
-0.173749 -1.60946 -1.60946
-0.145327 -1.59291 -1.59291
-0.172206 -1.57669 -1.57669
-0.172979 -1.59304 -1.59304
-0.201532 -1.60964 -1.60964
-0.203286 -1.64267 -1.64267
-0.147301 -1.64237 -1.64237
-0.145986 -1.60933 -1.60933
-0.202411 -1.62612 -1.62612
-0.175283 -1.64249 -1.64249
-0.146644 -1.62582 -1.62582
-0.173749 -1.60946 -1.60946
-0.174517 -1.62594 -1.62594
-0.203286 -1.64267 -1.64267
-0.205029 -1.67595 -1.67595
-0.148608 -1.67566 -1.67566
-0.147301 -1.64237 -1.64237
-0.204159 -1.65928 -1.65928
-0.176808 -1.67578 -1.67578
-0.147955 -1.65898 -1.65898
-0.175283 -1.64249 -1.64249
-0.176046 -1.6591 -1.6591
-0.205029 -1.67595 -1.67595
-0.206761 -1.70949 -1.70949
-0.149908 -1.70922 -1.70922
-0.148608 -1.67566 -1.67566
-0.205896 -1.69269 -1.69269
-0.178324 -1.70933 -1.70933
-0.149259 -1.69241 -1.69241
-0.176808 -1.67578 -1.67578
-0.177567 -1.69252 -1.69252
-0.206761 -1.70949 -1.70949
-0.208481 -1.74329 -1.74329
-0.151202 -1.74303 -1.74303
-0.149908 -1.70922 -1.70922
-0.207622 -1.72636 -1.72636
-0.179831 -1.74313 -1.74313
-0.150556 -1.72609 -1.72609
-0.178324 -1.70933 -1.70933
-0.179079 -1.7262 -1.7262
-0.208481 -1.74329 -1.74329
-0.210191 -1.77734 -1.77734
-0.152489 -1.77708 -1.77708
-0.151202 -1.74303 -1.74303
-0.209338 -1.76028 -1.76028
-0.18133 -1.77718 -1.77718
-0.151846 -1.76002 -1.76002
-0.179831 -1.74313 -1.74313
-0.180582 -1.76013 -1.76013
-0.210191 -1.77734 -1.77734
-0.21189 -1.81163 -1.81163
-0.153768 -1.81139 -1.81139
-0.152489 -1.77708 -1.77708
-0.211042 -1.79445 -1.79445
-0.182819 -1.81149 -1.81149
-0.153129 -1.79421 -1.79421
-0.18133 -1.77718 -1.77718
-0.182075 -1.7943 -1.7943
-0.21189 -1.81163 -1.81163
-0.213578 -1.84618 -1.84618
-0.155041 -1.84595 -1.84595
-0.153768 -1.81139 -1.81139
-0.212736 -1.82887 -1.82887
-0.184299 -1.84604 -1.84604
-0.154406 -1.82864 -1.82864
-0.182819 -1.81149 -1.81149
-0.18356 -1.82873 -1.82873
-0.213578 -1.84618 -1.84618
-0.215255 -1.88097 -1.88097
-0.156308 -1.88075 -1.88075
-0.155041 -1.84595 -1.84595
-0.214418 -1.86354 -1.86354
-0.185771 -1.88083 -1.88083
-0.155675 -1.86332 -1.86332
-0.184299 -1.84604 -1.84604
-0.185036 -1.8634 -1.8634
-0.215255 -1.88097 -1.88097
-0.216921 -1.916 -1.916
-0.157567 -1.91579 -1.91579
-0.156308 -1.88075 -1.88075
-0.21609 -1.89845 -1.89845
-0.187234 -1.91587 -1.91587
-0.156938 -1.89824 -1.89824
-0.185771 -1.88083 -1.88083
-0.186503 -1.89832 -1.89832
-0.216921 -1.916 -1.916
-0.218576 -1.95127 -1.95127
-0.158819 -1.95108 -1.95108
-0.157567 -1.91579 -1.91579
-0.21775 -1.9336 -1.9336
-0.188687 -1.95115 -1.95115
-0.158194 -1.9334 -1.9334
-0.187234 -1.91587 -1.91587
-0.187962 -1.93348 -1.93348
-0.218576 -1.95127 -1.95127
-0.22022 -1.98678 -1.98678
-0.160064 -1.9866 -1.9866
-0.158819 -1.95108 -1.95108
-0.2194 -1.96899 -1.96899
-0.190132 -1.98666 -1.98666
-0.159443 -1.96881 -1.96881
-0.188687 -1.95115 -1.95115
-0.189411 -1.96887 -1.96887
-0.22022 -1.98678 -1.98678
-0.221853 -2.02252 -2.02252
-0.161303 -2.02235 -2.02235
-0.160064 -1.9866 -1.9866
-0.221038 -2.00462 -2.00462
-0.191568 -2.02241 -2.02241
-0.160684 -2.00444 -2.00444
-0.190132 -1.98666 -1.98666
-0.190851 -2.00451 -2.00451
-0.221853 -2.02252 -2.02252
-0.223475 -2.05849 -2.05849
-0.162534 -2.05834 -2.05834
-0.161303 -2.02235 -2.02235
-0.222666 -2.04048 -2.04048
-0.192994 -2.05839 -2.05839
-0.161919 -2.04032 -2.04032
-0.191568 -2.02241 -2.02241
-0.192282 -2.04037 -2.04037
-0.223475 -2.05849 -2.05849
-0.225086 -2.0947 -2.0947
-0.163759 -2.09456 -2.09456
-0.162534 -2.05834 -2.05834
-0.224282 -2.07657 -2.07657
-0.194412 -2.0946 -2.0946
-0.163147 -2.07642 -2.07642
-0.192994 -2.05839 -2.05839
-0.193704 -2.07647 -2.07647
-0.225086 -2.0947 -2.0947
-0.226686 -2.13113 -2.13113
-0.164976 -2.131 -2.131
-0.163759 -2.09456 -2.09456
-0.225887 -2.11289 -2.11289
-0.195821 -2.13104 -2.13104
-0.164368 -2.11275 -2.11275
-0.194412 -2.0946 -2.0946
-0.195117 -2.11279 -2.11279
-0.226686 -2.13113 -2.13113
-0.228275 -2.16779 -2.16779
-0.166187 -2.16767 -2.16767
-0.164976 -2.131 -2.131
-0.227482 -2.14944 -2.14944
-0.19722 -2.16771 -2.16771
-0.165582 -2.14931 -2.14931
-0.195821 -2.13104 -2.13104
-0.196522 -2.14935 -2.14935
-0.228275 -2.16779 -2.16779
-0.229852 -2.20467 -2.20467
-0.16739 -2.20456 -2.20456
-0.166187 -2.16767 -2.16767
-0.229065 -2.18621 -2.18621
-0.198611 -2.2046 -2.2046
-0.166789 -2.18609 -2.18609
-0.19722 -2.16771 -2.16771
-0.197917 -2.18612 -2.18612
-0.229852 -2.20467 -2.20467
-0.231419 -2.24178 -2.24178
-0.168587 -2.24168 -2.24168
-0.16739 -2.20456 -2.20456
-0.230637 -2.2232 -2.2232
-0.199992 -2.2417 -2.2417
-0.16799 -2.22309 -2.22309
-0.198611 -2.2046 -2.2046
-0.199303 -2.22312 -2.22312
-0.231419 -2.24178 -2.24178
-0.232974 -2.2791 -2.2791
-0.169776 -2.27901 -2.27901
-0.168587 -2.24168 -2.24168
-0.232198 -2.26041 -2.26041
-0.201365 -2.27903 -2.27903
-0.169183 -2.26032 -2.26032
-0.199992 -2.2417 -2.2417
-0.20068 -2.26034 -2.26034
-0.232974 -2.2791 -2.2791
-0.234518 -2.31663 -2.31663
-0.170959 -2.31656 -2.31656
-0.169776 -2.27901 -2.27901
-0.233748 -2.29784 -2.29784
-0.202728 -2.31657 -2.31657
-0.170369 -2.29776 -2.29776
-0.201365 -2.27903 -2.27903
-0.202048 -2.29777 -2.29777
-0.234518 -2.31663 -2.31663
-0.236052 -2.35438 -2.35438
-0.172134 -2.35432 -2.35432
-0.170959 -2.31656 -2.31656
-0.235286 -2.33548 -2.33548
-0.204083 -2.35433 -2.35433
-0.171547 -2.33541 -2.33541
-0.202728 -2.31657 -2.31657
-0.203407 -2.33542 -2.33542
-0.236052 -2.35438 -2.35438
-0.237574 -2.39234 -2.39234
-0.173303 -2.39229 -2.39229
-0.172134 -2.35432 -2.35432
-0.236814 -2.37333 -2.37333
-0.205428 -2.39229 -2.39229
-0.172719 -2.37328 -2.37328
-0.204083 -2.35433 -2.35433
-0.204756 -2.37328 -2.37328
-0.237574 -2.39234 -2.39234
-0.239084 -2.43051 -2.43051
-0.174464 -2.43047 -2.43047
-0.173303 -2.39229 -2.39229
-0.23833 -2.4114 -2.4114
-0.206764 -2.43047 -2.43047
-0.173884 -2.41135 -2.41135
-0.205428 -2.39229 -2.39229
-0.206097 -2.41135 -2.41135
-0.239084 -2.43051 -2.43051
-0.240584 -2.46888 -2.46888
-0.175618 -2.46885 -2.46885
-0.174464 -2.43047 -2.43047
-0.239835 -2.44967 -2.44967
-0.20809 -2.46885 -2.46885
-0.175042 -2.44964 -2.44964
-0.206764 -2.43047 -2.43047
-0.207428 -2.44963 -2.44963
-0.240584 -2.46888 -2.46888
-0.242072 -2.50746 -2.50746
-0.176765 -2.50744 -2.50744
-0.175618 -2.46885 -2.46885
-0.241329 -2.48815 -2.48815
-0.209408 -2.50743 -2.50743
-0.176192 -2.48812 -2.48812
-0.20809 -2.46885 -2.46885
-0.20875 -2.48811 -2.48811
-0.242072 -2.50746 -2.50746
-0.243549 -2.54624 -2.54624
-0.177904 -2.54623 -2.54623
-0.176765 -2.50744 -2.50744
-0.242812 -2.52682 -2.52682
-0.210716 -2.54621 -2.54621
-0.177335 -2.52681 -2.52681
-0.209408 -2.50743 -2.50743
-0.210063 -2.5268 -2.5268
-0.243549 -2.54624 -2.54624
-0.245015 -2.58522 -2.58522
-0.179037 -2.58522 -2.58522
-0.177904 -2.54623 -2.54623
-0.244283 -2.5657 -2.5657
-0.212015 -2.5852 -2.5852
-0.178472 -2.5657 -2.5657
-0.210716 -2.54621 -2.54621
-0.211367 -2.56568 -2.56568
-0.245015 -2.58522 -2.58522
-0.246469 -2.62439 -2.62439
-0.180162 -2.62441 -2.62441
-0.179037 -2.58522 -2.58522
-0.245743 -2.60478 -2.60478
-0.213305 -2.62438 -2.62438
-0.179601 -2.60479 -2.60479
-0.212015 -2.5852 -2.5852
-0.212662 -2.60476 -2.60476
-0.246469 -2.62439 -2.62439
-0.247912 -2.66376 -2.66376
-0.18128 -2.66378 -2.66378
-0.180162 -2.62441 -2.62441
-0.247192 -2.64405 -2.64405
-0.214586 -2.66375 -2.66375
-0.180722 -2.64407 -2.64407
-0.213305 -2.62438 -2.62438
-0.213947 -2.64404 -2.64404
-0.247912 -2.66376 -2.66376
-0.249344 -2.70332 -2.70332
-0.182391 -2.70335 -2.70335
-0.18128 -2.66378 -2.66378
-0.24863 -2.68351 -2.68351
-0.215857 -2.70332 -2.70332
-0.181837 -2.68355 -2.68355
-0.214586 -2.66375 -2.66375
-0.215223 -2.68351 -2.68351
-0.249344 -2.70332 -2.70332
-0.250764 -2.74306 -2.74306
-0.183495 -2.74311 -2.74311
-0.182391 -2.70335 -2.70335
-0.250056 -2.72317 -2.72317
-0.217119 -2.74307 -2.74307
-0.182944 -2.72321 -2.72321
-0.215857 -2.70332 -2.70332
-0.216489 -2.72317 -2.72317
-0.250764 -2.74306 -2.74306
-0.252173 -2.783 -2.783
-0.184591 -2.78306 -2.78306
-0.183495 -2.74311 -2.74311
-0.25147 -2.76301 -2.76301
-0.218372 -2.78301 -2.78301
-0.184044 -2.76306 -2.76306
-0.217119 -2.74307 -2.74307
-0.217747 -2.76302 -2.76302
-0.252173 -2.783 -2.783
-0.253571 -2.82312 -2.82312
-0.18568 -2.82319 -2.82319
-0.184591 -2.78306 -2.78306
-0.252874 -2.80304 -2.80304
-0.219615 -2.82313 -2.82313
-0.185136 -2.8031 -2.8031
-0.218372 -2.78301 -2.78301
-0.218995 -2.80305 -2.80305
-0.253571 -2.82312 -2.82312
-0.254957 -2.86342 -2.86342
-0.186762 -2.8635 -2.8635
-0.18568 -2.82319 -2.82319
-0.254266 -2.84324 -2.84324
-0.220849 -2.86344 -2.86344
-0.186222 -2.84332 -2.84332
-0.219615 -2.82313 -2.82313
-0.220233 -2.84326 -2.84326
-0.254957 -2.86342 -2.86342
-0.256332 -2.9039 -2.9039
-0.187836 -2.90399 -2.90399
-0.186762 -2.8635 -2.8635
-0.255646 -2.88364 -2.88364
-0.222074 -2.90393 -2.90393
-0.1873 -2.88372 -2.88372
-0.220849 -2.86344 -2.86344
-0.221462 -2.88366 -2.88366
-0.256332 -2.9039 -2.9039
-0.257695 -2.94455 -2.94455
-0.188903 -2.94466 -2.94466
-0.187836 -2.90399 -2.90399
-0.257015 -2.9242 -2.9242
-0.223289 -2.94459 -2.94459
-0.18837 -2.9243 -2.9243
-0.222074 -2.90393 -2.90393
-0.222682 -2.92423 -2.92423
-0.257695 -2.94455 -2.94455
-0.259047 -2.98539 -2.98539
-0.189962 -2.9855 -2.9855
-0.188903 -2.94466 -2.94466
-0.258372 -2.96495 -2.96495
-0.224494 -2.98542 -2.98542
-0.189433 -2.96506 -2.96506
-0.223289 -2.94459 -2.94459
-0.223892 -2.96498 -2.96498
-0.259047 -2.98539 -2.98539
-0.260387 -3.02639 -3.02639
-0.191014 -3.02652 -3.02652
-0.189962 -2.9855 -2.9855
-0.259718 -3.00587 -3.00587
-0.22569 -3.02643 -3.02643
-0.190489 -3.00599 -3.00599
-0.224494 -2.98542 -2.98542
-0.225093 -3.00591 -3.00591
-0.260387 -3.02639 -3.02639
-0.261715 -3.06756 -3.06756
-0.192058 -3.0677 -3.0677
-0.191014 -3.02652 -3.02652
-0.261053 -3.04695 -3.04695
-0.226877 -3.06761 -3.06761
-0.191537 -3.04709 -3.04709
-0.22569 -3.02643 -3.02643
-0.226285 -3.047 -3.047
-0.261715 -3.06756 -3.06756
-0.263032 -3.1089 -3.1089
-0.193095 -3.10905 -3.10905
-0.192058 -3.0677 -3.0677
-0.262375 -3.08821 -3.08821
-0.228054 -3.10896 -3.10896
-0.192578 -3.08835 -3.08835
-0.226877 -3.06761 -3.06761
-0.227466 -3.08826 -3.08826
-0.263032 -3.1089 -3.1089
-0.264338 -3.15041 -3.15041
-0.194125 -3.15057 -3.15057
-0.193095 -3.10905 -3.10905
-0.263686 -3.12963 -3.12963
-0.229221 -3.15047 -3.15047
-0.193611 -3.12979 -3.12979
-0.228054 -3.10896 -3.10896
-0.228638 -3.12969 -3.12969
-0.264338 -3.15041 -3.15041
-0.265631 -3.19207 -3.19207
-0.195147 -3.19224 -3.19224
-0.194125 -3.15057 -3.15057
-0.264986 -3.17122 -3.17122
-0.230379 -3.19214 -3.19214
-0.194637 -3.17138 -3.17138
-0.229221 -3.15047 -3.15047
-0.229801 -3.17129 -3.17129
-0.265631 -3.19207 -3.19207
-0.266913 -3.2339 -3.2339
-0.196161 -3.23408 -3.23408
-0.195147 -3.19224 -3.19224
-0.266274 -3.21297 -3.21297
-0.231527 -3.23397 -3.23397
-0.195655 -3.21314 -3.21314
-0.230379 -3.19214 -3.19214
-0.230954 -3.21304 -3.21304
-0.266913 -3.2339 -3.2339
-0.268184 -3.27589 -3.27589
-0.197167 -3.27608 -3.27608
-0.196161 -3.23408 -3.23408
-0.26755 -3.25487 -3.25487
-0.232665 -3.27597 -3.27597
-0.196665 -3.25506 -3.25506
-0.231527 -3.23397 -3.23397
-0.232097 -3.25495 -3.25495
-0.268184 -3.27589 -3.27589
-0.269442 -3.31803 -3.31803
-0.198166 -3.31823 -3.31823
-0.197167 -3.27608 -3.27608
-0.268814 -3.29694 -3.29694
-0.233794 -3.31811 -3.31811
-0.197668 -3.29713 -3.29713
-0.232665 -3.27597 -3.27597
-0.233231 -3.29702 -3.29702
-0.269442 -3.31803 -3.31803
-0.270689 -3.36032 -3.36032
-0.199158 -3.36053 -3.36053
-0.198166 -3.31823 -3.31823
-0.270067 -3.33915 -3.33915
-0.234913 -3.36041 -3.36041
-0.198663 -3.33936 -3.33936
-0.233794 -3.31811 -3.31811
-0.234355 -3.33924 -3.33924
-0.270689 -3.36032 -3.36032
-0.271924 -3.40276 -3.40276
-0.200141 -3.40298 -3.40298
-0.199158 -3.36053 -3.36053
-0.271308 -3.38152 -3.38152
-0.236022 -3.40286 -3.40286
-0.19965 -3.38174 -3.38174
-0.234913 -3.36041 -3.36041
-0.235469 -3.38162 -3.38162
-0.271924 -3.40276 -3.40276
-0.273147 -3.44535 -3.44535
-0.201117 -3.44559 -3.44559
-0.200141 -3.40298 -3.40298
-0.272537 -3.42404 -3.42404
-0.237122 -3.44545 -3.44545
-0.20063 -3.42427 -3.42427
-0.236022 -3.40286 -3.40286
-0.236573 -3.42414 -3.42414
-0.273147 -3.44535 -3.44535
-0.274358 -3.48809 -3.48809
-0.202085 -3.48833 -3.48833
-0.201117 -3.44559 -3.44559
-0.273754 -3.4667 -3.4667
-0.238211 -3.4882 -3.4882
-0.201602 -3.46694 -3.46694
-0.237122 -3.44545 -3.44545
-0.237668 -3.46681 -3.46681
-0.274358 -3.48809 -3.48809
-0.275557 -3.53097 -3.53097
-0.203045 -3.53122 -3.53122
-0.202085 -3.48833 -3.48833
-0.274959 -3.50951 -3.50951
-0.239291 -3.53108 -3.53108
-0.202566 -3.50976 -3.50976
-0.238211 -3.4882 -3.4882
-0.238752 -3.50962 -3.50962
-0.275557 -3.53097 -3.53097
-0.276744 -3.57399 -3.57399
-0.203997 -3.57425 -3.57425
-0.203045 -3.53122 -3.53122
-0.276152 -3.55246 -3.55246
-0.240361 -3.57411 -3.57411
-0.203522 -3.55272 -3.55272
-0.239291 -3.53108 -3.53108
-0.239827 -3.55258 -3.55258
-0.276744 -3.57399 -3.57399
-0.27792 -3.61715 -3.61715
-0.204942 -3.61742 -3.61742
-0.203997 -3.57425 -3.57425
-0.277334 -3.59555 -3.59555
-0.241421 -3.61727 -3.61727
-0.204471 -3.59582 -3.59582
-0.240361 -3.57411 -3.57411
-0.240892 -3.59567 -3.59567
-0.27792 -3.61715 -3.61715
-0.279083 -3.66044 -3.66044
-0.205878 -3.66073 -3.66073
-0.204942 -3.61742 -3.61742
-0.278503 -3.63878 -3.63878
-0.242471 -3.66057 -3.66057
-0.205411 -3.63906 -3.63906
-0.241421 -3.61727 -3.61727
-0.241947 -3.6389 -3.6389
-0.279083 -3.66044 -3.66044
-0.280235 -3.70387 -3.70387
-0.206807 -3.70416 -3.70416
-0.205878 -3.66073 -3.66073
-0.27966 -3.68214 -3.68214
-0.24351 -3.704 -3.704
-0.206344 -3.68243 -3.68243
-0.242471 -3.66057 -3.66057
-0.242992 -3.68227 -3.68227
-0.280235 -3.70387 -3.70387
-0.281374 -3.74743 -3.74743
-0.207728 -3.74773 -3.74773
-0.206807 -3.70416 -3.70416
-0.280806 -3.72563 -3.72563
-0.24454 -3.74757 -3.74757
-0.207268 -3.72593 -3.72593
-0.24351 -3.704 -3.704
-0.244027 -3.72577 -3.72577
-0.281374 -3.74743 -3.74743
-0.282501 -3.79112 -3.79112
-0.20864 -3.79143 -3.79143
-0.207728 -3.74773 -3.74773
-0.281939 -3.76926 -3.76926
-0.24556 -3.79126 -3.79126
-0.208185 -3.76957 -3.76957
-0.24454 -3.74757 -3.74757
-0.245052 -3.7694 -3.7694
-0.282501 -3.79112 -3.79112
-0.283616 -3.83493 -3.83493
-0.209545 -3.83525 -3.83525
-0.20864 -3.79143 -3.79143
-0.28306 -3.81301 -3.81301
-0.24657 -3.83508 -3.83508
-0.209093 -3.81333 -3.81333
-0.24556 -3.79126 -3.79126
-0.246066 -3.81315 -3.81315
-0.283616 -3.83493 -3.83493
-0.284719 -3.87887 -3.87887
-0.210441 -3.8792 -3.8792
-0.209545 -3.83525 -3.83525
-0.284169 -3.85688 -3.85688
-0.24757 -3.87902 -3.87902
-0.209994 -3.85721 -3.85721
-0.24657 -3.83508 -3.83508
-0.247071 -3.85703 -3.85703
-0.284719 -3.87887 -3.87887
-0.285809 -3.92292 -3.92292
-0.211329 -3.92327 -3.92327
-0.210441 -3.8792 -3.8792
-0.285266 -3.90088 -3.90088
-0.248559 -3.92308 -3.92308
-0.210886 -3.90122 -3.90122
-0.24757 -3.87902 -3.87902
-0.248066 -3.90104 -3.90104
-0.285809 -3.92292 -3.92292
-0.286888 -3.9671 -3.9671
-0.21221 -3.96745 -3.96745
-0.211329 -3.92327 -3.92327
-0.28635 -3.945 -3.945
-0.249538 -3.96727 -3.96727
-0.21177 -3.94535 -3.94535
-0.248559 -3.92308 -3.92308
-0.24905 -3.94516 -3.94516
-0.286888 -3.9671 -3.9671
-0.287954 -4.01139 -4.01139
-0.213081 -4.01176 -4.01176
-0.21221 -3.96745 -3.96745
-0.287422 -3.98923 -3.98923
-0.250507 -4.01156 -4.01156
-0.212647 -3.98959 -3.98959
-0.249538 -3.96727 -3.96727
-0.250024 -3.9894 -3.9894
-0.287954 -4.01139 -4.01139
-0.289007 -4.0558 -4.0558
-0.213945 -4.05617 -4.05617
-0.213081 -4.01176 -4.01176
-0.288482 -4.03358 -4.03358
-0.251466 -4.05598 -4.05598
-0.213514 -4.03395 -4.03395
-0.250507 -4.01156 -4.01156
-0.250988 -4.03376 -4.03376
-0.289007 -4.0558 -4.0558
-0.290049 -4.10032 -4.10032
-0.214801 -4.1007 -4.1007
-0.213945 -4.05617 -4.05617
-0.28953 -4.07805 -4.07805
-0.252414 -4.1005 -4.1005
-0.214374 -4.07842 -4.07842
-0.251466 -4.05598 -4.05598
-0.251941 -4.07822 -4.07822
-0.290049 -4.10032 -4.10032
-0.291078 -4.14495 -4.14495
-0.215648 -4.14534 -4.14534
-0.214801 -4.1007 -4.1007
-0.290565 -4.12262 -4.12262
-0.253352 -4.14513 -4.14513
-0.215225 -4.12301 -4.12301
-0.252414 -4.1005 -4.1005
-0.252885 -4.1228 -4.1228
-0.291078 -4.14495 -4.14495
-0.292094 -4.18969 -4.18969
-0.216486 -4.19008 -4.19008
-0.215648 -4.14534 -4.14534
-0.291587 -4.1673 -4.1673
-0.25428 -4.18987 -4.18987
-0.216068 -4.1677 -4.1677
-0.253352 -4.14513 -4.14513
-0.253818 -4.16749 -4.16749
-0.292094 -4.18969 -4.18969
-0.293098 -4.23452 -4.23452
-0.217317 -4.23493 -4.23493
-0.216486 -4.19008 -4.19008
-0.292598 -4.21209 -4.21209
-0.255197 -4.23472 -4.23472
-0.216903 -4.2125 -4.2125
-0.25428 -4.18987 -4.18987
-0.25474 -4.21228 -4.21228
-0.293098 -4.23452 -4.23452
-0.29409 -4.27947 -4.27947
-0.218139 -4.27988 -4.27988
-0.217317 -4.23493 -4.23493
-0.293596 -4.25698 -4.25698
-0.256104 -4.27966 -4.27966
-0.217729 -4.2574 -4.2574
-0.255197 -4.23472 -4.23472
-0.255652 -4.25718 -4.25718
-0.29409 -4.27947 -4.27947
-0.295069 -4.32451 -4.32451
-0.218952 -4.32493 -4.32493
-0.218139 -4.27988 -4.27988
-0.294581 -4.30197 -4.30197
-0.257 -4.32471 -4.32471
-0.218547 -4.3024 -4.3024
-0.256104 -4.27966 -4.27966
-0.256553 -4.30218 -4.30218
-0.295069 -4.32451 -4.32451
-0.296035 -4.36964 -4.36964
-0.219757 -4.37008 -4.37008
-0.218952 -4.32493 -4.32493
-0.295553 -4.34706 -4.34706
-0.257886 -4.36985 -4.36985
-0.219356 -4.3475 -4.3475
-0.257 -4.32471 -4.32471
-0.257444 -4.34727 -4.34727
-0.296035 -4.36964 -4.36964
-0.296989 -4.41488 -4.41488
-0.220554 -4.41532 -4.41532
-0.219757 -4.37008 -4.37008
-0.296514 -4.39225 -4.39225
-0.258761 -4.41509 -4.41509
-0.220156 -4.39269 -4.39269
-0.257886 -4.36985 -4.36985
-0.258325 -4.39246 -4.39246
-0.296989 -4.41488 -4.41488
-0.29793 -4.4602 -4.4602
-0.221341 -4.46066 -4.46066
-0.220554 -4.41532 -4.41532
-0.297461 -4.43753 -4.43753
-0.259625 -4.46042 -4.46042
-0.220949 -4.43798 -4.43798
-0.258761 -4.41509 -4.41509
-0.259195 -4.43774 -4.43774
-0.29793 -4.4602 -4.4602
-0.298858 -4.50562 -4.50562
-0.222121 -4.50608 -4.50608
-0.221341 -4.46066 -4.46066
-0.298396 -4.4829 -4.4829
-0.260479 -4.50584 -4.50584
-0.221732 -4.48336 -4.48336
-0.259625 -4.46042 -4.46042
-0.260054 -4.48312 -4.48312
-0.298858 -4.50562 -4.50562
-0.299774 -4.55112 -4.55112
-0.222891 -4.55159 -4.55159
-0.222121 -4.50608 -4.50608
-0.299318 -4.52836 -4.52836
-0.261322 -4.55135 -4.55135
-0.222507 -4.52883 -4.52883
-0.260479 -4.50584 -4.50584
-0.260902 -4.52858 -4.52858
-0.299774 -4.55112 -4.55112
-0.300677 -4.59671 -4.59671
-0.223653 -4.59719 -4.59719
-0.222891 -4.55159 -4.55159
-0.300227 -4.5739 -4.5739
-0.262155 -4.59694 -4.59694
-0.223273 -4.57438 -4.57438
-0.261322 -4.55135 -4.55135
-0.26174 -4.57413 -4.57413
-0.300677 -4.59671 -4.59671
-0.301567 -4.64238 -4.64238
-0.224406 -4.64287 -4.64287
-0.223653 -4.59719 -4.59719
-0.301123 -4.61953 -4.61953
-0.262976 -4.64261 -4.64261
-0.224031 -4.62002 -4.62002
-0.262155 -4.59694 -4.59694
-0.262567 -4.61976 -4.61976
-0.301567 -4.64238 -4.64238
-0.302444 -4.68813 -4.68813
-0.225151 -4.68862 -4.68862
-0.224406 -4.64287 -4.64287
-0.302007 -4.66524 -4.66524
-0.263787 -4.68837 -4.68837
-0.224779 -4.66573 -4.66573
-0.262976 -4.64261 -4.64261
-0.263383 -4.66548 -4.66548
-0.302444 -4.68813 -4.68813
-0.303308 -4.73395 -4.73395
-0.225886 -4.73446 -4.73446
-0.225151 -4.68862 -4.68862
-0.302877 -4.71103 -4.71103
-0.264587 -4.7342 -4.7342
-0.225519 -4.71153 -4.71153
-0.263787 -4.68837 -4.68837
-0.264188 -4.71127 -4.71127
-0.303308 -4.73395 -4.73395
-0.304159 -4.77986 -4.77986
-0.226613 -4.78037 -4.78037
-0.225886 -4.73446 -4.73446
-0.303735 -4.7569 -4.7569
-0.265376 -4.78011 -4.78011
-0.22625 -4.75741 -4.75741
-0.264587 -4.7342 -4.7342
-0.264983 -4.75714 -4.75714
-0.304159 -4.77986 -4.77986
-0.304997 -4.82583 -4.82583
-0.22733 -4.82636 -4.82636
-0.226613 -4.78037 -4.78037
-0.30458 -4.80283 -4.80283
-0.266154 -4.82609 -4.82609
-0.226973 -4.80335 -4.80335
-0.265376 -4.78011 -4.78011
-0.265766 -4.80309 -4.80309
-0.304997 -4.82583 -4.82583
-0.305823 -4.87188 -4.87188
-0.228039 -4.87241 -4.87241
-0.22733 -4.82636 -4.82636
-0.305412 -4.84885 -4.84885
-0.266921 -4.87214 -4.87214
-0.227686 -4.84937 -4.84937
-0.266154 -4.82609 -4.82609
-0.266539 -4.8491 -4.8491
-0.305823 -4.87188 -4.87188
-0.306635 -4.91799 -4.91799
-0.228739 -4.91853 -4.91853
-0.228039 -4.87241 -4.87241
-0.30623 -4.89493 -4.89493
-0.267677 -4.91826 -4.91826
-0.22839 -4.89546 -4.89546
-0.266921 -4.87214 -4.87214
-0.2673 -4.89519 -4.89519
-0.306635 -4.91799 -4.91799
-0.307434 -4.96417 -4.96417
-0.22943 -4.96472 -4.96472
-0.228739 -4.91853 -4.91853
-0.307036 -4.94107 -4.94107
-0.268421 -4.96444 -4.96444
-0.229085 -4.94162 -4.94162
-0.267677 -4.91826 -4.91826
-0.26805 -4.94134 -4.94134
-0.307434 -4.96417 -4.96417
-0.308219 -5.01041 -5.01041
-0.230111 -5.01097 -5.01097
-0.22943 -4.96472 -4.96472
-0.307828 -4.98729 -4.98729
-0.269155 -5.01069 -5.01069
-0.229772 -4.98784 -4.98784
-0.268421 -4.96444 -4.96444
-0.26879 -4.98756 -4.98756
-0.308219 -5.01041 -5.01041
-0.308992 -5.05672 -5.05672
-0.230784 -5.05728 -5.05728
-0.230111 -5.01097 -5.01097
-0.308607 -5.03356 -5.03356
-0.269878 -5.05699 -5.05699
-0.230449 -5.03412 -5.03412
-0.269155 -5.01069 -5.01069
-0.269518 -5.03383 -5.03383
-0.308992 -5.05672 -5.05672
-0.309751 -5.10308 -5.10308
-0.231447 -5.10365 -5.10365
-0.230784 -5.05728 -5.05728
-0.309373 -5.07989 -5.07989
-0.270589 -5.10336 -5.10336
-0.231117 -5.08046 -5.08046
-0.269878 -5.05699 -5.05699
-0.270235 -5.08017 -5.08017
-0.309751 -5.10308 -5.10308
-0.310497 -5.1495 -5.1495
-0.232101 -5.15008 -5.15008
-0.231447 -5.10365 -5.10365
-0.310126 -5.12628 -5.12628
-0.271289 -5.14978 -5.14978
-0.231776 -5.12686 -5.12686
-0.270589 -5.10336 -5.10336
-0.270941 -5.12657 -5.12657
-0.310497 -5.1495 -5.1495
-0.31123 -5.19597 -5.19597
-0.232746 -5.19656 -5.19656
-0.232101 -5.15008 -5.15008
-0.310865 -5.17273 -5.17273
-0.271978 -5.19626 -5.19626
-0.232425 -5.17331 -5.17331
-0.271289 -5.14978 -5.14978
-0.271635 -5.17302 -5.17302
-0.31123 -5.19597 -5.19597
-0.31195 -5.24249 -5.24249
-0.233382 -5.24309 -5.24309
-0.232746 -5.19656 -5.19656
-0.311592 -5.21923 -5.21923
-0.272656 -5.24279 -5.24279
-0.233065 -5.21982 -5.21982
-0.271978 -5.19626 -5.19626
-0.272318 -5.21952 -5.21952
-0.31195 -5.24249 -5.24249
-0.312655 -5.28906 -5.28906
-0.234008 -5.28967 -5.28967
-0.233382 -5.24309 -5.24309
-0.312304 -5.26577 -5.26577
-0.273322 -5.28936 -5.28936
-0.233696 -5.26637 -5.26637
-0.272656 -5.24279 -5.24279
-0.27299 -5.26607 -5.26607
-0.312655 -5.28906 -5.28906
-0.313348 -5.33568 -5.33568
-0.234625 -5.33629 -5.33629
-0.234008 -5.28967 -5.28967
-0.313003 -5.31237 -5.31237
-0.273976 -5.33598 -5.33598
-0.234318 -5.31298 -5.31298
-0.273322 -5.28936 -5.28936
-0.273651 -5.31267 -5.31267
-0.313348 -5.33568 -5.33568
-0.314027 -5.38234 -5.38234
-0.235233 -5.38296 -5.38296
-0.234625 -5.33629 -5.33629
-0.313689 -5.35901 -5.35901
-0.27462 -5.38265 -5.38265
-0.23493 -5.35962 -5.35962
-0.273976 -5.33598 -5.33598
-0.274299 -5.35931 -5.35931
-0.314027 -5.38234 -5.38234
-0.314692 -5.42905 -5.42905
-0.235831 -5.42967 -5.42967
-0.235233 -5.38296 -5.38296
-0.314361 -5.40569 -5.40569
-0.275251 -5.42936 -5.42936
-0.235533 -5.40631 -5.40631
-0.27462 -5.38265 -5.38265
-0.274937 -5.406 -5.406
-0.314692 -5.42905 -5.42905
-0.315344 -5.47579 -5.47579
-0.236419 -5.47642 -5.47642
-0.235831 -5.42967 -5.42967
-0.31502 -5.45241 -5.45241
-0.275872 -5.4761 -5.4761
-0.236126 -5.45304 -5.45304
-0.275251 -5.42936 -5.42936
-0.275563 -5.45272 -5.45272
-0.315344 -5.47579 -5.47579
-0.315982 -5.52257 -5.52257
-0.236998 -5.52321 -5.52321
-0.236419 -5.47642 -5.47642
-0.315665 -5.49917 -5.49917
-0.27648 -5.52288 -5.52288
-0.23671 -5.49981 -5.49981
-0.275872 -5.4761 -5.4761
-0.276177 -5.49949 -5.49949
-0.315982 -5.52257 -5.52257
-0.316607 -5.56938 -5.56938
-0.237568 -5.57003 -5.57003
-0.236998 -5.52321 -5.52321
-0.316296 -5.54597 -5.54597
-0.277077 -5.5697 -5.5697
-0.237284 -5.54661 -5.54661
-0.27648 -5.52288 -5.52288
-0.27678 -5.54629 -5.54629
-0.316607 -5.56938 -5.56938
-0.317217 -5.61622 -5.61622
-0.238127 -5.61688 -5.61688
-0.237568 -5.57003 -5.57003
-0.316914 -5.5928 -5.5928
-0.277662 -5.61655 -5.61655
-0.237849 -5.59345 -5.59345
-0.277077 -5.5697 -5.5697
-0.277371 -5.59312 -5.59312
-0.317217 -5.61622 -5.61622
-0.317814 -5.6631 -5.6631
-0.238677 -5.66376 -5.66376
-0.238127 -5.61688 -5.61688
-0.317517 -5.63966 -5.63966
-0.278236 -5.66343 -5.66343
-0.238404 -5.64032 -5.64032
-0.277662 -5.61655 -5.61655
-0.27795 -5.63998 -5.63998
-0.317814 -5.6631 -5.6631
-0.318397 -5.71 -5.71
-0.239218 -5.71067 -5.71067
-0.238677 -5.66376 -5.66376
-0.318108 -5.68655 -5.68655
-0.278798 -5.71033 -5.71033
-0.238949 -5.68721 -5.68721
-0.278236 -5.66343 -5.66343
-0.278518 -5.68688 -5.68688
-0.318397 -5.71 -5.71
-0.318967 -5.75692 -5.75692
-0.239748 -5.7576 -5.7576
-0.239218 -5.71067 -5.71067
-0.318684 -5.73346 -5.73346
-0.279348 -5.75726 -5.75726
-0.239484 -5.73413 -5.73413
-0.278798 -5.71033 -5.71033
-0.279074 -5.73379 -5.73379
-0.318967 -5.75692 -5.75692
-0.319522 -5.80387 -5.80387
-0.240269 -5.80455 -5.80455
-0.239748 -5.7576 -5.7576
-0.319246 -5.78039 -5.78039
-0.279886 -5.80421 -5.80421
-0.24001 -5.78107 -5.78107
-0.279348 -5.75726 -5.75726
-0.279618 -5.78073 -5.78073
-0.319522 -5.80387 -5.80387
-0.320065 -5.85084 -5.85084
-0.24078 -5.85153 -5.85153
-0.240269 -5.80455 -5.80455
-0.319795 -5.82735 -5.82735
-0.280413 -5.85118 -5.85118
-0.240526 -5.82804 -5.82804
-0.279886 -5.80421 -5.80421
-0.280151 -5.82769 -5.82769
-0.320065 -5.85084 -5.85084
-0.320594 -5.89782 -5.89782
-0.24128 -5.89852 -5.89852
-0.24078 -5.85153 -5.85153
-0.320331 -5.87433 -5.87433
-0.280928 -5.89817 -5.89817
-0.241031 -5.87502 -5.87502
-0.280413 -5.85118 -5.85118
-0.280672 -5.87467 -5.87467
-0.320594 -5.89782 -5.89782
-0.321111 -5.94482 -5.94482
-0.241771 -5.94552 -5.94552
-0.24128 -5.89852 -5.89852
-0.320854 -5.92132 -5.92132
-0.281432 -5.94517 -5.94517
-0.241527 -5.92202 -5.92202
-0.280928 -5.89817 -5.89817
-0.281181 -5.92167 -5.92167
-0.321111 -5.94482 -5.94482
-0.321617 -5.99183 -5.99183
-0.24225 -5.99254 -5.99254
-0.241771 -5.94552 -5.94552
-0.321365 -5.96832 -5.96832
-0.281926 -5.99218 -5.99218
-0.242012 -5.96903 -5.96903
-0.281432 -5.94517 -5.94517
-0.28168 -5.96867 -5.96867
-0.321617 -5.99183 -5.99183
-0.322117 -6.03886 -6.03886
-0.242717 -6.03957 -6.03957
-0.24225 -5.99254 -5.99254
-0.321868 -6.01534 -6.01534
-0.282409 -6.03921 -6.03921
-0.242485 -6.01606 -6.01606
-0.281926 -5.99218 -5.99218
-0.282169 -6.0157 -6.0157
-0.322117 -6.03886 -6.03886
-0.322615 -6.0859 -6.0859
-0.243172 -6.08662 -6.08662
-0.242717 -6.03957 -6.03957
-0.322365 -6.06238 -6.06238
-0.282882 -6.08626 -6.08626
-0.242946 -6.0631 -6.0631
-0.282409 -6.03921 -6.03921
-0.282647 -6.06273 -6.06273
-0.322615 -6.0859 -6.0859
-0.323126 -6.13299 -6.13299
-0.243614 -6.1337 -6.1337
-0.243172 -6.08662 -6.08662
-0.322867 -6.10944 -6.10944
-0.283339 -6.13335 -6.13335
-0.243394 -6.11016 -6.11016
-0.282882 -6.08626 -6.08626
-0.283113 -6.1098 -6.1098
-0.323126 -6.13299 -6.13299
-0.323648 -6.18027 -6.18027
-0.244065 -6.1808 -6.1808
-0.243614 -6.1337 -6.1337
-0.32339 -6.15658 -6.15658
-0.283786 -6.18053 -6.18053
-0.243836 -6.15726 -6.15726
-0.283339 -6.13335 -6.13335
-0.28356 -6.15693 -6.15693
0 0 0
-0.00183442 -0.000518904 -0.000518904
-0.00106712 -0.000109152 -0.000109152
0 0 0
-0.000890156 -0.000185982 -0.000185982
-0.00143656 -0.000264291 -0.000264291
-0.000517359 3.26897e-05 3.26897e-05
0 0 0
-0.000707345 -5.59494e-05 -5.59494e-05
-0.00183442 -0.000518904 -0.000518904
-0.00382068 -0.00149825 -0.00149825
-0.00221576 -0.000827582 -0.000827582
-0.00106712 -0.000109152 -0.000109152
-0.0028181 -0.000961279 -0.000961279
-0.00299109 -0.00110521 -0.00110521
-0.00163427 -0.000399413 -0.000399413
-0.00143656 -0.000264291 -0.000264291
-0.00220138 -0.00062048 -0.00062048
-0.00382068 -0.00149825 -0.00149825
-0.00582485 -0.00284386 -0.00284386
-0.00341229 -0.00207073 -0.00207073
-0.00221576 -0.000827582 -0.000827582
-0.00482396 -0.0021237 -0.0021237
-0.0045949 -0.00240316 -0.00240316
-0.00281037 -0.00138699 -0.00138699
-0.00299109 -0.00110521 -0.00110521
-0.00379097 -0.00169984 -0.00169984
-0.00582485 -0.00284386 -0.00284386
-0.007819 -0.00459645 -0.00459645
-0.00461874 -0.00379212 -0.00379212
-0.00341229 -0.00207073 -0.00207073
-0.00682365 -0.0036669 -0.0036669
-0.00620169 -0.00414397 -0.00414397
-0.00401562 -0.00287295 -0.00287295
-0.0045949 -0.00240316 -0.00240316
-0.00539923 -0.00321774 -0.00321774
-0.007819 -0.00459645 -0.00459645
-0.0097963 -0.00678506 -0.00678506
-0.00582126 -0.00597913 -0.00597913
-0.00461874 -0.00379212 -0.00379212
-0.00880964 -0.00563501 -0.00563501
-0.00779612 -0.00633296 -0.00633296
-0.00522101 -0.00482777 -0.00482777
-0.00620169 -0.00414397 -0.00414397
-0.00700069 -0.00518196 -0.00518196
-0.0097963 -0.00678506 -0.00678506
-0.0117607 -0.00942646 -0.00942646
-0.00701287 -0.00862688 -0.00862688
-0.00582126 -0.00597913 -0.00597913
-0.01078 -0.00804868 -0.00804868
-0.00937696 -0.00897807 -0.00897807
-0.00641849 -0.00724551 -0.00724551
-0.00779612 -0.00633296 -0.00633296
-0.00858817 -0.00759825 -0.00759825
-0.0117607 -0.00942646 -0.00942646
-0.0137131 -0.0125254 -0.0125254
-0.00819417 -0.0117346 -0.0117346
-0.00701287 -0.00862688 -0.00862688
-0.0127383 -0.0109186 -0.0109186
-0.0109453 -0.0120814 -0.0120814
-0.00760475 -0.0101233 -0.0101233
-0.00937696 -0.00897807 -0.00897807
-0.0101626 -0.0104724 -0.0104724
-0.0137131 -0.0125254 -0.0125254
-0.015655 -0.0160832 -0.0160832
-0.00936595 -0.0153005 -0.0153005
-0.00819417 -0.0117346 -0.0117346
-0.0146853 -0.014247 -0.014247
-0.012503 -0.0156434 -0.0156434
-0.00878116 -0.0134604 -0.0134604
-0.0109453 -0.0120814 -0.0120814
-0.0117254 -0.0138051 -0.0138051
-0.015655 -0.0160832 -0.0160832
-0.0175868 -0.0200984 -0.0200984
-0.0105298 -0.0193233 -0.0193233
-0.00936595 -0.0153005 -0.0153005
-0.0166222 -0.0180337 -0.0180337
-0.0140512 -0.0196624 -0.0196624
-0.00994879 -0.0172549 -0.0172549
-0.012503 -0.0156434 -0.0156434
-0.0132782 -0.0175959 -0.0175959
-0.0175868 -0.0200984 -0.0200984
-0.019509 -0.0245689 -0.0245689
-0.0116867 -0.0238007 -0.0238007
-0.0105298 -0.0193233 -0.0193233
-0.0185491 -0.0222769 -0.0222769
-0.0155909 -0.0241365 -0.0241365
-0.0111091 -0.0215053 -0.0215053
-0.0140512 -0.0196624 -0.0196624
-0.0148221 -0.0218427 -0.0218427
-0.019509 -0.0245689 -0.0245689
-0.0214217 -0.0294925 -0.0294925
-0.0128374 -0.0287306 -0.0287306
-0.0116867 -0.0238007 -0.0238007
-0.0204665 -0.0269742 -0.0269742
-0.0171227 -0.0290634 -0.0290634
-0.0122628 -0.0262092 -0.0262092
-0.0155909 -0.0241365 -0.0241365
-0.0163578 -0.0265435 -0.0265435
-0.0214217 -0.0294925 -0.0294925
-0.0233251 -0.0348664 -0.0348664
-0.0139824 -0.0341108 -0.0341108
-0.0128374 -0.0287306 -0.0287306
-0.0223745 -0.0321233 -0.0321233
-0.0186469 -0.0344407 -0.0344407
-0.0134106 -0.0313646 -0.0313646
-0.0171227 -0.0290634 -0.0290634
-0.0178858 -0.0316959 -0.0316959
-0.0233251 -0.0348664 -0.0348664
-0.0252191 -0.0406883 -0.0406883
-0.0151221 -0.0399387 -0.0399387
-0.0139824 -0.0341108 -0.0341108
-0.0242733 -0.0377215 -0.0377215
-0.0201638 -0.0402658 -0.0402658
-0.0145529 -0.0369689 -0.0369689
-0.0186469 -0.0344407 -0.0344407
-0.0194063 -0.0372974 -0.0372974
-0.0252191 -0.0406883 -0.0406883
-0.027104 -0.0469556 -0.0469556
-0.0162565 -0.0462121 -0.0462121
-0.0151221 -0.0399387 -0.0399387
-0.0261627 -0.0437664 -0.0437664
-0.0216734 -0.0465364 -0.0465364
-0.0156899 -0.0430199 -0.0430199
-0.0201638 -0.0402658 -0.0402658
-0.0209195 -0.0433456 -0.0433456
-0.027104 -0.0469556 -0.0469556
-0.0289798 -0.0536658 -0.0536658
-0.0173859 -0.0529285 -0.0529285
-0.0162565 -0.0462121 -0.0462121
-0.0280431 -0.0502555 -0.0502555
-0.023176 -0.05325 -0.05325
-0.0168218 -0.0495151 -0.0495151
-0.0216734 -0.0465364 -0.0465364
-0.0224256 -0.049838 -0.049838
-0.0289798 -0.0536658 -0.0536658
-0.0308466 -0.0608166 -0.0608166
-0.0185103 -0.0600855 -0.0600855
-0.0173859 -0.0529285 -0.0529285
-0.0299143 -0.0571863 -0.0571863
-0.0246716 -0.0604041 -0.0604041
-0.0179487 -0.0564521 -0.0564521
-0.023176 -0.05325 -0.05325
-0.0239247 -0.0567722 -0.0567722
-0.0308466 -0.0608166 -0.0608166
-0.0327044 -0.0684055 -0.0684055
-0.0196298 -0.0676807 -0.0676807
-0.0185103 -0.0600855 -0.0600855
-0.0317766 -0.0645564 -0.0645564
-0.0261602 -0.0679964 -0.0679964
-0.0190706 -0.0638285 -0.0638285
-0.0246716 -0.0604041 -0.0604041
-0.0254168 -0.0641457 -0.0641457
-0.0327044 -0.0684055 -0.0684055
-0.0345533 -0.07643 -0.07643
-0.0207445 -0.0757116 -0.0757116
-0.0196298 -0.0676807 -0.0676807
-0.0336299 -0.0723634 -0.0723634
-0.027642 -0.0760244 -0.0760244
-0.0201877 -0.0716418 -0.0716418
-0.0261602 -0.0679964 -0.0679964
-0.026902 -0.0719561 -0.0719561
-0.0345533 -0.07643 -0.07643
-0.0363933 -0.0848878 -0.0848878
-0.0218544 -0.0841759 -0.0841759
-0.0207445 -0.0757116 -0.0757116
-0.0354744 -0.0806049 -0.0806049
-0.029117 -0.0844857 -0.0844857
-0.0213 -0.0798898 -0.0798898
-0.027642 -0.0760244 -0.0760244
-0.0283804 -0.0802011 -0.0802011
-0.0363933 -0.0848878 -0.0848878
-0.0382246 -0.0937763 -0.0937763
-0.0229597 -0.0930712 -0.0930712
-0.0218544 -0.0841759 -0.0841759
-0.0373101 -0.0892783 -0.0892783
-0.0305853 -0.0933779 -0.0933779
-0.0224077 -0.0885698 -0.0885698
-0.029117 -0.0844857 -0.0844857
-0.029852 -0.0888781 -0.0888781
-0.0382246 -0.0937763 -0.0937763
-0.0400472 -0.103093 -0.103093
-0.0240604 -0.102395 -0.102395
-0.0229597 -0.0930712 -0.0930712
-0.039137 -0.0983814 -0.0983814
-0.0320469 -0.102698 -0.102698
-0.0235106 -0.0976796 -0.0976796
-0.0305853 -0.0933779 -0.0933779
-0.0313169 -0.0979848 -0.0979848
-0.0400472 -0.103093 -0.103093
-0.0418612 -0.112836 -0.112836
-0.0251565 -0.112145 -0.112145
-0.0240604 -0.102395 -0.102395
-0.0409553 -0.107912 -0.107912
-0.033502 -0.112445 -0.112445
-0.024609 -0.107217 -0.107217
-0.0320469 -0.102698 -0.102698
-0.0327753 -0.107519 -0.107519
-0.0418612 -0.112836 -0.112836
-0.0436665 -0.123003 -0.123003
-0.0262482 -0.122318 -0.122318
-0.0251565 -0.112145 -0.112145
-0.0427649 -0.117867 -0.117867
-0.0349505 -0.122615 -0.122615
-0.0257029 -0.117179 -0.117179
-0.033502 -0.112445 -0.112445
-0.034227 -0.117477 -0.117477
-0.0436665 -0.123003 -0.123003
-0.0454634 -0.13359 -0.13359
-0.0273354 -0.132913 -0.132913
-0.0262482 -0.122318 -0.122318
-0.044566 -0.128244 -0.128244
-0.0363925 -0.133207 -0.133207
-0.0267923 -0.127563 -0.127563
-0.0349505 -0.122615 -0.122615
-0.0356723 -0.127859 -0.127859
-0.0454634 -0.13359 -0.13359
-0.0472517 -0.144597 -0.144597
-0.0284183 -0.143927 -0.143927
-0.0273354 -0.132913 -0.132913
-0.0463586 -0.139041 -0.139041
-0.0378281 -0.144217 -0.144217
-0.0278774 -0.138368 -0.138368
-0.0363925 -0.133207 -0.133207
-0.0371111 -0.13866 -0.13866
-0.0472517 -0.144597 -0.144597
-0.0490317 -0.15602 -0.15602
-0.0294968 -0.155357 -0.155357
-0.0284183 -0.143927 -0.143927
-0.0481428 -0.150256 -0.150256
-0.0392574 -0.155644 -0.155644
-0.0289581 -0.14959 -0.14959
-0.0378281 -0.144217 -0.144217
-0.0385435 -0.149879 -0.149879
-0.0490317 -0.15602 -0.15602
-0.0508034 -0.167856 -0.167856
-0.0305711 -0.167201 -0.167201
-0.0294968 -0.155357 -0.155357
-0.0499186 -0.161886 -0.161886
-0.0406803 -0.167484 -0.167484
-0.0300345 -0.161227 -0.161227
-0.0392574 -0.155644 -0.155644
-0.0399696 -0.161512 -0.161512
-0.0508034 -0.167856 -0.167856
-0.0525667 -0.180104 -0.180104
-0.0316412 -0.179456 -0.179456
-0.0305711 -0.167201 -0.167201
-0.0516861 -0.173929 -0.173929
-0.042097 -0.179736 -0.179736
-0.0311067 -0.173277 -0.173277
-0.0406803 -0.167484 -0.167484
-0.0413895 -0.173559 -0.173559
-0.0525667 -0.180104 -0.180104
-0.0543219 -0.192761 -0.192761
-0.0327072 -0.192121 -0.192121
-0.0316412 -0.179456 -0.179456
-0.0534453 -0.186382 -0.186382
-0.0435076 -0.192398 -0.192398
-0.0321747 -0.185737 -0.185737
-0.042097 -0.179736 -0.179736
-0.0428031 -0.186016 -0.186016
-0.0543219 -0.192761 -0.192761
-0.0560688 -0.205825 -0.205825
-0.033769 -0.205192 -0.205192
-0.0327072 -0.192121 -0.192121
-0.0551963 -0.199243 -0.199243
-0.044912 -0.205465 -0.205465
-0.0332386 -0.198606 -0.198606
-0.0435076 -0.192398 -0.192398
-0.0442105 -0.198881 -0.198881
-0.0560688 -0.205825 -0.205825
-0.0578076 -0.219293 -0.219293
-0.0348269 -0.218668 -0.218668
-0.033769 -0.205192 -0.205192
-0.0569392 -0.212509 -0.212509
-0.0463103 -0.218938 -0.218938
-0.0342984 -0.21188 -0.21188
-0.044912 -0.205465 -0.205465
-0.0456119 -0.212151 -0.212151
-0.0578076 -0.219293 -0.219293
-0.0595383 -0.233163 -0.233163
-0.0358807 -0.232546 -0.232546
-0.0348269 -0.218668 -0.218668
-0.058674 -0.226178 -0.226178
-0.0477026 -0.232812 -0.232812
-0.0353543 -0.225557 -0.225557
-0.0463103 -0.218938 -0.218938
-0.0470072 -0.225825 -0.225825
-0.0595383 -0.233163 -0.233163
-0.0612611 -0.247432 -0.247432
-0.0369306 -0.246823 -0.246823
-0.0358807 -0.232546 -0.232546
-0.0604007 -0.240248 -0.240248
-0.0490889 -0.247085 -0.247085
-0.0364062 -0.239634 -0.239634
-0.0477026 -0.232812 -0.232812
-0.0483965 -0.239899 -0.239899
-0.0612611 -0.247432 -0.247432
-0.0629758 -0.262099 -0.262099
-0.0379767 -0.261497 -0.261497
-0.0369306 -0.246823 -0.246823
-0.0621194 -0.254716 -0.254716
-0.0504693 -0.261756 -0.261756
-0.0374541 -0.25411 -0.25411
-0.0490889 -0.247085 -0.247085
-0.0497798 -0.254371 -0.254371
-0.0629758 -0.262099 -0.262099
-0.0646826 -0.277159 -0.277159
-0.0390189 -0.276566 -0.276566
-0.0379767 -0.261497 -0.261497
-0.0638302 -0.26958 -0.26958
-0.0518438 -0.276821 -0.276821
-0.0384983 -0.268982 -0.268982
-0.0504693 -0.261756 -0.261756
-0.0511573 -0.269239 -0.269239
-0.0646826 -0.277159 -0.277159
-0.0663815 -0.292612 -0.292612
-0.0400573 -0.292027 -0.292027
-0.0390189 -0.276566 -0.276566
-0.0655331 -0.284837 -0.284837
-0.0532124 -0.292278 -0.292278
-0.0395386 -0.284247 -0.284247
-0.0518438 -0.276821 -0.276821
-0.0525288 -0.2845 -0.2845
-0.0663815 -0.292612 -0.292612
-0.0680726 -0.308455 -0.308455
-0.041092 -0.307878 -0.307878
-0.0400573 -0.292027 -0.292027
-0.0672281 -0.300485 -0.300485
-0.0545753 -0.308125 -0.308125
-0.0405751 -0.299904 -0.299904
-0.0532124 -0.292278 -0.292278
-0.0538946 -0.300153 -0.300153
-0.0680726 -0.308455 -0.308455
-0.0697559 -0.324685 -0.324685
-0.0421229 -0.324116 -0.324116
-0.041092 -0.307878 -0.307878
-0.0689152 -0.316521 -0.316521
-0.0559324 -0.324359 -0.324359
-0.0416079 -0.315949 -0.315949
-0.0545753 -0.308125 -0.308125
-0.0552546 -0.316194 -0.316194
-0.0697559 -0.324685 -0.324685
-0.0714315 -0.3413 -0.3413
-0.0431502 -0.340739 -0.340739
-0.0421229 -0.324116 -0.324116
-0.0705947 -0.332944 -0.332944
-0.0572839 -0.340978 -0.340978
-0.042637 -0.33238 -0.33238
-0.0559324 -0.324359 -0.324359
-0.0566089 -0.332621 -0.332621
-0.0714315 -0.3413 -0.3413
-0.0730993 -0.358297 -0.358297
-0.0441739 -0.357745 -0.357745
-0.0431502 -0.340739 -0.340739
-0.0722664 -0.349751 -0.349751
-0.0586296 -0.35798 -0.35798
-0.0436625 -0.349194 -0.349194
-0.0572839 -0.340978 -0.340978
-0.0579575 -0.349432 -0.349432
-0.0730993 -0.358297 -0.358297
-0.0747595 -0.375674 -0.375674
-0.0451941 -0.375131 -0.375131
-0.0441739 -0.357745 -0.357745
-0.0739304 -0.366938 -0.366938
-0.0599698 -0.375362 -0.375362
-0.0446844 -0.36639 -0.36639
-0.0586296 -0.35798 -0.35798
-0.0593004 -0.366624 -0.366624
-0.0747595 -0.375674 -0.375674
-0.0764121 -0.393429 -0.393429
-0.0462107 -0.392894 -0.392894
-0.0451941 -0.375131 -0.375131
-0.0755867 -0.384505 -0.384505
-0.0613044 -0.393121 -0.393121
-0.0457028 -0.383965 -0.383965
-0.0599698 -0.375362 -0.375362
-0.0606378 -0.384195 -0.384195
-0.0764121 -0.393429 -0.393429
-0.078057 -0.411559 -0.411559
-0.0472238 -0.411033 -0.411033
-0.0462107 -0.392894 -0.392894
-0.0772355 -0.402447 -0.402447
-0.0626334 -0.411256 -0.411256
-0.0467176 -0.401917 -0.401917
-0.0613044 -0.393121 -0.393121
-0.0619696 -0.402142 -0.402142
-0.078057 -0.411559 -0.411559
-0.0796945 -0.430062 -0.430062
-0.0482334 -0.429545 -0.429545
-0.0472238 -0.411033 -0.411033
-0.0788767 -0.420764 -0.420764
-0.0639569 -0.429764 -0.429764
-0.047729 -0.420242 -0.420242
-0.0626334 -0.411256 -0.411256
-0.0632958 -0.420464 -0.420464
-0.0796945 -0.430062 -0.430062
-0.0813244 -0.448936 -0.448936
-0.0492396 -0.448427 -0.448427
-0.0482334 -0.429545 -0.429545
-0.0805103 -0.439453 -0.439453
-0.065275 -0.448642 -0.448642
-0.0487369 -0.43894 -0.43894
-0.0639569 -0.429764 -0.429764
-0.0646166 -0.439157 -0.439157
-0.0813244 -0.448936 -0.448936
-0.0829468 -0.468177 -0.468177
-0.0502425 -0.467677 -0.467677
-0.0492396 -0.448427 -0.448427
-0.0821365 -0.45851 -0.45851
-0.0665876 -0.467888 -0.467888
-0.0497415 -0.458006 -0.458006
-0.065275 -0.448642 -0.448642
-0.065932 -0.458219 -0.458219
-0.0829468 -0.468177 -0.468177
-0.0845618 -0.487784 -0.487784
-0.051242 -0.487293 -0.487293
-0.0502425 -0.467677 -0.467677
-0.0837552 -0.477935 -0.477935
-0.0678949 -0.487499 -0.487499
-0.0507426 -0.477439 -0.477439
-0.0665876 -0.467888 -0.467888
-0.0672419 -0.477648 -0.477648
-0.0845618 -0.487784 -0.487784
-0.0861694 -0.507754 -0.507754
-0.0522381 -0.507272 -0.507272
-0.051242 -0.487293 -0.487293
-0.0853665 -0.497724 -0.497724
-0.0691968 -0.507474 -0.507474
-0.0517405 -0.497237 -0.497237
-0.0678949 -0.487499 -0.487499
-0.0685465 -0.497441 -0.497441
-0.0861694 -0.507754 -0.507754
-0.0877696 -0.528084 -0.528084
-0.053231 -0.527611 -0.527611
-0.0522381 -0.507272 -0.507272
-0.0869704 -0.517874 -0.517874
-0.0704933 -0.527809 -0.527809
-0.052735 -0.517396 -0.517396
-0.0691968 -0.507474 -0.507474
-0.0698457 -0.517597 -0.517597
-0.0877696 -0.528084 -0.528084
-0.0893625 -0.548773 -0.548773
-0.0542207 -0.548309 -0.548309
-0.053231 -0.527611 -0.527611
-0.088567 -0.538384 -0.538384
-0.0717846 -0.548503 -0.548503
-0.0537263 -0.537916 -0.537916
-0.0704933 -0.527809 -0.527809
-0.0711396 -0.538112 -0.538112
-0.0893625 -0.548773 -0.548773
-0.090948 -0.569818 -0.569818
-0.0552071 -0.569363 -0.569363
-0.0542207 -0.548309 -0.548309
-0.0901562 -0.559252 -0.559252
-0.0730706 -0.569553 -0.569553
-0.0547143 -0.558792 -0.558792
-0.0717846 -0.548503 -0.548503
-0.0724282 -0.558984 -0.558984
-0.090948 -0.569818 -0.569818
-0.0925263 -0.591217 -0.591217
-0.0561904 -0.590771 -0.590771
-0.0552071 -0.569363 -0.569363
-0.0917381 -0.580473 -0.580473
-0.0743513 -0.590956 -0.590956
-0.0556991 -0.580023 -0.580023
-0.0730706 -0.569553 -0.569553
-0.0737116 -0.58021 -0.58021
-0.0925263 -0.591217 -0.591217
-0.0940974 -0.612966 -0.612966
-0.0571704 -0.612529 -0.612529
-0.0561904 -0.590771 -0.590771
-0.0933127 -0.602048 -0.602048
-0.0756269 -0.61271 -0.61271
-0.0566808 -0.601606 -0.601606
-0.0743513 -0.590956 -0.590956
-0.0749897 -0.601789 -0.601789
-0.0940974 -0.612966 -0.612966
-0.0956612 -0.635064 -0.635064
-0.0581474 -0.634636 -0.634636
-0.0571704 -0.612529 -0.612529
-0.0948802 -0.623971 -0.623971
-0.0768972 -0.634813 -0.634813
-0.0576593 -0.623539 -0.623539
-0.0756269 -0.61271 -0.61271
-0.0762627 -0.623718 -0.623718
-0.0956612 -0.635064 -0.635064
-0.0972178 -0.657508 -0.657508
-0.0591212 -0.65709 -0.65709
-0.0581474 -0.634636 -0.634636
-0.0964404 -0.646243 -0.646243
-0.0781625 -0.657262 -0.657262
-0.0586347 -0.64582 -0.64582
-0.0768972 -0.634813 -0.634813
-0.0775305 -0.645994 -0.645994
-0.0972178 -0.657508 -0.657508
-0.0987672 -0.680296 -0.680296
-0.060092 -0.679887 -0.679887
-0.0591212 -0.65709 -0.65709
-0.0979934 -0.668859 -0.668859
-0.0794225 -0.680055 -0.680055
-0.059607 -0.668446 -0.668446
-0.0781625 -0.657262 -0.657262
-0.0787931 -0.668616 -0.668616
-0.0987672 -0.680296 -0.680296
-0.100309 -0.703425 -0.703425
-0.0610597 -0.703026 -0.703026
-0.060092 -0.679887 -0.679887
-0.0995392 -0.691818 -0.691818
-0.0806775 -0.703189 -0.703189
-0.0605762 -0.691414 -0.691414
-0.0794225 -0.680055 -0.680055
-0.0800507 -0.69158 -0.69158
-0.100309 -0.703425 -0.703425
-0.101845 -0.726893 -0.726893
-0.0620243 -0.726503 -0.726503
-0.0610597 -0.703026 -0.703026
-0.101078 -0.715117 -0.715117
-0.0819274 -0.726662 -0.726662
-0.0615424 -0.714722 -0.714722
-0.0806775 -0.703189 -0.703189
-0.0813031 -0.714884 -0.714884
-0.101845 -0.726893 -0.726893
-0.103373 -0.750698 -0.750698
-0.062986 -0.750317 -0.750317
-0.0620243 -0.726503 -0.726503
-0.10261 -0.738754 -0.738754
-0.0831723 -0.750472 -0.750472
-0.0625056 -0.738368 -0.738368
-0.0819274 -0.726662 -0.726662
-0.0825505 -0.738525 -0.738525
-0.103373 -0.750698 -0.750698
-0.104894 -0.774837 -0.774837
-0.0639447 -0.774466 -0.774466
-0.062986 -0.750317 -0.750317
-0.104134 -0.762726 -0.762726
-0.0844121 -0.774616 -0.774616
-0.0634657 -0.76235 -0.76235
-0.0831723 -0.750472 -0.750472
-0.0837928 -0.762502 -0.762502
-0.104894 -0.774837 -0.774837
-0.106408 -0.799308 -0.799308
-0.0649004 -0.798946 -0.798946
-0.0639447 -0.774466 -0.774466
-0.105651 -0.787031 -0.787031
-0.0856469 -0.799092 -0.799092
-0.0644229 -0.786665 -0.786665
-0.0844121 -0.774616 -0.774616
-0.0850301 -0.786812 -0.786812
-0.106408 -0.799308 -0.799308
-0.107914 -0.824107 -0.824107
-0.0658531 -0.823755 -0.823755
-0.0649004 -0.798946 -0.798946
-0.107162 -0.811667 -0.811667
-0.0868767 -0.823896 -0.823896
-0.0653771 -0.81131 -0.81131
-0.0856469 -0.799092 -0.799092
-0.0862624 -0.811453 -0.811453
-0.107914 -0.824107 -0.824107
-0.109414 -0.849234 -0.849234
-0.0668029 -0.848891 -0.848891
-0.0658531 -0.823755 -0.823755
-0.108665 -0.83663 -0.83663
-0.0881016 -0.849028 -0.849028
-0.0663284 -0.836283 -0.836283
-0.0868767 -0.823896 -0.823896
-0.0874898 -0.836422 -0.836422
-0.109414 -0.849234 -0.849234
-0.110907 -0.874685 -0.874685
-0.0677499 -0.874352 -0.874352
-0.0668029 -0.848891 -0.848891
-0.110162 -0.861919 -0.861919
-0.0893214 -0.874484 -0.874484
-0.0672768 -0.861581 -0.861581
-0.0881016 -0.849028 -0.849028
-0.0887121 -0.861716 -0.861716
-0.110907 -0.874685 -0.874685
-0.112393 -0.900458 -0.900458
-0.0686939 -0.900135 -0.900135
-0.0677499 -0.874352 -0.874352
-0.111651 -0.887532 -0.887532
-0.0905364 -0.900263 -0.900263
-0.0682222 -0.887203 -0.887203
-0.0893214 -0.874484 -0.874484
-0.0899295 -0.887333 -0.887333
-0.112393 -0.900458 -0.900458
-0.113872 -0.926551 -0.926551
-0.069635 -0.926237 -0.926237
-0.0686939 -0.900135 -0.900135
-0.113133 -0.913465 -0.913465
-0.0917464 -0.92636 -0.92636
-0.0691648 -0.913146 -0.913146
-0.0905364 -0.900263 -0.900263
-0.091142 -0.913272 -0.913272
-0.113872 -0.926551 -0.926551
-0.115344 -0.952961 -0.952961
-0.0705733 -0.952657 -0.952657
-0.069635 -0.926237 -0.926237
-0.114609 -0.939717 -0.939717
-0.0929515 -0.952775 -0.952775
-0.0701045 -0.939408 -0.939408
-0.0917464 -0.92636 -0.92636
-0.0923496 -0.939528 -0.939528
-0.115344 -0.952961 -0.952961
-0.116809 -0.979686 -0.979686
-0.0715087 -0.979391 -0.979391
-0.0705733 -0.952657 -0.952657
-0.116077 -0.966284 -0.966284
-0.0941517 -0.979505 -0.979505
-0.0710413 -0.965985 -0.965985
-0.0929515 -0.952775 -0.952775
-0.0935522 -0.966101 -0.966101
-0.116809 -0.979686 -0.979686
-0.118267 -1.00672 -1.00672
-0.0724413 -1.00644 -1.00644
-0.0715087 -0.979391 -0.979391
-0.117539 -0.993165 -0.993165
-0.095347 -1.00655 -1.00655
-0.0719754 -0.992876 -0.992876
-0.0941517 -0.979505 -0.979505
-0.09475 -0.992987 -0.992987
-0.118267 -1.00672 -1.00672
-0.119718 -1.03407 -1.03407
-0.0733711 -1.03379 -1.03379
-0.0724413 -1.00644 -1.00644
-0.118993 -1.02036 -1.02036
-0.0965375 -1.0339 -1.0339
-0.0729065 -1.02008 -1.02008
-0.095347 -1.00655 -1.00655
-0.0959429 -1.02018 -1.02018
-0.119718 -1.03407 -1.03407
-0.121162 -1.06172 -1.06172
-0.074298 -1.06146 -1.06146
-0.0733711 -1.03379 -1.03379
-0.120441 -1.04786 -1.04786
-0.0977231 -1.06156 -1.06156
-0.0738349 -1.04759 -1.04759
-0.0965375 -1.0339 -1.0339
-0.0971309 -1.04769 -1.04769
-0.121162 -1.06172 -1.06172
-0.1226 -1.08968 -1.08968
-0.0752222 -1.08943 -1.08943
-0.074298 -1.06146 -1.06146
-0.121882 -1.07567 -1.07567
-0.0989038 -1.08952 -1.08952
-0.0747604 -1.07541 -1.07541
-0.0977231 -1.06156 -1.06156
-0.0983141 -1.0755 -1.0755
-0.1226 -1.08968 -1.08968
-0.12403 -1.11795 -1.11795
-0.0761435 -1.1177 -1.1177
-0.0752222 -1.08943 -1.08943
-0.123316 -1.10378 -1.10378
-0.10008 -1.11779 -1.11779
-0.0756832 -1.10353 -1.10353
-0.0989038 -1.08952 -1.08952
-0.0994924 -1.10362 -1.10362
-0.12403 -1.11795 -1.11795
-0.125454 -1.14651 -1.14651
-0.0770621 -1.14627 -1.14627
-0.0761435 -1.1177 -1.1177
-0.124743 -1.13219 -1.13219
-0.101251 -1.14636 -1.14636
-0.0766032 -1.13195 -1.13195
-0.10008 -1.11779 -1.11779
-0.100666 -1.13204 -1.13204
-0.125454 -1.14651 -1.14651
-0.12687 -1.17537 -1.17537
-0.0779779 -1.17514 -1.17514
-0.0770621 -1.14627 -1.14627
-0.126163 -1.1609 -1.1609
-0.102417 -1.17522 -1.17522
-0.0775204 -1.16067 -1.16067
-0.101251 -1.14636 -1.14636
-0.101835 -1.16075 -1.16075
-0.12687 -1.17537 -1.17537
-0.12828 -1.20452 -1.20452
-0.0788909 -1.20431 -1.20431
-0.0779779 -1.17514 -1.17514
-0.127576 -1.18991 -1.18991
-0.103579 -1.20438 -1.20438
-0.0784348 -1.18969 -1.18969
-0.102417 -1.17522 -1.17522
-0.102998 -1.18977 -1.18977
-0.12828 -1.20452 -1.20452
-0.129683 -1.23397 -1.23397
-0.0798012 -1.23377 -1.23377
-0.0788909 -1.20431 -1.20431
-0.128983 -1.21921 -1.21921
-0.104735 -1.23384 -1.23384
-0.0793464 -1.219 -1.219
-0.103579 -1.20438 -1.20438
-0.104157 -1.21908 -1.21908
-0.129683 -1.23397 -1.23397
-0.13108 -1.26371 -1.26371
-0.0807087 -1.26352 -1.26352
-0.0798012 -1.23377 -1.23377
-0.130382 -1.24881 -1.24881
-0.105887 -1.26358 -1.26358
-0.0802553 -1.2486 -1.2486
-0.104735 -1.23384 -1.23384
-0.105312 -1.24867 -1.24867
-0.13108 -1.26371 -1.26371
-0.132469 -1.29374 -1.29374
-0.0816135 -1.29355 -1.29355
-0.0807087 -1.26352 -1.26352
-0.131775 -1.27869 -1.27869
-0.107034 -1.29362 -1.29362
-0.0811615 -1.2785 -1.2785
-0.105887 -1.26358 -1.26358
-0.106461 -1.27856 -1.27856
-0.132469 -1.29374 -1.29374
-0.133851 -1.32405 -1.32405
-0.0825155 -1.32388 -1.32388
-0.0816135 -1.29355 -1.29355
-0.133161 -1.30886 -1.30886
-0.108176 -1.32393 -1.32393
-0.0820649 -1.30868 -1.30868
-0.107034 -1.29362 -1.29362
-0.107606 -1.30874 -1.30874
-0.133851 -1.32405 -1.32405
-0.135227 -1.35465 -1.35465
-0.0834148 -1.35448 -1.35448
-0.0825155 -1.32388 -1.32388
-0.13454 -1.33932 -1.33932
-0.109314 -1.35454 -1.35454
-0.0829655 -1.33914 -1.33914
-0.108176 -1.32393 -1.32393
-0.108746 -1.3392 -1.3392
-0.135227 -1.35465 -1.35465
-0.136596 -1.38553 -1.38553
-0.0843114 -1.38537 -1.38537
-0.0834148 -1.35448 -1.35448
-0.135912 -1.37005 -1.37005
-0.110447 -1.38542 -1.38542
-0.0838634 -1.36989 -1.36989
-0.109314 -1.35454 -1.35454
-0.109881 -1.36994 -1.36994
-0.136596 -1.38553 -1.38553
-0.137958 -1.41668 -1.41668
-0.0852052 -1.41654 -1.41654
-0.0843114 -1.38537 -1.38537
-0.137278 -1.40107 -1.40107
-0.111574 -1.41658 -1.41658
-0.0847586 -1.40092 -1.40092
-0.110447 -1.38542 -1.38542
-0.111011 -1.40096 -1.40096
-0.137958 -1.41668 -1.41668
-0.139313 -1.44811 -1.44811
-0.0860962 -1.44798 -1.44798
-0.0852052 -1.41654 -1.41654
-0.138636 -1.43236 -1.43236
-0.112698 -1.44802 -1.44802
-0.085651 -1.43222 -1.43222
-0.111574 -1.41658 -1.41658
-0.112137 -1.43226 -1.43226
-0.139313 -1.44811 -1.44811
-0.140661 -1.47982 -1.47982
-0.0869845 -1.47969 -1.47969
-0.0860962 -1.44798 -1.44798
-0.139988 -1.46393 -1.46393
-0.113816 -1.47973 -1.47973
-0.0865407 -1.4638 -1.4638
-0.112698 -1.44802 -1.44802
-0.113257 -1.46384 -1.46384
-0.140661 -1.47982 -1.47982
-0.142003 -1.5118 -1.5118
-0.0878701 -1.51168 -1.51168
-0.0869845 -1.47969 -1.47969
-0.141333 -1.49577 -1.49577
-0.114929 -1.51171 -1.51171
-0.0874277 -1.49565 -1.49565
-0.113816 -1.47973 -1.47973
-0.114373 -1.49568 -1.49568
-0.142003 -1.5118 -1.5118
-0.143338 -1.54404 -1.54404
-0.088753 -1.54393 -1.54393
-0.0878701 -1.51168 -1.51168
-0.142671 -1.52789 -1.52789
-0.116038 -1.54396 -1.54396
-0.0883119 -1.52777 -1.52777
-0.114929 -1.51171 -1.51171
-0.115484 -1.5278 -1.5278
-0.143338 -1.54404 -1.54404
-0.144665 -1.57655 -1.57655
-0.0896331 -1.57646 -1.57646
-0.088753 -1.54393 -1.54393
-0.144002 -1.56026 -1.56026
-0.117142 -1.57648 -1.57648
-0.0891934 -1.56016 -1.56016
-0.116038 -1.54396 -1.54396
-0.116591 -1.56019 -1.56019
-0.144665 -1.57655 -1.57655
-0.145986 -1.60933 -1.60933
-0.0905104 -1.60924 -1.60924
-0.0896331 -1.57646 -1.57646
-0.145327 -1.59291 -1.59291
-0.118241 -1.60926 -1.60926
-0.0900721 -1.59282 -1.59282
-0.117142 -1.57648 -1.57648
-0.117692 -1.59283 -1.59283
-0.145986 -1.60933 -1.60933
-0.147301 -1.64237 -1.64237
-0.091385 -1.64229 -1.64229
-0.0905104 -1.60924 -1.60924
-0.146644 -1.62582 -1.62582
-0.119336 -1.6423 -1.6423
-0.090948 -1.62573 -1.62573
-0.118241 -1.60926 -1.60926
-0.118789 -1.62575 -1.62575
-0.147301 -1.64237 -1.64237
-0.148608 -1.67566 -1.67566
-0.0922568 -1.6756 -1.6756
-0.091385 -1.64229 -1.64229
-0.147955 -1.65898 -1.65898
-0.120425 -1.6756 -1.6756
-0.0918213 -1.65891 -1.65891
-0.119336 -1.6423 -1.6423
-0.119881 -1.65892 -1.65892
-0.148608 -1.67566 -1.67566
-0.149908 -1.70922 -1.70922
-0.0931259 -1.70916 -1.70916
-0.0922568 -1.6756 -1.6756
-0.149259 -1.69241 -1.69241
-0.12151 -1.70916 -1.70916
-0.0926917 -1.69235 -1.69235
-0.120425 -1.6756 -1.6756
-0.120968 -1.69235 -1.69235
-0.149908 -1.70922 -1.70922
-0.151202 -1.74303 -1.74303
-0.0939922 -1.74298 -1.74298
-0.0931259 -1.70916 -1.70916
-0.150556 -1.72609 -1.72609
-0.12259 -1.74297 -1.74297
-0.0935594 -1.72604 -1.72604
-0.12151 -1.70916 -1.70916
-0.122051 -1.72604 -1.72604
-0.151202 -1.74303 -1.74303
-0.152489 -1.77708 -1.77708
-0.0948558 -1.77705 -1.77705
-0.0939922 -1.74298 -1.74298
-0.151846 -1.76002 -1.76002
-0.123665 -1.77704 -1.77704
-0.0944243 -1.75998 -1.75998
-0.12259 -1.74297 -1.74297
-0.123128 -1.75997 -1.75997
-0.152489 -1.77708 -1.77708
-0.153768 -1.81139 -1.81139
-0.0957165 -1.81136 -1.81136
-0.0948558 -1.77705 -1.77705
-0.153129 -1.79421 -1.79421
-0.124735 -1.81135 -1.81135
-0.0952865 -1.79417 -1.79417
-0.123665 -1.77704 -1.77704
-0.124201 -1.79416 -1.79416
-0.153768 -1.81139 -1.81139
-0.155041 -1.84595 -1.84595
-0.0965745 -1.84593 -1.84593
-0.0957165 -1.81136 -1.81136
-0.154406 -1.82864 -1.82864
-0.125801 -1.84591 -1.84591
-0.0961459 -1.82862 -1.82862
-0.124735 -1.81135 -1.81135
-0.125269 -1.8286 -1.8286
-0.155041 -1.84595 -1.84595
-0.156308 -1.88075 -1.88075
-0.0974296 -1.88074 -1.88074
-0.0965745 -1.84593 -1.84593
-0.155675 -1.86332 -1.86332
-0.126862 -1.88072 -1.88072
-0.0970024 -1.86331 -1.86331
-0.125801 -1.84591 -1.84591
-0.126332 -1.86329 -1.86329
-0.156308 -1.88075 -1.88075
-0.157567 -1.91579 -1.91579
-0.098282 -1.91579 -1.91579
-0.0974296 -1.88074 -1.88074
-0.156938 -1.89824 -1.89824
-0.127917 -1.91577 -1.91577
-0.0978562 -1.89824 -1.89824
-0.126862 -1.88072 -1.88072
-0.12739 -1.89821 -1.89821
-0.157567 -1.91579 -1.91579
-0.158819 -1.95108 -1.95108
-0.0991315 -1.95109 -1.95109
-0.098282 -1.91579 -1.91579
-0.158194 -1.9334 -1.9334
-0.128968 -1.95106 -1.95106
-0.0987071 -1.93341 -1.93341
-0.127917 -1.91577 -1.91577
-0.128443 -1.93338 -1.93338
-0.158819 -1.95108 -1.95108
-0.160064 -1.9866 -1.9866
-0.0999782 -1.98662 -1.98662
-0.0991315 -1.95109 -1.95109
-0.159443 -1.96881 -1.96881
-0.130014 -1.98658 -1.98658
-0.0995552 -1.96882 -1.96882
-0.128968 -1.95106 -1.95106
-0.129492 -1.96879 -1.96879
-0.160064 -1.9866 -1.9866
-0.161303 -2.02235 -2.02235
-0.100822 -2.02238 -2.02238
-0.0999782 -1.98662 -1.98662
-0.160684 -2.00444 -2.00444
-0.131055 -2.02234 -2.02234
-0.100401 -2.00447 -2.00447
-0.130014 -1.98658 -1.98658
-0.130535 -2.00443 -2.00443
-0.161303 -2.02235 -2.02235
-0.162534 -2.05834 -2.05834
-0.101663 -2.05838 -2.05838
-0.100822 -2.02238 -2.02238
-0.161919 -2.04032 -2.04032
-0.132092 -2.05833 -2.05833
-0.101243 -2.04035 -2.04035
-0.131055 -2.02234 -2.02234
-0.131574 -2.04031 -2.04031
-0.162534 -2.05834 -2.05834
-0.163759 -2.09456 -2.09456
-0.102501 -2.0946 -2.0946
-0.101663 -2.05838 -2.05838
-0.163147 -2.07642 -2.07642
-0.133123 -2.09456 -2.09456
-0.102083 -2.07646 -2.07646
-0.132092 -2.05833 -2.05833
-0.132608 -2.07642 -2.07642
-0.163759 -2.09456 -2.09456
-0.164976 -2.131 -2.131
-0.103336 -2.13106 -2.13106
-0.102501 -2.0946 -2.0946
-0.164368 -2.11275 -2.11275
-0.134149 -2.13101 -2.13101
-0.102919 -2.1128 -2.1128
-0.133123 -2.09456 -2.09456
-0.133637 -2.11275 -2.11275
-0.164976 -2.131 -2.131
-0.166187 -2.16767 -2.16767
-0.104169 -2.16774 -2.16774
-0.103336 -2.13106 -2.13106
-0.165582 -2.14931 -2.14931
-0.135171 -2.16768 -2.16768
-0.103753 -2.14937 -2.14937
-0.134149 -2.13101 -2.13101
-0.134661 -2.14932 -2.14932
-0.166187 -2.16767 -2.16767
-0.16739 -2.20456 -2.20456
-0.104998 -2.20464 -2.20464
-0.104169 -2.16774 -2.16774
-0.166789 -2.18609 -2.18609
-0.136187 -2.20458 -2.20458
-0.104584 -2.18616 -2.18616
-0.135171 -2.16768 -2.16768
-0.13568 -2.1861 -2.1861
-0.16739 -2.20456 -2.20456
-0.168587 -2.24168 -2.24168
-0.105825 -2.24176 -2.24176
-0.104998 -2.20464 -2.20464
-0.16799 -2.22309 -2.22309
-0.137199 -2.2417 -2.2417
-0.105412 -2.22318 -2.22318
-0.136187 -2.20458 -2.20458
-0.136694 -2.22311 -2.22311
-0.168587 -2.24168 -2.24168
-0.169776 -2.27901 -2.27901
-0.106648 -2.27911 -2.27911
-0.105825 -2.24176 -2.24176
-0.169183 -2.26032 -2.26032
-0.138205 -2.27903 -2.27903
-0.106237 -2.26041 -2.26041
-0.137199 -2.2417 -2.2417
-0.137703 -2.26034 -2.26034
-0.169776 -2.27901 -2.27901
-0.170959 -2.31656 -2.31656
-0.107469 -2.31666 -2.31666
-0.106648 -2.27911 -2.27911
-0.170369 -2.29776 -2.29776
-0.139207 -2.31659 -2.31659
-0.107059 -2.29786 -2.29786
-0.138205 -2.27903 -2.27903
-0.138707 -2.29778 -2.29778
-0.170959 -2.31656 -2.31656
-0.172134 -2.35432 -2.35432
-0.108287 -2.35443 -2.35443
-0.107469 -2.31666 -2.31666
-0.171547 -2.33541 -2.33541
-0.140203 -2.35435 -2.35435
-0.107878 -2.33552 -2.33552
-0.139207 -2.31659 -2.31659
-0.139706 -2.33544 -2.33544
-0.172134 -2.35432 -2.35432
-0.173303 -2.39229 -2.39229
-0.109101 -2.39241 -2.39241
-0.108287 -2.35443 -2.35443
-0.172719 -2.37328 -2.37328
-0.141195 -2.39233 -2.39233
-0.108694 -2.3734 -2.3734
-0.140203 -2.35435 -2.35435
-0.1407 -2.37331 -2.37331
-0.173303 -2.39229 -2.39229
-0.174464 -2.43047 -2.43047
-0.109913 -2.4306 -2.4306
-0.109101 -2.39241 -2.39241
-0.173884 -2.41135 -2.41135
-0.142181 -2.43051 -2.43051
-0.109507 -2.41148 -2.41148
-0.141195 -2.39233 -2.39233
-0.141689 -2.4114 -2.4114
-0.174464 -2.43047 -2.43047
-0.175618 -2.46885 -2.46885
-0.110721 -2.469 -2.469
-0.109913 -2.4306 -2.4306
-0.175042 -2.44964 -2.44964
-0.143163 -2.4689 -2.4689
-0.110318 -2.44977 -2.44977
-0.142181 -2.43051 -2.43051
-0.142673 -2.44968 -2.44968
-0.175618 -2.46885 -2.46885
-0.176765 -2.50744 -2.50744
-0.111527 -2.5076 -2.5076
-0.110721 -2.469 -2.469
-0.176192 -2.48812 -2.48812
-0.144139 -2.5075 -2.5075
-0.111125 -2.48827 -2.48827
-0.143163 -2.4689 -2.4689
-0.143651 -2.48818 -2.48818
-0.176765 -2.50744 -2.50744
-0.177904 -2.54623 -2.54623
-0.112329 -2.54639 -2.54639
-0.111527 -2.5076 -2.5076
-0.177335 -2.52681 -2.52681
-0.14511 -2.54629 -2.54629
-0.111929 -2.52697 -2.52697
-0.144139 -2.5075 -2.5075
-0.144625 -2.52687 -2.52687
-0.177904 -2.54623 -2.54623
-0.179037 -2.58522 -2.58522
-0.113129 -2.58539 -2.58539
-0.112329 -2.54639 -2.54639
-0.178472 -2.5657 -2.5657
-0.146076 -2.58529 -2.58529
-0.112729 -2.56587 -2.56587
-0.14511 -2.54629 -2.54629
-0.145593 -2.56576 -2.56576
-0.179037 -2.58522 -2.58522
-0.180162 -2.62441 -2.62441
-0.113925 -2.62459 -2.62459
-0.113129 -2.58539 -2.58539
-0.179601 -2.60479 -2.60479
-0.147037 -2.62448 -2.62448
-0.113527 -2.60497 -2.60497
-0.146076 -2.58529 -2.58529
-0.146557 -2.60486 -2.60486
-0.180162 -2.62441 -2.62441
-0.18128 -2.66378 -2.66378
-0.114718 -2.66397 -2.66397
-0.113925 -2.62459 -2.62459
-0.180722 -2.64407 -2.64407
-0.147992 -2.66386 -2.66386
-0.114322 -2.64426 -2.64426
-0.147037 -2.62448 -2.62448
-0.147515 -2.64414 -2.64414
-0.18128 -2.66378 -2.66378
-0.182391 -2.70335 -2.70335
-0.115508 -2.70355 -2.70355
-0.114718 -2.66397 -2.66397
-0.181837 -2.68355 -2.68355
-0.148943 -2.70343 -2.70343
-0.115113 -2.68374 -2.68374
-0.147992 -2.66386 -2.66386
-0.148468 -2.68362 -2.68362
-0.182391 -2.70335 -2.70335
-0.183495 -2.74311 -2.74311
-0.116295 -2.74332 -2.74332
-0.115508 -2.70355 -2.70355
-0.182944 -2.72321 -2.72321
-0.149888 -2.7432 -2.7432
-0.115902 -2.72341 -2.72341
-0.148943 -2.70343 -2.70343
-0.149416 -2.72329 -2.72329
-0.183495 -2.74311 -2.74311
-0.184591 -2.78306 -2.78306
-0.117078 -2.78328 -2.78328
-0.116295 -2.74332 -2.74332
-0.184044 -2.76306 -2.76306
-0.150828 -2.78315 -2.78315
-0.116687 -2.76328 -2.76328
-0.149888 -2.7432 -2.7432
-0.150358 -2.76315 -2.76315
-0.184591 -2.78306 -2.78306
-0.18568 -2.82319 -2.82319
-0.117859 -2.82342 -2.82342
-0.117078 -2.78328 -2.78328
-0.185136 -2.8031 -2.8031
-0.151762 -2.82328 -2.82328
-0.117469 -2.80332 -2.80332
-0.150828 -2.78315 -2.78315
-0.151296 -2.80319 -2.80319
-0.18568 -2.82319 -2.82319
-0.186762 -2.8635 -2.8635
-0.118636 -2.86374 -2.86374
-0.117859 -2.82342 -2.82342
-0.186222 -2.84332 -2.84332
-0.152692 -2.8636 -2.8636
-0.118247 -2.84355 -2.84355
-0.151762 -2.82328 -2.82328
-0.152228 -2.84342 -2.84342
-0.186762 -2.8635 -2.8635
-0.187836 -2.90399 -2.90399
-0.119409 -2.90424 -2.90424
-0.118636 -2.86374 -2.86374
-0.1873 -2.88372 -2.88372
-0.153616 -2.90409 -2.90409
-0.119023 -2.88396 -2.88396
-0.152692 -2.8636 -2.8636
-0.153154 -2.88382 -2.88382
-0.187836 -2.90399 -2.90399
-0.188903 -2.94466 -2.94466
-0.12018 -2.94491 -2.94491
-0.119409 -2.90424 -2.90424
-0.18837 -2.9243 -2.9243
-0.154534 -2.94477 -2.94477
-0.119795 -2.92455 -2.92455
-0.153616 -2.90409 -2.90409
-0.154076 -2.92441 -2.92441
-0.188903 -2.94466 -2.94466
-0.189962 -2.9855 -2.9855
-0.120947 -2.98576 -2.98576
-0.12018 -2.94491 -2.94491
-0.189433 -2.96506 -2.96506
-0.155447 -2.98561 -2.98561
-0.120564 -2.96532 -2.96532
-0.154534 -2.94477 -2.94477
-0.154992 -2.96517 -2.96517
-0.189962 -2.9855 -2.9855
-0.191014 -3.02652 -3.02652
-0.121711 -3.02679 -3.02679
-0.120947 -2.98576 -2.98576
-0.190489 -3.00599 -3.00599
-0.156355 -3.02663 -3.02663
-0.121329 -3.00625 -3.00625
-0.155447 -2.98561 -2.98561
-0.155902 -3.0061 -3.0061
-0.191014 -3.02652 -3.02652
-0.192058 -3.0677 -3.0677
-0.122471 -3.06798 -3.06798
-0.121711 -3.02679 -3.02679
-0.191537 -3.04709 -3.04709
-0.157258 -3.06782 -3.06782
-0.122091 -3.04736 -3.04736
-0.156355 -3.02663 -3.02663
-0.156807 -3.04721 -3.04721
-0.192058 -3.0677 -3.0677
-0.193095 -3.10905 -3.10905
-0.123228 -3.10934 -3.10934
-0.122471 -3.06798 -3.06798
-0.192578 -3.08835 -3.08835
-0.158155 -3.10918 -3.10918
-0.12285 -3.08864 -3.08864
-0.157258 -3.06782 -3.06782
-0.157707 -3.08848 -3.08848
-0.193095 -3.10905 -3.10905
-0.194125 -3.15057 -3.15057
-0.123981 -3.15086 -3.15086
-0.123228 -3.10934 -3.10934
-0.193611 -3.12979 -3.12979
-0.159046 -3.1507 -3.1507
-0.123605 -3.13008 -3.13008
-0.158155 -3.10918 -3.10918
-0.158601 -3.12992 -3.12992
-0.194125 -3.15057 -3.15057
-0.195147 -3.19224 -3.19224
-0.124731 -3.19255 -3.19255
-0.123981 -3.15086 -3.15086
-0.194637 -3.17138 -3.17138
-0.159932 -3.19238 -3.19238
-0.124357 -3.17169 -3.17169
-0.159046 -3.1507 -3.1507
-0.15949 -3.17152 -3.17152
-0.195147 -3.19224 -3.19224
-0.196161 -3.23408 -3.23408
-0.125478 -3.2344 -3.2344
-0.124731 -3.19255 -3.19255
-0.195655 -3.21314 -3.21314
-0.160812 -3.23422 -3.23422
-0.125105 -3.21345 -3.21345
-0.159932 -3.19238 -3.19238
-0.160373 -3.21328 -3.21328
-0.196161 -3.23408 -3.23408
-0.197167 -3.27608 -3.27608
-0.126221 -3.2764 -3.2764
-0.125478 -3.2344 -3.2344
-0.196665 -3.25506 -3.25506
-0.161687 -3.27622 -3.27622
-0.12585 -3.25538 -3.25538
-0.160812 -3.23422 -3.23422
-0.16125 -3.2552 -3.2552
-0.197167 -3.27608 -3.27608
-0.198166 -3.31823 -3.31823
-0.12696 -3.31856 -3.31856
-0.126221 -3.2764 -3.2764
-0.197668 -3.29713 -3.29713
-0.162556 -3.31838 -3.31838
-0.126591 -3.29746 -3.29746
-0.161687 -3.27622 -3.27622
-0.162122 -3.29728 -3.29728
-0.198166 -3.31823 -3.31823
-0.199158 -3.36053 -3.36053
-0.127696 -3.36087 -3.36087
-0.12696 -3.31856 -3.31856
-0.198663 -3.33936 -3.33936
-0.16342 -3.36068 -3.36068
-0.127328 -3.3397 -3.3397
-0.162556 -3.31838 -3.31838
-0.162989 -3.33951 -3.33951
-0.199158 -3.36053 -3.36053
-0.200141 -3.40298 -3.40298
-0.128428 -3.40333 -3.40333
-0.127696 -3.36087 -3.36087
-0.19965 -3.38174 -3.38174
-0.164278 -3.40314 -3.40314
-0.128062 -3.38208 -3.38208
-0.16342 -3.36068 -3.36068
-0.163849 -3.3819 -3.3819
-0.200141 -3.40298 -3.40298
-0.201117 -3.44559 -3.44559
-0.129156 -3.44594 -3.44594
-0.128428 -3.40333 -3.40333
-0.20063 -3.42427 -3.42427
-0.16513 -3.44575 -3.44575
-0.128793 -3.42462 -3.42462
-0.164278 -3.40314 -3.40314
-0.164704 -3.42443 -3.42443
-0.201117 -3.44559 -3.44559
-0.202085 -3.48833 -3.48833
-0.129881 -3.4887 -3.4887
-0.129156 -3.44594 -3.44594
-0.201602 -3.46694 -3.46694
-0.165976 -3.4885 -3.4885
-0.129519 -3.4673 -3.4673
-0.16513 -3.44575 -3.44575
-0.165554 -3.46711 -3.46711
-0.202085 -3.48833 -3.48833
-0.203045 -3.53122 -3.53122
-0.130602 -3.5316 -3.5316
-0.129881 -3.4887 -3.4887
-0.202566 -3.50976 -3.50976
-0.166817 -3.53139 -3.53139
-0.130242 -3.51013 -3.51013
-0.165976 -3.4885 -3.4885
-0.166397 -3.50993 -3.50993
-0.203045 -3.53122 -3.53122
-0.203997 -3.57425 -3.57425
-0.131319 -3.57463 -3.57463
-0.130602 -3.5316 -3.5316
-0.203522 -3.55272 -3.55272
-0.167652 -3.57443 -3.57443
-0.130961 -3.5531 -3.5531
-0.166817 -3.53139 -3.53139
-0.167235 -3.55289 -3.55289
-0.203997 -3.57425 -3.57425
-0.204942 -3.61742 -3.61742
-0.132033 -3.61781 -3.61781
-0.131319 -3.57463 -3.57463
-0.204471 -3.59582 -3.59582
-0.16848 -3.6176 -3.6176
-0.131677 -3.5962 -3.5962
-0.167652 -3.57443 -3.57443
-0.168067 -3.596 -3.596
-0.204942 -3.61742 -3.61742
-0.205878 -3.66073 -3.66073
-0.132743 -3.66112 -3.66112
-0.132033 -3.61781 -3.61781
-0.205411 -3.63906 -3.63906
-0.169304 -3.66091 -3.66091
-0.132388 -3.63945 -3.63945
-0.16848 -3.6176 -3.6176
-0.168893 -3.63924 -3.63924
-0.205878 -3.66073 -3.66073
-0.206807 -3.70416 -3.70416
-0.133448 -3.70457 -3.70457
-0.132743 -3.66112 -3.66112
-0.206344 -3.68243 -3.68243
-0.170121 -3.70435 -3.70435
-0.133096 -3.68283 -3.68283
-0.169304 -3.66091 -3.66091
-0.169713 -3.68261 -3.68261
-0.206807 -3.70416 -3.70416
-0.207728 -3.74773 -3.74773
-0.13415 -3.74814 -3.74814
-0.133448 -3.70457 -3.70457
-0.207268 -3.72593 -3.72593
-0.170932 -3.74792 -3.74792
-0.1338 -3.72634 -3.72634
-0.170121 -3.70435 -3.70435
-0.170527 -3.72612 -3.72612
-0.207728 -3.74773 -3.74773
-0.20864 -3.79143 -3.79143
-0.134848 -3.79185 -3.79185
-0.13415 -3.74814 -3.74814
-0.208185 -3.76957 -3.76957
-0.171737 -3.79163 -3.79163
-0.1345 -3.76998 -3.76998
-0.170932 -3.74792 -3.74792
-0.171335 -3.76976 -3.76976
-0.20864 -3.79143 -3.79143
-0.209545 -3.83525 -3.83525
-0.135542 -3.83568 -3.83568
-0.134848 -3.79185 -3.79185
-0.209093 -3.81333 -3.81333
-0.172537 -3.83545 -3.83545
-0.135196 -3.81375 -3.81375
-0.171737 -3.79163 -3.79163
-0.172138 -3.81352 -3.81352
-0.209545 -3.83525 -3.83525
-0.210441 -3.8792 -3.8792
-0.136232 -3.87963 -3.87963
-0.135542 -3.83568 -3.83568
-0.209994 -3.85721 -3.85721
-0.17333 -3.8794 -3.8794
-0.135888 -3.85764 -3.85764
-0.172537 -3.83545 -3.83545
-0.172934 -3.85741 -3.85741
-0.210441 -3.8792 -3.8792
-0.211329 -3.92327 -3.92327
-0.136918 -3.92371 -3.92371
-0.136232 -3.87963 -3.87963
-0.210886 -3.90122 -3.90122
-0.174117 -3.92348 -3.92348
-0.136576 -3.90166 -3.90166
-0.17333 -3.8794 -3.8794
-0.173724 -3.90143 -3.90143
-0.211329 -3.92327 -3.92327
-0.21221 -3.96745 -3.96745
-0.1376 -3.9679 -3.9679
-0.136918 -3.92371 -3.92371
-0.21177 -3.94535 -3.94535
-0.174898 -3.96767 -3.96767
-0.13726 -3.94579 -3.94579
-0.174117 -3.92348 -3.92348
-0.174508 -3.94556 -3.94556
-0.21221 -3.96745 -3.96745
-0.213081 -4.01176 -4.01176
-0.138278 -4.01222 -4.01222
-0.1376 -3.9679 -3.9679
-0.212647 -3.98959 -3.98959
-0.175673 -4.01197 -4.01197
-0.13794 -3.99005 -3.99005
-0.174898 -3.96767 -3.96767
-0.175286 -3.98981 -3.98981
-0.213081 -4.01176 -4.01176
-0.213945 -4.05617 -4.05617
-0.138952 -4.05664 -4.05664
-0.138278 -4.01222 -4.01222
-0.213514 -4.03395 -4.03395
-0.176441 -4.0564 -4.0564
-0.138615 -4.03441 -4.03441
-0.175673 -4.01197 -4.01197
-0.176058 -4.03417 -4.03417
-0.213945 -4.05617 -4.05617
-0.214801 -4.1007 -4.1007
-0.139621 -4.10118 -4.10118
-0.138952 -4.05664 -4.05664
-0.214374 -4.07842 -4.07842
-0.177204 -4.10093 -4.10093
-0.139287 -4.07889 -4.07889
-0.176441 -4.0564 -4.0564
-0.176823 -4.07865 -4.07865
-0.214801 -4.1007 -4.1007
-0.215648 -4.14534 -4.14534
-0.140286 -4.14582 -4.14582
-0.139621 -4.10118 -4.10118
-0.215225 -4.12301 -4.12301
-0.17796 -4.14557 -4.14557
-0.139954 -4.12349 -4.12349
-0.177204 -4.10093 -4.10093
-0.177583 -4.12324 -4.12324
-0.215648 -4.14534 -4.14534
-0.216486 -4.19008 -4.19008
-0.140947 -4.19057 -4.19057
-0.140286 -4.14582 -4.14582
-0.216068 -4.1677 -4.1677
-0.17871 -4.19032 -4.19032
-0.140617 -4.16818 -4.16818
-0.17796 -4.14557 -4.14557
-0.178336 -4.16793 -4.16793
-0.216486 -4.19008 -4.19008
-0.217317 -4.23493 -4.23493
-0.141604 -4.23543 -4.23543
-0.140947 -4.19057 -4.19057
-0.216903 -4.2125 -4.2125
-0.179453 -4.23517 -4.23517
-0.141276 -4.21299 -4.21299
-0.17871 -4.19032 -4.19032
-0.179082 -4.21273 -4.21273
-0.217317 -4.23493 -4.23493
-0.218139 -4.27988 -4.27988
-0.142256 -4.28039 -4.28039
-0.141604 -4.23543 -4.23543
-0.217729 -4.2574 -4.2574
-0.180191 -4.28012 -4.28012
-0.141931 -4.2579 -4.2579
-0.179453 -4.23517 -4.23517
-0.179823 -4.25764 -4.25764
-0.218139 -4.27988 -4.27988
-0.218952 -4.32493 -4.32493
-0.142904 -4.32544 -4.32544
-0.142256 -4.28039 -4.28039
-0.218547 -4.3024 -4.3024
-0.180921 -4.32518 -4.32518
-0.142581 -4.3029 -4.3029
-0.180191 -4.28012 -4.28012
-0.180557 -4.30264 -4.30264
-0.218952 -4.32493 -4.32493
-0.219757 -4.37008 -4.37008
-0.143548 -4.3706 -4.3706
-0.142904 -4.32544 -4.32544
-0.219356 -4.3475 -4.3475
-0.181646 -4.37033 -4.37033
-0.143227 -4.34801 -4.34801
-0.180921 -4.32518 -4.32518
-0.181284 -4.34774 -4.34774
-0.219757 -4.37008 -4.37008
-0.220554 -4.41532 -4.41532
-0.144187 -4.41585 -4.41585
-0.143548 -4.3706 -4.3706
-0.220156 -4.39269 -4.39269
-0.182363 -4.41557 -4.41557
-0.143868 -4.39321 -4.39321
-0.181646 -4.37033 -4.37033
-0.182005 -4.39294 -4.39294
-0.220554 -4.41532 -4.41532
-0.221341 -4.46066 -4.46066
-0.144821 -4.46119 -4.46119
-0.144187 -4.41585 -4.41585
-0.220949 -4.43798 -4.43798
-0.183075 -4.46091 -4.46091
-0.144505 -4.43851 -4.43851
-0.182363 -4.41557 -4.41557
-0.18272 -4.43823 -4.43823
-0.221341 -4.46066 -4.46066
-0.222121 -4.50608 -4.50608
-0.145452 -4.50662 -4.50662
-0.144821 -4.46119 -4.46119
-0.221732 -4.48336 -4.48336
-0.183779 -4.50634 -4.50634
-0.145137 -4.48389 -4.48389
-0.183075 -4.46091 -4.46091
-0.183428 -4.48361 -4.48361
-0.222121 -4.50608 -4.50608
-0.222891 -4.55159 -4.55159
-0.146077 -4.55213 -4.55213
-0.145452 -4.50662 -4.50662
-0.222507 -4.52883 -4.52883
-0.184477 -4.55185 -4.55185
-0.145765 -4.52937 -4.52937
-0.183779 -4.50634 -4.50634
-0.184129 -4.52909 -4.52909
-0.222891 -4.55159 -4.55159
-0.223653 -4.59719 -4.59719
-0.146698 -4.59774 -4.59774
-0.146077 -4.55213 -4.55213
-0.223273 -4.57438 -4.57438
-0.185169 -4.59745 -4.59745
-0.146388 -4.57493 -4.57493
-0.184477 -4.55185 -4.55185
-0.184824 -4.57464 -4.57464
-0.223653 -4.59719 -4.59719
-0.224406 -4.64287 -4.64287
-0.147314 -4.64342 -4.64342
-0.146698 -4.59774 -4.59774
-0.224031 -4.62002 -4.62002
-0.185853 -4.64314 -4.64314
-0.147007 -4.62057 -4.62057
-0.185169 -4.59745 -4.59745
-0.185512 -4.62028 -4.62028
-0.224406 -4.64287 -4.64287
-0.225151 -4.68862 -4.68862
-0.147926 -4.68919 -4.68919
-0.147314 -4.64342 -4.64342
-0.224779 -4.66573 -4.66573
-0.186531 -4.6889 -4.6889
-0.14762 -4.66629 -4.66629
-0.185853 -4.64314 -4.64314
-0.186193 -4.66601 -4.66601
-0.225151 -4.68862 -4.68862
-0.225886 -4.73446 -4.73446
-0.148532 -4.73503 -4.73503
-0.147926 -4.68919 -4.68919
-0.225519 -4.71153 -4.71153
-0.187202 -4.73474 -4.73474
-0.14823 -4.7121 -4.7121
-0.186531 -4.6889 -4.6889
-0.186868 -4.71181 -4.71181
-0.225886 -4.73446 -4.73446
-0.226613 -4.78037 -4.78037
-0.149134 -4.78095 -4.78095
-0.148532 -4.73503 -4.73503
-0.22625 -4.75741 -4.75741
-0.187867 -4.78065 -4.78065
-0.148834 -4.75798 -4.75798
-0.187202 -4.73474 -4.73474
-0.187535 -4.75769 -4.75769
-0.226613 -4.78037 -4.78037
-0.22733 -4.82636 -4.82636
-0.149732 -4.82694 -4.82694
-0.149134 -4.78095 -4.78095
-0.226973 -4.80335 -4.80335
-0.188524 -4.82664 -4.82664
-0.149434 -4.80393 -4.80393
-0.187867 -4.78065 -4.78065
-0.188196 -4.80364 -4.80364
-0.22733 -4.82636 -4.82636
-0.228039 -4.87241 -4.87241
-0.150324 -4.873 -4.873
-0.149732 -4.82694 -4.82694
-0.227686 -4.84937 -4.84937
-0.189175 -4.8727 -4.8727
-0.150028 -4.84996 -4.84996
-0.188524 -4.82664 -4.82664
-0.18885 -4.84966 -4.84966
-0.228039 -4.87241 -4.87241
-0.228739 -4.91853 -4.91853
-0.150911 -4.91913 -4.91913
-0.150324 -4.873 -4.873
-0.22839 -4.89546 -4.89546
-0.189818 -4.91882 -4.91882
-0.150618 -4.89605 -4.89605
-0.189175 -4.8727 -4.8727
-0.189497 -4.89575 -4.89575
-0.228739 -4.91853 -4.91853
-0.22943 -4.96472 -4.96472
-0.151494 -4.96532 -4.96532
-0.150911 -4.91913 -4.91913
-0.229085 -4.94162 -4.94162
-0.190455 -4.96501 -4.96501
-0.151203 -4.94222 -4.94222
-0.189818 -4.91882 -4.91882
-0.190137 -4.94191 -4.94191
-0.22943 -4.96472 -4.96472
-0.230111 -5.01097 -5.01097
-0.152071 -5.01158 -5.01158
-0.151494 -4.96532 -4.96532
-0.229772 -4.98784 -4.98784
-0.191084 -5.01127 -5.01127
-0.151783 -4.98844 -4.98844
-0.190455 -4.96501 -4.96501
-0.190771 -4.98813 -4.98813
-0.230111 -5.01097 -5.01097
-0.230784 -5.05728 -5.05728
-0.152644 -5.0579 -5.0579
-0.152071 -5.01158 -5.01158
-0.230449 -5.03412 -5.03412
-0.191707 -5.05758 -5.05758
-0.152358 -5.03473 -5.03473
-0.191084 -5.01127 -5.01127
-0.191397 -5.03442 -5.03442
-0.230784 -5.05728 -5.05728
-0.231447 -5.10365 -5.10365
-0.153211 -5.10427 -5.10427
-0.152644 -5.0579 -5.0579
-0.231117 -5.08046 -5.08046
-0.192322 -5.10396 -5.10396
-0.152928 -5.08108 -5.08108
-0.191707 -5.05758 -5.05758
-0.192016 -5.08076 -5.08076
-0.231447 -5.10365 -5.10365
-0.232101 -5.15008 -5.15008
-0.153773 -5.1507 -5.1507
-0.153211 -5.10427 -5.10427
-0.231776 -5.12686 -5.12686
-0.192931 -5.15039 -5.15039
-0.153493 -5.12748 -5.12748
-0.192322 -5.10396 -5.10396
-0.192627 -5.12717 -5.12717
-0.232101 -5.15008 -5.15008
-0.232746 -5.19656 -5.19656
-0.15433 -5.19719 -5.19719
-0.153773 -5.1507 -5.1507
-0.232425 -5.17331 -5.17331
-0.193532 -5.19687 -5.19687
-0.154053 -5.17394 -5.17394
-0.192931 -5.15039 -5.15039
-0.193232 -5.17362 -5.17362
-0.232746 -5.19656 -5.19656
-0.233382 -5.24309 -5.24309
-0.154882 -5.24373 -5.24373
-0.15433 -5.19719 -5.19719
-0.233065 -5.21982 -5.21982
-0.194125 -5.2434 -5.2434
-0.154607 -5.22045 -5.22045
-0.193532 -5.19687 -5.19687
-0.193829 -5.22013 -5.22013
-0.233382 -5.24309 -5.24309
-0.234008 -5.28967 -5.28967
-0.155429 -5.29031 -5.29031
-0.154882 -5.24373 -5.24373
-0.233696 -5.26637 -5.26637
-0.194712 -5.28998 -5.28998
-0.155156 -5.26701 -5.26701
-0.194125 -5.2434 -5.2434
-0.19442 -5.26669 -5.26669
-0.234008 -5.28967 -5.28967
-0.234625 -5.33629 -5.33629
-0.15597 -5.33694 -5.33694
-0.155429 -5.29031 -5.29031
-0.234318 -5.31298 -5.31298
-0.195291 -5.33661 -5.33661
-0.1557 -5.31362 -5.31362
-0.194712 -5.28998 -5.28998
-0.195002 -5.31329 -5.31329
-0.234625 -5.33629 -5.33629
-0.235233 -5.38296 -5.38296
-0.156506 -5.38362 -5.38362
-0.15597 -5.33694 -5.33694
-0.23493 -5.35962 -5.35962
-0.195863 -5.38329 -5.38329
-0.156239 -5.36027 -5.36027
-0.195291 -5.33661 -5.33661
-0.195578 -5.35994 -5.35994
-0.235233 -5.38296 -5.38296
-0.235831 -5.42967 -5.42967
-0.157037 -5.43033 -5.43033
-0.156506 -5.38362 -5.38362
-0.235533 -5.40631 -5.40631
-0.196427 -5.43 -5.43
-0.156772 -5.40697 -5.40697
-0.195863 -5.38329 -5.38329
-0.196146 -5.40664 -5.40664
-0.235831 -5.42967 -5.42967
-0.236419 -5.47642 -5.47642
-0.157562 -5.47709 -5.47709
-0.157037 -5.43033 -5.43033
-0.236126 -5.45304 -5.45304
-0.196984 -5.47675 -5.47675
-0.1573 -5.4537 -5.4537
-0.196427 -5.43 -5.43
-0.196707 -5.45337 -5.45337
-0.236419 -5.47642 -5.47642
-0.236998 -5.52321 -5.52321
-0.158082 -5.52388 -5.52388
-0.157562 -5.47709 -5.47709
-0.23671 -5.49981 -5.49981
-0.197533 -5.52354 -5.52354
-0.157823 -5.50048 -5.50048
-0.196984 -5.47675 -5.47675
-0.19726 -5.50014 -5.50014
-0.236998 -5.52321 -5.52321
-0.237568 -5.57003 -5.57003
-0.158596 -5.5707 -5.5707
-0.158082 -5.52388 -5.52388
-0.237284 -5.54661 -5.54661
-0.198075 -5.57036 -5.57036
-0.15834 -5.54729 -5.54729
-0.197533 -5.52354 -5.52354
-0.197805 -5.54695 -5.54695
-0.237568 -5.57003 -5.57003
-0.238127 -5.61688 -5.61688
-0.159105 -5.61756 -5.61756
-0.158596 -5.5707 -5.5707
-0.237849 -5.59345 -5.59345
-0.198609 -5.61722 -5.61722
-0.158851 -5.59413 -5.59413
-0.198075 -5.57036 -5.57036
-0.198343 -5.59379 -5.59379
-0.238127 -5.61688 -5.61688
-0.238677 -5.66376 -5.66376
-0.159608 -5.66445 -5.66445
-0.159105 -5.61756 -5.61756
-0.238404 -5.64032 -5.64032
-0.199136 -5.6641 -5.6641
-0.159357 -5.641 -5.641
-0.198609 -5.61722 -5.61722
-0.198874 -5.64066 -5.64066
-0.238677 -5.66376 -5.66376
-0.239218 -5.71067 -5.71067
-0.160105 -5.71136 -5.71136
-0.159608 -5.66445 -5.66445
-0.238949 -5.68721 -5.68721
-0.199655 -5.71101 -5.71101
-0.159857 -5.6879 -5.6879
-0.199136 -5.6641 -5.6641
-0.199396 -5.68755 -5.68755
-0.239218 -5.71067 -5.71067
-0.239748 -5.7576 -5.7576
-0.160597 -5.75829 -5.75829
-0.160105 -5.71136 -5.71136
-0.239484 -5.73413 -5.73413
-0.200166 -5.75795 -5.75795
-0.160352 -5.73482 -5.73482
-0.199655 -5.71101 -5.71101
-0.199911 -5.73448 -5.73448
-0.239748 -5.7576 -5.7576
-0.240269 -5.80455 -5.80455
-0.161082 -5.80525 -5.80525
-0.160597 -5.75829 -5.75829
-0.24001 -5.78107 -5.78107
-0.200669 -5.8049 -5.8049
-0.16084 -5.78177 -5.78177
-0.200166 -5.75795 -5.75795
-0.200418 -5.78142 -5.78142
-0.240269 -5.80455 -5.80455
-0.24078 -5.85153 -5.85153
-0.161561 -5.85223 -5.85223
-0.161082 -5.80525 -5.80525
-0.240526 -5.82804 -5.82804
-0.201164 -5.85188 -5.85188
-0.161323 -5.82874 -5.82874
-0.200669 -5.8049 -5.8049
-0.200917 -5.82839 -5.82839
-0.24078 -5.85153 -5.85153
-0.24128 -5.89852 -5.89852
-0.162034 -5.89923 -5.89923
-0.161561 -5.85223 -5.85223
-0.241031 -5.87502 -5.87502
-0.20165 -5.89887 -5.89887
-0.161799 -5.87573 -5.87573
-0.201164 -5.85188 -5.85188
-0.201408 -5.87537 -5.87537
-0.24128 -5.89852 -5.89852
-0.241771 -5.94552 -5.94552
-0.162499 -5.94624 -5.94624
-0.162034 -5.89923 -5.89923
-0.241527 -5.92202 -5.92202
-0.202127 -5.94588 -5.94588
-0.162267 -5.92273 -5.92273
-0.20165 -5.89887 -5.89887
-0.20189 -5.92237 -5.92237
-0.241771 -5.94552 -5.94552
-0.24225 -5.99254 -5.99254
-0.162956 -5.99326 -5.99326
-0.162499 -5.94624 -5.94624
-0.242012 -5.96903 -5.96903
-0.202594 -5.9929 -5.9929
-0.162728 -5.96975 -5.96975
-0.202127 -5.94588 -5.94588
-0.202362 -5.96939 -5.96939
-0.24225 -5.99254 -5.99254
-0.242717 -6.03957 -6.03957
-0.163405 -6.0403 -6.0403
-0.162956 -5.99326 -5.99326
-0.242485 -6.01606 -6.01606
-0.20305 -6.03994 -6.03994
-0.163181 -6.01678 -6.01678
-0.202594 -5.9929 -5.9929
-0.202823 -6.01642 -6.01642
-0.242717 -6.03957 -6.03957
-0.243172 -6.08662 -6.08662
-0.163848 -6.08735 -6.08735
-0.163405 -6.0403 -6.0403
-0.242946 -6.0631 -6.0631
-0.203496 -6.08699 -6.08699
-0.163627 -6.06382 -6.06382
-0.20305 -6.03994 -6.03994
-0.203274 -6.06346 -6.06346
-0.243172 -6.08662 -6.08662
-0.243614 -6.1337 -6.1337
-0.164289 -6.13439 -6.13439
-0.163848 -6.08735 -6.08735
-0.243394 -6.11016 -6.11016
-0.203936 -6.13405 -6.13405
-0.164068 -6.11087 -6.11087
-0.203496 -6.08699 -6.08699
-0.203716 -6.11052 -6.11052
-0.243614 -6.1337 -6.1337
-0.244065 -6.1808 -6.1808
-0.164735 -6.18141 -6.18141
-0.164289 -6.13439 -6.13439
-0.243836 -6.15726 -6.15726
-0.204388 -6.1811 -6.1811
-0.164511 -6.1579 -6.1579
-0.203936 -6.13405 -6.13405
-0.20416 -6.15758 -6.15758
0 0 0
-0.00106712 -0.000109152 -0.000109152
-0.000352046 5.70942e-05 5.70942e-05
0 0 0
-0.000517359 3.26897e-05 3.26897e-05
-0.000706937 -5.20933e-06 -5.20933e-06
-0.000175256 0.000114708 0.000114708
0 0 0
-0.000343179 8.68426e-05 8.68426e-05
-0.00106712 -0.000109152 -0.000109152
-0.00221576 -0.000827582 -0.000827582
-0.000733063 -0.000538837 -0.000538837
-0.000352046 5.70942e-05 5.70942e-05
-0.00163427 -0.000399413 -0.000399413
-0.00146765 -0.000643246 -0.000643246
-0.000539013 -0.000164416 -0.000164416
-0.000706937 -5.20933e-06 -5.20933e-06
-0.00108252 -0.000251361 -0.000251361
-0.00221576 -0.000827582 -0.000827582
-0.00341229 -0.00207073 -0.00207073
-0.00112779 -0.00170761 -0.00170761
-0.000733063 -0.000538837 -0.000538837
-0.00281037 -0.00138699 -0.00138699
-0.00226043 -0.00184116 -0.00184116
-0.000929358 -0.00105551 -0.00105551
-0.00146765 -0.000643246 -0.000643246
-0.00186122 -0.00117585 -0.00117585
-0.00341229 -0.00207073 -0.00207073
-0.00461874 -0.00379212 -0.00379212
-0.00153124 -0.00339703 -0.00339703
-0.00112779 -0.00170761 -0.00170761
-0.00401562 -0.00287295 -0.00287295
-0.00306524 -0.00354381 -0.00354381
-0.00132893 -0.0024896 -0.0024896
-0.00226043 -0.00184116 -0.00184116
-0.00266233 -0.00263154 -0.00263154
-0.00461874 -0.00379212 -0.00379212
-0.00582126 -0.00597913 -0.00597913
-0.00193431 -0.00557482 -0.00557482
-0.00153124 -0.00339703 -0.00339703
-0.00522101 -0.00482777 -0.00482777
-0.00386947 -0.00572615 -0.00572615
-0.00173306 -0.00442617 -0.00442617
-0.00306524 -0.00354381 -0.00354381
-0.0034679 -0.00457596 -0.00457596
-0.00582126 -0.00597913 -0.00597913
-0.00701287 -0.00862688 -0.00862688
-0.00233534 -0.00822452 -0.00822452
-0.00193431 -0.00557482 -0.00557482
-0.00641849 -0.00724551 -0.00724551
-0.00466738 -0.00837525 -0.00837525
-0.00213519 -0.00684134 -0.00684134
-0.00386947 -0.00572615 -0.00572615
-0.00426935 -0.00699278 -0.00699278
-0.00701287 -0.00862688 -0.00862688
-0.00819417 -0.0117346 -0.0117346
-0.00273261 -0.0113375 -0.0113375
-0.00233534 -0.00822452 -0.00822452
-0.00760475 -0.0101233 -0.0101233
-0.00545795 -0.0114862 -0.0114862
-0.00253444 -0.00972343 -0.00972343
-0.00466738 -0.00837525 -0.00837525
-0.00506356 -0.00987319 -0.00987319
-0.00819417 -0.0117346 -0.0117346
-0.00936595 -0.0153005 -0.0153005
-0.00312678 -0.0149094 -0.0149094
-0.00273261 -0.0113375 -0.0113375
-0.00878116 -0.0134604 -0.0134604
-0.00624179 -0.0150556 -0.0150556
-0.00293005 -0.0130663 -0.0130663
-0.00545795 -0.0114862 -0.0114862
-0.00585064 -0.0132137 -0.0132137
-0.00936595 -0.0153005 -0.0153005
-0.0105298 -0.0193233 -0.0193233
-0.00351821 -0.0189376 -0.0189376
-0.00312678 -0.0149094 -0.0149094
-0.00994879 -0.0172549 -0.0172549
-0.00701995 -0.0190815 -0.0190815
-0.0033228 -0.0168666 -0.0168666
-0.00624179 -0.0150556 -0.0150556
-0.00663151 -0.0170116 -0.0170116
-0.0105298 -0.0193233 -0.0193233
-0.0116867 -0.0238007 -0.0238007
-0.00390754 -0.0234199 -0.0234199
-0.00351821 -0.0189376 -0.0189376
-0.0111091 -0.0215053 -0.0215053
-0.00779336 -0.0235617 -0.0235617
-0.0037131 -0.0211221 -0.0211221
-0.00701995 -0.0190815 -0.0190815
-0.0074072 -0.021265 -0.021265
-0.0116867 -0.0238007 -0.0238007
-0.0128374 -0.0287306 -0.0287306
-0.00429513 -0.0283543 -0.0283543
-0.00390754 -0.0234199 -0.0234199
-0.0122628 -0.0262092 -0.0262092
-0.00856267 -0.0284942 -0.0284942
-0.00410153 -0.0258307 -0.0258307
-0.00779336 -0.0235617 -0.0235617
-0.00817849 -0.0259716 -0.0259716
-0.0128374 -0.0287306 -0.0287306
-0.0139824 -0.0341108 -0.0341108
-0.00468132 -0.0337386 -0.0337386
-0.00429513 -0.0283543 -0.0283543
-0.0134106 -0.0313646 -0.0313646
-0.00932835 -0.0338767 -0.0338767
-0.00448839 -0.0309903 -0.0309903
-0.00856267 -0.0284942 -0.0284942
-0.00894595 -0.0311293 -0.0311293
-0.0139824 -0.0341108 -0.0341108
-0.0151221 -0.0399387 -0.0399387
-0.0050663 -0.0395706 -0.0395706
-0.00468132 -0.0337386 -0.0337386
-0.0145529 -0.0369689 -0.0369689
-0.0100907 -0.0397069 -0.0397069
-0.00487395 -0.0365987 -0.0365987
-0.00932835 -0.0338767 -0.0338767
-0.00970992 -0.036736 -0.036736
-0.0151221 -0.0399387 -0.0399387
-0.0162565 -0.0462121 -0.0462121
-0.00545021 -0.045848 -0.045848
-0.0050663 -0.0395706 -0.0395706
-0.0156899 -0.0430199 -0.0430199
-0.0108499 -0.0459826 -0.0459826
-0.00525838 -0.0426537 -0.0426537
-0.0100907 -0.0397069 -0.0397069
-0.0104707 -0.0427893 -0.0427893
-0.0162565 -0.0462121 -0.0462121
-0.0173859 -0.0529285 -0.0529285
-0.00583317 -0.0525684 -0.0525684
-0.00545021 -0.045848 -0.045848
-0.0168218 -0.0495151 -0.0495151
-0.011606 -0.0527013 -0.0527013
-0.0056418 -0.049153 -0.049153
-0.0108499 -0.0459826 -0.0459826
-0.0112283 -0.0492867 -0.0492867
-0.0173859 -0.0529285 -0.0529285
-0.0185103 -0.0600855 -0.0600855
-0.00621526 -0.0597296 -0.0597296
-0.00583317 -0.0525684 -0.0525684
-0.0179487 -0.0564521 -0.0564521
-0.0123593 -0.0598607 -0.0598607
-0.00602432 -0.0560941 -0.0560941
-0.011606 -0.0527013 -0.0527013
-0.011983 -0.0562261 -0.0562261
-0.0185103 -0.0600855 -0.0600855
-0.0196298 -0.0676807 -0.0676807
-0.00659656 -0.067329 -0.067329
-0.00621526 -0.0597296 -0.0597296
-0.0190706 -0.0638285 -0.0638285
-0.0131097 -0.0674582 -0.0674582
-0.006406 -0.0634747 -0.0634747
-0.0123593 -0.0598607 -0.0598607
-0.0127348 -0.0636048 -0.0636048
-0.0196298 -0.0676807 -0.0676807
-0.0207445 -0.0757116 -0.0757116
-0.00697714 -0.0753643 -0.0753643
-0.00659656 -0.067329 -0.067329
-0.0201877 -0.0716418 -0.0716418
-0.0138573 -0.0754916 -0.0754916
-0.00678694 -0.0712924 -0.0712924
-0.0131097 -0.0674582 -0.0674582
-0.0134838 -0.0714206 -0.0714206
-0.0207445 -0.0757116 -0.0757116
-0.0218544 -0.0841759 -0.0841759
-0.00735708 -0.0838331 -0.0838331
-0.00697714 -0.0753643 -0.0753643
-0.0213 -0.0798898 -0.0798898
-0.0146022 -0.0839584 -0.0839584
-0.00716719 -0.0795447 -0.0795447
-0.0138573 -0.0754916 -0.0754916
-0.0142301 -0.079671 -0.079671
-0.0218544 -0.0841759 -0.0841759
-0.0229597 -0.0930712 -0.0930712
-0.00773643 -0.0927329 -0.0927329
-0.00735708 -0.0838331 -0.0838331
-0.0224077 -0.0885698 -0.0885698
-0.0153446 -0.0928562 -0.0928562
-0.00754682 -0.0882293 -0.0882293
-0.0146022 -0.0839584 -0.0839584
-0.0149737 -0.0883536 -0.0883536
-0.0229597 -0.0930712 -0.0930712
-0.0240604 -0.102395 -0.102395
-0.00811526 -0.102061 -0.102061
-0.00773643 -0.0927329 -0.0927329
-0.0235106 -0.0976796 -0.0976796
-0.0160843 -0.102183 -0.102183
-0.00792591 -0.0973437 -0.0973437
-0.0153446 -0.0928562 -0.0928562
-0.0157147 -0.0974659 -0.0974659
-0.0240604 -0.102395 -0.102395
-0.0251565 -0.112145 -0.112145
-0.00849364 -0.111816 -0.111816
-0.00811526 -0.102061 -0.102061
-0.024609 -0.107217 -0.107217
-0.0168216 -0.111935 -0.111935
-0.0083045 -0.106886 -0.106886
-0.0160843 -0.102183 -0.102183
-0.0164532 -0.107006 -0.107006
-0.0251565 -0.112145 -0.112145
-0.0262482 -0.122318 -0.122318
-0.00887162 -0.121994 -0.121994
-0.00849364 -0.111816 -0.111816
-0.0257029 -0.117179 -0.117179
-0.0175564 -0.122111 -0.122111
-0.00868267 -0.116852 -0.116852
-0.0168216 -0.111935 -0.111935
-0.0171893 -0.11697 -0.11697
-0.0262482 -0.122318 -0.122318
-0.0273354 -0.132913 -0.132913
-0.00924926 -0.132594 -0.132594
-0.00887162 -0.121994 -0.121994
-0.0267923 -0.127563 -0.127563
-0.0182888 -0.132709 -0.132709
-0.00906048 -0.127242 -0.127242
-0.0175564 -0.122111 -0.122111
-0.0179229 -0.127357 -0.127357
-0.0273354 -0.132913 -0.132913
-0.0284183 -0.143927 -0.143927
-0.00962663 -0.143613 -0.143613
-0.00924926 -0.132594 -0.132594
-0.0278774 -0.138368 -0.138368
-0.0190189 -0.143725 -0.143725
-0.00943798 -0.138051 -0.138051
-0.0182888 -0.132709 -0.132709
-0.0186541 -0.138165 -0.138165
-0.0284183 -0.143927 -0.143927
-0.0294968 -0.155357 -0.155357
-0.0100038 -0.155048 -0.155048
-0.00962663 -0.143613 -0.143613
-0.0289581 -0.14959 -0.14959
-0.0197467 -0.155158 -0.155158
-0.00981523 -0.149278 -0.149278
-0.0190189 -0.143725 -0.143725
-0.0193831 -0.14939 -0.14939
-0.0294968 -0.155357 -0.155357
-0.0305711 -0.167201 -0.167201
-0.0103808 -0.166897 -0.166897
-0.0100038 -0.155048 -0.155048
-0.0300345 -0.161227 -0.161227
-0.0204724 -0.167005 -0.167005
-0.0101923 -0.160921 -0.160921
-0.0197467 -0.155158 -0.155158
-0.0201098 -0.16103 -0.16103
-0.0305711 -0.167201 -0.167201
-0.0316412 -0.179456 -0.179456
-0.0107577 -0.179158 -0.179158
-0.0103808 -0.166897 -0.166897
-0.0311067 -0.173277 -0.173277
-0.0211959 -0.179263 -0.179263
-0.0105692 -0.172976 -0.172976
-0.0204724 -0.167005 -0.167005
-0.0208344 -0.173083 -0.173083
-0.0316412 -0.179456 -0.179456
-0.0327072 -0.192121 -0.192121
-0.0111345 -0.191828 -0.191828
-0.0107577 -0.179158 -0.179158
-0.0321747 -0.185737 -0.185737
-0.0219173 -0.191931 -0.191931
-0.0109461 -0.185442 -0.185442
-0.0211959 -0.179263 -0.179263
-0.0215568 -0.185546 -0.185546
-0.0327072 -0.192121 -0.192121
-0.033769 -0.205192 -0.205192
-0.0115114 -0.204905 -0.204905
-0.0111345 -0.191828 -0.191828
-0.0332386 -0.198606 -0.198606
-0.0226366 -0.205006 -0.205006
-0.0113229 -0.198316 -0.198316
-0.0219173 -0.191931 -0.191931
-0.0222772 -0.198418 -0.198418
-0.033769 -0.205192 -0.205192
-0.0348269 -0.218668 -0.218668
-0.0118883 -0.218387 -0.218387
-0.0115114 -0.204905 -0.204905
-0.0342984 -0.21188 -0.21188
-0.023354 -0.218484 -0.218484
-0.0116998 -0.211596 -0.211596
-0.0226366 -0.205006 -0.205006
-0.0229955 -0.211695 -0.211695
-0.0348269 -0.218668 -0.218668
-0.0358807 -0.232546 -0.232546
-0.0122653 -0.23227 -0.23227
-0.0118883 -0.218387 -0.218387
-0.0353543 -0.225557 -0.225557
-0.0240694 -0.232365 -0.232365
-0.0120767 -0.225278 -0.225278
-0.023354 -0.218484 -0.218484
-0.0237119 -0.225375 -0.225375
-0.0358807 -0.232546 -0.232546
-0.0369306 -0.246823 -0.246823
-0.0126424 -0.246553 -0.246553
-0.0122653 -0.23227 -0.23227
-0.0364062 -0.239634 -0.239634
-0.0247829 -0.246645 -0.246645
-0.0124538 -0.239362 -0.239362
-0.0240694 -0.232365 -0.232365
-0.0244264 -0.239456 -0.239456
-0.0369306 -0.246823 -0.246823
-0.0379767 -0.261497 -0.261497
-0.0130198 -0.261233 -0.261233
-0.0126424 -0.246553 -0.246553
-0.0374541 -0.25411 -0.25411
-0.0254946 -0.261323 -0.261323
-0.0128311 -0.253844 -0.253844
-0.0247829 -0.246645 -0.246645
-0.025139 -0.253935 -0.253935
-0.0379767 -0.261497 -0.261497
-0.0390189 -0.276566 -0.276566
-0.0133974 -0.276308 -0.276308
-0.0130198 -0.261233 -0.261233
-0.0384983 -0.268982 -0.268982
-0.0262045 -0.276395 -0.276395
-0.0132086 -0.268721 -0.268721
-0.0254946 -0.261323 -0.261323
-0.0258498 -0.26881 -0.26881
-0.0390189 -0.276566 -0.276566
-0.0400573 -0.292027 -0.292027
-0.0137754 -0.291775 -0.291775
-0.0133974 -0.276308 -0.276308
-0.0395386 -0.284247 -0.284247
-0.0269127 -0.291859 -0.291859
-0.0135864 -0.283993 -0.283993
-0.0262045 -0.276395 -0.276395
-0.0265588 -0.284078 -0.284078
-0.0400573 -0.292027 -0.292027
-0.041092 -0.307878 -0.307878
-0.0141537 -0.307632 -0.307632
-0.0137754 -0.291775 -0.291775
-0.0405751 -0.299904 -0.299904
-0.0276192 -0.307713 -0.307713
-0.0139645 -0.299655 -0.299655
-0.0269127 -0.291859 -0.291859
-0.0272662 -0.299738 -0.299738
-0.041092 -0.307878 -0.307878
-0.0421229 -0.324116 -0.324116
-0.0145323 -0.323876 -0.323876
-0.0141537 -0.307632 -0.307632
-0.0416079 -0.315949 -0.315949
-0.028324 -0.323955 -0.323955
-0.0143429 -0.315706 -0.315706
-0.0276192 -0.307713 -0.307713
-0.0279718 -0.315786 -0.315786
-0.0421229 -0.324116 -0.324116
-0.0431502 -0.340739 -0.340739
-0.0149114 -0.340506 -0.340506
-0.0145323 -0.323876 -0.323876
-0.042637 -0.33238 -0.33238
-0.0290272 -0.340582 -0.340582
-0.0147218 -0.332143 -0.332143
-0.028324 -0.323955 -0.323955
-0.0286758 -0.33222 -0.33222
-0.0431502 -0.340739 -0.340739
-0.0441739 -0.357745 -0.357745
-0.015291 -0.357518 -0.357518
-0.0149114 -0.340506 -0.340506
-0.0436625 -0.349194 -0.349194
-0.0297288 -0.357591 -0.357591
-0.0151012 -0.348964 -0.348964
-0.0290272 -0.340582 -0.340582
-0.0293782 -0.349038 -0.349038
-0.0441739 -0.357745 -0.357745
-0.0451941 -0.375131 -0.375131
-0.0156711 -0.37491 -0.37491
-0.015291 -0.357518 -0.357518
-0.0446844 -0.36639 -0.36639
-0.030429 -0.37498 -0.37498
-0.015481 -0.366167 -0.366167
-0.0297288 -0.357591 -0.357591
-0.0300791 -0.366238 -0.366238
-0.0451941 -0.375131 -0.375131
-0.0462107 -0.392894 -0.392894
-0.0160518 -0.39268 -0.39268
-0.0156711 -0.37491 -0.37491
-0.0457028 -0.383965 -0.383965
-0.0311276 -0.392747 -0.392747
-0.0158614 -0.383748 -0.383748
-0.030429 -0.37498 -0.37498
-0.0307785 -0.383816 -0.383816
-0.0462107 -0.392894 -0.392894
-0.0472238 -0.411033 -0.411033
-0.0164331 -0.410826 -0.410826
-0.0160518 -0.39268 -0.39268
-0.0467176 -0.401917 -0.401917
-0.0318248 -0.410889 -0.410889
-0.0162423 -0.401706 -0.401706
-0.0311276 -0.392747 -0.392747
-0.0314763 -0.401771 -0.401771
-0.0472238 -0.411033 -0.411033
-0.0482334 -0.429545 -0.429545
-0.016815 -0.429344 -0.429344
-0.0164331 -0.410826 -0.410826
-0.047729 -0.420242 -0.420242
-0.0325205 -0.429405 -0.429405
-0.0166239 -0.420038 -0.420038
-0.0318248 -0.410889 -0.410889
-0.0321728 -0.420101 -0.420101
-0.0482334 -0.429545 -0.429545
-0.0492396 -0.448427 -0.448427
-0.0171975 -0.448233 -0.448233
-0.016815 -0.429344 -0.429344
-0.0487369 -0.43894 -0.43894
-0.0332149 -0.44829 -0.44829
-0.0170062 -0.438742 -0.438742
-0.0325205 -0.429405 -0.429405
-0.0328679 -0.438801 -0.438801
-0.0492396 -0.448427 -0.448427
-0.0502425 -0.467677 -0.467677
-0.0175808 -0.46749 -0.46749
-0.0171975 -0.448233 -0.448233
-0.0497415 -0.458006 -0.458006
-0.033908 -0.467544 -0.467544
-0.0173891 -0.457815 -0.457815
-0.0332149 -0.44829 -0.44829
-0.0335616 -0.457871 -0.457871
-0.0502425 -0.467677 -0.467677
-0.051242 -0.487293 -0.487293
-0.0179648 -0.487112 -0.487112
-0.0175808 -0.46749 -0.46749
-0.0507426 -0.477439 -0.477439
-0.0345997 -0.487164 -0.487164
-0.0177727 -0.477255 -0.477255
-0.033908 -0.467544 -0.467544
-0.034254 -0.477308 -0.477308
-0.051242 -0.487293 -0.487293
-0.0522381 -0.507272 -0.507272
-0.0183496 -0.507098 -0.507098
-0.0179648 -0.487112 -0.487112
-0.0517405 -0.497237 -0.497237
-0.0352902 -0.507146 -0.507146
-0.0181571 -0.49706 -0.49706
-0.0345997 -0.487164 -0.487164
-0.0349451 -0.49711 -0.49711
-0.0522381 -0.507272 -0.507272
-0.053231 -0.527611 -0.527611
-0.0187352 -0.527444 -0.527444
-0.0183496 -0.507098 -0.507098
-0.052735 -0.517396 -0.517396
-0.0359795 -0.527489 -0.527489
-0.0185423 -0.517226 -0.517226
-0.0352902 -0.507146 -0.507146
-0.035635 -0.517273 -0.517273
-0.053231 -0.527611 -0.527611
-0.0542207 -0.548309 -0.548309
-0.0191217 -0.548149 -0.548149
-0.0187352 -0.527444 -0.527444
-0.0537263 -0.537916 -0.537916
-0.0366675 -0.548191 -0.548191
-0.0189283 -0.537752 -0.537752
-0.0359795 -0.527489 -0.527489
-0.0363236 -0.537796 -0.537796
-0.0542207 -0.548309 -0.548309
-0.0552071 -0.569363 -0.569363
-0.019509 -0.56921 -0.56921
-0.0191217 -0.548149 -0.548149
-0.0547143 -0.558792 -0.558792
-0.0373544 -0.569249 -0.569249
-0.0193152 -0.558636 -0.558636
-0.0366675 -0.548191 -0.548191
-0.0370111 -0.558676 -0.558676
-0.0552071 -0.569363 -0.569363
-0.0561904 -0.590771 -0.590771
-0.0198972 -0.590625 -0.590625
-0.019509 -0.56921 -0.56921
-0.0556991 -0.580023 -0.580023
-0.0380401 -0.59066 -0.59066
-0.019703 -0.579874 -0.579874
-0.0373544 -0.569249 -0.569249
-0.0376974 -0.579911 -0.579911
-0.0561904 -0.590771 -0.590771
-0.0571704 -0.612529 -0.612529
-0.0202864 -0.61239 -0.61239
-0.0198972 -0.590625 -0.590625
-0.0566808 -0.601606 -0.601606
-0.0387247 -0.612423 -0.612423
-0.0200917 -0.601464 -0.601464
-0.0380401 -0.59066 -0.59066
-0.0383826 -0.601498 -0.601498
-0.0571704 -0.612529 -0.612529
-0.0581474 -0.634636 -0.634636
-0.0206765 -0.634505 -0.634505
-0.0202864 -0.61239 -0.61239
-0.0576593 -0.623539 -0.623539
-0.0394083 -0.634534 -0.634534
-0.0204813 -0.623404 -0.623404
-0.0387247 -0.612423 -0.612423
-0.0390666 -0.623435 -0.623435
-0.0581474 -0.634636 -0.634636
-0.0591212 -0.65709 -0.65709
-0.0210676 -0.656965 -0.656965
-0.0206765 -0.634505 -0.634505
-0.0586347 -0.64582 -0.64582
-0.0400907 -0.656991 -0.656991
-0.0208719 -0.645692 -0.645692
-0.0394083 -0.634534 -0.634534
-0.0397496 -0.645719 -0.645719
-0.0591212 -0.65709 -0.65709
-0.060092 -0.679887 -0.679887
-0.0214597 -0.67977 -0.67977
-0.0210676 -0.656965 -0.656965
-0.059607 -0.668446 -0.668446
-0.0407721 -0.679792 -0.679792
-0.0212635 -0.668325 -0.668325
-0.0400907 -0.656991 -0.656991
-0.0404316 -0.668349 -0.668349
-0.060092 -0.679887 -0.679887
-0.0610597 -0.703026 -0.703026
-0.0218528 -0.702916 -0.702916
-0.0214597 -0.67977 -0.67977
-0.0605762 -0.691414 -0.691414
-0.0414526 -0.702934 -0.702934
-0.0216561 -0.6913 -0.6913
-0.0407721 -0.679792 -0.679792
-0.0411125 -0.691321 -0.691321
-0.0610597 -0.703026 -0.703026
-0.0620243 -0.726503 -0.726503
-0.022247 -0.726401 -0.726401
-0.0218528 -0.702916 -0.702916
-0.0615424 -0.714722 -0.714722
-0.042132 -0.726416 -0.726416
-0.0220498 -0.714616 -0.714616
-0.0414526 -0.702934 -0.702934
-0.0417924 -0.714633 -0.714633
-0.0620243 -0.726503 -0.726503
-0.062986 -0.750317 -0.750317
-0.0226423 -0.750222 -0.750222
-0.022247 -0.726401 -0.726401
-0.0625056 -0.738368 -0.738368
-0.0428105 -0.750234 -0.750234
-0.0224445 -0.73827 -0.73827
-0.042132 -0.726416 -0.726416
-0.0424713 -0.738283 -0.738283
-0.062986 -0.750317 -0.750317
-0.0639447 -0.774466 -0.774466
-0.0230387 -0.774378 -0.774378
-0.0226423 -0.750222 -0.750222
-0.0634657 -0.76235 -0.76235
-0.043488 -0.774386 -0.774386
-0.0228404 -0.762259 -0.762259
-0.0428105 -0.750234 -0.750234
-0.0431493 -0.762269 -0.762269
-0.0639447 -0.774466 -0.774466
-0.0649004 -0.798946 -0.798946
-0.0234362 -0.798866 -0.798866
-0.0230387 -0.774378 -0.774378
-0.0644229 -0.786665 -0.786665
-0.0441646 -0.798871 -0.798871
-0.0232373 -0.786581 -0.786581
-0.043488 -0.774386 -0.774386
-0.0438264 -0.786587 -0.786587
-0.0649004 -0.798946 -0.798946
-0.0658531 -0.823755 -0.823755
-0.0238348 -0.823682 -0.823682
-0.0234362 -0.798866 -0.798866
-0.0653771 -0.81131 -0.81131
-0.0448403 -0.823684 -0.823684
-0.0236354 -0.811233 -0.811233
-0.0441646 -0.798871 -0.798871
-0.0445025 -0.811236 -0.811236
-0.0658531 -0.823755 -0.823755
-0.0668029 -0.848891 -0.848891
-0.0242346 -0.848826 -0.848826
-0.0238348 -0.823682 -0.823682
-0.0663284 -0.836283 -0.836283
-0.0455151 -0.848824 -0.848824
-0.0240346 -0.836214 -0.836214
-0.0448403 -0.823684 -0.823684
-0.0451778 -0.836213 -0.836213
-0.0668029 -0.848891 -0.848891
-0.0677499 -0.874352 -0.874352
-0.0246356 -0.874294 -0.874294
-0.0242346 -0.848826 -0.848826
-0.0672768 -0.861581 -0.861581
-0.046189 -0.874289 -0.874289
-0.024435 -0.86152 -0.86152
-0.0455151 -0.848824 -0.848824
-0.0458522 -0.861516 -0.861516
-0.0677499 -0.874352 -0.874352
-0.0686939 -0.900135 -0.900135
-0.0250378 -0.900085 -0.900085
-0.0246356 -0.874294 -0.874294
-0.0682222 -0.887203 -0.887203
-0.0468621 -0.900076 -0.900076
-0.0248366 -0.887149 -0.887149
-0.046189 -0.874289 -0.874289
-0.0465257 -0.887142 -0.887142
-0.0686939 -0.900135 -0.900135
-0.069635 -0.926237 -0.926237
-0.0254412 -0.926195 -0.926195
-0.0250378 -0.900085 -0.900085
-0.0691648 -0.913146 -0.913146
-0.0475344 -0.926182 -0.926182
-0.0252393 -0.9131 -0.9131
-0.0468621 -0.900076 -0.900076
-0.0471984 -0.913089 -0.913089
-0.069635 -0.926237 -0.926237
-0.0705733 -0.952657 -0.952657
-0.0258458 -0.952622 -0.952622
-0.0254412 -0.926195 -0.926195
-0.0701045 -0.939408 -0.939408
-0.0482058 -0.952606 -0.952606
-0.0256434 -0.939369 -0.939369
-0.0475344 -0.926182 -0.926182
-0.0478702 -0.939354 -0.939354
-0.0705733 -0.952657 -0.952657
-0.0715087 -0.979391 -0.979391
-0.0262517 -0.979364 -0.979364
-0.0258458 -0.952622 -0.952622
-0.0710413 -0.965985 -0.965985
-0.0488765 -0.979344 -0.979344
-0.0260486 -0.965954 -0.965954
-0.0482058 -0.952606 -0.952606
-0.0485413 -0.965936 -0.965936
-0.0715087 -0.979391 -0.979391
-0.0724413 -1.00644 -1.00644
-0.0266588 -1.00642 -1.00642
-0.0262517 -0.979364 -0.979364
-0.0719754 -0.992876 -0.992876
-0.0495463 -1.00639 -1.00639
-0.0264551 -0.992852 -0.992852
-0.0488765 -0.979344 -0.979344
-0.0492115 -0.992831 -0.992831
-0.0724413 -1.00644 -1.00644
-0.0733711 -1.03379 -1.03379
-0.0270672 -1.03378 -1.03378
-0.0266588 -1.00642 -1.00642
-0.0729065 -1.02008 -1.02008
-0.0502154 -1.03376 -1.03376
-0.0268628 -1.02006 -1.02006
-0.0495463 -1.00639 -1.00639
-0.049881 -1.02004 -1.02004
-0.0733711 -1.03379 -1.03379
-0.074298 -1.06146 -1.06146
-0.0274769 -1.06145 -1.06145
-0.0270672 -1.03378 -1.03378
-0.0738349 -1.04759 -1.04759
-0.0508837 -1.06142 -1.06142
-0.0272719 -1.04758 -1.04758
-0.0502154 -1.03376 -1.03376
-0.0505497 -1.04755 -1.04755
-0.074298 -1.06146 -1.06146
-0.0752222 -1.08943 -1.08943
-0.0278878 -1.08943 -1.08943
-0.0274769 -1.06145 -1.06145
-0.0747604 -1.07541 -1.07541
-0.0515513 -1.0894 -1.0894
-0.0276822 -1.0754 -1.0754
-0.0508837 -1.06142 -1.06142
-0.0512176 -1.07537 -1.07537
-0.0752222 -1.08943 -1.08943
-0.0761435 -1.1177 -1.1177
-0.0283001 -1.11771 -1.11771
-0.0278878 -1.08943 -1.08943
-0.0756832 -1.10353 -1.10353
-0.0522181 -1.11767 -1.11767
-0.0280938 -1.10353 -1.10353
-0.0515513 -1.0894 -1.0894
-0.0518848 -1.1035 -1.1035
-0.0761435 -1.1177 -1.1177
-0.0770621 -1.14627 -1.14627
-0.0287136 -1.14629 -1.14629
-0.0283001 -1.11771 -1.11771
-0.0766032 -1.13195 -1.13195
-0.0528842 -1.14625 -1.14625
-0.0285067 -1.13196 -1.13196
-0.0522181 -1.11767 -1.11767
-0.0525512 -1.13192 -1.13192
-0.0770621 -1.14627 -1.14627
-0.0779779 -1.17514 -1.17514
-0.0291285 -1.17517 -1.17517
-0.0287136 -1.14629 -1.14629
-0.0775204 -1.16067 -1.16067
-0.0535495 -1.17512 -1.17512
-0.0289209 -1.16069 -1.16069
-0.0528842 -1.14625 -1.14625
-0.0532169 -1.16065 -1.16065
-0.0779779 -1.17514 -1.17514
-0.0788909 -1.20431 -1.20431
-0.0295447 -1.20434 -1.20434
-0.0291285 -1.17517 -1.17517
-0.0784348 -1.18969 -1.18969
-0.0542141 -1.20429 -1.20429
-0.0293365 -1.18972 -1.18972
-0.0535495 -1.17512 -1.17512
-0.0538819 -1.18967 -1.18967
-0.0788909 -1.20431 -1.20431
-0.0798012 -1.23377 -1.23377
-0.0299623 -1.23381 -1.23381
-0.0295447 -1.20434 -1.20434
-0.0793464 -1.219 -1.219
-0.054878 -1.23376 -1.23376
-0.0297533 -1.21904 -1.21904
-0.0542141 -1.20429 -1.20429
-0.0545462 -1.21899 -1.21899
-0.0798012 -1.23377 -1.23377
-0.0807087 -1.26352 -1.26352
-0.0303811 -1.26357 -1.26357
-0.0299623 -1.23381 -1.23381
-0.0802553 -1.2486 -1.2486
-0.0555412 -1.26351 -1.26351
-0.0301715 -1.24865 -1.24865
-0.054878 -1.23376 -1.23376
-0.0552097 -1.2486 -1.2486
-0.0807087 -1.26352 -1.26352
-0.0816135 -1.29355 -1.29355
-0.0308013 -1.29361 -1.29361
-0.0303811 -1.26357 -1.26357
-0.0811615 -1.2785 -1.2785
-0.0562037 -1.29355 -1.29355
-0.0305911 -1.27855 -1.27855
-0.0555412 -1.26351 -1.26351
-0.0558725 -1.27849 -1.27849
-0.0816135 -1.29355 -1.29355
-0.0825155 -1.32388 -1.32388
-0.0312229 -1.32394 -1.32394
-0.0308013 -1.29361 -1.29361
-0.0820649 -1.30868 -1.30868
-0.0568655 -1.32388 -1.32388
-0.0310119 -1.30874 -1.30874
-0.0562037 -1.29355 -1.29355
-0.0565347 -1.30868 -1.30868
-0.0825155 -1.32388 -1.32388
-0.0834148 -1.35448 -1.35448
-0.0316458 -1.35456 -1.35456
-0.0312229 -1.32394 -1.32394
-0.0829655 -1.33914 -1.33914
-0.0575266 -1.35449 -1.35449
-0.0314342 -1.33921 -1.33921
-0.0568655 -1.32388 -1.32388
-0.0571961 -1.33915 -1.33915
-0.0834148 -1.35448 -1.35448
-0.0843114 -1.38537 -1.38537
-0.03207 -1.38545 -1.38545
-0.0316458 -1.35456 -1.35456
-0.0838634 -1.36989 -1.36989
-0.058187 -1.38538 -1.38538
-0.0318577 -1.36997 -1.36997
-0.0575266 -1.35449 -1.35449
-0.0578569 -1.3699 -1.3699
-0.0843114 -1.38537 -1.38537
-0.0852052 -1.41654 -1.41654
-0.0324956 -1.41662 -1.41662
-0.03207 -1.38545 -1.38545
-0.0847586 -1.40092 -1.40092
-0.0588467 -1.41655 -1.41655
-0.0322827 -1.401 -1.401
-0.058187 -1.38538 -1.38538
-0.0585169 -1.40093 -1.40093
-0.0852052 -1.41654 -1.41654
-0.0860962 -1.44798 -1.44798
-0.0329226 -1.44807 -1.44807
-0.0324956 -1.41662 -1.41662
-0.085651 -1.43222 -1.43222
-0.0595057 -1.448 -1.448
-0.032709 -1.43231 -1.43231
-0.0588467 -1.41655 -1.41655
-0.0591763 -1.43224 -1.43224
-0.0860962 -1.44798 -1.44798
-0.0869845 -1.47969 -1.47969
-0.0333509 -1.4798 -1.4798
-0.0329226 -1.44807 -1.44807
-0.0865407 -1.4638 -1.4638
-0.060164 -1.47972 -1.47972
-0.0331366 -1.4639 -1.4639
-0.0595057 -1.448 -1.448
-0.0598349 -1.46382 -1.46382
-0.0869845 -1.47969 -1.47969
-0.0878701 -1.51168 -1.51168
-0.0337806 -1.51179 -1.51179
-0.0333509 -1.4798 -1.4798
-0.0874277 -1.49565 -1.49565
-0.0608216 -1.51171 -1.51171
-0.0335656 -1.49576 -1.49576
-0.060164 -1.47972 -1.47972
-0.0604929 -1.49568 -1.49568
-0.0878701 -1.51168 -1.51168
-0.088753 -1.54393 -1.54393
-0.0342116 -1.54405 -1.54405
-0.0337806 -1.51179 -1.51179
-0.0883119 -1.52777 -1.52777
-0.0614785 -1.54397 -1.54397
-0.0339959 -1.52789 -1.52789
-0.0608216 -1.51171 -1.51171
-0.0611502 -1.5278 -1.5278
-0.088753 -1.54393 -1.54393
-0.0896331 -1.57646 -1.57646
-0.0346439 -1.57658 -1.57658
-0.0342116 -1.54405 -1.54405
-0.0891934 -1.56016 -1.56016
-0.0621348 -1.57649 -1.57649
-0.0344276 -1.56029 -1.56029
-0.0614785 -1.54397 -1.54397
-0.0618067 -1.5602 -1.5602
-0.0896331 -1.57646 -1.57646
-0.0905104 -1.60924 -1.60924
-0.0350776 -1.60938 -1.60938
-0.0346439 -1.57658 -1.57658
-0.0900721 -1.59282 -1.59282
-0.0627903 -1.60928 -1.60928
-0.0348606 -1.59295 -1.59295
-0.0621348 -1.57649 -1.57649
-0.0624626 -1.59285 -1.59285
-0.0905104 -1.60924 -1.60924
-0.091385 -1.64229 -1.64229
-0.0355126 -1.64243 -1.64243
-0.0350776 -1.60938 -1.60938
-0.090948 -1.62573 -1.62573
-0.0634451 -1.64233 -1.64233
-0.035295 -1.62587 -1.62587
-0.0627903 -1.60928 -1.60928
-0.0631178 -1.62578 -1.62578
-0.091385 -1.64229 -1.64229
-0.0922568 -1.6756 -1.6756
-0.035949 -1.67575 -1.67575
-0.0355126 -1.64243 -1.64243
-0.0918213 -1.65891 -1.65891
-0.0640992 -1.67564 -1.67564
-0.0357307 -1.65906 -1.65906
-0.0634451 -1.64233 -1.64233
-0.0637722 -1.65896 -1.65896
-0.0922568 -1.6756 -1.6756
-0.0931259 -1.70916 -1.70916
-0.0363867 -1.70932 -1.70932
-0.035949 -1.67575 -1.67575
-0.0926917 -1.69235 -1.69235
-0.0647526 -1.70921 -1.70921
-0.0361677 -1.6925 -1.6925
-0.0640992 -1.67564 -1.67564
-0.064426 -1.6924 -1.6924
-0.0931259 -1.70916 -1.70916
-0.0939922 -1.74298 -1.74298
-0.0368257 -1.74314 -1.74314
-0.0363867 -1.70932 -1.70932
-0.0935594 -1.72604 -1.72604
-0.0654053 -1.74303 -1.74303
-0.036606 -1.7262 -1.7262
-0.0647526 -1.70921 -1.70921
-0.065079 -1.72609 -1.72609
-0.0939922 -1.74298 -1.74298
-0.0948558 -1.77705 -1.77705
-0.0372661 -1.77722 -1.77722
-0.0368257 -1.74314 -1.74314
-0.0944243 -1.75998 -1.75998
-0.0660572 -1.77711 -1.77711
-0.0370457 -1.76015 -1.76015
-0.0654053 -1.74303 -1.74303
-0.0657313 -1.76004 -1.76004
-0.0948558 -1.77705 -1.77705
-0.0957165 -1.81136 -1.81136
-0.0377077 -1.81155 -1.81155
-0.0372661 -1.77722 -1.77722
-0.0952865 -1.79417 -1.79417
-0.0667084 -1.81143 -1.81143
-0.0374867 -1.79435 -1.79435
-0.0660572 -1.77711 -1.77711
-0.0663829 -1.79424 -1.79424
-0.0957165 -1.81136 -1.81136
-0.0965745 -1.84593 -1.84593
-0.0381506 -1.84612 -1.84612
-0.0377077 -1.81155 -1.81155
-0.0961459 -1.82862 -1.82862
-0.0673588 -1.846 -1.846
-0.037929 -1.8288 -1.8288
-0.0667084 -1.81143 -1.81143
-0.0670337 -1.82868 -1.82868
-0.0965745 -1.84593 -1.84593
-0.0974296 -1.88074 -1.88074
-0.0385949 -1.88094 -1.88094
-0.0381506 -1.84612 -1.84612
-0.0970024 -1.86331 -1.86331
-0.0680085 -1.88081 -1.88081
-0.0383726 -1.8635 -1.8635
-0.0673588 -1.846 -1.846
-0.0676838 -1.86338 -1.86338
-0.0974296 -1.88074 -1.88074
-0.098282 -1.91579 -1.91579
-0.0390404 -1.916 -1.916
-0.0385949 -1.88094 -1.88094
-0.0978562 -1.89824 -1.89824
-0.0686575 -1.91587 -1.91587
-0.0388175 -1.89844 -1.89844
-0.0680085 -1.88081 -1.88081
-0.0683331 -1.89831 -1.89831
-0.098282 -1.91579 -1.91579
-0.0991315 -1.95109 -1.95109
-0.0394872 -1.9513 -1.9513
-0.0390404 -1.916 -1.916
-0.0987071 -1.93341 -1.93341
-0.0693056 -1.95117 -1.95117
-0.0392636 -1.93362 -1.93362
-0.0686575 -1.91587 -1.91587
-0.0689817 -1.93349 -1.93349
-0.0991315 -1.95109 -1.95109
-0.0999782 -1.98662 -1.98662
-0.0399352 -1.98684 -1.98684
-0.0394872 -1.9513 -1.9513
-0.0995552 -1.96882 -1.96882
-0.069953 -1.9867 -1.9867
-0.039711 -1.96904 -1.96904
-0.0693056 -1.95117 -1.95117
-0.0696294 -1.9689 -1.9689
-0.0999782 -1.98662 -1.98662
-0.100822 -2.02238 -2.02238
-0.0403845 -2.02261 -2.02261
-0.0399352 -1.98684 -1.98684
-0.100401 -2.00447 -2.00447
-0.0705996 -2.02247 -2.02247
-0.0401597 -2.00469 -2.00469
-0.069953 -1.9867 -1.9867
-0.0702764 -2.00456 -2.00456
-0.100822 -2.02238 -2.02238
-0.101663 -2.05838 -2.05838
-0.040835 -2.05861 -2.05861
-0.0403845 -2.02261 -2.02261
-0.101243 -2.04035 -2.04035
-0.0712453 -2.05847 -2.05847
-0.0406096 -2.04058 -2.04058
-0.0705996 -2.02247 -2.02247
-0.0709226 -2.04044 -2.04044
-0.101663 -2.05838 -2.05838
-0.102501 -2.0946 -2.0946
-0.0412868 -2.09485 -2.09485
-0.040835 -2.05861 -2.05861
-0.102083 -2.07646 -2.07646
-0.0718903 -2.0947 -2.0947
-0.0410607 -2.0767 -2.0767
-0.0712453 -2.05847 -2.05847
-0.0715679 -2.07656 -2.07656
-0.102501 -2.0946 -2.0946
-0.103336 -2.13106 -2.13106
-0.0417397 -2.13131 -2.13131
-0.0412868 -2.09485 -2.09485
-0.102919 -2.1128 -2.1128
-0.0725344 -2.13116 -2.13116
-0.0415131 -2.11305 -2.11305
-0.0718903 -2.0947 -2.0947
-0.0722124 -2.1129 -2.1129
-0.103336 -2.13106 -2.13106
-0.104169 -2.16774 -2.16774
-0.0421939 -2.168 -2.168
-0.0417397 -2.13131 -2.13131
-0.103753 -2.14937 -2.14937
-0.0731776 -2.16784 -2.16784
-0.0419666 -2.14962 -2.14962
-0.0725344 -2.13116 -2.13116
-0.0728561 -2.14947 -2.14947
-0.104169 -2.16774 -2.16774
-0.104998 -2.20464 -2.20464
-0.0426492 -2.20491 -2.20491
-0.0421939 -2.168 -2.168
-0.104584 -2.18616 -2.18616
-0.07382 -2.20475 -2.20475
-0.0424214 -2.18642 -2.18642
-0.0731776 -2.16784 -2.16784
-0.0734989 -2.18627 -2.18627
-0.104998 -2.20464 -2.20464
-0.105825 -2.24176 -2.24176
-0.0431057 -2.24204 -2.24204
-0.0426492 -2.20491 -2.20491
-0.105412 -2.22318 -2.22318
-0.0744615 -2.24188 -2.24188
-0.0428773 -2.22345 -2.22345
-0.07382 -2.20475 -2.20475
-0.0741409 -2.22329 -2.22329
-0.105825 -2.24176 -2.24176
-0.106648 -2.27911 -2.27911
-0.0435633 -2.27939 -2.27939
-0.0431057 -2.24204 -2.24204
-0.106237 -2.26041 -2.26041
-0.0751021 -2.27922 -2.27922
-0.0433343 -2.26069 -2.26069
-0.0744615 -2.24188 -2.24188
-0.0747819 -2.26052 -2.26052
-0.106648 -2.27911 -2.27911
-0.107469 -2.31666 -2.31666
-0.0440221 -2.31695 -2.31695
-0.0435633 -2.27939 -2.27939
-0.107059 -2.29786 -2.29786
-0.0757418 -2.31678 -2.31678
-0.0437925 -2.29814 -2.29814
-0.0751021 -2.27922 -2.27922
-0.0754221 -2.29798 -2.29798
-0.107469 -2.31666 -2.31666
-0.108287 -2.35443 -2.35443
-0.0444819 -2.35473 -2.35473
-0.0440221 -2.31695 -2.31695
-0.107878 -2.33552 -2.33552
-0.0763806 -2.35456 -2.35456
-0.0442518 -2.33581 -2.33581
-0.0757418 -2.31678 -2.31678
-0.0760613 -2.33564 -2.33564
-0.108287 -2.35443 -2.35443
-0.109101 -2.39241 -2.39241
-0.0449429 -2.39272 -2.39272
-0.0444819 -2.35473 -2.35473
-0.108694 -2.3734 -2.3734
-0.0770184 -2.39254 -2.39254
-0.0447123 -2.3737 -2.3737
-0.0763806 -2.35456 -2.35456
-0.0766996 -2.37352 -2.37352
-0.109101 -2.39241 -2.39241
-0.109913 -2.4306 -2.4306
-0.0454049 -2.43091 -2.43091
-0.0449429 -2.39272 -2.39272
-0.109507 -2.41148 -2.41148
-0.0776552 -2.43074 -2.43074
-0.0451738 -2.41179 -2.41179
-0.0770184 -2.39254 -2.39254
-0.0773369 -2.41161 -2.41161
-0.109913 -2.4306 -2.4306
-0.110721 -2.469 -2.469
-0.045868 -2.46931 -2.46931
-0.0454049 -2.43091 -2.43091
-0.110318 -2.44977 -2.44977
-0.078291 -2.46913 -2.46913
-0.0456363 -2.45009 -2.45009
-0.0776552 -2.43074 -2.43074
-0.0779732 -2.44991 -2.44991
-0.110721 -2.469 -2.469
-0.111527 -2.5076 -2.5076
-0.0463321 -2.50792 -2.50792
-0.045868 -2.46931 -2.46931
-0.111125 -2.48827 -2.48827
-0.0789259 -2.50774 -2.50774
-0.0460999 -2.48859 -2.48859
-0.078291 -2.46913 -2.46913
-0.0786086 -2.48841 -2.48841
-0.111527 -2.5076 -2.5076
-0.112329 -2.54639 -2.54639
-0.0467973 -2.54673 -2.54673
-0.0463321 -2.50792 -2.50792
-0.111929 -2.52697 -2.52697
-0.0795597 -2.54654 -2.54654
-0.0465646 -2.5273 -2.5273
-0.0789259 -2.50774 -2.50774
-0.0792429 -2.52711 -2.52711
-0.112329 -2.54639 -2.54639
-0.113129 -2.58539 -2.58539
-0.0472634 -2.58573 -2.58573
-0.0467973 -2.54673 -2.54673
-0.112729 -2.56587 -2.56587
-0.0801924 -2.58554 -2.58554
-0.0470302 -2.5662 -2.5662
-0.0795597 -2.54654 -2.54654
-0.0798762 -2.56602 -2.56602
-0.113129 -2.58539 -2.58539
-0.113925 -2.62459 -2.62459
-0.0477305 -2.62493 -2.62493
-0.0472634 -2.58573 -2.58573
-0.113527 -2.60497 -2.60497
-0.0808241 -2.62474 -2.62474
-0.0474968 -2.60531 -2.60531
-0.0801924 -2.58554 -2.58554
-0.0805084 -2.60512 -2.60512
-0.113925 -2.62459 -2.62459
-0.114718 -2.66397 -2.66397
-0.0481986 -2.66433 -2.66433
-0.0477305 -2.62493 -2.62493
-0.114322 -2.64426 -2.64426
-0.0814546 -2.66413 -2.66413
-0.0479644 -2.64461 -2.64461
-0.0808241 -2.62474 -2.62474
-0.0811395 -2.64441 -2.64441
-0.114718 -2.66397 -2.66397
-0.115508 -2.70355 -2.70355
-0.0486675 -2.70391 -2.70391
-0.0481986 -2.66433 -2.66433
-0.115113 -2.68374 -2.68374
-0.0820841 -2.70371 -2.70371
-0.0484329 -2.6841 -2.6841
-0.0814546 -2.66413 -2.66413
-0.0817695 -2.6839 -2.6839
-0.115508 -2.70355 -2.70355
-0.116295 -2.74332 -2.74332
-0.0491374 -2.74369 -2.74369
-0.0486675 -2.70391 -2.70391
-0.115902 -2.72341 -2.72341
-0.0827124 -2.74349 -2.74349
-0.0489024 -2.72378 -2.72378
-0.0820841 -2.70371 -2.70371
-0.0823984 -2.72358 -2.72358
-0.116295 -2.74332 -2.74332
-0.117078 -2.78328 -2.78328
-0.0496082 -2.78365 -2.78365
-0.0491374 -2.74369 -2.74369
-0.116687 -2.76328 -2.76328
-0.0833396 -2.78344 -2.78344
-0.0493727 -2.76365 -2.76365
-0.0827124 -2.74349 -2.74349
-0.0830261 -2.76344 -2.76344
-0.117078 -2.78328 -2.78328
-0.117859 -2.82342 -2.82342
-0.0500798 -2.8238 -2.8238
-0.0496082 -2.78365 -2.78365
-0.117469 -2.80332 -2.80332
-0.0839655 -2.82359 -2.82359
-0.0498439 -2.8037 -2.8037
-0.0833396 -2.78344 -2.78344
-0.0836527 -2.80349 -2.80349
-0.117859 -2.82342 -2.82342
-0.118636 -2.86374 -2.86374
-0.0505522 -2.86412 -2.86412
-0.0500798 -2.8238 -2.8238
-0.118247 -2.84355 -2.84355
-0.0845902 -2.86391 -2.86391
-0.0503159 -2.84394 -2.84394
-0.0839655 -2.82359 -2.82359
-0.084278 -2.84373 -2.84373
-0.118636 -2.86374 -2.86374
-0.119409 -2.90424 -2.90424
-0.0510255 -2.90463 -2.90463
-0.0505522 -2.86412 -2.86412
-0.119023 -2.88396 -2.88396
-0.0852137 -2.90441 -2.90441
-0.0507887 -2.88435 -2.88435
-0.0845902 -2.86391 -2.86391
-0.0849022 -2.88414 -2.88414
-0.119409 -2.90424 -2.90424
-0.12018 -2.94491 -2.94491
-0.0514995 -2.94531 -2.94531
-0.0510255 -2.90463 -2.90463
-0.119795 -2.92455 -2.92455
-0.085836 -2.94509 -2.94509
-0.0512624 -2.92495 -2.92495
-0.0852137 -2.90441 -2.90441
-0.085525 -2.92473 -2.92473
-0.12018 -2.94491 -2.94491
-0.120947 -2.98576 -2.98576
-0.0519743 -2.98617 -2.98617
-0.0514995 -2.94531 -2.94531
-0.120564 -2.96532 -2.96532
-0.0864569 -2.98595 -2.98595
-0.0517368 -2.96572 -2.96572
-0.085836 -2.94509 -2.94509
-0.0861466 -2.9655 -2.9655
-0.120947 -2.98576 -2.98576
-0.121711 -3.02679 -3.02679
-0.0524497 -3.0272 -3.0272
-0.0519743 -2.98617 -2.98617
-0.121329 -3.00625 -3.00625
-0.0870765 -3.02698 -3.02698
-0.0522119 -3.00666 -3.00666
-0.0864569 -2.98595 -2.98595
-0.0867669 -3.00644 -3.00644
-0.121711 -3.02679 -3.02679
-0.122471 -3.06798 -3.06798
-0.0529259 -3.0684 -3.0684
-0.0524497 -3.0272 -3.0272
-0.122091 -3.04736 -3.04736
-0.0876948 -3.06817 -3.06817
-0.0526878 -3.04778 -3.04778
-0.0870765 -3.02698 -3.02698
-0.0873858 -3.04755 -3.04755
-0.122471 -3.06798 -3.06798
-0.123228 -3.10934 -3.10934
-0.0534028 -3.10977 -3.10977
-0.0529259 -3.0684 -3.0684
-0.12285 -3.08864 -3.08864
-0.0883117 -3.10953 -3.10953
-0.0531643 -3.08906 -3.08906
-0.0876948 -3.06817 -3.06817
-0.0880034 -3.08883 -3.08883
-0.123228 -3.10934 -3.10934
-0.123981 -3.15086 -3.15086
-0.0538803 -3.1513 -3.1513
-0.0534028 -3.10977 -3.10977
-0.123605 -3.13008 -3.13008
-0.0889271 -3.15106 -3.15106
-0.0536415 -3.13051 -3.13051
-0.0883117 -3.10953 -3.10953
-0.0886196 -3.13028 -3.13028
-0.123981 -3.15086 -3.15086
-0.124731 -3.19255 -3.19255
-0.0543584 -3.19299 -3.19299
-0.0538803 -3.1513 -3.1513
-0.124357 -3.17169 -3.17169
-0.0895412 -3.19275 -3.19275
-0.0541193 -3.17212 -3.17212
-0.0889271 -3.15106 -3.15106
-0.0892343 -3.17189 -3.17189
-0.124731 -3.19255 -3.19255
-0.125478 -3.2344 -3.2344
-0.0548371 -3.23484 -3.23484
-0.0543584 -3.19299 -3.19299
-0.125105 -3.21345 -3.21345
-0.0901538 -3.2346 -3.2346
-0.0545977 -3.2139 -3.2139
-0.0895412 -3.19275 -3.19275
-0.0898477 -3.21366 -3.21366
-0.125478 -3.2344 -3.2344
-0.126221 -3.2764 -3.2764
-0.0553163 -3.27685 -3.27685
-0.0548371 -3.23484 -3.23484
-0.12585 -3.25538 -3.25538
-0.0907649 -3.27661 -3.27661
-0.0550766 -3.25583 -3.25583
-0.0901538 -3.2346 -3.2346
-0.0904595 -3.25559 -3.25559
-0.126221 -3.2764 -3.2764
-0.12696 -3.31856 -3.31856
-0.0557961 -3.31902 -3.31902
-0.0553163 -3.27685 -3.27685
-0.126591 -3.29746 -3.29746
-0.0913744 -3.31877 -3.31877
-0.0555561 -3.29792 -3.29792
-0.0907649 -3.27661 -3.27661
-0.0910698 -3.29767 -3.29767
-0.12696 -3.31856 -3.31856
-0.127696 -3.36087 -3.36087
-0.0562763 -3.36134 -3.36134
-0.0557961 -3.31902 -3.31902
-0.127328 -3.3397 -3.3397
-0.0919824 -3.36109 -3.36109
-0.0560361 -3.34016 -3.34016
-0.0913744 -3.31877 -3.31877
-0.0916786 -3.33991 -3.33991
-0.127696 -3.36087 -3.36087
-0.128428 -3.40333 -3.40333
-0.056757 -3.40381 -3.40381
-0.0562763 -3.36134 -3.36134
-0.128062 -3.38208 -3.38208
-0.0925888 -3.40355 -3.40355
-0.0565166 -3.38255 -3.38255
-0.0919824 -3.36109 -3.36109
-0.0922858 -3.3823 -3.3823
-0.128428 -3.40333 -3.40333
-0.129156 -3.44594 -3.44594
-0.0572381 -3.44642 -3.44642
-0.056757 -3.40381 -3.40381
-0.128793 -3.42462 -3.42462
-0.0931936 -3.44617 -3.44617
-0.0569975 -3.4251 -3.4251
-0.0925888 -3.40355 -3.40355
-0.0928914 -3.42484 -3.42484
-0.129156 -3.44594 -3.44594
-0.129881 -3.4887 -3.4887
-0.0577197 -3.48918 -3.48918
-0.0572381 -3.44642 -3.44642
-0.129519 -3.4673 -3.4673
-0.0937968 -3.48892 -3.48892
-0.0574788 -3.46778 -3.46778
-0.0931936 -3.44617 -3.44617
-0.0934954 -3.46753 -3.46753
-0.129881 -3.4887 -3.4887
-0.130602 -3.5316 -3.5316
-0.0582015 -3.53209 -3.53209
-0.0577197 -3.48918 -3.48918
-0.130242 -3.51013 -3.51013
-0.0943983 -3.53183 -3.53183
-0.0579606 -3.51062 -3.51062
-0.0937968 -3.48892 -3.48892
-0.0940977 -3.51036 -3.51036
-0.130602 -3.5316 -3.5316
-0.131319 -3.57463 -3.57463
-0.0586838 -3.57513 -3.57513
-0.0582015 -3.53209 -3.53209
-0.130961 -3.5531 -3.5531
-0.094998 -3.57487 -3.57487
-0.0584426 -3.55359 -3.55359
-0.0943983 -3.53183 -3.53183
-0.0946984 -3.55333 -3.55333
-0.131319 -3.57463 -3.57463
-0.132033 -3.61781 -3.61781
-0.0591663 -3.61831 -3.61831
-0.0586838 -3.57513 -3.57513
-0.131677 -3.5962 -3.5962
-0.095596 -3.61805 -3.61805
-0.058925 -3.59671 -3.59671
-0.094998 -3.57487 -3.57487
-0.0952972 -3.59644 -3.59644
-0.132033 -3.61781 -3.61781
-0.132743 -3.66112 -3.66112
-0.059649 -3.66163 -3.66163
-0.0591663 -3.61831 -3.61831
-0.132388 -3.63945 -3.63945
-0.0961922 -3.66136 -3.66136
-0.0594076 -3.63996 -3.63996
-0.095596 -3.61805 -3.61805
-0.0958944 -3.63969 -3.63969
-0.132743 -3.66112 -3.66112
-0.133448 -3.70457 -3.70457
-0.060132 -3.70508 -3.70508
-0.059649 -3.66163 -3.66163
-0.133096 -3.68283 -3.68283
-0.0967866 -3.70481 -3.70481
-0.0598905 -3.68334 -3.68334
-0.0961922 -3.66136 -3.66136
-0.0964897 -3.68307 -3.68307
-0.133448 -3.70457 -3.70457
-0.13415 -3.74814 -3.74814
-0.0606152 -3.74867 -3.74867
-0.060132 -3.70508 -3.70508
-0.1338 -3.72634 -3.72634
-0.0973792 -3.74839 -3.74839
-0.0603736 -3.72686 -3.72686
-0.0967866 -3.70481 -3.70481
-0.0970832 -3.72659 -3.72659
-0.13415 -3.74814 -3.74814
-0.134848 -3.79185 -3.79185
-0.0610986 -3.79238 -3.79238
-0.0606152 -3.74867 -3.74867
-0.1345 -3.76998 -3.76998
-0.0979699 -3.7921 -3.7921
-0.0608569 -3.77051 -3.77051
-0.0973792 -3.74839 -3.74839
-0.0976748 -3.77023 -3.77023
-0.134848 -3.79185 -3.79185
-0.135542 -3.83568 -3.83568
-0.0615821 -3.83621 -3.83621
-0.0610986 -3.79238 -3.79238
-0.135196 -3.81375 -3.81375
-0.0985586 -3.83593 -3.83593
-0.0613403 -3.81428 -3.81428
-0.0979699 -3.7921 -3.7921
-0.0982645 -3.814 -3.814
-0.135542 -3.83568 -3.83568
-0.136232 -3.87963 -3.87963
-0.0620656 -3.88017 -3.88017
-0.0615821 -3.83621 -3.83621
-0.135888 -3.85764 -3.85764
-0.0991454 -3.87989 -3.87989
-0.0618238 -3.85818 -3.85818
-0.0985586 -3.83593 -3.83593
-0.0988522 -3.8579 -3.8579
-0.136232 -3.87963 -3.87963
-0.136918 -3.92371 -3.92371
-0.0625492 -3.92425 -3.92425
-0.0620656 -3.88017 -3.88017
-0.136576 -3.90166 -3.90166
-0.0997302 -3.92397 -3.92397
-0.0623074 -3.9022 -3.9022
-0.0991454 -3.87989 -3.87989
-0.099438 -3.90192 -3.90192
-0.136918 -3.92371 -3.92371
-0.1376 -3.9679 -3.9679
-0.0630329 -3.96845 -3.96845
-0.0625492 -3.92425 -3.92425
-0.13726 -3.94579 -3.94579
-0.100313 -3.96817 -3.96817
-0.062791 -3.94634 -3.94634
-0.0997302 -3.92397 -3.92397
-0.100022 -3.94605 -3.94605
-0.1376 -3.9679 -3.9679
-0.138278 -4.01222 -4.01222
-0.0635165 -4.01277 -4.01277
-0.0630329 -3.96845 -3.96845
-0.13794 -3.99005 -3.99005
-0.100894 -4.01248 -4.01248
-0.0632747 -3.9906 -3.9906
-0.100313 -3.96817 -3.96817
-0.100604 -3.99031 -3.99031
-0.138278 -4.01222 -4.01222
-0.138952 -4.05664 -4.05664
-0.064 -4.0572 -4.0572
-0.0635165 -4.01277 -4.01277
-0.138615 -4.03441 -4.03441
-0.101472 -4.05691 -4.05691
-0.0637582 -4.03497 -4.03497
-0.100894 -4.01248 -4.01248
-0.101183 -4.03468 -4.03468
-0.138952 -4.05664 -4.05664
-0.139621 -4.10118 -4.10118
-0.0644835 -4.10174 -4.10174
-0.064 -4.0572 -4.0572
-0.139287 -4.07889 -4.07889
-0.102049 -4.10145 -4.10145
-0.0642417 -4.07946 -4.07946
-0.101472 -4.05691 -4.05691
-0.101761 -4.07916 -4.07916
-0.139621 -4.10118 -4.10118
-0.140286 -4.14582 -4.14582
-0.0649668 -4.14639 -4.14639
-0.0644835 -4.10174 -4.10174
-0.139954 -4.12349 -4.12349
-0.102623 -4.1461 -4.1461
-0.0647251 -4.12405 -4.12405
-0.102049 -4.10145 -4.10145
-0.102336 -4.12376 -4.12376
-0.140286 -4.14582 -4.14582
-0.140947 -4.19057 -4.19057
-0.0654499 -4.19115 -4.19115
-0.0649668 -4.14639 -4.14639
-0.140617 -4.16818 -4.16818
-0.103195 -4.19085 -4.19085
-0.0652084 -4.16876 -4.16876
-0.102623 -4.1461 -4.1461
-0.102909 -4.16846 -4.16846
-0.140947 -4.19057 -4.19057
-0.141604 -4.23543 -4.23543
-0.0659329 -4.23601 -4.23601
-0.0654499 -4.19115 -4.19115
-0.141276 -4.21299 -4.21299
-0.103765 -4.23571 -4.23571
-0.0656914 -4.21357 -4.21357
-0.103195 -4.19085 -4.19085
-0.10348 -4.21327 -4.21327
-0.141604 -4.23543 -4.23543
-0.142256 -4.28039 -4.28039
-0.0664156 -4.28097 -4.28097
-0.0659329 -4.23601 -4.23601
-0.141931 -4.2579 -4.2579
-0.104332 -4.28067 -4.28067
-0.0661742 -4.25848 -4.25848
-0.103765 -4.23571 -4.23571
-0.104049 -4.25818 -4.25818
-0.142256 -4.28039 -4.28039
-0.142904 -4.32544 -4.32544
-0.066898 -4.32603 -4.32603
-0.0664156 -4.28097 -4.28097
-0.142581 -4.3029 -4.3029
-0.104898 -4.32573 -4.32573
-0.0666568 -4.30349 -4.30349
-0.104332 -4.28067 -4.28067
-0.104615 -4.30319 -4.30319
-0.142904 -4.32544 -4.32544
-0.143548 -4.3706 -4.3706
-0.06738 -4.37119 -4.37119
-0.066898 -4.32603 -4.32603
-0.143227 -4.34801 -4.34801
-0.10546 -4.37089 -4.37089
-0.067139 -4.3486 -4.3486
-0.104898 -4.32573 -4.32573
-0.105179 -4.3483 -4.3483
-0.143548 -4.3706 -4.3706
-0.144187 -4.41585 -4.41585
-0.0678617 -4.41645 -4.41645
-0.06738 -4.37119 -4.37119
-0.143868 -4.39321 -4.39321
-0.106021 -4.41614 -4.41614
-0.0676209 -4.39381 -4.39381
-0.10546 -4.37089 -4.37089
-0.105741 -4.3935 -4.3935
-0.144187 -4.41585 -4.41585
-0.144821 -4.46119 -4.46119
-0.068343 -4.46179 -4.46179
-0.0678617 -4.41645 -4.41645
-0.144505 -4.43851 -4.43851
-0.106579 -4.46148 -4.46148
-0.0681024 -4.43911 -4.43911
-0.106021 -4.41614 -4.41614
-0.1063 -4.4388 -4.4388
-0.144821 -4.46119 -4.46119
-0.145452 -4.50662 -4.50662
-0.0688239 -4.50723 -4.50723
-0.068343 -4.46179 -4.46179
-0.145137 -4.48389 -4.48389
-0.107134 -4.50691 -4.50691
-0.0685835 -4.4845 -4.4845
-0.106579 -4.46148 -4.46148
-0.106857 -4.48419 -4.48419
-0.145452 -4.50662 -4.50662
-0.146077 -4.55213 -4.55213
-0.0693043 -4.55275 -4.55275
-0.0688239 -4.50723 -4.50723
-0.145765 -4.52937 -4.52937
-0.107687 -4.55243 -4.55243
-0.0690642 -4.52998 -4.52998
-0.107134 -4.50691 -4.50691
-0.107411 -4.52966 -4.52966
-0.146077 -4.55213 -4.55213
-0.146698 -4.59774 -4.59774
-0.0697841 -4.59836 -4.59836
-0.0693043 -4.55275 -4.55275
-0.146388 -4.57493 -4.57493
-0.108237 -4.59804 -4.59804
-0.0695443 -4.57554 -4.57554
-0.107687 -4.55243 -4.55243
-0.107963 -4.57523 -4.57523
-0.146698 -4.59774 -4.59774
-0.147314 -4.64342 -4.64342
-0.0702634 -4.64405 -4.64405
-0.0697841 -4.59836 -4.59836
-0.147007 -4.62057 -4.62057
-0.108785 -4.64373 -4.64373
-0.0700238 -4.62119 -4.62119
-0.108237 -4.59804 -4.59804
-0.108512 -4.62087 -4.62087
-0.147314 -4.64342 -4.64342
-0.147926 -4.68919 -4.68919
-0.0707421 -4.68982 -4.68982
-0.0702634 -4.64405 -4.64405
-0.14762 -4.66629 -4.66629
-0.10933 -4.68949 -4.68949
-0.0705028 -4.66692 -4.66692
-0.108785 -4.64373 -4.64373
-0.109058 -4.6666 -4.6666
-0.147926 -4.68919 -4.68919
-0.148532 -4.73503 -4.73503
-0.0712201 -4.73566 -4.73566
-0.0707421 -4.68982 -4.68982
-0.14823 -4.7121 -4.7121
-0.109873 -4.73534 -4.73534
-0.0709812 -4.71273 -4.71273
-0.10933 -4.68949 -4.68949
-0.109602 -4.71241 -4.71241
-0.148532 -4.73503 -4.73503
-0.149134 -4.78095 -4.78095
-0.0716975 -4.78159 -4.78159
-0.0712201 -4.73566 -4.73566
-0.148834 -4.75798 -4.75798
-0.110412 -4.78126 -4.78126
-0.0714589 -4.75862 -4.75862
-0.109873 -4.73534 -4.73534
-0.110143 -4.75829 -4.75829
-0.149134 -4.78095 -4.78095
-0.149732 -4.82694 -4.82694
-0.0721741 -4.82758 -4.82758
-0.0716975 -4.78159 -4.78159
-0.149434 -4.80393 -4.80393
-0.110949 -4.82725 -4.82725
-0.0719359 -4.80457 -4.80457
-0.110412 -4.78126 -4.78126
-0.110681 -4.80425 -4.80425
-0.149732 -4.82694 -4.82694
-0.150324 -4.873 -4.873
-0.0726499 -4.87364 -4.87364
-0.0721741 -4.82758 -4.82758
-0.150028 -4.84996 -4.84996
-0.111483 -4.87331 -4.87331
-0.0724121 -4.8506 -4.8506
-0.110949 -4.82725 -4.82725
-0.111217 -4.85027 -4.85027
-0.150324 -4.873 -4.873
-0.150911 -4.91913 -4.91913
-0.0731249 -4.91978 -4.91978
-0.0726499 -4.87364 -4.87364
-0.150618 -4.89605 -4.89605
-0.112015 -4.91945 -4.91945
-0.0728875 -4.8967 -4.8967
-0.111483 -4.87331 -4.87331
-0.111749 -4.89637 -4.89637
-0.150911 -4.91913 -4.91913
-0.151494 -4.96532 -4.96532
-0.0735991 -4.96598 -4.96598
-0.0731249 -4.91978 -4.91978
-0.151203 -4.94222 -4.94222
-0.112543 -4.96564 -4.96564
-0.0733621 -4.94287 -4.94287
-0.112015 -4.91945 -4.91945
-0.112279 -4.94254 -4.94254
-0.151494 -4.96532 -4.96532
-0.152071 -5.01158 -5.01158
-0.0740723 -5.01224 -5.01224
-0.0735991 -4.96598 -4.96598
-0.151783 -4.98844 -4.98844
-0.113068 -5.0119 -5.0119
-0.0738358 -4.9891 -4.9891
-0.112543 -4.96564 -4.96564
-0.112806 -4.98876 -4.98876
-0.152071 -5.01158 -5.01158
-0.152644 -5.0579 -5.0579
-0.0745447 -5.05856 -5.05856
-0.0740723 -5.01224 -5.01224
-0.152358 -5.03473 -5.03473
-0.113591 -5.05822 -5.05822
-0.0743086 -5.03539 -5.03539
-0.113068 -5.0119 -5.0119
-0.11333 -5.03505 -5.03505
-0.152644 -5.0579 -5.0579
-0.153211 -5.10427 -5.10427
-0.075016 -5.10494 -5.10494
-0.0745447 -5.05856 -5.05856
-0.152928 -5.08108 -5.08108
-0.11411 -5.1046 -5.1046
-0.0747805 -5.08174 -5.08174
-0.113591 -5.05822 -5.05822
-0.113851 -5.0814 -5.0814
-0.153211 -5.10427 -5.10427
-0.153773 -5.1507 -5.1507
-0.0754863 -5.15137 -5.15137
-0.075016 -5.10494 -5.10494
-0.153493 -5.12748 -5.12748
-0.114626 -5.15103 -5.15103
-0.0752513 -5.12815 -5.12815
-0.11411 -5.1046 -5.1046
-0.114369 -5.12781 -5.12781
-0.153773 -5.1507 -5.1507
-0.15433 -5.19719 -5.19719
-0.0759555 -5.19786 -5.19786
-0.0754863 -5.15137 -5.15137
-0.154053 -5.17394 -5.17394
-0.11514 -5.19752 -5.19752
-0.0757211 -5.17461 -5.17461
-0.114626 -5.15103 -5.15103
-0.114883 -5.17427 -5.17427
-0.15433 -5.19719 -5.19719
-0.154882 -5.24373 -5.24373
-0.0764237 -5.2444 -5.2444
-0.0759555 -5.19786 -5.19786
-0.154607 -5.22045 -5.22045
-0.11565 -5.24406 -5.24406
-0.0761897 -5.22113 -5.22113
-0.11514 -5.19752 -5.19752
-0.115395 -5.22078 -5.22078
-0.154882 -5.24373 -5.24373
-0.155429 -5.29031 -5.29031
-0.0768906 -5.29099 -5.29099
-0.0764237 -5.2444 -5.2444
-0.155156 -5.26701 -5.26701
-0.116156 -5.29065 -5.29065
-0.0766573 -5.26769 -5.26769
-0.11565 -5.24406 -5.24406
-0.115903 -5.26735 -5.26735
-0.155429 -5.29031 -5.29031
-0.15597 -5.33694 -5.33694
-0.0773564 -5.33763 -5.33763
-0.0768906 -5.29099 -5.29099
-0.1557 -5.31362 -5.31362
-0.11666 -5.33728 -5.33728
-0.0771237 -5.3143 -5.3143
-0.116156 -5.29065 -5.29065
-0.116409 -5.31396 -5.31396
-0.15597 -5.33694 -5.33694
-0.156506 -5.38362 -5.38362
-0.0778209 -5.3843 -5.3843
-0.0773564 -5.33763 -5.33763
-0.156239 -5.36027 -5.36027
-0.11716 -5.38396 -5.38396
-0.0775888 -5.36096 -5.36096
-0.11666 -5.33728 -5.33728
-0.11691 -5.36061 -5.36061
-0.156506 -5.38362 -5.38362
-0.157037 -5.43033 -5.43033
-0.0782841 -5.43102 -5.43102
-0.0778209 -5.3843 -5.3843
-0.156772 -5.40697 -5.40697
-0.117657 -5.43067 -5.43067
-0.0780527 -5.40766 -5.40766
-0.11716 -5.38396 -5.38396
-0.117409 -5.40731 -5.40731
-0.157037 -5.43033 -5.43033
-0.157562 -5.47709 -5.47709
-0.078746 -5.47778 -5.47778
-0.0782841 -5.43102 -5.43102
-0.1573 -5.4537 -5.4537
-0.118151 -5.47743 -5.47743
-0.0785152 -5.4544 -5.4544
-0.117657 -5.43067 -5.43067
-0.117904 -5.45405 -5.45405
-0.157562 -5.47709 -5.47709
-0.158082 -5.52388 -5.52388
-0.0792066 -5.52457 -5.52457
-0.078746 -5.47778 -5.47778
-0.157823 -5.50048 -5.50048
-0.118641 -5.52422 -5.52422
-0.0789765 -5.50117 -5.50117
-0.118151 -5.47743 -5.47743
-0.118396 -5.50082 -5.50082
-0.158082 -5.52388 -5.52388
-0.158596 -5.5707 -5.5707
-0.0796657 -5.5714 -5.5714
-0.0792066 -5.52457 -5.52457
-0.15834 -5.54729 -5.54729
-0.119128 -5.57105 -5.57105
-0.0794363 -5.54798 -5.54798
-0.118641 -5.52422 -5.52422
-0.118885 -5.54763 -5.54763
-0.158596 -5.5707 -5.5707
-0.159105 -5.61756 -5.61756
-0.0801233 -5.61826 -5.61826
-0.0796657 -5.5714 -5.5714
-0.158851 -5.59413 -5.59413
-0.119611 -5.61791 -5.61791
-0.0798947 -5.59483 -5.59483
-0.119128 -5.57105 -5.57105
-0.11937 -5.59448 -5.59448
-0.159105 -5.61756 -5.61756
-0.159608 -5.66445 -5.66445
-0.0805794 -5.66515 -5.66515
-0.0801233 -5.61826 -5.61826
-0.159357 -5.641 -5.641
-0.12009 -5.6648 -5.6648
-0.0803515 -5.6417 -5.6417
-0.119611 -5.61791 -5.61791
-0.119851 -5.64135 -5.64135
-0.159608 -5.66445 -5.66445
-0.160105 -5.71136 -5.71136
-0.0810339 -5.71207 -5.71207
-0.0805794 -5.66515 -5.66515
-0.159857 -5.6879 -5.6879
-0.120566 -5.71171 -5.71171
-0.0808068 -5.68861 -5.68861
-0.12009 -5.6648 -5.6648
-0.120329 -5.68825 -5.68825
-0.160105 -5.71136 -5.71136
-0.160597 -5.75829 -5.75829
-0.0814867 -5.75901 -5.75901
-0.0810339 -5.71207 -5.71207
-0.160352 -5.73482 -5.73482
-0.121038 -5.75865 -5.75865
-0.0812605 -5.73553 -5.73553
-0.120566 -5.71171 -5.71171
-0.120803 -5.73518 -5.73518
-0.160597 -5.75829 -5.75829
-0.161082 -5.80525 -5.80525
-0.0819377 -5.80597 -5.80597
-0.0814867 -5.75901 -5.75901
-0.16084 -5.78177 -5.78177
-0.121506 -5.80561 -5.80561
-0.0817124 -5.78249 -5.78249
-0.121038 -5.75865 -5.75865
-0.121273 -5.78213 -5.78213
-0.161082 -5.80525 -5.80525
-0.161561 -5.85223 -5.85223
-0.0823868 -5.85295 -5.85295
-0.0819377 -5.80597 -5.80597
-0.161323 -5.82874 -5.82874
-0.12197 -5.85259 -5.85259
-0.0821625 -5.82946 -5.82946
-0.121506 -5.80561 -5.80561
-0.121739 -5.8291 -5.8291
-0.161561 -5.85223 -5.85223
-0.162034 -5.89923 -5.89923
-0.0828336 -5.89995 -5.89995
-0.0823868 -5.85295 -5.85295
-0.161799 -5.87573 -5.87573
-0.12243 -5.89959 -5.89959
-0.0826105 -5.87645 -5.87645
-0.12197 -5.85259 -5.85259
-0.122201 -5.87609 -5.87609
-0.162034 -5.89923 -5.89923
-0.162499 -5.94624 -5.94624
-0.0832781 -5.94697 -5.94697
-0.0828336 -5.89995 -5.89995
-0.162267 -5.92273 -5.92273
-0.122884 -5.9466 -5.9466
-0.0830562 -5.92346 -5.92346
-0.12243 -5.89959 -5.89959
-0.122657 -5.92309 -5.92309
-0.162499 -5.94624 -5.94624
-0.162956 -5.99326 -5.99326
-0.08372 -5.99399 -5.99399
-0.0832781 -5.94697 -5.94697
-0.162728 -5.96975 -5.96975
-0.123333 -5.99363 -5.99363
-0.0834993 -5.97048 -5.97048
-0.122884 -5.9466 -5.9466
-0.123109 -5.97011 -5.97011
-0.162956 -5.99326 -5.99326
-0.163405 -6.0403 -6.0403
-0.0841595 -6.04103 -6.04103
-0.08372 -5.99399 -5.99399
-0.163181 -6.01678 -6.01678
-0.123777 -6.04066 -6.04066
-0.08394 -6.01751 -6.01751
-0.123333 -5.99363 -5.99363
-0.123555 -6.01715 -6.01715
-0.163405 -6.0403 -6.0403
-0.163848 -6.08735 -6.08735
-0.0845977 -6.08806 -6.08806
-0.0841595 -6.04103 -6.04103
-0.163627 -6.06382 -6.06382
-0.124217 -6.0877 -6.0877
-0.0843788 -6.06455 -6.06455
-0.123777 -6.04066 -6.04066
-0.123997 -6.06418 -6.06418
-0.163848 -6.08735 -6.08735
-0.164289 -6.13439 -6.13439
-0.0850353 -6.13509 -6.13509
-0.0845977 -6.08806 -6.08806
-0.164068 -6.11087 -6.11087
-0.124657 -6.13474 -6.13474
-0.0848164 -6.11158 -6.11158
-0.124217 -6.0877 -6.0877
-0.124437 -6.11122 -6.11122
-0.164289 -6.13439 -6.13439
-0.164735 -6.18141 -6.18141
-0.0854745 -6.18209 -6.18209
-0.0850353 -6.13509 -6.13509
-0.164511 -6.1579 -6.1579
-0.125099 -6.18174 -6.18174
-0.0852547 -6.1586 -6.1586
-0.124657 -6.13474 -6.13474
-0.124878 -6.15824 -6.15824
0 0 0
-0.000352046 5.70942e-05 5.70942e-05
0.00034913 5.64984e-05 5.64984e-05
0 0 0
-0.000175256 0.000114708 0.000114708
-1.46514e-06 7.76623e-05 7.76623e-05
0.000173755 0.000114374 0.000114374
0 0 0
-7.57437e-07 0.000123397 0.000123397
-0.000352046 5.70942e-05 5.70942e-05
-0.000733063 -0.000538837 -0.000538837
0.000727345 -0.00053997 -0.00053997
0.00034913 5.64984e-05 5.64984e-05
-0.000539013 -0.000164416 -0.000164416
-2.86222e-06 -0.000505039 -0.000505039
0.000534704 -0.000165272 -0.000165272
-1.46514e-06 7.76623e-05 7.76623e-05
-2.16063e-06 -0.000135903 -0.000135903
-0.000733063 -0.000538837 -0.000538837
-0.00112779 -0.00170761 -0.00170761
0.00111908 -0.00170936 -0.00170936
0.000727345 -0.00053997 -0.00053997
-0.000929358 -0.00105551 -0.00105551
-4.34291e-06 -0.00166409 -0.00166409
0.000922182 -0.00105693 -0.00105693
-2.86222e-06 -0.000505039 -0.000505039
-3.58408e-06 -0.00101651 -0.00101651
-0.00112779 -0.00170761 -0.00170761
-0.00153124 -0.00339703 -0.00339703
0.00151913 -0.00339948 -0.00339948
0.00111908 -0.00170936 -0.00170936
-0.00132893 -0.0024896 -0.0024896
-6.03028e-06 -0.00334911 -0.00334911
0.00131858 -0.00249168 -0.00249168
-4.34291e-06 -0.00166409 -0.00166409
-5.15472e-06 -0.00244324 -0.00244324
-0.00153124 -0.00339703 -0.00339703
-0.00193431 -0.00557482 -0.00557482
0.00191821 -0.00557808 -0.00557808
0.00151913 -0.00339948 -0.00339948
-0.00173306 -0.00442617 -0.00442617
-8.0149e-06 -0.00552545 -0.00552545
0.00171904 -0.004429 -0.004429
-6.03028e-06 -0.00334911 -0.00334911
-6.97961e-06 -0.00437726 -0.00437726
-0.00193431 -0.00557482 -0.00557482
-0.00233534 -0.00822452 -0.00822452
0.00231446 -0.00822868 -0.00822868
0.00191821 -0.00557808 -0.00557808
-0.00213519 -0.00684134 -0.00684134
-1.03923e-05 -0.00817561 -0.00817561
0.0021168 -0.00684503 -0.00684503
-8.0149e-06 -0.00552545 -0.00552545
-9.14863e-06 -0.00679204 -0.00679204
-0.00233534 -0.00822452 -0.00822452
-0.00273261 -0.0113375 -0.0113375
0.00270598 -0.0113426 -0.0113426
0.00231446 -0.00822868 -0.00822868
-0.00253444 -0.00972343 -0.00972343
-1.32556e-05 -0.0112896 -0.0112896
0.00251082 -0.00972807 -0.00972807
-1.03923e-05 -0.00817561 -0.00817561
-1.17574e-05 -0.00967499 -0.00967499
-0.00273261 -0.0113375 -0.0113375
-0.00312678 -0.0149094 -0.0149094
0.00309325 -0.0149157 -0.0149157
0.00270598 -0.0113426 -0.0113426
-0.00293005 -0.0130663 -0.0130663
-1.66982e-05 -0.0148628 -0.0148628
0.00290013 -0.013072 -0.013072
-1.32556e-05 -0.0112896 -0.0112896
-1.48989e-05 -0.013019 -0.013019
-0.00312678 -0.0149094 -0.0149094
-0.00351821 -0.0189376 -0.0189376
0.00347643 -0.0189451 -0.0189451
0.00309325 -0.0149157 -0.0149157
-0.0033228 -0.0168666 -0.0168666
-2.08081e-05 -0.0188921 -0.0188921
0.00328533 -0.0168735 -0.0168735
-1.66982e-05 -0.0148628 -0.0148628
-1.86644e-05 -0.0168206 -0.0168206
-0.00351821 -0.0189376 -0.0189376
-0.00390754 -0.0234199 -0.0234199
0.00385602 -0.0234287 -0.0234287
0.00347643 -0.0189451 -0.0189451
-0.0037131 -0.0211221 -0.0211221
-2.56696e-05 -0.0233756 -0.0233756
0.00366666 -0.0211302 -0.0211302
-2.08081e-05 -0.0188921 -0.0188921
-2.31399e-05 -0.0210772 -0.0210772
-0.00390754 -0.0234199 -0.0234199
-0.00429513 -0.0283543 -0.0283543
0.00423221 -0.0283645 -0.0283645
0.00385602 -0.0234287 -0.0234287
-0.00410153 -0.0258307 -0.0258307
-3.13622e-05 -0.0283111 -0.0283111
0.00404453 -0.0258402 -0.0258402
-2.56696e-05 -0.0233756 -0.0233756
-2.84071e-05 -0.0257869 -0.0257869
-0.00429513 -0.0283543 -0.0283543
-0.00468132 -0.0337386 -0.0337386
0.00460518 -0.0337503 -0.0337503
0.00423221 -0.0283645 -0.0283645
-0.00448839 -0.0309903 -0.0309903
-3.79624e-05 -0.0336965 -0.0336965
0.00441909 -0.0310013 -0.0310013
-3.13622e-05 -0.0283111 -0.0283111
-3.45441e-05 -0.0309476 -0.0309476
-0.00468132 -0.0337386 -0.0337386
-0.0050663 -0.0395706 -0.0395706
0.00497497 -0.039584 -0.039584
0.00460518 -0.0337503 -0.0337503
-0.00487395 -0.0365987 -0.0365987
-4.55443e-05 -0.0395296 -0.0395296
0.00479047 -0.0366113 -0.0366113
-3.79624e-05 -0.0336965 -0.0336965
-4.16261e-05 -0.0365572 -0.0365572
-0.0050663 -0.0395706 -0.0395706
-0.00545021 -0.045848 -0.045848
0.0053416 -0.0458632 -0.0458632
0.00497497 -0.039584 -0.039584
-0.00525838 -0.0426537 -0.0426537
-5.41799e-05 -0.0458082 -0.0458082
0.00515868 -0.0426681 -0.0426681
-4.55443e-05 -0.0395296 -0.0395296
-4.97259e-05 -0.0426133 -0.0426133
-0.00545021 -0.045848 -0.045848
-0.00583317 -0.0525684 -0.0525684
0.00570502 -0.0525856 -0.0525856
0.0053416 -0.0458632 -0.0458632
-0.0056418 -0.049153 -0.049153
-6.39401e-05 -0.0525299 -0.0525299
0.00552371 -0.0491692 -0.0491692
-5.41799e-05 -0.0458082 -0.0458082
-5.89151e-05 -0.0491138 -0.0491138
-0.00583317 -0.0525684 -0.0525684
-0.00621526 -0.0597296 -0.0597296
0.00606518 -0.0597488 -0.0597488
0.00570502 -0.0525856 -0.0525856
-0.00602432 -0.0560941 -0.0560941
-7.48942e-05 -0.0596923 -0.0596923
0.00588551 -0.0561122 -0.0561122
-6.39401e-05 -0.0525299 -0.0525299
-6.92636e-05 -0.0560562 -0.0560562
-0.00621526 -0.0597296 -0.0597296
-0.00659656 -0.067329 -0.067329
0.00642204 -0.0673504 -0.0673504
0.00606518 -0.0597488 -0.0597488
-0.006406 -0.0634747 -0.0634747
-8.71106e-05 -0.0672931 -0.0672931
0.00624403 -0.0634949 -0.0634949
-7.48942e-05 -0.0596923 -0.0596923
-8.08403e-05 -0.0634381 -0.0634381
-0.00659656 -0.067329 -0.067329
-0.00697714 -0.0753643 -0.0753643
0.00677551 -0.075388 -0.075388
0.00642204 -0.0673504 -0.0673504
-0.00678694 -0.0712924 -0.0712924
-0.000100657 -0.0753298 -0.0753298
0.0065992 -0.0713148 -0.0713148
-8.71106e-05 -0.0672931 -0.0672931
-9.37132e-05 -0.0712571 -0.0712571
-0.00697714 -0.0753643 -0.0753643
-0.00735708 -0.0838331 -0.0838331
0.00712555 -0.0838591 -0.0838591
0.00677551 -0.075388 -0.075388
-0.00716719 -0.0795447 -0.0795447
-0.000115599 -0.0838 -0.0838
0.00695097 -0.0795695 -0.0795695
-0.000100657 -0.0753298 -0.0753298
-0.000107949 -0.0795109 -0.0795109
-0.00735708 -0.0838331 -0.0838331
-0.00773643 -0.0927329 -0.0927329
0.00747208 -0.0927614 -0.0927614
0.00712555 -0.0838591 -0.0838591
-0.00754682 -0.0882293 -0.0882293
-0.000132002 -0.0927013 -0.0927013
0.00729926 -0.0882565 -0.0882565
-0.000115599 -0.0838 -0.0838
-0.000123613 -0.088197 -0.088197
-0.00773643 -0.0927329 -0.0927329
-0.00811526 -0.102061 -0.102061
0.00781505 -0.102092 -0.102092
0.00747208 -0.0927614 -0.0927614
-0.00792591 -0.0973437 -0.0973437
-0.00014993 -0.102031 -0.102031
0.00764401 -0.0973735 -0.0973735
-0.000132002 -0.0927013 -0.0927013
-0.000140771 -0.0973129 -0.0973129
-0.00811526 -0.102061 -0.102061
-0.00849364 -0.111816 -0.111816
0.00815437 -0.11185 -0.11185
0.00781505 -0.102092 -0.102092
-0.0083045 -0.106886 -0.106886
-0.000169446 -0.111788 -0.111788
0.00798517 -0.106918 -0.106918
-0.00014993 -0.102031 -0.102031
-0.000159486 -0.106856 -0.106856
-0.00849364 -0.111816 -0.111816
-0.00887162 -0.121994 -0.121994
0.00849001 -0.122031 -0.122031
0.00815437 -0.11185 -0.11185
-0.00868267 -0.116852 -0.116852
-0.000190613 -0.121968 -0.121968
0.00832266 -0.116888 -0.116888
-0.000169446 -0.111788 -0.111788
-0.000179819 -0.116825 -0.116825
-0.00887162 -0.121994 -0.121994
-0.00924926 -0.132594 -0.132594
0.00882189 -0.132634 -0.132634
0.00849001 -0.122031 -0.122031
-0.00906048 -0.127242 -0.127242
-0.00021349 -0.132569 -0.132569
0.00865642 -0.12728 -0.12728
-0.000190613 -0.121968 -0.121968
-0.000201834 -0.127216 -0.127216
-0.00924926 -0.132594 -0.132594
-0.00962663 -0.143613 -0.143613
0.00914995 -0.143655 -0.143655
0.00882189 -0.132634 -0.132634
-0.00943798 -0.138051 -0.138051
-0.000238137 -0.14359 -0.14359
0.0089864 -0.138092 -0.138092
-0.00021349 -0.132569 -0.132569
-0.000225588 -0.138027 -0.138027
-0.00962663 -0.143613 -0.143613
-0.0100038 -0.155048 -0.155048
0.00947414 -0.155094 -0.155094
0.00914995 -0.143655 -0.143655
-0.00981523 -0.149278 -0.149278
-0.000264612 -0.155027 -0.155027
0.00931253 -0.149323 -0.149323
-0.000238137 -0.14359 -0.14359
-0.000251142 -0.149256 -0.149256
-0.0100038 -0.155048 -0.155048
-0.0103808 -0.166897 -0.166897
0.0097944 -0.166946 -0.166946
0.00947414 -0.155094 -0.155094
-0.0101923 -0.160921 -0.160921
-0.000292973 -0.166878 -0.166878
0.00963476 -0.160968 -0.160968
-0.000264612 -0.155027 -0.155027
-0.000278554 -0.1609 -0.1609
-0.0103808 -0.166897 -0.166897
-0.0107577 -0.179158 -0.179158
0.0101107 -0.17921 -0.17921
0.0097944 -0.166946 -0.166946
-0.0105692 -0.172976 -0.172976
-0.000323276 -0.17914 -0.17914
0.00995304 -0.173027 -0.173027
-0.000292973 -0.166878 -0.166878
-0.000307879 -0.172958 -0.172958
-0.0107577 -0.179158 -0.179158
-0.0111345 -0.191828 -0.191828
0.0104229 -0.191884 -0.191884
0.0101107 -0.17921 -0.17921
-0.0109461 -0.185442 -0.185442
-0.000355575 -0.191813 -0.191813
0.0102673 -0.185496 -0.185496
-0.000323276 -0.17914 -0.17914
-0.000339172 -0.185426 -0.185426
-0.0111345 -0.191828 -0.191828
-0.0115114 -0.204905 -0.204905
0.010731 -0.204964 -0.204964
0.0104229 -0.191884 -0.191884
-0.0113229 -0.198316 -0.198316
-0.000389924 -0.204892 -0.204892
0.0105775 -0.198373 -0.198373
-0.000355575 -0.191813 -0.191813
-0.00037249 -0.198301 -0.198301
-0.0115114 -0.204905 -0.204905
-0.0118883 -0.218387 -0.218387
0.011035 -0.218449 -0.218449
0.010731 -0.204964 -0.204964
-0.0116998 -0.211596 -0.211596
-0.000426375 -0.218375 -0.218375
0.0108836 -0.211657 -0.211657
-0.000389924 -0.204892 -0.204892
-0.000407883 -0.211583 -0.211583
-0.0118883 -0.218387 -0.218387
-0.0122653 -0.23227 -0.23227
0.0113348 -0.232336 -0.232336
0.011035 -0.218449 -0.218449
-0.0120767 -0.225278 -0.225278
-0.000464979 -0.232261 -0.232261
0.0111855 -0.225343 -0.225343
-0.000426375 -0.218375 -0.218375
-0.000445404 -0.225268 -0.225268
-0.0122653 -0.23227 -0.23227
-0.0126424 -0.246553 -0.246553
0.0116304 -0.246623 -0.246623
0.0113348 -0.232336 -0.232336
-0.0124538 -0.239362 -0.239362
-0.000505787 -0.246546 -0.246546
0.0114831 -0.23943 -0.23943
-0.000464979 -0.232261 -0.232261
-0.000485105 -0.239353 -0.239353
-0.0126424 -0.246553 -0.246553
-0.0130198 -0.261233 -0.261233
0.0119216 -0.261307 -0.261307
0.0116304 -0.246623 -0.246623
-0.0128311 -0.253844 -0.253844
-0.000548849 -0.261228 -0.261228
0.0117765 -0.253916 -0.253916
-0.000505787 -0.246546 -0.246546
-0.000527033 -0.253837 -0.253837
-0.0130198 -0.261233 -0.261233
-0.0133974 -0.276308 -0.276308
0.0122085 -0.276386 -0.276386
0.0119216 -0.261307 -0.261307
-0.0132086 -0.268721 -0.268721
-0.00059421 -0.276305 -0.276305
0.0120656 -0.268797 -0.268797
-0.000548849 -0.261228 -0.261228
-0.000571239 -0.268717 -0.268717
-0.0133974 -0.276308 -0.276308
-0.0137754 -0.291775 -0.291775
0.012491 -0.291857 -0.291857
0.0122085 -0.276386 -0.276386
-0.0135864 -0.283993 -0.283993
-0.000641919 -0.291774 -0.291774
0.0123503 -0.284072 -0.284072
-0.00059421 -0.276305 -0.276305
-0.000617768 -0.283991 -0.283991
-0.0137754 -0.291775 -0.291775
-0.0141537 -0.307632 -0.307632
0.0127691 -0.307718 -0.307718
0.012491 -0.291857 -0.291857
-0.0139645 -0.299655 -0.299655
-0.000692021 -0.307634 -0.307634
0.0126306 -0.299739 -0.299739
-0.000641919 -0.291774 -0.291774
-0.000666668 -0.299655 -0.299655
-0.0141537 -0.307632 -0.307632
-0.0145323 -0.323876 -0.323876
0.0130427 -0.323966 -0.323966
0.0127691 -0.307718 -0.307718
-0.0143429 -0.315706 -0.315706
-0.00074456 -0.32388 -0.32388
0.0129064 -0.315794 -0.315794
-0.000692021 -0.307634 -0.307634
-0.000717983 -0.315709 -0.315709
-0.0145323 -0.323876 -0.323876
-0.0149114 -0.340506 -0.340506
0.0133117 -0.3406 -0.3406
0.0130427 -0.323966 -0.323966
-0.0147218 -0.332143 -0.332143
-0.00079958 -0.340512 -0.340512
0.0131778 -0.332235 -0.332235
-0.00074456 -0.32388 -0.32388
-0.000771757 -0.332148 -0.332148
-0.0149114 -0.340506 -0.340506
-0.015291 -0.357518 -0.357518
0.0135762 -0.357616 -0.357616
0.0133117 -0.3406 -0.3406
-0.0151012 -0.348964 -0.348964
-0.000857123 -0.357527 -0.357527
0.0134445 -0.349061 -0.349061
-0.00079958 -0.340512 -0.340512
-0.000828033 -0.348972 -0.348972
-0.015291 -0.357518 -0.357518
-0.0156711 -0.37491 -0.37491
0.0138361 -0.375013 -0.375013
0.0135762 -0.357616 -0.357616
-0.015481 -0.366167 -0.366167
-0.00091723 -0.374921 -0.374921
0.0137067 -0.366267 -0.366267
-0.000857123 -0.357527 -0.357527
-0.000886853 -0.366177 -0.366177
-0.0156711 -0.37491 -0.37491
-0.0160518 -0.39268 -0.39268
0.0140913 -0.392787 -0.392787
0.0138361 -0.375013 -0.375013
-0.0158614 -0.383748 -0.383748
-0.000979941 -0.392694 -0.392694
0.0139643 -0.383853 -0.383853
-0.00091723 -0.374921 -0.374921
-0.000948257 -0.38376 -0.38376
-0.0160518 -0.39268 -0.39268
-0.0164331 -0.410826 -0.410826
0.0143419 -0.410937 -0.410937
0.0140913 -0.392787 -0.392787
-0.0162423 -0.401706 -0.401706
-0.0010453 -0.410842 -0.410842
0.0142172 -0.401816 -0.401816
-0.000979941 -0.392694 -0.392694
-0.00101229 -0.401721 -0.401721
-0.0164331 -0.410826 -0.410826
-0.016815 -0.429344 -0.429344
0.0145877 -0.42946 -0.42946
0.0143419 -0.410937 -0.410937
-0.0166239 -0.420038 -0.420038
-0.00111333 -0.429362 -0.429362
0.0144654 -0.420152 -0.420152
-0.0010453 -0.410842 -0.410842
-0.00107898 -0.420056 -0.420056
-0.016815 -0.429344 -0.429344
-0.0171975 -0.448233 -0.448233
0.0148287 -0.448354 -0.448354
0.0145877 -0.42946 -0.42946
-0.0170062 -0.438742 -0.438742
-0.00118408 -0.448254 -0.448254
0.0147088 -0.438861 -0.438861
-0.00111333 -0.429362 -0.429362
-0.00114837 -0.438762 -0.438762
-0.0171975 -0.448233 -0.448233
-0.0175808 -0.46749 -0.46749
0.015065 -0.467615 -0.467615
0.0148287 -0.448354 -0.448354
-0.0173891 -0.457815 -0.457815
-0.00125759 -0.467513 -0.467513
0.0149475 -0.457938 -0.457938
-0.00118408 -0.448254 -0.448254
-0.00122049 -0.457838 -0.457838
-0.0175808 -0.46749 -0.46749
-0.0179648 -0.487112 -0.487112
0.0152964 -0.487242 -0.487242
0.015065 -0.467615 -0.467615
-0.0177727 -0.477255 -0.477255
-0.00133389 -0.487138 -0.487138
0.0151813 -0.477383 -0.477383
-0.00125759 -0.467513 -0.467513
-0.00129539 -0.47728 -0.47728
-0.0179648 -0.487112 -0.487112
-0.0183496 -0.507098 -0.507098
0.015523 -0.507233 -0.507233
0.0152964 -0.487242 -0.487242
-0.0181571 -0.49706 -0.49706
-0.00141301 -0.507127 -0.507127
0.0154103 -0.497192 -0.497192
-0.00133389 -0.487138 -0.487138
-0.00137309 -0.497087 -0.497087
-0.0183496 -0.507098 -0.507098
-0.0187352 -0.527444 -0.527444
0.0157446 -0.527584 -0.527584
0.015523 -0.507233 -0.507233
-0.0185423 -0.517226 -0.517226
-0.00149498 -0.527476 -0.527476
0.0156344 -0.517364 -0.517364
-0.00141301 -0.507127 -0.507127
-0.00145363 -0.517256 -0.517256
-0.0187352 -0.527444 -0.527444
-0.0191217 -0.548149 -0.548149
0.0159614 -0.548294 -0.548294
0.0157446 -0.527584 -0.527584
-0.0189283 -0.537752 -0.537752
-0.00157984 -0.548184 -0.548184
0.0158536 -0.537895 -0.537895
-0.00149498 -0.527476 -0.527476
-0.00153705 -0.537785 -0.537785
-0.0191217 -0.548149 -0.548149
-0.019509 -0.56921 -0.56921
0.0161731 -0.56936 -0.56936
0.0159614 -0.548294 -0.548294
-0.0193152 -0.558636 -0.558636
-0.00166762 -0.569247 -0.569247
0.0160679 -0.558783 -0.558783
-0.00157984 -0.548184 -0.548184
-0.00162336 -0.558671 -0.558671
-0.019509 -0.56921 -0.56921
-0.0198972 -0.590625 -0.590625
0.0163799 -0.59078 -0.59078
0.0161731 -0.56936 -0.56936
-0.019703 -0.579874 -0.579874
-0.00175834 -0.590665 -0.590665
0.0162771 -0.580026 -0.580026
-0.00166762 -0.569247 -0.569247
-0.00171261 -0.579912 -0.579912
-0.0198972 -0.590625 -0.590625
-0.0202864 -0.61239 -0.61239
0.0165816 -0.61255 -0.61255
0.0163799 -0.59078 -0.59078
-0.0200917 -0.601464 -0.601464
-0.00185204 -0.612433 -0.612433
0.0164814 -0.601621 -0.601621
-0.00175834 -0.590665 -0.590665
-0.00180482 -0.601505 -0.601505
-0.0202864 -0.61239 -0.61239
-0.0206765 -0.634505 -0.634505
0.0167783 -0.63467 -0.63467
0.0165816 -0.61255 -0.61255
-0.0204813 -0.623404 -0.623404
-0.00194874 -0.63455 -0.63455
0.0166806 -0.623566 -0.623566
-0.00185204 -0.612433 -0.612433
-0.00190001 -0.623448 -0.623448
-0.0206765 -0.634505 -0.634505
-0.0210676 -0.656965 -0.656965
0.01697 -0.657135 -0.657135
0.0167783 -0.63467 -0.63467
-0.0208719 -0.645692 -0.645692
-0.00204847 -0.657014 -0.657014
0.0168748 -0.645859 -0.645859
-0.00194874 -0.63455 -0.63455
-0.00199823 -0.645739 -0.645739
-0.0210676 -0.656965 -0.656965
-0.0214597 -0.67977 -0.67977
0.0171565 -0.679945 -0.679945
0.01697 -0.657135 -0.657135
-0.0212635 -0.668325 -0.668325
-0.00215126 -0.679821 -0.679821
0.0170639 -0.668497 -0.668497
-0.00204847 -0.657014 -0.657014
-0.00209948 -0.668374 -0.668374
-0.0214597 -0.67977 -0.67977
-0.0218528 -0.702916 -0.702916
0.0173379 -0.703096 -0.703096
0.0171565 -0.679945 -0.679945
-0.0216561 -0.6913 -0.6913
-0.00225712 -0.70297 -0.70297
0.0172478 -0.691478 -0.691478
-0.00215126 -0.679821 -0.679821
-0.0022038 -0.691353 -0.691353
-0.0218528 -0.702916 -0.702916
-0.022247 -0.726401 -0.726401
0.0175142 -0.726586 -0.726586
0.0173379 -0.703096 -0.703096
-0.0220498 -0.714616 -0.714616
-0.00236609 -0.726458 -0.726458
0.0174267 -0.714799 -0.714799
-0.00225712 -0.70297 -0.70297
-0.00231122 -0.714671 -0.714671
-0.022247 -0.726401 -0.726401
-0.0226423 -0.750222 -0.750222
0.0176852 -0.750413 -0.750413
0.0175142 -0.726586 -0.726586
-0.0224445 -0.73827 -0.73827
-0.00247819 -0.750282 -0.750282
0.0176003 -0.738458 -0.738458
-0.00236609 -0.726458 -0.726458
-0.00242175 -0.738328 -0.738328
-0.0226423 -0.750222 -0.750222
-0.0230387 -0.774378 -0.774378
0.0178511 -0.774574 -0.774574
0.0176852 -0.750413 -0.750413
-0.0228404 -0.762259 -0.762259
-0.00259343 -0.774441 -0.774441
0.0177688 -0.762452 -0.762452
-0.00247819 -0.750282 -0.750282
-0.00253541 -0.76232 -0.76232
-0.0230387 -0.774378 -0.774378
-0.0234362 -0.798866 -0.798866
0.0180118 -0.799067 -0.799067
0.0178511 -0.774574 -0.774574
-0.0232373 -0.786581 -0.786581
-0.00271184 -0.798931 -0.798931
0.0179321 -0.786779 -0.786779
-0.00259343 -0.774441 -0.774441
-0.00265224 -0.786645 -0.786645
-0.0234362 -0.798866 -0.798866
-0.0238348 -0.823682 -0.823682
0.0181673 -0.823889 -0.823889
0.0180118 -0.799067 -0.799067
-0.0236354 -0.811233 -0.811233
-0.00283344 -0.823751 -0.823751
0.0180902 -0.811437 -0.811437
-0.00271184 -0.798931 -0.798931
-0.00277224 -0.8113 -0.8113
-0.0238348 -0.823682 -0.823682
-0.0242346 -0.848826 -0.848826
0.0183174 -0.849038 -0.849038
0.0181673 -0.823889 -0.823889
-0.0240346 -0.836214 -0.836214
-0.00295824 -0.848898 -0.848898
0.018243 -0.836423 -0.836423
-0.00283344 -0.823751 -0.823751
-0.00289544 -0.836284 -0.836284
-0.0242346 -0.848826 -0.848826
-0.0246356 -0.874294 -0.874294
0.0184624 -0.874512 -0.874512
0.0183174 -0.849038 -0.849038
-0.024435 -0.86152 -0.86152
-0.00308627 -0.874369 -0.874369
0.0183906 -0.861735 -0.861735
-0.00295824 -0.848898 -0.848898
-0.00302185 -0.861593 -0.861593
-0.0246356 -0.874294 -0.874294
-0.0250378 -0.900085 -0.900085
0.018602 -0.900308 -0.900308
0.0184624 -0.874512 -0.874512
-0.0248366 -0.887149 -0.887149
-0.00321754 -0.900162 -0.900162
0.0185329 -0.88737 -0.88737
-0.00308627 -0.874369 -0.874369
-0.0031515 -0.887225 -0.887225
-0.0250378 -0.900085 -0.900085
-0.0254412 -0.926195 -0.926195
0.0187363 -0.926423 -0.926423
0.018602 -0.900308 -0.900308
-0.0252393 -0.9131 -0.9131
-0.00335207 -0.926275 -0.926275
0.0186698 -0.913326 -0.913326
-0.00321754 -0.900162 -0.900162
-0.0032844 -0.913179 -0.913179
-0.0254412 -0.926195 -0.926195
-0.0258458 -0.952622 -0.952622
0.0188654 -0.952856 -0.952856
0.0187363 -0.926423 -0.926423
-0.0256434 -0.939369 -0.939369
-0.00348987 -0.952705 -0.952705
0.0188015 -0.9396 -0.9396
-0.00335207 -0.926275 -0.926275
-0.00342056 -0.939451 -0.939451
-0.0258458 -0.952622 -0.952622
-0.0262517 -0.979364 -0.979364
0.018989 -0.979604 -0.979604
0.0188654 -0.952856 -0.952856
-0.0260486 -0.965954 -0.965954
-0.00363096 -0.97945 -0.97945
0.0189279 -0.966191 -0.966191
-0.00348987 -0.952705 -0.952705
-0.00356001 -0.966039 -0.966039
-0.0262517 -0.979364 -0.979364
-0.0266588 -1.00642 -1.00642
0.0191074 -1.00666 -1.00666
0.018989 -0.979604 -0.979604
-0.0264551 -0.992852 -0.992852
-0.00377535 -1.00651 -1.00651
0.0190489 -0.993095 -0.993095
-0.00363096 -0.97945 -0.97945
-0.00370274 -0.99294 -0.99294
-0.0266588 -1.00642 -1.00642
-0.0270672 -1.03378 -1.03378
0.0192204 -1.03403 -1.03403
0.0191074 -1.00666 -1.00666
-0.0268628 -1.02006 -1.02006
-0.00392305 -1.03388 -1.03388
0.0191645 -1.02031 -1.02031
-0.00377535 -1.00651 -1.00651
-0.00384879 -1.02015 -1.02015
-0.0270672 -1.03378 -1.03378
-0.0274769 -1.06145 -1.06145
0.019328 -1.06171 -1.06171
0.0192204 -1.03403 -1.03403
-0.0272719 -1.04758 -1.04758
-0.00407408 -1.06155 -1.06155
0.0192748 -1.04783 -1.04783
-0.00392305 -1.03388 -1.03388
-0.00399815 -1.04767 -1.04767
-0.0274769 -1.06145 -1.06145
-0.0278878 -1.08943 -1.08943
0.0194302 -1.08969 -1.08969
0.019328 -1.06171 -1.06171
-0.0276822 -1.0754 -1.0754
-0.00422844 -1.08953 -1.08953
0.0193798 -1.07566 -1.07566
-0.00407408 -1.06155 -1.06155
-0.00415084 -1.0755 -1.0755
-0.0278878 -1.08943 -1.08943
-0.0283001 -1.11771 -1.11771
0.0195271 -1.11798 -1.11798
0.0194302 -1.08969 -1.08969
-0.0280938 -1.10353 -1.10353
-0.00438614 -1.11781 -1.11781
0.0194793 -1.1038 -1.1038
-0.00422844 -1.08953 -1.08953
-0.00430687 -1.10363 -1.10363
-0.0283001 -1.11771 -1.11771
-0.0287136 -1.14629 -1.14629
0.0196185 -1.14656 -1.14656
0.0195271 -1.11798 -1.11798
-0.0285067 -1.13196 -1.13196
-0.0045472 -1.1464 -1.1464
0.0195734 -1.13223 -1.13223
-0.00438614 -1.11781 -1.11781
-0.00446625 -1.13207 -1.13207
-0.0287136 -1.14629 -1.14629
-0.0291285 -1.17517 -1.17517
0.0197045 -1.17545 -1.17545
0.0196185 -1.14656 -1.14656
-0.0289209 -1.16069 -1.16069
-0.00471162 -1.17528 -1.17528
0.0196622 -1.16097 -1.16097
-0.0045472 -1.1464 -1.1464
-0.00462899 -1.1608 -1.1608
-0.0291285 -1.17517 -1.17517
-0.0295447 -1.20434 -1.20434
0.0197852 -1.20463 -1.20463
0.0197045 -1.17545 -1.17545
-0.0293365 -1.18972 -1.18972
-0.00487941 -1.20445 -1.20445
0.0197455 -1.19 -1.19
-0.00471162 -1.17528 -1.17528
-0.0047951 -1.18983 -1.18983
-0.0295447 -1.20434 -1.20434
-0.0299623 -1.23381 -1.23381
0.0198604 -1.2341 -1.2341
0.0197852 -1.20463 -1.20463
-0.0297533 -1.21904 -1.21904
-0.00505058 -1.23392 -1.23392
0.0198234 -1.21933 -1.21933
-0.00487941 -1.20445 -1.20445
-0.00496457 -1.21915 -1.21915
-0.0299623 -1.23381 -1.23381
-0.0303811 -1.26357 -1.26357
0.0199301 -1.26386 -1.26386
0.0198604 -1.2341 -1.2341
-0.0301715 -1.24865 -1.24865
-0.00522513 -1.26368 -1.26368
0.0198959 -1.24894 -1.24894
-0.00505058 -1.23392 -1.23392
-0.00513743 -1.24877 -1.24877
-0.0303811 -1.26357 -1.26357
-0.0308013 -1.29361 -1.29361
0.0199945 -1.29391 -1.29391
0.0199301 -1.26386 -1.26386
-0.0305911 -1.27855 -1.27855
-0.00540306 -1.29373 -1.29373
0.019963 -1.27885 -1.27885
-0.00522513 -1.26368 -1.26368
-0.00531367 -1.27867 -1.27867
-0.0308013 -1.29361 -1.29361
-0.0312229 -1.32394 -1.32394
0.0200534 -1.32425 -1.32425
0.0199945 -1.29391 -1.29391
-0.0310119 -1.30874 -1.30874
-0.00558438 -1.32406 -1.32406
0.0200246 -1.30904 -1.30904
-0.00540306 -1.29373 -1.29373
-0.00549329 -1.30886 -1.30886
-0.0312229 -1.32394 -1.32394
-0.0316458 -1.35456 -1.35456
0.0201069 -1.35487 -1.35487
0.0200534 -1.32425 -1.32425
-0.0314342 -1.33921 -1.33921
-0.00576909 -1.35468 -1.35468
0.0200808 -1.33952 -1.33952
-0.00558438 -1.32406 -1.32406
-0.00567631 -1.33934 -1.33934
-0.0316458 -1.35456 -1.35456
-0.03207 -1.38545 -1.38545
0.0201549 -1.38577 -1.38577
0.0201069 -1.35487 -1.35487
-0.0318577 -1.36997 -1.36997
-0.0059572 -1.38558 -1.38558
0.0201316 -1.37028 -1.37028
-0.00576909 -1.35468 -1.35468
-0.00586272 -1.3701 -1.3701
-0.03207 -1.38545 -1.38545
-0.0324956 -1.41662 -1.41662
0.0201975 -1.41695 -1.41695
0.0201549 -1.38577 -1.38577
-0.0322827 -1.401 -1.401
-0.0061487 -1.41676 -1.41676
0.0201769 -1.40132 -1.40132
-0.0059572 -1.38558 -1.38558
-0.00605252 -1.40113 -1.40113
-0.0324956 -1.41662 -1.41662
-0.0329226 -1.44807 -1.44807
0.0202347 -1.4484 -1.4484
0.0201975 -1.41695 -1.41695
-0.032709 -1.43231 -1.43231
-0.0063436 -1.44821 -1.44821
0.0202168 -1.43264 -1.43264
-0.0061487 -1.41676 -1.41676
-0.00624573 -1.43245 -1.43245
-0.0329226 -1.44807 -1.44807
-0.0333509 -1.4798 -1.4798
0.0202664 -1.48013 -1.48013
0.0202347 -1.4484 -1.4484
-0.0331366 -1.4639 -1.4639
-0.0065419 -1.47994 -1.47994
0.0202512 -1.46423 -1.46423
-0.0063436 -1.44821 -1.44821
-0.00644232 -1.46404 -1.46404
-0.0333509 -1.4798 -1.4798
-0.0337806 -1.51179 -1.51179
0.0202926 -1.51213 -1.51213
0.0202664 -1.48013 -1.48013
-0.0335656 -1.49576 -1.49576
-0.00674359 -1.51193 -1.51193
0.0202802 -1.4961 -1.4961
-0.0065419 -1.47994 -1.47994
-0.00664232 -1.4959 -1.4959
-0.0337806 -1.51179 -1.51179
-0.0342116 -1.54405 -1.54405
0.0203135 -1.5444 -1.5444
0.0202926 -1.51213 -1.51213
-0.0339959 -1.52789 -1.52789
-0.00694867 -1.5442 -1.5442
0.0203037 -1.52823 -1.52823
-0.00674359 -1.51193 -1.51193
-0.00684571 -1.52803 -1.52803
-0.0342116 -1.54405 -1.54405
-0.0346439 -1.57658 -1.57658
0.0203289 -1.57694 -1.57694
0.0203135 -1.5444 -1.5444
-0.0344276 -1.56029 -1.56029
-0.00715715 -1.57673 -1.57673
0.0203219 -1.56064 -1.56064
-0.00694867 -1.5442 -1.5442
-0.00705249 -1.56043 -1.56043
-0.0346439 -1.57658 -1.57658
-0.0350776 -1.60938 -1.60938
0.0203388 -1.60974 -1.60974
0.0203289 -1.57694 -1.57694
-0.0348606 -1.59295 -1.59295
-0.00736901 -1.60953 -1.60953
0.0203345 -1.5933 -1.5933
-0.00715715 -1.57673 -1.57673
-0.00726266 -1.5931 -1.5931
-0.0350776 -1.60938 -1.60938
-0.0355126 -1.64243 -1.64243
0.0203434 -1.6428 -1.6428
0.0203388 -1.60974 -1.60974
-0.035295 -1.62587 -1.62587
-0.00758426 -1.64259 -1.64259
0.0203418 -1.62623 -1.62623
-0.00736901 -1.60953 -1.60953
-0.00747622 -1.62603 -1.62603
-0.0355126 -1.64243 -1.64243
-0.035949 -1.67575 -1.67575
0.0203425 -1.67612 -1.67612
0.0203434 -1.6428 -1.6428
-0.0357307 -1.65906 -1.65906
-0.00780289 -1.6759 -1.6759
0.0203436 -1.65943 -1.65943
-0.00758426 -1.64259 -1.64259
-0.00769315 -1.65921 -1.65921
-0.035949 -1.67575 -1.67575
-0.0363867 -1.70932 -1.70932
0.0203362 -1.70969 -1.70969
0.0203425 -1.67612 -1.67612
-0.0361677 -1.6925 -1.6925
-0.00802489 -1.70948 -1.70948
0.02034 -1.69287 -1.69287
-0.00780289 -1.6759 -1.6759
-0.00791347 -1.69266 -1.69266
-0.0363867 -1.70932 -1.70932
-0.0368257 -1.74314 -1.74314
0.0203245 -1.74352 -1.74352
0.0203362 -1.70969 -1.70969
-0.036606 -1.7262 -1.7262
-0.00825026 -1.74331 -1.74331
0.020331 -1.72658 -1.72658
-0.00802489 -1.70948 -1.70948
-0.00813716 -1.72636 -1.72636
-0.0368257 -1.74314 -1.74314
-0.0372661 -1.77722 -1.77722
0.0203073 -1.77761 -1.77761
0.0203245 -1.74352 -1.74352
-0.0370457 -1.76015 -1.76015
-0.00847899 -1.77739 -1.77739
0.0203166 -1.76053 -1.76053
-0.00825026 -1.74331 -1.74331
-0.00836421 -1.76032 -1.76032
-0.0372661 -1.77722 -1.77722
-0.0377077 -1.81155 -1.81155
0.0202848 -1.81194 -1.81194
0.0203073 -1.77761 -1.77761
-0.0374867 -1.79435 -1.79435
-0.00871107 -1.81172 -1.81172
0.0202968 -1.79474 -1.79474
-0.00847899 -1.77739 -1.77739
-0.00859461 -1.79452 -1.79452
-0.0377077 -1.81155 -1.81155
-0.0381506 -1.84612 -1.84612
0.0202569 -1.84652 -1.84652
0.0202848 -1.81194 -1.81194
-0.037929 -1.8288 -1.8288
-0.0089465 -1.84629 -1.84629
0.0202715 -1.8292 -1.8292
-0.00871107 -1.81172 -1.81172
-0.00882837 -1.82897 -1.82897
-0.0381506 -1.84612 -1.84612
-0.0385949 -1.88094 -1.88094
0.0202236 -1.88134 -1.88134
0.0202569 -1.84652 -1.84652
-0.0383726 -1.8635 -1.8635
-0.00918526 -1.88111 -1.88111
0.0202409 -1.8639 -1.8639
-0.0089465 -1.84629 -1.84629
-0.00906547 -1.86367 -1.86367
-0.0385949 -1.88094 -1.88094
-0.0390404 -1.916 -1.916
0.020185 -1.91641 -1.91641
0.0202236 -1.88134 -1.88134
-0.0388175 -1.89844 -1.89844
-0.00942735 -1.91618 -1.91618
0.020205 -1.89884 -1.89884
-0.00918526 -1.88111 -1.88111
-0.00930589 -1.89862 -1.89862
-0.0390404 -1.916 -1.916
-0.0394872 -1.9513 -1.9513
0.0201409 -1.95171 -1.95171
0.020185 -1.91641 -1.91641
-0.0392636 -1.93362 -1.93362
-0.00967275 -1.95148 -1.95148
0.0201636 -1.93403 -1.93403
-0.00942735 -1.91618 -1.91618
-0.00954964 -1.9338 -1.9338
-0.0394872 -1.9513 -1.9513
-0.0399352 -1.98684 -1.98684
0.0200916 -1.98726 -1.98726
0.0201409 -1.95171 -1.95171
-0.039711 -1.96904 -1.96904
-0.00992146 -1.98702 -1.98702
0.0201169 -1.96946 -1.96946
-0.00967275 -1.95148 -1.95148
-0.0097967 -1.96922 -1.96922
-0.0399352 -1.98684 -1.98684
-0.0403845 -2.02261 -2.02261
0.0200369 -2.02303 -2.02303
0.0200916 -1.98726 -1.98726
-0.0401597 -2.00469 -2.00469
-0.0101735 -2.0228 -2.0228
0.0200649 -2.00512 -2.00512
-0.00992146 -1.98702 -1.98702
-0.0100471 -2.00488 -2.00488
-0.0403845 -2.02261 -2.02261
-0.040835 -2.05861 -2.05861
0.0199768 -2.05904 -2.05904
0.0200369 -2.02303 -2.02303
-0.0406096 -2.04058 -2.04058
-0.0104287 -2.0588 -2.0588
0.0200075 -2.04101 -2.04101
-0.0101735 -2.0228 -2.0228
-0.0103007 -2.04077 -2.04077
-0.040835 -2.05861 -2.05861
-0.0412868 -2.09485 -2.09485
0.0199115 -2.09528 -2.09528
0.0199768 -2.05904 -2.05904
-0.0410607 -2.0767 -2.0767
-0.0106873 -2.09504 -2.09504
0.0199448 -2.07714 -2.07714
-0.0104287 -2.0588 -2.0588
-0.0105576 -2.07689 -2.07689
-0.0412868 -2.09485 -2.09485
-0.0417397 -2.13131 -2.13131
0.0198408 -2.13175 -2.13175
0.0199115 -2.09528 -2.09528
-0.0415131 -2.11305 -2.11305
-0.0109491 -2.13151 -2.13151
0.0198768 -2.11349 -2.11349
-0.0106873 -2.09504 -2.09504
-0.0108178 -2.11325 -2.11325
-0.0417397 -2.13131 -2.13131
-0.0421939 -2.168 -2.168
0.0197649 -2.16845 -2.16845
0.0198408 -2.13175 -2.13175
-0.0419666 -2.14962 -2.14962
-0.0112141 -2.1682 -2.1682
0.0198035 -2.15007 -2.15007
-0.0109491 -2.13151 -2.13151
-0.0110812 -2.14982 -2.14982
-0.0421939 -2.168 -2.168
-0.0426492 -2.20491 -2.20491
0.0196837 -2.20536 -2.20536
0.0197649 -2.16845 -2.16845
-0.0424214 -2.18642 -2.18642
-0.0114824 -2.20511 -2.20511
0.019725 -2.18688 -2.18688
-0.0112141 -2.1682 -2.1682
-0.0113478 -2.18663 -2.18663
-0.0426492 -2.20491 -2.20491
-0.0431057 -2.24204 -2.24204
0.0195973 -2.2425 -2.2425
0.0196837 -2.20536 -2.20536
-0.0428773 -2.22345 -2.22345
-0.0117538 -2.24224 -2.24224
0.0196412 -2.2239 -2.2239
-0.0114824 -2.20511 -2.20511
-0.0116177 -2.22365 -2.22365
-0.0431057 -2.24204 -2.24204
-0.0435633 -2.27939 -2.27939
0.0195056 -2.27985 -2.27985
0.0195973 -2.2425 -2.2425
-0.0433343 -2.26069 -2.26069
-0.0120285 -2.2796 -2.2796
0.0195521 -2.26115 -2.26115
-0.0117538 -2.24224 -2.24224
-0.0118908 -2.26089 -2.26089
-0.0435633 -2.27939 -2.27939
-0.0440221 -2.31695 -2.31695
0.0194087 -2.31742 -2.31742
0.0195056 -2.27985 -2.27985
-0.0437925 -2.29814 -2.29814
-0.0123063 -2.31716 -2.31716
0.0194578 -2.29861 -2.29861
-0.0120285 -2.2796 -2.2796
-0.012167 -2.29835 -2.29835
-0.0440221 -2.31695 -2.31695
-0.0444819 -2.35473 -2.35473
0.0193066 -2.3552 -2.3552
0.0194087 -2.31742 -2.31742
-0.0442518 -2.33581 -2.33581
-0.0125873 -2.35494 -2.35494
0.0193583 -2.33629 -2.33629
-0.0123063 -2.31716 -2.31716
-0.0124464 -2.33603 -2.33603
-0.0444819 -2.35473 -2.35473
-0.0449429 -2.39272 -2.39272
0.0191994 -2.3932 -2.3932
0.0193066 -2.3552 -2.3552
-0.0447123 -2.3737 -2.3737
-0.0128714 -2.39293 -2.39293
0.0192536 -2.37417 -2.37417
-0.0125873 -2.35494 -2.35494
-0.012729 -2.37391 -2.37391
-0.0449429 -2.39272 -2.39272
-0.0454049 -2.43091 -2.43091
0.0190869 -2.4314 -2.4314
0.0191994 -2.3932 -2.3932
-0.0451738 -2.41179 -2.41179
-0.0131587 -2.43113 -2.43113
0.0191438 -2.41227 -2.41227
-0.0128714 -2.39293 -2.39293
-0.0130147 -2.41201 -2.41201
-0.0454049 -2.43091 -2.43091
-0.045868 -2.46931 -2.46931
0.0189693 -2.46981 -2.46981
0.0190869 -2.4314 -2.4314
-0.0456363 -2.45009 -2.45009
-0.013449 -2.46954 -2.46954
0.0190288 -2.45058 -2.45058
-0.0131587 -2.43113 -2.43113
-0.0133035 -2.45031 -2.45031
-0.045868 -2.46931 -2.46931
-0.0463321 -2.50792 -2.50792
0.0188466 -2.50842 -2.50842
0.0189693 -2.46981 -2.46981
-0.0460999 -2.48859 -2.48859
-0.0137424 -2.50815 -2.50815
0.0189086 -2.48909 -2.48909
-0.013449 -2.46954 -2.46954
-0.0135953 -2.48882 -2.48882
-0.0463321 -2.50792 -2.50792
-0.0467973 -2.54673 -2.54673
0.0187188 -2.54723 -2.54723
0.0188466 -2.50842 -2.50842
-0.0465646 -2.5273 -2.5273
-0.0140389 -2.54696 -2.54696
0.0187834 -2.5278 -2.5278
-0.0137424 -2.50815 -2.50815
-0.0138903 -2.52753 -2.52753
-0.0467973 -2.54673 -2.54673
-0.0472634 -2.58573 -2.58573
0.0185859 -2.58624 -2.58624
0.0187188 -2.54723 -2.54723
-0.0470302 -2.5662 -2.5662
-0.0143384 -2.58596 -2.58596
0.018653 -2.56671 -2.56671
-0.0140389 -2.54696 -2.54696
-0.0141883 -2.56643 -2.56643
-0.0472634 -2.58573 -2.58573
-0.0477305 -2.62493 -2.62493
0.018448 -2.62544 -2.62544
0.0185859 -2.58624 -2.58624
-0.0474968 -2.60531 -2.60531
-0.0146409 -2.62517 -2.62517
0.0185176 -2.60582 -2.60582
-0.0143384 -2.58596 -2.58596
-0.0144893 -2.60554 -2.60554
-0.0477305 -2.62493 -2.62493
-0.0481986 -2.66433 -2.66433
0.018305 -2.66484 -2.66484
0.018448 -2.62544 -2.62544
-0.0479644 -2.64461 -2.64461
-0.0149465 -2.66457 -2.66457
0.0183771 -2.64512 -2.64512
-0.0146409 -2.62517 -2.62517
-0.0147933 -2.64484 -2.64484
-0.0481986 -2.66433 -2.66433
-0.0486675 -2.70391 -2.70391
0.018157 -2.70444 -2.70444
0.018305 -2.66484 -2.66484
-0.0484329 -2.6841 -2.6841
-0.015255 -2.70415 -2.70415
0.0182316 -2.68462 -2.68462
-0.0149465 -2.66457 -2.66457
-0.0151003 -2.68434 -2.68434
-0.0486675 -2.70391 -2.70391
-0.0491374 -2.74369 -2.74369
0.018004 -2.74422 -2.74422
0.018157 -2.70444 -2.70444
-0.0489024 -2.72378 -2.72378
-0.0155664 -2.74393 -2.74393
0.0180811 -2.7243 -2.7243
-0.015255 -2.70415 -2.70415
-0.0154103 -2.72402 -2.72402
-0.0491374 -2.74369 -2.74369
-0.0496082 -2.78365 -2.78365
0.017846 -2.78418 -2.78418
0.018004 -2.74422 -2.74422
-0.0493727 -2.76365 -2.76365
-0.0158808 -2.7839 -2.7839
0.0179256 -2.76418 -2.76418
-0.0155664 -2.74393 -2.74393
-0.0157232 -2.76389 -2.76389
-0.0496082 -2.78365 -2.78365
-0.0500798 -2.8238 -2.8238
0.0176831 -2.82433 -2.82433
0.017846 -2.78418 -2.78418
-0.0498439 -2.8037 -2.8037
-0.016198 -2.82405 -2.82405
0.0177652 -2.80423 -2.80423
-0.0158808 -2.7839 -2.7839
-0.016039 -2.80395 -2.80395
-0.0500798 -2.8238 -2.8238
-0.0505522 -2.86412 -2.86412
0.0175153 -2.86466 -2.86466
0.0176831 -2.82433 -2.82433
-0.0503159 -2.84394 -2.84394
-0.0165182 -2.86438 -2.86438
0.0175998 -2.84448 -2.84448
-0.016198 -2.82405 -2.82405
-0.0163577 -2.84419 -2.84419
-0.0505522 -2.86412 -2.86412
-0.0510255 -2.90463 -2.90463
0.0173426 -2.90518 -2.90518
0.0175153 -2.86466 -2.86466
-0.0507887 -2.88435 -2.88435
-0.0168411 -2.90488 -2.90488
0.0174295 -2.8849 -2.8849
-0.0165182 -2.86438 -2.86438
-0.0166793 -2.88461 -2.88461
-0.0510255 -2.90463 -2.90463
-0.0514995 -2.94531 -2.94531
0.017165 -2.94586 -2.94586
0.0173426 -2.90518 -2.90518
-0.0512624 -2.92495 -2.92495
-0.0171669 -2.94557 -2.94557
0.0172544 -2.9255 -2.9255
-0.0168411 -2.90488 -2.90488
-0.0170037 -2.92521 -2.92521
-0.0514995 -2.94531 -2.94531
-0.0519743 -2.98617 -2.98617
0.0169826 -2.98673 -2.98673
0.017165 -2.94586 -2.94586
-0.0517368 -2.96572 -2.96572
-0.0174955 -2.98643 -2.98643
0.0170744 -2.96627 -2.96627
-0.0171669 -2.94557 -2.94557
-0.0173309 -2.96598 -2.96598
-0.0519743 -2.98617 -2.98617
-0.0524497 -3.0272 -3.0272
0.0167953 -3.02776 -3.02776
0.0169826 -2.98673 -2.98673
-0.0522119 -3.00666 -3.00666
-0.0178269 -3.02746 -3.02746
0.0168895 -3.00722 -3.00722
-0.0174955 -2.98643 -2.98643
-0.0176609 -3.00693 -3.00693
-0.0524497 -3.0272 -3.0272
-0.0529259 -3.0684 -3.0684
0.0166033 -3.06896 -3.06896
0.0167953 -3.02776 -3.02776
-0.0526878 -3.04778 -3.04778
-0.018161 -3.06866 -3.06866
0.0166999 -3.04834 -3.04834
-0.0178269 -3.02746 -3.02746
-0.0179936 -3.04804 -3.04804
-0.0529259 -3.0684 -3.0684
-0.0534028 -3.10977 -3.10977
0.0164065 -3.11034 -3.11034
0.0166033 -3.06896 -3.06896
-0.0531643 -3.08906 -3.08906
-0.0184978 -3.11003 -3.11003
0.0165055 -3.08963 -3.08963
-0.018161 -3.06866 -3.06866
-0.0183291 -3.08933 -3.08933
-0.0534028 -3.10977 -3.10977
-0.0538803 -3.1513 -3.1513
0.016205 -3.15187 -3.15187
0.0164065 -3.11034 -3.11034
-0.0536415 -3.13051 -3.13051
-0.0188373 -3.15157 -3.15157
0.0163064 -3.13108 -3.13108
-0.0184978 -3.11003 -3.11003
-0.0186673 -3.13078 -3.13078
-0.0538803 -3.1513 -3.1513
-0.0543584 -3.19299 -3.19299
0.0159988 -3.19357 -3.19357
0.016205 -3.15187 -3.15187
-0.0541193 -3.17212 -3.17212
-0.0191795 -3.19326 -3.19326
0.0161025 -3.1727 -3.1727
-0.0188373 -3.15157 -3.15157
-0.0190081 -3.17239 -3.17239
-0.0543584 -3.19299 -3.19299
-0.0548371 -3.23484 -3.23484
0.0157879 -3.23543 -3.23543
0.0159988 -3.19357 -3.19357
-0.0545977 -3.2139 -3.2139
-0.0195243 -3.23512 -3.23512
0.015894 -3.21448 -3.21448
-0.0191795 -3.19326 -3.19326
-0.0193516 -3.21417 -3.21417
-0.0548371 -3.23484 -3.23484
-0.0553163 -3.27685 -3.27685
0.0155724 -3.27744 -3.27744
0.0157879 -3.23543 -3.23543
-0.0550766 -3.25583 -3.25583
-0.0198717 -3.27713 -3.27713
0.0156808 -3.25641 -3.25641
-0.0195243 -3.23512 -3.23512
-0.0196976 -3.2561 -3.2561
-0.0553163 -3.27685 -3.27685
-0.0557961 -3.31902 -3.31902
0.0153523 -3.31961 -3.31961
0.0155724 -3.27744 -3.27744
-0.0555561 -3.29792 -3.29792
-0.0202216 -3.3193 -3.3193
0.0154629 -3.29851 -3.29851
-0.0198717 -3.27713 -3.27713
-0.0200463 -3.2982 -3.2982
-0.0557961 -3.31902 -3.31902
-0.0562763 -3.36134 -3.36134
0.0151276 -3.36193 -3.36193
0.0153523 -3.31961 -3.31961
-0.0560361 -3.34016 -3.34016
-0.0205741 -3.36162 -3.36162
0.0152405 -3.34075 -3.34075
-0.0202216 -3.3193 -3.3193
-0.0203975 -3.34044 -3.34044
-0.0562763 -3.36134 -3.36134
-0.056757 -3.40381 -3.40381
0.0148984 -3.40441 -3.40441
0.0151276 -3.36193 -3.36193
-0.0565166 -3.38255 -3.38255
-0.0209291 -3.40409 -3.40409
0.0150136 -3.38315 -3.38315
-0.0205741 -3.36162 -3.36162
-0.0207513 -3.38284 -3.38284
-0.056757 -3.40381 -3.40381
-0.0572381 -3.44642 -3.44642
0.0146646 -3.44703 -3.44703
0.0148984 -3.40441 -3.40441
-0.0569975 -3.4251 -3.4251
-0.0212865 -3.44671 -3.44671
0.014782 -3.4257 -3.4257
-0.0209291 -3.40409 -3.40409
-0.0211075 -3.42538 -3.42538
-0.0572381 -3.44642 -3.44642
-0.0577197 -3.48918 -3.48918
0.0144264 -3.48979 -3.48979
0.0146646 -3.44703 -3.44703
-0.0574788 -3.46778 -3.46778
-0.0216464 -3.48947 -3.48947
0.014546 -3.46839 -3.46839
-0.0212865 -3.44671 -3.44671
-0.0214661 -3.46807 -3.46807
-0.0577197 -3.48918 -3.48918
-0.0582015 -3.53209 -3.53209
0.0141837 -3.5327 -3.5327
0.0144264 -3.48979 -3.48979
-0.0579606 -3.51062 -3.51062
-0.0220087 -3.53238 -3.53238
0.0143056 -3.51123 -3.51123
-0.0216464 -3.48947 -3.48947
-0.0218272 -3.51091 -3.51091
-0.0582015 -3.53209 -3.53209
-0.0586838 -3.57513 -3.57513
0.0139365 -3.57575 -3.57575
0.0141837 -3.5327 -3.5327
-0.0584426 -3.55359 -3.55359
-0.0223734 -3.57542 -3.57542
0.0140606 -3.55421 -3.55421
-0.0220087 -3.53238 -3.53238
-0.0221907 -3.55388 -3.55388
-0.0586838 -3.57513 -3.57513
-0.0591663 -3.61831 -3.61831
0.013685 -3.61893 -3.61893
0.0139365 -3.57575 -3.57575
-0.058925 -3.59671 -3.59671
-0.0227404 -3.61861 -3.61861
0.0138113 -3.59732 -3.59732
-0.0223734 -3.57542 -3.57542
-0.0225566 -3.597 -3.597
-0.0591663 -3.61831 -3.61831
-0.059649 -3.66163 -3.66163
0.0134292 -3.66226 -3.66226
0.013685 -3.61893 -3.61893
-0.0594076 -3.63996 -3.63996
-0.0231097 -3.66193 -3.66193
0.0135577 -3.64058 -3.64058
-0.0227404 -3.61861 -3.61861
-0.0229247 -3.64025 -3.64025
-0.059649 -3.66163 -3.66163
-0.060132 -3.70508 -3.70508
0.013169 -3.70571 -3.70571
0.0134292 -3.66226 -3.66226
-0.0598905 -3.68334 -3.68334
-0.0234813 -3.70538 -3.70538
0.0132996 -3.68397 -3.68397
-0.0231097 -3.66193 -3.66193
-0.0232952 -3.68364 -3.68364
-0.060132 -3.70508 -3.70508
-0.0606152 -3.74867 -3.74867
0.0129046 -3.7493 -3.7493
0.013169 -3.70571 -3.70571
-0.0603736 -3.72686 -3.72686
-0.0238551 -3.74897 -3.74897
0.0130373 -3.72749 -3.72749
-0.0234813 -3.70538 -3.70538
-0.0236679 -3.72716 -3.72716
-0.0606152 -3.74867 -3.74867
-0.0610986 -3.79238 -3.79238
0.0126359 -3.79301 -3.79301
0.0129046 -3.7493 -3.7493
-0.0608569 -3.77051 -3.77051
-0.0242311 -3.79268 -3.79268
0.0127708 -3.77114 -3.77114
-0.0238551 -3.74897 -3.74897
-0.0240428 -3.77081 -3.77081
-0.0610986 -3.79238 -3.79238
-0.0615821 -3.83621 -3.83621
0.012363 -3.83685 -3.83685
0.0126359 -3.79301 -3.79301
-0.0613403 -3.81428 -3.81428
-0.0246093 -3.83652 -3.83652
0.0124999 -3.81492 -3.81492
-0.0242311 -3.79268 -3.79268
-0.0244199 -3.81458 -3.81458
-0.0615821 -3.83621 -3.83621
-0.0620656 -3.88017 -3.88017
0.0120859 -3.88082 -3.88082
0.012363 -3.83685 -3.83685
-0.0618238 -3.85818 -3.85818
-0.0249896 -3.88048 -3.88048
0.0122249 -3.85882 -3.85882
-0.0246093 -3.83652 -3.83652
-0.0247992 -3.85849 -3.85849
-0.0620656 -3.88017 -3.88017
-0.0625492 -3.92425 -3.92425
0.0118047 -3.9249 -3.9249
0.0120859 -3.88082 -3.88082
-0.0623074 -3.9022 -3.9022
-0.0253721 -3.92456 -3.92456
0.0119458 -3.90284 -3.90284
-0.0249896 -3.88048 -3.88048
-0.0251806 -3.90251 -3.90251
-0.0625492 -3.92425 -3.92425
-0.0630329 -3.96845 -3.96845
0.0115193 -3.9691 -3.9691
0.0118047 -3.9249 -3.9249
-0.062791 -3.94634 -3.94634
-0.0257565 -3.96877 -3.96877
0.0116625 -3.94699 -3.94699
-0.0253721 -3.92456 -3.92456
-0.025564 -3.94665 -3.94665
-0.0630329 -3.96845 -3.96845
-0.0635165 -4.01277 -4.01277
0.0112299 -4.01342 -4.01342
0.0115193 -3.9691 -3.9691
-0.0632747 -3.9906 -3.9906
-0.026143 -4.01308 -4.01308
0.0113751 -3.99125 -3.99125
-0.0257565 -3.96877 -3.96877
-0.0259495 -3.99091 -3.99091
-0.0635165 -4.01277 -4.01277
-0.064 -4.0572 -4.0572
0.0109365 -4.05786 -4.05786
0.0112299 -4.01342 -4.01342
-0.0637582 -4.03497 -4.03497
-0.0265315 -4.05752 -4.05752
0.0110837 -4.03563 -4.03563
-0.026143 -4.01308 -4.01308
-0.026337 -4.03529 -4.03529
-0.064 -4.0572 -4.0572
-0.0644835 -4.10174 -4.10174
0.0106391 -4.1024 -4.1024
0.0109365 -4.05786 -4.05786
-0.0642417 -4.07946 -4.07946
-0.026922 -4.10206 -4.10206
0.0107883 -4.08011 -4.08011
-0.0265315 -4.05752 -4.05752
-0.0267265 -4.07977 -4.07977
-0.0644835 -4.10174 -4.10174
-0.0649668 -4.14639 -4.14639
0.0103377 -4.14705 -4.14705
0.0106391 -4.1024 -4.1024
-0.0647251 -4.12405 -4.12405
-0.0273143 -4.14671 -4.14671
0.0104889 -4.12471 -4.12471
-0.026922 -4.10206 -4.10206
-0.0271179 -4.12437 -4.12437
-0.0649668 -4.14639 -4.14639
-0.0654499 -4.19115 -4.19115
0.0100324 -4.19181 -4.19181
0.0103377 -4.14705 -4.14705
-0.0652084 -4.16876 -4.16876
-0.0277086 -4.19147 -4.19147
0.0101856 -4.16942 -4.16942
-0.0273143 -4.14671 -4.14671
-0.0275112 -4.16908 -4.16908
-0.0654499 -4.19115 -4.19115
-0.0659329 -4.23601 -4.23601
0.00972325 -4.23668 -4.23668
0.0100324 -4.19181 -4.19181
-0.0656914 -4.21357 -4.21357
-0.0281046 -4.23633 -4.23633
0.00987832 -4.21423 -4.21423
-0.0277086 -4.19147 -4.19147
-0.0279064 -4.21389 -4.21389
-0.0659329 -4.23601 -4.23601
-0.0664156 -4.28097 -4.28097
0.00941024 -4.28164 -4.28164
0.00972325 -4.23668 -4.23668
-0.0661742 -4.25848 -4.25848
-0.0285025 -4.2813 -4.2813
0.00956722 -4.25915 -4.25915
-0.0281046 -4.23633 -4.23633
-0.0283033 -4.2588 -4.2588
-0.0664156 -4.28097 -4.28097
-0.066898 -4.32603 -4.32603
0.00909342 -4.32671 -4.32671
0.00941024 -4.28164 -4.28164
-0.0666568 -4.30349 -4.30349
-0.0289021 -4.32636 -4.32636
0.0092523 -4.30416 -4.30416
-0.0285025 -4.2813 -4.2813
-0.0287021 -4.30382 -4.30382
-0.066898 -4.32603 -4.32603
-0.06738 -4.37119 -4.37119
0.00877285 -4.37187 -4.37187
0.00909342 -4.32671 -4.32671
-0.067139 -4.3486 -4.3486
-0.0293034 -4.37152 -4.37152
0.0089336 -4.34928 -4.34928
-0.0289021 -4.32636 -4.32636
-0.0291025 -4.34893 -4.34893
-0.06738 -4.37119 -4.37119
-0.0678617 -4.41645 -4.41645
0.00844855 -4.41713 -4.41713
0.00877285 -4.37187 -4.37187
-0.0676209 -4.39381 -4.39381
-0.0297064 -4.41678 -4.41678
0.00861116 -4.39449 -4.39449
-0.0293034 -4.37152 -4.37152
-0.0295047 -4.39414 -4.39414
-0.0678617 -4.41645 -4.41645
-0.068343 -4.46179 -4.46179
0.00812056 -4.46248 -4.46248
0.00844855 -4.41713 -4.41713
-0.0681024 -4.43911 -4.43911
-0.0301111 -4.46212 -4.46212
0.00828501 -4.43979 -4.43979
-0.0297064 -4.41678 -4.41678
-0.0299085 -4.43944 -4.43944
-0.068343 -4.46179 -4.46179
-0.0688239 -4.50723 -4.50723
0.00778893 -4.50791 -4.50791
0.00812056 -4.46248 -4.46248
-0.0685835 -4.4845 -4.4845
-0.0305173 -4.50756 -4.50756
0.0079552 -4.48518 -4.48518
-0.0301111 -4.46212 -4.46212
-0.030314 -4.48483 -4.48483
-0.0688239 -4.50723 -4.50723
-0.0693043 -4.55275 -4.55275
0.0074537 -4.55344 -4.55344
0.00778893 -4.50791 -4.50791
-0.0690642 -4.52998 -4.52998
-0.0309251 -4.55309 -4.55309
0.00762177 -4.53066 -4.53066
-0.0305173 -4.50756 -4.50756
-0.030721 -4.53031 -4.53031
-0.0693043 -4.55275 -4.55275
-0.0697841 -4.59836 -4.59836
0.00711491 -4.59905 -4.59905
0.0074537 -4.55344 -4.55344
-0.0695443 -4.57554 -4.57554
-0.0313345 -4.59869 -4.59869
0.00728475 -4.57623 -4.57623
-0.0309251 -4.55309 -4.55309
-0.0311296 -4.57588 -4.57588
-0.0697841 -4.59836 -4.59836
-0.0702634 -4.64405 -4.64405
0.00677259 -4.64474 -4.64474
0.00711491 -4.59905 -4.59905
-0.0700238 -4.62119 -4.62119
-0.0317453 -4.64438 -4.64438
0.00694419 -4.62188 -4.62188
-0.0313345 -4.59869 -4.59869
-0.0315397 -4.62153 -4.62153
-0.0702634 -4.64405 -4.64405
-0.0707421 -4.68982 -4.68982
0.0064268 -4.69051 -4.69051
0.00677259 -4.64474 -4.64474
-0.0705028 -4.66692 -4.66692
-0.0321575 -4.69016 -4.69016
0.00660013 -4.66762 -4.66762
-0.0317453 -4.64438 -4.64438
-0.0319512 -4.66726 -4.66726
-0.0707421 -4.68982 -4.68982
-0.0712201 -4.73566 -4.73566
0.00607756 -4.73636 -4.73636
0.0064268 -4.69051 -4.69051
-0.0709812 -4.71273 -4.71273
-0.0325711 -4.736 -4.736
0.00625261 -4.71343 -4.71343
-0.0321575 -4.69016 -4.69016
-0.0323641 -4.71307 -4.71307
-0.0712201 -4.73566 -4.73566
-0.0716975 -4.78159 -4.78159
0.00572492 -4.78228 -4.78228
0.00607756 -4.73636 -4.73636
-0.0714589 -4.75862 -4.75862
-0.0329861 -4.78193 -4.78193
0.00590166 -4.75931 -4.75931
-0.0325711 -4.736 -4.736
-0.0327785 -4.75896 -4.75896
-0.0716975 -4.78159 -4.78159
-0.0721741 -4.82758 -4.82758
0.00536893 -4.82828 -4.82828
0.00572492 -4.78228 -4.78228
-0.0719359 -4.80457 -4.80457
-0.0334024 -4.82792 -4.82792
0.00554734 -4.80527 -4.80527
-0.0329861 -4.78193 -4.78193
-0.0331941 -4.80492 -4.80492
-0.0721741 -4.82758 -4.82758
-0.0726499 -4.87364 -4.87364
0.00500962 -4.87435 -4.87435
0.00536893 -4.82828 -4.82828
-0.0724121 -4.8506 -4.8506
-0.03382 -4.87399 -4.87399
0.00518969 -4.85131 -4.85131
-0.0334024 -4.82792 -4.82792
-0.0336111 -4.85095 -4.85095
-0.0726499 -4.87364 -4.87364
-0.0731249 -4.91978 -4.91978
0.00464704 -4.92048 -4.92048
0.00500962 -4.87435 -4.87435
-0.0728875 -4.8967 -4.8967
-0.0342388 -4.92012 -4.92012
0.00482874 -4.89741 -4.89741
-0.03382 -4.87399 -4.87399
-0.0340293 -4.89705 -4.89705
-0.0731249 -4.91978 -4.91978
-0.0735991 -4.96598 -4.96598
0.00428122 -4.96668 -4.96668
0.00464704 -4.92048 -4.92048
-0.0733621 -4.94287 -4.94287
-0.0346588 -4.96632 -4.96632
0.00446453 -4.94358 -4.94358
-0.0342388 -4.92012 -4.92012
-0.0344487 -4.94322 -4.94322
-0.0735991 -4.96598 -4.96598
-0.0740723 -5.01224 -5.01224
0.00391222 -5.01295 -5.01295
0.00428122 -4.96668 -4.96668
-0.0738358 -4.9891 -4.9891
-0.0350799 -5.01259 -5.01259
0.00409712 -4.98981 -4.98981
-0.0346588 -4.96632 -4.96632
-0.0348692 -4.98945 -4.98945
-0.0740723 -5.01224 -5.01224
-0.0745447 -5.05856 -5.05856
0.00354007 -5.05927 -5.05927
0.00391222 -5.01295 -5.01295
-0.0743086 -5.03539 -5.03539
-0.0355022 -5.05891 -5.05891
0.00372654 -5.0361 -5.0361
-0.0350799 -5.01259 -5.01259
-0.0352909 -5.03574 -5.03574
-0.0745447 -5.05856 -5.05856
-0.075016 -5.10494 -5.10494
0.00316482 -5.10565 -5.10565
0.00354007 -5.05927 -5.05927
-0.0747805 -5.08174 -5.08174
-0.0359255 -5.10529 -5.10529
0.00335283 -5.08245 -5.08245
-0.0355022 -5.05891 -5.05891
-0.0357137 -5.08209 -5.08209
-0.075016 -5.10494 -5.10494
-0.0754863 -5.15137 -5.15137
0.0027865 -5.15209 -5.15209
0.00316482 -5.10565 -5.10565
-0.0752513 -5.12815 -5.12815
-0.0363498 -5.15173 -5.15173
0.00297604 -5.12886 -5.12886
-0.0359255 -5.10529 -5.10529
-0.0361375 -5.1285 -5.1285
-0.0754863 -5.15137 -5.15137
-0.0759555 -5.19786 -5.19786
0.00240517 -5.19858 -5.19858
0.0027865 -5.15209 -5.15209
-0.0757211 -5.17461 -5.17461
-0.0367751 -5.19822 -5.19822
0.00259621 -5.17533 -5.17533
-0.0363498 -5.15173 -5.15173
-0.0365623 -5.17496 -5.17496
-0.0759555 -5.19786 -5.19786
-0.0764237 -5.2444 -5.2444
0.00202087 -5.24512 -5.24512
0.00240517 -5.19858 -5.19858
-0.0761897 -5.22113 -5.22113
-0.0372013 -5.24476 -5.24476
0.00221339 -5.22184 -5.22184
-0.0367751 -5.19822 -5.19822
-0.0369881 -5.22148 -5.22148
-0.0764237 -5.2444 -5.2444
-0.0768906 -5.29099 -5.29099
0.00163363 -5.29171 -5.29171
0.00202087 -5.24512 -5.24512
-0.0766573 -5.26769 -5.26769
-0.0376284 -5.29135 -5.29135
0.00182761 -5.26841 -5.26841
-0.0372013 -5.24476 -5.24476
-0.0374147 -5.26805 -5.26805
-0.0768906 -5.29099 -5.29099
-0.0773564 -5.33763 -5.33763
0.00124351 -5.33835 -5.33835
0.00163363 -5.29171 -5.29171
-0.0771237 -5.3143 -5.3143
-0.0380564 -5.33798 -5.33798
0.00143893 -5.31502 -5.31502
-0.0376284 -5.29135 -5.29135
-0.0378423 -5.31466 -5.31466
-0.0773564 -5.33763 -5.33763
-0.0778209 -5.3843 -5.3843
0.00085054 -5.38503 -5.38503
0.00124351 -5.33835 -5.33835
-0.0775888 -5.36096 -5.36096
-0.0384851 -5.38466 -5.38466
0.00104738 -5.36168 -5.36168
-0.0380564 -5.33798 -5.33798
-0.0382706 -5.36132 -5.36132
-0.0778209 -5.3843 -5.3843
-0.0782841 -5.43102 -5.43102
0.000454772 -5.43175 -5.43175
0.00085054 -5.38503 -5.38503
-0.0780527 -5.40766 -5.40766
-0.0389146 -5.43138 -5.43138
0.000653003 -5.40838 -5.40838
-0.0384851 -5.38466 -5.38466
-0.0386998 -5.40802 -5.40802
-0.0782841 -5.43102 -5.43102
-0.078746 -5.47778 -5.47778
5.62465e-05 -5.47851 -5.47851
0.000454772 -5.43175 -5.43175
-0.0785152 -5.4544 -5.4544
-0.0393448 -5.47814 -5.47814
0.000255851 -5.45512 -5.45512
-0.0389146 -5.43138 -5.43138
-0.0391296 -5.45475 -5.45475
-0.078746 -5.47778 -5.47778
-0.0792066 -5.52457 -5.52457
-0.000344994 -5.5253 -5.5253
5.62465e-05 -5.47851 -5.47851
-0.0789765 -5.50117 -5.50117
-0.0397757 -5.52493 -5.52493
-0.000144037 -5.5019 -5.5019
-0.0393448 -5.47814 -5.47814
-0.0395602 -5.50153 -5.50153
-0.0792066 -5.52457 -5.52457
-0.0796657 -5.5714 -5.5714
-0.000748909 -5.57213 -5.57213
-0.000344994 -5.5253 -5.5253
-0.0794363 -5.54798 -5.54798
-0.0402072 -5.57176 -5.57176
-0.000546619 -5.54871 -5.54871
-0.0397757 -5.52493 -5.52493
-0.0399914 -5.54834 -5.54834
-0.0796657 -5.5714 -5.5714
-0.0801233 -5.61826 -5.61826
-0.00115546 -5.61899 -5.61899
-0.000748909 -5.57213 -5.57213
-0.0798947 -5.59483 -5.59483
-0.0406393 -5.61862 -5.61862
-0.000951857 -5.59556 -5.59556
-0.0402072 -5.57176 -5.57176
-0.0404232 -5.59519 -5.59519
-0.0801233 -5.61826 -5.61826
-0.0805794 -5.66515 -5.66515
-0.00156462 -5.66588 -5.66588
-0.00115546 -5.61899 -5.61899
-0.0803515 -5.6417 -5.6417
-0.041072 -5.66551 -5.66551
-0.00135972 -5.64243 -5.64243
-0.0406393 -5.61862 -5.61862
-0.0408556 -5.64206 -5.64206
-0.0805794 -5.66515 -5.66515
-0.0810339 -5.71207 -5.71207
-0.00197638 -5.7128 -5.7128
-0.00156462 -5.66588 -5.66588
-0.0808068 -5.68861 -5.68861
-0.0415051 -5.71243 -5.71243
-0.00177018 -5.68934 -5.68934
-0.041072 -5.66551 -5.66551
-0.0412885 -5.68897 -5.68897
-0.0810339 -5.71207 -5.71207
-0.0814867 -5.75901 -5.75901
-0.00239074 -5.75974 -5.75974
-0.00197638 -5.7128 -5.7128
-0.0812605 -5.73553 -5.73553
-0.0419387 -5.75937 -5.75937
-0.00218323 -5.73626 -5.73626
-0.0415051 -5.71243 -5.71243
-0.0417218 -5.7359 -5.7359
-0.0814867 -5.75901 -5.75901
-0.0819377 -5.80597 -5.80597
-0.00280774 -5.8067 -5.8067
-0.00239074 -5.75974 -5.75974
-0.0817124 -5.78249 -5.78249
-0.0423727 -5.80633 -5.80633
-0.00259891 -5.78322 -5.78322
-0.0419387 -5.75937 -5.75937
-0.0421556 -5.78285 -5.78285
-0.0819377 -5.80597 -5.80597
-0.0823868 -5.85295 -5.85295
-0.00322749 -5.85368 -5.85368
-0.00280774 -5.8067 -5.8067
-0.0821625 -5.82946 -5.82946
-0.0428071 -5.85332 -5.85332
-0.00301727 -5.83019 -5.83019
-0.0423727 -5.80633 -5.80633
-0.0425899 -5.82982 -5.82982
-0.0823868 -5.85295 -5.85295
-0.0828336 -5.89995 -5.89995
-0.0036501 -5.90068 -5.90068
-0.00322749 -5.85368 -5.85368
-0.0826105 -5.87645 -5.87645
-0.0432419 -5.90032 -5.90032
-0.00343842 -5.87718 -5.87718
-0.0428071 -5.85332 -5.85332
-0.0430244 -5.87681 -5.87681
-0.0828336 -5.89995 -5.89995
-0.0832781 -5.94697 -5.94697
-0.00407577 -5.9477 -5.9477
-0.0036501 -5.90068 -5.90068
-0.0830562 -5.92346 -5.92346
-0.0436769 -5.94733 -5.94733
-0.00386256 -5.92419 -5.92419
-0.0432419 -5.90032 -5.90032
-0.0434594 -5.92382 -5.92382
-0.0832781 -5.94697 -5.94697
-0.08372 -5.99399 -5.99399
-0.00450442 -5.99473 -5.99473
-0.00407577 -5.9477 -5.9477
-0.0834993 -5.97048 -5.97048
-0.0441122 -5.99436 -5.99436
-0.00428972 -5.97121 -5.97121
-0.0436769 -5.94733 -5.94733
-0.0438946 -5.97084 -5.97084
-0.08372 -5.99399 -5.99399
-0.0841595 -6.04103 -6.04103
-0.00493584 -6.04176 -6.04176
-0.00450442 -5.99473 -5.99473
-0.08394 -6.01751 -6.01751
-0.0445477 -6.04139 -6.04139
-0.00471987 -6.01824 -6.01824
-0.0441122 -5.99436 -5.99436
-0.0443299 -6.01788 -6.01788
-0.0841595 -6.04103 -6.04103
-0.0845977 -6.08806 -6.08806
-0.00536859 -6.0888 -6.0888
-0.00493584 -6.04176 -6.04176
-0.0843788 -6.06455 -6.06455
-0.0449831 -6.08843 -6.08843
-0.00515209 -6.06528 -6.06528
-0.0445477 -6.04139 -6.04139
-0.0447654 -6.06491 -6.06491
-0.0845977 -6.08806 -6.08806
-0.0850353 -6.13509 -6.13509
-0.00580158 -6.13582 -6.13582
-0.00536859 -6.0888 -6.0888
-0.0848164 -6.11158 -6.11158
-0.0454184 -6.13545 -6.13545
-0.00558525 -6.11231 -6.11231
-0.0449831 -6.08843 -6.08843
-0.0452008 -6.11194 -6.11194
-0.0850353 -6.13509 -6.13509
-0.0854745 -6.18209 -6.18209
-0.00623186 -6.18282 -6.18282
-0.00580158 -6.13582 -6.13582
-0.0852547 -6.1586 -6.1586
-0.0458531 -6.18245 -6.18245
-0.00601713 -6.15933 -6.15933
-0.0454184 -6.13545 -6.13545
-0.0456358 -6.15896 -6.15896
0 0 0
0.00034913 5.64984e-05 5.64984e-05
0.00106433 -0.000110732 -0.000110732
0 0 0
0.000173755 0.000114374 0.000114374
0.000704062 -6.34651e-06 -6.34651e-06
0.000515963 3.18835e-05 3.18835e-05
0 0 0
0.000341719 8.62515e-05 8.62515e-05
0.00034913 5.64984e-05 5.64984e-05
0.000727345 -0.00053997 -0.00053997
0.00221003 -0.000830738 -0.000830738
0.00106433 -0.000110732 -0.000110732
0.000534704 -0.000165272 -0.000165272
0.00146194 -0.000645459 -0.000645459
0.00163004 -0.000401762 -0.000401762
0.000704062 -6.34651e-06 -6.34651e-06
0.00107824 -0.00025303 -0.00025303
0.000727345 -0.00053997 -0.00053997
0.00111908 -0.00170936 -0.00170936
0.00340335 -0.00207574 -0.00207574
0.00221003 -0.000830738 -0.000830738
0.000922182 -0.00105693 -0.00105693
0.00225164 -0.00184459 -0.00184459
0.00280308 -0.00139103 -0.00139103
0.00146194 -0.000645459 -0.000645459
0.00185402 -0.00117864 -0.00117864
0.00111908 -0.00170936 -0.00170936
0.00151913 -0.00339948 -0.00339948
0.00460621 -0.0037993 -0.0037993
0.00340335 -0.00207574 -0.00207574
0.00131858 -0.00249168 -0.00249168
0.00305297 -0.00354865 -0.00354865
0.00400494 -0.002879 -0.002879
0.00225164 -0.00184459 -0.00184459
0.00265186 -0.00263565 -0.00263565
0.00151913 -0.00339948 -0.00339948
0.00191821 -0.00557808 -0.00557808
0.00580457 -0.00598874 -0.00598874
0.00460621 -0.0037993 -0.0037993
0.00171904 -0.004429 -0.004429
0.00385315 -0.00573261 -0.00573261
0.00520649 -0.00483613 -0.00483613
0.00305297 -0.00354865 -0.00354865
0.00345369 -0.0045816 -0.0045816
0.00191821 -0.00557808 -0.00557808
0.00231446 -0.00822868 -0.00822868
0.00699125 -0.00863918 -0.00863918
0.00580457 -0.00598874 -0.00598874
0.0021168 -0.00684503 -0.00684503
0.00464622 -0.00838352 -0.00838352
0.00639945 -0.00725643 -0.00725643
0.00385315 -0.00573261 -0.00573261
0.00425072 -0.00700012 -0.00700012
0.00231446 -0.00822868 -0.00822868
0.00270598 -0.0113426 -0.0113426
0.00816664 -0.0117498 -0.0117498
0.00699125 -0.00863918 -0.00863918
0.00251082 -0.00972807 -0.00972807
0.00543098 -0.0114964 -0.0114964
0.00758031 -0.0101371 -0.0101371
0.00464622 -0.00838352 -0.00838352
0.00503963 -0.00988243 -0.00988243
0.00270598 -0.0113426 -0.0113426
0.00309325 -0.0149157 -0.0149157
0.00933134 -0.0153191 -0.0153191
0.00816664 -0.0117498 -0.0117498
0.00290013 -0.013072 -0.013072
0.00620785 -0.0150681 -0.0150681
0.00875025 -0.0134772 -0.0134772
0.00543098 -0.0114964 -0.0114964
0.00582035 -0.013225 -0.013225
0.00309325 -0.0149157 -0.0149157
0.00347643 -0.0189451 -0.0189451
0.0104868 -0.0193454 -0.0193454
0.00933134 -0.0153191 -0.0153191
0.00328533 -0.0168735 -0.0168735
0.00697771 -0.0190964 -0.0190964
0.00991015 -0.0172752 -0.0172752
0.00620785 -0.0150681 -0.0150681
0.0065936 -0.0170252 -0.0170252
0.00347643 -0.0189451 -0.0189451
0.00385602 -0.0234287 -0.0234287
0.0116338 -0.0238268 -0.0238268
0.0104868 -0.0193454 -0.0193454
0.00366666 -0.0211302 -0.0211302
0.00774131 -0.0235792 -0.0235792
0.0110613 -0.0215294 -0.0215294
0.00697771 -0.0190964 -0.0190964
0.00736025 -0.0212811 -0.0212811
0.00385602 -0.0234287 -0.0234287
0.00423221 -0.0283645 -0.0283645
0.0127729 -0.028761 -0.028761
0.0116338 -0.0238268 -0.0238268
0.00404453 -0.0258402 -0.0258402
0.00849916 -0.0285145 -0.0285145
0.0122043 -0.0262374 -0.0262374
0.00774131 -0.0235792 -0.0235792
0.00812093 -0.0259905 -0.0259905
0.00423221 -0.0283645 -0.0283645
0.00460518 -0.0337503 -0.0337503
0.0139046 -0.0341458 -0.0341458
0.0127729 -0.028761 -0.028761
0.00441909 -0.0310013 -0.0310013
0.00925156 -0.0339002 -0.0339002
0.0133397 -0.0313973 -0.0313973
0.00849916 -0.0285145 -0.0285145
0.00887603 -0.0311512 -0.0311512
0.00460518 -0.0337503 -0.0337503
0.00497497 -0.039584 -0.039584
0.0150288 -0.0399788 -0.0399788
0.0139046 -0.0341458 -0.0341458
0.00479047 -0.0366113 -0.0366113
0.00999865 -0.0397338 -0.0397338
0.0144676 -0.0370065 -0.0370065
0.00925156 -0.0339002 -0.0339002
0.00962576 -0.0367611 -0.0367611
0.00497497 -0.039584 -0.039584
0.0053416 -0.0458632 -0.0458632
0.0161458 -0.0462576 -0.0462576
0.0150288 -0.0399788 -0.0399788
0.00515868 -0.0426681 -0.0426681
0.0107405 -0.046013 -0.046013
0.0155883 -0.0430627 -0.0430627
0.00999865 -0.0397338 -0.0397338
0.0103702 -0.0428178 -0.0428178
0.0053416 -0.0458632 -0.0458632
0.00570502 -0.0525856 -0.0525856
0.0172555 -0.0529798 -0.0529798
0.0161458 -0.0462576 -0.0462576
0.00552371 -0.0491692 -0.0491692
0.0114771 -0.0527356 -0.0527356
0.0167016 -0.0495634 -0.0495634
0.0107405 -0.046013 -0.046013
0.0111094 -0.0493191 -0.0493191
0.00570502 -0.0525856 -0.0525856
0.00606518 -0.0597488 -0.0597488
0.0183579 -0.0601429 -0.0601429
0.0172555 -0.0529798 -0.0529798
0.00588551 -0.0561122 -0.0561122
0.0122083 -0.059899 -0.059899
0.0178076 -0.0565064 -0.0565064
0.0114771 -0.0527356 -0.0527356
0.0118434 -0.0562623 -0.0562623
0.00606518 -0.0597488 -0.0597488
0.00642204 -0.0673504 -0.0673504
0.0194528 -0.0677446 -0.0677446
0.0183579 -0.0601429 -0.0601429
0.00624403 -0.0634949 -0.0634949
0.0129342 -0.0675009 -0.0675009
0.0189063 -0.0638891 -0.0638891
0.0122083 -0.059899 -0.059899
0.012572 -0.0636453 -0.0636453
0.00642204 -0.0673504 -0.0673504
0.00677551 -0.075388 -0.075388
0.0205403 -0.0757824 -0.0757824
0.0194528 -0.0677446 -0.0677446
0.0065992 -0.0713148 -0.0713148
0.0136547 -0.0755389 -0.0755389
0.0199975 -0.0717092 -0.0717092
0.0129342 -0.0675009 -0.0675009
0.0132952 -0.0714655 -0.0714655
0.00677551 -0.075388 -0.075388
0.00712555 -0.0838591 -0.0838591
0.0216203 -0.0842539 -0.0842539
0.0205403 -0.0757824 -0.0757824
0.00695097 -0.0795695 -0.0795695
0.0143697 -0.0840104 -0.0840104
0.0210812 -0.0799641 -0.0799641
0.0136547 -0.0755389 -0.0755389
0.0140129 -0.0797206 -0.0797206
0.00712555 -0.0838591 -0.0838591
0.00747208 -0.0927614 -0.0927614
0.0226926 -0.0931566 -0.0931566
0.0216203 -0.0842539 -0.0842539
0.00729926 -0.0882565 -0.0882565
0.0150792 -0.0929132 -0.0929132
0.0221574 -0.0886515 -0.0886515
0.0143697 -0.0840104 -0.0840104
0.0147251 -0.0884081 -0.0884081
0.00747208 -0.0927614 -0.0927614
0.00781505 -0.102092 -0.102092
0.0237573 -0.102488 -0.102488
0.0226926 -0.0931566 -0.0931566
0.00764401 -0.0973735 -0.0973735
0.015783 -0.102245 -0.102245
0.0232259 -0.097769 -0.097769
0.0150792 -0.0929132 -0.0929132
0.0154318 -0.0975255 -0.0975255
0.00781505 -0.102092 -0.102092
0.00815437 -0.11185 -0.11185
0.0248143 -0.112246 -0.112246
0.0237573 -0.102488 -0.102488
0.00798517 -0.106918 -0.106918
0.0164812 -0.112003 -0.112003
0.0242868 -0.107314 -0.107314
0.015783 -0.102245 -0.102245
0.0161328 -0.107071 -0.107071
0.00815437 -0.11185 -0.11185
0.00849001 -0.122031 -0.122031
0.0258635 -0.122428 -0.122428
0.0248143 -0.112246 -0.112246
0.00832266 -0.116888 -0.116888
0.0171736 -0.122185 -0.122185
0.0253399 -0.117284 -0.117284
0.0164812 -0.112003 -0.112003
0.0168281 -0.117041 -0.117041
0.00849001 -0.122031 -0.122031
0.00882189 -0.132634 -0.132634
0.0269049 -0.133032 -0.133032
0.0258635 -0.122428 -0.122428
0.00865642 -0.12728 -0.12728
0.0178602 -0.132788 -0.132788
0.0263852 -0.127677 -0.127677
0.0171736 -0.122185 -0.122185
0.0175176 -0.127434 -0.127434
0.00882189 -0.132634 -0.132634
0.00914995 -0.143655 -0.143655
0.0279383 -0.144054 -0.144054
0.0269049 -0.133032 -0.133032
0.0089864 -0.138092 -0.138092
0.018541 -0.14381 -0.14381
0.0274226 -0.138491 -0.138491
0.0178602 -0.132788 -0.132788
0.0182013 -0.138247 -0.138247
0.00914995 -0.143655 -0.143655
0.00947414 -0.155094 -0.155094
0.0289638 -0.155494 -0.155494
0.0279383 -0.144054 -0.144054
0.00931253 -0.149323 -0.149323
0.0192158 -0.155249 -0.155249
0.0284521 -0.149722 -0.149722
0.018541 -0.14381 -0.14381
0.0188791 -0.149478 -0.149478
0.00947414 -0.155094 -0.155094
0.0097944 -0.166946 -0.166946
0.0299813 -0.167347 -0.167347
0.0289638 -0.155494 -0.155494
0.00963476 -0.160968 -0.160968
0.0198847 -0.167103 -0.167103
0.0294735 -0.161369 -0.161369
0.0192158 -0.155249 -0.155249
0.019551 -0.161124 -0.161124
0.0097944 -0.166946 -0.166946
0.0101107 -0.17921 -0.17921
0.0309906 -0.179613 -0.179613
0.0299813 -0.167347 -0.167347
0.00995304 -0.173027 -0.173027
0.0205475 -0.179368 -0.179368
0.030487 -0.173429 -0.173429
0.0198847 -0.167103 -0.167103
0.0202169 -0.173184 -0.173184
0.0101107 -0.17921 -0.17921
0.0104229 -0.191884 -0.191884
0.0319919 -0.192288 -0.192288
0.0309906 -0.179613 -0.179613
0.0102673 -0.185496 -0.185496
0.0212043 -0.192042 -0.192042
0.0314923 -0.185899 -0.185899
0.0205475 -0.179368 -0.179368
0.0208767 -0.185654 -0.185654
0.0104229 -0.191884 -0.191884
0.010731 -0.204964 -0.204964
0.032985 -0.20537 -0.20537
0.0319919 -0.192288 -0.192288
0.0105775 -0.198373 -0.198373
0.0218549 -0.205124 -0.205124
0.0324895 -0.198778 -0.198778
0.0212043 -0.192042 -0.192042
0.0215304 -0.198532 -0.198532
0.010731 -0.204964 -0.204964
0.011035 -0.218449 -0.218449
0.0339698 -0.218856 -0.218856
0.032985 -0.20537 -0.20537
0.0108836 -0.211657 -0.211657
0.0224993 -0.21861 -0.21861
0.0334784 -0.212062 -0.212062
0.0218549 -0.205124 -0.205124
0.0221779 -0.211816 -0.211816
0.011035 -0.218449 -0.218449
0.0113348 -0.232336 -0.232336
0.0349464 -0.232745 -0.232745
0.0339698 -0.218856 -0.218856
0.0111855 -0.225343 -0.225343
0.0231375 -0.232498 -0.232498
0.0344591 -0.22575 -0.22575
0.0224993 -0.21861 -0.21861
0.0228192 -0.225504 -0.225504
0.0113348 -0.232336 -0.232336
0.0116304 -0.246623 -0.246623
0.0359146 -0.247033 -0.247033
0.0349464 -0.232745 -0.232745
0.0114831 -0.23943 -0.23943
0.0237694 -0.246786 -0.246786
0.0354315 -0.239839 -0.239839
0.0231375 -0.232498 -0.232498
0.0234542 -0.239592 -0.239592
0.0116304 -0.246623 -0.246623
0.0119216 -0.261307 -0.261307
0.0368744 -0.261719 -0.261719
0.0359146 -0.247033 -0.247033
0.0117765 -0.253916 -0.253916
0.0243949 -0.261471 -0.261471
0.0363955 -0.254326 -0.254326
0.0237694 -0.246786 -0.246786
0.0240829 -0.254079 -0.254079
0.0119216 -0.261307 -0.261307
0.0122085 -0.276386 -0.276386
0.0378258 -0.276799 -0.276799
0.0368744 -0.261719 -0.261719
0.0120656 -0.268797 -0.268797
0.0250141 -0.276551 -0.276551
0.0373512 -0.26921 -0.26921
0.0243949 -0.261471 -0.261471
0.0247053 -0.268961 -0.268961
0.0122085 -0.276386 -0.276386
0.012491 -0.291857 -0.291857
0.0387687 -0.292272 -0.292272
0.0378258 -0.276799 -0.276799
0.0123503 -0.284072 -0.284072
0.0256268 -0.292023 -0.292023
0.0382983 -0.284487 -0.284487
0.0250141 -0.276551 -0.276551
0.0253212 -0.284238 -0.284238
0.012491 -0.291857 -0.291857
0.0127691 -0.307718 -0.307718
0.0397031 -0.308135 -0.308135
0.0387687 -0.292272 -0.292272
0.0126306 -0.299739 -0.299739
0.026233 -0.307885 -0.307885
0.039237 -0.300155 -0.300155
0.0256268 -0.292023 -0.292023
0.0259307 -0.299905 -0.299905
0.0127691 -0.307718 -0.307718
0.0130427 -0.323966 -0.323966
0.0406289 -0.324386 -0.324386
0.0397031 -0.308135 -0.308135
0.0129064 -0.315794 -0.315794
0.0268327 -0.324135 -0.324135
0.0401671 -0.316212 -0.316212
0.026233 -0.307885 -0.307885
0.0265337 -0.315962 -0.315962
0.0130427 -0.323966 -0.323966
0.0133117 -0.3406 -0.3406
0.0415461 -0.341022 -0.341022
0.0406289 -0.324386 -0.324386
0.0131778 -0.332235 -0.332235
0.0274258 -0.34077 -0.34077
0.0410886 -0.332656 -0.332656
0.0268327 -0.324135 -0.324135
0.0271301 -0.332404 -0.332404
0.0133117 -0.3406 -0.3406
0.0135762 -0.357616 -0.357616
0.0424546 -0.35804 -0.35804
0.0415461 -0.341022 -0.341022
0.0134445 -0.349061 -0.349061
0.0280123 -0.357788 -0.357788
0.0420014 -0.349483 -0.349483
0.0274258 -0.34077 -0.34077
0.0277199 -0.349231 -0.349231
0.0135762 -0.357616 -0.357616
0.0138361 -0.375013 -0.375013
0.0433544 -0.375439 -0.375439
0.0424546 -0.35804 -0.35804
0.0137067 -0.366267 -0.366267
0.0285922 -0.375186 -0.375186
0.0429056 -0.366692 -0.366692
0.0280123 -0.357788 -0.357788
0.0283031 -0.366439 -0.366439
0.0138361 -0.375013 -0.375013
0.0140913 -0.392787 -0.392787
0.0442455 -0.393216 -0.393216
0.0433544 -0.375439 -0.375439
0.0139643 -0.383853 -0.383853
0.0291654 -0.392962 -0.392962
0.0438011 -0.38428 -0.38428
0.0285922 -0.375186 -0.375186
0.0288796 -0.384027 -0.384027
0.0140913 -0.392787 -0.392787
0.0143419 -0.410937 -0.410937
0.0451279 -0.411368 -0.411368
0.0442455 -0.393216 -0.393216
0.0142172 -0.401816 -0.401816
0.0297318 -0.411113 -0.411113
0.0446878 -0.402245 -0.402245
0.0291654 -0.392962 -0.392962
0.0294494 -0.40199 -0.40199
0.0143419 -0.410937 -0.410937
0.0145877 -0.42946 -0.42946
0.0460014 -0.429893 -0.429893
0.0451279 -0.411368 -0.411368
0.0144654 -0.420152 -0.420152
0.0302915 -0.429637 -0.429637
0.0455657 -0.420584 -0.420584
0.0297318 -0.411113 -0.411113
0.0300125 -0.420329 -0.420329
0.0145877 -0.42946 -0.42946
0.0148287 -0.448354 -0.448354
0.046866 -0.448789 -0.448789
0.0460014 -0.429893 -0.429893
0.0147088 -0.438861 -0.438861
0.0308443 -0.448532 -0.448532
0.0464348 -0.439295 -0.439295
0.0302915 -0.429637 -0.429637
0.0305688 -0.439038 -0.439038
0.0148287 -0.448354 -0.448354
0.015065 -0.467615 -0.467615
0.0477218 -0.468053 -0.468053
0.046866 -0.448789 -0.448789
0.0149475 -0.457938 -0.457938
0.0313903 -0.467795 -0.467795
0.047295 -0.458376 -0.458376
0.0308443 -0.448532 -0.448532
0.0311182 -0.458118 -0.458118
0.015065 -0.467615 -0.467615
0.0152964 -0.487242 -0.487242
0.0485686 -0.487683 -0.487683
0.0477218 -0.468053 -0.468053
0.0151813 -0.477383 -0.477383
0.0319295 -0.487424 -0.487424
0.0481463 -0.477823 -0.477823
0.0313903 -0.467795 -0.467795
0.0316608 -0.477564 -0.477564
0.0152964 -0.487242 -0.487242
0.015523 -0.507233 -0.507233
0.0494065 -0.507677 -0.507677
0.0485686 -0.487683 -0.487683
0.0154103 -0.497192 -0.497192
0.0324617 -0.507416 -0.507416
0.0489887 -0.497635 -0.497635
0.0319295 -0.487424 -0.487424
0.0321965 -0.497375 -0.497375
0.015523 -0.507233 -0.507233
0.0157446 -0.527584 -0.527584
0.0502354 -0.528031 -0.528031
0.0494065 -0.507677 -0.507677
0.0156344 -0.517364 -0.517364
0.032987 -0.527769 -0.527769
0.0498221 -0.517809 -0.517809
0.0324617 -0.507416 -0.507416
0.0327252 -0.517548 -0.517548
0.0157446 -0.527584 -0.527584
0.0159614 -0.548294 -0.548294
0.0510553 -0.548743 -0.548743
0.0502354 -0.528031 -0.528031
0.0158536 -0.537895 -0.537895
0.0335053 -0.548481 -0.548481
0.0506465 -0.538342 -0.538342
0.032987 -0.527769 -0.527769
0.033247 -0.53808 -0.53808
0.0159614 -0.548294 -0.548294
0.0161731 -0.56936 -0.56936
0.0518661 -0.569812 -0.569812
0.0510553 -0.548743 -0.548743
0.0160679 -0.558783 -0.558783
0.0340166 -0.569548 -0.569548
0.0514618 -0.559233 -0.559233
0.0335053 -0.548481 -0.548481
0.0337618 -0.55897 -0.55897
0.0161731 -0.56936 -0.56936
0.0163799 -0.59078 -0.59078
0.0526678 -0.591235 -0.591235
0.0518661 -0.569812 -0.569812
0.0162771 -0.580026 -0.580026
0.0345208 -0.590969 -0.590969
0.0522681 -0.580479 -0.580479
0.0340166 -0.569548 -0.569548
0.0342696 -0.580215 -0.580215
0.0163799 -0.59078 -0.59078
0.0165816 -0.61255 -0.61255
0.0534605 -0.613008 -0.613008
0.0526678 -0.591235 -0.591235
0.0164814 -0.601621 -0.601621
0.035018 -0.612742 -0.612742
0.0530653 -0.602078 -0.602078
0.0345208 -0.590969 -0.590969
0.0347703 -0.601812 -0.601812
0.0165816 -0.61255 -0.61255
0.0167783 -0.63467 -0.63467
0.0542439 -0.635131 -0.635131
0.0534605 -0.613008 -0.613008
0.0166806 -0.623566 -0.623566
0.0355081 -0.634863 -0.634863
0.0538533 -0.624026 -0.624026
0.035018 -0.612742 -0.612742
0.035264 -0.623759 -0.623759
0.0167783 -0.63467 -0.63467
0.01697 -0.657135 -0.657135
0.0550183 -0.657599 -0.657599
0.0542439 -0.635131 -0.635131
0.0168748 -0.645859 -0.645859
0.0359911 -0.657331 -0.657331
0.0546323 -0.646322 -0.646322
0.0355081 -0.634863 -0.634863
0.0357505 -0.646054 -0.646054
0.01697 -0.657135 -0.657135
0.0171565 -0.679945 -0.679945
0.0557834 -0.680412 -0.680412
0.0550183 -0.657599 -0.657599
0.0170639 -0.668497 -0.668497
0.0364669 -0.680142 -0.680142
0.055402 -0.668963 -0.668963
0.0359911 -0.657331 -0.657331
0.0362299 -0.668693 -0.668693
0.0171565 -0.679945 -0.679945
0.0173379 -0.703096 -0.703096
0.0565393 -0.703566 -0.703566
0.0557834 -0.680412 -0.680412
0.0172478 -0.691478 -0.691478
0.0369356 -0.703295 -0.703295
0.0561625 -0.691947 -0.691947
0.0364669 -0.680142 -0.680142
0.0367022 -0.691676 -0.691676
0.0173379 -0.703096 -0.703096
0.0175142 -0.726586 -0.726586
0.057286 -0.72706 -0.72706
0.0565393 -0.703566 -0.703566
0.0174267 -0.714799 -0.714799
0.0373971 -0.726787 -0.726787
0.0569138 -0.715271 -0.715271
0.0369356 -0.703295 -0.703295
0.0371672 -0.714999 -0.714999
0.0175142 -0.726586 -0.726586
0.0176852 -0.750413 -0.750413
0.0580234 -0.75089 -0.75089
0.057286 -0.72706 -0.72706
0.0176003 -0.738458 -0.738458
0.0378513 -0.750616 -0.750616
0.0576559 -0.738933 -0.738933
0.0373971 -0.726787 -0.726787
0.0376251 -0.738659 -0.738659
0.0176852 -0.750413 -0.750413
0.0178511 -0.774574 -0.774574
0.0587516 -0.775054 -0.775054
0.0580234 -0.75089 -0.75089
0.0177688 -0.762452 -0.762452
0.0382984 -0.774779 -0.774779
0.0583887 -0.76293 -0.76293
0.0378513 -0.750616 -0.750616
0.0380758 -0.762656 -0.762656
0.0178511 -0.774574 -0.774574
0.0180118 -0.799067 -0.799067
0.0594704 -0.79955 -0.79955
0.0587516 -0.775054 -0.775054
0.0179321 -0.786779 -0.786779
0.0387381 -0.799273 -0.799273
0.0591122 -0.787261 -0.787261
0.0382984 -0.774779 -0.774779
0.0385191 -0.786985 -0.786985
0.0180118 -0.799067 -0.799067
0.0181673 -0.823889 -0.823889
0.06018 -0.824376 -0.824376
0.0594704 -0.79955 -0.79955
0.0180902 -0.811437 -0.811437
0.0391706 -0.824098 -0.824098
0.0598264 -0.811922 -0.811922
0.0387381 -0.799273 -0.799273
0.0389553 -0.811644 -0.811644
0.0181673 -0.823889 -0.823889
0.0183174 -0.849038 -0.849038
0.0608801 -0.849528 -0.849528
0.06018 -0.824376 -0.824376
0.018243 -0.836423 -0.836423
0.0395958 -0.849249 -0.849249
0.0605312 -0.836911 -0.836911
0.0391706 -0.824098 -0.824098
0.0393841 -0.836632 -0.836632
0.0183174 -0.849038 -0.849038
0.0184624 -0.874512 -0.874512
0.061571 -0.875005 -0.875005
0.0608801 -0.849528 -0.849528
0.0183906 -0.861735 -0.861735
0.0400137 -0.874724 -0.874724
0.0612267 -0.862226 -0.862226
0.0395958 -0.849249 -0.849249
0.0398056 -0.861946 -0.861946
0.0184624 -0.874512 -0.874512
0.018602 -0.900308 -0.900308
0.0622524 -0.900805 -0.900805
0.061571 -0.875005 -0.875005
0.0185329 -0.88737 -0.88737
0.0404242 -0.900522 -0.900522
0.0619128 -0.887865 -0.887865
0.0400137 -0.874724 -0.874724
0.0402199 -0.887583 -0.887583
0.018602 -0.900308 -0.900308
0.0187363 -0.926423 -0.926423
0.0629244 -0.926923 -0.926923
0.0622524 -0.900805 -0.900805
0.0186698 -0.913326 -0.913326
0.0408274 -0.926639 -0.926639
0.0625896 -0.913824 -0.913824
0.0404242 -0.900522 -0.900522
0.0406267 -0.913541 -0.913541
0.0187363 -0.926423 -0.926423
0.0188654 -0.952856 -0.952856
0.0635871 -0.95336 -0.95336
0.0629244 -0.926923 -0.926923
0.0188015 -0.9396 -0.9396
0.0412232 -0.953074 -0.953074
0.0632569 -0.940102 -0.940102
0.0408274 -0.926639 -0.926639
0.0410262 -0.939817 -0.939817
0.0188654 -0.952856 -0.952856
0.018989 -0.979604 -0.979604
0.0642403 -0.980111 -0.980111
0.0635871 -0.95336 -0.95336
0.0189279 -0.966191 -0.966191
0.0416117 -0.979824 -0.979824
0.0639149 -0.966696 -0.966696
0.0412232 -0.953074 -0.953074
0.0414184 -0.96641 -0.96641
0.018989 -0.979604 -0.979604
0.0191074 -1.00666 -1.00666
0.0648841 -1.00717 -1.00717
0.0642403 -0.980111 -0.980111
0.0190489 -0.993095 -0.993095
0.0419927 -1.00689 -1.00689
0.0645634 -0.993603 -0.993603
0.0416117 -0.979824 -0.979824
0.0418031 -0.993316 -0.993316
0.0191074 -1.00666 -1.00666
0.0192204 -1.03403 -1.03403
0.0655184 -1.03455 -1.03455
0.0648841 -1.00717 -1.00717
0.0191645 -1.02031 -1.02031
0.0423664 -1.03426 -1.03426
0.0652024 -1.02082 -1.02082
0.0419927 -1.00689 -1.00689
0.0421805 -1.02053 -1.02053
0.0192204 -1.03403 -1.03403
0.019328 -1.06171 -1.06171
0.0661433 -1.06223 -1.06223
0.0655184 -1.03455 -1.03455
0.0192748 -1.04783 -1.04783
0.0427327 -1.06194 -1.06194
0.0658321 -1.04835 -1.04835
0.0423664 -1.03426 -1.03426
0.0425505 -1.04806 -1.04806
0.019328 -1.06171 -1.06171
0.0194302 -1.08969 -1.08969
0.0667587 -1.09021 -1.09021
0.0661433 -1.06223 -1.06223
0.0193798 -1.07566 -1.07566
0.0430915 -1.08992 -1.08992
0.0664522 -1.07618 -1.07618
0.0427327 -1.06194 -1.06194
0.042913 -1.07589 -1.07589
0.0194302 -1.08969 -1.08969
0.0195271 -1.11798 -1.11798
0.0673647 -1.1185 -1.1185
0.0667587 -1.09021 -1.09021
0.0194793 -1.1038 -1.1038
0.0434429 -1.11821 -1.11821
0.0670629 -1.10432 -1.10432
0.0430915 -1.08992 -1.08992
0.0432681 -1.10403 -1.10403
0.0195271 -1.11798 -1.11798
0.0196185 -1.14656 -1.14656
0.0679611 -1.14709 -1.14709
0.0673647 -1.1185 -1.1185
0.0195734 -1.13223 -1.13223
0.0437868 -1.1468 -1.1468
0.0676641 -1.13276 -1.13276
0.0434429 -1.11821 -1.11821
0.0436158 -1.13247 -1.13247
0.0196185 -1.14656 -1.14656
0.0197045 -1.17545 -1.17545
0.0685481 -1.17598 -1.17598
0.0679611 -1.14709 -1.14709
0.0196622 -1.16097 -1.16097
0.0441233 -1.17568 -1.17568
0.0682558 -1.1615 -1.1615
0.0437868 -1.1468 -1.1468
0.043956 -1.1612 -1.1612
0.0197045 -1.17545 -1.17545
0.0197852 -1.20463 -1.20463
0.0691255 -1.20516 -1.20516
0.0685481 -1.17598 -1.17598
0.0197455 -1.19 -1.19
0.0444523 -1.20486 -1.20486
0.068838 -1.19053 -1.19053
0.0441233 -1.17568 -1.17568
0.0442888 -1.19024 -1.19024
0.0197852 -1.20463 -1.20463
0.0198604 -1.2341 -1.2341
0.0696934 -1.23464 -1.23464
0.0691255 -1.20516 -1.20516
0.0198234 -1.21933 -1.21933
0.0447739 -1.23434 -1.23434
0.0694107 -1.21986 -1.21986
0.0444523 -1.20486 -1.20486
0.0446141 -1.21956 -1.21956
0.0198604 -1.2341 -1.2341
0.0199301 -1.26386 -1.26386
0.0702519 -1.2644 -1.2644
0.0696934 -1.23464 -1.23464
0.0198959 -1.24894 -1.24894
0.045088 -1.2641 -1.2641
0.0699738 -1.24949 -1.24949
0.0447739 -1.23434 -1.23434
0.0449319 -1.24918 -1.24918
0.0199301 -1.26386 -1.26386
0.0199945 -1.29391 -1.29391
0.0708008 -1.29446 -1.29446
0.0702519 -1.2644 -1.2644
0.019963 -1.27885 -1.27885
0.0453946 -1.29415 -1.29415
0.0705275 -1.2794 -1.2794
0.045088 -1.2641 -1.2641
0.0452423 -1.27909 -1.27909
0.0199945 -1.29391 -1.29391
0.0200534 -1.32425 -1.32425
0.0713401 -1.3248 -1.3248
0.0708008 -1.29446 -1.29446
0.0200246 -1.30904 -1.30904
0.0456938 -1.32449 -1.32449
0.0710716 -1.30959 -1.30959
0.0453946 -1.29415 -1.29415
0.0455452 -1.30929 -1.30929
0.0200534 -1.32425 -1.32425
0.0201069 -1.35487 -1.35487
0.07187 -1.35542 -1.35542
0.0713401 -1.3248 -1.3248
0.0200808 -1.33952 -1.33952
0.0459855 -1.35512 -1.35512
0.0716063 -1.34008 -1.34008
0.0456938 -1.32449 -1.32449
0.0458406 -1.33977 -1.33977
0.0201069 -1.35487 -1.35487
0.0201549 -1.38577 -1.38577
0.0723903 -1.38633 -1.38633
0.07187 -1.35542 -1.35542
0.0201316 -1.37028 -1.37028
0.0462696 -1.38602 -1.38602
0.0721314 -1.37084 -1.37084
0.0459855 -1.35512 -1.35512
0.0461285 -1.37053 -1.37053
0.0201549 -1.38577 -1.38577
0.0201975 -1.41695 -1.41695
0.0729011 -1.41751 -1.41751
0.0723903 -1.38633 -1.38633
0.0201769 -1.40132 -1.40132
0.0465463 -1.4172 -1.4172
0.0726469 -1.40188 -1.40188
0.0462696 -1.38602 -1.38602
0.0464089 -1.40157 -1.40157
0.0201975 -1.41695 -1.41695
0.0202347 -1.4484 -1.4484
0.0734024 -1.44897 -1.44897
0.0729011 -1.41751 -1.41751
0.0202168 -1.43264 -1.43264
0.0468155 -1.44866 -1.44866
0.0731529 -1.4332 -1.4332
0.0465463 -1.4172 -1.4172
0.0466819 -1.43289 -1.43289
0.0202347 -1.4484 -1.4484
0.0202664 -1.48013 -1.48013
0.0738941 -1.4807 -1.4807
0.0734024 -1.44897 -1.44897
0.0202512 -1.46423 -1.46423
0.0470773 -1.48039 -1.48039
0.0736494 -1.4648 -1.4648
0.0468155 -1.44866 -1.44866
0.0469473 -1.46449 -1.46449
0.0202664 -1.48013 -1.48013
0.0202926 -1.51213 -1.51213
0.0743763 -1.5127 -1.5127
0.0738941 -1.4807 -1.4807
0.0202802 -1.4961 -1.4961
0.0473315 -1.51239 -1.51239
0.0741364 -1.49667 -1.49667
0.0470773 -1.48039 -1.48039
0.0472053 -1.49636 -1.49636
0.0202926 -1.51213 -1.51213
0.0203135 -1.5444 -1.5444
0.074849 -1.54498 -1.54498
0.0743763 -1.5127 -1.5127
0.0203037 -1.52823 -1.52823
0.0475782 -1.54466 -1.54466
0.0746138 -1.52881 -1.52881
0.0473315 -1.51239 -1.51239
0.0474558 -1.52849 -1.52849
0.0203135 -1.5444 -1.5444
0.0203289 -1.57694 -1.57694
0.0753121 -1.57752 -1.57752
0.074849 -1.54498 -1.54498
0.0203219 -1.56064 -1.56064
0.0478175 -1.5772 -1.5772
0.0750818 -1.56121 -1.56121
0.0475782 -1.54466 -1.54466
0.0476988 -1.5609 -1.5609
0.0203289 -1.57694 -1.57694
0.0203388 -1.60974 -1.60974
0.0757658 -1.61032 -1.61032
0.0753121 -1.57752 -1.57752
0.0203345 -1.5933 -1.5933
0.0480493 -1.61 -1.61
0.0755401 -1.59389 -1.59389
0.0478175 -1.5772 -1.5772
0.0479344 -1.59357 -1.59357
0.0203388 -1.60974 -1.60974
0.0203434 -1.6428 -1.6428
0.0762099 -1.64338 -1.64338
0.0757658 -1.61032 -1.61032
0.0203418 -1.62623 -1.62623
0.0482736 -1.64306 -1.64306
0.075989 -1.62682 -1.62682
0.0480493 -1.61 -1.61
0.0481624 -1.6265 -1.6265
0.0203434 -1.6428 -1.6428
0.0203425 -1.67612 -1.67612
0.0766445 -1.67671 -1.67671
0.0762099 -1.64338 -1.64338
0.0203436 -1.65943 -1.65943
0.0484905 -1.67638 -1.67638
0.0764284 -1.66001 -1.66001
0.0482736 -1.64306 -1.64306
0.048383 -1.65969 -1.65969
0.0203425 -1.67612 -1.67612
0.0203362 -1.70969 -1.70969
0.0770696 -1.71029 -1.71029
0.0766445 -1.67671 -1.67671
0.02034 -1.69287 -1.69287
0.0486999 -1.70996 -1.70996
0.0768582 -1.69347 -1.69347
0.0484905 -1.67638 -1.67638
0.0485961 -1.69314 -1.69314
0.0203362 -1.70969 -1.70969
0.0203245 -1.74352 -1.74352
0.0774851 -1.74412 -1.74412
0.0770696 -1.71029 -1.71029
0.020331 -1.72658 -1.72658
0.0489018 -1.7438 -1.7438
0.0772785 -1.72717 -1.72717
0.0486999 -1.70996 -1.70996
0.0488018 -1.72685 -1.72685
0.0203245 -1.74352 -1.74352
0.0203073 -1.77761 -1.77761
0.0778912 -1.77821 -1.77821
0.0774851 -1.74412 -1.74412
0.0203166 -1.76053 -1.76053
0.0490963 -1.77788 -1.77788
0.0776894 -1.76113 -1.76113
0.0489018 -1.7438 -1.7438
0.049 -1.76081 -1.76081
0.0203073 -1.77761 -1.77761
0.0202848 -1.81194 -1.81194
0.0782878 -1.81254 -1.81254
0.0778912 -1.77821 -1.77821
0.0202968 -1.79474 -1.79474
0.0492833 -1.81222 -1.81222
0.0780907 -1.79535 -1.79535
0.0490963 -1.77788 -1.77788
0.0491908 -1.79502 -1.79502
0.0202848 -1.81194 -1.81194
0.0202569 -1.84652 -1.84652
0.078675 -1.84713 -1.84713
0.0782878 -1.81254 -1.81254
0.0202715 -1.8292 -1.8292
0.0494629 -1.8468 -1.8468
0.0784826 -1.8298 -1.8298
0.0492833 -1.81222 -1.81222
0.0493741 -1.82948 -1.82948
0.0202569 -1.84652 -1.84652
0.0202236 -1.88134 -1.88134
0.0790526 -1.88195 -1.88195
0.078675 -1.84713 -1.84713
0.0202409 -1.8639 -1.8639
0.0496351 -1.88162 -1.88162
0.078865 -1.86451 -1.86451
0.0494629 -1.8468 -1.8468
0.04955 -1.86418 -1.86418
0.0202236 -1.88134 -1.88134
0.020185 -1.91641 -1.91641
0.0794208 -1.91702 -1.91702
0.0790526 -1.88195 -1.88195
0.020205 -1.89884 -1.89884
0.0497999 -1.91669 -1.91669
0.0792379 -1.89946 -1.89946
0.0496351 -1.88162 -1.88162
0.0497184 -1.89913 -1.89913
0.020185 -1.91641 -1.91641
0.0201409 -1.95171 -1.95171
0.0797796 -1.95233 -1.95233
0.0794208 -1.91702 -1.91702
0.0201636 -1.93403 -1.93403
0.0499573 -1.952 -1.952
0.0796014 -1.93465 -1.93465
0.0497999 -1.91669 -1.91669
0.0498795 -1.93431 -1.93431
0.0201409 -1.95171 -1.95171
0.0200916 -1.98726 -1.98726
0.0801289 -1.98788 -1.98788
0.0797796 -1.95233 -1.95233
0.0201169 -1.96946 -1.96946
0.0501072 -1.98754 -1.98754
0.0799554 -1.97008 -1.97008
0.0499573 -1.952 -1.952
0.0500332 -1.96974 -1.96974
0.0200916 -1.98726 -1.98726
0.0200369 -2.02303 -2.02303
0.0804688 -2.02366 -2.02366
0.0801289 -1.98788 -1.98788
0.0200649 -2.00512 -2.00512
0.0502498 -2.02332 -2.02332
0.0803 -2.00574 -2.00574
0.0501072 -1.98754 -1.98754
0.0501794 -2.0054 -2.0054
0.0200369 -2.02303 -2.02303
0.0199768 -2.05904 -2.05904
0.0807992 -2.05967 -2.05967
0.0804688 -2.02366 -2.02366
0.0200075 -2.04101 -2.04101
0.050385 -2.05933 -2.05933
0.0806352 -2.04164 -2.04164
0.0502498 -2.02332 -2.02332
0.0503183 -2.0413 -2.0413
0.0199768 -2.05904 -2.05904
0.0199115 -2.09528 -2.09528
0.0811203 -2.09592 -2.09592
0.0807992 -2.05967 -2.05967
0.0199448 -2.07714 -2.07714
0.0505129 -2.09558 -2.09558
0.080961 -2.07777 -2.07777
0.050385 -2.05933 -2.05933
0.0504499 -2.07743 -2.07743
0.0199115 -2.09528 -2.09528
0.0198408 -2.13175 -2.13175
0.081432 -2.13239 -2.13239
0.0811203 -2.09592 -2.09592
0.0198768 -2.11349 -2.11349
0.0506334 -2.13205 -2.13205
0.0812773 -2.11412 -2.11412
0.0505129 -2.09558 -2.09558
0.0505741 -2.11378 -2.11378
0.0198408 -2.13175 -2.13175
0.0197649 -2.16845 -2.16845
0.0817343 -2.16908 -2.16908
0.081432 -2.13239 -2.13239
0.0198035 -2.15007 -2.15007
0.0507466 -2.16874 -2.16874
0.0815843 -2.15071 -2.15071
0.0506334 -2.13205 -2.13205
0.0506909 -2.15037 -2.15037
0.0197649 -2.16845 -2.16845
0.0196837 -2.20536 -2.20536
0.0820273 -2.206 -2.206
0.0817343 -2.16908 -2.16908
0.019725 -2.18688 -2.18688
0.0508525 -2.20566 -2.20566
0.081882 -2.18752 -2.18752
0.0507466 -2.16874 -2.16874
0.0508005 -2.18717 -2.18717
0.0196837 -2.20536 -2.20536
0.0195973 -2.2425 -2.2425
0.0823109 -2.24314 -2.24314
0.0820273 -2.206 -2.206
0.0196412 -2.2239 -2.2239
0.0509511 -2.2428 -2.2428
0.0821703 -2.22455 -2.22455
0.0508525 -2.20566 -2.20566
0.0509027 -2.2242 -2.2242
0.0195973 -2.2425 -2.2425
0.0195056 -2.27985 -2.27985
0.0825852 -2.2805 -2.2805
0.0823109 -2.24314 -2.24314
0.0195521 -2.26115 -2.26115
0.0510424 -2.28015 -2.28015
0.0824492 -2.26179 -2.26179
0.0509511 -2.2428 -2.2428
0.0509977 -2.26145 -2.26145
0.0195056 -2.27985 -2.27985
0.0194087 -2.31742 -2.31742
0.0828502 -2.31807 -2.31807
0.0825852 -2.2805 -2.2805
0.0194578 -2.29861 -2.29861
0.0511264 -2.31772 -2.31772
0.0827188 -2.29926 -2.29926
0.0510424 -2.28015 -2.28015
0.0510853 -2.29891 -2.29891
0.0194087 -2.31742 -2.31742
0.0193066 -2.3552 -2.3552
0.0831059 -2.35586 -2.35586
0.0828502 -2.31807 -2.31807
0.0193583 -2.33629 -2.33629
0.0512032 -2.35551 -2.35551
0.0829792 -2.33694 -2.33694
0.0511264 -2.31772 -2.31772
0.0511657 -2.33659 -2.33659
0.0193066 -2.3552 -2.3552
0.0191994 -2.3932 -2.3932
0.0833523 -2.39386 -2.39386
0.0831059 -2.35586 -2.35586
0.0192536 -2.37417 -2.37417
0.0512728 -2.3935 -2.3935
0.0832302 -2.37483 -2.37483
0.0512032 -2.35551 -2.35551
0.0512389 -2.37448 -2.37448
0.0191994 -2.3932 -2.3932
0.0190869 -2.4314 -2.4314
0.0835895 -2.43206 -2.43206
0.0833523 -2.39386 -2.39386
0.0191438 -2.41227 -2.41227
0.0513352 -2.43171 -2.43171
0.083472 -2.41293 -2.41293
0.0512728 -2.3935 -2.3935
0.0513049 -2.41258 -2.41258
0.0190869 -2.4314 -2.4314
0.0189693 -2.46981 -2.46981
0.0838174 -2.47047 -2.47047
0.0835895 -2.43206 -2.43206
0.0190288 -2.45058 -2.45058
0.0513904 -2.47012 -2.47012
0.0837046 -2.45124 -2.45124
0.0513352 -2.43171 -2.43171
0.0513637 -2.45089 -2.45089
0.0189693 -2.46981 -2.46981
0.0188466 -2.50842 -2.50842
0.0840361 -2.50908 -2.50908
0.0838174 -2.47047 -2.47047
0.0189086 -2.48909 -2.48909
0.0514384 -2.50873 -2.50873
0.0839279 -2.48975 -2.48975
0.0513904 -2.47012 -2.47012
0.0514152 -2.4894 -2.4894
0.0188466 -2.50842 -2.50842
0.0187188 -2.54723 -2.54723
0.0842457 -2.5479 -2.5479
0.0840361 -2.50908 -2.50908
0.0187834 -2.5278 -2.5278
0.0514792 -2.54754 -2.54754
0.0841421 -2.52847 -2.52847
0.0514384 -2.50873 -2.50873
0.0514597 -2.52811 -2.52811
0.0187188 -2.54723 -2.54723
0.0185859 -2.58624 -2.58624
0.084446 -2.58691 -2.58691
0.0842457 -2.5479 -2.5479
0.018653 -2.56671 -2.56671
0.051513 -2.58655 -2.58655
0.084347 -2.56738 -2.56738
0.0514792 -2.54754 -2.54754
0.051497 -2.56702 -2.56702
0.0185859 -2.58624 -2.58624
0.018448 -2.62544 -2.62544
0.0846373 -2.62612 -2.62612
0.084446 -2.58691 -2.58691
0.0185176 -2.60582 -2.60582
0.0515396 -2.62576 -2.62576
0.0845428 -2.60649 -2.60649
0.051513 -2.58655 -2.58655
0.0515272 -2.60613 -2.60613
0.018448 -2.62544 -2.62544
0.018305 -2.66484 -2.66484
0.0848193 -2.66552 -2.66552
0.0846373 -2.62612 -2.62612
0.0183771 -2.64512 -2.64512
0.0515591 -2.66516 -2.66516
0.0847294 -2.6458 -2.6458
0.0515396 -2.62576 -2.62576
0.0515502 -2.64544 -2.64544
0.018305 -2.66484 -2.66484
0.018157 -2.70444 -2.70444
0.0849923 -2.70512 -2.70512
0.0848193 -2.66552 -2.66552
0.0182316 -2.68462 -2.68462
0.0515716 -2.70476 -2.70476
0.084907 -2.6853 -2.6853
0.0515591 -2.66516 -2.66516
0.0515663 -2.68494 -2.68494
0.018157 -2.70444 -2.70444
0.018004 -2.74422 -2.74422
0.0851562 -2.7449 -2.7449
0.0849923 -2.70512 -2.70512
0.0180811 -2.7243 -2.7243
0.0515771 -2.74454 -2.74454
0.0850754 -2.72499 -2.72499
0.0515716 -2.70476 -2.70476
0.0515752 -2.72462 -2.72462
0.018004 -2.74422 -2.74422
0.017846 -2.78418 -2.78418
0.0853111 -2.78487 -2.78487
0.0851562 -2.7449 -2.7449
0.0179256 -2.76418 -2.76418
0.0515755 -2.78451 -2.78451
0.0852348 -2.76486 -2.76486
0.0515771 -2.74454 -2.74454
0.0515772 -2.7645 -2.7645
0.017846 -2.78418 -2.78418
0.0176831 -2.82433 -2.82433
0.0854569 -2.82502 -2.82502
0.0853111 -2.78487 -2.78487
0.0177652 -2.80423 -2.80423
0.051567 -2.82466 -2.82466
0.0853851 -2.80492 -2.80492
0.0515755 -2.78451 -2.78451
0.0515721 -2.80456 -2.80456
0.0176831 -2.82433 -2.82433
0.0175153 -2.86466 -2.86466
0.0855937 -2.86536 -2.86536
0.0854569 -2.82502 -2.82502
0.0175998 -2.84448 -2.84448
0.0515515 -2.86499 -2.86499
0.0855264 -2.84517 -2.84517
0.051567 -2.82466 -2.82466
0.0515601 -2.8448 -2.8448
0.0175153 -2.86466 -2.86466
0.0173426 -2.90518 -2.90518
0.0857215 -2.90587 -2.90587
0.0855937 -2.86536 -2.86536
0.0174295 -2.8849 -2.8849
0.051529 -2.90551 -2.90551
0.0856588 -2.88559 -2.88559
0.0515515 -2.86499 -2.86499
0.0515411 -2.88523 -2.88523
0.0173426 -2.90518 -2.90518
0.017165 -2.94586 -2.94586
0.0858404 -2.94656 -2.94656
0.0857215 -2.90587 -2.90587
0.0172544 -2.9255 -2.9255
0.0514997 -2.9462 -2.9462
0.0857821 -2.9262 -2.9262
0.051529 -2.90551 -2.90551
0.0515152 -2.92583 -2.92583
0.017165 -2.94586 -2.94586
0.0169826 -2.98673 -2.98673
0.0859504 -2.98743 -2.98743
0.0858404 -2.94656 -2.94656
0.0170744 -2.96627 -2.96627
0.0514634 -2.98706 -2.98706
0.0858965 -2.96697 -2.96697
0.0514997 -2.9462 -2.9462
0.0514824 -2.96661 -2.96661
0.0169826 -2.98673 -2.98673
0.0167953 -3.02776 -3.02776
0.0860514 -3.02847 -3.02847
0.0859504 -2.98743 -2.98743
0.0168895 -3.00722 -3.00722
0.0514203 -3.0281 -3.0281
0.086002 -3.00793 -3.00793
0.0514634 -2.98706 -2.98706
0.0514427 -3.00756 -3.00756
0.0167953 -3.02776 -3.02776
0.0166033 -3.06896 -3.06896
0.0861436 -3.06967 -3.06967
0.0860514 -3.02847 -3.02847
0.0166999 -3.04834 -3.04834
0.0513704 -3.0693 -3.0693
0.0860986 -3.04905 -3.04905
0.0514203 -3.0281 -3.0281
0.0513962 -3.04868 -3.04868
0.0166033 -3.06896 -3.06896
0.0164065 -3.11034 -3.11034
0.0862269 -3.11105 -3.11105
0.0861436 -3.06967 -3.06967
0.0165055 -3.08963 -3.08963
0.0513137 -3.11067 -3.11067
0.0861864 -3.09034 -3.09034
0.0513704 -3.0693 -3.0693
0.0513429 -3.08997 -3.08997
0.0164065 -3.11034 -3.11034
0.016205 -3.15187 -3.15187
0.0863014 -3.15258 -3.15258
0.0862269 -3.11105 -3.11105
0.0163064 -3.13108 -3.13108
0.0512502 -3.15221 -3.15221
0.0862653 -3.13179 -3.13179
0.0513137 -3.11067 -3.11067
0.0512828 -3.13142 -3.13142
0.016205 -3.15187 -3.15187
0.0159988 -3.19357 -3.19357
0.0863672 -3.19428 -3.19428
0.0863014 -3.15258 -3.15258
0.0161025 -3.1727 -3.1727
0.0511799 -3.19391 -3.19391
0.0863354 -3.17341 -3.17341
0.0512502 -3.15221 -3.15221
0.0512159 -3.17304 -3.17304
0.0159988 -3.19357 -3.19357
0.0157879 -3.23543 -3.23543
0.0864241 -3.23614 -3.23614
0.0863672 -3.19428 -3.19428
0.015894 -3.21448 -3.21448
0.051103 -3.23577 -3.23577
0.0863967 -3.21519 -3.21519
0.0511799 -3.19391 -3.19391
0.0511423 -3.21482 -3.21482
0.0157879 -3.23543 -3.23543
0.0155724 -3.27744 -3.27744
0.0864724 -3.27816 -3.27816
0.0864241 -3.23614 -3.23614
0.0156808 -3.25641 -3.25641
0.0510193 -3.27778 -3.27778
0.0864493 -3.25713 -3.25713
0.051103 -3.23577 -3.23577
0.051062 -3.25676 -3.25676
0.0155724 -3.27744 -3.27744
0.0153523 -3.31961 -3.31961
0.0865119 -3.32033 -3.32033
0.0864724 -3.27816 -3.27816
0.0154629 -3.29851 -3.29851
0.050929 -3.31996 -3.31996
0.0864932 -3.29923 -3.29923
0.0510193 -3.27778 -3.27778
0.050975 -3.29885 -3.29885
0.0153523 -3.31961 -3.31961
0.0151276 -3.36193 -3.36193
0.0865428 -3.36266 -3.36266
0.0865119 -3.32033 -3.32033
0.0152405 -3.34075 -3.34075
0.0508321 -3.36228 -3.36228
0.0865284 -3.34148 -3.34148
0.050929 -3.31996 -3.31996
0.0508814 -3.3411 -3.3411
0.0151276 -3.36193 -3.36193
0.0148984 -3.40441 -3.40441
0.086565 -3.40513 -3.40513
0.0865428 -3.36266 -3.36266
0.0150136 -3.38315 -3.38315
0.0507286 -3.40475 -3.40475
0.086555 -3.38388 -3.38388
0.0508321 -3.36228 -3.36228
0.0507812 -3.3835 -3.3835
0.0148984 -3.40441 -3.40441
0.0146646 -3.44703 -3.44703
0.0865786 -3.44775 -3.44775
0.086565 -3.40513 -3.40513
0.014782 -3.4257 -3.4257
0.0506185 -3.44737 -3.44737
0.0865729 -3.42642 -3.42642
0.0507286 -3.40475 -3.40475
0.0506744 -3.42604 -3.42604
0.0146646 -3.44703 -3.44703
0.0144264 -3.48979 -3.48979
0.0865837 -3.49052 -3.49052
0.0865786 -3.44775 -3.44775
0.014546 -3.46839 -3.46839
0.0505019 -3.49014 -3.49014
0.0865822 -3.46912 -3.46912
0.0506185 -3.44737 -3.44737
0.050561 -3.46874 -3.46874
0.0144264 -3.48979 -3.48979
0.0141837 -3.5327 -3.5327
0.0865802 -3.53343 -3.53343
0.0865837 -3.49052 -3.49052
0.0143056 -3.51123 -3.51123
0.0503788 -3.53305 -3.53305
0.086583 -3.51196 -3.51196
0.0505019 -3.49014 -3.49014
0.0504412 -3.51158 -3.51158
0.0141837 -3.5327 -3.5327
0.0139365 -3.57575 -3.57575
0.0865682 -3.57648 -3.57648
0.0865802 -3.53343 -3.53343
0.0140606 -3.55421 -3.55421
0.0502493 -3.5761 -3.5761
0.0865753 -3.55494 -3.55494
0.0503788 -3.53305 -3.53305
0.0503149 -3.55456 -3.55456
0.0139365 -3.57575 -3.57575
0.013685 -3.61893 -3.61893
0.0865478 -3.61967 -3.61967
0.0865682 -3.57648 -3.57648
0.0138113 -3.59732 -3.59732
0.0501133 -3.61929 -3.61929
0.086559 -3.59806 -3.59806
0.0502493 -3.5761 -3.5761
0.0501821 -3.59768 -3.59768
0.013685 -3.61893 -3.61893
0.0134292 -3.66226 -3.66226
0.0865189 -3.66299 -3.66299
0.0865478 -3.61967 -3.61967
0.0135577 -3.64058 -3.64058
0.0499709 -3.66261 -3.66261
0.0865344 -3.64131 -3.64131
0.0501133 -3.61929 -3.61929
0.0500429 -3.64093 -3.64093
0.0134292 -3.66226 -3.66226
0.013169 -3.70571 -3.70571
0.0864816 -3.70645 -3.70645
0.0865189 -3.66299 -3.66299
0.0132996 -3.68397 -3.68397
0.0498222 -3.70607 -3.70607
0.0865013 -3.68471 -3.68471
0.0499709 -3.66261 -3.66261
0.0498973 -3.68432 -3.68432
0.013169 -3.70571 -3.70571
0.0129046 -3.7493 -3.7493
0.0864359 -3.75004 -3.75004
0.0864816 -3.70645 -3.70645
0.0130373 -3.72749 -3.72749
0.0496671 -3.74965 -3.74965
0.0864598 -3.72823 -3.72823
0.0498222 -3.70607 -3.70607
0.0497454 -3.72784 -3.72784
0.0129046 -3.7493 -3.7493
0.0126359 -3.79301 -3.79301
0.0863819 -3.79375 -3.79375
0.0864359 -3.75004 -3.75004
0.0127708 -3.77114 -3.77114
0.0495058 -3.79337 -3.79337
0.0864099 -3.77188 -3.77188
0.0496671 -3.74965 -3.74965
0.0495872 -3.7715 -3.7715
0.0126359 -3.79301 -3.79301
0.012363 -3.83685 -3.83685
0.0863196 -3.8376 -3.8376
0.0863819 -3.79375 -3.79375
0.0124999 -3.81492 -3.81492
0.0493381 -3.83721 -3.83721
0.0863517 -3.81566 -3.81566
0.0495058 -3.79337 -3.79337
0.0494227 -3.81527 -3.81527
0.012363 -3.83685 -3.83685
0.0120859 -3.88082 -3.88082
0.086249 -3.88156 -3.88156
0.0863196 -3.8376 -3.8376
0.0122249 -3.85882 -3.85882
0.0491643 -3.88118 -3.88118
0.0862853 -3.85956 -3.85956
0.0493381 -3.83721 -3.83721
0.049252 -3.85918 -3.85918
0.0120859 -3.88082 -3.88082
0.0118047 -3.9249 -3.9249
0.0861702 -3.92565 -3.92565
0.086249 -3.88156 -3.88156
0.0119458 -3.90284 -3.90284
0.0489843 -3.92526 -3.92526
0.0862106 -3.90359 -3.90359
0.0491643 -3.88118 -3.88118
0.0490751 -3.9032 -3.9032
0.0118047 -3.9249 -3.9249
0.0115193 -3.9691 -3.9691
0.0860832 -3.96985 -3.96985
0.0861702 -3.92565 -3.92565
0.0116625 -3.94699 -3.94699
0.0487981 -3.96946 -3.96946
0.0861277 -3.94773 -3.94773
0.0489843 -3.92526 -3.92526
0.048892 -3.94735 -3.94735
0.0115193 -3.9691 -3.9691
0.0112299 -4.01342 -4.01342
0.085988 -4.01417 -4.01417
0.0860832 -3.96985 -3.96985
0.0113751 -3.99125 -3.99125
0.0486058 -4.01379 -4.01379
0.0860366 -3.992 -3.992
0.0487981 -3.96946 -3.96946
0.0487027 -3.99161 -3.99161
0.0112299 -4.01342 -4.01342
0.0109365 -4.05786 -4.05786
0.0858847 -4.05861 -4.05861
0.085988 -4.01417 -4.01417
0.0110837 -4.03563 -4.03563
0.0484075 -4.05822 -4.05822
0.0859374 -4.03638 -4.03638
0.0486058 -4.01379 -4.01379
0.0485074 -4.03599 -4.03599
0.0109365 -4.05786 -4.05786
0.0106391 -4.1024 -4.1024
0.0857734 -4.10315 -4.10315
0.0858847 -4.05861 -4.05861
0.0107883 -4.08011 -4.08011
0.0482031 -4.10276 -4.10276
0.0858301 -4.08087 -4.08087
0.0484075 -4.05822 -4.05822
0.048306 -4.08048 -4.08048
0.0106391 -4.1024 -4.1024
0.0103377 -4.14705 -4.14705
0.085654 -4.14781 -4.14781
0.0857734 -4.10315 -4.10315
0.0104889 -4.12471 -4.12471
0.0479927 -4.14742 -4.14742
0.0857147 -4.12547 -4.12547
0.0482031 -4.10276 -4.10276
0.0480986 -4.12508 -4.12508
0.0103377 -4.14705 -4.14705
0.0100324 -4.19181 -4.19181
0.0855266 -4.19257 -4.19257
0.085654 -4.14781 -4.14781
0.0101856 -4.16942 -4.16942
0.0477763 -4.19218 -4.19218
0.0855913 -4.17017 -4.17017
0.0479927 -4.14742 -4.14742
0.0478853 -4.16979 -4.16979
0.0100324 -4.19181 -4.19181
0.00972325 -4.23668 -4.23668
0.0853912 -4.23743 -4.23743
0.0855266 -4.19257 -4.19257
0.00987832 -4.21423 -4.21423
0.0475541 -4.23704 -4.23704
0.0854599 -4.21499 -4.21499
0.0477763 -4.19218 -4.19218
0.0476659 -4.2146 -4.2146
0.00972325 -4.23668 -4.23668
0.00941024 -4.28164 -4.28164
0.0852479 -4.2824 -4.2824
0.0853912 -4.23743 -4.23743
0.00956722 -4.25915 -4.25915
0.0473259 -4.28201 -4.28201
0.0853206 -4.2599 -4.2599
0.0475541 -4.23704 -4.23704
0.0474407 -4.25952 -4.25952
0.00941024 -4.28164 -4.28164
0.00909342 -4.32671 -4.32671
0.0850967 -4.32747 -4.32747
0.0852479 -4.2824 -4.2824
0.0092523 -4.30416 -4.30416
0.0470919 -4.32708 -4.32708
0.0851733 -4.30492 -4.30492
0.0473259 -4.28201 -4.28201
0.0472096 -4.30453 -4.30453
0.00909342 -4.32671 -4.32671
0.00877285 -4.37187 -4.37187
0.0849377 -4.37263 -4.37263
0.0850967 -4.32747 -4.32747
0.0089336 -4.34928 -4.34928
0.0468521 -4.37224 -4.37224
0.0850182 -4.35004 -4.35004
0.0470919 -4.32708 -4.32708
0.0469727 -4.34965 -4.34965
0.00877285 -4.37187 -4.37187
0.00844855 -4.41713 -4.41713
0.0847708 -4.41789 -4.41789
0.0849377 -4.37263 -4.37263
0.00861116 -4.39449 -4.39449
0.0466065 -4.4175 -4.4175
0.0848552 -4.39525 -4.39525
0.0468521 -4.37224 -4.37224
0.04673 -4.39486 -4.39486
0.00844855 -4.41713 -4.41713
0.00812056 -4.46248 -4.46248
0.0845962 -4.46323 -4.46323
0.0847708 -4.41789 -4.41789
0.00828501 -4.43979 -4.43979
0.0463552 -4.46285 -4.46285
0.0846845 -4.44055 -4.44055
0.0466065 -4.4175 -4.4175
0.0464816 -4.44016 -4.44016
0.00812056 -4.46248 -4.46248
0.00778893 -4.50791 -4.50791
0.0844138 -4.50867 -4.50867
0.0845962 -4.46323 -4.46323
0.0079552 -4.48518 -4.48518
0.0460982 -4.50828 -4.50828
0.084506 -4.48594 -4.48594
0.0463552 -4.46285 -4.46285
0.0462274 -4.48555 -4.48555
0.00778893 -4.50791 -4.50791
0.0074537 -4.55344 -4.55344
0.0842238 -4.5542 -4.5542
0.0844138 -4.50867 -4.50867
0.00762177 -4.53066 -4.53066
0.0458356 -4.55381 -4.55381
0.0843198 -4.53143 -4.53143
0.0460982 -4.50828 -4.50828
0.0459676 -4.53104 -4.53104
0.0074537 -4.55344 -4.55344
0.00711491 -4.59905 -4.59905
0.0840261 -4.59981 -4.59981
0.0842238 -4.5542 -4.5542
0.00728475 -4.57623 -4.57623
0.0455673 -4.59942 -4.59942
0.0841259 -4.57699 -4.57699
0.0458356 -4.55381 -4.55381
0.0457021 -4.5766 -4.5766
0.00711491 -4.59905 -4.59905
0.00677259 -4.64474 -4.64474
0.0838208 -4.6455 -4.6455
0.0840261 -4.59981 -4.59981
0.00694419 -4.62188 -4.62188
0.0452935 -4.64511 -4.64511
0.0839244 -4.62264 -4.62264
0.0455673 -4.59942 -4.59942
0.0454311 -4.62226 -4.62226
0.00677259 -4.64474 -4.64474
0.0064268 -4.69051 -4.69051
0.0836079 -4.69127 -4.69127
0.0838208 -4.6455 -4.6455
0.00660013 -4.66762 -4.66762
0.0450141 -4.69088 -4.69088
0.0837153 -4.66838 -4.66838
0.0452935 -4.64511 -4.64511
0.0451545 -4.66799 -4.66799
0.0064268 -4.69051 -4.69051
0.00607756 -4.73636 -4.73636
0.0833875 -4.73712 -4.73712
0.0836079 -4.69127 -4.69127
0.00625261 -4.71343 -4.71343
0.0447293 -4.73673 -4.73673
0.0834986 -4.71419 -4.71419
0.0450141 -4.69088 -4.69088
0.0448724 -4.7138 -4.7138
0.00607756 -4.73636 -4.73636
0.00572492 -4.78228 -4.78228
0.0831596 -4.78305 -4.78305
0.0833875 -4.73712 -4.73712
0.00590166 -4.75931 -4.75931
0.044439 -4.78266 -4.78266
0.0832745 -4.76008 -4.76008
0.0447293 -4.73673 -4.73673
0.0445849 -4.75969 -4.75969
0.00572492 -4.78228 -4.78228
0.00536893 -4.82828 -4.82828
0.0829242 -4.82904 -4.82904
0.0831596 -4.78305 -4.78305
0.00554734 -4.80527 -4.80527
0.0441434 -4.82866 -4.82866
0.0830428 -4.80604 -4.80604
0.044439 -4.78266 -4.78266
0.0442919 -4.80565 -4.80565
0.00536893 -4.82828 -4.82828
0.00500962 -4.87435 -4.87435
0.0826815 -4.87511 -4.87511
0.0829242 -4.82904 -4.82904
0.00518969 -4.85131 -4.85131
0.0438423 -4.87472 -4.87472
0.0828038 -4.85207 -4.85207
0.0441434 -4.82866 -4.82866
0.0439935 -4.85168 -4.85168
0.00500962 -4.87435 -4.87435
0.00464704 -4.92048 -4.92048
0.0824314 -4.92125 -4.92125
0.0826815 -4.87511 -4.87511
0.00482874 -4.89741 -4.89741
0.043536 -4.92086 -4.92086
0.0825573 -4.89817 -4.89817
0.0438423 -4.87472 -4.87472
0.0436898 -4.89778 -4.89778
0.00464704 -4.92048 -4.92048
0.00428122 -4.96668 -4.96668
0.0821739 -4.96745 -4.96745
0.0824314 -4.92125 -4.92125
0.00446453 -4.94358 -4.94358
0.0432244 -4.96706 -4.96706
0.0823036 -4.94434 -4.94434
0.043536 -4.92086 -4.92086
0.0433808 -4.94395 -4.94395
0.00428122 -4.96668 -4.96668
0.00391222 -5.01295 -5.01295
0.0819092 -5.01371 -5.01371
0.0821739 -4.96745 -4.96745
0.00409712 -4.98981 -4.98981
0.0429075 -5.01332 -5.01332
0.0820425 -4.99057 -4.99057
0.0432244 -4.96706 -4.96706
0.0430666 -4.99018 -4.99018
0.00391222 -5.01295 -5.01295
0.00354007 -5.05927 -5.05927
0.0816373 -5.06003 -5.06003
0.0819092 -5.01371 -5.01371
0.00372654 -5.0361 -5.0361
0.0425854 -5.05964 -5.05964
0.0817742 -5.03686 -5.03686
0.0429075 -5.01332 -5.01332
0.0427471 -5.03648 -5.03648
0.00354007 -5.05927 -5.05927
0.00316482 -5.10565 -5.10565
0.0813582 -5.10641 -5.10641
0.0816373 -5.06003 -5.06003
0.00335283 -5.08245 -5.08245
0.0422582 -5.10603 -5.10603
0.0814986 -5.08322 -5.08322
0.0425854 -5.05964 -5.05964
0.0424225 -5.08283 -5.08283
0.00316482 -5.10565 -5.10565
0.0027865 -5.15209 -5.15209
0.0810719 -5.15285 -5.15285
0.0813582 -5.10641 -5.10641
0.00297604 -5.12886 -5.12886
0.0419259 -5.15246 -5.15246
0.0812159 -5.12962 -5.12962
0.0422582 -5.10603 -5.10603
0.0420927 -5.12924 -5.12924
0.0027865 -5.15209 -5.15209
0.00240517 -5.19858 -5.19858
0.0807785 -5.19934 -5.19934
0.0810719 -5.15285 -5.15285
0.00259621 -5.17533 -5.17533
0.0415886 -5.19895 -5.19895
0.0809261 -5.17609 -5.17609
0.0419259 -5.15246 -5.15246
0.0417579 -5.1757 -5.1757
0.00240517 -5.19858 -5.19858
0.00202087 -5.24512 -5.24512
0.080478 -5.24588 -5.24588
0.0807785 -5.19934 -5.19934
0.00221339 -5.22184 -5.22184
0.0412462 -5.2455 -5.2455
0.0806291 -5.2226 -5.2226
0.0415886 -5.19895 -5.19895
0.041418 -5.22222 -5.22222
0.00202087 -5.24512 -5.24512
0.00163363 -5.29171 -5.29171
0.0801706 -5.29247 -5.29247
0.080478 -5.24588 -5.24588
0.00182761 -5.26841 -5.26841
0.0408988 -5.29209 -5.29209
0.0803252 -5.26917 -5.26917
0.0412462 -5.2455 -5.2455
0.0410731 -5.26878 -5.26878
0.00163363 -5.29171 -5.29171
0.00124351 -5.33835 -5.33835
0.0798561 -5.33911 -5.33911
0.0801706 -5.29247 -5.29247
0.00143893 -5.31502 -5.31502
0.0405465 -5.33872 -5.33872
0.0800142 -5.31578 -5.31578
0.0408988 -5.29209 -5.29209
0.0407233 -5.3154 -5.3154
0.00124351 -5.33835 -5.33835
0.00085054 -5.38503 -5.38503
0.0795347 -5.38578 -5.38578
0.0798561 -5.33911 -5.33911
0.00104738 -5.36168 -5.36168
0.0401894 -5.3854 -5.3854
0.0796963 -5.36244 -5.36244
0.0405465 -5.33872 -5.33872
0.0403686 -5.36206 -5.36206
0.00085054 -5.38503 -5.38503
0.000454772 -5.43175 -5.43175
0.0792065 -5.4325 -5.4325
0.0795347 -5.38578 -5.38578
0.000653003 -5.40838 -5.40838
0.0398273 -5.43212 -5.43212
0.0793715 -5.40914 -5.40914
0.0401894 -5.3854 -5.3854
0.040009 -5.40876 -5.40876
0.000454772 -5.43175 -5.43175
5.62465e-05 -5.47851 -5.47851
0.0788713 -5.47926 -5.47926
0.0792065 -5.4325 -5.4325
0.000255851 -5.45512 -5.45512
0.0394605 -5.47888 -5.47888
0.0790398 -5.45588 -5.45588
0.0398273 -5.43212 -5.43212
0.0396445 -5.4555 -5.4555
5.62465e-05 -5.47851 -5.47851
-0.000344994 -5.5253 -5.5253
0.0785294 -5.52606 -5.52606
0.0788713 -5.47926 -5.47926
-0.000144037 -5.5019 -5.5019
0.0390889 -5.52567 -5.52567
0.0787012 -5.50265 -5.50265
0.0394605 -5.47888 -5.47888
0.0392753 -5.50227 -5.50227
-0.000344994 -5.5253 -5.5253
-0.000748909 -5.57213 -5.57213
0.0781808 -5.57288 -5.57288
0.0785294 -5.52606 -5.52606
-0.000546619 -5.54871 -5.54871
0.0387126 -5.5725 -5.5725
0.0783559 -5.54947 -5.54947
0.0390889 -5.52567 -5.52567
0.0389014 -5.54908 -5.54908
-0.000748909 -5.57213 -5.57213
-0.00115546 -5.61899 -5.61899
0.0778253 -5.61974 -5.61974
0.0781808 -5.57288 -5.57288
-0.000951857 -5.59556 -5.59556
0.0383316 -5.61936 -5.61936
0.0780039 -5.59631 -5.59631
0.0387126 -5.5725 -5.5725
0.0385227 -5.59593 -5.59593
-0.00115546 -5.61899 -5.61899
-0.00156462 -5.66588 -5.66588
0.0774632 -5.66663 -5.66663
0.0778253 -5.61974 -5.61974
-0.00135972 -5.64243 -5.64243
0.037946 -5.66625 -5.66625
0.0776451 -5.64318 -5.64318
0.0383316 -5.61936 -5.61936
0.0381394 -5.6428 -5.6428
-0.00156462 -5.66588 -5.66588
-0.00197638 -5.7128 -5.7128
0.0770944 -5.71355 -5.71355
0.0774632 -5.66663 -5.66663
-0.00177018 -5.68934 -5.68934
0.0375557 -5.71317 -5.71317
0.0772797 -5.69009 -5.69009
0.037946 -5.66625 -5.66625
0.0377514 -5.68971 -5.68971
-0.00197638 -5.7128 -5.7128
-0.00239074 -5.75974 -5.75974
0.0767188 -5.76049 -5.76049
0.0770944 -5.71355 -5.71355
-0.00218323 -5.73626 -5.73626
0.0371606 -5.76011 -5.76011
0.0769075 -5.73701 -5.73701
0.0375557 -5.71317 -5.71317
0.0373587 -5.73664 -5.73664
-0.00239074 -5.75974 -5.75974
-0.00280774 -5.8067 -5.8067
0.0763364 -5.80745 -5.80745
0.0767188 -5.76049 -5.76049
-0.00259891 -5.78322 -5.78322
0.0367608 -5.80707 -5.80707
0.0765285 -5.78396 -5.78396
0.0371606 -5.76011 -5.76011
0.0369613 -5.78359 -5.78359
-0.00280774 -5.8067 -5.8067
-0.00322749 -5.85368 -5.85368
0.0759469 -5.85443 -5.85443
0.0763364 -5.80745 -5.80745
-0.00301727 -5.83019 -5.83019
0.036356 -5.85405 -5.85405
0.0761426 -5.83093 -5.83093
0.0367608 -5.80707 -5.80707
0.036559 -5.83056 -5.83056
-0.00322749 -5.85368 -5.85368
-0.0036501 -5.90068 -5.90068
0.07555 -5.90142 -5.90142
0.0759469 -5.85443 -5.85443
-0.00343842 -5.87718 -5.87718
0.0359459 -5.90105 -5.90105
0.0757494 -5.87792 -5.87792
0.036356 -5.85405 -5.85405
0.0361516 -5.87755 -5.87755
-0.0036501 -5.90068 -5.90068
-0.00407577 -5.9477 -5.9477
0.0751452 -5.94844 -5.94844
0.07555 -5.90142 -5.90142
-0.00386256 -5.92419 -5.92419
0.0355301 -5.94807 -5.94807
0.0753486 -5.92493 -5.92493
0.0359459 -5.90105 -5.90105
0.0357387 -5.92456 -5.92456
-0.00407577 -5.9477 -5.9477
-0.00450442 -5.99473 -5.99473
0.0747318 -5.99546 -5.99546
0.0751452 -5.94844 -5.94844
-0.00428972 -5.97121 -5.97121
0.0351085 -5.99509 -5.99509
0.0749395 -5.97195 -5.97195
0.0355301 -5.94807 -5.94807
0.03532 -5.97158 -5.97158
-0.00450442 -5.99473 -5.99473
-0.00493584 -6.04176 -6.04176
0.07431 -6.0425 -6.0425
0.0747318 -5.99546 -5.99546
-0.00471987 -6.01824 -6.01824
0.0346815 -6.04213 -6.04213
0.074522 -6.01898 -6.01898
0.0351085 -5.99509 -5.99509
0.0348956 -6.01861 -6.01861
-0.00493584 -6.04176 -6.04176
-0.00536859 -6.0888 -6.0888
0.0738813 -6.08954 -6.08954
0.07431 -6.0425 -6.0425
-0.00515209 -6.06528 -6.06528
0.0342508 -6.08917 -6.08917
0.0740962 -6.06602 -6.06602
0.0346815 -6.04213 -6.04213
0.0344663 -6.06565 -6.06565
-0.00536859 -6.0888 -6.0888
-0.00580158 -6.13582 -6.13582
0.0734517 -6.13659 -6.13659
0.0738813 -6.08954 -6.08954
-0.00558525 -6.11231 -6.11231
0.0338204 -6.1362 -6.1362
0.0736663 -6.11307 -6.11307
0.0342508 -6.08917 -6.08917
0.0340354 -6.11269 -6.11269
-0.00580158 -6.13582 -6.13582
-0.00623186 -6.18282 -6.18282
0.073027 -6.18361 -6.18361
0.0734517 -6.13659 -6.13659
-0.00601713 -6.15933 -6.15933
0.0333923 -6.18321 -6.18321
0.0732385 -6.1601 -6.1601
0.0338204 -6.1362 -6.1362
0.0336059 -6.15971 -6.15971
0 0 0
0.00106433 -0.000110732 -0.000110732
0.0018317 -0.000520808 -0.000520808
0 0 0
0.000515963 3.18835e-05 3.18835e-05
0.00143386 -0.000266161 -0.000266161
0.00088893 -0.000186924 -0.000186924
0 0 0
0.000706029 -5.69404e-05 -5.69404e-05
0.00106433 -0.000110732 -0.000110732
0.00221003 -0.000830738 -0.000830738
0.00381467 -0.00150279 -0.00150279
0.0018317 -0.000520808 -0.000520808
0.00163004 -0.000401762 -0.000401762
0.00298526 -0.00110911 -0.00110911
0.00281376 -0.000964386 -0.000964386
0.00143386 -0.000266161 -0.000266161
0.00219716 -0.0006233 -0.0006233
0.00221003 -0.000830738 -0.000830738
0.00340335 -0.00207574 -0.00207574
0.0058154 -0.00285171 -0.00285171
0.00381467 -0.00150279 -0.00150279
0.00280308 -0.00139103 -0.00139103
0.00458572 -0.00240963 -0.00240963
0.00481626 -0.00212984 -0.00212984
0.00298526 -0.00110911 -0.00110911
0.00378349 -0.00170497 -0.00170497
0.00340335 -0.00207574 -0.00207574
0.00460621 -0.0037993 -0.0037993
0.00780572 -0.00460797 -0.00460797
0.0058154 -0.00285171 -0.00285171
0.00400494 -0.002879 -0.002879
0.0061888 -0.00415338 -0.00415338
0.00681235 -0.00367654 -0.00367654
0.00458572 -0.00240963 -0.00240963
0.00538825 -0.00322564 -0.00322564
0.00460621 -0.0037993 -0.0037993
0.00580457 -0.00598874 -0.00598874
0.00977856 -0.00680059 -0.00680059
0.00780572 -0.00460797 -0.00460797
0.00520649 -0.00483613 -0.00483613
0.00777896 -0.00634561 -0.00634561
0.00879422 -0.0056485 -0.0056485
0.0061888 -0.00415338 -0.00415338
0.00698575 -0.00519295 -0.00519295
0.00580457 -0.00598874 -0.00598874
0.00699125 -0.00863918 -0.00863918
0.0117377 -0.0094464 -0.0094464
0.00977856 -0.00680059 -0.00680059
0.00639945 -0.00725643 -0.00725643
0.00935472 -0.00899429 -0.00899429
0.0107597 -0.00806636 -0.00806636
0.00777896 -0.00634561 -0.00634561
0.00856858 -0.00761264 -0.00761264
0.00699125 -0.00863918 -0.00863918
0.00816664 -0.0117498 -0.0117498
0.0136838 -0.0125502 -0.0125502
0.0117377 -0.0094464 -0.0094464
0.00758031 -0.0101371 -0.0101371
0.010917 -0.0121016 -0.0121016
0.0127123 -0.0109409 -0.0109409
0.00935472 -0.00899429 -0.00899429
0.0101375 -0.0104906 -0.0104906
0.00816664 -0.0117498 -0.0117498
0.00933134 -0.0153191 -0.0153191
0.0156182 -0.0161134 -0.0161134
0.0136838 -0.0125502 -0.0125502
0.00875025 -0.0134772 -0.0134772
0.0124674 -0.0156678 -0.0156678
0.0146524 -0.0142744 -0.0142744
0.010917 -0.0121016 -0.0121016
0.0116936 -0.0138274 -0.0138274
0.00933134 -0.0153191 -0.0153191
0.0104868 -0.0193454 -0.0193454
0.0175413 -0.0201346 -0.0201346
0.0156182 -0.0161134 -0.0161134
0.00991015 -0.0172752 -0.0172752
0.0140071 -0.0196917 -0.0196917
0.0165811 -0.0180669 -0.0180669
0.0124674 -0.0156678 -0.0156678
0.0132385 -0.0176227 -0.0176227
0.0104868 -0.0193454 -0.0193454
0.0116338 -0.0238268 -0.0238268
0.0194532 -0.0246117 -0.0246117
0.0175413 -0.0201346 -0.0201346
0.0110613 -0.0215294 -0.0215294
0.0155367 -0.0241711 -0.0241711
0.0184986 -0.0223163 -0.0223163
0.0140071 -0.0196917 -0.0196917
0.0147731 -0.0218746 -0.0218746
0.0116338 -0.0238268 -0.0238268
0.0127729 -0.028761 -0.028761
0.021354 -0.0295425 -0.0295425
0.0194532 -0.0246117 -0.0246117
0.0122043 -0.0262374 -0.0262374
0.0170568 -0.0291037 -0.0291037
0.020405 -0.0270206 -0.0270206
0.0155367 -0.0241711 -0.0241711
0.016298 -0.0265809 -0.0265809
0.0127729 -0.028761 -0.028761
0.0139046 -0.0341458 -0.0341458
0.0232437 -0.0349242 -0.0349242
0.021354 -0.0295425 -0.0295425
0.0133397 -0.0313973 -0.0313973
0.0185675 -0.0344872 -0.0344872
0.0223002 -0.0321771 -0.0321771
0.0170568 -0.0291037 -0.0291037
0.0178133 -0.0317393 -0.0317393
0.0139046 -0.0341458 -0.0341458
0.0150288 -0.0399788 -0.0399788
0.0251221 -0.0407546 -0.0407546
0.0232437 -0.0349242 -0.0349242
0.0144676 -0.0370065 -0.0370065
0.0200689 -0.0403191 -0.0403191
0.0241843 -0.0377835 -0.0377835
0.0185675 -0.0344872 -0.0344872
0.0193194 -0.0373473 -0.0373473
0.0150288 -0.0399788 -0.0399788
0.0161458 -0.0462576 -0.0462576
0.0269893 -0.0470309 -0.0470309
0.0251221 -0.0407546 -0.0407546
0.0155883 -0.0430627 -0.0430627
0.021561 -0.0465969 -0.0465969
0.0260571 -0.0438371 -0.0438371
0.0200689 -0.0403191 -0.0403191
0.0208161 -0.0434024 -0.0434024
0.0161458 -0.0462576 -0.0462576
0.0172555 -0.0529798 -0.0529798
0.0288452 -0.0537508 -0.0537508
0.0269893 -0.0470309 -0.0470309
0.0167016 -0.0495634 -0.0495634
0.0230438 -0.0533182 -0.0533182
0.0279187 -0.0503356 -0.0503356
0.021561 -0.0465969 -0.0465969
0.0223036 -0.0499023 -0.0499023
0.0172555 -0.0529798 -0.0529798
0.0183579 -0.0601429 -0.0601429
0.0306897 -0.0609119 -0.0609119
0.0288452 -0.0537508 -0.0537508
0.0178076 -0.0565064 -0.0565064
0.0245172 -0.0604806 -0.0604806
0.0297689 -0.0572764 -0.0572764
0.0230438 -0.0533182 -0.0533182
0.0237817 -0.0568444 -0.0568444
0.0183579 -0.0601429 -0.0601429
0.0194528 -0.0677446 -0.0677446
0.0325226 -0.0685116 -0.0685116
0.0306897 -0.0609119 -0.0609119
0.0189063 -0.0638891 -0.0638891
0.0259812 -0.0680815 -0.0680815
0.0316076 -0.064657 -0.064657
0.0245172 -0.0604806 -0.0604806
0.0252504 -0.0642264 -0.0642264
0.0194528 -0.0677446 -0.0677446
0.0205403 -0.0757824 -0.0757824
0.0343441 -0.0765475 -0.0765475
0.0325226 -0.0685116 -0.0685116
0.0199975 -0.0717092 -0.0717092
0.0274357 -0.0761186 -0.0761186
0.0334348 -0.0724752 -0.0724752
0.0259812 -0.0680815 -0.0680815
0.0267096 -0.0720457 -0.0720457
0.0205403 -0.0757824 -0.0757824
0.0216203 -0.0842539 -0.0842539
0.0361539 -0.0850172 -0.0850172
0.0343441 -0.0765475 -0.0765475
0.0210812 -0.0799641 -0.0799641
0.0288805 -0.0845895 -0.0845895
0.0352504 -0.0807283 -0.0807283
0.0274357 -0.0761186 -0.0761186
0.0281593 -0.0803 -0.0803
0.0216203 -0.0842539 -0.0842539
0.0226926 -0.0931566 -0.0931566
0.037952 -0.0939183 -0.0939183
0.0361539 -0.0850172 -0.0850172
0.0221574 -0.0886515 -0.0886515
0.0303158 -0.0934917 -0.0934917
0.0370544 -0.089414 -0.089414
0.0288805 -0.0845895 -0.0845895
0.0295994 -0.0889868 -0.0889868
0.0226926 -0.0931566 -0.0931566
0.0237573 -0.102488 -0.102488
0.0397384 -0.103248 -0.103248
0.037952 -0.0939183 -0.0939183
0.0232259 -0.097769 -0.097769
0.0317414 -0.102823 -0.102823
0.0388467 -0.0985299 -0.0985299
0.0303158 -0.0934917 -0.0934917
0.0310298 -0.0981037 -0.0981037
0.0237573 -0.102488 -0.102488
0.0248143 -0.112246 -0.112246
0.041513 -0.113005 -0.113005
0.0397384 -0.103248 -0.103248
0.0242868 -0.107314 -0.107314
0.0331571 -0.11258 -0.11258
0.0406272 -0.108074 -0.108074
0.0317414 -0.102823 -0.102823
0.0324505 -0.107648 -0.107648
0.0248143 -0.112246 -0.112246
0.0258635 -0.122428 -0.122428
0.0432757 -0.123186 -0.123186
0.041513 -0.113005 -0.113005
0.0253399 -0.117284 -0.117284
0.0345631 -0.122762 -0.122762
0.0423959 -0.118042 -0.118042
0.0331571 -0.11258 -0.11258
0.0338614 -0.117618 -0.117618
0.0258635 -0.122428 -0.122428
0.0269049 -0.133032 -0.133032
0.0450265 -0.133788 -0.133788
0.0432757 -0.123186 -0.123186
0.0263852 -0.127677 -0.127677
0.0359592 -0.133365 -0.133365
0.0441526 -0.128434 -0.128434
0.0345631 -0.122762 -0.122762
0.0352624 -0.128011 -0.128011
0.0269049 -0.133032 -0.133032
0.0279383 -0.144054 -0.144054
0.0467653 -0.144809 -0.144809
0.0450265 -0.133788 -0.133788
0.0274226 -0.138491 -0.138491
0.0373453 -0.144387 -0.144387
0.0458974 -0.139246 -0.139246
0.0359592 -0.133365 -0.133365
0.0366535 -0.138824 -0.138824
0.0279383 -0.144054 -0.144054
0.0289638 -0.155494 -0.155494
0.048492 -0.156248 -0.156248
0.0467653 -0.144809 -0.144809
0.0284521 -0.149722 -0.149722
0.0387214 -0.155826 -0.155826
0.0476302 -0.150477 -0.150477
0.0373453 -0.144387 -0.144387
0.0380346 -0.150055 -0.150055
0.0289638 -0.155494 -0.155494
0.0299813 -0.167347 -0.167347
0.0502066 -0.1681 -0.1681
0.048492 -0.156248 -0.156248
0.0294735 -0.161369 -0.161369
0.0400875 -0.16768 -0.16768
0.0493508 -0.162122 -0.162122
0.0387214 -0.155826 -0.155826
0.0394057 -0.161701 -0.161701
0.0299813 -0.167347 -0.167347
0.0309906 -0.179613 -0.179613
0.0519091 -0.180365 -0.180365
0.0502066 -0.1681 -0.1681
0.030487 -0.173429 -0.173429
0.0414434 -0.179945 -0.179945
0.0510594 -0.174181 -0.174181
0.0400875 -0.16768 -0.16768
0.0407667 -0.173761 -0.173761
0.0309906 -0.179613 -0.179613
0.0319919 -0.192288 -0.192288
0.0535993 -0.193039 -0.193039
0.0519091 -0.180365 -0.180365
0.0314923 -0.185899 -0.185899
0.0427891 -0.19262 -0.19262
0.0527557 -0.186651 -0.186651
0.0414434 -0.179945 -0.179945
0.0421175 -0.186232 -0.186232
0.0319919 -0.192288 -0.192288
0.032985 -0.20537 -0.20537
0.0552773 -0.206121 -0.206121
0.0535993 -0.193039 -0.193039
0.0324895 -0.198778 -0.198778
0.0441247 -0.205702 -0.205702
0.0544398 -0.199529 -0.199529
0.0427891 -0.19262 -0.19262
0.0434582 -0.19911 -0.19911
0.032985 -0.20537 -0.20537
0.0339698 -0.218856 -0.218856
0.0569429 -0.219606 -0.219606
0.0552773 -0.206121 -0.206121
0.0334784 -0.212062 -0.212062
0.0454499 -0.219188 -0.219188
0.0561117 -0.212813 -0.212813
0.0441247 -0.205702 -0.205702
0.0447886 -0.212395 -0.212395
0.0339698 -0.218856 -0.218856
0.0349464 -0.232745 -0.232745
0.0585962 -0.233495 -0.233495
0.0569429 -0.219606 -0.219606
0.0344591 -0.22575 -0.22575
0.0467648 -0.233077 -0.233077
0.0577711 -0.2265 -0.2265
0.0454499 -0.219188 -0.219188
0.0461087 -0.226082 -0.226082
0.0349464 -0.232745 -0.232745
0.0359146 -0.247033 -0.247033
0.060237 -0.247783 -0.247783
0.0585962 -0.233495 -0.233495
0.0354315 -0.239839 -0.239839
0.0480694 -0.247365 -0.247365
0.0594182 -0.240589 -0.240589
0.0467648 -0.233077 -0.233077
0.0474184 -0.240171 -0.240171
0.0359146 -0.247033 -0.247033
0.0368744 -0.261719 -0.261719
0.0618654 -0.262468 -0.262468
0.060237 -0.247783 -0.247783
0.0363955 -0.254326 -0.254326
0.0493634 -0.262051 -0.262051
0.0610528 -0.255076 -0.255076
0.0480694 -0.247365 -0.247365
0.0487177 -0.254659 -0.254659
0.0368744 -0.261719 -0.261719
0.0378258 -0.276799 -0.276799
0.0634812 -0.277548 -0.277548
0.0618654 -0.262468 -0.262468
0.0373512 -0.26921 -0.26921
0.0506471 -0.277132 -0.277132
0.0626749 -0.269959 -0.269959
0.0493634 -0.262051 -0.262051
0.0500066 -0.269542 -0.269542
0.0378258 -0.276799 -0.276799
0.0387687 -0.292272 -0.292272
0.0650845 -0.293021 -0.293021
0.0634812 -0.277548 -0.277548
0.0382983 -0.284487 -0.284487
0.0519202 -0.292605 -0.292605
0.0642845 -0.285236 -0.285236
0.0506471 -0.277132 -0.277132
0.0512849 -0.284819 -0.284819
0.0387687 -0.292272 -0.292272
0.0397031 -0.308135 -0.308135
0.0666752 -0.308884 -0.308884
0.0650845 -0.293021 -0.293021
0.039237 -0.300155 -0.300155
0.0531827 -0.308468 -0.308468
0.0658814 -0.300904 -0.300904
0.0519202 -0.292605 -0.292605
0.0525527 -0.300488 -0.300488
0.0397031 -0.308135 -0.308135
0.0406289 -0.324386 -0.324386
0.0682532 -0.325135 -0.325135
0.0666752 -0.308884 -0.308884
0.0401671 -0.316212 -0.316212
0.0544346 -0.324719 -0.324719
0.0674657 -0.316961 -0.316961
0.0531827 -0.308468 -0.308468
0.05381 -0.316545 -0.316545
0.0406289 -0.324386 -0.324386
0.0415461 -0.341022 -0.341022
0.0698184 -0.341771 -0.341771
0.0682532 -0.325135 -0.325135
0.0410886 -0.332656 -0.332656
0.0556758 -0.341355 -0.341355
0.0690374 -0.333405 -0.333405
0.0544346 -0.324719 -0.324719
0.0550565 -0.332989 -0.332989
0.0415461 -0.341022 -0.341022
0.0424546 -0.35804 -0.35804
0.071371 -0.358789 -0.358789
0.0698184 -0.341771 -0.341771
0.0420014 -0.349483 -0.349483
0.0569064 -0.358374 -0.358374
0.0705963 -0.350232 -0.350232
0.0556758 -0.341355 -0.341355
0.0562924 -0.349817 -0.349817
0.0424546 -0.35804 -0.35804
0.0433544 -0.375439 -0.375439
0.0729107 -0.376188 -0.376188
0.071371 -0.358789 -0.358789
0.0429056 -0.366692 -0.366692
0.0581262 -0.375773 -0.375773
0.0721425 -0.367441 -0.367441
0.0569064 -0.358374 -0.358374
0.0575176 -0.367026 -0.367026
0.0433544 -0.375439 -0.375439
0.0442455 -0.393216 -0.393216
0.0744377 -0.393965 -0.393965
0.0729107 -0.376188 -0.376188
0.0438011 -0.38428 -0.38428
0.0593352 -0.393551 -0.393551
0.0736758 -0.38503 -0.38503
0.0581262 -0.375773 -0.375773
0.058732 -0.384615 -0.384615
0.0442455 -0.393216 -0.393216
0.0451279 -0.411368 -0.411368
0.0759517 -0.412118 -0.412118
0.0744377 -0.393965 -0.393965
0.0446878 -0.402245 -0.402245
0.0605334 -0.411703 -0.411703
0.0751963 -0.402995 -0.402995
0.0593352 -0.393551 -0.393551
0.0599356 -0.40258 -0.40258
0.0451279 -0.411368 -0.411368
0.0460014 -0.429893 -0.429893
0.0774529 -0.430644 -0.430644
0.0759517 -0.412118 -0.412118
0.0455657 -0.420584 -0.420584
0.0617207 -0.430229 -0.430229
0.0767039 -0.421334 -0.421334
0.0605334 -0.411703 -0.411703
0.0611284 -0.42092 -0.42092
0.0460014 -0.429893 -0.429893
0.046866 -0.448789 -0.448789
0.0789411 -0.44954 -0.44954
0.0774529 -0.430644 -0.430644
0.0464348 -0.439295 -0.439295
0.0628972 -0.449125 -0.449125
0.0781986 -0.440046 -0.440046
0.0617207 -0.430229 -0.430229
0.0623103 -0.439631 -0.439631
0.046866 -0.448789 -0.448789
0.0477218 -0.468053 -0.468053
0.0804163 -0.468805 -0.468805
0.0789411 -0.44954 -0.44954
0.047295 -0.458376 -0.458376
0.0640627 -0.46839 -0.46839
0.0796803 -0.459127 -0.459127
0.0628972 -0.449125 -0.449125
0.0634813 -0.458712 -0.458712
0.0477218 -0.468053 -0.468053
0.0485686 -0.487683 -0.487683
0.0818786 -0.488435 -0.488435
0.0804163 -0.468805 -0.468805
0.0481463 -0.477823 -0.477823
0.0652172 -0.48802 -0.48802
0.0811491 -0.478574 -0.478574
0.0640627 -0.46839 -0.46839
0.0646413 -0.47816 -0.47816
0.0485686 -0.487683 -0.487683
0.0494065 -0.507677 -0.507677
0.0833278 -0.508429 -0.508429
0.0818786 -0.488435 -0.488435
0.0489887 -0.497635 -0.497635
0.0663607 -0.508014 -0.508014
0.0826048 -0.498387 -0.498387
0.0652172 -0.48802 -0.48802
0.0657903 -0.497972 -0.497972
0.0494065 -0.507677 -0.507677
0.0502354 -0.528031 -0.528031
0.0847639 -0.528784 -0.528784
0.0833278 -0.508429 -0.508429
0.0498221 -0.517809 -0.517809
0.0674932 -0.528369 -0.528369
0.0840474 -0.518562 -0.518562
0.0663607 -0.508014 -0.508014
0.0669284 -0.518147 -0.518147
0.0502354 -0.528031 -0.528031
0.0510553 -0.548743 -0.548743
0.0861868 -0.549497 -0.549497
0.0847639 -0.528784 -0.528784
0.0506465 -0.538342 -0.538342
0.0686147 -0.549082 -0.549082
0.085477 -0.539096 -0.539096
0.0674932 -0.528369 -0.528369
0.0680553 -0.538681 -0.538681
0.0510553 -0.548743 -0.548743
0.0518661 -0.569812 -0.569812
0.0875967 -0.570567 -0.570567
0.0861868 -0.549497 -0.549497
0.0514618 -0.559233 -0.559233
0.069725 -0.570152 -0.570152
0.0868934 -0.559988 -0.559988
0.0686147 -0.549082 -0.549082
0.0691712 -0.559573 -0.559573
0.0518661 -0.569812 -0.569812
0.0526678 -0.591235 -0.591235
0.0889934 -0.59199 -0.59199
0.0875967 -0.570567 -0.570567
0.0522681 -0.580479 -0.580479
0.0708242 -0.591575 -0.591575
0.0882967 -0.581235 -0.581235
0.069725 -0.570152 -0.570152
0.070276 -0.580819 -0.580819
0.0526678 -0.591235 -0.591235
0.0534605 -0.613008 -0.613008
0.0903769 -0.613765 -0.613765
0.0889934 -0.59199 -0.59199
0.0530653 -0.602078 -0.602078
0.0719123 -0.613349 -0.613349
0.0896868 -0.602834 -0.602834
0.0708242 -0.591575 -0.591575
0.0713697 -0.602418 -0.602418
0.0534605 -0.613008 -0.613008
0.0542439 -0.635131 -0.635131
0.0917471 -0.635888 -0.635888
0.0903769 -0.613765 -0.613765
0.0538533 -0.624026 -0.624026
0.0729892 -0.635472 -0.635472
0.0910637 -0.624783 -0.624783
0.0719123 -0.613349 -0.613349
0.0724521 -0.624367 -0.624367
0.0542439 -0.635131 -0.635131
0.0550183 -0.657599 -0.657599
0.0931041 -0.658358 -0.658358
0.0917471 -0.635888 -0.635888
0.0546323 -0.646322 -0.646322
0.0740548 -0.657942 -0.657942
0.0924273 -0.64708 -0.64708
0.0729892 -0.635472 -0.635472
0.0735234 -0.646664 -0.646664
0.0550183 -0.657599 -0.657599
0.0557834 -0.680412 -0.680412
0.0944479 -0.681172 -0.681172
0.0931041 -0.658358 -0.658358
0.055402 -0.668963 -0.668963
0.0751093 -0.680755 -0.680755
0.0937777 -0.669722 -0.669722
0.0740548 -0.657942 -0.657942
0.0745835 -0.669306 -0.669306
0.0557834 -0.680412 -0.680412
0.0565393 -0.703566 -0.703566
0.0957783 -0.704327 -0.704327
0.0944479 -0.681172 -0.681172
0.0561625 -0.691947 -0.691947
0.0761524 -0.70391 -0.70391
0.0951147 -0.692707 -0.692707
0.0751093 -0.680755 -0.680755
0.0756323 -0.69229 -0.69229
0.0565393 -0.703566 -0.703566
0.057286 -0.72706 -0.72706
0.0970954 -0.727821 -0.727821
0.0957783 -0.704327 -0.704327
0.0569138 -0.715271 -0.715271
0.0771843 -0.727405 -0.727405
0.0964385 -0.716032 -0.716032
0.0761524 -0.70391 -0.70391
0.0766698 -0.715615 -0.715615
0.057286 -0.72706 -0.72706
0.0580234 -0.75089 -0.75089
0.0983991 -0.751653 -0.751653
0.0970954 -0.727821 -0.727821
0.0576559 -0.738933 -0.738933
0.0782049 -0.751235 -0.751235
0.0977489 -0.739695 -0.739695
0.0771843 -0.727405 -0.727405
0.0776961 -0.739278 -0.739278
0.0580234 -0.75089 -0.75089
0.0587516 -0.775054 -0.775054
0.0996895 -0.775818 -0.775818
0.0983991 -0.751653 -0.751653
0.0583887 -0.76293 -0.76293
0.0792142 -0.775401 -0.775401
0.099046 -0.763694 -0.763694
0.0782049 -0.751235 -0.751235
0.078711 -0.763276 -0.763276
0.0587516 -0.775054 -0.775054
0.0594704 -0.79955 -0.79955
0.100967 -0.800315 -0.800315
0.0996895 -0.775818 -0.775818
0.0591122 -0.787261 -0.787261
0.0802121 -0.799898 -0.799898
0.10033 -0.788025 -0.788025
0.0792142 -0.775401 -0.775401
0.0797146 -0.787608 -0.787608
0.0594704 -0.79955 -0.79955
0.06018 -0.824376 -0.824376
0.10223 -0.825142 -0.825142
0.100967 -0.800315 -0.800315
0.0598264 -0.811922 -0.811922
0.0811987 -0.824724 -0.824724
0.1016 -0.812688 -0.812688
0.0802121 -0.799898 -0.799898
0.0807068 -0.81227 -0.81227
0.06018 -0.824376 -0.824376
0.0608801 -0.849528 -0.849528
0.10348 -0.850296 -0.850296
0.10223 -0.825142 -0.825142
0.0605312 -0.836911 -0.836911
0.0821738 -0.849877 -0.849877
0.102857 -0.837678 -0.837678
0.0811987 -0.824724 -0.824724
0.0816877 -0.83726 -0.83726
0.0608801 -0.849528 -0.849528
0.061571 -0.875005 -0.875005
0.104717 -0.875774 -0.875774
0.10348 -0.850296 -0.850296
0.0612267 -0.862226 -0.862226
0.0831376 -0.875355 -0.875355
0.1041 -0.862995 -0.862995
0.0821738 -0.849877 -0.849877
0.0826571 -0.862576 -0.862576
0.061571 -0.875005 -0.875005
0.0622524 -0.900805 -0.900805
0.10594 -0.901575 -0.901575
0.104717 -0.875774 -0.875774
0.0619128 -0.887865 -0.887865
0.0840899 -0.901156 -0.901156
0.10533 -0.888635 -0.888635
0.0831376 -0.875355 -0.875355
0.0836152 -0.888215 -0.888215
0.0622524 -0.900805 -0.900805
0.0629244 -0.926923 -0.926923
0.10715 -0.927695 -0.927695
0.10594 -0.901575 -0.901575
0.0625896 -0.913824 -0.913824
0.0850308 -0.927275 -0.927275
0.106547 -0.914595 -0.914595
0.0840899 -0.901156 -0.901156
0.0845618 -0.914176 -0.914176
0.0629244 -0.926923 -0.926923
0.0635871 -0.95336 -0.95336
0.108346 -0.954133 -0.954133
0.10715 -0.927695 -0.927695
0.0632569 -0.940102 -0.940102
0.0859603 -0.953712 -0.953712
0.10775 -0.940874 -0.940874
0.0850308 -0.927275 -0.927275
0.085497 -0.940454 -0.940454
0.0635871 -0.95336 -0.95336
0.0642403 -0.980111 -0.980111
0.109529 -0.980885 -0.980885
0.108346 -0.954133 -0.954133
0.0639149 -0.966696 -0.966696
0.0868783 -0.980464 -0.980464
0.108939 -0.96747 -0.96747
0.0859603 -0.953712 -0.953712
0.0864207 -0.967049 -0.967049
0.0642403 -0.980111 -0.980111
0.0648841 -1.00717 -1.00717
0.110698 -1.00795 -1.00795
0.109529 -0.980885 -0.980885
0.0645634 -0.993603 -0.993603
0.0877848 -1.00753 -1.00753
0.110115 -0.994379 -0.994379
0.0868783 -0.980464 -0.980464
0.087333 -0.993958 -0.993958
0.0648841 -1.00717 -1.00717
0.0655184 -1.03455 -1.03455
0.111854 -1.03532 -1.03532
0.110698 -1.00795 -1.00795
0.0652024 -1.02082 -1.02082
0.0886798 -1.0349 -1.0349
0.111278 -1.0216 -1.0216
0.0877848 -1.00753 -1.00753
0.0882337 -1.02118 -1.02118
0.0655184 -1.03455 -1.03455
0.0661433 -1.06223 -1.06223
0.112996 -1.06301 -1.06301
0.111854 -1.03532 -1.03532
0.0658321 -1.04835 -1.04835
0.0895633 -1.06259 -1.06259
0.112427 -1.04913 -1.04913
0.0886798 -1.0349 -1.0349
0.089123 -1.04871 -1.04871
0.0661433 -1.06223 -1.06223
0.0667587 -1.09021 -1.09021
0.114125 -1.091 -1.091
0.112996 -1.06301 -1.06301
0.0664522 -1.07618 -1.07618
0.0904353 -1.09057 -1.09057
0.113562 -1.07696 -1.07696
0.0895633 -1.06259 -1.06259
0.0900008 -1.07654 -1.07654
0.0667587 -1.09021 -1.09021
0.0673647 -1.1185 -1.1185
0.11524 -1.11929 -1.11929
0.114125 -1.091 -1.091
0.0670629 -1.10432 -1.10432
0.0912958 -1.11886 -1.11886
0.114684 -1.1051 -1.1051
0.0904353 -1.09057 -1.09057
0.090867 -1.10468 -1.10468
0.0673647 -1.1185 -1.1185
0.0679611 -1.14709 -1.14709
0.116341 -1.14788 -1.14788
0.11524 -1.11929 -1.11929
0.0676641 -1.13276 -1.13276
0.0921447 -1.14745 -1.14745
0.115792 -1.13354 -1.13354
0.0912958 -1.11886 -1.11886
0.0917217 -1.13312 -1.13312
0.0679611 -1.14709 -1.14709
0.0685481 -1.17598 -1.17598
0.117429 -1.17676 -1.17676
0.116341 -1.14788 -1.14788
0.0682558 -1.1615 -1.1615
0.0929821 -1.17634 -1.17634
0.116887 -1.16228 -1.16228
0.0921447 -1.14745 -1.14745
0.0925649 -1.16186 -1.16186
0.0685481 -1.17598 -1.17598
0.0691255 -1.20516 -1.20516
0.118503 -1.20595 -1.20595
0.117429 -1.17676 -1.17676
0.068838 -1.19053 -1.19053
0.093808 -1.20552 -1.20552
0.117968 -1.19132 -1.19132
0.0929821 -1.17634 -1.17634
0.0933965 -1.1909 -1.1909
0.0691255 -1.20516 -1.20516
0.0696934 -1.23464 -1.23464
0.119564 -1.23543 -1.23543
0.118503 -1.20595 -1.20595
0.0694107 -1.21986 -1.21986
0.0946223 -1.235 -1.235
0.119035 -1.22065 -1.22065
0.093808 -1.20552 -1.20552
0.0942166 -1.22023 -1.22023
0.0696934 -1.23464 -1.23464
0.0702519 -1.2644 -1.2644
0.120611 -1.26519 -1.26519
0.119564 -1.23543 -1.23543
0.0699738 -1.24949 -1.24949
0.095425 -1.26477 -1.26477
0.120089 -1.25027 -1.25027
0.0946223 -1.235 -1.235
0.0950251 -1.24985 -1.24985
0.0702519 -1.2644 -1.2644
0.0708008 -1.29446 -1.29446
0.121644 -1.29525 -1.29525
0.120611 -1.26519 -1.26519
0.0705275 -1.2794 -1.2794
0.0962162 -1.29482 -1.29482
0.121129 -1.28019 -1.28019
0.095425 -1.26477 -1.26477
0.0958221 -1.27976 -1.27976
0.0708008 -1.29446 -1.29446
0.0713401 -1.3248 -1.3248
0.122664 -1.32559 -1.32559
0.121644 -1.29525 -1.29525
0.0710716 -1.30959 -1.30959
0.0969958 -1.32516 -1.32516
0.122156 -1.31039 -1.31039
0.0962162 -1.29482 -1.29482
0.0966075 -1.30996 -1.30996
0.0713401 -1.3248 -1.3248
0.07187 -1.35542 -1.35542
0.12367 -1.35622 -1.35622
0.122664 -1.32559 -1.32559
0.0716063 -1.34008 -1.34008
0.0977639 -1.35579 -1.35579
0.123169 -1.34087 -1.34087
0.0969958 -1.32516 -1.32516
0.0973813 -1.34044 -1.34044
0.07187 -1.35542 -1.35542
0.0723903 -1.38633 -1.38633
0.124663 -1.38712 -1.38712
0.12367 -1.35622 -1.35622
0.0721314 -1.37084 -1.37084
0.0985203 -1.38669 -1.38669
0.124168 -1.37163 -1.37163
0.0977639 -1.35579 -1.35579
0.0981435 -1.37121 -1.37121
0.0723903 -1.38633 -1.38633
0.0729011 -1.41751 -1.41751
0.125642 -1.41831 -1.41831
0.124663 -1.38712 -1.38712
0.0726469 -1.40188 -1.40188
0.0992652 -1.41788 -1.41788
0.125154 -1.40268 -1.40268
0.0985203 -1.38669 -1.38669
0.0988942 -1.40225 -1.40225
0.0729011 -1.41751 -1.41751
0.0734024 -1.44897 -1.44897
0.126607 -1.44977 -1.44977
0.125642 -1.41831 -1.41831
0.0731529 -1.4332 -1.4332
0.0999985 -1.44934 -1.44934
0.126126 -1.434 -1.434
0.0992652 -1.41788 -1.41788
0.0996333 -1.43357 -1.43357
0.0734024 -1.44897 -1.44897
0.0738941 -1.4807 -1.4807
0.127559 -1.4815 -1.4815
0.126607 -1.44977 -1.44977
0.0736494 -1.4648 -1.4648
0.10072 -1.48107 -1.48107
0.127085 -1.4656 -1.4656
0.0999985 -1.44934 -1.44934
0.100361 -1.46517 -1.46517
0.0738941 -1.4807 -1.4807
0.0743763 -1.5127 -1.5127
0.128497 -1.51351 -1.51351
0.127559 -1.4815 -1.4815
0.0741364 -1.49667 -1.49667
0.10143 -1.51308 -1.51308
0.12803 -1.49747 -1.49747
0.10072 -1.48107 -1.48107
0.101077 -1.49704 -1.49704
0.0743763 -1.5127 -1.5127
0.074849 -1.54498 -1.54498
0.129422 -1.54578 -1.54578
0.128497 -1.51351 -1.51351
0.0746138 -1.52881 -1.52881
0.102129 -1.54535 -1.54535
0.128961 -1.52961 -1.52961
0.10143 -1.51308 -1.51308
0.101781 -1.52918 -1.52918
0.074849 -1.54498 -1.54498
0.0753121 -1.57752 -1.57752
0.130333 -1.57832 -1.57832
0.129422 -1.54578 -1.54578
0.0750818 -1.56121 -1.56121
0.102816 -1.57789 -1.57789
0.129879 -1.56202 -1.56202
0.102129 -1.54535 -1.54535
0.102474 -1.56159 -1.56159
0.0753121 -1.57752 -1.57752
0.0757658 -1.61032 -1.61032
0.13123 -1.61113 -1.61113
0.130333 -1.57832 -1.57832
0.0755401 -1.59389 -1.59389
0.103492 -1.61069 -1.61069
0.130783 -1.59469 -1.59469
0.102816 -1.57789 -1.57789
0.103155 -1.59426 -1.59426
0.0757658 -1.61032 -1.61032
0.0762099 -1.64338 -1.64338
0.132114 -1.64419 -1.64419
0.13123 -1.61113 -1.61113
0.075989 -1.62682 -1.62682
0.104155 -1.64376 -1.64376
0.131674 -1.62763 -1.62763
0.103492 -1.61069 -1.61069
0.103825 -1.6272 -1.6272
0.0762099 -1.64338 -1.64338
0.0766445 -1.67671 -1.67671
0.132984 -1.67752 -1.67752
0.132114 -1.64419 -1.64419
0.0764284 -1.66001 -1.66001
0.104808 -1.67708 -1.67708
0.13255 -1.66082 -1.66082
0.104155 -1.64376 -1.64376
0.104483 -1.66039 -1.66039
0.0766445 -1.67671 -1.67671
0.0770696 -1.71029 -1.71029
0.13384 -1.7111 -1.7111
0.132984 -1.67752 -1.67752
0.0768582 -1.69347 -1.69347
0.105449 -1.71067 -1.71067
0.133414 -1.69428 -1.69428
0.104808 -1.67708 -1.67708
0.10513 -1.69384 -1.69384
0.0770696 -1.71029 -1.71029
0.0774851 -1.74412 -1.74412
0.134683 -1.74494 -1.74494
0.13384 -1.7111 -1.7111
0.0772785 -1.72717 -1.72717
0.106078 -1.7445 -1.7445
0.134263 -1.72799 -1.72799
0.105449 -1.71067 -1.71067
0.105765 -1.72755 -1.72755
0.0774851 -1.74412 -1.74412
0.0778912 -1.77821 -1.77821
0.135512 -1.77902 -1.77902
0.134683 -1.74494 -1.74494
0.0776894 -1.76113 -1.76113
0.106696 -1.77859 -1.77859
0.135099 -1.76195 -1.76195
0.106078 -1.7445 -1.7445
0.106388 -1.76151 -1.76151
0.0778912 -1.77821 -1.77821
0.0782878 -1.81254 -1.81254
0.136328 -1.81336 -1.81336
0.135512 -1.77902 -1.77902
0.0780907 -1.79535 -1.79535
0.107302 -1.81293 -1.81293
0.135922 -1.79616 -1.79616
0.106696 -1.77859 -1.77859
0.107 -1.79573 -1.79573
0.0782878 -1.81254 -1.81254
0.078675 -1.84713 -1.84713
0.13713 -1.84794 -1.84794
0.136328 -1.81336 -1.81336
0.0784826 -1.8298 -1.8298
0.107896 -1.84751 -1.84751
0.136731 -1.83062 -1.83062
0.107302 -1.81293 -1.81293
0.1076 -1.83019 -1.83019
0.078675 -1.84713 -1.84713
0.0790526 -1.88195 -1.88195
0.137919 -1.88277 -1.88277
0.13713 -1.84794 -1.84794
0.078865 -1.86451 -1.86451
0.108479 -1.88234 -1.88234
0.137526 -1.86533 -1.86533
0.107896 -1.84751 -1.84751
0.108189 -1.86489 -1.86489
0.0790526 -1.88195 -1.88195
0.0794208 -1.91702 -1.91702
0.138694 -1.91784 -1.91784
0.137919 -1.88277 -1.88277
0.0792379 -1.89946 -1.89946
0.109051 -1.91741 -1.91741
0.138308 -1.90028 -1.90028
0.108479 -1.88234 -1.88234
0.108767 -1.89984 -1.89984
0.0794208 -1.91702 -1.91702
0.0797796 -1.95233 -1.95233
0.139456 -1.95315 -1.95315
0.138694 -1.91784 -1.91784
0.0796014 -1.93465 -1.93465
0.109611 -1.95272 -1.95272
0.139077 -1.93547 -1.93547
0.109051 -1.91741 -1.91741
0.109333 -1.93503 -1.93503
0.0797796 -1.95233 -1.95233
0.0801289 -1.98788 -1.98788
0.140204 -1.9887 -1.9887
0.139456 -1.95315 -1.95315
0.0799554 -1.97008 -1.97008
0.11016 -1.98827 -1.98827
0.139831 -1.9709 -1.9709
0.109611 -1.95272 -1.95272
0.109887 -1.97046 -1.97046
0.0801289 -1.98788 -1.98788
0.0804688 -2.02366 -2.02366
0.140938 -2.02448 -2.02448
0.140204 -1.9887 -1.9887
0.0803 -2.00574 -2.00574
0.110697 -2.02405 -2.02405
0.140573 -2.00656 -2.00656
0.11016 -1.98827 -1.98827
0.11043 -2.00613 -2.00613
0.0804688 -2.02366 -2.02366
0.0807992 -2.05967 -2.05967
0.141659 -2.0605 -2.0605
0.140938 -2.02448 -2.02448
0.0806352 -2.04164 -2.04164
0.111223 -2.06006 -2.06006
0.1413 -2.04246 -2.04246
0.110697 -2.02405 -2.02405
0.110961 -2.04203 -2.04203
0.0807992 -2.05967 -2.05967
0.0811203 -2.09592 -2.09592
0.142367 -2.09674 -2.09674
0.141659 -2.0605 -2.0605
0.080961 -2.07777 -2.07777
0.111737 -2.09631 -2.09631
0.142014 -2.07859 -2.07859
0.111223 -2.06006 -2.06006
0.111481 -2.07816 -2.07816
0.0811203 -2.09592 -2.09592
0.081432 -2.13239 -2.13239
0.143061 -2.13322 -2.13322
0.142367 -2.09674 -2.09674
0.0812773 -2.11412 -2.11412
0.11224 -2.13278 -2.13278
0.142715 -2.11495 -2.11495
0.111737 -2.09631 -2.09631
0.11199 -2.11451 -2.11451
0.081432 -2.13239 -2.13239
0.0817343 -2.16908 -2.16908
0.143741 -2.16991 -2.16991
0.143061 -2.13322 -2.13322
0.0815843 -2.15071 -2.15071
0.112731 -2.16948 -2.16948
0.143403 -2.15154 -2.15154
0.11224 -2.13278 -2.13278
0.112487 -2.1511 -2.1511
0.0817343 -2.16908 -2.16908
0.0820273 -2.206 -2.206
0.144408 -2.20684 -2.20684
0.143741 -2.16991 -2.16991
0.081882 -2.18752 -2.18752
0.113211 -2.2064 -2.2064
0.144076 -2.18835 -2.18835
0.112731 -2.16948 -2.16948
0.112973 -2.18791 -2.18791
0.0820273 -2.206 -2.206
0.0823109 -2.24314 -2.24314
0.145062 -2.24398 -2.24398
0.144408 -2.20684 -2.20684
0.0821703 -2.22455 -2.22455
0.11368 -2.24354 -2.24354
0.144737 -2.22538 -2.22538
0.113211 -2.2064 -2.2064
0.113447 -2.22494 -2.22494
0.0823109 -2.24314 -2.24314
0.0825852 -2.2805 -2.2805
0.145702 -2.28133 -2.28133
0.145062 -2.24398 -2.24398
0.0824492 -2.26179 -2.26179
0.114137 -2.28089 -2.28089
0.145384 -2.26263 -2.26263
0.11368 -2.24354 -2.24354
0.11391 -2.26219 -2.26219
0.0825852 -2.2805 -2.2805
0.0828502 -2.31807 -2.31807
0.146329 -2.31891 -2.31891
0.145702 -2.28133 -2.28133
0.0827188 -2.29926 -2.29926
0.114583 -2.31847 -2.31847
0.146017 -2.30009 -2.30009
0.114137 -2.28089 -2.28089
0.114362 -2.29965 -2.29965
0.0828502 -2.31807 -2.31807
0.0831059 -2.35586 -2.35586
0.146943 -2.3567 -2.3567
0.146329 -2.31891 -2.31891
0.0829792 -2.33694 -2.33694
0.115018 -2.35625 -2.35625
0.146638 -2.33778 -2.33778
0.114583 -2.31847 -2.31847
0.114802 -2.33733 -2.33733
0.0831059 -2.35586 -2.35586
0.0833523 -2.39386 -2.39386
0.147543 -2.39469 -2.39469
0.146943 -2.3567 -2.3567
0.0832302 -2.37483 -2.37483
0.115441 -2.39425 -2.39425
0.147244 -2.37567 -2.37567
0.115018 -2.35625 -2.35625
0.115231 -2.37523 -2.37523
0.0833523 -2.39386 -2.39386
0.0835895 -2.43206 -2.43206
0.14813 -2.4329 -2.4329
0.147543 -2.39469 -2.39469
0.083472 -2.41293 -2.41293
0.115853 -2.43246 -2.43246
0.147838 -2.41377 -2.41377
0.115441 -2.39425 -2.39425
0.115649 -2.41333 -2.41333
0.0835895 -2.43206 -2.43206
0.0838174 -2.47047 -2.47047
0.148703 -2.47131 -2.47131
0.14813 -2.4329 -2.4329
0.0837046 -2.45124 -2.45124
0.116254 -2.47087 -2.47087
0.148418 -2.45208 -2.45208
0.115853 -2.43246 -2.43246
0.116055 -2.45164 -2.45164
0.0838174 -2.47047 -2.47047
0.0840361 -2.50908 -2.50908
0.149263 -2.50992 -2.50992
0.148703 -2.47131 -2.47131
0.0839279 -2.48975 -2.48975
0.116643 -2.50948 -2.50948
0.148985 -2.49059 -2.49059
0.116254 -2.47087 -2.47087
0.11645 -2.49015 -2.49015
0.0840361 -2.50908 -2.50908
0.0842457 -2.5479 -2.5479
0.14981 -2.54874 -2.54874
0.149263 -2.50992 -2.50992
0.0841421 -2.52847 -2.52847
0.117022 -2.5483 -2.5483
0.149538 -2.52931 -2.52931
0.116643 -2.50948 -2.50948
0.116834 -2.52887 -2.52887
0.0842457 -2.5479 -2.5479
0.084446 -2.58691 -2.58691
0.150344 -2.58775 -2.58775
0.14981 -2.54874 -2.54874
0.084347 -2.56738 -2.56738
0.117389 -2.58731 -2.58731
0.150079 -2.56822 -2.56822
0.117022 -2.5483 -2.5483
0.117206 -2.56778 -2.56778
0.084446 -2.58691 -2.58691
0.0846373 -2.62612 -2.62612
0.150864 -2.62697 -2.62697
0.150344 -2.58775 -2.58775
0.0845428 -2.60649 -2.60649
0.117744 -2.62652 -2.62652
0.150606 -2.60734 -2.60734
0.117389 -2.58731 -2.58731
0.117568 -2.60689 -2.60689
0.0846373 -2.62612 -2.62612
0.0848193 -2.66552 -2.66552
0.151371 -2.66637 -2.66637
0.150864 -2.62697 -2.62697
0.0847294 -2.6458 -2.6458
0.118089 -2.66593 -2.66593
0.151119 -2.64664 -2.64664
0.117744 -2.62652 -2.62652
0.117918 -2.6462 -2.6462
0.0848193 -2.66552 -2.66552
0.0849923 -2.70512 -2.70512
0.151865 -2.70596 -2.70596
0.151371 -2.66637 -2.66637
0.084907 -2.6853 -2.6853
0.118422 -2.70552 -2.70552
0.15162 -2.68614 -2.68614
0.118089 -2.66593 -2.66593
0.118257 -2.6857 -2.6857
0.0849923 -2.70512 -2.70512
0.0851562 -2.7449 -2.7449
0.152346 -2.74575 -2.74575
0.151865 -2.70596 -2.70596
0.0850754 -2.72499 -2.72499
0.118745 -2.7453 -2.7453
0.152107 -2.72583 -2.72583
0.118422 -2.70552 -2.70552
0.118585 -2.72539 -2.72539
0.0851562 -2.7449 -2.7449
0.0853111 -2.78487 -2.78487
0.152814 -2.78572 -2.78572
0.152346 -2.74575 -2.74575
0.0852348 -2.76486 -2.76486
0.119056 -2.78527 -2.78527
0.152582 -2.76571 -2.76571
0.118745 -2.7453 -2.7453
0.118902 -2.76527 -2.76527
0.0853111 -2.78487 -2.78487
0.0854569 -2.82502 -2.82502
0.153268 -2.82587 -2.82587
0.152814 -2.78572 -2.78572
0.0853851 -2.80492 -2.80492
0.119356 -2.82543 -2.82543
0.153043 -2.80577 -2.80577
0.119056 -2.78527 -2.78527
0.119208 -2.80533 -2.80533
0.0854569 -2.82502 -2.82502
0.0855937 -2.86536 -2.86536
0.15371 -2.86621 -2.86621
0.153268 -2.82587 -2.82587
0.0855264 -2.84517 -2.84517
0.119645 -2.86576 -2.86576
0.153491 -2.84602 -2.84602
0.119356 -2.82543 -2.82543
0.119502 -2.84557 -2.84557
0.0855937 -2.86536 -2.86536
0.0857215 -2.90587 -2.90587
0.154138 -2.90672 -2.90672
0.15371 -2.86621 -2.86621
0.0856588 -2.88559 -2.88559
0.119924 -2.90628 -2.90628
0.153926 -2.88644 -2.88644
0.119645 -2.86576 -2.86576
0.119786 -2.886 -2.886
0.0857215 -2.90587 -2.90587
0.0858404 -2.94656 -2.94656
0.154554 -2.94741 -2.94741
0.154138 -2.90672 -2.90672
0.0857821 -2.9262 -2.9262
0.120191 -2.94697 -2.94697
0.154348 -2.92705 -2.92705
0.119924 -2.90628 -2.90628
0.120058 -2.9266 -2.9266
0.0858404 -2.94656 -2.94656
0.0859504 -2.98743 -2.98743
0.154956 -2.98828 -2.98828
0.154554 -2.94741 -2.94741
0.0858965 -2.96697 -2.96697
0.120447 -2.98784 -2.98784
0.154756 -2.96782 -2.96782
0.120191 -2.94697 -2.94697
0.12032 -2.96738 -2.96738
0.0859504 -2.98743 -2.98743
0.0860514 -3.02847 -3.02847
0.155345 -3.02932 -3.02932
0.154956 -2.98828 -2.98828
0.086002 -3.00793 -3.00793
0.120692 -3.02887 -3.02887
0.155152 -3.00878 -3.00878
0.120447 -2.98784 -2.98784
0.120571 -3.00833 -3.00833
0.0860514 -3.02847 -3.02847
0.0861436 -3.06967 -3.06967
0.155722 -3.07052 -3.07052
0.155345 -3.02932 -3.02932
0.0860986 -3.04905 -3.04905
0.120926 -3.07008 -3.07008
0.155535 -3.0499 -3.0499
0.120692 -3.02887 -3.02887
0.12081 -3.04946 -3.04946
0.0861436 -3.06967 -3.06967
0.0862269 -3.11105 -3.11105
0.156085 -3.1119 -3.1119
0.155722 -3.07052 -3.07052
0.0861864 -3.09034 -3.09034
0.12115 -3.11145 -3.11145
0.155905 -3.09119 -3.09119
0.120926 -3.07008 -3.07008
0.121039 -3.09075 -3.09075
0.0862269 -3.11105 -3.11105
0.0863014 -3.15258 -3.15258
0.156436 -3.15344 -3.15344
0.156085 -3.1119 -3.1119
0.0862653 -3.13179 -3.13179
0.121362 -3.15299 -3.15299
0.156262 -3.13265 -3.13265
0.12115 -3.11145 -3.11145
0.121257 -3.1322 -3.1322
0.0863014 -3.15258 -3.15258
0.0863672 -3.19428 -3.19428
0.156773 -3.19514 -3.19514
0.156436 -3.15344 -3.15344
0.0863354 -3.17341 -3.17341
0.121564 -3.19469 -3.19469
0.156606 -3.17427 -3.17427
0.121362 -3.15299 -3.15299
0.121464 -3.17382 -3.17382
0.0863672 -3.19428 -3.19428
0.0864241 -3.23614 -3.23614
0.157098 -3.237 -3.237
0.156773 -3.19514 -3.19514
0.0863967 -3.21519 -3.21519
0.121755 -3.23655 -3.23655
0.156937 -3.21605 -3.21605
0.121564 -3.19469 -3.19469
0.121661 -3.2156 -3.2156
0.0864241 -3.23614 -3.23614
0.0864724 -3.27816 -3.27816
0.15741 -3.27901 -3.27901
0.157098 -3.237 -3.237
0.0864493 -3.25713 -3.25713
0.121935 -3.27857 -3.27857
0.157256 -3.25798 -3.25798
0.121755 -3.23655 -3.23655
0.121846 -3.25754 -3.25754
0.0864724 -3.27816 -3.27816
0.0865119 -3.32033 -3.32033
0.157709 -3.32119 -3.32119
0.15741 -3.27901 -3.27901
0.0864932 -3.29923 -3.29923
0.122104 -3.32074 -3.32074
0.157561 -3.30008 -3.30008
0.121935 -3.27857 -3.27857
0.122021 -3.29964 -3.29964
0.0865119 -3.32033 -3.32033
0.0865428 -3.36266 -3.36266
0.157996 -3.36351 -3.36351
0.157709 -3.32119 -3.32119
0.0865284 -3.34148 -3.34148
0.122263 -3.36307 -3.36307
0.157854 -3.34233 -3.34233
0.122104 -3.32074 -3.32074
0.122185 -3.34189 -3.34189
0.0865428 -3.36266 -3.36266
0.086565 -3.40513 -3.40513
0.15827 -3.40598 -3.40598
0.157996 -3.36351 -3.36351
0.086555 -3.38388 -3.38388
0.122411 -3.40554 -3.40554
0.158134 -3.38473 -3.38473
0.122263 -3.36307 -3.36307
0.122338 -3.38429 -3.38429
0.086565 -3.40513 -3.40513
0.0865786 -3.44775 -3.44775
0.158531 -3.44861 -3.44861
0.15827 -3.40598 -3.40598
0.0865729 -3.42642 -3.42642
0.122548 -3.44816 -3.44816
0.158402 -3.42728 -3.42728
0.122411 -3.40554 -3.40554
0.122481 -3.42683 -3.42683
0.0865786 -3.44775 -3.44775
0.0865837 -3.49052 -3.49052
0.158779 -3.49137 -3.49137
0.158531 -3.44861 -3.44861
0.0865822 -3.46912 -3.46912
0.122675 -3.49093 -3.49093
0.158657 -3.46997 -3.46997
0.122548 -3.44816 -3.44816
0.122613 -3.46953 -3.46953
0.0865837 -3.49052 -3.49052
0.0865802 -3.53343 -3.53343
0.159015 -3.53428 -3.53428
0.158779 -3.49137 -3.49137
0.086583 -3.51196 -3.51196
0.122791 -3.53384 -3.53384
0.158899 -3.51281 -3.51281
0.122675 -3.49093 -3.49093
0.122734 -3.51237 -3.51237
0.0865802 -3.53343 -3.53343
0.0865682 -3.57648 -3.57648
0.159238 -3.57733 -3.57733
0.159015 -3.53428 -3.53428
0.0865753 -3.55494 -3.55494
0.122897 -3.57689 -3.57689
0.159128 -3.55579 -3.55579
0.122791 -3.53384 -3.53384
0.122845 -3.55535 -3.55535
0.0865682 -3.57648 -3.57648
0.0865478 -3.61967 -3.61967
0.159449 -3.62052 -3.62052
0.159238 -3.57733 -3.57733
0.086559 -3.59806 -3.59806
0.122992 -3.62008 -3.62008
0.159345 -3.59891 -3.59891
0.122897 -3.57689 -3.57689
0.122946 -3.59847 -3.59847
0.0865478 -3.61967 -3.61967
0.0865189 -3.66299 -3.66299
0.159647 -3.66385 -3.66385
0.159449 -3.62052 -3.62052
0.0865344 -3.64131 -3.64131
0.123076 -3.66341 -3.66341
0.159549 -3.64217 -3.64217
0.122992 -3.62008 -3.62008
0.123035 -3.64173 -3.64173
0.0865189 -3.66299 -3.66299
0.0864816 -3.70645 -3.70645
0.159832 -3.7073 -3.7073
0.159647 -3.66385 -3.66385
0.0865013 -3.68471 -3.68471
0.12315 -3.70686 -3.70686
0.159741 -3.68556 -3.68556
0.123076 -3.66341 -3.66341
0.123115 -3.68512 -3.68512
0.0864816 -3.70645 -3.70645
0.0864359 -3.75004 -3.75004
0.160005 -3.75089 -3.75089
0.159832 -3.7073 -3.7073
0.0864598 -3.72823 -3.72823
0.123214 -3.75045 -3.75045
0.15992 -3.72908 -3.72908
0.12315 -3.70686 -3.70686
0.123184 -3.72864 -3.72864
0.0864359 -3.75004 -3.75004
0.0863819 -3.79375 -3.79375
0.160166 -3.79461 -3.79461
0.160005 -3.75089 -3.75089
0.0864099 -3.77188 -3.77188
0.123268 -3.79417 -3.79417
0.160087 -3.77273 -3.77273
0.123214 -3.75045 -3.75045
0.123242 -3.77229 -3.77229
0.0863819 -3.79375 -3.79375
0.0863196 -3.8376 -3.8376
0.160315 -3.83845 -3.83845
0.160166 -3.79461 -3.79461
0.0863517 -3.81566 -3.81566
0.123311 -3.83801 -3.83801
0.160242 -3.81651 -3.81651
0.123268 -3.79417 -3.79417
0.12329 -3.81607 -3.81607
0.0863196 -3.8376 -3.8376
0.086249 -3.88156 -3.88156
0.16045 -3.88241 -3.88241
0.160315 -3.83845 -3.83845
0.0862853 -3.85956 -3.85956
0.123343 -3.88197 -3.88197
0.160384 -3.86041 -3.86041
0.123311 -3.83801 -3.83801
0.123328 -3.85997 -3.85997
0.086249 -3.88156 -3.88156
0.0861702 -3.92565 -3.92565
0.160574 -3.9265 -3.9265
0.16045 -3.88241 -3.88241
0.0862106 -3.90359 -3.90359
0.123366 -3.92606 -3.92606
0.160514 -3.90444 -3.90444
0.123343 -3.88197 -3.88197
0.123356 -3.904 -3.904
0.0861702 -3.92565 -3.92565
0.0860832 -3.96985 -3.96985
0.160685 -3.9707 -3.9707
0.160574 -3.9265 -3.9265
0.0861277 -3.94773 -3.94773
0.123378 -3.97026 -3.97026
0.160631 -3.94858 -3.94858
0.123366 -3.92606 -3.92606
0.123373 -3.94815 -3.94815
0.0860832 -3.96985 -3.96985
0.085988 -4.01417 -4.01417
0.160785 -4.01502 -4.01502
0.160685 -3.9707 -3.9707
0.0860366 -3.992 -3.992
0.12338 -4.01458 -4.01458
0.160737 -3.99285 -3.99285
0.123378 -3.97026 -3.97026
0.12338 -3.99241 -3.99241
0.085988 -4.01417 -4.01417
0.0858847 -4.05861 -4.05861
0.160872 -4.05945 -4.05945
0.160785 -4.01502 -4.01502
0.0859374 -4.03638 -4.03638
0.123372 -4.05902 -4.05902
0.16083 -4.03722 -4.03722
0.12338 -4.01458 -4.01458
0.123377 -4.03679 -4.03679
0.0858847 -4.05861 -4.05861
0.0857734 -4.10315 -4.10315
0.160946 -4.104 -4.104
0.160872 -4.05945 -4.05945
0.0858301 -4.08087 -4.08087
0.123353 -4.10356 -4.10356
0.16091 -4.08171 -4.08171
0.123372 -4.05902 -4.05902
0.123364 -4.08128 -4.08128
0.0857734 -4.10315 -4.10315
0.085654 -4.14781 -4.14781
0.161009 -4.14865 -4.14865
0.160946 -4.104 -4.104
0.0857147 -4.12547 -4.12547
0.123325 -4.14822 -4.14822
0.160979 -4.12631 -4.12631
0.123353 -4.10356 -4.10356
0.12334 -4.12588 -4.12588
0.085654 -4.14781 -4.14781
0.0855266 -4.19257 -4.19257
0.161059 -4.19341 -4.19341
0.161009 -4.14865 -4.14865
0.0855913 -4.17017 -4.17017
0.123286 -4.19298 -4.19298
0.161036 -4.17102 -4.17102
0.123325 -4.14822 -4.14822
0.123307 -4.17059 -4.17059
0.0855266 -4.19257 -4.19257
0.0853912 -4.23743 -4.23743
0.161098 -4.23828 -4.23828
0.161059 -4.19341 -4.19341
0.0854599 -4.21499 -4.21499
0.123238 -4.23784 -4.23784
0.16108 -4.21583 -4.21583
0.123286 -4.19298 -4.19298
0.123264 -4.2154 -4.2154
0.0853912 -4.23743 -4.23743
0.0852479 -4.2824 -4.2824
0.161124 -4.28324 -4.28324
0.161098 -4.23828 -4.23828
0.0853206 -4.2599 -4.2599
0.12318 -4.28281 -4.28281
0.161113 -4.26075 -4.26075
0.123238 -4.23784 -4.23784
0.12321 -4.26031 -4.26031
0.0852479 -4.2824 -4.2824
0.0850967 -4.32747 -4.32747
0.161139 -4.32831 -4.32831
0.161124 -4.28324 -4.28324
0.0851733 -4.30492 -4.30492
0.123111 -4.32788 -4.32788
0.161133 -4.30576 -4.30576
0.12318 -4.28281 -4.28281
0.123147 -4.30533 -4.30533
0.0850967 -4.32747 -4.32747
0.0849377 -4.37263 -4.37263
0.161141 -4.37347 -4.37347
0.161139 -4.32831 -4.32831
0.0850182 -4.35004 -4.35004
0.123033 -4.37304 -4.37304
0.161142 -4.35088 -4.35088
0.123111 -4.32788 -4.32788
0.123073 -4.35045 -4.35045
0.0849377 -4.37263 -4.37263
0.0847708 -4.41789 -4.41789
0.161132 -4.41872 -4.41872
0.161141 -4.37347 -4.37347
0.0848552 -4.39525 -4.39525
0.122945 -4.41829 -4.41829
0.161138 -4.39608 -4.39608
0.123033 -4.37304 -4.37304
0.12299 -4.39565 -4.39565
0.0847708 -4.41789 -4.41789
0.0845962 -4.46323 -4.46323
0.161111 -4.46407 -4.46407
0.161132 -4.41872 -4.41872
0.0846845 -4.44055 -4.44055
0.122847 -4.46364 -4.46364
0.161123 -4.44139 -4.44139
0.122945 -4.41829 -4.41829
0.122897 -4.44096 -4.44096
0.0845962 -4.46323 -4.46323
0.0844138 -4.50867 -4.50867
0.161078 -4.50951 -4.50951
0.161111 -4.46407 -4.46407
0.084506 -4.48594 -4.48594
0.122739 -4.50908 -4.50908
0.161096 -4.48678 -4.48678
0.122847 -4.46364 -4.46364
0.122794 -4.48635 -4.48635
0.0844138 -4.50867 -4.50867
0.0842238 -4.5542 -4.5542
0.161033 -4.55503 -4.55503
0.161078 -4.50951 -4.50951
0.0843198 -4.53143 -4.53143
0.122622 -4.55461 -4.55461
0.161057 -4.53226 -4.53226
0.122739 -4.50908 -4.50908
0.122682 -4.53183 -4.53183
0.0842238 -4.5542 -4.5542
0.0840261 -4.59981 -4.59981
0.160976 -4.60064 -4.60064
0.161033 -4.55503 -4.55503
0.0841259 -4.57699 -4.57699
0.122495 -4.60022 -4.60022
0.161006 -4.57783 -4.57783
0.122622 -4.55461 -4.55461
0.122559 -4.5774 -4.5774
0.0840261 -4.59981 -4.59981
0.0838208 -4.6455 -4.6455
0.160908 -4.64633 -4.64633
0.160976 -4.60064 -4.60064
0.0839244 -4.62264 -4.62264
0.122358 -4.64591 -4.64591
0.160944 -4.62348 -4.62348
0.122495 -4.60022 -4.60022
0.122427 -4.62305 -4.62305
0.0838208 -4.6455 -4.6455
0.0836079 -4.69127 -4.69127
0.160828 -4.6921 -4.6921
0.160908 -4.64633 -4.64633
0.0837153 -4.66838 -4.66838
0.122211 -4.69168 -4.69168
0.160869 -4.66921 -4.66921
0.122358 -4.64591 -4.64591
0.122286 -4.66878 -4.66878
0.0836079 -4.69127 -4.69127
0.0833875 -4.73712 -4.73712
0.160736 -4.73795 -4.73795
0.160828 -4.6921 -4.6921
0.0834986 -4.71419 -4.71419
0.122055 -4.73753 -4.73753
0.160784 -4.71502 -4.71502
0.122211 -4.69168 -4.69168
0.122135 -4.71459 -4.71459
0.0833875 -4.73712 -4.73712
0.0831596 -4.78305 -4.78305
0.160633 -4.78387 -4.78387
0.160736 -4.73795 -4.73795
0.0832745 -4.76008 -4.76008
0.12189 -4.78345 -4.78345
0.160686 -4.7609 -4.7609
0.122055 -4.73753 -4.73753
0.121974 -4.76048 -4.76048
0.0831596 -4.78305 -4.78305
0.0829242 -4.82904 -4.82904
0.160519 -4.82987 -4.82987
0.160633 -4.78387 -4.78387
0.0830428 -4.80604 -4.80604
0.121715 -4.82945 -4.82945
0.160577 -4.80686 -4.80686
0.12189 -4.78345 -4.78345
0.121804 -4.80644 -4.80644
0.0829242 -4.82904 -4.82904
0.0826815 -4.87511 -4.87511
0.160393 -4.87593 -4.87593
0.160519 -4.82987 -4.82987
0.0828038 -4.85207 -4.85207
0.12153 -4.87551 -4.87551
0.160457 -4.85289 -4.85289
0.121715 -4.82945 -4.82945
0.121624 -4.85247 -4.85247
0.0826815 -4.87511 -4.87511
0.0824314 -4.92125 -4.92125
0.160255 -4.92206 -4.92206
0.160393 -4.87593 -4.87593
0.0825573 -4.89817 -4.89817
0.121337 -4.92165 -4.92165
0.160325 -4.89899 -4.89899
0.12153 -4.87551 -4.87551
0.121435 -4.89857 -4.89857
0.0824314 -4.92125 -4.92125
0.0821739 -4.96745 -4.96745
0.160106 -4.96826 -4.96826
0.160255 -4.92206 -4.92206
0.0823036 -4.94434 -4.94434
0.121133 -4.96785 -4.96785
0.160182 -4.94516 -4.94516
0.121337 -4.92165 -4.92165
0.121236 -4.94474 -4.94474
0.0821739 -4.96745 -4.96745
0.0819092 -5.01371 -5.01371
0.159946 -5.01452 -5.01452
0.160106 -4.96826 -4.96826
0.0820425 -4.99057 -4.99057
0.120921 -5.01411 -5.01411
0.160027 -4.99139 -4.99139
0.121133 -4.96785 -4.96785
0.121028 -4.99097 -4.99097
0.0819092 -5.01371 -5.01371
0.0816373 -5.06003 -5.06003
0.159774 -5.06084 -5.06084
0.159946 -5.01452 -5.01452
0.0817742 -5.03686 -5.03686
0.120699 -5.06043 -5.06043
0.159861 -5.03768 -5.03768
0.120921 -5.01411 -5.01411
0.120811 -5.03726 -5.03726
0.0816373 -5.06003 -5.06003
0.0813582 -5.10641 -5.10641
0.159591 -5.10722 -5.10722
0.159774 -5.06084 -5.06084
0.0814986 -5.08322 -5.08322
0.120468 -5.10681 -5.10681
0.159684 -5.08403 -5.08403
0.120699 -5.06043 -5.06043
0.120585 -5.08361 -5.08361
0.0813582 -5.10641 -5.10641
0.0810719 -5.15285 -5.15285
0.159397 -5.15366 -5.15366
0.159591 -5.10722 -5.10722
0.0812159 -5.12962 -5.12962
0.120228 -5.15325 -5.15325
0.159495 -5.13043 -5.13043
0.120468 -5.10681 -5.10681
0.120349 -5.13002 -5.13002
0.0810719 -5.15285 -5.15285
0.0807785 -5.19934 -5.19934
0.159191 -5.20014 -5.20014
0.159397 -5.15366 -5.15366
0.0809261 -5.17609 -5.17609
0.119978 -5.19974 -5.19974
0.159295 -5.17689 -5.17689
0.120228 -5.15325 -5.15325
0.120104 -5.17649 -5.17649
0.0807785 -5.19934 -5.19934
0.080478 -5.24588 -5.24588
0.158975 -5.24668 -5.24668
0.159191 -5.20014 -5.20014
0.0806291 -5.2226 -5.2226
0.11972 -5.24628 -5.24628
0.159084 -5.22341 -5.22341
0.119978 -5.19974 -5.19974
0.11985 -5.223 -5.223
0.080478 -5.24588 -5.24588
0.0801706 -5.29247 -5.29247
0.158747 -5.29327 -5.29327
0.158975 -5.24668 -5.24668
0.0803252 -5.26917 -5.26917
0.119452 -5.29286 -5.29286
0.158862 -5.26997 -5.26997
0.11972 -5.24628 -5.24628
0.119587 -5.26956 -5.26956
0.0801706 -5.29247 -5.29247
0.0798561 -5.33911 -5.33911
0.158508 -5.3399 -5.3399
0.158747 -5.29327 -5.29327
0.0800142 -5.31578 -5.31578
0.119176 -5.3395 -5.3395
0.158629 -5.31658 -5.31658
0.119452 -5.29286 -5.29286
0.119315 -5.31618 -5.31618
0.0798561 -5.33911 -5.33911
0.0795347 -5.38578 -5.38578
0.158258 -5.38658 -5.38658
0.158508 -5.3399 -5.3399
0.0796963 -5.36244 -5.36244
0.11889 -5.38618 -5.38618
0.158385 -5.36323 -5.36323
0.119176 -5.3395 -5.3395
0.119034 -5.36283 -5.36283
0.0795347 -5.38578 -5.38578
0.0792065 -5.4325 -5.4325
0.157998 -5.43329 -5.43329
0.158258 -5.38658 -5.38658
0.0793715 -5.40914 -5.40914
0.118595 -5.43289 -5.43289
0.158129 -5.40993 -5.40993
0.11889 -5.38618 -5.38618
0.118744 -5.40953 -5.40953
0.0792065 -5.4325 -5.4325
0.0788713 -5.47926 -5.47926
0.157726 -5.48005 -5.48005
0.157998 -5.43329 -5.43329
0.0790398 -5.45588 -5.45588
0.118292 -5.47965 -5.47965
0.157863 -5.45667 -5.45667
0.118595 -5.43289 -5.43289
0.118445 -5.45627 -5.45627
0.0788713 -5.47926 -5.47926
0.0785294 -5.52606 -5.52606
0.157444 -5.52684 -5.52684
0.157726 -5.48005 -5.48005
0.0787012 -5.50265 -5.50265
0.11798 -5.52644 -5.52644
0.157586 -5.50344 -5.50344
0.118292 -5.47965 -5.47965
0.118137 -5.50304 -5.50304
0.0785294 -5.52606 -5.52606
0.0781808 -5.57288 -5.57288
0.15715 -5.57367 -5.57367
0.157444 -5.52684 -5.52684
0.0783559 -5.54947 -5.54947
0.117659 -5.57327 -5.57327
0.157298 -5.55025 -5.55025
0.11798 -5.52644 -5.52644
0.11782 -5.54985 -5.54985
0.0781808 -5.57288 -5.57288
0.0778253 -5.61974 -5.61974
0.156846 -5.62052 -5.62052
0.15715 -5.57367 -5.57367
0.0780039 -5.59631 -5.59631
0.117329 -5.62013 -5.62013
0.156999 -5.59709 -5.59709
0.117659 -5.57327 -5.57327
0.117495 -5.5967 -5.5967
0.0778253 -5.61974 -5.61974
0.0774632 -5.66663 -5.66663
0.156531 -5.66741 -5.66741
0.156846 -5.62052 -5.62052
0.0776451 -5.64318 -5.64318
0.11699 -5.66702 -5.66702
0.15669 -5.64396 -5.64396
0.117329 -5.62013 -5.62013
0.117161 -5.64357 -5.64357
0.0774632 -5.66663 -5.66663
0.0770944 -5.71355 -5.71355
0.156205 -5.71432 -5.71432
0.156531 -5.66741 -5.66741
0.0772797 -5.69009 -5.69009
0.116643 -5.71393 -5.71393
0.156369 -5.69086 -5.69086
0.11699 -5.66702 -5.66702
0.116818 -5.69047 -5.69047
0.0770944 -5.71355 -5.71355
0.0767188 -5.76049 -5.76049
0.155869 -5.76125 -5.76125
0.156205 -5.71432 -5.71432
0.0769075 -5.73701 -5.73701
0.116287 -5.76087 -5.76087
0.156039 -5.73778 -5.73778
0.116643 -5.71393 -5.71393
0.116466 -5.7374 -5.7374
0.0767188 -5.76049 -5.76049
0.0763364 -5.80745 -5.80745
0.155522 -5.80821 -5.80821
0.155869 -5.76125 -5.76125
0.0765285 -5.78396 -5.78396
0.115922 -5.80783 -5.80783
0.155697 -5.78473 -5.78473
0.116287 -5.76087 -5.76087
0.116106 -5.78434 -5.78434
0.0763364 -5.80745 -5.80745
0.0759469 -5.85443 -5.85443
0.155164 -5.85519 -5.85519
0.155522 -5.80821 -5.80821
0.0761426 -5.83093 -5.83093
0.115549 -5.8548 -5.8548
0.155345 -5.8317 -5.8317
0.115922 -5.80783 -5.80783
0.115737 -5.83131 -5.83131
0.0759469 -5.85443 -5.85443
0.07555 -5.90142 -5.90142
0.154796 -5.90218 -5.90218
0.155164 -5.85519 -5.85519
0.0757494 -5.87792 -5.87792
0.115166 -5.9018 -5.9018
0.154982 -5.87868 -5.87868
0.115549 -5.8548 -5.8548
0.115359 -5.8783 -5.8783
0.07555 -5.90142 -5.90142
0.0751452 -5.94844 -5.94844
0.154417 -5.94919 -5.94919
0.154796 -5.90218 -5.90218
0.0753486 -5.92493 -5.92493
0.114773 -5.94881 -5.94881
0.154608 -5.92568 -5.92568
0.115166 -5.9018 -5.9018
0.114971 -5.9253 -5.9253
0.0751452 -5.94844 -5.94844
0.0747318 -5.99546 -5.99546
0.154027 -5.99621 -5.99621
0.154417 -5.94919 -5.94919
0.0749395 -5.97195 -5.97195
0.11437 -5.99583 -5.99583
0.154223 -5.97269 -5.97269
0.114773 -5.94881 -5.94881
0.114573 -5.97232 -5.97232
0.0747318 -5.99546 -5.99546
0.07431 -6.0425 -6.0425
0.153623 -6.04324 -6.04324
0.154027 -5.99621 -5.99621
0.074522 -6.01898 -6.01898
0.113956 -6.04287 -6.04287
0.153827 -6.01972 -6.01972
0.11437 -5.99583 -5.99583
0.114164 -6.01935 -6.01935
0.07431 -6.0425 -6.0425
0.0738813 -6.08954 -6.08954
0.153207 -6.09029 -6.09029
0.153623 -6.04324 -6.04324
0.0740962 -6.06602 -6.06602
0.11353 -6.08992 -6.08992
0.153417 -6.06676 -6.06676
0.113956 -6.04287 -6.04287
0.113744 -6.06639 -6.06639
0.0738813 -6.08954 -6.08954
0.0734517 -6.13659 -6.13659
0.152777 -6.13737 -6.13737
0.153207 -6.09029 -6.09029
0.0736663 -6.11307 -6.11307
0.113099 -6.13698 -6.13698
0.152993 -6.11383 -6.11383
0.11353 -6.08992 -6.08992
0.113314 -6.11345 -6.11345
0.0734517 -6.13659 -6.13659
0.073027 -6.18361 -6.18361
0.152354 -6.18447 -6.18447
0.152777 -6.13737 -6.13737
0.0732385 -6.1601 -6.1601
0.11268 -6.18403 -6.18403
0.152562 -6.16092 -6.16092
0.113099 -6.13698 -6.13698
0.112887 -6.16051 -6.16051
0 0 0
0.0018317 -0.000520808 -0.000520808
0.00307385 -0.00153766 -0.00153766
0 0 0
0.00088893 -0.000186924 -0.000186924
0.00231445 -0.000929832 -0.000929832
0.00167206 -0.000957741 -0.000957741
0 0 0
0.00110396 -0.000409652 -0.000409652
0.0018317 -0.000520808 -0.000520808
0.00381467 -0.00150279 -0.00150279
0.00573378 -0.00267294 -0.00267294
0.00307385 -0.00153766 -0.00153766
0.00281376 -0.000964386 -0.000964386
0.00472568 -0.0020286 -0.0020286
0.0044079 -0.00208386 -0.00208386
0.00231445 -0.000929832 -0.000929832
0.00352686 -0.00146258 -0.00146258
0.00381467 -0.00150279 -0.00150279
0.0058154 -0.00285171 -0.00285171
0.00841607 -0.00404236 -0.00404236
0.00573378 -0.00267294 -0.00267294
0.00481626 -0.00212984 -0.00212984
0.00710129 -0.00340228 -0.00340228
0.00707029 -0.0033176 -0.0033176
0.00472568 -0.0020286 -0.0020286
0.00591665 -0.00267078 -0.00267078
0.0058154 -0.00285171 -0.00285171
0.00780572 -0.00460797 -0.00460797
0.0111196 -0.00580366 -0.00580366
0.00841607 -0.00404236 -0.00404236
0.00681235 -0.00367654 -0.00367654
0.00945597 -0.00515913 -0.00515913
0.00976595 -0.00486989 -0.00486989
0.00710129 -0.00340228 -0.00340228
0.00828039 -0.00422918 -0.00422918
0.00780572 -0.00460797 -0.00460797
0.00977856 -0.00680059 -0.00680059
0.0138367 -0.0079933 -0.0079933
0.0111196 -0.00580366 -0.00580366
0.00879422 -0.0056485 -0.0056485
0.0118019 -0.00735068 -0.00735068
0.0124772 -0.00684344 -0.00684344
0.00945597 -0.00515913 -0.00515913
0.0106298 -0.00619896 -0.00619896
0.00977856 -0.00680059 -0.00680059
0.0117377 -0.0094464 -0.0094464
0.016554 -0.0106359 -0.0106359
0.0138367 -0.0079933 -0.0079933
0.0107597 -0.00806636 -0.00806636
0.0141392 -0.00999347 -0.00999347
0.0151958 -0.00925741 -0.00925741
0.0118019 -0.00735068 -0.00735068
0.0129717 -0.00861515 -0.00861515
0.0117377 -0.0094464 -0.0094464
0.0136838 -0.0125502 -0.0125502
0.0192667 -0.0137349 -0.0137349
0.016554 -0.0106359 -0.0106359
0.0127123 -0.0109409 -0.0109409
0.0164675 -0.0130946 -0.0130946
0.0179113 -0.0121282 -0.0121282
0.0141392 -0.00999347 -0.00999347
0.0153045 -0.0114866 -0.0114866
0.0136838 -0.0125502 -0.0125502
0.0156182 -0.0161134 -0.0161134
0.0219696 -0.0172934 -0.0172934
0.0192667 -0.0137349 -0.0137349
0.0146524 -0.0142744 -0.0142744
0.0187853 -0.0166551 -0.0166551
0.0206196 -0.0154568 -0.0154568
0.0164675 -0.0130946 -0.0130946
0.0176277 -0.0148175 -0.0148175
0.0156182 -0.0161134 -0.0161134
0.0175413 -0.0201346 -0.0201346
0.0246605 -0.0213096 -0.0213096
0.0219696 -0.0172934 -0.0172934
0.0165811 -0.0180669 -0.0180669
0.0210917 -0.0206738 -0.0206738
0.0233166 -0.0192444 -0.0192444
0.0187853 -0.0166551 -0.0166551
0.0199399 -0.0186073 -0.0186073
0.0175413 -0.0201346 -0.0201346
0.0194532 -0.0246117 -0.0246117
0.0273377 -0.025782 -0.025782
0.0246605 -0.0213096 -0.0213096
0.0184986 -0.0223163 -0.0223163
0.0233859 -0.0251487 -0.0251487
0.0260008 -0.0234889 -0.0234889
0.0210917 -0.0206738 -0.0206738
0.0222403 -0.0228544 -0.0228544
0.0194532 -0.0246117 -0.0246117
0.021354 -0.0295425 -0.0295425
0.0300005 -0.0307079 -0.0307079
0.0273377 -0.025782 -0.025782
0.020405 -0.0270206 -0.0270206
0.0256675 -0.0300772 -0.0300772
0.0286709 -0.0281884 -0.0281884
0.0233859 -0.0251487 -0.0251487
0.0245283 -0.0275564 -0.0275564
0.021354 -0.0295425 -0.0295425
0.0232437 -0.0349242 -0.0349242
0.0326484 -0.0360851 -0.0360851
0.0300005 -0.0307079 -0.0307079
0.0223002 -0.0321771 -0.0321771
0.0279362 -0.0354569 -0.0354569
0.0313264 -0.0333403 -0.0333403
0.0256675 -0.0300772 -0.0300772
0.0268035 -0.0327108 -0.0327108
0.0232437 -0.0349242 -0.0349242
0.0251221 -0.0407546 -0.0407546
0.0352812 -0.0419109 -0.0419109
0.0326484 -0.0360851 -0.0360851
0.0241843 -0.0377835 -0.0377835
0.0301918 -0.0412852 -0.0412852
0.0339667 -0.0389421 -0.0389421
0.0279362 -0.0354569 -0.0354569
0.0290656 -0.0383151 -0.0383151
0.0251221 -0.0407546 -0.0407546
0.0269893 -0.0470309 -0.0470309
0.0378987 -0.0481829 -0.0481829
0.0352812 -0.0419109 -0.0419109
0.0260571 -0.0438371 -0.0438371
0.0324341 -0.0475596 -0.0475596
0.0365919 -0.0449913 -0.0449913
0.0301918 -0.0412852 -0.0412852
0.0313146 -0.0443667 -0.0443667
0.0269893 -0.0470309 -0.0470309
0.0288452 -0.0537508 -0.0537508
0.0405008 -0.0548985 -0.0548985
0.0378987 -0.0481829 -0.0481829
0.0279187 -0.0503356 -0.0503356
0.0346631 -0.0542776 -0.0542776
0.0392017 -0.0514854 -0.0514854
0.0324341 -0.0475596 -0.0475596
0.0335503 -0.0508633 -0.0508633
0.0288452 -0.0537508 -0.0537508
0.0306897 -0.0609119 -0.0609119
0.0430873 -0.0620554 -0.0620554
0.0405008 -0.0548985 -0.0548985
0.0297689 -0.0572764 -0.0572764
0.0368786 -0.0614368 -0.0614368
0.041796 -0.058422 -0.058422
0.0346631 -0.0542776 -0.0542776
0.0357725 -0.0578022 -0.0578022
0.0306897 -0.0609119 -0.0609119
0.0325226 -0.0685116 -0.0685116
0.0456583 -0.0696511 -0.0696511
0.0430873 -0.0620554 -0.0620554
0.0316076 -0.064657 -0.064657
0.0390806 -0.0690348 -0.0690348
0.0443748 -0.0657986 -0.0657986
0.0368786 -0.0614368 -0.0614368
0.0379813 -0.0651811 -0.0651811
0.0325226 -0.0685116 -0.0685116
0.0343441 -0.0765475 -0.0765475
0.0482136 -0.0776831 -0.0776831
0.0456583 -0.0696511 -0.0696511
0.0334348 -0.0724752 -0.0724752
0.041269 -0.077069 -0.077069
0.0469379 -0.0736127 -0.0736127
0.0390806 -0.0690348 -0.0690348
0.0401765 -0.0729975 -0.0729975
0.0343441 -0.0765475 -0.0765475
0.0361539 -0.0850172 -0.0850172
0.0507533 -0.0861491 -0.0861491
0.0482136 -0.0776831 -0.0776831
0.0352504 -0.0807283 -0.0807283
0.0434437 -0.0855371 -0.0855371
0.0494854 -0.081862 -0.081862
0.041269 -0.077069 -0.077069
0.042358 -0.081249 -0.081249
0.0361539 -0.0850172 -0.0850172
0.037952 -0.0939183 -0.0939183
0.0532771 -0.0950465 -0.0950465
0.0507533 -0.0861491 -0.0861491
0.0370544 -0.089414 -0.089414
0.0456047 -0.0944366 -0.0944366
0.0520172 -0.090544 -0.090544
0.0434437 -0.0855371 -0.0855371
0.0445259 -0.0899331 -0.0899331
0.037952 -0.0939183 -0.0939183
0.0397384 -0.103248 -0.103248
0.0557852 -0.104373 -0.104373
0.0532771 -0.0950465 -0.0950465
0.0388467 -0.0985299 -0.0985299
0.0477519 -0.103765 -0.103765
0.0545331 -0.0996562 -0.0996562
0.0456047 -0.0944366 -0.0944366
0.04668 -0.0990474 -0.0990474
0.0397384 -0.103248 -0.103248
0.041513 -0.113005 -0.113005
0.0582773 -0.114126 -0.114126
0.0557852 -0.104373 -0.104373
0.0406272 -0.108074 -0.108074
0.0498853 -0.11352 -0.11352
0.0570332 -0.109196 -0.109196
0.0477519 -0.103765 -0.103765
0.0488203 -0.108589 -0.108589
0.041513 -0.113005 -0.113005
0.0432757 -0.123186 -0.123186
0.0607535 -0.124303 -0.124303
0.0582773 -0.114126 -0.114126
0.0423959 -0.118042 -0.118042
0.0520047 -0.123699 -0.123699
0.0595174 -0.119162 -0.119162
0.0498853 -0.11352 -0.11352
0.0509467 -0.118557 -0.118557
0.0432757 -0.123186 -0.123186
0.0450265 -0.133788 -0.133788
0.0632136 -0.134902 -0.134902
0.0607535 -0.124303 -0.124303
0.0441526 -0.128434 -0.128434
0.0541102 -0.1343 -0.1343
0.0619856 -0.12955 -0.12955
0.0520047 -0.123699 -0.123699
0.0530592 -0.128947 -0.128947
0.0450265 -0.133788 -0.133788
0.0467653 -0.144809 -0.144809
0.0656577 -0.145921 -0.145921
0.0632136 -0.134902 -0.134902
0.0458974 -0.139246 -0.139246
0.0562016 -0.145321 -0.145321
0.0644377 -0.140359 -0.140359
0.0541102 -0.1343 -0.1343
0.0551577 -0.139758 -0.139758
0.0467653 -0.144809 -0.144809
0.048492 -0.156248 -0.156248
0.0680856 -0.157356 -0.157356
0.0656577 -0.145921 -0.145921
0.0476302 -0.150477 -0.150477
0.058279 -0.156758 -0.156758
0.0668737 -0.151586 -0.151586
0.0562016 -0.145321 -0.145321
0.0572421 -0.150987 -0.150987
0.048492 -0.156248 -0.156248
0.0502066 -0.1681 -0.1681
0.0704973 -0.169206 -0.169206
0.0680856 -0.157356 -0.157356
0.0493508 -0.162122 -0.162122
0.0603421 -0.168609 -0.168609
0.0692935 -0.163229 -0.163229
0.058279 -0.156758 -0.156758
0.0593123 -0.162632 -0.162632
0.0502066 -0.1681 -0.1681
0.0519091 -0.180365 -0.180365
0.0728928 -0.181467 -0.181467
0.0704973 -0.169206 -0.169206
0.0510594 -0.174181 -0.174181
0.0623911 -0.180873 -0.180873
0.0716971 -0.175285 -0.175285
0.0603421 -0.168609 -0.168609
0.0613684 -0.174689 -0.174689
0.0519091 -0.180365 -0.180365
0.0535993 -0.193039 -0.193039
0.075272 -0.194139 -0.194139
0.0728928 -0.181467 -0.181467
0.0527557 -0.186651 -0.186651
0.0644258 -0.193546 -0.193546
0.0740845 -0.187752 -0.187752
0.0623911 -0.180873 -0.180873
0.0634103 -0.187158 -0.187158
0.0535993 -0.193039 -0.193039
0.0552773 -0.206121 -0.206121
0.0776348 -0.207217 -0.207217
0.075272 -0.194139 -0.194139
0.0544398 -0.199529 -0.199529
0.0664462 -0.206626 -0.206626
0.0764555 -0.200627 -0.200627
0.0644258 -0.193546 -0.193546
0.0654378 -0.200035 -0.200035
0.0552773 -0.206121 -0.206121
0.0569429 -0.219606 -0.219606
0.0799812 -0.220701 -0.220701
0.0776348 -0.207217 -0.207217
0.0561117 -0.212813 -0.212813
0.0684523 -0.220111 -0.220111
0.0788101 -0.213909 -0.213909
0.0664462 -0.206626 -0.206626
0.067451 -0.213318 -0.213318
0.0569429 -0.219606 -0.219606
0.0585962 -0.233495 -0.233495
0.0823112 -0.234586 -0.234586
0.0799812 -0.220701 -0.220701
0.0577711 -0.2265 -0.2265
0.0704439 -0.233998 -0.233998
0.0811483 -0.227593 -0.227593
0.0684523 -0.220111 -0.220111
0.0694499 -0.227004 -0.227004
0.0585962 -0.233495 -0.233495
0.060237 -0.247783 -0.247783
0.0846246 -0.248872 -0.248872
0.0823112 -0.234586 -0.234586
0.0594182 -0.240589 -0.240589
0.072421 -0.248285 -0.248285
0.0834699 -0.241679 -0.241679
0.0704439 -0.233998 -0.233998
0.0714342 -0.241091 -0.241091
0.060237 -0.247783 -0.247783
0.0618654 -0.262468 -0.262468
0.0869214 -0.263555 -0.263555
0.0846246 -0.248872 -0.248872
0.0610528 -0.255076 -0.255076
0.0743836 -0.262969 -0.262969
0.0857751 -0.256164 -0.256164
0.072421 -0.248285 -0.248285
0.0734041 -0.255577 -0.255577
0.0618654 -0.262468 -0.262468
0.0634812 -0.277548 -0.277548
0.0892017 -0.278633 -0.278633
0.0869214 -0.263555 -0.263555
0.0626749 -0.269959 -0.269959
0.0763317 -0.278049 -0.278049
0.0880636 -0.271045 -0.271045
0.0743836 -0.262969 -0.262969
0.0753595 -0.27046 -0.27046
0.0634812 -0.277548 -0.277548
0.0650845 -0.293021 -0.293021
0.0914653 -0.294104 -0.294104
0.0892017 -0.278633 -0.278633
0.0642845 -0.285236 -0.285236
0.0782651 -0.293521 -0.293521
0.0903356 -0.286319 -0.286319
0.0763317 -0.278049 -0.278049
0.0773002 -0.285736 -0.285736
0.0650845 -0.293021 -0.293021
0.0666752 -0.308884 -0.308884
0.0937122 -0.309964 -0.309964
0.0914653 -0.294104 -0.294104
0.0658814 -0.300904 -0.300904
0.0801839 -0.309383 -0.309383
0.0925908 -0.301985 -0.301985
0.0782651 -0.293521 -0.293521
0.0792263 -0.301403 -0.301403
0.0666752 -0.308884 -0.308884
0.0682532 -0.325135 -0.325135
0.0959423 -0.326213 -0.326213
0.0937122 -0.309964 -0.309964
0.0674657 -0.316961 -0.316961
0.0820879 -0.325633 -0.325633
0.0948293 -0.31804 -0.31804
0.0801839 -0.309383 -0.309383
0.0811378 -0.317459 -0.317459
0.0682532 -0.325135 -0.325135
0.0698184 -0.341771 -0.341771
0.0981557 -0.342847 -0.342847
0.0959423 -0.326213 -0.326213
0.0690374 -0.333405 -0.333405
0.0839773 -0.342268 -0.342268
0.0970511 -0.334482 -0.334482
0.0820879 -0.325633 -0.325633
0.0830345 -0.333902 -0.333902
0.0698184 -0.341771 -0.341771
0.071371 -0.358789 -0.358789
0.100352 -0.359864 -0.359864
0.0981557 -0.342847 -0.342847
0.0705963 -0.350232 -0.350232
0.0858518 -0.359286 -0.359286
0.099256 -0.351308 -0.351308
0.0839773 -0.342268 -0.342268
0.0849164 -0.350729 -0.350729
0.071371 -0.358789 -0.358789
0.0729107 -0.376188 -0.376188
0.102532 -0.377261 -0.377261
0.100352 -0.359864 -0.359864
0.0721425 -0.367441 -0.367441
0.0877115 -0.376684 -0.376684
0.101444 -0.368515 -0.368515
0.0858518 -0.359286 -0.359286
0.0867835 -0.367938 -0.367938
0.0729107 -0.376188 -0.376188
0.0744377 -0.393965 -0.393965
0.104695 -0.395036 -0.395036
0.102532 -0.377261 -0.377261
0.0736758 -0.38503 -0.38503
0.0895563 -0.394461 -0.394461
0.103615 -0.386101 -0.386101
0.0877115 -0.376684 -0.376684
0.0886358 -0.385525 -0.385525
0.0744377 -0.393965 -0.393965
0.0759517 -0.412118 -0.412118
0.10684 -0.413187 -0.413187
0.104695 -0.395036 -0.395036
0.0751963 -0.402995 -0.402995
0.0913863 -0.412613 -0.412613
0.10577 -0.404065 -0.404065
0.0895563 -0.394461 -0.394461
0.0904732 -0.40349 -0.40349
0.0759517 -0.412118 -0.412118
0.0774529 -0.430644 -0.430644
0.108969 -0.431711 -0.431711
0.10684 -0.413187 -0.413187
0.0767039 -0.421334 -0.421334
0.0932012 -0.431138 -0.431138
0.107907 -0.422403 -0.422403
0.0913863 -0.412613 -0.412613
0.0922956 -0.421829 -0.421829
0.0774529 -0.430644 -0.430644
0.0789411 -0.44954 -0.44954
0.111081 -0.450606 -0.450606
0.108969 -0.431711 -0.431711
0.0781986 -0.440046 -0.440046
0.0950012 -0.450034 -0.450034
0.110027 -0.441112 -0.441112
0.0932012 -0.431138 -0.431138
0.0941031 -0.44054 -0.44054
0.0789411 -0.44954 -0.44954
0.0804163 -0.468805 -0.468805
0.113176 -0.469869 -0.469869
0.111081 -0.450606 -0.450606
0.0796803 -0.459127 -0.459127
0.0967862 -0.469298 -0.469298
0.11213 -0.460192 -0.460192
0.0950012 -0.450034 -0.450034
0.0958956 -0.45962 -0.45962
0.0804163 -0.468805 -0.468805
0.0818786 -0.488435 -0.488435
0.115253 -0.489498 -0.489498
0.113176 -0.469869 -0.469869
0.0811491 -0.478574 -0.478574
0.0985561 -0.488928 -0.488928
0.114216 -0.479638 -0.479638
0.0967862 -0.469298 -0.469298
0.097673 -0.479067 -0.479067
0.0818786 -0.488435 -0.488435
0.0833278 -0.508429 -0.508429
0.117314 -0.509491 -0.509491
0.115253 -0.489498 -0.489498
0.0826048 -0.498387 -0.498387
0.100311 -0.508921 -0.508921
0.116285 -0.499449 -0.499449
0.0985561 -0.488928 -0.488928
0.0994354 -0.498879 -0.498879
0.0833278 -0.508429 -0.508429
0.0847639 -0.528784 -0.528784
0.119357 -0.529844 -0.529844
0.117314 -0.509491 -0.509491
0.0840474 -0.518562 -0.518562
0.102051 -0.529276 -0.529276
0.118337 -0.519622 -0.519622
0.100311 -0.508921 -0.508921
0.101183 -0.519053 -0.519053
0.0847639 -0.528784 -0.528784
0.0861868 -0.549497 -0.549497
0.121383 -0.550556 -0.550556
0.119357 -0.529844 -0.529844
0.085477 -0.539096 -0.539096
0.103775 -0.549989 -0.549989
0.120372 -0.540155 -0.540155
0.102051 -0.529276 -0.529276
0.102915 -0.539588 -0.539588
0.0861868 -0.549497 -0.549497
0.0875967 -0.570567 -0.570567
0.123392 -0.571624 -0.571624
0.121383 -0.550556 -0.550556
0.0868934 -0.559988 -0.559988
0.105485 -0.571058 -0.571058
0.12239 -0.561046 -0.561046
0.103775 -0.549989 -0.549989
0.104632 -0.560479 -0.560479
0.0875967 -0.570567 -0.570567
0.0889934 -0.59199 -0.59199
0.125383 -0.593046 -0.593046
0.123392 -0.571624 -0.571624
0.0882967 -0.581235 -0.581235
0.107179 -0.592481 -0.592481
0.12439 -0.582291 -0.582291
0.105485 -0.571058 -0.571058
0.106333 -0.581725 -0.581725
0.0889934 -0.59199 -0.59199
0.0903769 -0.613765 -0.613765
0.127358 -0.61482 -0.61482
0.125383 -0.593046 -0.593046
0.0896868 -0.602834 -0.602834
0.108858 -0.614255 -0.614255
0.126373 -0.603889 -0.603889
0.107179 -0.592481 -0.592481
0.10802 -0.603324 -0.603324
0.0903769 -0.613765 -0.613765
0.0917471 -0.635888 -0.635888
0.129315 -0.636942 -0.636942
0.127358 -0.61482 -0.61482
0.0910637 -0.624783 -0.624783
0.110521 -0.636378 -0.636378
0.128338 -0.625837 -0.625837
0.108858 -0.614255 -0.614255
0.109691 -0.625273 -0.625273
0.0917471 -0.635888 -0.635888
0.0931041 -0.658358 -0.658358
0.131254 -0.659411 -0.659411
0.129315 -0.636942 -0.636942
0.0924273 -0.64708 -0.64708
0.11217 -0.658848 -0.658848
0.130287 -0.648133 -0.648133
0.110521 -0.636378 -0.636378
0.111347 -0.64757 -0.64757
0.0931041 -0.658358 -0.658358
0.0944479 -0.681172 -0.681172
0.133177 -0.682224 -0.682224
0.131254 -0.659411 -0.659411
0.0937777 -0.669722 -0.669722
0.113803 -0.681661 -0.681661
0.132218 -0.670774 -0.670774
0.11217 -0.658848 -0.658848
0.112988 -0.670211 -0.670211
0.0944479 -0.681172 -0.681172
0.0957783 -0.704327 -0.704327
0.135082 -0.705378 -0.705378
0.133177 -0.682224 -0.682224
0.0951147 -0.692707 -0.692707
0.11542 -0.704816 -0.704816
0.134131 -0.693758 -0.693758
0.113803 -0.681661 -0.681661
0.114613 -0.693196 -0.693196
0.0957783 -0.704327 -0.704327
0.0970954 -0.727821 -0.727821
0.136969 -0.728871 -0.728871
0.135082 -0.705378 -0.705378
0.0964385 -0.716032 -0.716032
0.117023 -0.72831 -0.72831
0.136028 -0.717082 -0.717082
0.11542 -0.704816 -0.704816
0.116223 -0.716521 -0.716521
0.0970954 -0.727821 -0.727821
0.0983991 -0.751653 -0.751653
0.138839 -0.752702 -0.752702
0.136969 -0.728871 -0.728871
0.0977489 -0.739695 -0.739695
0.118609 -0.752141 -0.752141
0.137906 -0.740745 -0.740745
0.117023 -0.72831 -0.72831
0.117818 -0.740184 -0.740184
0.0983991 -0.751653 -0.751653
0.0996895 -0.775818 -0.775818
0.140692 -0.776866 -0.776866
0.138839 -0.752702 -0.752702
0.099046 -0.763694 -0.763694
0.120181 -0.776307 -0.776307
0.139768 -0.764742 -0.764742
0.118609 -0.752141 -0.752141
0.119397 -0.764182 -0.764182
0.0996895 -0.775818 -0.775818
0.100967 -0.800315 -0.800315
0.142527 -0.801363 -0.801363
0.140692 -0.776866 -0.776866
0.10033 -0.788025 -0.788025
0.121737 -0.800804 -0.800804
0.141612 -0.789073 -0.789073
0.120181 -0.776307 -0.776307
0.120961 -0.788514 -0.788514
0.100967 -0.800315 -0.800315
0.10223 -0.825142 -0.825142
0.144344 -0.826189 -0.826189
0.142527 -0.801363 -0.801363
0.1016 -0.812688 -0.812688
0.123278 -0.82563 -0.82563
0.143438 -0.813735 -0.813735
0.121737 -0.800804 -0.800804
0.122509 -0.813176 -0.813176
0.10223 -0.825142 -0.825142
0.10348 -0.850296 -0.850296
0.146145 -0.851342 -0.851342
0.144344 -0.826189 -0.826189
0.102857 -0.837678 -0.837678
0.124803 -0.850784 -0.850784
0.145247 -0.838725 -0.838725
0.123278 -0.82563 -0.82563
0.124042 -0.838167 -0.838167
0.10348 -0.850296 -0.850296
0.104717 -0.875774 -0.875774
0.147927 -0.876819 -0.876819
0.146145 -0.851342 -0.851342
0.1041 -0.862995 -0.862995
0.126312 -0.876262 -0.876262
0.147038 -0.86404 -0.86404
0.124803 -0.850784 -0.850784
0.125559 -0.863483 -0.863483
0.104717 -0.875774 -0.875774
0.10594 -0.901575 -0.901575
0.149692 -0.902619 -0.902619
0.147927 -0.876819 -0.876819
0.10533 -0.888635 -0.888635
0.127806 -0.902063 -0.902063
0.148812 -0.889679 -0.889679
0.126312 -0.876262 -0.876262
0.127061 -0.889122 -0.889122
0.10594 -0.901575 -0.901575
0.10715 -0.927695 -0.927695
0.15144 -0.928739 -0.928739
0.149692 -0.902619 -0.902619
0.106547 -0.914595 -0.914595
0.129285 -0.928183 -0.928183
0.150568 -0.915639 -0.915639
0.127806 -0.902063 -0.902063
0.128548 -0.915083 -0.915083
0.10715 -0.927695 -0.927695
0.108346 -0.954133 -0.954133
0.153169 -0.955176 -0.955176
0.15144 -0.928739 -0.928739
0.10775 -0.940874 -0.940874
0.130748 -0.95462 -0.95462
0.152307 -0.941918 -0.941918
0.129285 -0.928183 -0.928183
0.130019 -0.941362 -0.941362
0.108346 -0.954133 -0.954133
0.109529 -0.980885 -0.980885
0.154882 -0.981927 -0.981927
0.153169 -0.955176 -0.955176
0.108939 -0.96747 -0.96747
0.132196 -0.981373 -0.981373
0.154028 -0.968512 -0.968512
0.130748 -0.95462 -0.95462
0.131474 -0.967957 -0.967957
0.109529 -0.980885 -0.980885
0.110698 -1.00795 -1.00795
0.156576 -1.00899 -1.00899
0.154882 -0.981927 -0.981927
0.110115 -0.994379 -0.994379
0.133628 -1.00844 -1.00844
0.155731 -0.995421 -0.995421
0.132196 -0.981373 -0.981373
0.132914 -0.994866 -0.994866
0.110698 -1.00795 -1.00795
0.111854 -1.03532 -1.03532
0.158253 -1.03637 -1.03637
0.156576 -1.00899 -1.00899
0.111278 -1.0216 -1.0216
0.135044 -1.03581 -1.03581
0.157417 -1.02264 -1.02264
0.133628 -1.00844 -1.00844
0.134338 -1.02209 -1.02209
0.111854 -1.03532 -1.03532
0.112996 -1.06301 -1.06301
0.159913 -1.06405 -1.06405
0.158253 -1.03637 -1.03637
0.112427 -1.04913 -1.04913
0.136445 -1.06349 -1.06349
0.159085 -1.05017 -1.05017
0.135044 -1.03581 -1.03581
0.135746 -1.04962 -1.04962
0.112996 -1.06301 -1.06301
0.114125 -1.091 -1.091
0.161555 -1.09203 -1.09203
0.159913 -1.06405 -1.06405
0.113562 -1.07696 -1.07696
0.13783 -1.09148 -1.09148
0.160736 -1.078 -1.078
0.136445 -1.06349 -1.06349
0.137139 -1.07745 -1.07745
0.114125 -1.091 -1.091
0.11524 -1.11929 -1.11929
0.163179 -1.12032 -1.12032
0.161555 -1.09203 -1.09203
0.114684 -1.1051 -1.1051
0.139199 -1.11977 -1.11977
0.162369 -1.10614 -1.10614
0.13783 -1.09148 -1.09148
0.138517 -1.10559 -1.10559
0.11524 -1.11929 -1.11929
0.116341 -1.14788 -1.14788
0.164785 -1.14892 -1.14892
0.163179 -1.12032 -1.12032
0.115792 -1.13354 -1.13354
0.140553 -1.14836 -1.14836
0.163984 -1.13458 -1.13458
0.139199 -1.11977 -1.11977
0.139878 -1.13403 -1.13403
0.116341 -1.14788 -1.14788
0.117429 -1.17676 -1.17676
0.166374 -1.1778 -1.1778
0.164785 -1.14892 -1.14892
0.116887 -1.16228 -1.16228
0.141892 -1.17725 -1.17725
0.165582 -1.16332 -1.16332
0.140553 -1.14836 -1.14836
0.141224 -1.16277 -1.16277
0.117429 -1.17676 -1.17676
0.118503 -1.20595 -1.20595
0.167945 -1.20699 -1.20699
0.166374 -1.1778 -1.1778
0.117968 -1.19132 -1.19132
0.143214 -1.20644 -1.20644
0.167162 -1.19236 -1.19236
0.141892 -1.17725 -1.17725
0.142555 -1.19181 -1.19181
0.118503 -1.20595 -1.20595
0.119564 -1.23543 -1.23543
0.169498 -1.23646 -1.23646
0.167945 -1.20699 -1.20699
0.119035 -1.22065 -1.22065
0.144521 -1.23591 -1.23591
0.168724 -1.22169 -1.22169
0.143214 -1.20644 -1.20644
0.14387 -1.22114 -1.22114
0.119564 -1.23543 -1.23543
0.120611 -1.26519 -1.26519
0.171034 -1.26623 -1.26623
0.169498 -1.23646 -1.23646
0.120089 -1.25027 -1.25027
0.145813 -1.26568 -1.26568
0.170268 -1.25131 -1.25131
0.144521 -1.23591 -1.23591
0.145169 -1.25076 -1.25076
0.120611 -1.26519 -1.26519
0.121644 -1.29525 -1.29525
0.172552 -1.29629 -1.29629
0.171034 -1.26623 -1.26623
0.121129 -1.28019 -1.28019
0.147088 -1.29574 -1.29574
0.171795 -1.28122 -1.28122
0.145813 -1.26568 -1.26568
0.146453 -1.28067 -1.28067
0.121644 -1.29525 -1.29525
0.122664 -1.32559 -1.32559
0.174052 -1.32663 -1.32663
0.172552 -1.29629 -1.29629
0.122156 -1.31039 -1.31039
0.148349 -1.32608 -1.32608
0.173304 -1.31142 -1.31142
0.147088 -1.29574 -1.29574
0.14772 -1.31087 -1.31087
0.122664 -1.32559 -1.32559
0.12367 -1.35622 -1.35622
0.175535 -1.35725 -1.35725
0.174052 -1.32663 -1.32663
0.123169 -1.34087 -1.34087
0.149593 -1.3567 -1.3567
0.174796 -1.3419 -1.3419
0.148349 -1.32608 -1.32608
0.148973 -1.34136 -1.34136
0.12367 -1.35622 -1.35622
0.124663 -1.38712 -1.38712
0.177 -1.38816 -1.38816
0.175535 -1.35725 -1.35725
0.124168 -1.37163 -1.37163
0.150822 -1.38761 -1.38761
0.17627 -1.37267 -1.37267
0.149593 -1.3567 -1.3567
0.150209 -1.37212 -1.37212
0.124663 -1.38712 -1.38712
0.125642 -1.41831 -1.41831
0.178447 -1.41934 -1.41934
0.177 -1.38816 -1.38816
0.125154 -1.40268 -1.40268
0.152035 -1.41879 -1.41879
0.177726 -1.40371 -1.40371
0.150822 -1.38761 -1.38761
0.15143 -1.40317 -1.40317
0.125642 -1.41831 -1.41831
0.126607 -1.44977 -1.44977
0.179876 -1.4508 -1.4508
0.178447 -1.41934 -1.41934
0.126126 -1.434 -1.434
0.153232 -1.45026 -1.45026
0.179164 -1.43504 -1.43504
0.152035 -1.41879 -1.41879
0.152635 -1.43449 -1.43449
0.126607 -1.44977 -1.44977
0.127559 -1.4815 -1.4815
0.181288 -1.48254 -1.48254
0.179876 -1.4508 -1.4508
0.127085 -1.4656 -1.4656
0.154414 -1.48199 -1.48199
0.180585 -1.46663 -1.46663
0.153232 -1.45026 -1.45026
0.153825 -1.46609 -1.46609
0.127559 -1.4815 -1.4815
0.128497 -1.51351 -1.51351
0.182682 -1.51454 -1.51454
0.181288 -1.48254 -1.48254
0.12803 -1.49747 -1.49747
0.15558 -1.51399 -1.51399
0.181988 -1.4985 -1.4985
0.154414 -1.48199 -1.48199
0.154999 -1.49796 -1.49796
0.128497 -1.51351 -1.51351
0.129422 -1.54578 -1.54578
0.184059 -1.54681 -1.54681
0.182682 -1.51454 -1.51454
0.128961 -1.52961 -1.52961
0.156731 -1.54627 -1.54627
0.183373 -1.53064 -1.53064
0.15558 -1.51399 -1.51399
0.156157 -1.5301 -1.5301
0.129422 -1.54578 -1.54578
0.130333 -1.57832 -1.57832
0.185417 -1.57935 -1.57935
0.184059 -1.54681 -1.54681
0.129879 -1.56202 -1.56202
0.157865 -1.57881 -1.57881
0.18474 -1.56305 -1.56305
0.156731 -1.54627 -1.54627
0.1573 -1.56251 -1.56251
0.130333 -1.57832 -1.57832
0.13123 -1.61113 -1.61113
0.186758 -1.61216 -1.61216
0.185417 -1.57935 -1.57935
0.130783 -1.59469 -1.59469
0.158984 -1.61161 -1.61161
0.18609 -1.59572 -1.59572
0.157865 -1.57881 -1.57881
0.158427 -1.59518 -1.59518
0.13123 -1.61113 -1.61113
0.132114 -1.64419 -1.64419
0.188082 -1.64522 -1.64522
0.186758 -1.61216 -1.61216
0.131674 -1.62763 -1.62763
0.160088 -1.64468 -1.64468
0.187422 -1.62866 -1.62866
0.158984 -1.61161 -1.61161
0.159538 -1.62811 -1.62811
0.132114 -1.64419 -1.64419
0.132984 -1.67752 -1.67752
0.189387 -1.67855 -1.67855
0.188082 -1.64522 -1.64522
0.13255 -1.66082 -1.66082
0.161176 -1.67801 -1.67801
0.188737 -1.66185 -1.66185
0.160088 -1.64468 -1.64468
0.160634 -1.66131 -1.66131
0.132984 -1.67752 -1.67752
0.13384 -1.7111 -1.7111
0.190675 -1.71213 -1.71213
0.189387 -1.67855 -1.67855
0.133414 -1.69428 -1.69428
0.162248 -1.71159 -1.71159
0.190033 -1.69531 -1.69531
0.161176 -1.67801 -1.67801
0.161714 -1.69476 -1.69476
0.13384 -1.7111 -1.7111
0.134683 -1.74494 -1.74494
0.191945 -1.74596 -1.74596
0.190675 -1.71213 -1.71213
0.134263 -1.72799 -1.72799
0.163305 -1.74542 -1.74542
0.191312 -1.72902 -1.72902
0.162248 -1.71159 -1.71159
0.162778 -1.72847 -1.72847
0.134683 -1.74494 -1.74494
0.135512 -1.77902 -1.77902
0.193198 -1.78005 -1.78005
0.191945 -1.74596 -1.74596
0.135099 -1.76195 -1.76195
0.164345 -1.77951 -1.77951
0.192574 -1.76298 -1.76298
0.163305 -1.74542 -1.74542
0.163827 -1.76244 -1.76244
0.135512 -1.77902 -1.77902
0.136328 -1.81336 -1.81336
0.194433 -1.81439 -1.81439
0.193198 -1.78005 -1.78005
0.135922 -1.79616 -1.79616
0.165371 -1.81385 -1.81385
0.193817 -1.79719 -1.79719
0.164345 -1.77951 -1.77951
0.16486 -1.79665 -1.79665
0.136328 -1.81336 -1.81336
0.13713 -1.84794 -1.84794
0.19565 -1.84897 -1.84897
0.194433 -1.81439 -1.81439
0.136731 -1.83062 -1.83062
0.16638 -1.84843 -1.84843
0.195044 -1.83165 -1.83165
0.165371 -1.81385 -1.81385
0.165878 -1.83111 -1.83111
0.13713 -1.84794 -1.84794
0.137919 -1.88277 -1.88277
0.19685 -1.8838 -1.8838
0.19565 -1.84897 -1.84897
0.137526 -1.86533 -1.86533
0.167375 -1.88326 -1.88326
0.196252 -1.86636 -1.86636
0.16638 -1.84843 -1.84843
0.166879 -1.86582 -1.86582
0.137919 -1.88277 -1.88277
0.138694 -1.91784 -1.91784
0.198031 -1.91887 -1.91887
0.19685 -1.8838 -1.8838
0.138308 -1.90028 -1.90028
0.168353 -1.91833 -1.91833
0.197443 -1.90131 -1.90131
0.167375 -1.88326 -1.88326
0.167866 -1.90077 -1.90077
0.138694 -1.91784 -1.91784
0.139456 -1.95315 -1.95315
0.199196 -1.95418 -1.95418
0.198031 -1.91887 -1.91887
0.139077 -1.93547 -1.93547
0.169316 -1.95364 -1.95364
0.198616 -1.9365 -1.9365
0.168353 -1.91833 -1.91833
0.168836 -1.93596 -1.93596
0.139456 -1.95315 -1.95315
0.140204 -1.9887 -1.9887
0.200342 -1.98973 -1.98973
0.199196 -1.95418 -1.95418
0.139831 -1.9709 -1.9709
0.170263 -1.98919 -1.98919
0.199771 -1.97192 -1.97192
0.169316 -1.95364 -1.95364
0.169792 -1.97139 -1.97139
0.140204 -1.9887 -1.9887
0.140938 -2.02448 -2.02448
0.201472 -2.02551 -2.02551
0.200342 -1.98973 -1.98973
0.140573 -2.00656 -2.00656
0.171195 -2.02497 -2.02497
0.200909 -2.00759 -2.00759
0.170263 -1.98919 -1.98919
0.170731 -2.00705 -2.00705
0.140938 -2.02448 -2.02448
0.141659 -2.0605 -2.0605
0.202583 -2.06152 -2.06152
0.201472 -2.02551 -2.02551
0.1413 -2.04246 -2.04246
0.172111 -2.06099 -2.06099
0.20203 -2.04349 -2.04349
0.171195 -2.02497 -2.02497
0.171655 -2.04295 -2.04295
0.141659 -2.0605 -2.0605
0.142367 -2.09674 -2.09674
0.203677 -2.09777 -2.09777
0.202583 -2.06152 -2.06152
0.142014 -2.07859 -2.07859
0.173012 -2.09723 -2.09723
0.203132 -2.07962 -2.07962
0.172111 -2.06099 -2.06099
0.172564 -2.07908 -2.07908
0.142367 -2.09674 -2.09674
0.143061 -2.13322 -2.13322
0.204753 -2.13424 -2.13424
0.203677 -2.09777 -2.09777
0.142715 -2.11495 -2.11495
0.173897 -2.1337 -2.1337
0.204217 -2.11598 -2.11598
0.173012 -2.09723 -2.09723
0.173457 -2.11544 -2.11544
0.143061 -2.13322 -2.13322
0.143741 -2.16991 -2.16991
0.205812 -2.17094 -2.17094
0.204753 -2.13424 -2.13424
0.143403 -2.15154 -2.15154
0.174767 -2.1704 -2.1704
0.205285 -2.15256 -2.15256
0.173897 -2.1337 -2.1337
0.174334 -2.15202 -2.15202
0.143741 -2.16991 -2.16991
0.144408 -2.20684 -2.20684
0.206854 -2.20786 -2.20786
0.205812 -2.17094 -2.17094
0.144076 -2.18835 -2.18835
0.175621 -2.20732 -2.20732
0.206335 -2.18937 -2.18937
0.174767 -2.1704 -2.1704
0.175196 -2.18883 -2.18883
0.144408 -2.20684 -2.20684
0.145062 -2.24398 -2.24398
0.207877 -2.245 -2.245
0.206854 -2.20786 -2.20786
0.144737 -2.22538 -2.22538
0.17646 -2.24446 -2.24446
0.207368 -2.2264 -2.2264
0.175621 -2.20732 -2.20732
0.176042 -2.22586 -2.22586
0.145062 -2.24398 -2.24398
0.145702 -2.28133 -2.28133
0.208884 -2.28235 -2.28235
0.207877 -2.245 -2.245
0.145384 -2.26263 -2.26263
0.177283 -2.28182 -2.28182
0.208383 -2.26365 -2.26365
0.17646 -2.24446 -2.24446
0.176873 -2.26311 -2.26311
0.145702 -2.28133 -2.28133
0.146329 -2.31891 -2.31891
0.209872 -2.31993 -2.31993
0.208884 -2.28235 -2.28235
0.146017 -2.30009 -2.30009
0.178091 -2.31939 -2.31939
0.20938 -2.30111 -2.30111
0.177283 -2.28182 -2.28182
0.177689 -2.30058 -2.30058
0.146329 -2.31891 -2.31891
0.146943 -2.3567 -2.3567
0.210844 -2.35771 -2.35771
0.209872 -2.31993 -2.31993
0.146638 -2.33778 -2.33778
0.178883 -2.35718 -2.35718
0.21036 -2.33879 -2.33879
0.178091 -2.31939 -2.31939
0.178489 -2.33826 -2.33826
0.146943 -2.3567 -2.3567
0.147543 -2.39469 -2.39469
0.211798 -2.39571 -2.39571
0.210844 -2.35771 -2.35771
0.147244 -2.37567 -2.37567
0.17966 -2.39518 -2.39518
0.211323 -2.37669 -2.37669
0.178883 -2.35718 -2.35718
0.179274 -2.37615 -2.37615
0.147543 -2.39469 -2.39469
0.14813 -2.4329 -2.4329
0.212734 -2.43391 -2.43391
0.211798 -2.39571 -2.39571
0.147838 -2.41377 -2.41377
0.180422 -2.43338 -2.43338
0.212268 -2.41479 -2.41479
0.17966 -2.39518 -2.39518
0.180043 -2.41426 -2.41426
0.14813 -2.4329 -2.4329
0.148703 -2.47131 -2.47131
0.213653 -2.47232 -2.47232
0.212734 -2.43391 -2.43391
0.148418 -2.45208 -2.45208
0.181168 -2.4718 -2.4718
0.213196 -2.45309 -2.45309
0.180422 -2.43338 -2.43338
0.180797 -2.45256 -2.45256
0.148703 -2.47131 -2.47131
0.149263 -2.50992 -2.50992
0.214555 -2.51094 -2.51094
0.213653 -2.47232 -2.47232
0.148985 -2.49059 -2.49059
0.181899 -2.51041 -2.51041
0.214106 -2.49161 -2.49161
0.181168 -2.4718 -2.4718
0.181536 -2.49108 -2.49108
0.149263 -2.50992 -2.50992
0.14981 -2.54874 -2.54874
0.215439 -2.54975 -2.54975
0.214555 -2.51094 -2.51094
0.149538 -2.52931 -2.52931
0.182615 -2.54923 -2.54923
0.214999 -2.53032 -2.53032
0.181899 -2.51041 -2.51041
0.182259 -2.52979 -2.52979
0.14981 -2.54874 -2.54874
0.150344 -2.58775 -2.58775
0.216306 -2.58877 -2.58877
0.215439 -2.54975 -2.54975
0.150079 -2.56822 -2.56822
0.183315 -2.58824 -2.58824
0.215875 -2.56924 -2.56924
0.182615 -2.54923 -2.54923
0.182967 -2.56871 -2.56871
0.150344 -2.58775 -2.58775
0.150864 -2.62697 -2.62697
0.217156 -2.62798 -2.62798
0.216306 -2.58877 -2.58877
0.150606 -2.60734 -2.60734
0.184 -2.62745 -2.62745
0.216733 -2.60835 -2.60835
0.183315 -2.58824 -2.58824
0.18366 -2.60782 -2.60782
0.150864 -2.62697 -2.62697
0.151371 -2.66637 -2.66637
0.217988 -2.66738 -2.66738
0.217156 -2.62798 -2.62798
0.151119 -2.64664 -2.64664
0.18467 -2.66685 -2.66685
0.217574 -2.64765 -2.64765
0.184 -2.62745 -2.62745
0.184337 -2.64713 -2.64713
0.151371 -2.66637 -2.66637
0.151865 -2.70596 -2.70596
0.218803 -2.70697 -2.70697
0.217988 -2.66738 -2.66738
0.15162 -2.68614 -2.68614
0.185324 -2.70645 -2.70645
0.218398 -2.68715 -2.68715
0.18467 -2.66685 -2.66685
0.184999 -2.68663 -2.68663
0.151865 -2.70596 -2.70596
0.152346 -2.74575 -2.74575
0.219601 -2.74675 -2.74675
0.218803 -2.70697 -2.70697
0.152107 -2.72583 -2.72583
0.185964 -2.74623 -2.74623
0.219204 -2.72684 -2.72684
0.185324 -2.70645 -2.70645
0.185646 -2.72632 -2.72632
0.152346 -2.74575 -2.74575
0.152814 -2.78572 -2.78572
0.220381 -2.78672 -2.78672
0.219601 -2.74675 -2.74675
0.152582 -2.76571 -2.76571
0.186588 -2.7862 -2.7862
0.219993 -2.76672 -2.76672
0.185964 -2.74623 -2.74623
0.186278 -2.76619 -2.76619
0.152814 -2.78572 -2.78572
0.153268 -2.82587 -2.82587
0.221145 -2.82688 -2.82688
0.220381 -2.78672 -2.78672
0.153043 -2.80577 -2.80577
0.187197 -2.82635 -2.82635
0.220765 -2.80678 -2.80678
0.186588 -2.7862 -2.7862
0.186894 -2.80625 -2.80625
0.153268 -2.82587 -2.82587
0.15371 -2.86621 -2.86621
0.221891 -2.86721 -2.86721
0.221145 -2.82688 -2.82688
0.153491 -2.84602 -2.84602
0.187791 -2.86669 -2.86669
0.22152 -2.84702 -2.84702
0.187197 -2.82635 -2.82635
0.187496 -2.8465 -2.8465
0.15371 -2.86621 -2.86621
0.154138 -2.90672 -2.90672
0.22262 -2.90772 -2.90772
0.221891 -2.86721 -2.86721
0.153926 -2.88644 -2.88644
0.188369 -2.9072 -2.9072
0.222257 -2.88744 -2.88744
0.187791 -2.86669 -2.86669
0.188082 -2.88692 -2.88692
0.154138 -2.90672 -2.90672
0.154554 -2.94741 -2.94741
0.223332 -2.94841 -2.94841
0.22262 -2.90772 -2.90772
0.154348 -2.92705 -2.92705
0.188933 -2.94789 -2.94789
0.222978 -2.92805 -2.92805
0.188369 -2.9072 -2.9072
0.188653 -2.92753 -2.92753
0.154554 -2.94741 -2.94741
0.154956 -2.98828 -2.98828
0.224026 -2.98928 -2.98928
0.223332 -2.94841 -2.94841
0.154756 -2.96782 -2.96782
0.189481 -2.98876 -2.98876
0.223681 -2.96882 -2.96882
0.188933 -2.94789 -2.94789
0.189209 -2.96831 -2.96831
0.154956 -2.98828 -2.98828
0.155345 -3.02932 -3.02932
0.224704 -3.03031 -3.03031
0.224026 -2.98928 -2.98928
0.155152 -3.00878 -3.00878
0.190015 -3.0298 -3.0298
0.224367 -3.00977 -3.00977
0.189481 -2.98876 -2.98876
0.18975 -3.00926 -3.00926
0.155345 -3.02932 -3.02932
0.155722 -3.07052 -3.07052
0.225365 -3.07152 -3.07152
0.224704 -3.03031 -3.03031
0.155535 -3.0499 -3.0499
0.190533 -3.071 -3.071
0.225036 -3.05089 -3.05089
0.190015 -3.0298 -3.0298
0.190276 -3.05038 -3.05038
0.155722 -3.07052 -3.07052
0.156085 -3.1119 -3.1119
0.226008 -3.11289 -3.11289
0.225365 -3.07152 -3.07152
0.155905 -3.09119 -3.09119
0.191037 -3.11238 -3.11238
0.225689 -3.09218 -3.09218
0.190533 -3.071 -3.071
0.190787 -3.09167 -3.09167
0.156085 -3.1119 -3.1119
0.156436 -3.15344 -3.15344
0.226635 -3.15443 -3.15443
0.226008 -3.11289 -3.11289
0.156262 -3.13265 -3.13265
0.191526 -3.15391 -3.15391
0.226324 -3.13364 -3.13364
0.191037 -3.11238 -3.11238
0.191283 -3.13312 -3.13312
0.156436 -3.15344 -3.15344
0.156773 -3.19514 -3.19514
0.227244 -3.19613 -3.19613
0.226635 -3.15443 -3.15443
0.156606 -3.17427 -3.17427
0.191999 -3.19561 -3.19561
0.226942 -3.17526 -3.17526
0.191526 -3.15391 -3.15391
0.191764 -3.17474 -3.17474
0.156773 -3.19514 -3.19514
0.157098 -3.237 -3.237
0.227837 -3.23798 -3.23798
0.227244 -3.19613 -3.19613
0.156937 -3.21605 -3.21605
0.192458 -3.23747 -3.23747
0.227543 -3.21703 -3.21703
0.191999 -3.19561 -3.19561
0.19223 -3.21652 -3.21652
0.157098 -3.237 -3.237
0.15741 -3.27901 -3.27901
0.228413 -3.28 -3.28
0.227837 -3.23798 -3.23798
0.157256 -3.25798 -3.25798
0.192902 -3.27949 -3.27949
0.228127 -3.25897 -3.25897
0.192458 -3.23747 -3.23747
0.192682 -3.25846 -3.25846
0.15741 -3.27901 -3.27901
0.157709 -3.32119 -3.32119
0.228972 -3.32217 -3.32217
0.228413 -3.28 -3.28
0.157561 -3.30008 -3.30008
0.193331 -3.32166 -3.32166
0.228695 -3.30107 -3.30107
0.192902 -3.27949 -3.27949
0.193118 -3.30056 -3.30056
0.157709 -3.32119 -3.32119
0.157996 -3.36351 -3.36351
0.229514 -3.36449 -3.36449
0.228972 -3.32217 -3.32217
0.157854 -3.34233 -3.34233
0.193745 -3.36398 -3.36398
0.229245 -3.34331 -3.34331
0.193331 -3.32166 -3.32166
0.19354 -3.3428 -3.3428
0.157996 -3.36351 -3.36351
0.15827 -3.40598 -3.40598
0.230039 -3.40696 -3.40696
0.229514 -3.36449 -3.36449
0.158134 -3.38473 -3.38473
0.194145 -3.40646 -3.40646
0.229779 -3.38571 -3.38571
0.193745 -3.36398 -3.36398
0.193947 -3.3852 -3.3852
0.15827 -3.40598 -3.40598
0.158531 -3.44861 -3.44861
0.230548 -3.44958 -3.44958
0.230039 -3.40696 -3.40696
0.158402 -3.42728 -3.42728
0.19453 -3.44908 -3.44908
0.230296 -3.42826 -3.42826
0.194145 -3.40646 -3.40646
0.194339 -3.42775 -3.42775
0.158531 -3.44861 -3.44861
0.158779 -3.49137 -3.49137
0.23104 -3.49235 -3.49235
0.230548 -3.44958 -3.44958
0.158657 -3.46997 -3.46997
0.1949 -3.49185 -3.49185
0.230796 -3.47095 -3.47095
0.19453 -3.44908 -3.44908
0.194716 -3.47045 -3.47045
0.158779 -3.49137 -3.49137
0.159015 -3.53428 -3.53428
0.231515 -3.53526 -3.53526
0.23104 -3.49235 -3.49235
0.158899 -3.51281 -3.51281
0.195255 -3.53476 -3.53476
0.231279 -3.51379 -3.51379
0.1949 -3.49185 -3.49185
0.195079 -3.51328 -3.51328
0.159015 -3.53428 -3.53428
0.159238 -3.57733 -3.57733
0.231973 -3.57831 -3.57831
0.231515 -3.53526 -3.53526
0.159128 -3.55579 -3.55579
0.195596 -3.5778 -3.5778
0.231746 -3.55676 -3.55676
0.195255 -3.53476 -3.53476
0.195427 -3.55626 -3.55626
0.159238 -3.57733 -3.57733
0.159449 -3.62052 -3.62052
0.232415 -3.62149 -3.62149
0.231973 -3.57831 -3.57831
0.159345 -3.59891 -3.59891
0.195922 -3.62099 -3.62099
0.232196 -3.59988 -3.59988
0.195596 -3.5778 -3.5778
0.195761 -3.59938 -3.59938
0.159449 -3.62052 -3.62052
0.159647 -3.66385 -3.66385
0.23284 -3.66481 -3.66481
0.232415 -3.62149 -3.62149
0.159549 -3.64217 -3.64217
0.196233 -3.66431 -3.66431
0.232629 -3.64314 -3.64314
0.195922 -3.62099 -3.62099
0.196079 -3.64264 -3.64264
0.159647 -3.66385 -3.66385
0.159832 -3.7073 -3.7073
0.233248 -3.70827 -3.70827
0.23284 -3.66481 -3.66481
0.159741 -3.68556 -3.68556
0.196531 -3.70777 -3.70777
0.233046 -3.68652 -3.68652
0.196233 -3.66431 -3.66431
0.196384 -3.68603 -3.68603
0.159832 -3.7073 -3.7073
0.160005 -3.75089 -3.75089
0.23364 -3.75185 -3.75185
0.233248 -3.70827 -3.70827
0.15992 -3.72908 -3.72908
0.196813 -3.75136 -3.75136
0.233446 -3.73004 -3.73004
0.196531 -3.70777 -3.70777
0.196674 -3.72955 -3.72955
0.160005 -3.75089 -3.75089
0.160166 -3.79461 -3.79461
0.234016 -3.79556 -3.79556
0.23364 -3.75185 -3.75185
0.160087 -3.77273 -3.77273
0.197081 -3.79507 -3.79507
0.23383 -3.77369 -3.77369
0.196813 -3.75136 -3.75136
0.196949 -3.7732 -3.7732
0.160166 -3.79461 -3.79461
0.160315 -3.83845 -3.83845
0.234375 -3.8394 -3.8394
0.234016 -3.79556 -3.79556
0.160242 -3.81651 -3.81651
0.197335 -3.83891 -3.83891
0.234197 -3.81747 -3.81747
0.197081 -3.79507 -3.79507
0.19721 -3.81698 -3.81698
0.160315 -3.83845 -3.83845
0.16045 -3.88241 -3.88241
0.234717 -3.88337 -3.88337
0.234375 -3.8394 -3.8394
0.160384 -3.86041 -3.86041
0.197574 -3.88287 -3.88287
0.234548 -3.86137 -3.86137
0.197335 -3.83891 -3.83891
0.197456 -3.86088 -3.86088
0.16045 -3.88241 -3.88241
0.160574 -3.9265 -3.9265
0.235043 -3.92745 -3.92745
0.234717 -3.88337 -3.88337
0.160514 -3.90444 -3.90444
0.197799 -3.92696 -3.92696
0.234882 -3.90539 -3.90539
0.197574 -3.88287 -3.88287
0.197688 -3.9049 -3.9049
0.160574 -3.9265 -3.9265
0.160685 -3.9707 -3.9707
0.235353 -3.97165 -3.97165
0.235043 -3.92745 -3.92745
0.160631 -3.94858 -3.94858
0.198009 -3.97116 -3.97116
0.2352 -3.94953 -3.94953
0.197799 -3.92696 -3.92696
0.197906 -3.94905 -3.94905
0.160685 -3.9707 -3.9707
0.160785 -4.01502 -4.01502
0.235647 -4.01597 -4.01597
0.235353 -3.97165 -3.97165
0.160737 -3.99285 -3.99285
0.198206 -4.01548 -4.01548
0.235502 -3.99379 -3.99379
0.198009 -3.97116 -3.97116
0.198109 -3.99331 -3.99331
0.160785 -4.01502 -4.01502
0.160872 -4.05945 -4.05945
0.235924 -4.0604 -4.0604
0.235647 -4.01597 -4.01597
0.16083 -4.03722 -4.03722
0.198388 -4.05991 -4.05991
0.235787 -4.03817 -4.03817
0.198206 -4.01548 -4.01548
0.198299 -4.03768 -4.03768
0.160872 -4.05945 -4.05945
0.160946 -4.104 -4.104
0.236185 -4.10494 -4.10494
0.235924 -4.0604 -4.0604
0.16091 -4.08171 -4.08171
0.198556 -4.10446 -4.10446
0.236056 -4.08265 -4.08265
0.198388 -4.05991 -4.05991
0.198473 -4.08217 -4.08217
0.160946 -4.104 -4.104
0.161009 -4.14865 -4.14865
0.236429 -4.14959 -4.14959
0.236185 -4.10494 -4.10494
0.160979 -4.12631 -4.12631
0.198709 -4.14911 -4.14911
0.236309 -4.12725 -4.12725
0.198556 -4.10446 -4.10446
0.198634 -4.12677 -4.12677
0.161009 -4.14865 -4.14865
0.161059 -4.19341 -4.19341
0.236658 -4.19435 -4.19435
0.236429 -4.14959 -4.14959
0.161036 -4.17102 -4.17102
0.198849 -4.19387 -4.19387
0.236545 -4.17196 -4.17196
0.198709 -4.14911 -4.14911
0.198781 -4.17148 -4.17148
0.161059 -4.19341 -4.19341
0.161098 -4.23828 -4.23828
0.23687 -4.23921 -4.23921
0.236658 -4.19435 -4.19435
0.16108 -4.21583 -4.21583
0.198974 -4.23873 -4.23873
0.236766 -4.21676 -4.21676
0.198849 -4.19387 -4.19387
0.198913 -4.21629 -4.21629
0.161098 -4.23828 -4.23828
0.161124 -4.28324 -4.28324
0.237066 -4.28417 -4.28417
0.23687 -4.23921 -4.23921
0.161113 -4.26075 -4.26075
0.199085 -4.2837 -4.2837
0.23697 -4.26168 -4.26168
0.198974 -4.23873 -4.23873
0.199031 -4.2612 -4.2612
0.161124 -4.28324 -4.28324
0.161139 -4.32831 -4.32831
0.237246 -4.32923 -4.32923
0.237066 -4.28417 -4.28417
0.161133 -4.30576 -4.30576
0.199183 -4.32876 -4.32876
0.237158 -4.30669 -4.30669
0.199085 -4.2837 -4.2837
0.199136 -4.30621 -4.30621
0.161139 -4.32831 -4.32831
0.161141 -4.37347 -4.37347
0.23741 -4.37439 -4.37439
0.237246 -4.32923 -4.32923
0.161142 -4.35088 -4.35088
0.199266 -4.37392 -4.37392
0.23733 -4.3518 -4.3518
0.199183 -4.32876 -4.32876
0.199226 -4.35133 -4.35133
0.161141 -4.37347 -4.37347
0.161132 -4.41872 -4.41872
0.237559 -4.41964 -4.41964
0.23741 -4.37439 -4.37439
0.161138 -4.39608 -4.39608
0.199335 -4.41917 -4.41917
0.237487 -4.397 -4.397
0.199266 -4.37392 -4.37392
0.199302 -4.39653 -4.39653
0.161132 -4.41872 -4.41872
0.161111 -4.46407 -4.46407
0.237691 -4.46499 -4.46499
0.237559 -4.41964 -4.41964
0.161123 -4.44139 -4.44139
0.199391 -4.46452 -4.46452
0.237627 -4.4423 -4.4423
0.199335 -4.41917 -4.41917
0.199365 -4.44183 -4.44183
0.161111 -4.46407 -4.46407
0.161078 -4.50951 -4.50951
0.237807 -4.51042 -4.51042
0.237691 -4.46499 -4.46499
0.161096 -4.48678 -4.48678
0.199432 -4.50995 -4.50995
0.237751 -4.48769 -4.48769
0.199391 -4.46452 -4.46452
0.199413 -4.48723 -4.48723
0.161078 -4.50951 -4.50951
0.161033 -4.55503 -4.55503
0.237907 -4.55594 -4.55594
0.237807 -4.51042 -4.51042
0.161057 -4.53226 -4.53226
0.19946 -4.55548 -4.55548
0.237859 -4.53317 -4.53317
0.199432 -4.50995 -4.50995
0.199448 -4.5327 -4.5327
0.161033 -4.55503 -4.55503
0.160976 -4.60064 -4.60064
0.237992 -4.60154 -4.60154
0.237907 -4.55594 -4.55594
0.161006 -4.57783 -4.57783
0.199474 -4.60108 -4.60108
0.237952 -4.57873 -4.57873
0.19946 -4.55548 -4.55548
0.199469 -4.57827 -4.57827
0.160976 -4.60064 -4.60064
0.160908 -4.64633 -4.64633
0.238061 -4.64723 -4.64723
0.237992 -4.60154 -4.60154
0.160944 -4.62348 -4.62348
0.199475 -4.64677 -4.64677
0.238028 -4.62438 -4.62438
0.199474 -4.60108 -4.60108
0.199476 -4.62392 -4.62392
0.160908 -4.64633 -4.64633
0.160828 -4.6921 -4.6921
0.238114 -4.693 -4.693
0.238061 -4.64723 -4.64723
0.160869 -4.66921 -4.66921
0.199461 -4.69254 -4.69254
0.238089 -4.6701 -4.6701
0.199475 -4.64677 -4.64677
0.199469 -4.66965 -4.66965
0.160828 -4.6921 -4.6921
0.160736 -4.73795 -4.73795
0.238151 -4.73884 -4.73884
0.238114 -4.693 -4.693
0.160784 -4.71502 -4.71502
0.199434 -4.73839 -4.73839
0.238135 -4.71591 -4.71591
0.199461 -4.69254 -4.69254
0.199449 -4.71545 -4.71545
0.160736 -4.73795 -4.73795
0.160633 -4.78387 -4.78387
0.238173 -4.78476 -4.78476
0.238151 -4.73884 -4.73884
0.160686 -4.7609 -4.7609
0.199393 -4.78431 -4.78431
0.238164 -4.76179 -4.76179
0.199434 -4.73839 -4.73839
0.199415 -4.76134 -4.76134
0.160633 -4.78387 -4.78387
0.160519 -4.82987 -4.82987
0.238179 -4.83075 -4.83075
0.238173 -4.78476 -4.78476
0.160577 -4.80686 -4.80686
0.199339 -4.8303 -4.8303
0.238178 -4.80775 -4.80775
0.199393 -4.78431 -4.78431
0.199368 -4.8073 -4.8073
0.160519 -4.82987 -4.82987
0.160393 -4.87593 -4.87593
0.238169 -4.87681 -4.87681
0.238179 -4.83075 -4.83075
0.160457 -4.85289 -4.85289
0.199271 -4.87636 -4.87636
0.238176 -4.85377 -4.85377
0.199339 -4.8303 -4.8303
0.199307 -4.85332 -4.85332
0.160393 -4.87593 -4.87593
0.160255 -4.92206 -4.92206
0.238144 -4.92294 -4.92294
0.238169 -4.87681 -4.87681
0.160325 -4.89899 -4.89899
0.19919 -4.9225 -4.9225
0.238159 -4.89987 -4.89987
0.199271 -4.87636 -4.87636
0.199232 -4.89942 -4.89942
0.160255 -4.92206 -4.92206
0.160106 -4.96826 -4.96826
0.238104 -4.96913 -4.96913
0.238144 -4.92294 -4.92294
0.160182 -4.94516 -4.94516
0.199095 -4.96869 -4.96869
0.238126 -4.94603 -4.94603
0.19919 -4.9225 -4.9225
0.199144 -4.94559 -4.94559
0.160106 -4.96826 -4.96826
0.159946 -5.01452 -5.01452
0.238048 -5.01539 -5.01539
0.238104 -4.96913 -4.96913
0.160027 -4.99139 -4.99139
0.198987 -5.01495 -5.01495
0.238078 -4.99225 -4.99225
0.199095 -4.96869 -4.96869
0.199043 -4.99181 -4.99181
0.159946 -5.01452 -5.01452
0.159774 -5.06084 -5.06084
0.237976 -5.06171 -5.06171
0.238048 -5.01539 -5.01539
0.159861 -5.03768 -5.03768
0.198865 -5.06127 -5.06127
0.238014 -5.03854 -5.03854
0.198987 -5.01495 -5.01495
0.198928 -5.0381 -5.0381
0.159774 -5.06084 -5.06084
0.159591 -5.10722 -5.10722
0.23789 -5.10808 -5.10808
0.237976 -5.06171 -5.06171
0.159684 -5.08403 -5.08403
0.19873 -5.10765 -5.10765
0.237935 -5.08489 -5.08489
0.198865 -5.06127 -5.06127
0.198799 -5.08445 -5.08445
0.159591 -5.10722 -5.10722
0.159397 -5.15366 -5.15366
0.237788 -5.15451 -5.15451
0.23789 -5.10808 -5.10808
0.159495 -5.13043 -5.13043
0.198582 -5.15408 -5.15408
0.237841 -5.13129 -5.13129
0.19873 -5.10765 -5.10765
0.198658 -5.13086 -5.13086
0.159397 -5.15366 -5.15366
0.159191 -5.20014 -5.20014
0.23767 -5.20099 -5.20099
0.237788 -5.15451 -5.15451
0.159295 -5.17689 -5.17689
0.198421 -5.20056 -5.20056
0.237731 -5.17775 -5.17775
0.198582 -5.15408 -5.15408
0.198503 -5.17731 -5.17731
0.159191 -5.20014 -5.20014
0.158975 -5.24668 -5.24668
0.237538 -5.24753 -5.24753
0.23767 -5.20099 -5.20099
0.159084 -5.22341 -5.22341
0.198246 -5.2471 -5.2471
0.237606 -5.22425 -5.22425
0.198421 -5.20056 -5.20056
0.198335 -5.22383 -5.22383
0.158975 -5.24668 -5.24668
0.158747 -5.29327 -5.29327
0.23739 -5.29411 -5.29411
0.237538 -5.24753 -5.24753
0.158862 -5.26997 -5.26997
0.198058 -5.29368 -5.29368
0.237466 -5.27081 -5.27081
0.198246 -5.2471 -5.2471
0.198154 -5.27039 -5.27039
0.158747 -5.29327 -5.29327
0.158508 -5.3399 -5.3399
0.237227 -5.34074 -5.34074
0.23739 -5.29411 -5.29411
0.158629 -5.31658 -5.31658
0.197857 -5.34031 -5.34031
0.23731 -5.31742 -5.31742
0.198058 -5.29368 -5.29368
0.19796 -5.31699 -5.31699
0.158508 -5.3399 -5.3399
0.158258 -5.38658 -5.38658
0.237049 -5.38741 -5.38741
0.237227 -5.34074 -5.34074
0.158385 -5.36323 -5.36323
0.197644 -5.38699 -5.38699
0.23714 -5.36407 -5.36407
0.197857 -5.34031 -5.34031
0.197752 -5.36365 -5.36365
0.158258 -5.38658 -5.38658
0.157998 -5.43329 -5.43329
0.236855 -5.43412 -5.43412
0.237049 -5.38741 -5.38741
0.158129 -5.40993 -5.40993
0.197417 -5.4337 -5.4337
0.236954 -5.41076 -5.41076
0.197644 -5.38699 -5.38699
0.197532 -5.41034 -5.41034
0.157998 -5.43329 -5.43329
0.157726 -5.48005 -5.48005
0.236647 -5.48087 -5.48087
0.236855 -5.43412 -5.43412
0.157863 -5.45667 -5.45667
0.197177 -5.48046 -5.48046
0.236753 -5.45749 -5.45749
0.197417 -5.4337 -5.4337
0.197298 -5.45707 -5.45707
0.157726 -5.48005 -5.48005
0.157444 -5.52684 -5.52684
0.236424 -5.52766 -5.52766
0.236647 -5.48087 -5.48087
0.157586 -5.50344 -5.50344
0.196924 -5.52724 -5.52724
0.236538 -5.50426 -5.50426
0.197177 -5.48046 -5.48046
0.197052 -5.50385 -5.50385
0.157444 -5.52684 -5.52684
0.15715 -5.57367 -5.57367
0.236186 -5.57448 -5.57448
0.236424 -5.52766 -5.52766
0.157298 -5.55025 -5.55025
0.196658 -5.57407 -5.57407
0.236307 -5.55106 -5.55106
0.196924 -5.52724 -5.52724
0.196793 -5.55065 -5.55065
0.15715 -5.57367 -5.57367
0.156846 -5.62052 -5.62052
0.235933 -5.62133 -5.62133
0.236186 -5.57448 -5.57448
0.156999 -5.59709 -5.59709
0.196379 -5.62092 -5.62092
0.236061 -5.5979 -5.5979
0.196658 -5.57407 -5.57407
0.19652 -5.59749 -5.59749
0.156846 -5.62052 -5.62052
0.156531 -5.66741 -5.66741
0.235665 -5.66821 -5.66821
0.235933 -5.62133 -5.62133
0.15669 -5.64396 -5.64396
0.196088 -5.6678 -5.6678
0.235801 -5.64476 -5.64476
0.196379 -5.62092 -5.62092
0.196235 -5.64436 -5.64436
0.156531 -5.66741 -5.66741
0.156205 -5.71432 -5.71432
0.235383 -5.71511 -5.71511
0.235665 -5.66821 -5.66821
0.156369 -5.69086 -5.69086
0.195784 -5.71471 -5.71471
0.235526 -5.69166 -5.69166
0.196088 -5.6678 -5.6678
0.195938 -5.69125 -5.69125
0.156205 -5.71432 -5.71432
0.155869 -5.76125 -5.76125
0.235085 -5.76204 -5.76204
0.235383 -5.71511 -5.71511
0.156039 -5.73778 -5.73778
0.195467 -5.76165 -5.76165
0.235236 -5.73857 -5.73857
0.195784 -5.71471 -5.71471
0.195627 -5.73818 -5.73818
0.155869 -5.76125 -5.76125
0.155522 -5.80821 -5.80821
0.234774 -5.80899 -5.80899
0.235085 -5.76204 -5.76204
0.155697 -5.78473 -5.78473
0.195138 -5.8086 -5.8086
0.234931 -5.78552 -5.78552
0.195467 -5.76165 -5.76165
0.195304 -5.78512 -5.78512
0.155522 -5.80821 -5.80821
0.155164 -5.85519 -5.85519
0.234448 -5.85596 -5.85596
0.234774 -5.80899 -5.80899
0.155345 -5.8317 -5.8317
0.194797 -5.85557 -5.85557
0.234612 -5.83248 -5.83248
0.195138 -5.8086 -5.8086
0.194969 -5.83208 -5.83208
0.155164 -5.85519 -5.85519
0.154796 -5.90218 -5.90218
0.234108 -5.90295 -5.90295
0.234448 -5.85596 -5.85596
0.154982 -5.87868 -5.87868
0.194443 -5.90256 -5.90256
0.23428 -5.87945 -5.87945
0.194797 -5.85557 -5.85557
0.194621 -5.87907 -5.87907
0.154796 -5.90218 -5.90218
0.154417 -5.94919 -5.94919
0.233756 -5.94995 -5.94995
0.234108 -5.90295 -5.90295
0.154608 -5.92568 -5.92568
0.194078 -5.94957 -5.94957
0.233934 -5.92645 -5.92645
0.194443 -5.90256 -5.90256
0.194262 -5.92606 -5.92606
0.154417 -5.94919 -5.94919
0.154027 -5.99621 -5.99621
0.233394 -5.99697 -5.99697
0.233756 -5.94995 -5.94995
0.154223 -5.97269 -5.97269
0.193702 -5.99658 -5.99658
0.233576 -5.97346 -5.97346
0.194078 -5.94957 -5.94957
0.193891 -5.97307 -5.97307
0.154027 -5.99621 -5.99621
0.153623 -6.04324 -6.04324
0.233023 -6.044 -6.044
0.233394 -5.99697 -5.99697
0.153827 -6.01972 -6.01972
0.193315 -6.04361 -6.04361
0.233209 -6.02048 -6.02048
0.193702 -5.99658 -5.99658
0.19351 -6.0201 -6.0201
0.153623 -6.04324 -6.04324
0.153207 -6.09029 -6.09029
0.232651 -6.09104 -6.09104
0.233023 -6.044 -6.044
0.153417 -6.06676 -6.06676
0.192917 -6.09067 -6.09067
0.232837 -6.06752 -6.06752
0.193315 -6.04361 -6.04361
0.193118 -6.06714 -6.06714
0.153207 -6.09029 -6.09029
0.152777 -6.13737 -6.13737
0.232291 -6.13814 -6.13814
0.232651 -6.09104 -6.09104
0.152993 -6.11383 -6.11383
0.192503 -6.13776 -6.13776
0.232468 -6.11458 -6.11458
0.192917 -6.09067 -6.09067
0.192713 -6.1142 -6.1142
0.152777 -6.13737 -6.13737
0.152354 -6.18447 -6.18447
0.231936 -6.18542 -6.18542
0.232291 -6.13814 -6.13814
0.152562 -6.16092 -6.16092
0.192074 -6.18494 -6.18494
0.232119 -6.16173 -6.16173
0.192503 -6.13776 -6.13776
0.192286 -6.16134 -6.16134
      </DataArray> 
      <DataArray type="Float64" NumberOfComponents="4" Name="CauchyStress" format="ascii">
-3264.84 -980.802 0 -774.933
-2106.8 39.5917 0 30.7878
-1572.8 -170.211 0 -86.6407
-1485.62 -446.281 0 -59.3663
-2342.75 46.0611 0 -108.244
-1960.48 -120.672 0 -112.089
-1543.41 -320.861 0 -100.769
-1745.81 -524.483 0 -188.445
-1935.9 -264.692 0 -176.342
-2106.8 39.5917 0 30.7878
-2087.2 22.6885 0 10.2741
-1596.26 -50.8997 0 -40.7294
-1572.8 -170.211 0 -86.6407
-2089.92 -7.33955 0 13.996
-1886.67 -17.687 0 -18.0033
-1594.93 -87.649 0 -62.1952
-1960.48 -120.672 0 -112.089
-1910.42 -43.4392 0 -44.8701
-2087.2 22.6885 0 10.2741
-2125.87 -7.36834 0 5.5921
-1576.17 -9.49494 0 -14.4655
-1596.26 -50.8997 0 -40.7294
-2109.5 14.6271 0 10.5169
-1861.88 -0.624839 0 -0.79848
-1584.2 -25.2718 0 -23.5233
-1886.67 -17.687 0 -18.0033
-1873.16 -6.71952 0 -8.15566
-2125.87 -7.36834 0 5.5921
-2135.13 2.17837 0 1.15807
-1562.41 -0.553049 0 -8.44174
-1576.17 -9.49494 0 -14.4655
-2131.08 -6.77913 0 0.609739
-1850.38 1.64606 0 1.93292
-1570.07 -2.98419 0 -10.4559
-1861.88 -0.624839 0 -0.79848
-1853.93 1.72535 0 2.53024
-2135.13 2.17837 0 1.15807
-2142.7 -2.43095 0 2.3655
-1548.63 2.77114 0 -7.94633
-1562.41 -0.553049 0 -8.44174
-2140.58 1.52646 0 2.67212
-1845.05 1.45871 0 -0.277814
-1554.4 1.59461 0 -7.62025
-1850.38 1.64606 0 1.93292
-1848.26 1.34599 0 0.460684
-2142.7 -2.43095 0 2.3655
-2139.47 0.373446 0 2.11098
-1539.11 2.19146 0 -9.66839
-1548.63 2.77114 0 -7.94633
-2141.29 -1.76086 0 1.70054
-1838.48 1.0175 0 -2.27559
-1544.02 2.65424 0 -8.85937
-1845.05 1.45871 0 -0.277814
-1841.57 1.38167 0 -1.14769
-2139.47 0.373446 0 2.11098
-2134.49 -0.505832 0 2.81237
-1529.9 1.60619 0 -11.0683
-1539.11 2.19146 0 -9.66839
-2137.61 0.29831 0 2.70279
-1831.5 0.520181 0 -3.77842
-1534.22 1.91529 0 -10.3709
-1838.48 1.0175 0 -2.27559
-1835.27 0.688251 0 -3.20164
-2134.49 -0.505832 0 2.81237
-2125.82 0.121892 0 3.07013
-1521.72 0.81077 0 -12.1594
-1529.9 1.60619 0 -11.0683
-2130.27 -0.336451 0 2.81604
-1823.34 0.241726 0 -4.63407
-1525.86 1.1828 0 -11.703
-1831.5 0.520181 0 -3.77842
-1827.44 0.393379 0 -4.24689
-2125.82 0.121892 0 3.07013
-2116.27 -0.0453936 0 3.52398
-1513.53 0.328492 0 -12.7208
-1521.72 0.81077 0 -12.1594
-2121.23 0.116135 0 3.35741
-1814.67 0.0296254 0 -5.01599
-1517.57 0.546923 0 -12.4803
-1823.34 0.241726 0 -4.63407
-1819.11 0.110043 0 -4.8862
-2116.27 -0.0453936 0 3.52398
-2105.68 0.0811194 0 3.86756
-1505.53 -0.0147415 0 -12.9816
-1513.53 0.328492 0 -12.7208
-2111.02 -0.0109444 0 3.66763
-1805.5 -0.070878 0 -5.10708
-1509.55 0.133745 0 -12.8915
-1814.67 0.0296254 0 -5.01599
-1810.1 -0.0223208 0 -5.08676
-2105.68 0.0811194 0 3.86756
-2094.79 0.0495923 0 4.24186
-1497.5 -0.199257 0 -13.0057
-1505.53 -0.0147415 0 -12.9816
-2100.28 0.0817987 0 4.06976
-1796.13 -0.135744 0 -5.01057
-1501.5 -0.119597 0 -13.0124
-1805.5 -0.070878 0 -5.10708
-1800.85 -0.111041 0 -5.0772
-2094.79 0.0495923 0 4.24186
-2083.66 0.0708898 0 4.58787
-1489.48 -0.304118 0 -12.9093
-1497.5 -0.199257 0 -13.0057
-2089.24 0.0545059 0 4.40939
-1786.6 -0.162059 0 -4.82034
-1493.49 -0.261081 0 -12.9706
-1796.13 -0.135744 0 -5.01057
-1791.37 -0.150154 0 -4.92375
-2083.66 0.0708898 0 4.58787
-2072.46 0.0636091 0 4.93289
-1481.45 -0.352001 0 -12.738
-1489.48 -0.304118 0 -12.9093
-2078.07 0.0706175 0 4.76438
-1777.01 -0.175572 0 -4.57678
-1485.46 -0.332612 0 -12.8293
-1786.6 -0.162059 0 -4.82034
-1781.81 -0.170975 0 -4.70295
-2072.46 0.0636091 0 4.93289
-2061.21 0.0648455 0 5.26773
-1473.41 -0.371946 0 -12.5334
-1481.45 -0.352001 0 -12.738
-2066.83 0.0630969 0 5.09983
-1767.38 -0.178336 0 -4.31186
-1477.43 -0.364856 0 -12.6388
-1777.01 -0.175572 0 -4.57678
-1772.2 -0.177327 0 -4.44598
-2061.21 0.0648455 0 5.26773
-2049.95 0.061639 0 5.59689
-1465.37 -0.375469 0 -12.3124
-1473.41 -0.371946 0 -12.5334
-2055.58 0.0638863 0 5.43373
-1757.74 -0.177591 0 -4.03803
-1469.39 -0.374978 0 -12.4239
-1767.38 -0.178336 0 -4.31186
-1762.56 -0.178488 0 -4.17538
-2049.95 0.061639 0 5.59689
-2038.68 0.0595743 0 5.91951
-1457.33 -0.371561 0 -12.0869
-1465.37 -0.375469 0 -12.3124
-2044.32 0.0603923 0 5.75872
-1748.09 -0.174479 0 -3.76386
-1461.35 -0.374213 0 -12.1999
-1757.74 -0.177591 0 -4.03803
-1752.91 -0.176091 0 -3.90073
-2038.68 0.0595743 0 5.91951
-2027.42 0.0570011 0 6.23615
-1449.28 -0.363941 0 -11.8616
-1457.33 -0.371561 0 -12.0869
-2033.05 0.0583977 0 6.07868
-1738.43 -0.170721 0 -3.49236
-1453.31 -0.368011 0 -11.974
-1748.09 -0.174479 0 -3.76386
-1743.26 -0.172696 0 -3.62762
-2027.42 0.0570011 0 6.23615
-2016.16 0.0544917 0 6.54692
-1441.24 -0.354936 0 -11.6391
-1449.28 -0.363941 0 -11.8616
-2021.79 0.0557125 0 6.39223
-1728.78 -0.166666 0 -3.22531
-1445.26 -0.359552 0 -11.7499
-1738.43 -0.170721 0 -3.49236
-1733.61 -0.16868 0 -3.35823
-2016.16 0.0544917 0 6.54692
-2004.9 0.0519507 0 6.85187
-1433.19 -0.345443 0 -11.4205
-1441.24 -0.354936 0 -11.6391
-2010.53 0.0532396 0 6.70013
-1719.12 -0.162637 0 -2.96317
-1437.21 -0.350207 0 -11.5293
-1728.78 -0.166666 0 -3.22531
-1723.95 -0.164653 0 -3.0936
-2004.9 0.0519507 0 6.85187
-1993.64 0.0493472 0 7.15109
-1425.14 -0.335931 0 -11.2061
-1433.19 -0.345443 0 -11.4205
-1999.27 0.0506496 0 7.00219
-1709.47 -0.158697 0 -2.70614
-1429.17 -0.340679 0 -11.3128
-1719.12 -0.162637 0 -2.96317
-1714.3 -0.160647 0 -2.83401
-1993.64 0.0493472 0 7.15109
-1982.39 0.046718 0 7.44459
-1417.09 -0.32654 0 -10.9959
-1425.14 -0.335931 0 -11.2061
-1988.02 0.0480393 0 7.29855
-1699.82 -0.154878 0 -2.45417
-1421.12 -0.331214 0 -11.1005
-1709.47 -0.158697 0 -2.70614
-1704.64 -0.156775 0 -2.57952
-1982.39 0.046718 0 7.44459
-1971.13 0.0440218 0 7.73242
-1409.05 -0.317318 0 -10.79
-1417.09 -0.32654 0 -10.9959
-1976.76 0.0453764 0 7.58921
-1690.16 -0.151177 0 -2.20722
-1413.07 -0.321908 0 -10.8924
-1699.82 -0.154878 0 -2.45417
-1694.99 -0.153013 0 -2.33007
-1971.13 0.0440218 0 7.73242
-1959.87 0.0412807 0 8.01461
-1401 -0.30826 0 -10.5882
-1409.05 -0.317318 0 -10.79
-1965.5 0.0426575 0 7.87422
-1680.51 -0.147585 0 -1.9652
-1405.02 -0.31277 0 -10.6886
-1690.16 -0.151177 0 -2.20722
-1685.34 -0.149369 0 -2.0856
-1959.87 0.0412807 0 8.01461
-1948.61 0.03848 0 8.2912
-1392.95 -0.29935 0 -10.3905
-1401 -0.30826 0 -10.5882
-1954.24 0.0398872 0 8.15361
-1670.86 -0.144091 0 -1.72804
-1396.97 -0.303788 0 -10.4889
-1680.51 -0.147585 0 -1.9652
-1675.68 -0.145826 0 -1.84601
-1948.61 0.03848 0 8.2912
-1937.36 0.0356293 0 8.56221
-1384.9 -0.290569 0 -10.1969
-1392.95 -0.29935 0 -10.3905
-1942.99 0.0370608 0 8.4274
-1661.2 -0.140687 0 -1.4957
-1388.93 -0.294944 0 -10.2932
-1670.86 -0.144091 0 -1.72804
-1666.03 -0.142378 0 -1.61127
-1937.36 0.0356293 0 8.56221
-1926.1 0.0327265 0 8.82768
-1376.85 -0.281905 0 -10.0072
-1384.9 -0.290569 0 -10.1969
-1931.73 0.0341842 0 8.69563
-1651.55 -0.137365 0 -1.26813
-1380.88 -0.286223 0 -10.1015
-1661.2 -0.140687 0 -1.4957
-1656.38 -0.139016 0 -1.38132
-1926.1 0.0327265 0 8.82768
-1914.84 0.0297766 0 9.08763
-1368.81 -0.273347 0 -9.82146
-1376.85 -0.281905 0 -10.0072
-1920.47 0.0312573 0 8.95834
-1641.9 -0.134121 0 -1.04529
-1372.83 -0.277613 0 -9.91383
-1651.55 -0.137365 0 -1.26813
-1646.72 -0.135734 0 -1.15612
-1914.84 0.0297766 0 9.08763
-1903.58 0.0267813 0 9.34211
-1360.76 -0.264888 0 -9.63966
-1368.81 -0.273347 0 -9.82146
-1909.21 0.0282844 0 9.21555
-1632.24 -0.130951 0 -0.827159
-1364.78 -0.269105 0 -9.73007
-1641.9 -0.134121 0 -1.04529
-1637.07 -0.132527 0 -0.935641
-1903.58 0.0267813 0 9.34211
-1892.32 0.0237444 0 9.59113
-1352.71 -0.256522 0 -9.46175
-1360.76 -0.264888 0 -9.63966
-1897.95 0.0252679 0 9.4673
-1622.59 -0.12785 0 -0.613695
-1356.73 -0.260693 0 -9.55022
-1632.24 -0.130951 0 -0.827159
-1627.42 -0.129392 0 -0.719845
-1892.32 0.0237444 0 9.59113
-1881.07 0.0206684 0 9.83474
-1344.66 -0.248247 0 -9.28771
-1352.71 -0.256522 0 -9.46175
-1886.7 0.0222111 0 9.71361
-1612.94 -0.124816 0 -0.404874
-1348.68 -0.252374 0 -9.37425
-1622.59 -0.12785 0 -0.613695
-1617.76 -0.126325 0 -0.508706
-1881.07 0.0206684 0 9.83474
-1869.81 0.0175567 0 10.073
-1336.61 -0.240059 0 -9.11751
-1344.66 -0.248247 0 -9.28771
-1875.44 0.0191169 0 9.95452
-1603.28 -0.121846 0 -0.200667
-1340.64 -0.244143 0 -9.20213
-1612.94 -0.124816 0 -0.404874
-1608.11 -0.123323 0 -0.302195
-1869.81 0.0175567 0 10.073
-1858.55 0.0144122 0 10.3058
-1328.56 -0.231956 0 -8.95114
-1336.61 -0.240059 0 -9.11751
-1864.18 0.0159884 0 10.1901
-1593.63 -0.118937 0 -0.00104682
-1332.59 -0.235997 0 -9.03385
-1603.28 -0.121846 0 -0.200667
-1598.45 -0.120384 0 -0.100285
-1858.55 0.0144122 0 10.3058
-1847.29 0.0112377 0 10.5334
-1320.51 -0.223935 0 -8.78857
-1328.56 -0.231956 0 -8.95114
-1852.92 0.0128285 0 10.4203
-1583.97 -0.116087 0 0.194014
-1324.54 -0.227936 0 -8.86938
-1593.63 -0.118937 0 -0.00104682
-1588.8 -0.117505 0 0.0970517
-1847.29 0.0112377 0 10.5334
-1836.03 0.0080363 0 10.7557
-1312.47 -0.215995 0 -8.62977
-1320.51 -0.223935 0 -8.78857
-1841.66 0.00964021 0 10.6452
-1574.32 -0.113293 0 0.384543
-1316.49 -0.219955 0 -8.7087
-1583.97 -0.116087 0 0.194014
-1579.15 -0.114683 0 0.289843
-1836.03 0.00803631 0 10.7557
-1824.77 0.00481076 0 10.9727
-1304.42 -0.208133 0 -8.47473
-1312.47 -0.215995 0 -8.62977
-1830.4 0.00642638 0 10.8648
-1564.66 -0.110553 0 0.570567
-1308.44 -0.212054 0 -8.55178
-1574.32 -0.113293 0 0.384543
-1569.49 -0.111916 0 0.478116
-1824.77 0.00481076 0 10.9727
-1813.51 0.00156386 0 11.1845
-1296.37 -0.200347 0 -8.32342
-1304.42 -0.208133 0 -8.47473
-1819.14 0.0031898 0 11.0792
-1555.01 -0.107865 0 0.752114
-1300.39 -0.204231 0 -8.39861
-1564.66 -0.110553 0 0.570567
-1559.84 -0.109203 0 0.661898
-1813.51 0.00156386 0 11.1845
-1802.25 -0.00170163 0 11.3911
-1288.32 -0.192636 0 -8.17581
-1296.37 -0.200347 0 -8.32342
-1807.88 -6.67144e-05 0 11.2884
-1545.35 -0.105225 0 0.929211
-1292.34 -0.196482 0 -8.24915
-1555.01 -0.107865 0 0.752114
-1550.18 -0.106539 0 0.841217
-1802.25 -0.00170163 0 11.3911
-1790.99 -0.00498304 0 11.5925
-1280.27 -0.184998 0 -8.03189
-1288.32 -0.192636 0 -8.17581
-1796.62 -0.00334052 0 11.4924
-1535.7 -0.102633 0 1.10189
-1284.29 -0.188808 0 -8.10339
-1545.35 -0.105225 0 0.929211
-1540.53 -0.103924 0 1.0161
-1790.99 -0.00498304 0 11.5925
-1779.73 -0.0082777 0 11.7888
-1272.22 -0.17743 0 -7.89164
-1280.27 -0.184998 0 -8.03189
-1785.36 -0.00662886 0 11.6913
-1526.04 -0.100086 0 1.27017
-1276.24 -0.181205 0 -7.96131
-1535.7 -0.102633 0 1.10189
-1530.87 -0.101354 0 1.18657
-1779.73 -0.0082777 0 11.7888
-1768.47 -0.011583 0 11.98
-1264.17 -0.169932 0 -7.75502
-1272.22 -0.17743 0 -7.89164
-1774.1 -0.00992921 0 11.885
-1516.39 -0.0975805 0 1.43408
-1268.19 -0.173673 0 -7.82288
-1526.04 -0.100086 0 1.27017
-1521.22 -0.0988279 0 1.35267
-1768.47 -0.011583 0 11.98
-1757.21 -0.0148965 0 12.1662
-1256.12 -0.162501 0 -7.62202
-1264.17 -0.169932 0 -7.75502
-1762.84 -0.0132389 0 12.0737
-1506.73 -0.0951157 0 1.59365
-1260.15 -0.166208 0 -7.68807
-1516.39 -0.0975805 0 1.43408
-1511.56 -0.0963432 0 1.51441
-1757.21 -0.0148965 0 12.1662
-1745.95 -0.0182156 0 12.3473
-1248.07 -0.155135 0 -7.49261
-1256.12 -0.162501 0 -7.62202
-1751.58 -0.0165555 0 12.2574
-1497.08 -0.092689 0 1.74892
-1252.1 -0.15881 0 -7.55687
-1506.73 -0.0951157 0 1.59365
-1501.9 -0.0938977 0 1.67182
-1745.95 -0.0182156 0 12.3473
-1734.69 -0.0215379 0 12.5234
-1240.02 -0.147833 0 -7.36678
-1248.07 -0.155135 0 -7.49261
-1740.32 -0.0198765 0 12.436
-1487.42 -0.0902984 0 1.89989
-1244.05 -0.151476 0 -7.42925
-1497.08 -0.092689 0 1.74892
-1492.25 -0.0914893 0 1.82494
-1734.69 -0.0215379 0 12.5234
-1723.43 -0.0248609 0 12.6946
-1231.97 -0.140594 0 -7.24449
-1240.02 -0.147833 0 -7.36678
-1729.06 -0.0231994 0 12.6096
-1477.77 -0.0879419 0 2.04661
-1236 -0.144206 0 -7.30519
-1487.42 -0.0902984 0 1.89989
-1482.59 -0.089116 0 1.97378
-1723.43 -0.0248609 0 12.6946
-1712.17 -0.0281823 0 12.8608
-1223.92 -0.133414 0 -7.12573
-1231.97 -0.140594 0 -7.24449
-1717.8 -0.026522 0 12.7783
-1468.11 -0.0856174 0 2.18911
-1227.95 -0.136997 0 -7.18467
-1477.77 -0.0879419 0 2.04661
-1472.94 -0.0867758 0 2.11839
-1712.17 -0.0281823 0 12.8608
-1700.91 -0.0314999 0 13.0221
-1215.87 -0.126294 0 -7.01046
-1223.92 -0.133414 0 -7.12573
-1706.54 -0.0298417 0 12.9421
-1458.45 -0.083323 0 2.3274
-1219.9 -0.129847 0 -7.06766
-1468.11 -0.0856174 0 2.18911
-1463.28 -0.0844665 0 2.25878
-1700.91 -0.0314999 0 13.0221
-1689.65 -0.0348113 0 13.1786
-1207.82 -0.119231 0 -6.89868
-1215.87 -0.126294 0 -7.01046
-1695.28 -0.0331565 0 13.101
-1448.8 -0.0810566 0 2.46151
-1211.85 -0.122755 0 -6.95414
-1458.45 -0.083323 0 2.3274
-1453.63 -0.0821864 0 2.39497
-1689.65 -0.0348113 0 13.1786
-1678.38 -0.0381143 0 13.3302
-1199.77 -0.112223 0 -6.79035
-1207.82 -0.119231 0 -6.89868
-1684.02 -0.036464 0 13.255
-1439.14 -0.0788166 0 2.59148
-1203.8 -0.11572 0 -6.84409
-1448.8 -0.0810566 0 2.46151
-1443.97 -0.0799334 0 2.52701
-1678.38 -0.0381143 0 13.3302
-1667.12 -0.0414068 0 13.477
-1191.72 -0.10527 0 -6.68546
-1199.77 -0.112223 0 -6.79035
-1672.75 -0.0397621 0 13.4042
-1429.49 -0.0766008 0 2.71733
-1195.75 -0.10874 0 -6.73748
-1439.14 -0.0788166 0 2.59148
-1434.31 -0.0777058 0 2.65492
-1667.12 -0.0414068 0 13.477
-1655.86 -0.0446866 0 13.6191
-1183.67 -0.0983691 0 -6.58397
-1191.72 -0.10527 0 -6.68546
-1661.49 -0.0430484 0 13.5486
-1419.83 -0.0744077 0 2.83909
-1187.7 -0.101813 0 -6.63429
-1429.49 -0.0766008 0 2.71733
-1424.66 -0.0755015 0 2.77872
-1655.86 -0.0446866 0 13.6191
-1644.6 -0.0479517 0 13.7564
-1175.62 -0.0915196 0 -6.48587
-1183.67 -0.0983691 0 -6.58397
-1650.23 -0.0463212 0 13.6883
-1410.17 -0.0722354 0 2.95679
-1179.65 -0.0949381 0 -6.5345
-1419.83 -0.0744077 0 2.83909
-1415 -0.0733191 0 2.89845
-1644.6 -0.0479517 0 13.7564
-1633.34 -0.0512 0 13.889
-1167.57 -0.0847198 0 -6.39114
-1175.62 -0.0915196 0 -6.48587
-1638.97 -0.049578 0 13.8233
-1400.52 -0.0700822 0 3.07045
-1171.6 -0.0881135 0 -6.43808
-1410.17 -0.0722354 0 2.95679
-1405.35 -0.0711565 0 3.01412
-1633.34 -0.0512 0 13.889
-1622.08 -0.0544295 0 14.0169
-1159.52 -0.0779683 0 -6.29974
-1167.57 -0.0847198 0 -6.39114
-1627.71 -0.0528172 0 13.9535
-1390.86 -0.0679463 0 3.1801
-1163.55 -0.0813381 0 -6.34502
-1400.52 -0.0700822 0 3.07045
-1395.69 -0.0690122 0 3.12578
-1622.08 -0.0544295 0 14.0169
-1610.81 -0.0576382 0 14.1402
-1151.47 -0.0712637 0 -6.21166
-1159.52 -0.0779683 0 -6.29974
-1616.45 -0.0560365 0 14.0791
-1381.2 -0.0658261 0 3.28577
-1155.5 -0.0746102 0 -6.25529
-1390.86 -0.0679463 0 3.1801
-1386.03 -0.0668843 0 3.23343
-1610.81 -0.0576382 0 14.1402
-1599.55 -0.0608243 0 14.2588
-1143.42 -0.0646048 0 -6.12688
-1151.47 -0.0712637 0 -6.21166
-1605.18 -0.0592342 0 14.2001
-1371.55 -0.06372 0 3.38749
-1147.45 -0.0679286 0 -6.16886
-1381.2 -0.0658261 0 3.28577
-1376.38 -0.0647714 0 3.33712
-1599.55 -0.0608243 0 14.2588
-1588.29 -0.063986 0 14.3729
-1135.37 -0.0579902 0 -6.04537
-1143.42 -0.0646048 0 -6.12688
-1593.92 -0.0624083 0 14.3164
-1361.89 -0.0616264 0 3.48528
-1139.4 -0.061292 0 -6.08572
-1371.55 -0.06372 0 3.38749
-1366.72 -0.0626717 0 3.43688
-1588.29 -0.063986 0 14.3729
-1577.03 -0.0671213 0 14.4824
-1127.32 -0.0514186 0 -5.96711
-1135.37 -0.0579902 0 -6.04537
-1582.66 -0.065557 0 14.4282
-1352.23 -0.0595437 0 3.57918
-1131.35 -0.0546991 0 -6.00583
-1361.89 -0.0616264 0 3.48528
-1357.06 -0.0605838 0 3.53272
-1577.03 -0.0671213 0 14.4824
-1565.77 -0.0702286 0 14.5875
-1119.27 -0.0448888 0 -5.89207
-1127.32 -0.0514186 0 -5.96711
-1571.4 -0.0686785 0 14.5355
-1342.58 -0.0574705 0 3.6692
-1123.3 -0.0481486 0 -5.92919
-1352.23 -0.0595437 0 3.57918
-1347.41 -0.058506 0 3.62467
-1565.77 -0.0702286 0 14.5875
-1554.5 -0.073306 0 14.688
-1111.22 -0.0383996 0 -5.82023
-1119.27 -0.0448888 0 -5.89207
-1560.13 -0.0717711 0 14.6383
-1332.92 -0.0554052 0 3.75538
-1115.25 -0.0416392 0 -5.85575
-1342.58 -0.0574705 0 3.6692
-1337.75 -0.056437 0 3.71277
-1554.5 -0.073306 0 14.688
-1543.24 -0.0763519 0 14.7841
-1103.17 -0.0319497 0 -5.75158
-1111.22 -0.0383996 0 -5.82023
-1548.87 -0.074833 0 14.7366
-1323.26 -0.0533465 0 3.83775
-1107.2 -0.0351698 0 -5.78551
-1332.92 -0.0554052 0 3.75538
-1328.09 -0.0543751 0 3.79704
-1543.24 -0.0763519 0 14.7841
-1531.98 -0.0793646 0 14.8758
-1095.12 -0.025538 0 -5.68608
-1103.17 -0.0319497 0 -5.75158
-1537.61 -0.0778625 0 14.8305
-1313.61 -0.0512929 0 3.91633
-1099.15 -0.0287391 0 -5.71844
-1323.26 -0.0533465 0 3.83775
-1318.43 -0.0523191 0 3.87751
-1531.98 -0.0793646 0 14.8758
-1520.71 -0.0823426 0 14.9631
-1087.07 -0.0191634 0 -5.62372
-1095.12 -0.025538 0 -5.68608
-1526.35 -0.0808581 0 14.92
-1303.95 -0.049243 0 3.99115
-1091.1 -0.0223462 0 -5.65451
-1313.61 -0.0512929 0 3.91633
-1308.78 -0.0502676 0 3.95421
-1520.71 -0.0823426 0 14.9631
-1509.45 -0.0852843 0 15.046
-1079.02 -0.0128248 0 -5.56446
-1087.07 -0.0191634 0 -5.62372
-1515.08 -0.0838181 0 15.0051
-1294.29 -0.0471956 0 4.06224
-1083.05 -0.0159897 0 -5.5937
-1303.95 -0.049243 0 3.99115
-1299.12 -0.0482191 0 4.02716
-1509.45 -0.0852843 0 15.046
-1498.19 -0.0881881 0 15.1246
-1070.97 -0.00652116 0 -5.50829
-1079.02 -0.0128248 0 -5.56446
-1503.82 -0.0867411 0 15.0858
-1284.64 -0.0451492 0 4.12962
-1075 -0.0096687 0 -5.53599
-1294.29 -0.0471956 0 4.06224
-1289.46 -0.0461723 0 4.09639
-1498.19 -0.0881881 0 15.1246
-1486.93 -0.0910526 0 15.1989
-1062.92 -0.000251344 0 -5.45519
-1070.97 -0.00652116 0 -5.50829
-1492.56 -0.0896254 0 15.1623
-1274.98 -0.0431028 0 4.19332
-1066.95 -0.00338208 0 -5.48136
-1284.64 -0.0451492 0 4.12962
-1279.81 -0.0441261 0 4.16193
-1486.93 -0.0910526 0 15.1989
-1475.66 -0.0938764 0 15.269
-1054.87 0.00598561 0 -5.40513
-1062.92 -0.000251345 0 -5.45519
-1481.29 -0.0924697 0 15.2345
-1265.32 -0.0410549 0 4.25338
-1058.9 0.00287119 0 -5.42978
-1274.98 -0.0431028 0 4.19332
-1270.15 -0.0420791 0 4.2238
-1475.66 -0.0938764 0 15.269
-1464.4 -0.0966579 0 15.3348
-1046.82 0.0121907 0 -5.35809
-1054.87 0.00598561 0 -5.40513
-1470.03 -0.0952725 0 15.3024
-1255.66 -0.0390045 0 4.30981
-1050.85 0.00909208 0 -5.38123
-1265.32 -0.0410549 0 4.25338
-1260.49 -0.0400301 0 4.28205
-1464.4 -0.0966579 0 15.3348
-1453.14 -0.0993959 0 15.3965
-1038.77 0.0183649 0 -5.31404
-1046.82 0.0121907 0 -5.35809
-1458.77 -0.0980324 0 15.3662
-1246.01 -0.0369504 0 4.36265
-1042.79 0.0152816 0 -5.33569
-1255.66 -0.0390045 0 4.30981
-1250.83 -0.037978 0 4.33668
-1453.14 -0.0993959 0 15.3965
-1441.87 -0.102089 0 15.4539
-1030.72 0.024509 0 -5.27297
-1038.77 0.0183649 0 -5.31404
-1447.5 -0.100748 0 15.4257
-1236.35 -0.0348914 0 4.41192
-1034.74 0.0214406 0 -5.29313
-1246.01 -0.0369504 0 4.36265
-1241.18 -0.0359216 0 4.38773
-1441.87 -0.102089 0 15.4539
-1430.61 -0.104736 0 15.5073
-1022.67 0.0306241 0 -5.23484
-1030.72 0.024509 0 -5.27297
-1436.24 -0.103418 0 15.4811
-1226.69 -0.0328265 0 4.45766
-1026.69 0.0275702 0 -5.25354
-1236.35 -0.0348914 0 4.41192
-1231.52 -0.0338598 0 4.43523
-1430.61 -0.104736 0 15.5073
-1419.34 -0.107336 0 15.5566
-1014.62 0.036711 0 -5.19964
-1022.67 0.0306241 0 -5.23484
-1424.98 -0.106042 0 15.5324
-1217.03 -0.0307546 0 4.49988
-1018.64 0.033671 0 -5.21688
-1226.69 -0.0328265 0 4.45766
-1221.86 -0.0317915 0 4.47921
-1419.34 -0.107336 0 15.5566
-1408.08 -0.109887 0 15.6018
-1006.57 0.0427705 0 -5.16735
-1014.62 0.036711 0 -5.19964
-1413.71 -0.108617 0 15.5797
-1207.38 -0.0286747 0 4.53862
-1010.59 0.0397441 0 -5.18313
-1217.03 -0.0307546 0 4.49988
-1212.2 -0.0297157 0 4.51968
-1408.08 -0.109887 0 15.6018
-1396.82 -0.112388 0 15.6429
-998.517 0.0488035 0 -5.13793
-1006.57 0.0427705 0 -5.16735
-1402.45 -0.111144 0 15.6228
-1197.72 -0.0265858 0 4.5739
-1002.54 0.0457903 0 -5.15228
-1207.38 -0.0286747 0 4.53862
-1202.55 -0.0276314 0 4.55669
-1396.82 -0.112388 0 15.6429
-1385.55 -0.114838 0 15.6801
-990.466 0.0548107 0 -5.11137
-998.517 0.0488035 0 -5.13793
-1391.19 -0.113619 0 15.662
-1188.06 -0.0244868 0 4.60576
-994.491 0.0518102 0 -5.1243
-1197.72 -0.0265858 0 4.5739
-1192.89 -0.0255376 0 4.59026
-1385.55 -0.114838 0 15.6801
-1374.29 -0.117237 0 15.7133
-982.415 0.0607928 0 -5.08765
-990.466 0.0548107 0 -5.11137
-1379.92 -0.116044 0 15.6972
-1178.4 -0.022377 0 4.63421
-986.441 0.0578048 0 -5.09916
-1188.06 -0.0244868 0 4.60576
-1183.23 -0.0234333 0 4.62041
-1374.29 -0.117237 0 15.7133
-1363.03 -0.119582 0 15.7425
-974.365 0.0667508 0 -5.06674
-982.415 0.0607928 0 -5.08765
-1368.66 -0.118416 0 15.7284
-1168.75 -0.0202554 0 4.65929
-978.39 0.0637748 0 -5.07684
-1178.4 -0.022377 0 4.63421
-1173.57 -0.0213177 0 4.64717
-1363.03 -0.119582 0 15.7425
-1351.76 -0.121873 0 15.7679
-966.314 0.0726852 0 -5.04862
-974.365 0.0667508 0 -5.06674
-1357.39 -0.120734 0 15.7557
-1159.09 -0.0181211 0 4.68103
-970.339 0.0697209 0 -5.05733
-1168.75 -0.0202554 0 4.65929
-1163.92 -0.0191899 0 4.67058
-1351.76 -0.121873 0 15.7679
-1340.5 -0.124109 0 15.7894
-958.263 0.0785967 0 -5.03326
-966.314 0.0726852 0 -5.04862
-1346.13 -0.122998 0 15.7791
-1149.43 -0.0159733 0 4.69944
-962.289 0.0756437 0 -5.04059
-1159.09 -0.0181211 0 4.68103
-1154.26 -0.0170489 0 4.69065
-1340.5 -0.124109 0 15.7894
-1329.23 -0.126289 0 15.807
-950.213 0.084486 0 -5.02064
-958.263 0.0785967 0 -5.03326
-1334.86 -0.125206 0 15.7987
-1139.77 -0.0138112 0 4.71457
-954.238 0.0815441 0 -5.02661
-1149.43 -0.0159733 0 4.69944
-1144.6 -0.0148941 0 4.70742
-1329.23 -0.126289 0 15.807
-1317.97 -0.128413 0 15.8209
-942.162 0.0903538 0 -5.01074
-950.213 0.084486 0 -5.02064
-1323.6 -0.127358 0 15.8144
-1130.11 -0.011634 0 4.72643
-946.187 0.0874225 0 -5.01535
-1139.77 -0.0138112 0 4.71457
-1134.94 -0.0127245 0 4.72091
-1317.97 -0.128413 0 15.8209
-1306.7 -0.130478 0 15.831
-934.111 0.0962006 0 -5.00354
-942.162 0.0903538 0 -5.01074
-1312.34 -0.129453 0 15.8264
-1120.46 -0.00944099 0 4.73506
-938.137 0.0932797 0 -5.00681
-1130.11 -0.011634 0 4.72643
-1125.28 -0.0105395 0 4.73115
-1306.7 -0.130478 0 15.831
-1295.44 -0.132485 0 15.8373
-926.061 0.102027 0 -4.99902
-934.111 0.0962006 0 -5.00354
-1301.07 -0.131489 0 15.8346
-1110.8 -0.00723147 0 4.74048
-930.086 0.0991163 0 -5.00095
-1120.46 -0.00944099 0 4.73506
-1115.63 -0.00833833 0 4.73817
-1295.44 -0.132485 0 15.8373
-1284.18 -0.134433 0 15.8399
-918.01 0.107834 0 -4.99714
-926.061 0.102027 0 -4.99902
-1289.81 -0.133466 0 15.8391
-1101.14 -0.00500475 0 4.74272
-922.035 0.104933 0 -4.99775
-1110.8 -0.00723147 0 4.74048
-1105.97 -0.0061203 0 4.742
-1284.18 -0.134433 0 15.8399
-1272.91 -0.13632 0 15.8388
-909.959 0.113621 0 -4.99789
-918.01 0.107834 0 -4.99714
-1278.54 -0.135384 0 15.8398
-1091.48 -0.00276015 0 4.74181
-913.985 0.11073 0 -4.99719
-1101.14 -0.00500475 0 4.74272
-1096.31 -0.00388472 0 4.74266
-1272.91 -0.13632 0 15.8388
-1261.65 -0.138146 0 15.8341
-901.908 0.119389 0 -5.00124
-909.959 0.113621 0 -4.99789
-1267.28 -0.137241 0 15.8369
-1081.82 -0.000497092 0 4.73778
-905.934 0.116507 0 -4.99924
-1091.48 -0.00276015 0 4.74181
-1086.65 -0.00163097 0 4.74018
-1261.65 -0.138146 0 15.8341
-1250.38 -0.139911 0 15.8258
-893.858 0.12514 0 -5.00718
-901.908 0.119389 0 -5.00124
-1256.01 -0.139036 0 15.8304
-1072.17 0.00178504 0 4.73064
-897.883 0.122267 0 -5.00389
-1081.82 -0.000497092 0 4.73778
-1076.99 0.000641558 0 4.7346
-1250.38 -0.139911 0 15.8258
-1239.12 -0.141614 0 15.8139
-885.807 0.130872 0 -5.01567
-893.858 0.12514 0 -5.00718
-1244.75 -0.14077 0 15.8203
-1062.51 0.00408681 0 4.72044
-889.832 0.128008 0 -5.01111
-1072.17 0.00178504 0 4.73064
-1067.34 0.00293344 0 4.72592
-1239.12 -0.141614 0 15.8139
-1227.85 -0.143253 0 15.7985
-877.756 0.136587 0 -5.0267
-885.807 0.130872 0 -5.01567
-1233.48 -0.142441 0 15.8067
-1052.85 0.00640874 0 4.7072
-881.782 0.133732 0 -5.02087
-1062.51 0.00408681 0 4.72044
-1057.68 0.00524523 0 4.7142
-1227.85 -0.143253 0 15.7985
-1216.59 -0.144829 0 15.7795
-869.705 0.142285 0 -5.04024
-877.756 0.136587 0 -5.0267
-1222.22 -0.144049 0 15.7894
-1043.19 0.00875135 0 4.69094
-873.731 0.139438 0 -5.03316
-1052.85 0.00640875 0 4.7072
-1048.02 0.00757743 0 4.69944
-1216.59 -0.144829 0 15.7795
-1205.32 -0.146341 0 15.7571
-861.655 0.147966 0 -5.05627
-869.705 0.142285 0 -5.04024
-1210.95 -0.145593 0 15.7687
-1033.53 0.0111151 0 4.67169
-865.68 0.145128 0 -5.04795
-1043.19 0.00875135 0 4.69094
-1038.36 0.00993055 0 4.68169
-1205.32 -0.146341 0 15.7571
-1194.06 -0.147789 0 15.7312
-853.604 0.153632 0 -5.07477
-861.655 0.147966 0 -5.05627
-1199.69 -0.147073 0 15.7446
-1023.87 0.0135005 0 4.64949
-857.629 0.150801 0 -5.06521
-1033.53 0.0111151 0 4.67169
-1028.7 0.0123051 0 4.66096
-1194.06 -0.147789 0 15.7312
-1182.79 -0.149171 0 15.7019
-845.553 0.159281 0 -5.09571
-853.604 0.153632 0 -5.07477
-1188.42 -0.148488 0 15.717
-1014.22 0.0159078 0 4.62436
-849.578 0.156458 0 -5.08493
-1023.87 0.0135005 0 4.64949
-1019.05 0.0147014 0 4.63729
-1182.79 -0.149171 0 15.7019
-1171.53 -0.150488 0 15.6692
-837.502 0.164915 0 -5.11907
-845.553 0.159281 0 -5.09571
-1177.16 -0.149838 0 15.6859
-1004.56 0.0183376 0 4.59632
-841.528 0.1621 0 -5.10709
-1014.22 0.0159078 0 4.62436
-1009.39 0.0171199 0 4.6107
-1171.53 -0.150488 0 15.6692
-1160.26 -0.151738 0 15.6331
-829.451 0.170533 0 -5.14482
-837.502 0.164915 0 -5.11907
-1165.89 -0.151121 0 15.6516
-994.899 0.0207902 0 4.5654
-833.477 0.167726 0 -5.13165
-1004.56 0.0183376 0 4.59632
-999.728 0.019561 0 4.58122
-1160.26 -0.151738 0 15.6331
-1149 -0.152923 0 15.5937
-821.401 0.176137 0 -5.17295
-829.451 0.170533 0 -5.14482
-1154.63 -0.152339 0 15.6138
-985.241 0.0232659 0 4.53164
-825.426 0.173337 0 -5.15859
-994.899 0.0207902 0 4.5654
-990.07 0.0220251 0 4.54888
-1149 -0.152923 0 15.5937
-1137.73 -0.15404 0 15.5511
-813.35 0.181725 0 -5.20343
-821.401 0.176137 0 -5.17295
-1143.36 -0.15349 0 15.5728
-975.582 0.025765 0 4.49506
-817.375 0.178933 0 -5.1879
-985.241 0.0232659 0 4.53164
-980.412 0.0245125 0 4.5137
-1137.73 -0.15404 0 15.5511
-1126.46 -0.155091 0 15.5051
-805.299 0.1873 0 -5.23624
-813.35 0.181725 0 -5.20343
-1132.1 -0.154574 0 15.5285
-965.924 0.0282878 0 4.45568
-809.324 0.184514 0 -5.21955
-975.582 0.025765 0 4.49506
-970.753 0.0270234 0 4.47572
-1126.46 -0.155091 0 15.5051
-1115.2 -0.156074 0 15.456
-797.248 0.19286 0 -5.27136
-805.299 0.1873 0 -5.23624
-1120.83 -0.155591 0 15.481
-956.265 0.0308346 0 4.41354
-801.274 0.190081 0 -5.25351
-965.924 0.0282878 0 4.45568
-961.095 0.0295582 0 4.43495
-1115.2 -0.156074 0 15.456
-1103.93 -0.156989 0 15.4036
-789.197 0.198406 0 -5.30875
-797.248 0.19286 0 -5.27136
-1109.57 -0.15654 0 15.4302
-946.607 0.0334057 0 4.36866
-793.223 0.195634 0 -5.28977
-956.265 0.0308346 0 4.41354
-951.436 0.0321171 0 4.39144
-1103.93 -0.156989 0 15.4036
-1092.67 -0.157836 0 15.3481
-781.147 0.203937 0 -5.34841
-789.197 0.198406 0 -5.30875
-1098.3 -0.157421 0 15.3763
-936.948 0.0360011 0 4.32107
-785.172 0.201173 0 -5.3283
-946.607 0.0334057 0 4.36866
-941.778 0.0347003 0 4.3452
-1092.67 -0.157836 0 15.3481
-1081.4 -0.158615 0 15.2895
-773.096 0.209456 0 -5.3903
-781.147 0.203937 0 -5.34841
-1087.03 -0.158234 0 15.3192
-927.29 0.0386212 0 4.27079
-777.121 0.206698 0 -5.36907
-936.948 0.0360011 0 4.32107
-932.119 0.0373081 0 4.29626
-1081.4 -0.158615 0 15.2895
-1070.14 -0.159326 0 15.2277
-765.045 0.21496 0 -5.4344
-773.096 0.209456 0 -5.3903
-1075.77 -0.158979 0 15.259
-917.631 0.041266 0 4.21787
-769.07 0.212209 0 -5.41207
-927.29 0.0386212 0 4.27079
-922.46 0.0399405 0 4.24466
-1070.14 -0.159326 0 15.2277
-1058.87 -0.159968 0 15.1629
-756.994 0.220451 0 -5.48069
-765.045 0.21496 0 -5.4344
-1064.5 -0.159655 0 15.1957
-907.973 0.0439358 0 4.16231
-761.02 0.217707 0 -5.45728
-917.631 0.041266 0 4.21787
-912.802 0.0425978 0 4.19041
-1058.87 -0.159968 0 15.1629
-1047.6 -0.160541 0 15.0951
-748.943 0.225928 0 -5.52915
-756.994 0.220451 0 -5.48069
-1053.24 -0.160263 0 15.1294
-898.314 0.0466305 0 4.10415
-752.969 0.223191 0 -5.50466
-907.973 0.0439358 0 4.16231
-903.143 0.04528 0 4.13356
-1047.6 -0.160541 0 15.0951
-1036.34 -0.161046 0 15.0243
-740.892 0.231392 0 -5.57976
-748.943 0.225928 0 -5.52915
-1041.97 -0.160802 0 15.0601
-888.655 0.0493504 0 4.04343
-744.918 0.228662 0 -5.55419
-898.314 0.0466305 0 4.10415
-893.485 0.0479873 0 4.07411
-1036.34 -0.161046 0 15.0243
-1025.07 -0.161482 0 14.9505
-732.842 0.236843 0 -5.63248
-740.892 0.231392 0 -5.57976
-1030.71 -0.161272 0 14.9877
-878.997 0.0520954 0 3.98016
-736.867 0.234119 0 -5.60586
-888.655 0.0493504 0 4.04343
-883.826 0.0507197 0 4.01211
-1025.07 -0.161482 0 14.9505
-1013.81 -0.161848 0 14.8737
-724.791 0.24228 0 -5.6873
-732.842 0.236843 0 -5.63248
-1019.44 -0.161674 0 14.9125
-869.338 0.0548656 0 3.91437
-728.816 0.239563 0 -5.65963
-878.997 0.0520954 0 3.98016
-874.167 0.0534773 0 3.94757
-1013.81 -0.161848 0 14.8737
-1002.54 -0.162146 0 14.7941
-716.74 0.247704 0 -5.7442
-724.791 0.24228 0 -5.6873
-1008.17 -0.162006 0 14.8343
-859.679 0.057661 0 3.84609
-720.765 0.244994 0 -5.7155
-869.338 0.0548656 0 3.91437
-864.508 0.0562601 0 3.88054
-1002.54 -0.162146 0 14.7941
-991.274 -0.162375 0 14.7116
-708.689 0.253114 0 -5.80315
-716.74 0.247704 0 -5.7442
-996.908 -0.162269 0 14.7532
-850.02 0.0604816 0 3.77535
-712.715 0.250411 0 -5.77342
-859.679 0.057661 0 3.84609
-854.85 0.0590681 0 3.81103
-991.274 -0.162375 0 14.7116
-980.008 -0.162535 0 14.6262
-700.638 0.258511 0 -5.86413
-708.689 0.253114 0 -5.80315
-985.641 -0.162464 0 14.6693
-840.361 0.0633273 0 3.70218
-704.664 0.255815 0 -5.83339
-850.02 0.0604816 0 3.77535
-845.191 0.0619013 0 3.73907
-980.008 -0.162535 0 14.6262
-968.742 -0.162626 0 14.5381
-692.587 0.263895 0 -5.92711
-700.638 0.258511 0 -5.86413
-974.375 -0.16259 0 14.5825
-830.703 0.0661982 0 3.6266
-696.613 0.261205 0 -5.89537
-840.361 0.0633273 0 3.70218
-835.532 0.0647596 0 3.66469
-968.742 -0.162626 0 14.5381
-957.476 -0.162649 0 14.4471
-684.537 0.269265 0 -5.99208
-692.587 0.263895 0 -5.92711
-963.109 -0.162646 0 14.4929
-821.044 0.0690941 0 3.54864
-688.562 0.266582 0 -5.95935
-830.703 0.0661982 0 3.6266
-825.873 0.067643 0 3.58791
-957.476 -0.162649 0 14.4471
-946.209 -0.162603 0 14.3535
-676.486 0.274622 0 -6.059
-684.537 0.269265 0 -5.99208
-951.842 -0.162634 0 14.4006
-811.385 0.072015 0 3.46833
-680.511 0.271945 0 -6.02529
-821.044 0.0690941 0 3.54864
-816.214 0.0705514 0 3.50877
-946.209 -0.162603 0 14.3535
-934.943 -0.162488 0 14.2571
-668.435 0.279965 0 -6.12786
-676.486 0.274622 0 -6.059
-940.576 -0.162554 0 14.3056
-801.726 0.0749606 0 3.38569
-672.46 0.277295 0 -6.09319
-811.385 0.072015 0 3.46833
-806.555 0.0734847 0 3.4273
-934.943 -0.162488 0 14.2571
-923.676 -0.162305 0 14.158
-660.384 0.285294 0 -6.19864
-668.435 0.279965 0 -6.12786
-929.31 -0.162405 0 14.2079
-792.067 0.077931 0 3.30077
-664.41 0.282631 0 -6.16301
-801.726 0.0749606 0 3.38569
-796.896 0.0764427 0 3.34352
-923.676 -0.162305 0 14.158
-912.41 -0.162053 0 14.0563
-652.333 0.290609 0 -6.2713
-660.384 0.285294 0 -6.19864
-918.043 -0.162188 0 14.1075
-782.408 0.0809258 0 3.21357
-656.359 0.287953 0 -6.23474
-792.067 0.077931 0 3.30077
-787.237 0.0794253 0 3.25745
-912.41 -0.162053 0 14.0563
-901.143 -0.161734 0 13.952
-644.282 0.295909 0 -6.34584
-652.333 0.290609 0 -6.2713
-906.776 -0.161902 0 14.0045
-772.749 0.0839449 0 3.12413
-648.308 0.293261 0 -6.30834
-782.408 0.0809258 0 3.21357
-777.578 0.0824323 0 3.16913
-901.143 -0.161734 0 13.952
-889.876 -0.161347 0 13.8451
-636.232 0.301196 0 -6.42221
-644.282 0.295909 0 -6.34584
-895.51 -0.161549 0 13.8988
-763.09 0.0869882 0 3.03248
-640.257 0.298554 0 -6.3838
-772.749 0.0839449 0 3.12413
-767.919 0.0854636 0 3.07858
-889.876 -0.161347 0 13.8451
-878.61 -0.160893 0 13.7356
-628.181 0.306468 0 -6.50041
-636.232 0.301196 0 -6.42221
-884.243 -0.161128 0 13.7906
-753.431 0.0900554 0 2.93864
-632.206 0.303834 0 -6.46109
-763.09 0.0869882 0 3.03248
-758.26 0.0885188 0 2.98583
-878.61 -0.160893 0 13.7356
-867.343 -0.160371 0 13.6236
-620.13 0.311725 0 -6.58041
-628.181 0.306468 0 -6.50041
-872.976 -0.16064 0 13.6799
-743.772 0.0931461 0 2.84265
-624.155 0.309098 0 -6.54019
-753.431 0.0900554 0 2.93864
-748.601 0.0915978 0 2.89091
-867.343 -0.160371 0 13.6236
-856.076 -0.159782 0 13.5092
-612.079 0.316968 0 -6.66218
-620.13 0.311725 0 -6.58041
-861.71 -0.160085 0 13.5667
-734.113 0.0962603 0 2.74453
-616.104 0.314348 0 -6.62108
-743.772 0.0931461 0 2.84265
-738.942 0.0947003 0 2.79385
-856.076 -0.159782 0 13.5092
-844.809 -0.159127 0 13.3923
-604.028 0.322195 0 -6.74571
-612.079 0.316968 0 -6.66218
-850.443 -0.159463 0 13.451
-724.453 0.0993975 0 2.6443
-608.054 0.319583 0 -6.70373
-734.113 0.0962603 0 2.74453
-729.283 0.0978261 0 2.69467
-844.809 -0.159127 0 13.3923
-833.542 -0.158406 0 13.2729
-595.977 0.327406 0 -6.83096
-604.028 0.322195 0 -6.74571
-839.176 -0.158775 0 13.3329
-714.794 0.102558 0 2.542
-600.003 0.324802 0 -6.78812
-724.453 0.0993975 0 2.6443
-719.624 0.100975 0 2.59341
-833.542 -0.158406 0 13.2729
-822.275 -0.157619 0 13.1512
-587.926 0.332602 0 -6.91792
-595.977 0.327406 0 -6.83096
-827.909 -0.15802 0 13.2124
-705.135 0.10574 0 2.43765
-591.952 0.330006 0 -6.87423
-714.794 0.102558 0 2.542
-709.965 0.104146 0 2.49008
-822.275 -0.157619 0 13.1512
-811.008 -0.156766 0 13.0271
-579.876 0.337782 0 -7.00657
-587.926 0.332602 0 -6.91792
-816.642 -0.1572 0 13.0895
-695.476 0.108945 0 2.33128
-583.901 0.335194 0 -6.96204
-705.135 0.10574 0 2.43765
-700.305 0.10734 0 2.38472
-811.008 -0.156766 0 13.0271
-799.741 -0.155848 0 12.9007
-571.825 0.342945 0 -7.09687
-579.876 0.337782 0 -7.00657
-805.374 -0.156315 0 12.9642
-685.817 0.112171 0 2.22292
-575.85 0.340366 0 -7.05151
-695.476 0.108945 0 2.33128
-690.646 0.110555 0 2.27735
-799.741 -0.155848 0 12.9007
-788.474 -0.154866 0 12.7721
-563.774 0.348092 0 -7.18881
-571.825 0.342945 0 -7.09687
-794.107 -0.155365 0 12.8367
-676.157 0.115419 0 2.1126
-567.799 0.345521 0 -7.14264
-685.817 0.112171 0 2.22292
-680.987 0.113792 0 2.168
-788.474 -0.154866 0 12.7721
-777.206 -0.15382 0 12.6411
-555.723 0.353222 0 -7.28237
-563.774 0.348092 0 -7.18881
-782.84 -0.154351 0 12.7069
-666.498 0.118687 0 2.00034
-559.748 0.350659 0 -7.23539
-676.157 0.115419 0 2.1126
-671.328 0.11705 0 2.05671
-777.206 -0.15382 0 12.6411
-765.939 -0.15271 0 12.5079
-547.672 0.358334 0 -7.37752
-555.723 0.353222 0 -7.28237
-771.573 -0.153273 0 12.5748
-656.839 0.121976 0 1.88617
-551.697 0.35578 0 -7.32975
-666.498 0.118687 0 2.00034
-661.668 0.120329 0 1.94349
-765.939 -0.15271 0 12.5079
-754.672 -0.151537 0 12.3726
-539.621 0.363429 0 -7.47423
-547.672 0.358334 0 -7.37752
-760.305 -0.152131 0 12.4405
-647.179 0.125286 0 1.77011
-543.647 0.360884 0 -7.42568
-656.839 0.121976 0 1.88617
-652.009 0.123628 0 1.82837
-754.672 -0.151537 0 12.3726
-743.404 -0.150301 0 12.235
-531.57 0.368506 0 -7.57249
-539.621 0.363429 0 -7.47423
-749.038 -0.150927 0 12.3041
-637.52 0.128614 0 1.65221
-535.596 0.36597 0 -7.52317
-647.179 0.125286 0 1.77011
-642.349 0.126948 0 1.71139
-743.404 -0.150301 0 12.235
-732.136 -0.149003 0 12.0954
-523.519 0.373564 0 -7.67228
-531.57 0.368506 0 -7.57249
-737.77 -0.14966 0 12.1655
-627.86 0.131963 0 1.53248
-527.545 0.371037 0 -7.6222
-637.52 0.128614 0 1.65221
-632.69 0.130286 0 1.59257
-732.136 -0.149003 0 12.0954
-720.869 -0.147644 0 11.9536
-515.468 0.378603 0 -7.77356
-523.519 0.373564 0 -7.67228
-726.503 -0.148332 0 12.0248
-618.201 0.135329 0 1.41095
-519.494 0.376086 0 -7.72273
-627.86 0.131963 0 1.53248
-623.031 0.133644 0 1.47194
-720.869 -0.147644 0 11.9536
-709.601 -0.146224 0 11.8098
-507.417 0.383623 0 -7.87632
-515.468 0.378603 0 -7.77356
-715.235 -0.146942 0 11.882
-608.541 0.138714 0 1.28765
-511.443 0.381115 0 -7.82475
-618.201 0.135329 0 1.41095
-613.371 0.13702 0 1.34952
-709.601 -0.146224 0 11.8098
-698.333 -0.144744 0 11.6639
-499.366 0.388623 0 -7.98053
-507.417 0.383623 0 -7.87632
-703.967 -0.145491 0 11.7371
-598.882 0.142117 0 1.1626
-503.392 0.386125 0 -7.92824
-608.541 0.138714 0 1.28765
-603.712 0.140413 0 1.22534
-698.333 -0.144744 0 11.6639
-687.066 -0.143204 0 11.5161
-491.316 0.393602 0 -8.08617
-499.366 0.388623 0 -7.98053
-692.699 -0.143981 0 11.5902
-589.222 0.145537 0 1.03584
-495.341 0.391115 0 -8.03317
-598.882 0.142117 0 1.1626
-594.052 0.143825 0 1.09943
-687.066 -0.143204 0 11.5161
-675.798 -0.141605 0 11.3662
-483.265 0.398561 0 -8.19322
-491.316 0.393602 0 -8.08617
-681.432 -0.142411 0 11.4414
-579.563 0.148973 0 0.907394
-487.29 0.396084 0 -8.13952
-589.222 0.145537 0 1.03584
-584.392 0.147253 0 0.971827
-675.798 -0.141605 0 11.3662
-664.53 -0.139947 0 11.2145
-475.214 0.403499 0 -8.30165
-483.265 0.398561 0 -8.19322
-670.164 -0.140783 0 11.2906
-569.903 0.152425 0 0.777286
-479.239 0.401033 0 -8.24726
-579.563 0.148973 0 0.907394
-574.733 0.150697 0 0.842546
-664.53 -0.139947 0 11.2145
-653.262 -0.138232 0 11.0608
-467.163 0.408415 0 -8.41144
-475.214 0.403499 0 -8.30165
-658.896 -0.139097 0 11.1379
-560.243 0.155893 0 0.645545
-471.188 0.40596 0 -8.35638
-569.903 0.152425 0 0.777286
-565.073 0.154157 0 0.711617
-653.262 -0.138232 0 11.0608
-641.994 -0.13646 0 10.9053
-459.112 0.413309 0 -8.52257
-467.163 0.408415 0 -8.41144
-647.628 -0.137353 0 10.9833
-550.583 0.159375 0 0.512198
-463.137 0.410865 0 -8.46684
-560.243 0.155893 0 0.645545
-555.413 0.157632 0 0.57907
-641.994 -0.13646 0 10.9053
-630.725 -0.134631 0 10.7479
-451.061 0.41818 0 -8.63502
-459.112 0.413309 0 -8.52257
-636.359 -0.135552 0 10.8268
-540.924 0.162872 0 0.377274
-455.086 0.415748 0 -8.57863
-550.583 0.159375 0 0.512198
-545.754 0.161122 0 0.444932
-630.725 -0.134631 0 10.7479
-619.457 -0.132747 0 10.5887
-443.01 0.423028 0 -8.74876
-451.061 0.41818 0 -8.63502
-625.091 -0.133696 0 10.6685
-531.264 0.166383 0 0.240801
-447.035 0.420607 0 -8.69173
-540.924 0.162872 0 0.377274
-536.094 0.164626 0 0.30923
-619.457 -0.132747 0 10.5887
-608.189 -0.130808 0 10.4277
-434.959 0.427853 0 -8.86376
-443.01 0.423028 0 -8.74876
-613.823 -0.131784 0 10.5084
-521.604 0.169906 0 0.102805
-438.984 0.425444 0 -8.8061
-531.264 0.166383 0 0.240801
-526.434 0.168143 0 0.171991
-608.189 -0.130808 0 10.4277
-596.92 -0.128815 0 10.265
-426.908 0.432653 0 -8.98002
-434.959 0.427853 0 -8.86376
-602.555 -0.129818 0 10.3466
-511.944 0.173441 0 -0.0366857
-430.933 0.430256 0 -8.92174
-521.604 0.169906 0 0.102805
-516.774 0.171672 0 0.0332446
-596.92 -0.128815 0 10.265
-585.652 -0.126769 0 10.1006
-418.857 0.437428 0 -9.09749
-426.908 0.432653 0 -8.98002
-591.286 -0.127798 0 10.183
-502.284 0.176989 0 -0.177643
-422.882 0.435043 0 -9.0386
-511.944 0.173441 0 -0.0366857
-507.114 0.175214 0 -0.106983
-585.652 -0.126769 0 10.1006
-574.383 -0.12467 0 9.93449
-410.805 0.442177 0 -9.21617
-418.857 0.437428 0 -9.09749
-580.018 -0.125726 0 10.0177
-492.624 0.180547 0 -0.32004
-414.831 0.439806 0 -9.15668
-502.284 0.176989 0 -0.177643
-497.454 0.178766 0 -0.248664
-574.383 -0.12467 0 9.93449
-563.115 -0.12252 0 9.76674
-402.754 0.446901 0 -9.33602
-410.805 0.442177 0 -9.21617
-568.749 -0.123601 0 9.85082
-482.964 0.184115 0 -0.463849
-406.78 0.444542 0 -9.27595
-492.624 0.180547 0 -0.32004
-487.794 0.182329 0 -0.39177
-563.115 -0.12252 0 9.76674
-551.846 -0.120318 0 9.59738
-394.703 0.451598 0 -9.45703
-402.754 0.446901 0 -9.33602
-557.48 -0.121425 0 9.68226
-473.304 0.187693 0 -0.609042
-398.729 0.449253 0 -9.39638
-482.964 0.184115 0 -0.463849
-478.134 0.185903 0 -0.536274
-551.846 -0.120318 0 9.59738
-540.577 -0.118067 0 9.42644
-386.652 0.456267 0 -9.57916
-394.703 0.451598 0 -9.45703
-546.212 -0.119199 0 9.51211
-463.644 0.191279 0 -0.755591
-390.678 0.453936 0 -9.51795
-473.304 0.187693 0 -0.609042
-468.474 0.189485 0 -0.682149
-540.577 -0.118067 0 9.42644
-529.308 -0.115766 0 9.25395
-378.601 0.460909 0 -9.70241
-386.652 0.456267 0 -9.57916
-534.943 -0.116923 0 9.34038
-453.984 0.194874 0 -0.903469
-382.627 0.458592 0 -9.64065
-463.644 0.191279 0 -0.755591
-458.814 0.193076 0 -0.829366
-529.308 -0.115766 0 9.25395
-518.039 -0.113418 0 9.07993
-370.55 0.465522 0 -9.82674
-378.601 0.460909 0 -9.70241
-523.674 -0.114598 0 9.16713
-444.324 0.198476 0 -1.05265
-374.576 0.463219 0 -9.76444
-453.984 0.194874 0 -0.903469
-449.154 0.196674 0 -0.977898
-518.039 -0.113418 0 9.07993
-506.77 -0.111021 0 8.90444
-362.499 0.470107 0 -9.95213
-370.55 0.465522 0 -9.82674
-512.405 -0.112225 0 8.99237
-434.663 0.202084 0 -1.2031
-366.524 0.467818 0 -9.8893
-444.324 0.198476 0 -1.05265
-439.493 0.200279 0 -1.12772
-506.77 -0.111021 0 8.90444
-495.501 -0.108579 0 8.72749
-354.448 0.474661 0 -10.0786
-362.499 0.470107 0 -9.95213
-501.136 -0.109806 0 8.81614
-425.003 0.205699 0 -1.3548
-358.473 0.472388 0 -10.0152
-434.663 0.202084 0 -1.2031
-429.833 0.203891 0 -1.2788
-495.501 -0.108579 0 8.72749
-484.232 -0.10609 0 8.54912
-346.396 0.479185 0 -10.206
-354.448 0.474661 0 -10.0786
-489.867 -0.10734 0 8.63848
-415.343 0.209318 0 -1.50772
-350.422 0.476927 0 -10.1422
-425.003 0.205699 0 -1.3548
-420.173 0.207508 0 -1.43111
-484.232 -0.10609 0 8.54912
-472.963 -0.103557 0 8.36936
-338.345 0.483678 0 -10.3344
-346.396 0.479185 0 -10.206
-478.597 -0.104829 0 8.45941
-405.682 0.212942 0 -1.66183
-342.371 0.481435 0 -10.2701
-415.343 0.209318 0 -1.50772
-410.512 0.211129 0 -1.58462
-472.963 -0.103557 0 8.36936
-461.693 -0.10098 0 8.18824
-330.294 0.488139 0 -10.4638
-338.345 0.483678 0 -10.3344
-467.328 -0.102274 0 8.27897
-396.022 0.216569 0 -1.8171
-334.32 0.485912 0 -10.399
-405.682 0.212942 0 -1.66183
-400.852 0.214755 0 -1.73932
-461.693 -0.10098 0 8.18824
-450.424 -0.0983609 0 8.0058
-322.243 0.492568 0 -10.5942
-330.294 0.488139 0 -10.4638
-456.058 -0.099676 0 8.09719
-386.361 0.220198 0 -1.9735
-326.268 0.490357 0 -10.5289
-396.022 0.216569 0 -1.8171
-391.192 0.218383 0 -1.89516
-450.424 -0.0983609 0 8.0058
-439.154 -0.0956995 0 7.82207
-314.191 0.496963 0 -10.7255
-322.243 0.492568 0 -10.5942
-444.789 -0.0970354 0 7.9141
-376.701 0.223829 0 -2.13102
-318.217 0.49477 0 -10.6597
-386.361 0.220198 0 -1.9735
-381.531 0.222014 0 -2.05212
-439.154 -0.0956995 0 7.82207
-427.885 -0.0929972 0 7.63708
-306.14 0.501325 0 -10.8577
-314.191 0.496963 0 -10.7255
-433.519 -0.0943534 0 7.72973
-367.04 0.227462 0 -2.28961
-310.166 0.499148 0 -10.7915
-376.701 0.223829 0 -2.13102
-371.87 0.225645 0 -2.21018
-427.885 -0.0929972 0 7.63708
-416.615 -0.090255 0 7.45086
-298.089 0.505652 0 -10.9907
-306.14 0.501325 0 -10.8577
-422.25 -0.091631 0 7.54412
-357.379 0.231094 0 -2.44926
-302.114 0.503493 0 -10.9241
-367.04 0.227462 0 -2.28961
-362.21 0.229278 0 -2.36931
-416.615 -0.090255 0 7.45086
-405.345 -0.0874739 0 7.26344
-290.037 0.509944 0 -11.1246
-298.089 0.505652 0 -10.9907
-410.98 -0.0888693 0 7.3573
-347.719 0.234725 0 -2.60993
-294.063 0.507802 0 -11.0576
-357.379 0.231094 0 -2.44926
-352.549 0.23291 0 -2.52947
-405.345 -0.0874739 0 7.26344
-394.075 -0.0846549 0 7.07487
-281.986 0.5142 0 -11.2594
-290.037 0.509944 0 -11.1246
-399.71 -0.0860691 0 7.1693
-338.058 0.238355 0 -2.7716
-286.012 0.512076 0 -11.1919
-347.719 0.234725 0 -2.60993
-342.888 0.23654 0 -2.69064
-394.075 -0.0846549 0 7.07487
-382.805 -0.0817991 0 6.88516
-273.935 0.518419 0 -11.3949
-281.986 0.5142 0 -11.2594
-388.44 -0.0832316 0 6.98015
-328.397 0.241982 0 -2.93424
-277.96 0.516314 0 -11.327
-338.058 0.238355 0 -2.7716
-333.227 0.240169 0 -2.8528
-382.805 -0.0817991 0 6.88516
-371.535 -0.0789074 0 6.69435
-265.883 0.5226 0 -11.5312
-273.935 0.518419 0 -11.3949
-377.17 -0.0803577 0 6.78989
-318.736 0.245606 0 -3.09782
-269.909 0.520514 0 -11.463
-328.397 0.241982 0 -2.93424
-323.567 0.243795 0 -3.01591
-371.535 -0.0789074 0 6.69435
-360.265 -0.0759809 0 6.50247
-257.832 0.526743 0 -11.6683
-265.883 0.5226 0 -11.5312
-365.9 -0.0774484 0 6.59854
-309.075 0.249226 0 -3.26232
-261.857 0.524677 0 -11.5997
-318.736 0.245606 0 -3.09782
-313.906 0.247417 0 -3.17996
-360.265 -0.0759809 0 6.50247
-348.994 -0.0730206 0 6.30957
-249.78 0.530847 0 -11.8062
-257.832 0.526743 0 -11.6683
-354.63 -0.0745049 0 6.40615
-299.414 0.25284 0 -3.4277
-253.806 0.5288 0 -11.7372
-309.075 0.249226 0 -3.26232
-304.245 0.251034 0 -3.3449
-348.994 -0.0730206 0 6.30957
-337.724 -0.0700276 0 6.11566
-241.729 0.534911 0 -11.9447
-249.78 0.530847 0 -11.8062
-343.359 -0.0715281 0 6.21273
-289.753 0.256448 0 -3.59394
-245.754 0.532884 0 -11.8754
-299.414 0.25284 0 -3.4277
-294.584 0.254645 0 -3.51071
-337.724 -0.0700276 0 6.11566
-326.453 -0.0670029 0 5.92078
-233.677 0.538934 0 -12.084
-241.729 0.534911 0 -11.9447
-332.089 -0.0685191 0 6.01833
-280.092 0.260049 0 -3.76101
-237.703 0.536927 0 -12.0143
-289.753 0.256448 0 -3.59394
-284.923 0.258249 0 -3.67737
-326.453 -0.0670029 0 5.92078
-315.183 -0.0639476 0 5.72496
-225.625 0.542915 0 -12.2239
-233.677 0.538934 0 -12.084
-320.818 -0.065479 0 5.82298
-270.431 0.263642 0 -3.92888
-229.651 0.540929 0 -12.1538
-280.092 0.260049 0 -3.76101
-275.261 0.261846 0 -3.84484
-315.183 -0.0639476 0 5.72496
-303.912 -0.0608628 0 5.52823
-217.574 0.546853 0 -12.3644
-225.625 0.542915 0 -12.2239
-309.547 -0.0624089 0 5.62671
-260.77 0.267225 0 -4.09753
-221.6 0.544889 0 -12.2941
-270.431 0.263642 0 -3.92888
-265.6 0.265435 0 -4.01311
-303.912 -0.0608628 0 5.52823
-292.641 -0.0577496 0 5.33064
-209.522 0.550748 0 -12.5056
-217.574 0.546853 0 -12.3644
-298.277 -0.0593097 0 5.42954
-251.108 0.270799 0 -4.26692
-213.548 0.548806 0 -12.4349
-260.77 0.267225 0 -4.09753
-255.939 0.269013 0 -4.18213
-292.641 -0.0577495 0 5.33064
-281.37 -0.0546091 0 5.1322
-201.47 0.5546 0 -12.6474
-209.522 0.550748 0 -12.5056
-287.006 -0.0561827 0 5.23152
-241.447 0.274362 0 -4.43704
-205.496 0.552679 0 -12.5764
-251.108 0.270799 0 -4.26692
-246.278 0.272582 0 -4.35189
-281.37 -0.0546091 0 5.1322
-270.099 -0.0514422 0 4.93296
-193.419 0.558409 0 -12.7897
-201.47 0.5546 0 -12.6474
-275.735 -0.0530288 0 5.03268
-231.785 0.277914 0 -4.60784
-197.445 0.55651 0 -12.7185
-241.447 0.274362 0 -4.43704
-236.616 0.276139 0 -4.52235
-270.099 -0.0514422 0 4.93296
-258.828 -0.0482508 0 4.73294
-185.367 0.562178 0 -12.9326
-193.419 0.558409 0 -12.7897
-264.464 -0.0498495 0 4.83304
-222.124 0.281454 0 -4.77931
-189.393 0.560298 0 -12.8611
-231.785 0.277914 0 -4.60784
-226.955 0.279685 0 -4.6935
-258.828 -0.0482508 0 4.73294
-247.557 -0.0450352 0 4.53218
-177.315 0.565909 0 -13.0761
-185.367 0.562178 0 -12.9326
-253.193 -0.0466458 0 4.63265
-212.462 0.284984 0 -4.95143
-181.341 0.564048 0 -13.0043
-222.124 0.281454 0 -4.77931
-217.293 0.28322 0 -4.86529
-247.557 -0.0450352 0 4.53218
-236.286 -0.0417993 0 4.3307
-169.263 0.56961 0 -13.2201
-177.315 0.565909 0 -13.0761
-241.921 -0.0434197 0 4.43153
-202.801 0.288504 0 -5.12417
-173.289 0.567763 0 -13.148
-212.462 0.284984 0 -4.95143
-207.632 0.286745 0 -5.03772
-236.286 -0.0417993 0 4.3307
-225.014 -0.0385418 0 4.12855
-161.212 0.573287 0 -13.3646
-169.263 0.56961 0 -13.2201
-230.65 -0.0401728 0 4.22971
-193.139 0.292019 0 -5.29752
-165.237 0.571451 0 -13.2922
-202.801 0.288504 0 -5.12417
-197.97 0.290262 0 -5.21077
-225.014 -0.0385418 0 4.12855
-213.743 -0.0352714 0 3.92575
-153.16 0.576947 0 -13.5096
-161.212 0.573287 0 -13.3646
-219.379 -0.0369077 0 4.02723
-183.477 0.295531 0 -5.47146
-157.186 0.575119 0 -13.437
-193.139 0.292019 0 -5.29752
-188.308 0.293775 0 -5.38442
-213.743 -0.0352714 0 3.92575
-202.471 -0.0319856 0 3.72233
-145.108 0.580587 0 -13.6551
-153.16 0.576947 0 -13.5096
-208.107 -0.0336311 0 3.82411
-173.815 0.299042 0 -5.64601
-149.134 0.57877 0 -13.5823
-183.477 0.295531 0 -5.47146
-178.646 0.297288 0 -5.55866
-202.471 -0.0319856 0 3.72233
-191.198 -0.0286945 0 3.51831
-137.056 0.584164 0 -13.8011
-145.108 0.580587 0 -13.6551
-196.835 -0.0303357 0 3.62039
-164.153 0.302553 0 -5.82114
-141.082 0.58239 0 -13.728
-173.815 0.299042 0 -5.64601
-168.984 0.300797 0 -5.73351
-191.198 -0.0286945 0 3.51831
-179.925 -0.0254176 0 3.31373
-129.004 0.587561 0 -13.9475
-137.056 0.584164 0 -13.8011
-185.562 -0.0270675 0 3.41611
-154.491 0.306023 0 -5.99681
-133.03 0.585896 0 -13.8742
-164.153 0.302553 0 -5.82114
-159.322 0.3043 0 -5.90891
-179.925 -0.0254176 0 3.31373
-168.651 -0.0220837 0 3.1086
-120.953 0.590437 0 -14.0939
-129.004 0.587561 0 -13.9475
-174.289 -0.0237229 0 3.21121
-144.828 0.309407 0 -6.1728
-124.978 0.589104 0 -14.0207
-154.491 0.306023 0 -5.99681
-149.659 0.307726 0 -6.08478
-168.651 -0.0220837 0 3.1086
-157.377 -0.0189433 0 2.90286
-112.901 0.592127 0 -14.2397
-120.953 0.590437 0 -14.0939
-163.014 -0.0205873 0 3.00588
-135.166 0.312432 0 -6.3487
-116.927 0.59149 0 -14.167
-144.828 0.309407 0 -6.1728
-139.997 0.310997 0 -6.26082
-157.377 -0.0189433 0 2.90286
-146.102 -0.015211 0 2.69672
-104.851 0.590989 0 -14.383
-112.901 0.592127 0 -14.2397
-151.74 -0.0169364 0 2.79971
-125.505 0.314811 0 -6.52319
-108.876 0.592076 0 -14.3119
-135.166 0.312432 0 -6.3487
-130.336 0.313704 0 -6.43621
-146.102 -0.015211 0 2.69672
-134.831 -0.0127512 0 2.4895
-96.8015 0.584455 0 -14.5207
-104.851 0.590989 0 -14.383
-140.466 -0.0144084 0 2.59356
-115.85 0.315308 0 -6.69403
-100.826 0.588639 0 -14.4529
-125.505 0.314811 0 -6.52319
-120.677 0.31545 0 -6.60936
-134.831 -0.0127512 0 2.4895
-123.568 -0.00626455 0 2.28277
-88.7552 0.566261 0 -14.645
-96.8015 0.584455 0 -14.5207
-129.199 -0.00877933 0 2.38548
-106.204 0.312731 0 -6.85551
-92.7774 0.577342 0 -14.5853
-115.85 0.315308 0 -6.69403
-111.026 0.314354 0 -6.77627
-123.568 -0.00626455 0 2.28277
-112.34 -0.00714474 0 2.07276
-80.7069 0.529162 0 -14.7454
-88.7552 0.566261 0 -14.645
-117.947 -0.00899031 0 2.17943
-96.5828 0.302605 0 -6.99841
-84.7323 0.550895 0 -14.699
-106.204 0.312731 0 -6.85551
-101.388 0.309335 0 -6.93061
-112.34 -0.00714474 0 2.07276
-101.159 0.0146295 0 1.86795
-72.6657 0.452779 0 -14.7957
-80.7069 0.529162 0 -14.7454
-106.743 0.00762955 0 1.96701
-87.002 0.280873 0 -7.10343
-76.6834 0.497022 0 -14.7794
-96.5828 0.302605 0 -6.99841
-91.7877 0.292548 0 -7.05631
-101.159 0.0146295 0 1.86795
-90.1536 -0.00275611 0 1.65073
-64.5996 0.326302 0 -14.7703
-72.6657 0.452779 0 -14.7957
-95.6249 -0.00584108 0 1.76615
-77.5181 0.234186 0 -7.13903
-68.6411 0.398354 0 -14.7941
-87.002 0.280873 0 -7.10343
-82.2404 0.264033 0 -7.1354
-90.1536 -0.00275611 0 1.65073
-79.3504 0.0948121 0 1.46007
-56.5332 0.0919858 0 -14.6011
-64.5996 0.326302 0 -14.7703
-84.7217 0.0666951 0 1.53979
-68.1605 0.150374 0 -7.05563
-60.5594 0.222499 0 -14.7105
-77.5181 0.234186 0 -7.13903
-72.8281 0.192264 0 -7.1109
-79.3504 0.0948121 0 1.46007
-69.2237 -0.000113725 0 1.22186
-48.3026 -0.214112 0 -14.2645
-56.5332 0.0919858 0 -14.6011
-74.1741 -0.0120501 0 1.37066
-59.1031 -0.00252131 0 -6.75996
-52.4624 -0.0443141 0 -14.4534
-68.1605 0.150374 0 -7.05563
-63.5663 0.0979156 0 -6.95608
-69.2237 -0.000113717 0 1.22186
-59.8009 0.448274 0 1.09573
-39.9533 -0.724622 0 -13.6585
-48.3026 -0.214112 0 -14.2645
-64.3949 0.331311 0 1.08632
-50.3031 -0.254486 0 -6.1874
-44.1217 -0.464433 0 -14.005
-59.1031 -0.00252131 0 -6.75996
-54.7081 -0.141997 0 -6.48596
-59.8009 0.448274 0 1.09573
-52.5798 0.00154179 0 0.808321
-30.7606 -0.970925 0 -13.0053
-39.9533 -0.724622 0 -13.6585
-55.8778 -0.0639712 0 1.08361
-42.2004 -0.65159 0 -5.12169
-35.5575 -0.861879 0 -13.3119
-50.3031 -0.254486 0 -6.1874
-46.0643 -0.371339 0 -5.79696
-52.5798 0.00154179 0 0.808321
-47.7433 1.75925 0 1.18767
-20.8025 -0.94501 0 -12.661
-30.7606 -0.970925 0 -13.0053
-49.6246 1.4819 0 0.583183
-33.7798 -1.17484 0 -3.96005
-25.8207 -1.17844 0 -12.7452
-42.2004 -0.65159 0 -5.12169
-38.2718 -1.01878 0 -4.38602
-47.7433 1.75925 0 1.18767
-51.3016 -1.60902 0 2.53473
-8.14393 3.221 0 -15.0076
-20.8025 -0.94501 0 -12.661
-48.5114 -1.08155 0 2.0281
-24.5842 -0.942812 0 -3.3225
-15.0583 0.495149 0 -13.2617
-33.7798 -1.17484 0 -3.96005
-29.0834 -1.0936 0 -3.74589
-51.3016 -1.60902 0 2.53473
-71.1158 -8.03635 0 13.6838
1.84735 19.8684 0 -22.8731
-8.14393 3.221 0 -15.0076
-56.676 2.2014 0 4.47067
-2.72491 11.2038 0 -13.2146
-2.31646 7.62659 0 -17.8909
-24.5842 -0.942812 0 -3.3225
-17.2113 1.1703 0 -5.27424
-71.1158 -8.03635 0 13.6838
-10.6764 105.681 0 -61.2408
-1.40047 81.1474 0 -21.8894
1.84735 19.8684 0 -22.8731
-74.3146 -18.4977 0 6.46769
7.04583 102.875 0 -35.8765
3.25498 45.2588 0 -26.5349
-2.72491 11.2038 0 -13.2146
7.13984 35.7899 0 -24.4105
-1485.62 -446.281 0 -59.3663
-1572.8 -170.211 0 -86.6407
-930.683 -162.986 0 -2.47699
-857.031 -257.294 0 78.6873
-1543.41 -320.861 0 -100.769
-1231.96 -187.705 0 -35.8086
-907.053 -206.869 0 29.6476
-1216.55 -365.369 0 12.4258
-1203.82 -260.493 0 -11.3538
-1572.8 -170.211 0 -86.6407
-1596.26 -50.8997 0 -40.7294
-948.309 -71.7081 0 -27.5906
-930.683 -162.986 0 -2.47699
-1594.93 -87.649 0 -62.1952
-1275.9 -73.7223 0 -41.6024
-938.547 -113.993 0 -18.6953
-1231.96 -187.705 0 -35.8086
-1265.9 -126.434 0 -46.9323
-1596.26 -50.8997 0 -40.7294
-1576.17 -9.49494 0 -14.4655
-957.323 -25.7137 0 -32.2773
-948.309 -71.7081 0 -27.5906
-1584.2 -25.2718 0 -23.5233
-1272.86 -21.7917 0 -27.5434
-956.913 -44.0564 0 -31.9175
-1275.9 -73.7223 0 -41.6024
-1275.26 -40.2068 0 -32.6651
-1576.17 -9.49494 0 -14.4655
-1562.41 -0.553049 0 -8.44174
-950.071 -4.43784 0 -29.6406
-957.323 -25.7137 0 -32.2773
-1570.07 -2.98419 0 -10.4559
-1260.76 -1.90998 0 -20.5538
-953.36 -12.5294 0 -30.8096
-1272.86 -21.7917 0 -27.5434
-1267.68 -9.64407 0 -23.7919
-1562.41 -0.553049 0 -8.44174
-1548.63 2.77114 0 -7.94633
-941.571 1.72933 0 -27.8094
-950.071 -4.43784 0 -29.6406
-1554.4 1.59461 0 -7.62025
-1247.76 2.88561 0 -18.237
-946.531 -0.326795 0 -28.7307
-1260.76 -1.90998 0 -20.5538
-1253.7 1.77312 0 -18.6858
-1548.63 2.77114 0 -7.94633
-1539.11 2.19146 0 -9.66839
-931.759 3.21294 0 -26.5364
-941.571 1.72933 0 -27.8094
-1544.02 2.65424 0 -8.85937
-1236.94 3.48161 0 -18.2013
-936.193 2.91557 0 -26.9977
-1247.76 2.88561 0 -18.237
-1242.24 3.36637 0 -18.2134
-1539.11 2.19146 0 -9.66839
-1529.9 1.60619 0 -11.0683
-923.842 2.43149 0 -26.0426
-931.759 3.21294 0 -26.5364
-1534.22 1.91529 0 -10.3709
-1227.68 2.44786 0 -18.7421
-927.811 2.90835 0 -26.2733
-1236.94 3.48161 0 -18.2013
-1232.07 3.09172 0 -18.3878
-1529.9 1.60619 0 -11.0683
-1521.72 0.81077 0 -12.1594
-916.703 1.49649 0 -25.7425
-923.842 2.43149 0 -26.0426
-1525.86 1.1828 0 -11.703
-1219.65 1.44388 0 -19.2776
-920.049 1.97829 0 -25.8532
-1227.68 2.44786 0 -18.7421
-1223.58 1.89681 0 -19.0603
-1521.72 0.81077 0 -12.1594
-1513.53 0.328492 0 -12.7208
-910.641 0.621327 0 -25.5962
-916.703 1.49649 0 -25.7425
-1517.57 0.546923 0 -12.4803
-1212.33 0.615877 0 -19.6222
-913.629 1.01978 0 -25.6709
-1219.65 1.44388 0 -19.2776
-1215.91 1.00766 0 -19.4633
-1513.53 0.328492 0 -12.7208
-1505.53 -0.0147415 0 -12.9816
-905.049 0.0534199 0 -25.4609
-910.641 0.621327 0 -25.5962
-1509.55 0.133745 0 -12.8915
-1205.44 0.0924073 0 -19.7732
-907.768 0.309717 0 -25.5232
-1212.33 0.615877 0 -19.6222
-1208.86 0.316147 0 -19.7256
-1505.53 -0.0147415 0 -12.9816
-1497.5 -0.199257 0 -13.0057
-899.851 -0.312372 0 -25.3387
-905.049 0.0534199 0 -25.4609
-1501.5 -0.119597 0 -13.0124
-1198.78 -0.230511 0 -19.784
-902.43 -0.155969 0 -25.4022
-1205.44 0.0924073 0 -19.7732
-1202.09 -0.0886136 0 -19.7903
-1497.5 -0.199257 0 -13.0057
-1489.48 -0.304118 0 -12.9093
-894.819 -0.509762 0 -25.2074
-899.851 -0.312372 0 -25.3387
-1493.49 -0.261081 0 -12.9706
-1192.24 -0.403423 0 -19.7023
-897.312 -0.425834 0 -25.2729
-1198.78 -0.230511 0 -19.784
-1195.5 -0.332495 0 -19.7532
-1489.48 -0.304118 0 -12.9093
-1481.45 -0.352001 0 -12.738
-889.901 -0.61271 0 -25.0735
-894.819 -0.509762 0 -25.2074
-1485.46 -0.332612 0 -12.8293
-1185.76 -0.491288 0 -19.5685
-892.354 -0.571444 0 -25.1413
-1192.24 -0.403423 0 -19.7023
-1188.99 -0.455147 0 -19.6396
-1481.45 -0.352001 0 -12.738
-1473.41 -0.371946 0 -12.5334
-885.028 -0.655182 0 -24.9359
-889.901 -0.61271 0 -25.0735
-1477.43 -0.364856 0 -12.6388
-1179.3 -0.527659 0 -19.4063
-887.459 -0.63907 0 -25.0047
-1185.76 -0.491288 0 -19.5685
-1182.53 -0.514349 0 -19.4901
-1473.41 -0.371946 0 -12.5334
-1465.37 -0.375469 0 -12.3124
-880.182 -0.666968 0 -24.7981
-885.028 -0.655182 0 -24.9359
-1469.39 -0.374978 0 -12.4239
-1172.86 -0.537631 0 -19.2315
-882.604 -0.664089 0 -24.8671
-1179.3 -0.527659 0 -19.4063
-1176.08 -0.534935 0 -19.3198
-1465.37 -0.375469 0 -12.3124
-1457.33 -0.371561 0 -12.0869
-875.344 -0.661836 0 -24.6609
-880.182 -0.666968 0 -24.7981
-1461.35 -0.374213 0 -12.1999
-1166.42 -0.533689 0 -19.052
-877.762 -0.665758 0 -24.7293
-1172.86 -0.537631 0 -19.2315
-1169.64 -0.536881 0 -19.1421
-1457.33 -0.371561 0 -12.0869
-1449.28 -0.363941 0 -11.8616
-870.511 -0.64909 0 -24.5253
-875.344 -0.661836 0 -24.6609
-1453.31 -0.368011 0 -11.974
-1159.98 -0.523439 0 -18.8724
-872.927 -0.656149 0 -24.5929
-1166.42 -0.533689 0 -19.052
-1163.2 -0.529067 0 -18.962
-1449.28 -0.363941 0 -11.8616
-1441.24 -0.354936 0 -11.6391
-865.678 -0.632793 0 -24.3919
-870.511 -0.64909 0 -24.5253
-1445.26 -0.359552 0 -11.7499
-1153.54 -0.510402 0 -18.6946
-868.094 -0.64119 0 -24.4583
-1159.98 -0.523439 0 -18.8724
-1156.76 -0.517135 0 -18.7832
-1441.24 -0.354936 0 -11.6391
-1433.19 -0.345443 0 -11.4205
-860.846 -0.615281 0 -24.2609
-865.678 -0.632793 0 -24.3919
-1437.21 -0.350207 0 -11.5293
-1147.1 -0.496423 0 -18.5198
-863.262 -0.624127 0 -24.3261
-1153.54 -0.510402 0 -18.6946
-1150.32 -0.503467 0 -18.6068
-1433.19 -0.345443 0 -11.4205
-1425.14 -0.335931 0 -11.2061
-856.013 -0.597453 0 -24.1323
-860.846 -0.615281 0 -24.2609
-1429.17 -0.340679 0 -11.3128
-1140.66 -0.48225 0 -18.3483
-858.429 -0.606368 0 -24.1963
-1147.1 -0.496423 0 -18.5198
-1143.88 -0.489336 0 -18.4336
-1425.14 -0.335931 0 -11.2061
-1417.09 -0.32654 0 -10.9959
-851.18 -0.579736 0 -24.0063
-856.013 -0.597453 0 -24.1323
-1421.12 -0.331214 0 -11.1005
-1134.21 -0.468202 0 -18.1801
-853.596 -0.588572 0 -24.069
-1140.66 -0.48225 0 -18.3483
-1137.43 -0.475202 0 -18.2638
-1417.09 -0.32654 0 -10.9959
-1409.05 -0.317318 0 -10.79
-846.346 -0.562241 0 -23.8827
-851.18 -0.579736 0 -24.0063
-1413.07 -0.321908 0 -10.8924
-1127.77 -0.454362 0 -18.0153
-848.763 -0.570957 0 -23.9442
-1134.21 -0.468202 0 -18.1801
-1130.99 -0.461255 0 -18.0973
-1409.05 -0.317318 0 -10.79
-1401 -0.30826 0 -10.5882
-841.513 -0.544989 0 -23.7616
-846.346 -0.562241 0 -23.8827
-1405.02 -0.31277 0 -10.6886
-1121.33 -0.440738 0 -17.8539
-843.93 -0.553586 0 -23.8218
-1127.77 -0.454362 0 -18.0153
-1124.55 -0.447524 0 -17.9342
-1401 -0.30826 0 -10.5882
-1392.95 -0.29935 0 -10.3905
-836.679 -0.527954 0 -23.6429
-841.513 -0.544989 0 -23.7616
-1396.97 -0.303788 0 -10.4889
-1114.89 -0.427306 0 -17.6957
-839.096 -0.536446 0 -23.702
-1121.33 -0.440738 0 -17.8539
-1118.11 -0.433999 0 -17.7744
-1392.95 -0.29935 0 -10.3905
-1384.9 -0.290569 0 -10.1969
-831.845 -0.51111 0 -23.5267
-836.679 -0.527954 0 -23.6429
-1388.93 -0.294944 0 -10.2932
-1108.45 -0.414041 0 -17.5407
-834.262 -0.51951 0 -23.5845
-1114.89 -0.427306 0 -17.6957
-1111.67 -0.420654 0 -17.6178
-1384.9 -0.290569 0 -10.1969
-1376.85 -0.281905 0 -10.0072
-827.011 -0.494431 0 -23.4128
-831.845 -0.51111 0 -23.5267
-1380.88 -0.286223 0 -10.1015
-1102.01 -0.400922 0 -17.3889
-829.428 -0.502751 0 -23.4695
-1108.45 -0.414041 0 -17.5407
-1105.23 -0.407464 0 -17.4644
-1376.85 -0.281905 0 -10.0072
-1368.81 -0.273347 0 -9.82146
-822.177 -0.477899 0 -23.3014
-827.011 -0.494431 0 -23.4128
-1372.83 -0.277613 0 -9.91383
-1095.57 -0.387933 0 -17.2403
-824.594 -0.486148 0 -23.3568
-1102.01 -0.400922 0 -17.3889
-1098.79 -0.394412 0 -17.3142
-1368.81 -0.273347 0 -9.82146
-1360.76 -0.264888 0 -9.63966
-817.344 -0.461502 0 -23.1922
-822.177 -0.477899 0 -23.3014
-1364.78 -0.269105 0 -9.73007
-1089.12 -0.375065 0 -17.0949
-819.761 -0.469684 0 -23.2465
-1095.57 -0.387933 0 -17.2403
-1092.34 -0.381485 0 -17.1672
-1360.76 -0.264888 0 -9.63966
-1352.71 -0.256522 0 -9.46175
-812.51 -0.445231 0 -23.0854
-817.344 -0.461502 0 -23.1922
-1356.73 -0.260693 0 -9.55022
-1082.68 -0.36231 0 -16.9525
-814.927 -0.453351 0 -23.1385
-1089.12 -0.375065 0 -17.0949
-1085.9 -0.368674 0 -17.0233
-1352.71 -0.256522 0 -9.46175
-1344.66 -0.248247 0 -9.28771
-807.676 -0.429082 0 -22.9809
-812.51 -0.445231 0 -23.0854
-1348.68 -0.252374 0 -9.37425
-1076.24 -0.349663 0 -16.8132
-810.093 -0.437142 0 -23.0329
-1082.68 -0.36231 0 -16.9525
-1079.46 -0.355973 0 -16.8825
-1344.66 -0.248247 0 -9.28771
-1336.61 -0.240059 0 -9.11751
-802.842 -0.413051 0 -22.8788
-807.676 -0.429082 0 -22.9809
-1340.64 -0.244143 0 -9.20213
-1069.8 -0.337122 0 -16.6771
-805.259 -0.421052 0 -22.9296
-1076.24 -0.349663 0 -16.8132
-1073.02 -0.343379 0 -16.7448
-1336.61 -0.240059 0 -9.11751
-1328.56 -0.231956 0 -8.95114
-798.008 -0.397135 0 -22.7789
-802.842 -0.413051 0 -22.8788
-1332.59 -0.235997 0 -9.03385
-1063.36 -0.324683 0 -16.5439
-800.425 -0.405079 0 -22.8285
-1069.8 -0.337122 0 -16.6771
-1066.58 -0.33089 0 -16.6101
-1328.56 -0.231956 0 -8.95114
-1320.51 -0.223935 0 -8.78857
-793.173 -0.381334 0 -22.6813
-798.008 -0.397135 0 -22.7789
-1324.54 -0.227936 0 -8.86938
-1056.91 -0.312345 0 -16.4138
-795.59 -0.389221 0 -22.7298
-1063.36 -0.324683 0 -16.5439
-1060.14 -0.318501 0 -16.4785
-1320.51 -0.223935 0 -8.78857
-1312.47 -0.215995 0 -8.62977
-788.339 -0.365646 0 -22.5859
-793.173 -0.381334 0 -22.6813
-1316.49 -0.219955 0 -8.7087
-1050.47 -0.300106 0 -16.2868
-790.756 -0.373476 0 -22.6333
-1056.91 -0.312345 0 -16.4138
-1053.69 -0.306213 0 -16.3499
-1312.47 -0.215995 0 -8.62977
-1304.42 -0.208133 0 -8.47473
-783.505 -0.350069 0 -22.4929
-788.339 -0.365646 0 -22.5859
-1308.44 -0.212054 0 -8.55178
-1044.03 -0.287965 0 -16.1627
-785.922 -0.357843 0 -22.5391
-1050.47 -0.300106 0 -16.2868
-1047.25 -0.294024 0 -16.2244
-1304.42 -0.208133 0 -8.47473
-1296.37 -0.200347 0 -8.32342
-778.671 -0.334603 0 -22.402
-783.505 -0.350069 0 -22.4929
-1300.39 -0.204231 0 -8.39861
-1037.59 -0.275921 0 -16.0416
-781.088 -0.342322 0 -22.4472
-1044.03 -0.287965 0 -16.1627
-1040.81 -0.281931 0 -16.1018
-1296.37 -0.200347 0 -8.32342
-1288.32 -0.192636 0 -8.17581
-773.837 -0.319247 0 -22.3134
-778.671 -0.334603 0 -22.402
-1292.34 -0.196482 0 -8.24915
-1031.15 -0.263971 0 -15.9235
-776.254 -0.326911 0 -22.3574
-1037.59 -0.275921 0 -16.0416
-1034.37 -0.269934 0 -15.9822
-1288.32 -0.192636 0 -8.17581
-1280.27 -0.184998 0 -8.03189
-769.003 -0.303999 0 -22.227
-773.837 -0.319247 0 -22.3134
-1284.29 -0.188808 0 -8.10339
-1024.7 -0.252114 0 -15.8083
-771.42 -0.311609 0 -22.2699
-1031.15 -0.263971 0 -15.9235
-1027.92 -0.258031 0 -15.8656
-1280.27 -0.184998 0 -8.03189
-1272.22 -0.17743 0 -7.89164
-764.169 -0.288859 0 -22.1428
-769.003 -0.303999 0 -22.227
-1276.24 -0.181205 0 -7.96131
-1018.26 -0.240349 0 -15.6961
-766.586 -0.296416 0 -22.1846
-1024.7 -0.252114 0 -15.8083
-1021.48 -0.24622 0 -15.7519
-1272.22 -0.17743 0 -7.89164
-1264.17 -0.169932 0 -7.75502
-759.335 -0.273826 0 -22.0607
-764.169 -0.288859 0 -22.1428
-1268.19 -0.173673 0 -7.82288
-1011.82 -0.228674 0 -15.5868
-761.752 -0.281329 0 -22.1015
-1018.26 -0.240349 0 -15.6961
-1015.04 -0.2345 0 -15.6411
-1264.17 -0.169932 0 -7.75502
-1256.12 -0.162501 0 -7.62202
-754.5 -0.258898 0 -21.9809
-759.335 -0.273826 0 -22.0607
-1260.15 -0.166208 0 -7.68807
-1005.38 -0.217089 0 -15.4804
-756.917 -0.266349 0 -22.0205
-1011.82 -0.228674 0 -15.5868
-1008.6 -0.22287 0 -15.5332
-1256.12 -0.162501 0 -7.62202
-1248.07 -0.155135 0 -7.49261
-749.666 -0.244075 0 -21.9032
-754.5 -0.258898 0 -21.9809
-1252.1 -0.15881 0 -7.55687
-998.935 -0.205591 0 -15.3768
-752.083 -0.251474 0 -21.9417
-1005.38 -0.217089 0 -15.4804
-1002.16 -0.211329 0 -15.4282
-1248.07 -0.155135 0 -7.49261
-1240.02 -0.147833 0 -7.36678
-744.832 -0.229356 0 -21.8276
-749.666 -0.244075 0 -21.9032
-1244.05 -0.151476 0 -7.42925
-992.492 -0.19418 0 -15.2761
-747.249 -0.236703 0 -21.8651
-998.935 -0.205591 0 -15.3768
-995.713 -0.199875 0 -15.3261
-1240.02 -0.147833 0 -7.36678
-1231.97 -0.140594 0 -7.24449
-739.998 -0.214739 0 -21.7542
-744.832 -0.229356 0 -21.8276
-1236 -0.144206 0 -7.30519
-986.05 -0.182853 0 -15.1782
-742.415 -0.222035 0 -21.7906
-992.492 -0.19418 0 -15.2761
-989.271 -0.188506 0 -15.2268
-1231.97 -0.140594 0 -7.24449
-1223.92 -0.133414 0 -7.12573
-735.163 -0.200225 0 -21.6828
-739.998 -0.214739 0 -21.7542
-1227.95 -0.136997 0 -7.18467
-979.607 -0.171611 0 -15.0832
-737.581 -0.207469 0 -21.7182
-986.05 -0.182853 0 -15.1782
-982.829 -0.177222 0 -15.1304
-1223.92 -0.133414 0 -7.12573
-1215.87 -0.126294 0 -7.01046
-730.329 -0.185811 0 -21.6136
-735.163 -0.200225 0 -21.6828
-1219.9 -0.129847 0 -7.06766
-973.165 -0.16045 0 -14.991
-732.746 -0.193005 0 -21.648
-979.607 -0.171611 0 -15.0832
-976.386 -0.16602 0 -15.0367
-1215.87 -0.126294 0 -7.01046
-1207.82 -0.119231 0 -6.89868
-725.495 -0.171497 0 -21.5465
-730.329 -0.185811 0 -21.6136
-1211.85 -0.122755 0 -6.95414
-966.722 -0.149371 0 -14.9015
-727.912 -0.178641 0 -21.5798
-973.165 -0.16045 0 -14.991
-969.944 -0.154901 0 -14.9459
-1207.82 -0.119231 0 -6.89868
-1199.77 -0.112223 0 -6.79035
-720.661 -0.157281 0 -21.4814
-725.495 -0.171497 0 -21.5465
-1203.8 -0.11572 0 -6.84409
-960.28 -0.138372 0 -14.8148
-723.078 -0.164377 0 -21.5137
-966.722 -0.149371 0 -14.9015
-963.501 -0.143862 0 -14.8578
-1199.77 -0.112223 0 -6.79035
-1191.72 -0.10527 0 -6.68546
-715.826 -0.143164 0 -21.4184
-720.661 -0.157281 0 -21.4814
-1195.75 -0.10874 0 -6.73748
-953.837 -0.127451 0 -14.7309
-718.244 -0.150211 0 -21.4497
-960.28 -0.138372 0 -14.8148
-957.059 -0.132902 0 -14.7725
-1191.72 -0.10527 0 -6.68546
-1183.67 -0.0983691 0 -6.58397
-710.992 -0.129145 0 -21.3575
-715.826 -0.143164 0 -21.4184
-1187.7 -0.101813 0 -6.63429
-947.395 -0.116608 0 -14.6497
-713.409 -0.136142 0 -21.3877
-953.837 -0.127451 0 -14.7309
-950.616 -0.12202 0 -14.6899
-1183.67 -0.0983691 0 -6.58397
-1175.62 -0.0915196 0 -6.48587
-706.158 -0.115221 0 -21.2986
-710.992 -0.129145 0 -21.3575
-1179.65 -0.0949381 0 -6.5345
-940.952 -0.105842 0 -14.5711
-708.575 -0.122171 0 -21.3278
-947.395 -0.116608 0 -14.6497
-944.173 -0.111216 0 -14.6101
-1175.62 -0.0915196 0 -6.48587
-1167.57 -0.0847198 0 -6.39114
-701.324 -0.101393 0 -21.2417
-706.158 -0.115221 0 -21.2986
-1171.6 -0.0881135 0 -6.43808
-934.51 -0.0951505 0 -14.4953
-703.741 -0.108295 0 -21.2699
-940.952 -0.105842 0 -14.5711
-937.731 -0.100487 0 -14.5329
-1167.57 -0.0847198 0 -6.39114
-1159.52 -0.0779683 0 -6.29974
-696.49 -0.0876602 0 -21.1868
-701.324 -0.101393 0 -21.2417
-1163.55 -0.0813381 0 -6.34502
-928.067 -0.0845332 0 -14.4222
-698.907 -0.094515 0 -21.214
-934.51 -0.0951505 0 -14.4953
-931.288 -0.0898327 0 -14.4584
-1159.52 -0.0779683 0 -6.29974
-1151.47 -0.0712637 0 -6.21166
-691.655 -0.0740209 0 -21.1339
-696.49 -0.0876602 0 -21.1868
-1155.5 -0.0746102 0 -6.25529
-921.624 -0.073989 0 -14.3517
-694.072 -0.0808288 0 -21.1601
-928.067 -0.0845332 0 -14.4222
-924.846 -0.079252 0 -14.3866
-1151.47 -0.0712637 0 -6.21166
-1143.42 -0.0646048 0 -6.12688
-686.821 -0.0604748 0 -21.0829
-691.655 -0.0740209 0 -21.1339
-1147.45 -0.0679286 0 -6.16886
-915.182 -0.0635167 0 -14.2838
-689.238 -0.0672362 0 -21.1081
-921.624 -0.073989 0 -14.3517
-918.403 -0.0687439 0 -14.3174
-1143.42 -0.0646048 0 -6.12688
-1135.37 -0.0579902 0 -6.04537
-681.987 -0.047021 0 -21.034
-686.821 -0.0604748 0 -21.0829
-1139.4 -0.061292 0 -6.08572
-908.739 -0.0531154 0 -14.2186
-684.404 -0.0537364 0 -21.0582
-915.182 -0.0635167 0 -14.2838
-911.96 -0.0583072 0 -14.2509
-1135.37 -0.0579902 0 -6.04537
-1127.32 -0.0514186 0 -5.96711
-677.153 -0.0336589 0 -20.9869
-681.987 -0.047021 0 -21.034
-1131.35 -0.0546991 0 -6.00583
-902.296 -0.0427839 0 -14.156
-679.57 -0.0403286 0 -21.0102
-908.739 -0.0531154 0 -14.2186
-905.518 -0.047941 0 -14.187
-1127.32 -0.0514186 0 -5.96711
-1119.27 -0.0448888 0 -5.89207
-672.318 -0.0203877 0 -20.9419
-677.153 -0.0336589 0 -20.9869
-1123.3 -0.0481486 0 -5.92919
-895.854 -0.0325215 0 -14.0959
-674.735 -0.027012 0 -20.9642
-902.296 -0.0427839 0 -14.156
-899.075 -0.0376441 0 -14.1256
-1119.27 -0.0448888 0 -5.89207
-1111.22 -0.0383996 0 -5.82023
-667.484 -0.00720672 0 -20.8987
-672.318 -0.0203877 0 -20.9419
-1115.25 -0.0416392 0 -5.85575
-889.411 -0.022327 0 -14.0384
-669.901 -0.013786 0 -20.92
-895.854 -0.0325215 0 -14.0959
-892.632 -0.0274158 0 -14.0668
-1111.22 -0.0383996 0 -5.82023
-1103.17 -0.0319497 0 -5.75158
-662.65 0.00588475 0 -20.8574
-667.484 -0.00720672 0 -20.8987
-1107.2 -0.0351698 0 -5.78551
-882.968 -0.0121995 0 -13.9835
-665.067 -0.00064984 0 -20.8778
-889.411 -0.022327 0 -14.0384
-886.19 -0.0172549 0 -14.0106
-1103.17 -0.0319497 0 -5.75158
-1095.12 -0.025538 0 -5.68608
-657.816 0.0188874 0 -20.8181
-662.65 0.00588475 0 -20.8574
-1099.15 -0.0287391 0 -5.71844
-876.525 -0.00213816 0 -13.931
-660.233 0.0123971 0 -20.8375
-882.968 -0.0121995 0 -13.9835
-879.747 -0.00716062 0 -13.9569
-1095.12 -0.025538 0 -5.68608
-1087.07 -0.0191634 0 -5.62372
-652.982 0.0318018 0 -20.7806
-657.816 0.0188874 0 -20.8181
-1091.1 -0.0223462 0 -5.65451
-870.083 0.00785795 0 -13.8811
-655.399 0.0253556 0 -20.7991
-876.525 -0.00213816 0 -13.931
-873.304 0.002868 0 -13.9058
-1087.07 -0.0191634 0 -5.62372
-1079.02 -0.0128248 0 -5.56446
-648.147 0.0446287 0 -20.745
-652.982 0.0318018 0 -20.7806
-1083.05 -0.0159897 0 -5.5937
-863.64 0.0177897 0 -13.8337
-650.564 0.0382261 0 -20.7626
-870.083 0.00785795 0 -13.8811
-866.861 0.0128318 0 -13.8571
-1079.02 -0.0128248 0 -5.56446
-1070.97 -0.00652116 0 -5.50829
-643.313 0.0573686 0 -20.7112
-648.147 0.0446287 0 -20.745
-1075 -0.0096687 0 -5.53599
-857.197 0.0276579 0 -13.7887
-645.73 0.0510094 0 -20.7279
-863.64 0.0177897 0 -13.8337
-860.419 0.0227317 0 -13.8109
-1070.97 -0.00652115 0 -5.50829
-1062.92 -0.000251345 0 -5.45519
-638.479 0.0700221 0 -20.6793
-643.313 0.0573686 0 -20.7112
-1066.95 -0.00338208 0 -5.48136
-850.755 0.0374634 0 -13.7462
-640.896 0.0637061 0 -20.6951
-857.197 0.0276579 0 -13.7887
-853.976 0.0325685 0 -13.7672
-1062.92 -0.000251344 0 -5.45519
-1054.87 0.00598561 0 -5.40513
-633.645 0.0825899 0 -20.6492
-638.479 0.0700221 0 -20.6793
-1058.9 0.00287118 0 -5.42978
-844.312 0.0472071 0 -13.7061
-636.062 0.0763167 0 -20.664
-850.755 0.0374634 0 -13.7462
-847.533 0.0423429 0 -13.7259
-1054.87 0.00598561 0 -5.40513
-1046.82 0.0121907 0 -5.35809
-628.811 0.0950726 0 -20.6209
-633.645 0.0825899 0 -20.6492
-1050.85 0.00909208 0 -5.38123
-837.869 0.0568896 0 -13.6685
-631.228 0.0888419 0 -20.6349
-844.312 0.0472071 0 -13.7061
-841.09 0.0520559 0 -13.687
-1046.82 0.0121907 0 -5.35809
-1038.77 0.0183649 0 -5.31404
-623.977 0.107471 0 -20.5945
-628.811 0.0950726 0 -20.6209
-1042.79 0.0152816 0 -5.33569
-831.426 0.0665117 0 -13.6332
-626.394 0.101282 0 -20.6075
-837.869 0.0568896 0 -13.6685
-834.648 0.0617081 0 -13.6505
-1038.77 0.0183649 0 -5.31404
-1030.72 0.024509 0 -5.27297
-619.143 0.119784 0 -20.5698
-623.977 0.107471 0 -20.5945
-1034.74 0.0214406 0 -5.29313
-824.984 0.0760742 0 -13.6003
-621.56 0.113638 0 -20.5819
-831.426 0.0665117 0 -13.6332
-828.205 0.0713003 0 -13.6165
-1030.72 0.024509 0 -5.27297
-1022.67 0.0306241 0 -5.23484
-614.309 0.132015 0 -20.5468
-619.143 0.119784 0 -20.5698
-1026.69 0.0275702 0 -5.25354
-818.541 0.0855777 0 -13.5698
-616.726 0.12591 0 -20.5581
-824.984 0.0760742 0 -13.6003
-821.762 0.0808333 0 -13.5848
-1022.67 0.0306241 0 -5.23484
-1014.62 0.036711 0 -5.19964
-609.475 0.144162 0 -20.5256
-614.309 0.132015 0 -20.5468
-1018.64 0.033671 0 -5.21688
-812.098 0.095023 0 -13.5416
-611.892 0.138099 0 -20.536
-818.541 0.0855777 0 -13.5698
-815.32 0.0903076 0 -13.5554
-1014.62 0.036711 0 -5.19964
-1006.57 0.0427705 0 -5.16735
-604.64 0.156226 0 -20.5062
-609.475 0.144162 0 -20.5256
-1010.59 0.0397441 0 -5.18313
-805.655 0.104411 0 -13.5158
-607.058 0.150204 0 -20.5157
-812.098 0.095023 0 -13.5416
-808.877 0.099724 0 -13.5284
-1006.57 0.0427705 0 -5.16735
-998.517 0.0488035 0 -5.13793
-599.806 0.168209 0 -20.4885
-604.64 0.156226 0 -20.5062
-1002.54 0.0457903 0 -5.15228
-799.213 0.113742 0 -13.4922
-602.223 0.162228 0 -20.4971
-805.655 0.104411 0 -13.5158
-802.434 0.109083 0 -13.5037
-998.517 0.0488035 0 -5.13793
-990.466 0.0548107 0 -5.11137
-594.972 0.18011 0 -20.4725
-599.806 0.168209 0 -20.4885
-994.491 0.0518102 0 -5.1243
-792.77 0.123016 0 -13.4709
-597.389 0.174169 0 -20.4803
-799.213 0.113742 0 -13.4922
-795.991 0.118386 0 -13.4813
-990.466 0.0548107 0 -5.11137
-982.415 0.0607928 0 -5.08765
-590.138 0.191929 0 -20.4582
-594.972 0.18011 0 -20.4725
-986.441 0.0578048 0 -5.09916
-786.327 0.132235 0 -13.4519
-592.555 0.186029 0 -20.4652
-792.77 0.123016 0 -13.4709
-789.549 0.127632 0 -13.4611
-982.415 0.0607928 0 -5.08765
-974.365 0.0667508 0 -5.06674
-585.305 0.203668 0 -20.4456
-590.138 0.191929 0 -20.4582
-978.39 0.0637748 0 -5.07684
-779.885 0.141398 0 -13.4352
-587.721 0.197808 0 -20.4517
-786.327 0.132235 0 -13.4519
-783.106 0.136823 0 -13.4433
-974.365 0.0667508 0 -5.06674
-966.314 0.0726852 0 -5.04862
-580.471 0.215326 0 -20.4347
-585.305 0.203668 0 -20.4456
-970.339 0.0697209 0 -5.05733
-773.442 0.150507 0 -13.4206
-582.888 0.209507 0 -20.4399
-779.885 0.141398 0 -13.4352
-776.663 0.14596 0 -13.4276
-966.314 0.0726852 0 -5.04862
-958.263 0.0785967 0 -5.03326
-575.637 0.226904 0 -20.4254
-580.471 0.215326 0 -20.4347
-962.289 0.0756437 0 -5.04059
-766.999 0.159562 0 -13.4083
-578.054 0.221125 0 -20.4298
-773.442 0.150507 0 -13.4206
-770.22 0.155042 0 -13.4142
-958.263 0.0785967 0 -5.03326
-950.213 0.084486 0 -5.02064
-570.803 0.238403 0 -20.4178
-575.637 0.226904 0 -20.4254
-954.238 0.0815441 0 -5.02661
-760.556 0.168564 0 -13.3982
-573.22 0.232663 0 -20.4214
-766.999 0.159562 0 -13.4083
-763.778 0.16407 0 -13.403
-950.213 0.084486 0 -5.02064
-942.162 0.0903538 0 -5.01074
-565.969 0.249822 0 -20.4118
-570.803 0.238403 0 -20.4178
-946.187 0.0874225 0 -5.01535
-754.114 0.177512 0 -13.3903
-568.386 0.244122 0 -20.4146
-760.556 0.168564 0 -13.3982
-757.335 0.173045 0 -13.394
-942.162 0.0903538 0 -5.01074
-934.111 0.0962006 0 -5.00354
-561.135 0.261162 0 -20.4074
-565.969 0.249822 0 -20.4118
-938.137 0.0932797 0 -5.00681
-747.671 0.186408 0 -13.3845
-563.552 0.255502 0 -20.4094
-754.114 0.177512 0 -13.3903
-750.892 0.181967 0 -13.3871
-934.111 0.0962006 0 -5.00354
-926.061 0.102027 0 -4.99902
-556.301 0.272424 0 -20.4047
-561.135 0.261162 0 -20.4074
-930.086 0.0991163 0 -5.00095
-741.228 0.195252 0 -13.3808
-558.718 0.266803 0 -20.4058
-747.671 0.186408 0 -13.3845
-744.45 0.190836 0 -13.3824
-926.061 0.102027 0 -4.99902
-918.01 0.107834 0 -4.99714
-551.467 0.283607 0 -20.4035
-556.301 0.272424 0 -20.4047
-922.035 0.104933 0 -4.99775
-734.786 0.204044 0 -13.3793
-553.884 0.278025 0 -20.4039
-741.228 0.195252 0 -13.3808
-738.007 0.199654 0 -13.3798
-918.01 0.107834 0 -4.99714
-909.959 0.113621 0 -4.99789
-546.634 0.294712 0 -20.4039
-551.467 0.283607 0 -20.4035
-913.985 0.11073 0 -4.99719
-728.343 0.212785 0 -13.3799
-549.05 0.289169 0 -20.4035
-734.786 0.204044 0 -13.3793
-731.564 0.208421 0 -13.3794
-909.959 0.113621 0 -4.99789
-901.908 0.119389 0 -5.00124
-541.8 0.30574 0 -20.4058
-546.634 0.294712 0 -20.4039
-905.934 0.116507 0 -4.99924
-721.9 0.221475 0 -13.3826
-544.217 0.300236 0 -20.4047
-728.343 0.212785 0 -13.3799
-725.122 0.217136 0 -13.381
-901.908 0.119389 0 -5.00124
-893.858 0.12514 0 -5.00718
-536.966 0.31669 0 -20.4093
-541.8 0.30574 0 -20.4058
-897.883 0.122267 0 -5.00389
-715.458 0.230114 0 -13.3873
-539.383 0.311224 0 -20.4074
-721.9 0.221475 0 -13.3826
-718.679 0.225801 0 -13.3847
-893.858 0.12514 0 -5.00718
-885.807 0.130872 0 -5.01567
-532.132 0.327562 0 -20.4144
-536.966 0.31669 0 -20.4093
-889.832 0.128008 0 -5.01111
-709.015 0.238704 0 -13.3941
-534.549 0.322136 0 -20.4117
-715.458 0.230114 0 -13.3873
-712.237 0.234415 0 -13.3904
-885.807 0.130872 0 -5.01567
-877.756 0.136587 0 -5.0267
-527.299 0.338358 0 -20.421
-532.132 0.327562 0 -20.4144
-881.782 0.133732 0 -5.02087
-702.573 0.247243 0 -13.4029
-529.715 0.33297 0 -20.4175
-709.015 0.238704 0 -13.3941
-705.794 0.24298 0 -13.3982
-877.756 0.136587 0 -5.0267
-869.705 0.142285 0 -5.04024
-522.465 0.349077 0 -20.429
-527.299 0.338358 0 -20.421
-873.731 0.139438 0 -5.03316
-696.13 0.255734 0 -13.4137
-524.882 0.343727 0 -20.4248
-702.573 0.247243 0 -13.4029
-699.351 0.251495 0 -13.408
-869.705 0.142285 0 -5.04024
-861.655 0.147966 0 -5.05627
-517.631 0.35972 0 -20.4386
-522.465 0.349077 0 -20.429
-865.68 0.145128 0 -5.04795
-689.687 0.264175 0 -13.4265
-520.048 0.354408 0 -20.4336
-696.13 0.255734 0 -13.4137
-692.909 0.25996 0 -13.4198
-861.655 0.147966 0 -5.05627
-853.604 0.153632 0 -5.07477
-512.798 0.370286 0 -20.4496
-517.631 0.35972 0 -20.4386
-857.629 0.150801 0 -5.06521
-683.245 0.272567 0 -13.4413
-515.214 0.365013 0 -20.4439
-689.687 0.264175 0 -13.4265
-686.466 0.268377 0 -13.4336
-853.604 0.153632 0 -5.07477
-845.553 0.159281 0 -5.09571
-507.964 0.380776 0 -20.4622
-512.798 0.370286 0 -20.4496
-849.578 0.156458 0 -5.08493
-676.802 0.28091 0 -13.458
-510.381 0.375541 0 -20.4557
-683.245 0.272567 0 -13.4413
-680.024 0.276745 0 -13.4494
-845.553 0.159281 0 -5.09571
-837.502 0.164915 0 -5.11907
-503.13 0.391191 0 -20.4761
-507.964 0.380776 0 -20.4622
-841.528 0.1621 0 -5.10709
-670.36 0.289206 0 -13.4767
-505.547 0.385993 0 -20.469
-676.802 0.28091 0 -13.458
-673.581 0.285064 0 -13.4671
-837.502 0.164915 0 -5.11907
-829.451 0.170533 0 -5.14482
-498.297 0.401529 0 -20.4915
-503.13 0.391191 0 -20.4761
-833.477 0.167726 0 -5.13165
-663.917 0.297453 0 -13.4972
-500.714 0.396369 0 -20.4836
-670.36 0.289206 0 -13.4767
-667.139 0.293335 0 -13.4867
-829.451 0.170533 0 -5.14482
-821.401 0.176137 0 -5.17295
-493.463 0.411792 0 -20.5084
-498.297 0.401529 0 -20.4915
-825.426 0.173337 0 -5.15859
-657.475 0.305652 0 -13.5197
-495.88 0.40667 0 -20.4998
-663.917 0.297453 0 -13.4972
-660.696 0.301558 0 -13.5082
-821.401 0.176137 0 -5.17295
-813.35 0.181725 0 -5.20343
-488.63 0.421979 0 -20.5266
-493.463 0.411792 0 -20.5084
-817.375 0.178933 0 -5.1879
-651.032 0.313803 0 -13.5441
-491.047 0.416895 0 -20.5173
-657.475 0.305652 0 -13.5197
-654.254 0.309733 0 -13.5317
-813.35 0.181725 0 -5.20343
-805.299 0.1873 0 -5.23624
-483.796 0.43209 0 -20.5462
-488.63 0.421979 0 -20.5266
-809.324 0.184514 0 -5.21955
-644.59 0.321907 0 -13.5703
-486.213 0.427044 0 -20.5362
-651.032 0.313803 0 -13.5441
-647.811 0.317861 0 -13.557
-805.299 0.1873 0 -5.23624
-797.248 0.19286 0 -5.27136
-478.963 0.442127 0 -20.5673
-483.796 0.43209 0 -20.5462
-801.274 0.190081 0 -5.25351
-638.147 0.329964 0 -13.5984
-481.38 0.437118 0 -20.5566
-644.59 0.321907 0 -13.5703
-641.369 0.325941 0 -13.5841
-797.248 0.19286 0 -5.27136
-789.197 0.198406 0 -5.30875
-474.13 0.452088 0 -20.5896
-478.963 0.442127 0 -20.5673
-793.223 0.195634 0 -5.28977
-631.705 0.337973 0 -13.6283
-476.546 0.447117 0 -20.5783
-638.147 0.329964 0 -13.5984
-634.926 0.333974 0 -13.6131
-789.197 0.198406 0 -5.30875
-781.147 0.203937 0 -5.34841
-469.296 0.461974 0 -20.6134
-474.13 0.452088 0 -20.5896
-785.172 0.201173 0 -5.3283
-625.263 0.345935 0 -13.66
-471.713 0.45704 0 -20.6013
-631.705 0.337973 0 -13.6283
-628.484 0.34196 0 -13.6439
-781.147 0.203937 0 -5.34841
-773.096 0.209456 0 -5.3903
-464.463 0.471785 0 -20.6385
-469.296 0.461974 0 -20.6134
-777.121 0.206698 0 -5.36907
-618.82 0.35385 0 -13.6935
-466.88 0.466889 0 -20.6258
-625.263 0.345935 0 -13.66
-622.041 0.349898 0 -13.6765
-773.096 0.209456 0 -5.3903
-765.045 0.21496 0 -5.4344
-459.63 0.481521 0 -20.6649
-464.463 0.471785 0 -20.6385
-769.07 0.212209 0 -5.41207
-612.378 0.361718 0 -13.7288
-462.046 0.476663 0 -20.6515
-618.82 0.35385 0 -13.6935
-615.599 0.35779 0 -13.7109
-765.045 0.21496 0 -5.4344
-756.994 0.220451 0 -5.48069
-454.796 0.491182 0 -20.6926
-459.63 0.481521 0 -20.6649
-761.02 0.217707 0 -5.45728
-605.935 0.369539 0 -13.7658
-457.213 0.486361 0 -20.6786
-612.378 0.361718 0 -13.7288
-609.157 0.365635 0 -13.747
-756.994 0.220451 0 -5.48069
-748.943 0.225928 0 -5.52915
-449.963 0.500768 0 -20.7217
-454.796 0.491182 0 -20.6926
-752.969 0.223191 0 -5.50466
-599.493 0.377314 0 -13.8045
-452.38 0.495985 0 -20.707
-605.935 0.369539 0 -13.7658
-602.714 0.373432 0 -13.7849
-748.943 0.225928 0 -5.52915
-740.892 0.231392 0 -5.57976
-445.13 0.51028 0 -20.752
-449.963 0.500768 0 -20.7217
-744.918 0.228662 0 -5.55419
-593.051 0.385042 0 -13.845
-447.546 0.505533 0 -20.7367
-599.493 0.377314 0 -13.8045
-596.272 0.381184 0 -13.8245
-740.892 0.231392 0 -5.57976
-732.842 0.236843 0 -5.63248
-440.297 0.519716 0 -20.7836
-445.13 0.51028 0 -20.752
-736.867 0.234119 0 -5.60586
-586.608 0.392723 0 -13.8872
-442.713 0.515007 0 -20.7676
-593.051 0.385042 0 -13.845
-589.829 0.388888 0 -13.8659
-732.842 0.236843 0 -5.63248
-724.791 0.24228 0 -5.6873
-435.463 0.529077 0 -20.8164
-440.297 0.519716 0 -20.7836
-728.816 0.239563 0 -5.65963
-580.166 0.400357 0 -13.931
-437.88 0.524406 0 -20.7998
-586.608 0.392723 0 -13.8872
-583.387 0.396546 0 -13.9089
-724.791 0.24228 0 -5.6873
-716.74 0.247704 0 -5.7442
-430.63 0.538364 0 -20.8505
-435.463 0.529077 0 -20.8164
-720.765 0.244994 0 -5.7155
-573.724 0.407944 0 -13.9765
-433.047 0.53373 0 -20.8333
-580.166 0.400357 0 -13.931
-576.945 0.404157 0 -13.9535
-716.74 0.247704 0 -5.7442
-708.689 0.253114 0 -5.80315
-425.797 0.547576 0 -20.8858
-430.63 0.538364 0 -20.8505
-712.715 0.250411 0 -5.77342
-567.281 0.415485 0 -14.0236
-428.214 0.542979 0 -20.868
-573.724 0.407944 0 -13.9765
-570.503 0.411721 0 -13.9999
-708.689 0.253114 0 -5.80315
-700.638 0.258511 0 -5.86413
-420.964 0.556712 0 -20.9224
-425.797 0.547576 0 -20.8858
-704.664 0.255815 0 -5.83339
-560.839 0.422979 0 -14.0724
-423.381 0.552153 0 -20.904
-567.281 0.415485 0 -14.0236
-564.06 0.419238 0 -14.0478
-700.638 0.258511 0 -5.86413
-692.587 0.263895 0 -5.92711
-416.131 0.565774 0 -20.9601
-420.964 0.556712 0 -20.9224
-696.613 0.261205 0 -5.89537
-554.397 0.430427 0 -14.1228
-418.547 0.561253 0 -20.9411
-560.839 0.422979 0 -14.0724
-557.618 0.426709 0 -14.0974
-692.587 0.263895 0 -5.92711
-684.537 0.269265 0 -5.99208
-411.298 0.574761 0 -20.9991
-416.131 0.565774 0 -20.9601
-688.562 0.266582 0 -5.95935
-547.955 0.437827 0 -14.1747
-413.714 0.570277 0 -20.9795
-554.397 0.430427 0 -14.1228
-551.176 0.434133 0 -14.1486
-684.537 0.269265 0 -5.99208
-676.486 0.274622 0 -6.059
-406.465 0.583672 0 -21.0392
-411.298 0.574761 0 -20.9991
-680.511 0.271945 0 -6.02529
-541.512 0.44518 0 -14.2283
-408.881 0.579226 0 -21.019
-547.955 0.437827 0 -14.1747
-544.734 0.44151 0 -14.2013
-676.486 0.274622 0 -6.059
-668.435 0.279965 0 -6.12786
-401.632 0.592508 0 -21.0805
-406.465 0.583672 0 -21.0392
-672.46 0.277295 0 -6.09319
-535.07 0.452487 0 -14.2833
-404.048 0.5881 0 -21.0597
-541.512 0.44518 0 -14.2283
-538.291 0.448839 0 -14.2556
-668.435 0.279965 0 -6.12786
-660.384 0.285294 0 -6.19864
-396.799 0.601269 0 -21.1229
-401.632 0.592508 0 -21.0805
-664.41 0.282631 0 -6.16301
-528.628 0.459746 0 -14.3399
-399.215 0.596898 0 -21.1015
-535.07 0.452487 0 -14.2833
-531.849 0.456122 0 -14.3115
-660.384 0.285294 0 -6.19864
-652.333 0.290609 0 -6.2713
-391.966 0.609955 0 -21.1665
-396.799 0.601269 0 -21.1229
-656.359 0.287953 0 -6.23474
-522.186 0.466958 0 -14.3981
-394.382 0.605621 0 -21.1445
-528.628 0.459746 0 -14.3399
-525.407 0.463358 0 -14.3688
-652.333 0.290609 0 -6.2713
-644.282 0.295909 0 -6.34584
-387.133 0.618565 0 -21.2111
-391.966 0.609955 0 -21.1665
-648.308 0.293261 0 -6.30834
-515.744 0.474122 0 -14.4577
-389.55 0.614269 0 -21.1887
-522.186 0.466958 0 -14.3981
-518.965 0.470546 0 -14.4277
-644.282 0.295909 0 -6.34584
-636.232 0.301196 0 -6.42221
-382.3 0.627099 0 -21.2569
-387.133 0.618565 0 -21.2111
-640.257 0.298555 0 -6.3838
-509.302 0.481239 0 -14.5188
-384.717 0.622841 0 -21.2339
-515.744 0.474122 0 -14.4577
-512.523 0.477687 0 -14.488
-636.232 0.301196 0 -6.42221
-628.181 0.306468 0 -6.50041
-377.467 0.635557 0 -21.3038
-382.3 0.627099 0 -21.2569
-632.206 0.303834 0 -6.46109
-502.86 0.488308 0 -14.5813
-379.884 0.631338 0 -21.2802
-509.302 0.481239 0 -14.5188
-506.081 0.48478 0 -14.5499
-628.181 0.306468 0 -6.50041
-620.13 0.311725 0 -6.58041
-372.635 0.64394 0 -21.3518
-377.467 0.635557 0 -21.3038
-624.155 0.309098 0 -6.54019
-496.417 0.495329 0 -14.6453
-375.051 0.639758 0 -21.3277
-502.86 0.488308 0 -14.5813
-499.638 0.491825 0 -14.6131
-620.13 0.311725 0 -6.58041
-612.079 0.316968 0 -6.66218
-367.802 0.652247 0 -21.4008
-372.635 0.64394 0 -21.3518
-616.104 0.314348 0 -6.62108
-489.975 0.502302 0 -14.7107
-370.218 0.648103 0 -21.3762
-496.417 0.495329 0 -14.6453
-493.196 0.498822 0 -14.6778
-612.079 0.316968 0 -6.66218
-604.028 0.322195 0 -6.74571
-362.969 0.660477 0 -21.4509
-367.802 0.652247 0 -21.4008
-608.054 0.319583 0 -6.70373
-483.533 0.509227 0 -14.7775
-365.385 0.656371 0 -21.4257
-489.975 0.502302 0 -14.7107
-486.754 0.505771 0 -14.7439
-604.028 0.322195 0 -6.74571
-595.977 0.327406 0 -6.83096
-358.136 0.668631 0 -21.502
-362.969 0.660477 0 -21.4509
-600.003 0.324802 0 -6.78812
-477.091 0.516103 0 -14.8457
-360.553 0.664563 0 -21.4763
-483.533 0.509227 0 -14.7775
-480.312 0.512671 0 -14.8114
-595.977 0.327406 0 -6.83096
-587.926 0.332602 0 -6.91792
-353.304 0.676708 0 -21.5542
-358.136 0.668631 0 -21.502
-591.952 0.330006 0 -6.87423
-470.649 0.522931 0 -14.9153
-355.72 0.672679 0 -21.528
-477.091 0.516103 0 -14.8457
-473.87 0.519523 0 -14.8803
-587.926 0.332602 0 -6.91792
-579.876 0.337782 0 -7.00657
-348.471 0.684709 0 -21.6073
-353.304 0.676708 0 -21.5542
-583.901 0.335194 0 -6.96204
-464.207 0.529709 0 -14.9862
-350.887 0.680718 0 -21.5806
-470.649 0.522931 0 -14.9153
-467.428 0.526326 0 -14.9506
-579.876 0.337782 0 -7.00657
-571.825 0.342945 0 -7.09687
-343.638 0.692632 0 -21.6615
-348.471 0.684709 0 -21.6073
-575.85 0.340366 0 -7.05151
-457.765 0.536438 0 -15.0584
-346.055 0.68868 0 -21.6343
-464.207 0.529709 0 -14.9862
-460.986 0.53308 0 -15.0221
-571.825 0.342945 0 -7.09687
-563.774 0.348092 0 -7.18881
-338.806 0.700479 0 -21.7166
-343.638 0.692632 0 -21.6615
-567.799 0.345521 0 -7.14264
-451.323 0.543118 0 -15.132
-341.222 0.696565 0 -21.6889
-457.765 0.536438 0 -15.0584
-454.544 0.539785 0 -15.095
-563.774 0.348092 0 -7.18881
-555.723 0.353222 0 -7.28237
-333.973 0.708248 0 -21.7727
-338.806 0.700479 0 -21.7166
-559.748 0.350659 0 -7.23539
-444.881 0.549748 0 -15.2068
-336.389 0.704373 0 -21.7445
-451.323 0.543118 0 -15.132
-448.102 0.546439 0 -15.1692
-555.723 0.353222 0 -7.28237
-547.672 0.358334 0 -7.37752
-329.14 0.715939 0 -21.8298
-333.973 0.708248 0 -21.7727
-551.697 0.35578 0 -7.32975
-438.439 0.556328 0 -15.2829
-331.557 0.712103 0 -21.8011
-444.881 0.549748 0 -15.2068
-441.66 0.553044 0 -15.2447
-547.672 0.358334 0 -7.37752
-539.621 0.363429 0 -7.47423
-324.308 0.723552 0 -21.8878
-329.14 0.715939 0 -21.8298
-543.647 0.360884 0 -7.42568
-431.997 0.562857 0 -15.3603
-326.724 0.719755 0 -21.8586
-438.439 0.556328 0 -15.2829
-435.218 0.559599 0 -15.3214
-539.621 0.363429 0 -7.47423
-531.57 0.368506 0 -7.57249
-319.475 0.731088 0 -21.9467
-324.308 0.723552 0 -21.8878
-535.596 0.36597 0 -7.52317
-425.555 0.569336 0 -15.4389
-321.892 0.72733 0 -21.9171
-431.997 0.562857 0 -15.3603
-428.776 0.566103 0 -15.3994
-531.57 0.368506 0 -7.57249
-523.519 0.373564 0 -7.67228
-314.643 0.738545 0 -22.0065
-319.475 0.731088 0 -21.9467
-527.545 0.371037 0 -7.6222
-419.113 0.575764 0 -15.5187
-317.059 0.734826 0 -21.9765
-425.555 0.569336 0 -15.4389
-422.334 0.572556 0 -15.4786
-523.519 0.373564 0 -7.67228
-515.468 0.378603 0 -7.77356
-309.81 0.745923 0 -22.0673
-314.643 0.738545 0 -22.0065
-519.494 0.376086 0 -7.72273
-412.671 0.58214 0 -15.5997
-312.227 0.742244 0 -22.0368
-419.113 0.575764 0 -15.5187
-415.892 0.578958 0 -15.559
-515.468 0.378603 0 -7.77356
-507.417 0.383623 0 -7.87632
-304.978 0.753223 0 -22.1289
-309.81 0.745923 0 -22.0673
-511.443 0.381115 0 -7.82475
-406.23 0.588465 0 -15.6819
-307.394 0.749583 0 -22.098
-412.671 0.58214 0 -15.5997
-409.451 0.585309 0 -15.6407
-507.417 0.383623 0 -7.87632
-499.366 0.388623 0 -7.98053
-300.146 0.760443 0 -22.1914
-304.978 0.753223 0 -22.1289
-503.392 0.386125 0 -7.92824
-399.788 0.594737 0 -15.7653
-302.562 0.756843 0 -22.16
-406.23 0.588465 0 -15.6819
-403.009 0.591607 0 -15.7234
-499.366 0.388623 0 -7.98053
-491.316 0.393602 0 -8.08617
-295.313 0.767584 0 -22.2548
-300.146 0.760443 0 -22.1914
-495.341 0.391115 0 -8.03317
-393.346 0.600957 0 -15.8498
-297.729 0.764024 0 -22.223
-399.788 0.594737 0 -15.7653
-396.567 0.597854 0 -15.8074
-491.316 0.393602 0 -8.08617
-483.265 0.398561 0 -8.19322
-290.481 0.774646 0 -22.319
-295.313 0.767584 0 -22.2548
-487.29 0.396084 0 -8.13952
-386.904 0.607125 0 -15.9354
-292.897 0.771125 0 -22.2868
-393.346 0.600957 0 -15.8498
-390.125 0.604048 0 -15.8924
-483.265 0.398561 0 -8.19322
-475.214 0.403499 0 -8.30165
-285.648 0.781627 0 -22.384
-290.481 0.774646 0 -22.319
-479.239 0.401033 0 -8.24726
-380.462 0.613239 0 -16.0221
-288.065 0.778146 0 -22.3514
-386.904 0.607125 0 -15.9354
-383.683 0.610188 0 -15.9786
-475.214 0.403499 0 -8.30165
-467.163 0.408415 0 -8.41144
-280.816 0.788528 0 -22.4499
-285.648 0.781627 0 -22.384
-471.188 0.40596 0 -8.35638
-374.02 0.619299 0 -16.11
-283.232 0.785087 0 -22.4168
-380.462 0.613239 0 -16.0221
-377.241 0.616276 0 -16.0659
-467.163 0.408415 0 -8.41144
-459.112 0.413309 0 -8.52257
-275.984 0.795348 0 -22.5165
-280.816 0.788528 0 -22.4499
-463.137 0.410865 0 -8.46684
-367.578 0.625306 0 -16.1989
-278.4 0.791948 0 -22.4831
-374.02 0.619299 0 -16.11
-370.799 0.622309 0 -16.1543
-459.112 0.413309 0 -8.52257
-451.061 0.41818 0 -8.63502
-271.151 0.802087 0 -22.584
-275.984 0.795348 0 -22.5165
-455.086 0.415748 0 -8.57863
-361.137 0.631258 0 -16.2888
-273.568 0.798728 0 -22.5501
-367.578 0.625306 0 -16.1989
-364.357 0.628289 0 -16.2437
-451.061 0.41818 0 -8.63502
-443.01 0.423028 0 -8.74876
-266.319 0.808746 0 -22.6522
-271.151 0.802087 0 -22.584
-447.035 0.420607 0 -8.69173
-354.695 0.637155 0 -16.3798
-268.735 0.805427 0 -22.618
-361.137 0.631258 0 -16.2888
-357.916 0.634213 0 -16.3342
-443.01 0.423028 0 -8.74876
-434.959 0.427853 0 -8.86376
-261.487 0.815322 0 -22.7212
-266.319 0.808746 0 -22.6522
-438.984 0.425444 0 -8.8061
-348.253 0.642997 0 -16.4718
-263.903 0.812044 0 -22.6866
-354.695 0.637155 0 -16.3798
-351.474 0.640083 0 -16.4257
-434.959 0.427853 0 -8.86376
-426.908 0.432653 0 -8.98002
-256.655 0.821816 0 -22.7909
-261.487 0.815322 0 -22.7212
-430.933 0.430256 0 -8.92174
-341.811 0.648783 0 -16.5648
-259.071 0.818579 0 -22.756
-348.253 0.642997 0 -16.4718
-345.032 0.645897 0 -16.5182
-426.908 0.432653 0 -8.98002
-418.857 0.437428 0 -9.09749
-251.823 0.828229 0 -22.8614
-256.655 0.821816 0 -22.7909
-422.882 0.435043 0 -9.0386
-335.369 0.654513 0 -16.6588
-254.239 0.825033 0 -22.8261
-341.811 0.648783 0 -16.5648
-338.59 0.651655 0 -16.6117
-418.857 0.437428 0 -9.09749
-410.805 0.442177 0 -9.21617
-246.99 0.834558 0 -22.9326
-251.823 0.828229 0 -22.8614
-414.831 0.439806 0 -9.15668
-328.928 0.660187 0 -16.7537
-249.406 0.831404 0 -22.8969
-335.369 0.654513 0 -16.6588
-332.148 0.657357 0 -16.7061
-410.805 0.442177 0 -9.21617
-402.754 0.446901 0 -9.33602
-242.158 0.840805 0 -23.0045
-246.99 0.834558 0 -22.9326
-406.78 0.444542 0 -9.27595
-322.486 0.665803 0 -16.8496
-244.574 0.837692 0 -22.9684
-328.928 0.660187 0 -16.7537
-325.707 0.663002 0 -16.8016
-402.754 0.446901 0 -9.33602
-394.703 0.451598 0 -9.45703
-237.326 0.846968 0 -23.0771
-242.158 0.840805 0 -23.0045
-398.729 0.449253 0 -9.39638
-316.044 0.671361 0 -16.9464
-239.742 0.843897 0 -23.0407
-322.486 0.665803 0 -16.8496
-319.265 0.668589 0 -16.8979
-394.703 0.451598 0 -9.45703
-386.652 0.456267 0 -9.57916
-232.494 0.853047 0 -23.1503
-237.326 0.846968 0 -23.0771
-390.678 0.453936 0 -9.51795
-309.602 0.676862 0 -17.0441
-234.91 0.850018 0 -23.1136
-316.044 0.671361 0 -16.9464
-312.823 0.674119 0 -16.9952
-386.652 0.456267 0 -9.57916
-378.601 0.460909 0 -9.70241
-227.662 0.859042 0 -23.2243
-232.494 0.853047 0 -23.1503
-382.627 0.458592 0 -9.64065
-303.16 0.682304 0 -17.1427
-230.078 0.856055 0 -23.1872
-309.602 0.676862 0 -17.0441
-306.381 0.67959 0 -17.0933
-378.601 0.460909 0 -9.70241
-370.55 0.465522 0 -9.82674
-222.83 0.864953 0 -23.2988
-227.662 0.859042 0 -23.2243
-374.576 0.463219 0 -9.76444
-296.719 0.687687 0 -17.2422
-225.246 0.862008 0 -23.2615
-303.16 0.682304 0 -17.1427
-299.94 0.685003 0 -17.1923
-370.55 0.465522 0 -9.82674
-362.499 0.470107 0 -9.95213
-217.998 0.870779 0 -23.3741
-222.83 0.864953 0 -23.2988
-366.524 0.467818 0 -9.8893
-290.277 0.69301 0 -17.3425
-220.414 0.867876 0 -23.3364
-296.719 0.687687 0 -17.2422
-293.498 0.690356 0 -17.2922
-362.499 0.470107 0 -9.95213
-354.448 0.474661 0 -10.0786
-213.166 0.876519 0 -23.4499
-217.998 0.870779 0 -23.3741
-358.473 0.472388 0 -10.0152
-283.835 0.698273 0 -17.4436
-215.582 0.87366 0 -23.4119
-290.277 0.69301 0 -17.3425
-287.056 0.695649 0 -17.393
-354.448 0.474661 0 -10.0786
-346.396 0.479185 0 -10.206
-208.334 0.882174 0 -23.5264
-213.166 0.876519 0 -23.4499
-350.422 0.476927 0 -10.1422
-277.393 0.703475 0 -17.5456
-210.75 0.879357 0 -23.4881
-283.835 0.698273 0 -17.4436
-280.614 0.700882 0 -17.4945
-346.396 0.479185 0 -10.206
-338.345 0.483678 0 -10.3344
-203.502 0.887742 0 -23.6034
-208.334 0.882174 0 -23.5264
-342.371 0.481435 0 -10.2701
-270.952 0.708617 0 -17.6483
-205.918 0.884969 0 -23.5648
-277.393 0.703475 0 -17.5456
-274.173 0.706054 0 -17.5969
-338.345 0.483678 0 -10.3344
-330.294 0.488139 0 -10.4638
-198.67 0.893225 0 -23.681
-203.502 0.887742 0 -23.6034
-334.32 0.485912 0 -10.399
-264.51 0.713696 0 -17.7519
-201.086 0.890494 0 -23.6422
-270.952 0.708617 0 -17.6483
-267.731 0.711164 0 -17.7
-330.294 0.488139 0 -10.4638
-322.243 0.492568 0 -10.5942
-193.838 0.89862 0 -23.7593
-198.67 0.893225 0 -23.681
-326.268 0.490357 0 -10.5289
-258.068 0.718713 0 -17.8562
-196.254 0.895933 0 -23.7201
-264.51 0.713696 0 -17.7519
-261.289 0.716213 0 -17.8039
-322.243 0.492568 0 -10.5942
-314.191 0.496963 0 -10.7255
-189.006 0.903928 0 -23.838
-193.838 0.89862 0 -23.7593
-318.217 0.49477 0 -10.6597
-251.626 0.723668 0 -17.9612
-191.422 0.901285 0 -23.7986
-258.068 0.718713 0 -17.8562
-254.847 0.721199 0 -17.9086
-314.191 0.496963 0 -10.7255
-306.14 0.501325 0 -10.8577
-184.174 0.909148 0 -23.9173
-189.006 0.903928 0 -23.838
-310.166 0.499148 0 -10.7915
-245.185 0.728559 0 -18.0669
-186.59 0.906549 0 -23.8776
-251.626 0.723668 0 -17.9612
-248.405 0.726121 0 -18.014
-306.14 0.501325 0 -10.8577
-298.089 0.505652 0 -10.9907
-179.342 0.914279 0 -23.9971
-184.174 0.909148 0 -23.9173
-302.114 0.503493 0 -10.9241
-238.743 0.733386 0 -18.1734
-181.758 0.911724 0 -23.9572
-245.185 0.728559 0 -18.0669
-241.964 0.73098 0 -18.1201
-298.089 0.505652 0 -10.9907
-290.037 0.509944 0 -11.1246
-174.51 0.919322 0 -24.0775
-179.342 0.914279 0 -23.9971
-294.063 0.507802 0 -11.0576
-232.301 0.738148 0 -18.2805
-176.926 0.916812 0 -24.0372
-238.743 0.733386 0 -18.1734
-235.522 0.735775 0 -18.2269
-290.037 0.509944 0 -11.1246
-281.986 0.5142 0 -11.2594
-169.678 0.924276 0 -24.1583
-174.51 0.919322 0 -24.0775
-286.012 0.512076 0 -11.1919
-225.859 0.742845 0 -18.3883
-172.094 0.92181 0 -24.1178
-232.301 0.738148 0 -18.2805
-229.08 0.740505 0 -18.3343
-281.986 0.5142 0 -11.2594
-273.935 0.518419 0 -11.3949
-164.846 0.92914 0 -24.2396
-169.678 0.924276 0 -24.1583
-277.96 0.516314 0 -11.327
-219.418 0.747476 0 -18.4968
-167.262 0.926719 0 -24.1989
-225.859 0.742845 0 -18.3883
-222.638 0.745169 0 -18.4424
-273.935 0.518419 0 -11.3949
-265.883 0.5226 0 -11.5312
-160.014 0.933913 0 -24.3214
-164.846 0.92914 0 -24.2396
-269.909 0.520514 0 -11.463
-212.976 0.752041 0 -18.6058
-162.43 0.931538 0 -24.2805
-219.418 0.747476 0 -18.4968
-216.197 0.749767 0 -18.5512
-265.883 0.5226 0 -11.5312
-257.832 0.526743 0 -11.6683
-155.182 0.938596 0 -24.4037
-160.014 0.933913 0 -24.3214
-261.857 0.524677 0 -11.5997
-206.534 0.756538 0 -18.7155
-157.598 0.936266 0 -24.3625
-212.976 0.752041 0 -18.6058
-209.755 0.754298 0 -18.6606
-257.832 0.526743 0 -11.6683
-249.78 0.530847 0 -11.8062
-150.351 0.943187 0 -24.4864
-155.182 0.938596 0 -24.4037
-253.806 0.5288 0 -11.7372
-200.092 0.760968 0 -18.8258
-152.767 0.940903 0 -24.445
-206.534 0.756538 0 -18.7155
-203.313 0.758762 0 -18.7706
-249.78 0.530847 0 -11.8062
-241.729 0.534911 0 -11.9447
-145.519 0.947685 0 -24.5695
-150.351 0.943187 0 -24.4864
-245.754 0.532884 0 -11.8754
-193.65 0.765328 0 -18.9366
-147.935 0.945448 0 -24.5279
-200.092 0.760968 0 -18.8258
-196.871 0.763156 0 -18.8811
-241.729 0.534911 0 -11.9447
-233.677 0.538934 0 -12.084
-140.687 0.95209 0 -24.6531
-145.519 0.947685 0 -24.5695
-237.703 0.536927 0 -12.0143
-187.209 0.769619 0 -19.048
-143.103 0.949899 0 -24.6113
-193.65 0.765328 0 -18.9366
-190.43 0.767482 0 -18.9923
-233.677 0.538934 0 -12.084
-225.625 0.542915 0 -12.2239
-135.855 0.956401 0 -24.737
-140.687 0.95209 0 -24.6531
-229.651 0.540929 0 -12.1538
-180.767 0.773839 0 -19.16
-138.271 0.954258 0 -24.695
-187.209 0.769619 0 -19.048
-183.988 0.771738 0 -19.1039
-225.625 0.542915 0 -12.2239
-217.574 0.546853 0 -12.3644
-131.023 0.960618 0 -24.8213
-135.855 0.956401 0 -24.737
-221.6 0.544889 0 -12.2941
-174.325 0.777988 0 -19.2724
-133.439 0.958522 0 -24.7791
-180.767 0.773839 0 -19.16
-177.546 0.775923 0 -19.2161
-217.574 0.546853 0 -12.3644
-209.522 0.550748 0 -12.5056
-126.192 0.964741 0 -24.9061
-131.023 0.960618 0 -24.8213
-213.548 0.548806 0 -12.4349
-167.883 0.782066 0 -19.3854
-128.607 0.962691 0 -24.8637
-174.325 0.777988 0 -19.2724
-171.104 0.780036 0 -19.3288
-209.522 0.550748 0 -12.5056
-201.47 0.5546 0 -12.6474
-121.36 0.968769 0 -24.9911
-126.192 0.964741 0 -24.9061
-205.496 0.552679 0 -12.5764
-161.441 0.786073 0 -19.4988
-123.776 0.966767 0 -24.9485
-167.883 0.782066 0 -19.3854
-164.662 0.784079 0 -19.442
-201.47 0.5546 0 -12.6474
-193.419 0.558409 0 -12.7897
-116.528 0.972707 0 -25.0765
-121.36 0.968769 0 -24.9911
-197.445 0.55651 0 -12.7185
-155 0.790012 0 -19.6127
-118.944 0.97075 0 -25.0338
-161.441 0.786073 0 -19.4988
-158.22 0.788051 0 -19.5557
-193.419 0.558409 0 -12.7897
-185.367 0.562178 0 -12.9326
-111.696 0.976559 0 -25.1622
-116.528 0.972707 0 -25.0765
-189.393 0.560298 0 -12.8611
-148.558 0.793885 0 -19.727
-114.112 0.974644 0 -25.1193
-155 0.790012 0 -19.6127
-151.779 0.791956 0 -19.6698
-185.367 0.562178 0 -12.9326
-177.315 0.565909 0 -13.0761
-106.865 0.980334 0 -25.2483
-111.696 0.976559 0 -25.1622
-181.341 0.564048 0 -13.0043
-142.116 0.7977 0 -19.8417
-109.28 0.978456 0 -25.2052
-148.558 0.793885 0 -19.727
-145.337 0.795799 0 -19.7843
-177.315 0.565909 0 -13.0761
-169.263 0.56961 0 -13.2201
-102.033 0.984045 0 -25.3347
-106.865 0.980334 0 -25.2483
-173.289 0.567763 0 -13.148
-135.674 0.801467 0 -19.9569
-104.449 0.982196 0 -25.2914
-142.116 0.7977 0 -19.8417
-138.895 0.799589 0 -19.8993
-169.263 0.56961 0 -13.2201
-161.212 0.573287 0 -13.3646
-97.2011 0.987705 0 -25.4213
-102.033 0.984045 0 -25.3347
-165.237 0.571451 0 -13.2922
-129.232 0.805199 0 -20.0725
-99.6169 0.98588 0 -25.3779
-135.674 0.801467 0 -19.9569
-132.453 0.803337 0 -20.0147
-161.212 0.573287 0 -13.3646
-153.16 0.576947 0 -13.5096
-92.3695 0.991325 0 -25.5082
-97.2011 0.987705 0 -25.4213
-157.186 0.575119 0 -13.437
-122.79 0.808905 0 -20.1885
-94.7853 0.98952 0 -25.4647
-129.232 0.805199 0 -20.0725
-126.011 0.807056 0 -20.1304
-153.16 0.576947 0 -13.5096
-145.108 0.580587 0 -13.6551
-87.538 0.994885 0 -25.5955
-92.3695 0.991325 0 -25.5082
-149.134 0.57877 0 -13.5823
-116.349 0.812571 0 -20.3049
-89.9538 0.993117 0 -25.5518
-122.79 0.808905 0 -20.1885
-119.57 0.810745 0 -20.2466
-145.108 0.580587 0 -13.6551
-137.056 0.584164 0 -13.8011
-82.7067 0.9983 0 -25.683
-87.538 0.994885 0 -25.5955
-141.082 0.58239 0 -13.728
-109.907 0.816125 0 -20.4216
-85.1224 0.996621 0 -25.6392
-116.349 0.812571 0 -20.3049
-113.128 0.814373 0 -20.3632
-137.056 0.584164 0 -13.8011
-129.004 0.587561 0 -13.9475
-77.8754 1.00127 0 -25.7707
-82.7067 0.9983 0 -25.683
-133.03 0.585896 0 -13.8742
-103.466 0.819332 0 -20.5387
-80.291 0.999876 0 -25.7268
-109.907 0.816125 0 -20.4216
-106.686 0.817794 0 -20.4801
-129.004 0.587561 0 -13.9475
-120.953 0.590437 0 -14.0939
-73.0438 1.00318 0 -25.8587
-77.8754 1.00127 0 -25.7707
-124.978 0.589104 0 -14.0207
-97.0243 0.821655 0 -20.6557
-75.4597 1.00243 0 -25.8147
-103.466 0.819332 0 -20.5387
-100.245 0.820673 0 -20.5972
-120.953 0.590437 0 -14.0939
-112.901 0.592127 0 -14.2397
-68.2114 1.00248 0 -25.9468
-73.0438 1.00318 0 -25.8587
-116.927 0.59149 0 -14.167
-90.5826 0.821803 0 -20.772
-70.6277 1.00332 0 -25.9028
-97.0243 0.821655 0 -20.6557
-93.8035 0.822104 0 -20.714
-112.901 0.592127 0 -14.2397
-104.851 0.590989 0 -14.383
-63.3754 0.996501 0 -26.035
-68.2114 1.00248 0 -25.9468
-108.876 0.592076 0 -14.3119
-84.1395 0.817392 0 -20.8864
-65.7941 1.00042 0 -25.9909
-90.5826 0.821803 0 -20.772
-87.3613 0.820469 0 -20.8297
-104.851 0.590989 0 -14.383
-96.8015 0.584455 0 -14.5207
-58.5325 0.979246 0 -26.1228
-63.3754 0.996501 0 -26.035
-100.826 0.588639 0 -14.4529
-77.6926 0.803283 0 -20.9961
-60.9549 0.989842 0 -26.079
-84.1395 0.817392 0 -20.8864
-80.9168 0.811884 0 -20.942
-96.8015 0.584455 0 -14.5207
-88.7552 0.566261 0 -14.645
-53.6707 0.9422 0 -26.2107
-58.5325 0.979246 0 -26.1228
-92.7774 0.577342 0 -14.5853
-71.2363 0.771477 0 -21.0962
-56.1053 0.964022 0 -26.1667
-77.6926 0.803283 0 -20.9961
-74.4659 0.790686 0 -21.048
-88.7552 0.566261 0 -14.645
-80.7069 0.529162 0 -14.7454
-48.7774 0.867037 0 -26.2974
-53.6707 0.9422 0 -26.2107
-84.7323 0.550895 0 -14.699
-64.759 0.705594 0 -21.1781
-51.2283 0.910862 0 -26.2545
-71.2363 0.771477 0 -21.0962
-68.0015 0.743448 0 -21.1397
-80.7069 0.529162 0 -14.7454
-72.6657 0.452779 0 -14.7957
-43.8085 0.735219 0 -26.387
-48.7774 0.867037 0 -26.2974
-76.6834 0.497022 0 -14.7794
-58.239 0.585983 0 -21.2281
-46.3073 0.810028 0 -26.3412
-64.759 0.705594 0 -21.1781
-61.5054 0.655914 0 -21.2093
-72.6657 0.452779 0 -14.7957
-64.5996 0.326302 0 -14.7703
-38.7288 0.505597 0 -26.4791
-43.8085 0.735219 0 -26.387
-68.6411 0.398354 0 -14.7941
-51.631 0.372465 0 -21.2279
-41.2823 0.634755 0 -26.4334
-58.239 0.585983 0 -21.2281
-54.9513 0.490292 0 -21.2336
-64.5996 0.326302 0 -14.7703
-56.5332 0.0919858 0 -14.6011
-33.4077 0.174913 0 -26.5994
-38.7288 0.505597 0 -26.4791
-60.5594 0.222499 0 -14.7105
-44.868 0.0445176 0 -21.1563
-36.1141 0.353888 0 -26.5321
-51.631 0.372465 0 -21.2279
-48.2704 0.231723 0 -21.2069
-56.5332 0.0919858 0 -14.6011
-48.3026 -0.214112 0 -14.2645
-27.7989 -0.289386 0 -26.7637
-33.4077 0.174913 0 -26.5994
-52.4624 -0.0443141 0 -14.4534
-37.7987 -0.448948 0 -21.016
-30.6321 -0.0466452 0 -26.6764
-44.868 0.0445176 0 -21.1563
-41.3926 -0.19654 0 -21.084
-48.3026 -0.214112 0 -14.2645
-39.9533 -0.724622 0 -13.6585
-21.6279 -0.649271 0 -27.0983
-27.7989 -0.289386 0 -26.7637
-44.1217 -0.464433 0 -14.005
-30.2737 -0.966674 0 -20.8601
-24.8232 -0.499228 0 -26.8941
-37.7987 -0.448948 0 -21.016
-34.0859 -0.689667 0 -20.9518
-39.9533 -0.724622 0 -13.6585
-30.7606 -0.970925 0 -13.0053
-15.1194 -0.603049 0 -27.6783
-21.6279 -0.649271 0 -27.0983
-35.5575 -0.861879 0 -13.3119
-21.8787 -1.2656 0 -20.9643
-18.3623 -0.745654 0 -27.3565
-30.2737 -0.966674 0 -20.8601
-26.261 -1.2489 0 -20.8131
-30.7606 -0.970925 0 -13.0053
-20.8025 -0.94501 0 -12.661
-8.22488 1.4676 0 -28.7686
-15.1194 -0.603049 0 -27.6783
-25.8207 -1.17844 0 -12.7452
-12.6795 0.183528 0 -21.8877
-11.7758 0.0611978 0 -28.1343
-21.8787 -1.2656 0 -20.9643
-17.2887 -0.819855 0 -21.3414
-20.8025 -0.94501 0 -12.661
-8.14393 3.221 0 -15.0076
-3.04463 7.71489 0 -29.493
-8.22488 1.4676 0 -28.7686
-15.0583 0.495149 0 -13.2617
-2.82099 6.76178 0 -24.7102
-5.15699 3.73484 0 -29.3005
-12.6795 0.183528 0 -21.8877
-7.99101 2.17329 0 -22.8451
-8.14393 3.221 0 -15.0076
1.84735 19.8684 0 -22.8731
0.03041 23.1334 0 -26.8245
-3.04463 7.71489 0 -29.493
-2.31646 7.62659 0 -17.8909
0.580111 26.332 0 -26.5735
-1.34851 14.3743 0 -28.9578
-2.82099 6.76178 0 -24.7102
0.794293 14.8259 0 -26.5147
1.84735 19.8684 0 -22.8731
-1.40047 81.1474 0 -21.8894
0.864593 40.4259 0 -13.6756
0.03041 23.1334 0 -26.8245
3.25498 45.2588 0 -26.5349
-2.86143 57.8351 0 -12.5403
0.952039 32.6818 0 -21.9299
0.580111 26.332 0 -26.5735
-1.09422 41.6522 0 -22.6255
-857.031 -257.294 0 78.6873
-930.683 -162.986 0 -2.47699
-301.33 -51.7271 0 40.8929
-308.778 -92.6198 0 123.282
-907.053 -206.869 0 29.6476
-615.895 -107.244 0 24.1848
-296.026 -72.4333 0 77.7696
-570.286 -171.142 0 112.615
-602.697 -143.953 0 55.8221
-930.683 -162.986 0 -2.47699
-948.309 -71.7081 0 -27.5906
-317.496 -31.5216 0 -8.39455
-301.33 -51.7271 0 40.8929
-938.547 -113.993 0 -18.6953
-630.507 -56.097 0 -15.2322
-313.825 -40.4845 0 11.9058
-615.895 -107.244 0 24.1848
-622.513 -77.6149 0 2.82859
-948.309 -71.7081 0 -27.5906
-957.323 -25.7137 0 -32.2773
-318.585 -13.2009 0 -30.6879
-317.496 -31.5216 0 -8.39455
-956.913 -44.0564 0 -31.9175
-638.087 -22.8376 0 -32.1188
-316.91 -21.4034 0 -21.8421
-630.507 -56.097 0 -15.2322
-636.38 -37.8444 0 -26.9228
-957.323 -25.7137 0 -32.2773
-950.071 -4.43784 0 -29.6406
-319.483 -4.67042 0 -38.5955
-318.585 -13.2009 0 -30.6879
-953.36 -12.5294 0 -30.8096
-636.115 -6.44191 0 -35.7565
-320.437 -8.19925 0 -35.9962
-638.087 -22.8376 0 -32.1188
-637.613 -12.7342 0 -34.4165
-950.071 -4.43784 0 -29.6406
-941.571 1.72933 0 -27.8094
-316.067 -0.24701 0 -39.3829
-319.483 -4.67042 0 -38.5955
-946.531 -0.326795 0 -28.7307
-630.321 0.473629 0 -35.072
-317.359 -1.86431 0 -39.432
-636.115 -6.44191 0 -35.7565
-633.562 -2.18929 0 -35.8573
-941.571 1.72933 0 -27.8094
-931.759 3.21294 0 -26.5364
-313.2 0.561842 0 -37.9168
-316.067 -0.24701 0 -39.3829
-936.193 2.91557 0 -26.9977
-623.671 2.05666 0 -33.4774
-314.948 0.34611 0 -38.7936
-630.321 0.473629 0 -35.072
-626.889 1.72751 0 -34.173
-931.759 3.21294 0 -26.5364
-923.842 2.43149 0 -26.0426
-309.834 0.591501 0 -36.0414
-313.2 0.561842 0 -37.9168
-927.811 2.90835 0 -26.2733
-617.666 1.8536 0 -32.0474
-311.297 0.682431 0 -36.9411
-623.671 2.05666 0 -33.4774
-620.579 2.05524 0 -32.7679
-923.842 2.43149 0 -26.0426
-916.703 1.49649 0 -25.7425
-307.245 0.119591 0 -34.5432
-309.834 0.591501 0 -36.0414
-920.049 1.97829 0 -25.8532
-612.511 1.07281 0 -31.0137
-308.571 0.352154 0 -35.2383
-617.666 1.8536 0 -32.0474
-614.97 1.49408 0 -31.4541
-916.703 1.49649 0 -25.7425
-910.641 0.621327 0 -25.5962
-304.86 -0.238641 0 -33.4913
-307.245 0.119591 0 -34.5432
-913.629 1.01978 0 -25.6709
-608.091 0.379542 0 -30.3197
-305.963 -0.0622641 0 -33.9586
-612.511 1.07281 0 -31.0137
-610.228 0.698917 0 -30.642
-910.641 0.621327 0 -25.5962
-905.049 0.0534199 0 -25.4609
-302.862 -0.534104 0 -32.826
-304.86 -0.238641 0 -33.4913
-907.768 0.309717 0 -25.5232
-604.176 -0.133722 0 -29.8739
-303.855 -0.405436 0 -33.1199
-608.091 0.379542 0 -30.3197
-606.082 0.0999982 0 -30.0661
-905.049 0.0534199 0 -25.4609
-899.851 -0.312372 0 -25.3387
-301.002 -0.699168 0 -32.4184
-302.862 -0.534104 0 -32.826
-902.43 -0.155969 0 -25.4022
-600.578 -0.450309 0 -29.5811
-301.903 -0.626334 0 -32.5956
-604.176 -0.133722 0 -29.8739
-602.348 -0.314343 0 -29.7155
-899.851 -0.312372 0 -25.3387
-894.819 -0.509762 0 -25.2074
-299.277 -0.795297 0 -32.1754
-301.002 -0.699168 0 -32.4184
-897.312 -0.425834 0 -25.2729
-597.163 -0.631572 0 -29.3818
-300.135 -0.756643 0 -32.2818
-600.578 -0.450309 0 -29.5811
-598.854 -0.554581 0 -29.4716
-894.819 -0.509762 0 -25.2074
-889.901 -0.61271 0 -25.0735
-297.601 -0.834252 0 -32.0263
-299.277 -0.795297 0 -32.1754
-892.354 -0.571444 0 -25.1413
-593.847 -0.721317 0 -29.2336
-298.431 -0.819244 0 -32.0921
-597.163 -0.631572 0 -29.3818
-595.496 -0.685494 0 -29.3036
-889.901 -0.61271 0 -25.0735
-885.028 -0.655182 0 -24.9359
-295.963 -0.84487 0 -31.9297
-297.601 -0.834252 0 -32.0263
-887.459 -0.63907 0 -25.0047
-590.582 -0.758371 0 -29.114
-296.781 -0.84276 0 -31.9735
-593.847 -0.721317 0 -29.2336
-592.21 -0.744749 0 -29.171
-885.028 -0.655182 0 -24.9359
-880.182 -0.666968 0 -24.7981
-294.337 -0.837255 0 -31.8603
-295.963 -0.84487 0 -31.9297
-882.604 -0.664089 0 -24.8671
-587.342 -0.765441 0 -29.0091
-295.148 -0.842455 0 -31.8926
-590.582 -0.758371 0 -29.114
-588.96 -0.764651 0 -29.0604
-880.182 -0.666968 0 -24.7981
-875.344 -0.661836 0 -24.6609
-292.72 -0.821425 0 -31.8048
-294.337 -0.837255 0 -31.8603
-877.762 -0.665758 0 -24.7293
-584.112 -0.757209 0 -28.9124
-293.528 -0.830173 0 -31.8314
-587.342 -0.765441 0 -29.0091
-585.726 -0.762655 0 -28.96
-875.344 -0.661836 0 -24.6609
-870.511 -0.64909 0 -24.5253
-291.105 -0.801196 0 -31.756
-292.72 -0.821425 0 -31.8048
-872.927 -0.656149 0 -24.5929
-580.887 -0.741435 0 -28.8201
-291.912 -0.811613 0 -31.7798
-584.112 -0.757209 0 -28.9124
-582.5 -0.749956 0 -28.8658
-870.511 -0.64909 0 -24.5253
-865.678 -0.632793 0 -24.3919
-289.491 -0.779376 0 -31.7106
-291.105 -0.801196 0 -31.756
-868.094 -0.64119 0 -24.4583
-577.663 -0.722395 0 -28.7307
-290.298 -0.790427 0 -31.733
-580.887 -0.741435 0 -28.8201
-579.275 -0.732166 0 -28.7751
-865.678 -0.632793 0 -24.3919
-860.846 -0.615281 0 -24.2609
-287.876 -0.756977 0 -31.6669
-289.491 -0.779376 0 -31.7106
-863.262 -0.624127 0 -24.3261
-574.439 -0.702127 0 -28.6433
-288.683 -0.768193 0 -31.6886
-577.663 -0.722395 0 -28.7307
-576.051 -0.712342 0 -28.6868
-860.846 -0.615281 0 -24.2609
-856.013 -0.597453 0 -24.1323
-286.262 -0.734606 0 -31.6243
-287.876 -0.756977 0 -31.6669
-858.429 -0.606368 0 -24.1963
-571.215 -0.681589 0 -28.5578
-287.069 -0.745778 0 -31.6455
-574.439 -0.702127 0 -28.6433
-572.827 -0.691861 0 -28.6003
-856.013 -0.597453 0 -24.1323
-851.18 -0.579736 0 -24.0063
-284.647 -0.712425 0 -31.5826
-286.262 -0.734606 0 -31.6243
-853.596 -0.588572 0 -24.069
-567.991 -0.661161 0 -28.4739
-285.455 -0.723483 0 -31.6033
-571.215 -0.681589 0 -28.5578
-569.603 -0.67135 0 -28.5156
-851.18 -0.579736 0 -24.0063
-846.346 -0.562241 0 -23.8827
-283.033 -0.690503 0 -31.5415
-284.647 -0.712425 0 -31.5826
-848.763 -0.570957 0 -23.9442
-564.766 -0.640968 0 -28.3916
-283.84 -0.701433 0 -31.5619
-567.991 -0.661161 0 -28.4739
-566.379 -0.651033 0 -28.4325
-846.346 -0.562241 0 -23.8827
-841.513 -0.544989 0 -23.7616
-281.418 -0.668824 0 -31.5012
-283.033 -0.690503 0 -31.5415
-843.93 -0.553586 0 -23.8218
-561.542 -0.621026 0 -28.3109
-282.225 -0.679634 0 -31.5213
-564.766 -0.640968 0 -28.3916
-563.154 -0.630967 0 -28.351
-841.513 -0.544989 0 -23.7616
-836.679 -0.527954 0 -23.6429
-279.803 -0.647363 0 -31.4617
-281.418 -0.668824 0 -31.5012
-839.096 -0.536446 0 -23.702
-558.317 -0.601311 0 -28.2318
-280.61 -0.658068 0 -31.4814
-561.542 -0.621026 0 -28.3109
-559.929 -0.611142 0 -28.2711
-836.679 -0.527954 0 -23.6429
-831.845 -0.51111 0 -23.5267
-278.188 -0.626092 0 -31.4229
-279.803 -0.647363 0 -31.4617
-834.262 -0.51951 0 -23.5845
-555.092 -0.581796 0 -28.1543
-278.995 -0.636705 0 -31.4422
-558.317 -0.601311 0 -28.2318
-556.704 -0.59153 0 -28.1928
-831.845 -0.51111 0 -23.5267
-827.011 -0.494431 0 -23.4128
-276.573 -0.604989 0 -31.3849
-278.188 -0.626092 0 -31.4229
-829.428 -0.502751 0 -23.4695
-551.867 -0.562454 0 -28.0784
-277.381 -0.615521 0 -31.4038
-555.092 -0.581796 0 -28.1543
-553.479 -0.572104 0 -28.1161
-827.011 -0.494431 0 -23.4128
-822.177 -0.477899 0 -23.3014
-274.958 -0.584038 0 -31.3477
-276.573 -0.604989 0 -31.3849
-824.594 -0.486148 0 -23.3568
-548.642 -0.543267 0 -28.004
-275.766 -0.594495 0 -31.3662
-551.867 -0.562454 0 -28.0784
-550.254 -0.552842 0 -28.041
-822.177 -0.477899 0 -23.3014
-817.344 -0.461502 0 -23.1922
-273.343 -0.563228 0 -31.3113
-274.958 -0.584038 0 -31.3477
-819.761 -0.469684 0 -23.2465
-545.417 -0.524222 0 -27.9312
-274.151 -0.573616 0 -31.3294
-548.642 -0.543267 0 -28.004
-547.029 -0.533727 0 -27.9674
-817.344 -0.461502 0 -23.1922
-812.51 -0.445231 0 -23.0854
-271.728 -0.542552 0 -31.2756
-273.343 -0.563228 0 -31.3113
-814.927 -0.453351 0 -23.1385
-542.192 -0.50531 0 -27.86
-272.536 -0.552874 0 -31.2933
-545.417 -0.524222 0 -27.9312
-543.804 -0.51475 0 -27.8954
-812.51 -0.445231 0 -23.0854
-807.676 -0.429082 0 -22.9809
-270.113 -0.522006 0 -31.2407
-271.728 -0.542552 0 -31.2756
-810.093 -0.437142 0 -23.0329
-538.967 -0.486528 0 -27.7903
-270.921 -0.532263 0 -31.258
-542.192 -0.50531 0 -27.86
-540.579 -0.495903 0 -27.8249
-807.676 -0.429082 0 -22.9809
-802.842 -0.413051 0 -22.8788
-268.498 -0.501588 0 -31.2066
-270.113 -0.522006 0 -31.2407
-805.259 -0.421052 0 -22.9296
-535.742 -0.467871 0 -27.7221
-269.306 -0.511781 0 -31.2235
-538.967 -0.486528 0 -27.7903
-537.354 -0.477184 0 -27.756
-802.842 -0.413051 0 -22.8788
-798.008 -0.397135 0 -22.7789
-266.883 -0.481295 0 -31.1732
-268.498 -0.501588 0 -31.2066
-800.425 -0.405079 0 -22.8285
-532.517 -0.449338 0 -27.6555
-267.691 -0.491426 0 -31.1898
-535.742 -0.467871 0 -27.7221
-534.129 -0.458589 0 -27.6886
-798.008 -0.397135 0 -22.7789
-793.173 -0.381334 0 -22.6813
-265.269 -0.461127 0 -31.1406
-266.883 -0.481295 0 -31.1732
-795.59 -0.389221 0 -22.7298
-529.292 -0.430926 0 -27.5904
-266.076 -0.471196 0 -31.1568
-532.517 -0.449338 0 -27.6555
-530.904 -0.440117 0 -27.6227
-793.173 -0.381334 0 -22.6813
-788.339 -0.365646 0 -22.5859
-263.654 -0.441085 0 -31.1087
-265.269 -0.461127 0 -31.1406
-790.756 -0.373476 0 -22.6333
-526.066 -0.412637 0 -27.5268
-264.461 -0.45109 0 -31.1245
-529.292 -0.430926 0 -27.5904
-527.679 -0.421766 0 -27.5584
-788.339 -0.365646 0 -22.5859
-783.505 -0.350069 0 -22.4929
-262.039 -0.421166 0 -31.0776
-263.654 -0.441085 0 -31.1087
-785.922 -0.357843 0 -22.5391
-522.841 -0.394467 0 -27.4647
-262.846 -0.43111 0 -31.0931
-526.066 -0.412637 0 -27.5268
-524.454 -0.403537 0 -27.4955
-783.505 -0.350069 0 -22.4929
-778.671 -0.334603 0 -22.402
-260.424 -0.401372 0 -31.0472
-262.039 -0.421166 0 -31.0776
-781.088 -0.342322 0 -22.4472
-519.616 -0.376418 0 -27.404
-261.231 -0.411254 0 -31.0623
-522.841 -0.394467 0 -27.4647
-521.229 -0.385428 0 -27.4342
-778.671 -0.334603 0 -22.402
-773.837 -0.319247 0 -22.3134
-258.809 -0.381702 0 -31.0176
-260.424 -0.401372 0 -31.0472
-776.254 -0.326911 0 -22.3574
-516.391 -0.358489 0 -27.3449
-259.616 -0.391522 0 -31.0323
-519.616 -0.376418 0 -27.404
-518.004 -0.367439 0 -27.3743
-773.837 -0.319247 0 -22.3134
-769.003 -0.303999 0 -22.227
-257.194 -0.362156 0 -30.9887
-258.809 -0.381702 0 -31.0176
-771.42 -0.311609 0 -22.2699
-513.166 -0.340678 0 -27.2873
-258.002 -0.371914 0 -31.0031
-516.391 -0.358489 0 -27.3449
-514.779 -0.349569 0 -27.3159
-769.003 -0.303999 0 -22.227
-764.169 -0.288859 0 -22.1428
-255.579 -0.342734 0 -30.9605
-257.194 -0.362156 0 -30.9887
-766.586 -0.296416 0 -22.1846
-509.941 -0.322986 0 -27.2311
-256.387 -0.352429 0 -30.9745
-513.166 -0.340678 0 -27.2873
-511.554 -0.331817 0 -27.259
-764.169 -0.288859 0 -22.1428
-759.335 -0.273826 0 -22.0607
-253.965 -0.323435 0 -30.9331
-255.579 -0.342734 0 -30.9605
-761.752 -0.281329 0 -22.1015
-506.716 -0.305411 0 -27.1763
-254.772 -0.333069 0 -30.9467
-509.941 -0.322986 0 -27.2311
-508.329 -0.314184 0 -27.2035
-759.335 -0.273826 0 -22.0607
-754.5 -0.258898 0 -21.9809
-252.35 -0.30426 0 -30.9064
-253.965 -0.323435 0 -30.9331
-756.917 -0.266349 0 -22.0205
-503.491 -0.287953 0 -27.123
-253.157 -0.313832 0 -30.9197
-506.716 -0.305411 0 -27.1763
-505.104 -0.296667 0 -27.1495
-754.5 -0.258898 0 -21.9809
-749.666 -0.244075 0 -21.9032
-250.735 -0.285207 0 -30.8804
-252.35 -0.30426 0 -30.9064
-752.083 -0.251474 0 -21.9417
-500.266 -0.270612 0 -27.0712
-251.542 -0.294718 0 -30.8933
-503.491 -0.287953 0 -27.123
-501.879 -0.279268 0 -27.0969
-749.666 -0.244075 0 -21.9032
-744.832 -0.229356 0 -21.8276
-249.12 -0.266278 0 -30.8551
-250.735 -0.285207 0 -30.8804
-747.249 -0.236703 0 -21.8651
-497.041 -0.253387 0 -27.0208
-249.928 -0.275727 0 -30.8677
-500.266 -0.270612 0 -27.0712
-498.654 -0.261985 0 -27.0458
-744.832 -0.229356 0 -21.8276
-739.998 -0.214739 0 -21.7542
-247.506 -0.247471 0 -30.8306
-249.12 -0.266278 0 -30.8551
-742.415 -0.222035 0 -21.7906
-493.816 -0.236277 0 -26.9718
-248.313 -0.256859 0 -30.8428
-497.041 -0.253387 0 -27.0208
-495.429 -0.244817 0 -26.9961
-739.998 -0.214739 0 -21.7542
-735.163 -0.200225 0 -21.6828
-245.891 -0.228786 0 -30.8067
-247.506 -0.247471 0 -30.8306
-737.581 -0.207469 0 -21.7182
-490.591 -0.219281 0 -26.9242
-246.698 -0.238113 0 -30.8185
-493.816 -0.236277 0 -26.9718
-492.204 -0.227765 0 -26.9478
-735.163 -0.200225 0 -21.6828
-730.329 -0.185811 0 -21.6136
-244.276 -0.210224 0 -30.7835
-245.891 -0.228786 0 -30.8067
-732.746 -0.193005 0 -21.648
-487.366 -0.2024 0 -26.878
-245.084 -0.21949 0 -30.795
-490.591 -0.219281 0 -26.9242
-488.979 -0.210826 0 -26.9009
-730.329 -0.185811 0 -21.6136
-725.495 -0.171497 0 -21.5465
-242.662 -0.191783 0 -30.761
-244.276 -0.210224 0 -30.7835
-727.912 -0.178641 0 -21.5798
-484.141 -0.185632 0 -26.8332
-243.469 -0.200988 0 -30.7722
-487.366 -0.2024 0 -26.878
-485.754 -0.194002 0 -26.8554
-725.495 -0.171497 0 -21.5465
-720.661 -0.157281 0 -21.4814
-241.047 -0.173464 0 -30.7393
-242.662 -0.191783 0 -30.761
-723.078 -0.164377 0 -21.5137
-480.916 -0.168977 0 -26.7897
-241.854 -0.182608 0 -30.7501
-484.141 -0.185632 0 -26.8332
-482.529 -0.17729 0 -26.8113
-720.661 -0.157281 0 -21.4814
-715.826 -0.143164 0 -21.4184
-239.432 -0.155266 0 -30.7182
-241.047 -0.173464 0 -30.7393
-718.244 -0.150211 0 -21.4497
-477.691 -0.152434 0 -26.7477
-240.24 -0.16435 0 -30.7286
-480.916 -0.168977 0 -26.7897
-479.304 -0.160691 0 -26.7685
-715.826 -0.143164 0 -21.4184
-710.992 -0.129145 0 -21.3575
-237.818 -0.137189 0 -30.6977
-239.432 -0.155266 0 -30.7182
-713.409 -0.136142 0 -21.3877
-474.467 -0.136003 0 -26.707
-238.625 -0.146212 0 -30.7079
-477.691 -0.152434 0 -26.7477
-476.079 -0.144204 0 -26.7272
-710.992 -0.129145 0 -21.3575
-706.158 -0.115221 0 -21.2986
-236.203 -0.119233 0 -30.678
-237.818 -0.137189 0 -30.6977
-708.575 -0.122171 0 -21.3278
-471.242 -0.119683 0 -26.6677
-237.01 -0.128196 0 -30.6878
-474.467 -0.136003 0 -26.707
-472.854 -0.127829 0 -26.6872
-706.158 -0.115221 0 -21.2986
-701.324 -0.101393 0 -21.2417
-234.588 -0.101398 0 -30.6589
-236.203 -0.119233 0 -30.678
-703.741 -0.108295 0 -21.2699
-468.017 -0.103474 0 -26.6297
-235.396 -0.1103 0 -30.6684
-471.242 -0.119683 0 -26.6677
-469.629 -0.111564 0 -26.6485
-701.324 -0.101393 0 -21.2417
-696.49 -0.0876602 0 -21.1868
-232.974 -0.0836824 0 -30.6405
-234.588 -0.101398 0 -30.6589
-698.907 -0.094515 0 -21.214
-464.792 -0.0873744 0 -26.593
-233.781 -0.0925249 0 -30.6497
-468.017 -0.103474 0 -26.6297
-466.404 -0.0954102 0 -26.6112
-696.49 -0.0876602 0 -21.1868
-691.655 -0.0740209 0 -21.1339
-231.359 -0.0660874 0 -30.6228
-232.974 -0.0836824 0 -30.6405
-694.072 -0.0808288 0 -21.1601
-461.567 -0.0713848 0 -26.5577
-232.167 -0.0748699 0 -30.6316
-464.792 -0.0873744 0 -26.593
-463.179 -0.0793659 0 -26.5752
-691.655 -0.0740209 0 -21.1339
-686.821 -0.0604748 0 -21.0829
-229.745 -0.0486123 0 -30.6057
-231.359 -0.0660874 0 -30.6228
-689.238 -0.0672362 0 -21.1081
-458.342 -0.0555044 0 -26.5237
-230.552 -0.0573349 0 -30.6142
-461.567 -0.0713848 0 -26.5577
-459.955 -0.063431 0 -26.5405
-686.821 -0.0604748 0 -21.0829
-681.987 -0.047021 0 -21.034
-228.13 -0.031257 0 -30.5893
-229.745 -0.0486123 0 -30.6057
-684.404 -0.0537364 0 -21.0582
-455.117 -0.0397326 0 -26.491
-228.938 -0.0399197 0 -30.5974
-458.342 -0.0555044 0 -26.5237
-456.73 -0.047605 0 -26.5072
-681.987 -0.047021 0 -21.034
-677.153 -0.0336589 0 -20.9869
-226.516 -0.0140211 0 -30.5735
-228.13 -0.031257 0 -30.5893
-679.57 -0.0403286 0 -21.0102
-451.892 -0.024069 0 -26.4596
-227.323 -0.0226241 0 -30.5813
-455.117 -0.0397326 0 -26.491
-453.505 -0.0318873 0 -26.4751
-677.153 -0.0336589 0 -20.9869
-672.318 -0.0203877 0 -20.9419
-224.901 0.00309547 0 -30.5584
-226.516 -0.0140211 0 -30.5735
-674.735 -0.027012 0 -20.9642
-448.668 -0.00851311 0 -26.4295
-225.709 -0.00544792 0 -30.5659
-451.892 -0.024069 0 -26.4596
-450.28 -0.0162776 0 -26.4444
-672.318 -0.0203877 0 -20.9419
-667.484 -0.00720672 0 -20.8987
-223.287 0.0200929 0 -30.5439
-224.901 0.00309547 0 -30.5584
-669.901 -0.013786 0 -20.92
-445.443 0.00693555 0 -26.4007
-224.094 0.0116091 0 -30.5511
-448.668 -0.00851311 0 -26.4295
-447.055 -0.000775394 0 -26.4149
-667.484 -0.00720672 0 -20.8987
-662.65 0.00588475 0 -20.8574
-221.672 0.0369715 0 -30.53
-223.287 0.0200929 0 -30.5439
-665.067 -0.00064984 0 -20.8778
-442.218 0.0222774 0 -26.3731
-222.48 0.0285471 0 -30.5369
-445.443 0.00693555 0 -26.4007
-443.83 0.0146198 0 -26.3867
-662.65 0.00588475 0 -20.8574
-657.816 0.0188874 0 -20.8181
-220.058 0.0537313 0 -30.5168
-221.672 0.0369715 0 -30.53
-660.233 0.0123971 0 -20.8375
-438.993 0.0375128 0 -26.3468
-220.865 0.0453662 0 -30.5233
-442.218 0.0222774 0 -26.3731
-440.606 0.0299084 0 -26.3598
-657.816 0.0188874 0 -20.8181
-652.982 0.0318018 0 -20.7806
-218.444 0.0703725 0 -30.5042
-220.058 0.0537313 0 -30.5168
-655.399 0.0253556 0 -20.7991
-435.769 0.0526423 0 -26.3218
-219.251 0.0620667 0 -30.5104
-438.993 0.0375128 0 -26.3468
-437.381 0.0450908 0 -26.3342
-652.982 0.0318018 0 -20.7806
-648.147 0.0446287 0 -20.745
-216.829 0.0868953 0 -30.4922
-218.444 0.0703725 0 -30.5042
-650.564 0.0382261 0 -20.7626
-432.544 0.0676662 0 -26.298
-217.637 0.0786487 0 -30.4981
-435.769 0.0526423 0 -26.3218
-434.156 0.0601674 0 -26.3097
-648.147 0.0446287 0 -20.745
-643.313 0.0573686 0 -20.7112
-215.215 0.1033 0 -30.4809
-216.829 0.0868953 0 -30.4922
-645.73 0.0510094 0 -20.7279
-429.319 0.082585 0 -26.2754
-216.022 0.0951124 0 -30.4865
-432.544 0.0676662 0 -26.298
-430.931 0.0751387 0 -26.2866
-643.313 0.0573686 0 -20.7112
-638.479 0.0700221 0 -20.6793
-213.601 0.119586 0 -30.4701
-215.215 0.1033 0 -30.4809
-640.896 0.0637061 0 -20.6951
-426.094 0.0973989 0 -26.2541
-214.408 0.111458 0 -30.4754
-429.319 0.0825849 0 -26.2754
-427.707 0.090005 0 -26.2646
-638.479 0.0700221 0 -20.6793
-633.645 0.0825899 0 -20.6492
-211.986 0.135755 0 -30.46
-213.601 0.119586 0 -30.4701
-636.062 0.0763167 0 -20.664
-422.87 0.112108 0 -26.234
-212.794 0.127685 0 -30.465
-426.094 0.0973989 0 -26.2541
-424.482 0.104767 0 -26.2439
-633.645 0.0825899 0 -20.6492
-628.811 0.0950726 0 -20.6209
-210.372 0.151806 0 -30.4504
-211.986 0.135755 0 -30.46
-631.228 0.0888419 0 -20.6349
-419.645 0.126714 0 -26.2151
-211.179 0.143795 0 -30.4551
-422.87 0.112108 0 -26.234
-421.258 0.119424 0 -26.2244
-628.811 0.0950726 0 -20.6209
-623.977 0.107471 0 -20.5945
-208.758 0.167739 0 -30.4415
-210.372 0.151806 0 -30.4504
-626.394 0.101282 0 -20.6075
-416.421 0.141215 0 -26.1974
-209.565 0.159787 0 -30.4459
-419.645 0.126714 0 -26.2151
-418.033 0.133978 0 -26.2061
-623.977 0.107471 0 -20.5945
-619.143 0.119784 0 -20.5698
-207.144 0.183555 0 -30.4332
-208.758 0.167739 0 -30.4415
-621.56 0.113638 0 -20.5819
-413.196 0.155614 0 -26.1808
-207.951 0.175662 0 -30.4373
-416.421 0.141215 0 -26.1974
-414.808 0.148427 0 -26.1889
-619.143 0.119784 0 -20.5698
-614.309 0.132015 0 -20.5468
-205.53 0.199253 0 -30.4254
-207.144 0.183555 0 -30.4332
-616.726 0.12591 0 -20.5581
-409.971 0.169909 0 -26.1655
-206.337 0.191419 0 -30.4292
-413.196 0.155614 0 -26.1808
-411.584 0.162774 0 -26.173
-614.309 0.132015 0 -20.5468
-609.475 0.144162 0 -20.5256
-203.916 0.214834 0 -30.4182
-205.53 0.199253 0 -30.4254
-611.892 0.138099 0 -20.536
-406.747 0.184101 0 -26.1513
-204.723 0.207058 0 -30.4218
-409.971 0.169909 0 -26.1655
-408.359 0.177018 0 -26.1583
-609.475 0.144162 0 -20.5256
-604.64 0.156226 0 -20.5062
-202.301 0.230298 0 -30.4117
-203.916 0.214834 0 -30.4182
-607.058 0.150204 0 -20.5157
-403.522 0.198191 0 -26.1383
-203.108 0.222581 0 -30.4149
-406.747 0.184101 0 -26.1513
-405.135 0.191159 0 -26.1447
-604.64 0.156226 0 -20.5062
-599.806 0.168209 0 -20.4885
-200.687 0.245645 0 -30.4056
-202.301 0.230298 0 -30.4117
-602.223 0.162228 0 -20.4971
-400.298 0.212179 0 -26.1265
-201.494 0.237987 0 -30.4086
-403.522 0.198191 0 -26.1383
-401.91 0.205198 0 -26.1322
-599.806 0.168209 0 -20.4885
-594.972 0.18011 0 -20.4725
-199.073 0.260876 0 -30.4002
-200.687 0.245645 0 -30.4056
-597.389 0.174169 0 -20.4803
-397.074 0.226065 0 -26.1157
-199.88 0.253275 0 -30.4029
-400.298 0.212179 0 -26.1265
-398.686 0.219135 0 -26.121
-594.972 0.18011 0 -20.4725
-590.138 0.191929 0 -20.4582
-197.459 0.275989 0 -30.3953
-199.073 0.260876 0 -30.4002
-592.555 0.186029 0 -20.4652
-393.849 0.23985 0 -26.1062
-198.266 0.268447 0 -30.3977
-397.074 0.226065 0 -26.1157
-395.461 0.23297 0 -26.1108
-590.138 0.191929 0 -20.4582
-585.305 0.203668 0 -20.4456
-195.845 0.290986 0 -30.391
-197.459 0.275989 0 -30.3953
-587.721 0.197808 0 -20.4517
-390.625 0.253533 0 -26.0977
-196.652 0.283502 0 -30.3931
-393.849 0.23985 0 -26.1062
-392.237 0.246704 0 -26.1018
-585.305 0.203668 0 -20.4456
-580.471 0.215326 0 -20.4347
-194.231 0.305866 0 -30.3873
-195.845 0.290986 0 -30.391
-582.888 0.209507 0 -20.4399
-387.4 0.267115 0 -26.0904
-195.038 0.29844 0 -30.3891
-390.625 0.253533 0 -26.0977
-389.013 0.260336 0 -26.0939
-580.471 0.215326 0 -20.4347
-575.637 0.226904 0 -20.4254
-192.617 0.32063 0 -30.3841
-194.231 0.305866 0 -30.3873
-578.054 0.221125 0 -20.4298
-384.176 0.280596 0 -26.0841
-193.424 0.313262 0 -30.3856
-387.4 0.267115 0 -26.0904
-385.788 0.273868 0 -26.0871
-575.637 0.226904 0 -20.4254
-570.803 0.238403 0 -20.4178
-191.003 0.335277 0 -30.3814
-192.617 0.32063 0 -30.3841
-573.22 0.232663 0 -20.4214
-380.952 0.293976 0 -26.079
-191.81 0.327968 0 -30.3827
-384.176 0.280596 0 -26.0841
-382.564 0.287298 0 -26.0814
-570.803 0.238403 0 -20.4178
-565.969 0.249822 0 -20.4118
-189.389 0.349808 0 -30.3793
-191.003 0.335277 0 -30.3814
-568.386 0.244122 0 -20.4146
-377.727 0.307256 0 -26.0749
-190.196 0.342557 0 -30.3803
-380.952 0.293976 0 -26.079
-379.34 0.300629 0 -26.0768
-565.969 0.249822 0 -20.4118
-561.135 0.261162 0 -20.4074
-187.776 0.364223 0 -30.3777
-189.389 0.349808 0 -30.3793
-563.552 0.255502 0 -20.4094
-374.503 0.320436 0 -26.072
-188.582 0.35703 0 -30.3785
-377.727 0.307256 0 -26.0749
-376.115 0.313859 0 -26.0733
-561.135 0.261162 0 -20.4074
-556.301 0.272424 0 -20.4047
-186.162 0.378521 0 -30.3767
-187.776 0.364223 0 -30.3777
-558.718 0.266803 0 -20.4058
-371.279 0.333516 0 -26.0701
-186.969 0.371387 0 -30.3772
-374.503 0.320436 0 -26.072
-372.891 0.326988 0 -26.0709
-556.301 0.272424 0 -20.4047
-551.467 0.283607 0 -20.4035
-184.548 0.392704 0 -30.3762
-186.162 0.378521 0 -30.3767
-553.884 0.278025 0 -20.4039
-368.055 0.346496 0 -26.0692
-185.355 0.385627 0 -30.3764
-371.279 0.333516 0 -26.0701
-369.667 0.340018 0 -26.0695
-551.467 0.283607 0 -20.4035
-546.634 0.294712 0 -20.4039
-182.934 0.40677 0 -30.3762
-184.548 0.392704 0 -30.3762
-549.05 0.289169 0 -20.4035
-364.831 0.359376 0 -26.0694
-183.741 0.399752 0 -30.3762
-368.055 0.346496 0 -26.0692
-366.443 0.352949 0 -26.0692
-546.634 0.294712 0 -20.4039
-541.8 0.30574 0 -20.4058
-181.32 0.420721 0 -30.3768
-182.934 0.40677 0 -30.3762
-544.217 0.300236 0 -20.4047
-361.606 0.372158 0 -26.0707
-182.127 0.41376 0 -30.3764
-364.831 0.359376 0 -26.0694
-363.218 0.365779 0 -26.0699
-541.8 0.30574 0 -20.4058
-536.966 0.31669 0 -20.4093
-179.707 0.434556 0 -30.3778
-181.32 0.420721 0 -30.3768
-539.383 0.311224 0 -20.4074
-358.382 0.384839 0 -26.073
-180.513 0.427653 0 -30.3772
-361.606 0.372158 0 -26.0707
-359.994 0.378511 0 -26.0717
-536.966 0.31669 0 -20.4093
-532.132 0.327562 0 -20.4144
-178.093 0.448275 0 -30.3794
-179.707 0.434556 0 -30.3778
-534.549 0.322136 0 -20.4117
-355.158 0.397422 0 -26.0763
-178.9 0.44143 0 -30.3786
-358.382 0.384839 0 -26.073
-356.77 0.391143 0 -26.0745
-532.132 0.327562 0 -20.4144
-527.299 0.338358 0 -20.421
-176.479 0.461878 0 -30.3815
-178.093 0.448275 0 -30.3794
-529.715 0.33297 0 -20.4175
-351.934 0.409906 0 -26.0806
-177.286 0.455091 0 -30.3804
-355.158 0.397422 0 -26.0763
-353.546 0.403676 0 -26.0783
-527.299 0.338358 0 -20.421
-522.465 0.349077 0 -20.429
-174.866 0.475365 0 -30.3841
-176.479 0.461878 0 -30.3815
-524.882 0.343727 0 -20.4248
-348.71 0.42229 0 -26.0859
-175.672 0.468636 0 -30.3827
-351.934 0.409906 0 -26.0806
-350.322 0.41611 0 -26.0831
-522.465 0.349077 0 -20.429
-517.631 0.35972 0 -20.4386
-173.252 0.488736 0 -30.3872
-174.866 0.475365 0 -30.3841
-520.048 0.354408 0 -20.4336
-345.486 0.434576 0 -26.0923
-174.059 0.482065 0 -30.3855
-348.71 0.42229 0 -26.0859
-347.098 0.428446 0 -26.089
-517.631 0.35972 0 -20.4386
-512.798 0.370286 0 -20.4496
-171.638 0.501992 0 -30.3907
-173.252 0.488736 0 -30.3872
-515.214 0.365013 0 -20.4439
-342.262 0.446764 0 -26.0996
-172.445 0.495379 0 -30.3889
-345.486 0.434576 0 -26.0923
-343.874 0.440682 0 -26.0958
-512.798 0.370286 0 -20.4496
-507.964 0.380776 0 -20.4622
-170.025 0.515132 0 -30.3948
-171.638 0.501992 0 -30.3907
-510.381 0.375541 0 -20.4557
-339.038 0.458853 0 -26.1079
-170.832 0.508577 0 -30.3927
-342.262 0.446764 0 -26.0996
-340.65 0.452821 0 -26.1036
-507.964 0.380776 0 -20.4622
-503.13 0.391191 0 -20.4761
-168.411 0.528157 0 -30.3993
-170.025 0.515132 0 -30.3948
-505.547 0.385993 0 -20.469
-335.814 0.470844 0 -26.1171
-169.218 0.521659 0 -30.397
-339.038 0.458853 0 -26.1079
-337.426 0.464861 0 -26.1124
-503.13 0.391191 0 -20.4761
-498.297 0.401529 0 -20.4915
-166.798 0.541066 0 -30.4044
-168.411 0.528157 0 -30.3993
-500.714 0.396369 0 -20.4836
-332.59 0.482736 0 -26.1273
-167.605 0.534626 0 -30.4018
-335.814 0.470844 0 -26.1171
-334.202 0.476802 0 -26.1221
-498.297 0.401529 0 -20.4915
-493.463 0.411792 0 -20.5084
-165.184 0.553859 0 -30.4099
-166.798 0.541066 0 -30.4044
-495.88 0.40667 0 -20.4998
-329.367 0.49453 0 -26.1385
-165.991 0.547477 0 -30.4071
-332.59 0.482736 0 -26.1273
-330.979 0.488645 0 -26.1328
-493.463 0.411792 0 -20.5084
-488.63 0.421979 0 -20.5266
-163.571 0.566537 0 -30.4158
-165.184 0.553859 0 -30.4099
-491.047 0.416895 0 -20.5173
-326.143 0.506226 0 -26.1506
-164.378 0.560213 0 -30.4128
-329.367 0.49453 0 -26.1385
-327.755 0.50039 0 -26.1444
-488.63 0.421979 0 -20.5266
-483.796 0.43209 0 -20.5462
-161.958 0.579099 0 -30.4223
-163.571 0.566537 0 -30.4158
-486.213 0.427044 0 -20.5362
-322.919 0.517824 0 -26.1637
-162.764 0.572833 0 -30.419
-326.143 0.506226 0 -26.1506
-324.531 0.512037 0 -26.157
-483.796 0.43209 0 -20.5462
-478.963 0.442127 0 -20.5673
-160.344 0.591546 0 -30.4292
-161.958 0.579099 0 -30.4223
-481.38 0.437118 0 -20.5566
-319.695 0.529323 0 -26.1776
-161.151 0.585337 0 -30.4257
-322.919 0.517824 0 -26.1637
-321.307 0.523586 0 -26.1705
-478.963 0.442127 0 -20.5673
-474.13 0.452088 0 -20.5896
-158.731 0.603877 0 -30.4365
-160.344 0.591546 0 -30.4292
-476.546 0.447117 0 -20.5783
-316.472 0.540725 0 -26.1925
-159.537 0.597726 0 -30.4328
-319.695 0.529323 0 -26.1776
-318.083 0.535037 0 -26.1849
-474.13 0.452088 0 -20.5896
-469.296 0.461974 0 -20.6134
-157.118 0.616093 0 -30.4444
-158.731 0.603877 0 -30.4365
-471.713 0.45704 0 -20.6013
-313.248 0.552029 0 -26.2083
-157.924 0.609999 0 -30.4404
-316.472 0.540725 0 -26.1925
-314.86 0.546389 0 -26.2003
-469.296 0.461974 0 -20.6134
-464.463 0.471785 0 -20.6385
-155.504 0.628193 0 -30.4526
-157.118 0.616093 0 -30.4444
-466.88 0.466889 0 -20.6258
-310.024 0.563235 0 -26.225
-156.311 0.622157 0 -30.4484
-313.248 0.552029 0 -26.2083
-311.636 0.557644 0 -26.2165
-464.463 0.471785 0 -20.6385
-459.63 0.481521 0 -20.6649
-153.891 0.640177 0 -30.4613
-155.504 0.628193 0 -30.4526
-462.046 0.476663 0 -20.6515
-306.801 0.574343 0 -26.2425
-154.698 0.634199 0 -30.4569
-310.024 0.563235 0 -26.225
-308.412 0.568801 0 -26.2336
-459.63 0.481521 0 -20.6649
-454.796 0.491182 0 -20.6926
-152.278 0.652046 0 -30.4705
-153.891 0.640177 0 -30.4613
-457.213 0.486361 0 -20.6786
-303.577 0.585354 0 -26.261
-153.084 0.646126 0 -30.4658
-306.801 0.574343 0 -26.2425
-305.189 0.579861 0 -26.2516
-454.796 0.491182 0 -20.6926
-449.963 0.500768 0 -20.7217
-150.665 0.663799 0 -30.48
-152.278 0.652046 0 -30.4705
-452.38 0.495985 0 -20.707
-300.354 0.596266 0 -26.2803
-151.471 0.657937 0 -30.4752
-303.577 0.585354 0 -26.261
-301.965 0.590822 0 -26.2705
-449.963 0.500768 0 -20.7217
-445.13 0.51028 0 -20.752
-149.051 0.675437 0 -30.49
-150.665 0.663799 0 -30.48
-447.546 0.505533 0 -20.7367
-297.13 0.60708 0 -26.3004
-149.858 0.669632 0 -30.485
-300.354 0.596266 0 -26.2803
-298.742 0.601685 0 -26.2902
-445.13 0.51028 0 -20.752
-440.297 0.519716 0 -20.7836
-147.438 0.686959 0 -30.5005
-149.051 0.675437 0 -30.49
-442.713 0.515007 0 -20.7676
-293.907 0.617797 0 -26.3214
-148.245 0.681212 0 -30.4952
-297.13 0.60708 0 -26.3004
-295.518 0.612451 0 -26.3108
-440.297 0.519716 0 -20.7836
-435.463 0.529077 0 -20.8164
-145.825 0.698365 0 -30.5113
-147.438 0.686959 0 -30.5005
-437.88 0.524406 0 -20.7998
-290.683 0.628416 0 -26.3433
-146.632 0.692676 0 -30.5058
-293.907 0.617797 0 -26.3214
-292.295 0.623119 0 -26.3323
-435.463 0.529077 0 -20.8164
-430.63 0.538364 0 -20.8505
-144.212 0.709655 0 -30.5226
-145.825 0.698365 0 -30.5113
-433.047 0.53373 0 -20.8333
-287.46 0.638937 0 -26.366
-145.019 0.704025 0 -30.5169
-290.683 0.628416 0 -26.3433
-289.071 0.633688 0 -26.3545
-430.63 0.538364 0 -20.8505
-425.797 0.547576 0 -20.8858
-142.599 0.72083 0 -30.5343
-144.212 0.709655 0 -30.5226
-428.214 0.542979 0 -20.868
-284.236 0.64936 0 -26.3895
-143.406 0.715257 0 -30.5284
-287.46 0.638937 0 -26.366
-285.848 0.64416 0 -26.3776
-425.797 0.547576 0 -20.8858
-420.964 0.556712 0 -20.9224
-140.986 0.731889 0 -30.5463
-142.599 0.72083 0 -30.5343
-423.381 0.552153 0 -20.904
-281.013 0.659685 0 -26.4138
-141.793 0.726374 0 -30.5402
-284.236 0.64936 0 -26.3895
-282.625 0.654534 0 -26.4015
-420.964 0.556712 0 -20.9224
-416.131 0.565774 0 -20.9601
-139.373 0.742832 0 -30.5588
-140.986 0.731889 0 -30.5463
-418.547 0.561253 0 -20.9411
-277.79 0.669911 0 -26.4389
-140.18 0.737375 0 -30.5525
-281.013 0.659685 0 -26.4138
-279.401 0.66481 0 -26.4262
-416.131 0.565774 0 -20.9601
-411.298 0.574761 0 -20.9991
-137.76 0.753659 0 -30.5717
-139.373 0.742832 0 -30.5588
-413.714 0.570277 0 -20.9795
-274.566 0.68004 0 -26.4648
-138.567 0.74826 0 -30.5652
-277.79 0.669911 0 -26.4389
-276.178 0.674988 0 -26.4518
-411.298 0.574761 0 -20.9991
-406.465 0.583672 0 -21.0392
-136.147 0.764371 0 -30.585
-137.76 0.753659 0 -30.5717
-408.881 0.579226 0 -21.019
-271.343 0.690071 0 -26.4915
-136.954 0.759029 0 -30.5783
-274.566 0.68004 0 -26.4648
-272.955 0.685068 0 -26.4781
-406.465 0.583672 0 -21.0392
-401.632 0.592508 0 -21.0805
-134.534 0.774966 0 -30.5986
-136.147 0.764371 0 -30.585
-404.048 0.5881 0 -21.0597
-268.12 0.700004 0 -26.519
-135.341 0.769683 0 -30.5918
-271.343 0.690071 0 -26.4915
-269.732 0.69505 0 -26.5052
-401.632 0.592508 0 -21.0805
-396.799 0.601269 0 -21.1229
-132.922 0.785445 0 -30.6127
-134.534 0.774966 0 -30.5986
-399.215 0.596898 0 -21.1015
-264.897 0.709838 0 -26.5472
-133.728 0.78022 0 -30.6056
-268.12 0.700004 0 -26.519
-266.508 0.704933 0 -26.533
-396.799 0.601269 0 -21.1229
-391.966 0.609955 0 -21.1665
-131.309 0.795808 0 -30.6271
-132.922 0.785445 0 -30.6127
-394.382 0.605621 0 -21.1445
-261.674 0.719574 0 -26.5762
-132.115 0.790641 0 -30.6199
-264.897 0.709838 0 -26.5472
-263.285 0.714718 0 -26.5616
-391.966 0.609955 0 -21.1665
-387.133 0.618565 0 -21.2111
-129.696 0.806055 0 -30.6419
-131.309 0.795808 0 -30.6271
-389.55 0.614269 0 -21.1887
-258.45 0.729211 0 -26.606
-130.502 0.800946 0 -30.6345
-261.674 0.719574 0 -26.5762
-260.062 0.724405 0 -26.591
-387.133 0.618565 0 -21.2111
-382.3 0.627099 0 -21.2569
-128.083 0.816186 0 -30.6571
-129.696 0.806055 0 -30.6419
-384.717 0.622841 0 -21.2339
-255.227 0.73875 0 -26.6365
-128.89 0.811135 0 -30.6495
-258.45 0.729211 0 -26.606
-256.839 0.733993 0 -26.6211
-382.3 0.627099 0 -21.2569
-377.467 0.635557 0 -21.3038
-126.47 0.826201 0 -30.6726
-128.083 0.816186 0 -30.6571
-379.884 0.631338 0 -21.2802
-252.004 0.74819 0 -26.6677
-127.277 0.821208 0 -30.6648
-255.227 0.73875 0 -26.6365
-253.616 0.743483 0 -26.652
-377.467 0.635557 0 -21.3038
-372.635 0.64394 0 -21.3518
-124.858 0.836099 0 -30.6885
-126.47 0.826201 0 -30.6726
-375.051 0.639758 0 -21.3277
-248.781 0.757532 0 -26.6996
-125.664 0.831164 0 -30.6805
-252.004 0.74819 0 -26.6677
-250.393 0.752874 0 -26.6835
-372.635 0.64394 0 -21.3518
-367.802 0.652247 0 -21.4008
-123.245 0.845881 0 -30.7048
-124.858 0.836099 0 -30.6885
-370.218 0.648103 0 -21.3762
-245.558 0.766775 0 -26.7322
-124.051 0.841004 0 -30.6966
-248.781 0.757532 0 -26.6996
-247.17 0.762166 0 -26.7158
-367.802 0.652247 0 -21.4008
-362.969 0.660477 0 -21.4509
-121.633 0.855546 0 -30.7214
-123.245 0.845881 0 -30.7048
-365.385 0.656371 0 -21.4257
-242.335 0.775919 0 -26.7656
-122.439 0.850728 0 -30.713
-245.558 0.766775 0 -26.7322
-243.947 0.771359 0 -26.7488
-362.969 0.660477 0 -21.4509
-358.136 0.668631 0 -21.502
-120.02 0.865095 0 -30.7383
-121.633 0.855546 0 -30.7214
-360.553 0.664563 0 -21.4763
-239.112 0.784963 0 -26.7996
-120.826 0.860335 0 -30.7298
-242.335 0.775919 0 -26.7656
-240.724 0.780453 0 -26.7825
-358.136 0.668631 0 -21.502
-353.304 0.676708 0 -21.5542
-118.407 0.874527 0 -30.7556
-120.02 0.865095 0 -30.7383
-355.72 0.672679 0 -21.528
-235.89 0.793909 0 -26.8344
-119.214 0.869825 0 -30.7469
-239.112 0.784963 0 -26.7996
-237.501 0.789448 0 -26.8169
-353.304 0.676708 0 -21.5542
-348.471 0.684709 0 -21.6073
-116.795 0.883842 0 -30.7733
-118.407 0.874527 0 -30.7556
-350.887 0.680718 0 -21.5806
-232.667 0.802755 0 -26.8697
-117.601 0.879199 0 -30.7644
-235.89 0.793909 0 -26.8344
-234.278 0.798344 0 -26.852
-348.471 0.684709 0 -21.6073
-343.638 0.692632 0 -21.6615
-115.182 0.89304 0 -30.7912
-116.795 0.883842 0 -30.7733
-346.055 0.68868 0 -21.6343
-229.444 0.811501 0 -26.9058
-115.989 0.888456 0 -30.7822
-232.667 0.802755 0 -26.8697
-231.055 0.807141 0 -26.8877
-343.638 0.692632 0 -21.6615
-338.806 0.700479 0 -21.7166
-113.57 0.902122 0 -30.8095
-115.182 0.89304 0 -30.7912
-341.222 0.696565 0 -21.6889
-226.221 0.820148 0 -26.9425
-114.376 0.897595 0 -30.8003
-229.444 0.811501 0 -26.9058
-227.833 0.815837 0 -26.9241
-338.806 0.700479 0 -21.7166
-333.973 0.708248 0 -21.7727
-111.957 0.911086 0 -30.8281
-113.57 0.902122 0 -30.8095
-336.389 0.704373 0 -21.7445
-222.998 0.828696 0 -26.9799
-112.764 0.906618 0 -30.8188
-226.221 0.820148 0 -26.9425
-224.61 0.824434 0 -26.9611
-333.973 0.708248 0 -21.7727
-329.14 0.715939 0 -21.8298
-110.345 0.919933 0 -30.8471
-111.957 0.911086 0 -30.8281
-331.557 0.712103 0 -21.8011
-219.776 0.837143 0 -27.0179
-111.151 0.915524 0 -30.8376
-222.998 0.828696 0 -26.9799
-221.387 0.832932 0 -26.9988
-329.14 0.715939 0 -21.8298
-324.308 0.723552 0 -21.8878
-108.733 0.928663 0 -30.8663
-110.345 0.919933 0 -30.8471
-326.724 0.719755 0 -21.8586
-216.553 0.84549 0 -27.0565
-109.539 0.924313 0 -30.8566
-219.776 0.837143 0 -27.0179
-218.164 0.841329 0 -27.0371
-324.308 0.723552 0 -21.8878
-319.475 0.731088 0 -21.9467
-107.12 0.937276 0 -30.8859
-108.733 0.928663 0 -30.8663
-321.892 0.72733 0 -21.9171
-213.33 0.853736 0 -27.0958
-107.926 0.932984 0 -30.8761
-216.553 0.84549 0 -27.0565
-214.942 0.849626 0 -27.0761
-319.475 0.731088 0 -21.9467
-314.643 0.738545 0 -22.0065
-105.508 0.945771 0 -30.9057
-107.12 0.937276 0 -30.8859
-317.059 0.734826 0 -21.9765
-210.108 0.861883 0 -27.1356
-106.314 0.941538 0 -30.8958
-213.33 0.853736 0 -27.0958
-211.719 0.857822 0 -27.1156
-314.643 0.738545 0 -22.0065
-309.81 0.745923 0 -22.0673
-103.896 0.954149 0 -30.9259
-105.508 0.945771 0 -30.9057
-312.227 0.742244 0 -22.0368
-206.885 0.869928 0 -27.1761
-104.702 0.949975 0 -30.9158
-210.108 0.861883 0 -27.1356
-208.496 0.865918 0 -27.1558
-309.81 0.745923 0 -22.0673
-304.978 0.753223 0 -22.1289
-102.283 0.962409 0 -30.9464
-103.896 0.954149 0 -30.9259
-307.394 0.749583 0 -22.098
-203.663 0.877873 0 -27.2171
-103.09 0.958294 0 -30.9361
-206.885 0.869928 0 -27.1761
-205.274 0.873913 0 -27.1965
-304.978 0.753223 0 -22.1289
-300.146 0.760443 0 -22.1914
-100.671 0.970552 0 -30.9671
-102.283 0.962409 0 -30.9464
-302.562 0.756843 0 -22.16
-200.44 0.885717 0 -27.2588
-101.477 0.966495 0 -30.9567
-203.663 0.877873 0 -27.2171
-202.051 0.881808 0 -27.2379
-300.146 0.760443 0 -22.1914
-295.313 0.767584 0 -22.2548
-99.059 0.978576 0 -30.9882
-100.671 0.970552 0 -30.9671
-297.729 0.764024 0 -22.223
-197.217 0.893459 0 -27.301
-99.8651 0.974579 0 -30.9776
-200.44 0.885717 0 -27.2588
-198.829 0.889601 0 -27.2798
-295.313 0.767584 0 -22.2548
-290.481 0.774646 0 -22.319
-97.4468 0.986483 0 -31.0095
-99.059 0.978576 0 -30.9882
-292.897 0.771125 0 -22.2868
-193.995 0.9011 0 -27.3437
-98.2529 0.982544 0 -30.9988
-197.217 0.893459 0 -27.301
-195.606 0.897292 0 -27.3223
-290.481 0.774646 0 -22.319
-285.648 0.781627 0 -22.384
-95.8347 0.994271 0 -31.0311
-97.4468 0.986483 0 -31.0095
-288.065 0.778146 0 -22.3514
-190.773 0.90864 0 -27.3871
-96.6407 0.990392 0 -31.0203
-193.995 0.9011 0 -27.3437
-192.384 0.904883 0 -27.3653
-285.648 0.781627 0 -22.384
-280.816 0.788528 0 -22.4499
-94.2225 1.00194 0 -31.053
-95.8347 0.994271 0 -31.0311
-283.232 0.785087 0 -22.4168
-187.55 0.916077 0 -27.4309
-95.0286 0.998121 0 -31.042
-190.773 0.90864 0 -27.3871
-189.161 0.912371 0 -27.4089
-280.816 0.788528 0 -22.4499
-275.984 0.795348 0 -22.5165
-92.6105 1.00949 0 -31.0751
-94.2225 1.00194 0 -31.053
-278.4 0.791948 0 -22.4831
-184.328 0.923412 0 -27.4753
-93.4165 1.00573 0 -31.064
-187.55 0.916077 0 -27.4309
-185.939 0.919757 0 -27.4531
-275.984 0.795348 0 -22.5165
-271.151 0.802087 0 -22.584
-90.9984 1.01693 0 -31.0975
-92.6105 1.00949 0 -31.0751
-273.568 0.798728 0 -22.5501
-181.105 0.930645 0 -27.5203
-91.8044 1.01322 0 -31.0863
-184.328 0.923412 0 -27.4753
-182.717 0.927042 0 -27.4977
-271.151 0.802087 0 -22.584
-266.319 0.808746 0 -22.6522
-89.3864 1.02424 0 -31.1202
-90.9984 1.01693 0 -31.0975
-268.735 0.805427 0 -22.618
-177.883 0.937776 0 -27.5657
-90.1924 1.0206 0 -31.1088
-181.105 0.930645 0 -27.5203
-179.494 0.934224 0 -27.5429
-266.319 0.808746 0 -22.6522
-261.487 0.815322 0 -22.7212
-87.7744 1.03144 0 -31.1431
-89.3864 1.02424 0 -31.1202
-263.903 0.812044 0 -22.6866
-174.661 0.944804 0 -27.6117
-88.5804 1.02785 0 -31.1316
-177.883 0.937776 0 -27.5657
-176.272 0.941303 0 -27.5886
-261.487 0.815322 0 -22.7212
-256.655 0.821816 0 -22.7909
-86.1625 1.03851 0 -31.1663
-87.7744 1.03144 0 -31.1431
-259.071 0.818579 0 -22.756
-171.439 0.951729 0 -27.6581
-86.9684 1.03499 0 -31.1547
-174.661 0.944804 0 -27.6117
-173.05 0.948279 0 -27.6348
-256.655 0.821816 0 -22.7909
-251.823 0.828229 0 -22.8614
-84.5505 1.04547 0 -31.1897
-86.1625 1.03851 0 -31.1663
-254.239 0.825033 0 -22.8261
-168.216 0.95855 0 -27.7051
-85.3565 1.04201 0 -31.178
-171.439 0.951729 0 -27.6581
-169.827 0.955152 0 -27.6815
-251.823 0.828229 0 -22.8614
-246.99 0.834558 0 -22.9326
-82.9386 1.05231 0 -31.2134
-84.5505 1.04547 0 -31.1897
-249.406 0.831404 0 -22.8969
-164.994 0.965268 0 -27.7525
-83.7446 1.04891 0 -31.2015
-168.216 0.95855 0 -27.7051
-166.605 0.961922 0 -27.7287
-246.99 0.834558 0 -22.9326
-242.158 0.840805 0 -23.0045
-81.3268 1.05903 0 -31.2373
-82.9386 1.05231 0 -31.2134
-244.574 0.837692 0 -22.9684
-161.772 0.971883 0 -27.8004
-82.1327 1.05569 0 -31.2253
-164.994 0.965268 0 -27.7525
-163.383 0.968588 0 -27.7764
-242.158 0.840805 0 -23.0045
-237.326 0.846968 0 -23.0771
-79.7149 1.06563 0 -31.2614
-81.3268 1.05903 0 -31.2373
-239.742 0.843897 0 -23.0407
-158.55 0.978393 0 -27.8488
-80.5209 1.06235 0 -31.2493
-161.772 0.971883 0 -27.8004
-160.161 0.975151 0 -27.8245
-237.326 0.846968 0 -23.0771
-232.494 0.853047 0 -23.1503
-78.1031 1.07211 0 -31.2858
-79.7149 1.06563 0 -31.2614
-234.91 0.850018 0 -23.1136
-155.328 0.984799 0 -27.8976
-78.909 1.06889 0 -31.2736
-158.55 0.978393 0 -27.8488
-156.939 0.981609 0 -27.8731
-232.494 0.853047 0 -23.1503
-227.662 0.859042 0 -23.2243
-76.4913 1.07848 0 -31.3104
-78.1031 1.07211 0 -31.2858
-230.078 0.856055 0 -23.1872
-152.105 0.991101 0 -27.9469
-77.2972 1.07531 0 -31.2981
-155.328 0.984799 0 -27.8976
-153.717 0.987963 0 -27.9222
-227.662 0.859042 0 -23.2243
-222.83 0.864953 0 -23.2988
-74.8796 1.08472 0 -31.3352
-76.4913 1.07848 0 -31.3104
-225.246 0.862008 0 -23.2615
-148.883 0.997298 0 -27.9966
-75.6855 1.08161 0 -31.3228
-152.105 0.991101 0 -27.9469
-150.494 0.994212 0 -27.9717
-222.83 0.864953 0 -23.2988
-217.998 0.870779 0 -23.3741
-73.2679 1.09084 0 -31.3602
-74.8796 1.08472 0 -31.3352
-220.414 0.867876 0 -23.3364
-145.661 1.00339 0 -28.0467
-74.0737 1.08779 0 -31.3477
-148.883 0.997298 0 -27.9966
-147.272 1.00036 0 -28.0216
-217.998 0.870779 0 -23.3741
-213.166 0.876519 0 -23.4499
-71.6562 1.09684 0 -31.3854
-73.2679 1.09084 0 -31.3602
-215.582 0.87366 0 -23.4119
-142.439 1.00938 0 -28.0972
-72.462 1.09385 0 -31.3728
-145.661 1.00339 0 -28.0467
-144.05 1.0064 0 -28.0719
-213.166 0.876519 0 -23.4499
-208.334 0.882174 0 -23.5264
-70.0445 1.10272 0 -31.4109
-71.6562 1.09684 0 -31.3854
-210.75 0.879357 0 -23.4881
-139.217 1.01526 0 -28.1482
-70.8503 1.0998 0 -31.3981
-142.439 1.00938 0 -28.0972
-140.828 1.01233 0 -28.1226
-208.334 0.882174 0 -23.5264
-203.502 0.887742 0 -23.6034
-68.4329 1.10848 0 -31.4365
-70.0445 1.10272 0 -31.4109
-205.918 0.884969 0 -23.5648
-135.995 1.02103 0 -28.1995
-69.2387 1.10562 0 -31.4237
-139.217 1.01526 0 -28.1482
-137.606 1.01816 0 -28.1738
-203.502 0.887742 0 -23.6034
-198.67 0.893225 0 -23.681
-66.8213 1.11412 0 -31.4623
-68.4329 1.10848 0 -31.4365
-201.086 0.890494 0 -23.6422
-132.773 1.0267 0 -28.2512
-67.6271 1.11132 0 -31.4494
-135.995 1.02103 0 -28.1995
-134.384 1.02388 0 -28.2253
-198.67 0.893225 0 -23.681
-193.838 0.89862 0 -23.7593
-65.2097 1.11964 0 -31.4883
-66.8213 1.11412 0 -31.4623
-196.254 0.895933 0 -23.7201
-129.552 1.03226 0 -28.3034
-66.0155 1.1169 0 -31.4753
-132.773 1.0267 0 -28.2512
-131.163 1.0295 0 -28.2773
-193.838 0.89862 0 -23.7593
-189.006 0.903928 0 -23.838
-63.5981 1.12504 0 -31.5145
-65.2097 1.11964 0 -31.4883
-191.422 0.901285 0 -23.7986
-126.33 1.03772 0 -28.3558
-64.4039 1.12236 0 -31.5014
-129.552 1.03226 0 -28.3034
-127.941 1.03501 0 -28.3296
-189.006 0.903928 0 -23.838
-184.174 0.909148 0 -23.9173
-61.9866 1.13032 0 -31.5409
-63.5981 1.12504 0 -31.5145
-186.59 0.906549 0 -23.8776
-123.108 1.04307 0 -28.4087
-62.7924 1.12769 0 -31.5277
-126.33 1.03772 0 -28.3558
-124.719 1.04041 0 -28.3822
-184.174 0.909148 0 -23.9173
-179.342 0.914279 0 -23.9971
-60.3751 1.13548 0 -31.5675
-61.9866 1.13032 0 -31.5409
-181.758 0.911724 0 -23.9572
-119.886 1.04831 0 -28.4619
-61.1809 1.13291 0 -31.5542
-123.108 1.04307 0 -28.4087
-121.497 1.0457 0 -28.4352
-179.342 0.914279 0 -23.9971
-174.51 0.919322 0 -24.0775
-58.7636 1.14051 0 -31.5942
-60.3751 1.13548 0 -31.5675
-176.926 0.916812 0 -24.0372
-116.664 1.05344 0 -28.5154
-59.5694 1.13801 0 -31.5808
-119.886 1.04831 0 -28.4619
-118.275 1.05089 0 -28.4886
-174.51 0.919322 0 -24.0775
-169.678 0.924276 0 -24.1583
-57.1522 1.14542 0 -31.6211
-58.7636 1.14051 0 -31.5942
-172.094 0.92181 0 -24.1178
-113.442 1.05847 0 -28.5693
-57.9579 1.14298 0 -31.6076
-116.664 1.05344 0 -28.5154
-115.053 1.05597 0 -28.5423
-169.678 0.924276 0 -24.1583
-164.846 0.92914 0 -24.2396
-55.5408 1.15022 0 -31.6482
-57.1522 1.14542 0 -31.6211
-167.262 0.926719 0 -24.1989
-110.221 1.06339 0 -28.6235
-56.3465 1.14783 0 -31.6346
-113.442 1.05847 0 -28.5693
-111.831 1.06094 0 -28.5964
-164.846 0.92914 0 -24.2396
-160.014 0.933913 0 -24.3214
-53.9294 1.15488 0 -31.6754
-55.5408 1.15022 0 -31.6482
-162.43 0.931538 0 -24.2805
-106.999 1.0682 0 -28.678
-54.7351 1.15257 0 -31.6618
-110.221 1.06339 0 -28.6235
-108.61 1.06581 0 -28.6507
-160.014 0.933913 0 -24.3214
-155.182 0.938596 0 -24.4037
-52.318 1.15943 0 -31.7028
-53.9294 1.15488 0 -31.6754
-157.598 0.936266 0 -24.3625
-103.777 1.07289 0 -28.7328
-53.1237 1.15717 0 -31.6891
-106.999 1.0682 0 -28.678
-105.388 1.07056 0 -28.7054
-155.182 0.938596 0 -24.4037
-150.351 0.943187 0 -24.4864
-50.7067 1.16385 0 -31.7303
-52.318 1.15943 0 -31.7028
-152.767 0.940903 0 -24.445
-100.555 1.07748 0 -28.7879
-51.5124 1.16166 0 -31.7165
-103.777 1.07289 0 -28.7328
-102.166 1.0752 0 -28.7603
-150.351 0.943187 0 -24.4864
-145.519 0.947685 0 -24.5695
-49.0954 1.16815 0 -31.758
-50.7067 1.16385 0 -31.7303
-147.935 0.945448 0 -24.5279
-97.3338 1.08196 0 -28.8433
-49.901 1.16602 0 -31.7441
-100.555 1.07748 0 -28.7879
-98.9446 1.07974 0 -28.8156
-145.519 0.947685 0 -24.5695
-140.687 0.95209 0 -24.6531
-47.4841 1.17233 0 -31.7858
-49.0954 1.16815 0 -31.758
-143.103 0.949899 0 -24.6113
-94.1121 1.08633 0 -28.899
-48.2897 1.17026 0 -31.7719
-97.3338 1.08196 0 -28.8433
-95.723 1.08416 0 -28.8712
-140.687 0.95209 0 -24.6531
-135.855 0.956401 0 -24.737
-45.8728 1.17638 0 -31.8137
-47.4841 1.17233 0 -31.7858
-138.271 0.954258 0 -24.695
-90.8905 1.09058 0 -28.955
-46.6785 1.17437 0 -31.7997
-94.1121 1.08633 0 -28.899
-92.5013 1.08847 0 -28.927
-135.855 0.956401 0 -24.737
-131.023 0.960618 0 -24.8213
-44.2616 1.1803 0 -31.8418
-45.8728 1.17638 0 -31.8137
-133.439 0.958522 0 -24.7791
-87.6689 1.09472 0 -29.0112
-45.0672 1.17835 0 -31.8278
-90.8905 1.09058 0 -28.955
-89.2797 1.09267 0 -28.983
-131.023 0.960618 0 -24.8213
-126.192 0.964741 0 -24.9061
-42.6504 1.1841 0 -31.87
-44.2616 1.1803 0 -31.8418
-128.607 0.962691 0 -24.8637
-84.4473 1.09875 0 -29.0676
-43.456 1.18222 0 -31.8559
-87.6689 1.09472 0 -29.0112
-86.0581 1.09675 0 -29.0394
-126.192 0.964741 0 -24.9061
-121.36 0.968769 0 -24.9911
-41.0392 1.18777 0 -31.8983
-42.6504 1.1841 0 -31.87
-123.776 0.966767 0 -24.9485
-81.2257 1.10267 0 -29.1243
-41.8448 1.18595 0 -31.8842
-84.4473 1.09875 0 -29.0676
-82.8365 1.10072 0 -29.0959
-121.36 0.968769 0 -24.9911
-116.528 0.972707 0 -25.0765
-39.428 1.19132 0 -31.9268
-41.0392 1.18777 0 -31.8983
-118.944 0.97075 0 -25.0338
-78.0041 1.10648 0 -29.1812
-40.2336 1.18956 0 -31.9125
-81.2257 1.10267 0 -29.1243
-79.6149 1.10459 0 -29.1528
-116.528 0.972707 0 -25.0765
-111.696 0.976559 0 -25.1622
-37.8168 1.19475 0 -31.9553
-39.428 1.19132 0 -31.9268
-114.112 0.974644 0 -25.1193
-74.7826 1.11018 0 -29.2384
-38.6224 1.19305 0 -31.941
-78.0041 1.10648 0 -29.1812
-76.3934 1.10834 0 -29.2098
-111.696 0.976559 0 -25.1622
-106.865 0.980334 0 -25.2483
-36.2057 1.19807 0 -31.9839
-37.8168 1.19475 0 -31.9553
-109.28 0.978456 0 -25.2052
-71.5611 1.11379 0 -29.2957
-37.0113 1.19643 0 -31.9696
-74.7826 1.11018 0 -29.2384
-73.1718 1.112 0 -29.267
-106.865 0.980334 0 -25.2483
-102.033 0.984045 0 -25.3347
-34.5946 1.2013 0 -32.0126
-36.2057 1.19807 0 -31.9839
-104.449 0.982196 0 -25.2914
-68.3396 1.11732 0 -29.3532
-35.4001 1.1997 0 -31.9982
-71.5611 1.11379 0 -29.2957
-69.9503 1.11557 0 -29.3244
-102.033 0.984045 0 -25.3347
-97.2011 0.987705 0 -25.4213
-32.9835 1.20444 0 -32.0414
-34.5946 1.2013 0 -32.0126
-99.6169 0.98588 0 -25.3779
-65.1182 1.12079 0 -29.4109
-33.7891 1.20288 0 -32.027
-68.3396 1.11732 0 -29.3532
-66.7289 1.11906 0 -29.3821
-97.2011 0.987705 0 -25.4213
-92.3695 0.991325 0 -25.5082
-31.3725 1.20752 0 -32.0702
-32.9835 1.20444 0 -32.0414
-94.7853 0.98952 0 -25.4647
-61.8968 1.1242 0 -29.4688
-32.178 1.20599 0 -32.0558
-65.1182 1.12079 0 -29.4109
-63.5075 1.1225 0 -29.4398
-92.3695 0.991325 0 -25.5082
-87.538 0.994885 0 -25.5955
-29.7616 1.21055 0 -32.0991
-31.3725 1.20752 0 -32.0702
-89.9538 0.993117 0 -25.5518
-58.6756 1.12755 0 -29.5268
-30.567 1.20904 0 -32.0846
-61.8968 1.1242 0 -29.4688
-60.2862 1.12589 0 -29.4978
-87.538 0.994885 0 -25.5955
-82.7067 0.9983 0 -25.683
-28.1508 1.21351 0 -32.1281
-29.7616 1.21055 0 -32.0991
-85.1224 0.996621 0 -25.6392
-55.4545 1.13074 0 -29.5851
-28.9562 1.21205 0 -32.1136
-58.6756 1.12755 0 -29.5268
-57.065 1.12918 0 -29.5559
-82.7067 0.9983 0 -25.683
-77.8754 1.00127 0 -25.7707
-26.54 1.21632 0 -32.1575
-28.1508 1.21351 0 -32.1281
-80.291 0.999876 0 -25.7268
-52.2334 1.13355 0 -29.6437
-27.3454 1.21495 0 -32.1427
-55.4545 1.13074 0 -29.5851
-53.844 1.13223 0 -29.6143
-77.8754 1.00127 0 -25.7707
-73.0438 1.00318 0 -25.8587
-24.9291 1.21864 0 -32.1877
-26.54 1.21632 0 -32.1575
-75.4597 1.00243 0 -25.8147
-49.0121 1.13534 0 -29.7028
-25.7345 1.21758 0 -32.1724
-52.2334 1.13355 0 -29.6437
-50.6228 1.13463 0 -29.6731
-73.0438 1.00318 0 -25.8587
-68.2114 1.00248 0 -25.9468
-23.3175 1.21993 0 -32.2201
-24.9291 1.21864 0 -32.1877
-70.6277 1.00332 0 -25.9028
-45.7896 1.13483 0 -29.7632
-24.1235 1.21948 0 -32.2035
-49.0121 1.13534 0 -29.7028
-47.401 1.13551 0 -29.7328
-68.2114 1.00248 0 -25.9468
-63.3754 0.996501 0 -26.035
-21.7046 1.21857 0 -32.257
-23.3175 1.21993 0 -32.2201
-65.7941 1.00042 0 -25.9909
-42.5639 1.12932 0 -29.8262
-22.5112 1.21974 0 -32.2377
-45.7896 1.13483 0 -29.7632
-44.1773 1.13293 0 -29.7942
-63.3754 0.996501 0 -26.035
-58.5325 0.979246 0 -26.1228
-20.0863 1.21255 0 -32.3036
-21.7046 1.21857 0 -32.257
-60.9549 0.989842 0 -26.079
-39.3306 1.11412 0 -29.8946
-20.8966 1.21636 0 -32.2786
-42.5639 1.12932 0 -29.8262
-40.9486 1.12346 0 -29.8596
-58.5325 0.979246 0 -26.1228
-53.6707 0.9422 0 -26.2107
-18.4605 1.19614 0 -32.3689
-20.0863 1.21255 0 -32.3036
-56.1053 0.964022 0 -26.1667
-36.0808 1.08032 0 -29.9735
-19.2741 1.20611 0 -32.3331
-39.3306 1.11412 0 -29.8946
-37.7085 1.10017 0 -29.9321
-53.6707 0.9422 0 -26.2107
-48.7774 0.867037 0 -26.2974
-16.8118 1.16467 0 -32.4696
-18.4605 1.19614 0 -32.3689
-51.2283 0.910862 0 -26.2545
-32.7974 1.01527 0 -30.0728
-17.6409 1.18282 0 -32.4133
-36.0808 1.08032 0 -29.9735
-34.4445 1.0532 0 -30.0203
-48.7774 0.867037 0 -26.2974
-43.8085 0.735219 0 -26.387
-15.1344 1.10268 0 -32.632
-16.8118 1.16467 0 -32.4696
-46.3073 0.810028 0 -26.3412
-29.4507 0.897607 0 -30.2088
-15.9756 1.13837 0 -32.5411
-32.7974 1.01527 0 -30.0728
-31.1346 0.963775 0 -30.1338
-43.8085 0.735219 0 -26.387
-38.7288 0.505597 0 -26.4791
-13.3812 1.0098 0 -32.8983
-15.1344 1.10268 0 -32.632
-41.2823 0.634755 0 -26.4334
-25.992 0.7096 0 -30.4089
-14.2738 1.06061 0 -32.7485
-29.4507 0.897607 0 -30.2088
-27.7384 0.815251 0 -30.3007
-38.7288 0.505597 0 -26.4791
-33.4077 0.174913 0 -26.5994
-11.5542 0.860435 0 -33.3169
-13.3812 1.0098 0 -32.8983
-36.1141 0.353888 0 -26.5321
-22.347 0.431098 0 -30.7137
-12.4711 0.941433 0 -33.0856
-25.992 0.7096 0 -30.4089
-24.2 0.577648 0 -30.5409
-33.4077 0.174913 0 -26.5994
-27.7989 -0.289386 0 -26.7637
-9.54408 0.723592 0 -33.9413
-11.5542 0.860435 0 -33.3169
-30.6321 -0.0466452 0 -26.6764
-18.4338 0.120183 0 -31.174
-10.5904 0.786533 0 -33.5994
-22.347 0.431098 0 -30.7137
-20.4263 0.279179 0 -30.9287
-27.7989 -0.289386 0 -26.7637
-21.6279 -0.649271 0 -27.0983
-7.46676 0.625065 0 -34.7401
-9.54408 0.723592 0 -33.9413
-24.8232 -0.499228 0 -26.8941
-14.1759 -0.0803942 0 -31.8353
-8.48592 0.653862 0 -34.3268
-18.4338 0.120183 0 -31.174
-16.3605 -0.0302387 0 -31.4619
-21.6279 -0.649271 0 -27.0983
-15.1194 -0.603049 0 -27.6783
-5.19052 1.00364 0 -35.5211
-7.46676 0.625065 0 -34.7401
-18.3623 -0.745654 0 -27.3565
-9.70289 0.393071 0 -32.6491
-6.39382 0.729581 0 -35.1523
-14.1759 -0.0803942 0 -31.8353
-11.9364 0.0438101 0 -32.2599
-15.1194 -0.603049 0 -27.6783
-8.22488 1.4676 0 -28.7686
-3.31576 2.10968 0 -35.5635
-5.19052 1.00364 0 -35.5211
-11.7758 0.0611978 0 -28.1343
-5.41474 2.38648 0 -33.2327
-4.10182 1.41268 0 -35.7091
-9.70289 0.393071 0 -32.6491
-7.53139 1.06684 0 -32.9629
-8.22488 1.4676 0 -28.7686
-3.04463 7.71489 0 -29.493
-1.54017 4.91932 0 -33.552
-3.31576 2.10968 0 -35.5635
-5.15699 3.73484 0 -29.3005
-2.54222 7.35457 0 -32.1259
-2.52267 3.34083 0 -34.9173
-5.41474 2.38648 0 -33.2327
-3.62732 4.54071 0 -33.1336
-3.04463 7.71489 0 -29.493
0.03041 23.1334 0 -26.8245
-1.06754 7.85554 0 -27.3396
-1.54017 4.91932 0 -33.552
-1.34851 14.3743 0 -28.9578
-0.870035 15.1569 0 -26.567
-0.912961 6.42782 0 -31.1174
-2.54222 7.35457 0 -32.1259
-1.76412 10.8437 0 -29.9413
0.03041 23.1334 0 -26.8245
0.864593 40.4259 0 -13.6756
-1.363 11.637 0 -15.5011
-1.06754 7.85554 0 -27.3396
0.952039 32.6818 0 -21.9299
0.354812 24.9764 0 -15.4461
-1.39747 9.55195 0 -22.166
-0.870035 15.1569 0 -26.567
-0.0413049 20.137 0 -21.8486
-308.778 -92.6198 0 123.282
-301.33 -51.7271 0 40.8929
298.949 50.4573 0 40.7382
306.252 91.8893 0 123.138
-296.026 -72.4333 0 77.7696
-1.26459 -0.649317 0 46.2708
293.584 71.3872 0 77.6483
-1.34989 -0.363841 0 125.767
-1.29309 -0.544445 0 87.0081
-301.33 -51.7271 0 40.8929
-317.496 -31.5216 0 -8.39455
315.187 29.989 0 -8.66638
298.949 50.4573 0 40.7382
-313.825 -40.4845 0 11.9058
-1.23598 -0.781094 0 -5.93977
311.486 39.06 0 11.6923
-1.26459 -0.649317 0 46.2708
-1.25185 -0.723828 0 14.1253
-317.496 -31.5216 0 -8.39455
-318.585 -13.2009 0 -30.6879
316.317 11.5183 0 -31.0872
315.187 29.989 0 -8.66638
-316.91 -21.4034 0 -21.8421
-1.21904 -0.866197 0 -30.1364
314.622 19.7886 0 -22.1762
-1.23598 -0.781094 0 -5.93977
-1.22394 -0.827919 0 -19.6912
-318.585 -13.2009 0 -30.6879
-319.483 -4.67042 0 -38.5955
317.254 2.86669 0 -39.1143
316.317 11.5183 0 -31.0872
-320.437 -8.19925 0 -35.9962
-1.20519 -0.923957 0 -39.4843
318.189 6.4537 0 -36.4576
-1.21904 -0.866197 0 -30.1364
-1.21442 -0.897298 0 -36.5593
-319.483 -4.67042 0 -38.5955
-316.067 -0.24701 0 -39.3829
313.871 -1.65317 0 -40.0081
317.254 2.86669 0 -39.1143
-317.359 -1.86431 0 -39.432
-1.18885 -0.970502 0 -41.0789
315.147 0.00869768 0 -40.0054
-1.20519 -0.923957 0 -39.4843
-1.19591 -0.948767 0 -40.6743
-316.067 -0.24701 0 -39.3829
-313.2 0.561842 0 -37.9168
311.028 -2.52806 0 -38.6393
313.871 -1.65317 0 -40.0081
-314.948 0.34611 0 -38.7936
-1.17579 -1.00163 0 -39.6952
312.766 -2.28335 0 -39.4681
-1.18885 -0.970502 0 -41.0789
-1.1823 -0.987993 0 -40.6581
-313.2 0.561842 0 -37.9168
-309.834 0.591501 0 -36.0414
307.673 -2.59097 0 -36.8597
311.028 -2.52806 0 -38.6393
-311.297 0.682431 0 -36.9411
-1.16764 -1.01865 0 -37.7365
309.132 -2.66929 0 -37.7114
-1.17579 -1.00163 0 -39.6952
-1.17072 -1.01197 0 -38.6505
-309.834 0.591501 0 -36.0414
-307.245 0.119591 0 -34.5432
305.087 -2.12381 0 -35.4585
307.673 -2.59097 0 -36.8597
-308.571 0.352154 0 -35.2383
-1.16435 -1.02133 0 -36.0814
306.413 -2.35715 0 -36.1049
-1.16764 -1.01865 0 -37.7365
-1.16564 -1.02159 0 -36.8724
-307.245 0.119591 0 -34.5432
-304.86 -0.238641 0 -33.4913
302.699 -1.74854 0 -34.5058
305.087 -2.12381 0 -35.4585
-305.963 -0.0622641 0 -33.9586
-1.16427 -1.01334 0 -34.9301
303.804 -1.93576 0 -34.9232
-1.16435 -1.02133 0 -36.0814
-1.16393 -1.0185 0 -35.4307
-304.86 -0.238641 0 -33.4913
-302.862 -0.534104 0 -32.826
300.697 -1.42099 0 -33.9409
302.699 -1.74854 0 -34.5058
-303.855 -0.405436 0 -33.1199
-1.16577 -0.997415 0 -34.205
301.692 -1.5672 0 -34.1845
-1.16427 -1.01334 0 -34.9301
-1.16496 -1.00617 0 -34.5275
-302.862 -0.534104 0 -32.826
-301.002 -0.699168 0 -32.4184
298.831 -1.21446 0 -33.6341
300.697 -1.42099 0 -33.9409
-301.903 -0.626334 0 -32.5956
-1.16759 -0.976619 0 -33.7839
299.735 -1.30893 0 -33.7609
-1.16577 -0.997415 0 -34.205
-1.16669 -0.987488 0 -33.9612
-301.002 -0.699168 0 -32.4184
-299.277 -0.795297 0 -32.1754
297.103 -1.07162 0 -33.4911
298.831 -1.21446 0 -33.6341
-300.135 -0.756643 0 -32.2818
-1.16894 -0.952954 0 -33.5522
297.962 -1.13409 0 -33.5477
-1.16759 -0.976619 0 -33.7839
-1.16837 -0.965038 0 -33.6513
-299.277 -0.795297 0 -32.1754
-297.601 -0.834252 0 -32.0263
295.425 -0.983487 0 -33.4409
297.103 -1.07162 0 -33.4911
-298.431 -0.819244 0 -32.0921
-1.16946 -0.927953 0 -33.4326
296.255 -1.02326 0 -33.4574
-1.16894 -0.952954 0 -33.5522
-1.16931 -0.940556 0 -33.4815
-297.601 -0.834252 0 -32.0263
-295.963 -0.84487 0 -31.9297
293.787 -0.922965 0 -33.4414
295.425 -0.983487 0 -33.4409
-296.781 -0.84276 0 -31.9735
-1.16902 -0.902504 0 -33.3739
294.604 -0.950043 0 -33.4368
-1.16946 -0.927953 0 -33.4326
-1.16936 -0.915244 0 -33.3981
-295.963 -0.84487 0 -31.9297
-294.337 -0.837255 0 -31.8603
292.163 -0.880924 0 -33.4672
293.787 -0.922965 0 -33.4414
-295.148 -0.842455 0 -31.8926
-1.16771 -0.877153 0 -33.3472
292.973 -0.900483 0 -33.4522
-1.16902 -0.902504 0 -33.3739
-1.16847 -0.889796 0 -33.3577
-294.337 -0.837255 0 -31.8603
-292.72 -0.821425 0 -31.8048
290.549 -0.847821 0 -33.505
292.163 -0.880924 0 -33.4672
-293.528 -0.830173 0 -31.8314
-1.16566 -0.852153 0 -33.336
291.356 -0.863433 0 -33.4852
-1.16771 -0.877153 0 -33.3472
-1.16677 -0.8646 0 -33.3404
-292.72 -0.821425 0 -31.8048
-291.105 -0.801196 0 -31.756
288.938 -0.820015 0 -33.5476
290.549 -0.847821 0 -33.505
-291.912 -0.811613 0 -31.7798
-1.16302 -0.827608 0 -33.3321
289.743 -0.8335 0 -33.526
-1.16566 -0.852153 0 -33.336
-1.1644 -0.839821 0 -33.3335
-291.105 -0.801196 0 -31.756
-289.491 -0.779376 0 -31.7106
287.329 -0.794702 0 -33.5917
288.938 -0.820015 0 -33.5476
-290.298 -0.790427 0 -31.733
-1.15996 -0.803526 0 -33.3311
288.133 -0.807108 0 -33.5696
-1.16302 -0.827608 0 -33.3321
-1.16154 -0.815511 0 -33.3314
-289.491 -0.779376 0 -31.7106
-287.876 -0.756977 0 -31.6669
285.72 -0.770793 0 -33.6356
287.329 -0.794702 0 -33.5917
-288.683 -0.768193 0 -31.6886
-1.15659 -0.77987 0 -33.3312
286.525 -0.782634 0 -33.6137
-1.15996 -0.803526 0 -33.3311
-1.15831 -0.791648 0 -33.3311
-287.876 -0.756977 0 -31.6669
-286.262 -0.734606 0 -31.6243
284.112 -0.747576 0 -33.6788
285.72 -0.770793 0 -33.6356
-287.069 -0.745778 0 -31.6455
-1.15303 -0.756586 0 -33.3315
284.916 -0.759115 0 -33.6573
-1.15659 -0.77987 0 -33.3312
-1.15483 -0.768185 0 -33.3313
-286.262 -0.734606 0 -31.6243
-284.647 -0.712425 0 -31.5826
282.504 -0.724776 0 -33.7212
284.112 -0.747576 0 -33.6788
-285.455 -0.723483 0 -31.6033
-1.14934 -0.733617 0 -33.3318
283.308 -0.736138 0 -33.7001
-1.15303 -0.756586 0 -33.3315
-1.15119 -0.745065 0 -33.3317
-284.647 -0.712425 0 -31.5826
-283.033 -0.690503 0 -31.5415
280.895 -0.70223 0 -33.7625
282.504 -0.724776 0 -33.7212
-283.84 -0.701433 0 -31.5619
-1.14558 -0.710913 0 -33.332
281.699 -0.713475 0 -33.742
-1.14934 -0.733617 0 -33.3318
-1.14746 -0.722234 0 -33.3319
-283.033 -0.690503 0 -31.5415
-281.418 -0.668824 0 -31.5012
279.287 -0.679875 0 -33.803
280.895 -0.70223 0 -33.7625
-282.225 -0.679634 0 -31.5213
-1.14178 -0.688434 0 -33.3321
280.091 -0.691032 0 -33.7829
-1.14558 -0.710913 0 -33.332
-1.14368 -0.699647 0 -33.3321
-281.418 -0.668824 0 -31.5012
-279.803 -0.647363 0 -31.4617
277.678 -0.657673 0 -33.8425
279.287 -0.679875 0 -33.803
-280.61 -0.658068 0 -31.4814
-1.13798 -0.666146 0 -33.3321
278.483 -0.668756 0 -33.8229
-1.14178 -0.688434 0 -33.3321
-1.13988 -0.677268 0 -33.3321
-279.803 -0.647363 0 -31.4617
-278.188 -0.626092 0 -31.4229
276.07 -0.635609 0 -33.8813
277.678 -0.657673 0 -33.8425
-278.995 -0.636705 0 -31.4422
-1.13418 -0.644028 0 -33.3321
276.874 -0.646625 0 -33.862
-1.13798 -0.666146 0 -33.3321
-1.13608 -0.655067 0 -33.3321
-278.188 -0.626092 0 -31.4229
-276.573 -0.604989 0 -31.3849
274.461 -0.613672 0 -33.9191
276.07 -0.635609 0 -33.8813
-277.381 -0.615521 0 -31.4038
-1.1304 -0.622061 0 -33.332
275.266 -0.624625 0 -33.9003
-1.13418 -0.644028 0 -33.3321
-1.13229 -0.633026 0 -33.3321
-276.573 -0.604989 0 -31.3849
-274.958 -0.584038 0 -31.3477
272.853 -0.591857 0 -33.9562
274.461 -0.613672 0 -33.9191
-275.766 -0.594495 0 -31.3662
-1.12663 -0.600235 0 -33.332
273.657 -0.60275 0 -33.9378
-1.1304 -0.622061 0 -33.332
-1.12851 -0.611131 0 -33.332
-274.958 -0.584038 0 -31.3477
-273.343 -0.563228 0 -31.3113
271.244 -0.570161 0 -33.9925
272.853 -0.591857 0 -33.9562
-274.151 -0.573616 0 -31.3294
-1.12288 -0.578541 0 -33.3319
272.048 -0.580994 0 -33.9745
-1.12663 -0.600235 0 -33.332
-1.12475 -0.589372 0 -33.3319
-273.343 -0.563228 0 -31.3113
-271.728 -0.542552 0 -31.2756
269.635 -0.54858 0 -34.028
271.244 -0.570161 0 -33.9925
-272.536 -0.552874 0 -31.2933
-1.11916 -0.556976 0 -33.3318
270.44 -0.559356 0 -34.0104
-1.12288 -0.578541 0 -33.3319
-1.12102 -0.567742 0 -33.3318
-271.728 -0.542552 0 -31.2756
-270.113 -0.522006 0 -31.2407
268.027 -0.527115 0 -34.0627
269.635 -0.54858 0 -34.028
-270.921 -0.532263 0 -31.258
-1.11546 -0.535535 0 -33.3317
268.831 -0.537833 0 -34.0455
-1.11916 -0.556976 0 -33.3318
-1.11731 -0.54624 0 -33.3317
-270.113 -0.522006 0 -31.2407
-268.498 -0.501588 0 -31.2066
266.418 -0.505765 0 -34.0967
268.027 -0.527115 0 -34.0627
-269.306 -0.511781 0 -31.2235
-1.11178 -0.514219 0 -33.3316
267.222 -0.516426 0 -34.0798
-1.11546 -0.535535 0 -33.3317
-1.11362 -0.524862 0 -33.3316
-268.498 -0.501588 0 -31.2066
-266.883 -0.481295 0 -31.1732
264.809 -0.48453 0 -34.1298
266.418 -0.505765 0 -34.0967
-267.691 -0.491426 0 -31.1898
-1.10812 -0.493026 0 -33.3315
265.614 -0.495133 0 -34.1134
-1.11178 -0.514219 0 -33.3316
-1.10994 -0.503607 0 -33.3315
-266.883 -0.481295 0 -31.1732
-265.269 -0.461127 0 -31.1406
263.201 -0.46341 0 -34.1623
264.809 -0.48453 0 -34.1298
-266.076 -0.471196 0 -31.1568
-1.10448 -0.471955 0 -33.3314
264.005 -0.473956 0 -34.1461
-1.10812 -0.493026 0 -33.3315
-1.10629 -0.482475 0 -33.3314
-265.269 -0.461127 0 -31.1406
-263.654 -0.441085 0 -31.1087
261.592 -0.442407 0 -34.1939
263.201 -0.46341 0 -34.1623
-264.461 -0.45109 0 -31.1245
-1.10086 -0.451008 0 -33.3313
262.396 -0.452894 0 -34.1782
-1.10448 -0.471955 0 -33.3314
-1.10266 -0.461466 0 -33.3313
-263.654 -0.441085 0 -31.1087
-262.039 -0.421166 0 -31.0776
259.983 -0.42152 0 -34.2248
261.592 -0.442407 0 -34.1939
-262.846 -0.43111 0 -31.0931
-1.09725 -0.430184 0 -33.3312
260.788 -0.431949 0 -34.2095
-1.10086 -0.451008 0 -33.3313
-1.09905 -0.44058 0 -33.3312
-262.039 -0.421166 0 -31.0776
-260.424 -0.401372 0 -31.0472
258.374 -0.40075 0 -34.255
259.983 -0.42152 0 -34.2248
-261.231 -0.411254 0 -31.0623
-1.09367 -0.409483 0 -33.331
259.179 -0.41112 0 -34.24
-1.09725 -0.430184 0 -33.3312
-1.09546 -0.419818 0 -33.3311
-260.424 -0.401372 0 -31.0472
-258.809 -0.381702 0 -31.0176
256.766 -0.380099 0 -34.2844
258.374 -0.40075 0 -34.255
-259.616 -0.391522 0 -31.0323
-1.09011 -0.388905 0 -33.3309
257.57 -0.39041 0 -34.2698
-1.09367 -0.409483 0 -33.331
-1.09189 -0.399179 0 -33.331
-258.809 -0.381702 0 -31.0176
-257.194 -0.362156 0 -30.9887
255.157 -0.359566 0 -34.313
256.766 -0.380099 0 -34.2844
-258.002 -0.371914 0 -31.0031
-1.08656 -0.368452 0 -33.3308
255.961 -0.369817 0 -34.2988
-1.09011 -0.388905 0 -33.3309
-1.08833 -0.378663 0 -33.3309
-257.194 -0.362156 0 -30.9887
-255.579 -0.342734 0 -30.9605
253.548 -0.339152 0 -34.341
255.157 -0.359566 0 -34.313
-256.387 -0.352429 0 -30.9745
-1.08303 -0.348122 0 -33.3307
254.352 -0.349344 0 -34.3271
-1.08656 -0.368452 0 -33.3308
-1.08479 -0.358272 0 -33.3307
-255.579 -0.342734 0 -30.9605
-253.965 -0.323435 0 -30.9331
251.939 -0.318858 0 -34.3682
253.548 -0.339152 0 -34.341
-254.772 -0.333069 0 -30.9467
-1.07952 -0.327917 0 -33.3306
252.743 -0.32899 0 -34.3547
-1.08303 -0.348122 0 -33.3307
-1.08127 -0.338004 0 -33.3306
-253.965 -0.323435 0 -30.9331
-252.35 -0.30426 0 -30.9064
250.33 -0.298684 0 -34.3946
251.939 -0.318858 0 -34.3682
-253.157 -0.313832 0 -30.9197
-1.07603 -0.307836 0 -33.3304
251.135 -0.308756 0 -34.3815
-1.07952 -0.327917 0 -33.3306
-1.07778 -0.317861 0 -33.3305
-252.35 -0.30426 0 -30.9064
-250.735 -0.285207 0 -30.8804
248.721 -0.278631 0 -34.4204
250.33 -0.298684 0 -34.3946
-251.542 -0.294718 0 -30.8933
-1.07256 -0.28788 0 -33.3303
249.526 -0.288642 0 -34.4076
-1.07603 -0.307836 0 -33.3304
-1.07429 -0.297843 0 -33.3304
-250.735 -0.285207 0 -30.8804
-249.12 -0.266278 0 -30.8551
247.112 -0.258699 0 -34.4454
248.721 -0.278631 0 -34.4204
-249.928 -0.275727 0 -30.8677
-1.06911 -0.268048 0 -33.3302
247.917 -0.26865 0 -34.433
-1.07256 -0.28788 0 -33.3303
-1.07083 -0.277949 0 -33.3302
-249.12 -0.266278 0 -30.8551
-247.506 -0.247471 0 -30.8306
245.504 -0.238889 0 -34.4698
247.112 -0.258699 0 -34.4454
-248.313 -0.256859 0 -30.8428
-1.06567 -0.248341 0 -33.33
246.308 -0.248779 0 -34.4577
-1.06911 -0.268048 0 -33.3302
-1.06739 -0.258179 0 -33.3301
-247.506 -0.247471 0 -30.8306
-245.891 -0.228786 0 -30.8067
243.895 -0.219201 0 -34.4934
245.504 -0.238889 0 -34.4698
-246.698 -0.238113 0 -30.8185
-1.06225 -0.228759 0 -33.3299
244.699 -0.22903 0 -34.4817
-1.06567 -0.248341 0 -33.33
-1.06396 -0.238535 0 -33.33
-245.891 -0.228786 0 -30.8067
-244.276 -0.210224 0 -30.7835
242.286 -0.199635 0 -34.5163
243.895 -0.219201 0 -34.4934
-245.084 -0.21949 0 -30.795
-1.05886 -0.209302 0 -33.3298
243.09 -0.209403 0 -34.5049
-1.06225 -0.228759 0 -33.3299
-1.06055 -0.219015 0 -33.3298
-244.276 -0.210224 0 -30.7835
-242.662 -0.191783 0 -30.761
240.677 -0.180193 0 -34.5385
242.286 -0.199635 0 -34.5163
-243.469 -0.200988 0 -30.7722
-1.05548 -0.18997 0 -33.3296
241.481 -0.189899 0 -34.5275
-1.05886 -0.209302 0 -33.3298
-1.05717 -0.19962 0 -33.3297
-242.662 -0.191783 0 -30.761
-241.047 -0.173464 0 -30.7393
239.068 -0.160874 0 -34.56
240.677 -0.180193 0 -34.5385
-241.854 -0.182608 0 -30.7501
-1.05212 -0.170762 0 -33.3295
239.872 -0.170518 0 -34.5493
-1.05548 -0.18997 0 -33.3296
-1.0538 -0.18035 0 -33.3296
-241.047 -0.173464 0 -30.7393
-239.432 -0.155266 0 -30.7182
237.459 -0.141678 0 -34.5808
239.068 -0.160874 0 -34.56
-240.24 -0.16435 0 -30.7286
-1.04878 -0.15168 0 -33.3294
238.263 -0.15126 0 -34.5705
-1.05212 -0.170762 0 -33.3295
-1.05045 -0.161206 0 -33.3294
-239.432 -0.155266 0 -30.7182
-237.818 -0.137189 0 -30.6977
235.85 -0.122607 0 -34.601
237.459 -0.141678 0 -34.5808
-238.625 -0.146212 0 -30.7079
-1.04546 -0.132723 0 -33.3292
236.654 -0.132127 0 -34.591
-1.04878 -0.15168 0 -33.3294
-1.04712 -0.142186 0 -33.3293
-237.818 -0.137189 0 -30.6977
-236.203 -0.119233 0 -30.678
234.241 -0.10366 0 -34.6205
235.85 -0.122607 0 -34.601
-237.01 -0.128196 0 -30.6878
-1.04215 -0.113892 0 -33.3291
235.045 -0.113118 0 -34.6108
-1.04546 -0.132723 0 -33.3292
-1.0438 -0.123292 0 -33.3292
-236.203 -0.119233 0 -30.678
-234.588 -0.101398 0 -30.6589
232.632 -0.0848377 0 -34.6392
234.241 -0.10366 0 -34.6205
-235.396 -0.1103 0 -30.6684
-1.03887 -0.0951852 0 -33.3289
233.436 -0.0942331 0 -34.6299
-1.04215 -0.113892 0 -33.3291
-1.04051 -0.104523 0 -33.329
-234.588 -0.101398 0 -30.6589
-232.974 -0.0836824 0 -30.6405
231.023 -0.0661409 0 -34.6574
232.632 -0.0848377 0 -34.6392
-233.781 -0.0925249 0 -30.6497
-1.03561 -0.0766042 0 -33.3288
231.827 -0.0754737 0 -34.6484
-1.03887 -0.0951852 0 -33.3289
-1.03724 -0.085879 0 -33.3289
-232.974 -0.0836824 0 -30.6405
-231.359 -0.0660874 0 -30.6228
229.414 -0.0475697 0 -34.6748
231.023 -0.0661409 0 -34.6574
-232.167 -0.0748699 0 -30.6316
-1.03236 -0.0581486 0 -33.3287
230.218 -0.0568396 0 -34.6662
-1.03561 -0.0766042 0 -33.3288
-1.03398 -0.0673607 0 -33.3287
-231.359 -0.0660874 0 -30.6228
-229.745 -0.0486123 0 -30.6057
227.805 -0.0291244 0 -34.6916
229.414 -0.0475697 0 -34.6748
-230.552 -0.0573349 0 -30.6142
-1.02914 -0.0398186 0 -33.3285
228.609 -0.0383313 0 -34.6833
-1.03236 -0.0581486 0 -33.3287
-1.03075 -0.0489679 0 -33.3286
-229.745 -0.0486123 0 -30.6057
-228.13 -0.031257 0 -30.5893
226.196 -0.0108053 0 -34.7078
227.805 -0.0291244 0 -34.6916
-228.938 -0.0399197 0 -30.5974
-1.02593 -0.0216141 0 -33.3284
227 -0.0199491 0 -34.6998
-1.02914 -0.0398186 0 -33.3285
-1.02753 -0.0307006 0 -33.3284
-228.13 -0.031257 0 -30.5893
-226.516 -0.0140211 0 -30.5735
224.587 0.00738711 0 -34.7232
226.196 -0.0108053 0 -34.7078
-227.323 -0.0226241 0 -30.5813
-1.02274 -0.00353525 0 -33.3282
225.391 -0.00169326 0 -34.7156
-1.02593 -0.0216141 0 -33.3284
-1.02433 -0.012559 0 -33.3283
-226.516 -0.0140211 0 -30.5735
-224.901 0.00309547 0 -30.5584
222.978 0.0254526 0 -34.7381
224.587 0.00738711 0 -34.7232
-225.709 -0.00544792 0 -30.5659
-1.01958 0.0144179 0 -33.3281
223.782 0.0164358 0 -34.7307
-1.02274 -0.00353525 0 -33.3282
-1.02116 0.00545702 0 -33.3281
-224.901 0.00309547 0 -30.5584
-223.287 0.0200929 0 -30.5439
221.369 0.0433909 0 -34.7523
222.978 0.0254526 0 -34.7381
-224.094 0.0116091 0 -30.5511
-1.01643 0.0322452 0 -33.3279
222.173 0.0344377 0 -34.7453
-1.01958 0.0144179 0 -33.3281
-1.018 0.0233473 0 -33.328
-223.287 0.0200929 0 -30.5439
-221.672 0.0369715 0 -30.53
219.759 0.0612016 0 -34.7658
221.369 0.0433909 0 -34.7523
-222.48 0.0285471 0 -30.5369
-1.0133 0.0499467 0 -33.3278
220.564 0.0523122 0 -34.7591
-1.01643 0.0322452 0 -33.3279
-1.01486 0.0411117 0 -33.3278
-221.672 0.0369715 0 -30.53
-220.058 0.0537313 0 -30.5168
218.15 0.0788844 0 -34.7788
219.759 0.0612016 0 -34.7658
-220.865 0.0453662 0 -30.5233
-1.0102 0.0675223 0 -33.3276
218.955 0.070059 0 -34.7724
-1.0133 0.0499467 0 -33.3278
-1.01175 0.0587503 0 -33.3277
-220.058 0.0537313 0 -30.5168
-218.444 0.0703725 0 -30.5042
216.541 0.0964391 0 -34.7911
218.15 0.0788844 0 -34.7788
-219.251 0.0620667 0 -30.5104
-1.00711 0.084972 0 -33.3274
217.346 0.0876778 0 -34.785
-1.0102 0.0675223 0 -33.3276
-1.00865 0.0762629 0 -33.3275
-218.444 0.0703725 0 -30.5042
-216.829 0.0868953 0 -30.4922
214.932 0.113865 0 -34.8027
216.541 0.0964391 0 -34.7911
-217.637 0.0786487 0 -30.4981
-1.00404 0.102296 0 -33.3273
215.737 0.105168 0 -34.797
-1.00711 0.084972 0 -33.3274
-1.00557 0.0936495 0 -33.3274
-216.829 0.0868953 0 -30.4922
-215.215 0.1033 0 -30.4809
213.323 0.131163 0 -34.8138
214.932 0.113865 0 -34.8027
-216.022 0.0951124 0 -30.4865
-1.00099 0.119493 0 -33.3271
214.128 0.12253 0 -34.8083
-1.00404 0.102296 0 -33.3273
-1.00251 0.11091 0 -33.3272
-215.215 0.1033 0 -30.4809
-213.601 0.119586 0 -30.4701
211.714 0.148331 0 -34.8242
213.323 0.131163 0 -34.8138
-214.408 0.111458 0 -30.4754
-0.997964 0.136564 0 -33.327
212.518 0.139763 0 -34.8191
-1.00099 0.119493 0 -33.3271
-0.999476 0.128045 0 -33.3271
-213.601 0.119586 0 -30.4701
-211.986 0.135755 0 -30.46
210.105 0.16537 0 -34.8341
211.714 0.148331 0 -34.8242
-212.794 0.127685 0 -30.465
-0.994957 0.15351 0 -33.3268
210.909 0.156867 0 -34.8292
-0.997964 0.136564 0 -33.327
-0.996458 0.145053 0 -33.3269
-211.986 0.135755 0 -30.46
-210.372 0.151806 0 -30.4504
208.496 0.18228 0 -34.8433
210.105 0.16537 0 -34.8341
-211.179 0.143795 0 -30.4551
-0.991969 0.170328 0 -33.3267
209.3 0.173841 0 -34.8388
-0.994957 0.15351 0 -33.3268
-0.99346 0.161935 0 -33.3267
-210.372 0.151806 0 -30.4504
-208.758 0.167739 0 -30.4415
206.886 0.199059 0 -34.8519
208.496 0.18228 0 -34.8433
-209.565 0.159787 0 -30.4459
-0.989002 0.187021 0 -33.3265
207.691 0.190686 0 -34.8477
-0.991969 0.170328 0 -33.3267
-0.990483 0.178691 0 -33.3266
-208.758 0.167739 0 -30.4415
-207.144 0.183555 0 -30.4332
205.277 0.215709 0 -34.8599
206.886 0.199059 0 -34.8519
-207.951 0.175662 0 -30.4373
-0.986055 0.203587 0 -33.3263
206.082 0.2074 0 -34.856
-0.989002 0.187021 0 -33.3265
-0.987526 0.19532 0 -33.3264
-207.144 0.183555 0 -30.4332
-205.53 0.199253 0 -30.4254
203.668 0.232228 0 -34.8674
205.277 0.215709 0 -34.8599
-206.337 0.191419 0 -30.4292
-0.983128 0.220027 0 -33.3262
204.473 0.223985 0 -34.8637
-0.986055 0.203587 0 -33.3263
-0.984589 0.211823 0 -33.3263
-205.53 0.199253 0 -30.4254
-203.916 0.214834 0 -30.4182
202.059 0.248617 0 -34.8742
203.668 0.232228 0 -34.8674
-204.723 0.207058 0 -30.4218
-0.980222 0.23634 0 -33.326
202.864 0.240439 0 -34.8709
-0.983128 0.220027 0 -33.3262
-0.981673 0.228199 0 -33.3261
-203.916 0.214834 0 -30.4182
-202.301 0.230298 0 -30.4117
200.45 0.264874 0 -34.8805
202.059 0.248617 0 -34.8742
-203.108 0.222581 0 -30.4149
-0.977336 0.252527 0 -33.3259
201.254 0.256762 0 -34.8774
-0.980222 0.23634 0 -33.326
-0.978777 0.244449 0 -33.3259
-202.301 0.230298 0 -30.4117
-200.687 0.245645 0 -30.4056
198.841 0.281001 0 -34.8862
200.45 0.264874 0 -34.8805
-201.494 0.237987 0 -30.4086
-0.974471 0.268587 0 -33.3257
199.645 0.272954 0 -34.8834
-0.977336 0.252527 0 -33.3259
-0.975901 0.260573 0 -33.3258
-200.687 0.245645 0 -30.4056
-199.073 0.260876 0 -30.4002
197.231 0.296996 0 -34.8913
198.841 0.281001 0 -34.8862
-199.88 0.253275 0 -30.4029
-0.971627 0.28452 0 -33.3255
198.036 0.289015 0 -34.8888
-0.974471 0.268587 0 -33.3257
-0.973046 0.276569 0 -33.3256
-199.073 0.260876 0 -30.4002
-197.459 0.275989 0 -30.3953
195.622 0.31286 0 -34.8959
197.231 0.296996 0 -34.8913
-198.266 0.268447 0 -30.3977
-0.968803 0.300327 0 -33.3254
196.427 0.304945 0 -34.8937
-0.971627 0.28452 0 -33.3255
-0.970212 0.292439 0 -33.3255
-197.459 0.275989 0 -30.3953
-195.845 0.290986 0 -30.391
194.013 0.328592 0 -34.8999
195.622 0.31286 0 -34.8959
-196.652 0.283502 0 -30.3931
-0.966 0.316006 0 -33.3252
194.817 0.320743 0 -34.8979
-0.968803 0.300327 0 -33.3254
-0.967399 0.308182 0 -33.3253
-195.845 0.290986 0 -30.391
-194.231 0.305866 0 -30.3873
192.404 0.344193 0 -34.9033
194.013 0.328592 0 -34.8999
-195.038 0.29844 0 -30.3891
-0.963217 0.331559 0 -33.325
193.208 0.336409 0 -34.9017
-0.966 0.316006 0 -33.3252
-0.964606 0.323799 0 -33.3251
-194.231 0.305866 0 -30.3873
-192.617 0.32063 0 -30.3841
190.794 0.359661 0 -34.9062
192.404 0.344193 0 -34.9033
-193.424 0.313262 0 -30.3856
-0.960455 0.346985 0 -33.3249
191.599 0.351943 0 -34.9048
-0.963217 0.331559 0 -33.325
-0.961834 0.339288 0 -33.325
-192.617 0.32063 0 -30.3841
-191.003 0.335277 0 -30.3814
189.185 0.374996 0 -34.9085
190.794 0.359661 0 -34.9062
-191.81 0.327968 0 -30.3827
-0.957715 0.362284 0 -33.3247
189.99 0.367345 0 -34.9074
-0.960455 0.346985 0 -33.3249
-0.959082 0.354651 0 -33.3248
-191.003 0.335277 0 -30.3814
-189.389 0.349808 0 -30.3793
187.576 0.390199 0 -34.9103
189.185 0.374996 0 -34.9085
-190.196 0.342557 0 -30.3803
-0.954995 0.377456 0 -33.3246
188.381 0.382614 0 -34.9095
-0.957715 0.362284 0 -33.3247
-0.956352 0.369886 0 -33.3246
-189.389 0.349808 0 -30.3793
-187.776 0.364223 0 -30.3777
185.967 0.40527 0 -34.9115
187.576 0.390199 0 -34.9103
-188.582 0.35703 0 -30.3785
-0.952296 0.392501 0 -33.3244
186.771 0.397751 0 -34.911
-0.954995 0.377456 0 -33.3246
-0.953643 0.384995 0 -33.3245
-187.776 0.364223 0 -30.3777
-186.162 0.378521 0 -30.3767
184.357 0.420207 0 -34.9123
185.967 0.40527 0 -34.9115
-186.969 0.371387 0 -30.3772
-0.949618 0.407419 0 -33.3242
185.162 0.412755 0 -34.912
-0.952296 0.392501 0 -33.3244
-0.950955 0.399976 0 -33.3243
-186.162 0.378521 0 -30.3767
-184.548 0.392704 0 -30.3762
182.748 0.435012 0 -34.9124
184.357 0.420207 0 -34.9123
-185.355 0.385627 0 -30.3764
-0.946962 0.42221 0 -33.3241
183.553 0.427626 0 -34.9124
-0.949618 0.407419 0 -33.3242
-0.948287 0.41483 0 -33.3241
-184.548 0.392704 0 -30.3762
-182.934 0.40677 0 -30.3762
181.139 0.449683 0 -34.9121
182.748 0.435012 0 -34.9124
-183.741 0.399752 0 -30.3762
-0.944326 0.436873 0 -33.3239
181.943 0.442364 0 -34.9123
-0.946962 0.42221 0 -33.3241
-0.945641 0.429557 0 -33.324
-182.934 0.40677 0 -30.3762
-181.32 0.420721 0 -30.3768
179.53 0.464221 0 -34.9112
181.139 0.449683 0 -34.9121
-182.127 0.41376 0 -30.3764
-0.941712 0.451409 0 -33.3237
180.334 0.456968 0 -34.9117
-0.944326 0.436873 0 -33.3239
-0.943016 0.444157 0 -33.3238
-181.32 0.420721 0 -30.3768
-179.707 0.434556 0 -30.3778
177.92 0.478625 0 -34.9098
179.53 0.464221 0 -34.9112
-180.513 0.427653 0 -30.3772
-0.939119 0.465818 0 -33.3236
178.725 0.471439 0 -34.9106
-0.941712 0.451409 0 -33.3237
-0.940413 0.45863 0 -33.3237
-179.707 0.434556 0 -30.3778
-178.093 0.448275 0 -30.3794
176.311 0.492895 0 -34.9079
177.92 0.478625 0 -34.9098
-178.9 0.44143 0 -30.3786
-0.936547 0.4801 0 -33.3234
177.116 0.485777 0 -34.9089
-0.939119 0.465818 0 -33.3236
-0.93783 0.472975 0 -33.3235
-178.093 0.448275 0 -30.3794
-176.479 0.461878 0 -30.3815
174.702 0.507032 0 -34.9055
176.311 0.492895 0 -34.9079
-177.286 0.455091 0 -30.3804
-0.933997 0.494254 0 -33.3232
175.506 0.49998 0 -34.9068
-0.936547 0.4801 0 -33.3234
-0.935269 0.487193 0 -33.3233
-176.479 0.461878 0 -30.3815
-174.866 0.475365 0 -30.3841
173.092 0.521034 0 -34.9026
174.702 0.507032 0 -34.9055
-175.672 0.468636 0 -30.3827
-0.931468 0.50828 0 -33.3231
173.897 0.51405 0 -34.9041
-0.933997 0.494254 0 -33.3232
-0.932729 0.501283 0 -33.3232
-174.866 0.475365 0 -30.3841
-173.252 0.488736 0 -30.3872
171.483 0.534903 0 -34.8992
173.092 0.521034 0 -34.9026
-174.059 0.482065 0 -30.3855
-0.92896 0.522179 0 -33.3229
172.288 0.527985 0 -34.901
-0.931468 0.50828 0 -33.3231
-0.930211 0.515246 0 -33.323
-173.252 0.488736 0 -30.3872
-171.638 0.501992 0 -30.3907
169.874 0.548637 0 -34.8953
171.483 0.534903 0 -34.8992
-172.445 0.495379 0 -30.3889
-0.926474 0.535951 0 -33.3228
170.678 0.541787 0 -34.8973
-0.92896 0.522179 0 -33.3229
-0.927715 0.529081 0 -33.3228
-171.638 0.501992 0 -30.3907
-170.025 0.515132 0 -30.3948
168.264 0.562237 0 -34.8909
169.874 0.548637 0 -34.8953
-170.832 0.508577 0 -30.3927
-0.92401 0.549594 0 -33.3226
169.069 0.555454 0 -34.8932
-0.926474 0.535951 0 -33.3228
-0.925239 0.542788 0 -33.3227
-170.025 0.515132 0 -30.3948
-168.411 0.528157 0 -30.3993
166.655 0.575702 0 -34.8861
168.264 0.562237 0 -34.8909
-169.218 0.521659 0 -30.397
-0.921567 0.56311 0 -33.3224
167.46 0.568986 0 -34.8886
-0.92401 0.549594 0 -33.3226
-0.922786 0.556368 0 -33.3225
-168.411 0.528157 0 -30.3993
-166.798 0.541066 0 -30.4044
165.046 0.589032 0 -34.8807
166.655 0.575702 0 -34.8861
-167.605 0.534626 0 -30.4018
-0.919146 0.576499 0 -33.3223
165.85 0.582384 0 -34.8835
-0.921567 0.56311 0 -33.3224
-0.920354 0.569821 0 -33.3223
-166.798 0.541066 0 -30.4044
-165.184 0.553859 0 -30.4099
163.436 0.602228 0 -34.8749
165.046 0.589032 0 -34.8807
-165.991 0.547477 0 -30.4071
-0.916747 0.589759 0 -33.3221
164.241 0.595647 0 -34.8779
-0.919146 0.576499 0 -33.3223
-0.917944 0.583145 0 -33.3222
-165.184 0.553859 0 -30.4099
-163.571 0.566537 0 -30.4158
161.827 0.615289 0 -34.8686
163.436 0.602228 0 -34.8749
-164.378 0.560213 0 -30.4128
-0.914369 0.602892 0 -33.3219
162.632 0.608775 0 -34.8718
-0.916747 0.589759 0 -33.3221
-0.915555 0.596342 0 -33.322
-163.571 0.566537 0 -30.4158
-161.958 0.579099 0 -30.4223
160.218 0.628215 0 -34.8618
161.827 0.615289 0 -34.8686
-162.764 0.572833 0 -30.419
-0.912013 0.615897 0 -33.3218
161.022 0.621769 0 -34.8653
-0.914369 0.602892 0 -33.3219
-0.913188 0.609411 0 -33.3219
-161.958 0.579099 0 -30.4223
-160.344 0.591546 0 -30.4292
158.608 0.641006 0 -34.8546
160.218 0.628215 0 -34.8618
-161.151 0.585337 0 -30.4257
-0.909679 0.628774 0 -33.3216
159.413 0.634627 0 -34.8583
-0.912013 0.615897 0 -33.3218
-0.910843 0.622352 0 -33.3217
-160.344 0.591546 0 -30.4292
-158.731 0.603877 0 -30.4365
156.999 0.653662 0 -34.847
158.608 0.641006 0 -34.8546
-159.537 0.597726 0 -30.4328
-0.907367 0.641523 0 -33.3215
157.803 0.647351 0 -34.8508
-0.909679 0.628774 0 -33.3216
-0.90852 0.635165 0 -33.3215
-158.731 0.603877 0 -30.4365
-157.118 0.616093 0 -30.4444
155.389 0.666182 0 -34.8388
156.999 0.653662 0 -34.847
-157.924 0.609999 0 -30.4404
-0.905077 0.654144 0 -33.3213
156.194 0.659939 0 -34.8429
-0.907367 0.641523 0 -33.3215
-0.906219 0.64785 0 -33.3214
-157.118 0.616093 0 -30.4444
-155.504 0.628193 0 -30.4526
153.78 0.678567 0 -34.8303
155.389 0.666182 0 -34.8388
-156.311 0.622157 0 -30.4484
-0.902809 0.666637 0 -33.3211
154.585 0.672392 0 -34.8346
-0.905077 0.654144 0 -33.3213
-0.90394 0.660407 0 -33.3212
-155.504 0.628193 0 -30.4526
-153.891 0.640177 0 -30.4613
152.171 0.690817 0 -34.8212
153.78 0.678567 0 -34.8303
-154.698 0.634199 0 -30.4569
-0.900563 0.679002 0 -33.321
152.975 0.684709 0 -34.8258
-0.902809 0.666637 0 -33.3211
-0.901683 0.672836 0 -33.3211
-153.891 0.640177 0 -30.4613
-152.278 0.652046 0 -30.4705
150.561 0.702931 0 -34.8118
152.171 0.690817 0 -34.8212
-153.084 0.646126 0 -30.4658
-0.898339 0.691239 0 -33.3208
151.366 0.696891 0 -34.8166
-0.900563 0.679002 0 -33.321
-0.899448 0.685137 0 -33.3209
-152.278 0.652046 0 -30.4705
-150.665 0.663799 0 -30.48
148.952 0.71491 0 -34.8019
150.561 0.702931 0 -34.8118
-151.471 0.657937 0 -30.4752
-0.896137 0.703348 0 -33.3207
149.756 0.708938 0 -34.8069
-0.898339 0.691239 0 -33.3208
-0.897235 0.697309 0 -33.3208
-150.665 0.663799 0 -30.48
-149.051 0.675437 0 -30.49
147.342 0.726753 0 -34.7916
148.952 0.71491 0 -34.8019
-149.858 0.669632 0 -30.485
-0.893958 0.715328 0 -33.3205
148.147 0.720848 0 -34.7968
-0.896137 0.703348 0 -33.3207
-0.895045 0.709354 0 -33.3206
-149.051 0.675437 0 -30.49
-147.438 0.686959 0 -30.5005
145.733 0.73846 0 -34.7808
147.342 0.726753 0 -34.7916
-148.245 0.681212 0 -30.4952
-0.8918 0.72718 0 -33.3204
146.538 0.732624 0 -34.7863
-0.893958 0.715328 0 -33.3205
-0.892876 0.72127 0 -33.3204
-147.438 0.686959 0 -30.5005
-145.825 0.698365 0 -30.5113
144.123 0.750032 0 -34.7697
145.733 0.73846 0 -34.7808
-146.632 0.692676 0 -30.5058
-0.889665 0.738904 0 -33.3202
144.928 0.744263 0 -34.7753
-0.8918 0.72718 0 -33.3204
-0.89073 0.733058 0 -33.3203
-145.825 0.698365 0 -30.5113
-144.212 0.709655 0 -30.5226
142.514 0.761468 0 -34.7581
144.123 0.750032 0 -34.7697
-145.019 0.704025 0 -30.5169
-0.887552 0.7505 0 -33.3201
143.319 0.755767 0 -34.764
-0.889665 0.738904 0 -33.3202
-0.888606 0.744718 0 -33.3201
-144.212 0.709655 0 -30.5226
-142.599 0.72083 0 -30.5343
140.905 0.772768 0 -34.7461
142.514 0.761468 0 -34.7581
-143.406 0.715257 0 -30.5284
-0.885462 0.761967 0 -33.3199
141.709 0.767135 0 -34.7522
-0.887552 0.7505 0 -33.3201
-0.886504 0.756249 0 -33.32
-142.599 0.72083 0 -30.5343
-140.986 0.731889 0 -30.5463
139.295 0.783933 0 -34.7338
140.905 0.772768 0 -34.7461
-141.793 0.726374 0 -30.5402
-0.883394 0.773305 0 -33.3198
140.1 0.778367 0 -34.74
-0.885462 0.761967 0 -33.3199
-0.884425 0.767652 0 -33.3198
-140.986 0.731889 0 -30.5463
-139.373 0.742832 0 -30.5588
137.686 0.794961 0 -34.721
139.295 0.783933 0 -34.7338
-140.18 0.737375 0 -30.5525
-0.881348 0.784516 0 -33.3196
138.49 0.789464 0 -34.7274
-0.883394 0.773305 0 -33.3198
-0.882368 0.778927 0 -33.3197
-139.373 0.742832 0 -30.5588
-137.76 0.753659 0 -30.5717
136.076 0.805853 0 -34.7078
137.686 0.794961 0 -34.721
-138.567 0.74826 0 -30.5652
-0.879325 0.795597 0 -33.3194
136.881 0.800424 0 -34.7144
-0.881348 0.784516 0 -33.3196
-0.880334 0.790073 0 -33.3195
-137.76 0.753659 0 -30.5717
-136.147 0.764371 0 -30.585
134.467 0.81661 0 -34.6942
136.076 0.805853 0 -34.7078
-136.954 0.759029 0 -30.5783
-0.877324 0.806551 0 -33.3193
135.271 0.811249 0 -34.7011
-0.879325 0.795597 0 -33.3194
-0.878322 0.80109 0 -33.3194
-136.147 0.764371 0 -30.585
-134.534 0.774966 0 -30.5986
132.857 0.82723 0 -34.6803
134.467 0.81661 0 -34.6942
-135.341 0.769683 0 -30.5918
-0.875346 0.817375 0 -33.3192
133.662 0.821937 0 -34.6873
-0.877325 0.806551 0 -33.3193
-0.876333 0.811979 0 -33.3192
-134.534 0.774966 0 -30.5986
-132.922 0.785445 0 -30.6127
131.248 0.837715 0 -34.6659
132.857 0.82723 0 -34.6803
-133.728 0.78022 0 -30.6056
-0.873391 0.828071 0 -33.319
132.052 0.83249 0 -34.6731
-0.875346 0.817375 0 -33.3192
-0.874366 0.822739 0 -33.3191
-132.922 0.785445 0 -30.6127
-131.309 0.795808 0 -30.6271
129.638 0.848063 0 -34.6512
131.248 0.837715 0 -34.6659
-132.115 0.790641 0 -30.6199
-0.871458 0.838639 0 -33.3189
130.443 0.842906 0 -34.6586
-0.873391 0.828071 0 -33.319
-0.872422 0.833371 0 -33.3189
-131.309 0.795808 0 -30.6271
-129.696 0.806055 0 -30.6419
128.029 0.858276 0 -34.6361
129.638 0.848063 0 -34.6512
-130.502 0.800946 0 -30.6345
-0.869548 0.849077 0 -33.3187
128.833 0.853187 0 -34.6437
-0.871458 0.838639 0 -33.3189
-0.8705 0.843874 0 -33.3188
-129.696 0.806055 0 -30.6419
-128.083 0.816186 0 -30.6571
126.419 0.868352 0 -34.6207
128.029 0.858276 0 -34.6361
-128.89 0.811135 0 -30.6495
-0.867661 0.859387 0 -33.3186
127.224 0.863331 0 -34.6284
-0.869548 0.849077 0 -33.3187
-0.868602 0.854248 0 -33.3186
-128.083 0.816186 0 -30.6571
-126.47 0.826201 0 -30.6726
124.81 0.878293 0 -34.6048
126.419 0.868352 0 -34.6207
-127.277 0.821208 0 -30.6648
-0.865796 0.869569 0 -33.3184
125.614 0.87334 0 -34.6128
-0.867661 0.859387 0 -33.3186
-0.866726 0.864494 0 -33.3185
-126.47 0.826201 0 -30.6726
-124.858 0.836099 0 -30.6885
123.2 0.888097 0 -34.5887
124.81 0.878293 0 -34.6048
-125.664 0.831164 0 -30.6805
-0.863954 0.879621 0 -33.3183
124.005 0.883212 0 -34.5968
-0.865796 0.869569 0 -33.3184
-0.864872 0.874611 0 -33.3184
-124.858 0.836099 0 -30.6885
-123.245 0.845881 0 -30.7048
121.591 0.897765 0 -34.5721
123.2 0.888097 0 -34.5887
-124.051 0.841004 0 -30.6966
-0.862135 0.889545 0 -33.3181
122.395 0.892948 0 -34.5804
-0.863954 0.879621 0 -33.3183
-0.863042 0.884599 0 -33.3182
-123.245 0.845881 0 -30.7048
-121.633 0.855546 0 -30.7214
119.981 0.907298 0 -34.5552
121.591 0.897765 0 -34.5721
-122.439 0.850728 0 -30.713
-0.860339 0.899339 0 -33.318
120.786 0.902549 0 -34.5637
-0.862135 0.889545 0 -33.3181
-0.861234 0.894458 0 -33.3181
-121.633 0.855546 0 -30.7214
-120.02 0.865095 0 -30.7383
118.372 0.916694 0 -34.538
119.981 0.907298 0 -34.5552
-120.826 0.860335 0 -30.7298
-0.858566 0.909005 0 -33.3179
119.176 0.912013 0 -34.5467
-0.860339 0.899339 0 -33.318
-0.85945 0.904188 0 -33.3179
-120.02 0.865095 0 -30.7383
-118.407 0.874527 0 -30.7556
116.762 0.925954 0 -34.5205
118.372 0.916694 0 -34.538
-119.214 0.869825 0 -30.7469
-0.856815 0.918542 0 -33.3177
117.567 0.921341 0 -34.5293
-0.858566 0.909005 0 -33.3179
-0.857688 0.91379 0 -33.3178
-118.407 0.874527 0 -30.7556
-116.795 0.883842 0 -30.7733
115.152 0.935079 0 -34.5026
116.762 0.925954 0 -34.5205
-117.601 0.879199 0 -30.7644
-0.855088 0.92795 0 -33.3176
115.957 0.930533 0 -34.5115
-0.856815 0.918542 0 -33.3177
-0.855949 0.923262 0 -33.3177
-116.795 0.883842 0 -30.7733
-115.182 0.89304 0 -30.7912
113.543 0.944067 0 -34.4843
115.152 0.935079 0 -34.5026
-115.989 0.888456 0 -30.7822
-0.853384 0.937229 0 -33.3175
114.348 0.93959 0 -34.4935
-0.855088 0.92795 0 -33.3176
-0.854233 0.932605 0 -33.3175
-115.182 0.89304 0 -30.7912
-113.57 0.902122 0 -30.8095
111.933 0.952919 0 -34.4658
113.543 0.944067 0 -34.4843
-114.376 0.897595 0 -30.8003
-0.851702 0.946379 0 -33.3173
112.738 0.94851 0 -34.4751
-0.853384 0.937229 0 -33.3175
-0.85254 0.94182 0 -33.3174
-113.57 0.902122 0 -30.8095
-111.957 0.911086 0 -30.8281
110.324 0.961636 0 -34.4469
111.933 0.952919 0 -34.4658
-112.764 0.906618 0 -30.8188
-0.850044 0.9554 0 -33.3172
111.128 0.957294 0 -34.4564
-0.851702 0.946379 0 -33.3173
-0.85087 0.950905 0 -33.3173
-111.957 0.911086 0 -30.8281
-110.345 0.919933 0 -30.8471
108.714 0.970216 0 -34.4277
110.324 0.961636 0 -34.4469
-111.151 0.915524 0 -30.8376
-0.848409 0.964291 0 -33.3171
109.519 0.965943 0 -34.4373
-0.850044 0.9554 0 -33.3172
-0.849224 0.959862 0 -33.3171
-110.345 0.919933 0 -30.8471
-108.733 0.928663 0 -30.8663
107.104 0.978661 0 -34.4082
108.714 0.970216 0 -34.4277
-109.539 0.924313 0 -30.8566
-0.846797 0.973054 0 -33.3169
107.909 0.974456 0 -34.418
-0.848409 0.964291 0 -33.3171
-0.8476 0.968689 0 -33.317
-108.733 0.928663 0 -30.8663
-107.12 0.937276 0 -30.8859
105.495 0.98697 0 -34.3884
107.104 0.978661 0 -34.4082
-107.926 0.932984 0 -30.8761
-0.845208 0.981687 0 -33.3168
106.3 0.982833 0 -34.3983
-0.846797 0.973054 0 -33.3169
-0.846 0.977387 0 -33.3169
-107.12 0.937276 0 -30.8859
-105.508 0.945771 0 -30.9057
103.885 0.995143 0 -34.3682
105.495 0.98697 0 -34.3884
-106.314 0.941538 0 -30.8958
-0.843643 0.990192 0 -33.3167
104.69 0.991074 0 -34.3783
-0.845208 0.981687 0 -33.3168
-0.844423 0.985956 0 -33.3167
-105.508 0.945771 0 -30.9057
-103.896 0.954149 0 -30.9259
102.276 1.00318 0 -34.3478
103.885 0.995143 0 -34.3682
-104.702 0.949975 0 -30.9158
-0.8421 0.998567 0 -33.3166
103.08 0.999179 0 -34.3581
-0.843643 0.990192 0 -33.3167
-0.842869 0.994395 0 -33.3166
-103.896 0.954149 0 -30.9259
-102.283 0.962409 0 -30.9464
100.666 1.01108 0 -34.3271
102.276 1.00318 0 -34.3478
-103.09 0.958294 0 -30.9361
-0.840581 1.00681 0 -33.3164
101.471 1.00715 0 -34.3375
-0.8421 0.998567 0 -33.3166
-0.841338 1.00271 0 -33.3165
-102.283 0.962409 0 -30.9464
-100.671 0.970552 0 -30.9671
99.0562 1.01885 0 -34.3061
100.666 1.01108 0 -34.3271
-101.477 0.966495 0 -30.9567
-0.839085 1.01493 0 -33.3163
99.8611 1.01498 0 -34.3167
-0.840581 1.00681 0 -33.3164
-0.83983 1.01089 0 -33.3164
-100.671 0.970552 0 -30.9671
-99.059 0.978576 0 -30.9882
97.4466 1.02648 0 -34.2848
99.0562 1.01885 0 -34.3061
-99.8651 0.974579 0 -30.9776
-0.837613 1.02292 0 -33.3162
98.2514 1.02268 0 -34.2955
-0.839085 1.01493 0 -33.3163
-0.838346 1.01894 0 -33.3163
-99.059 0.978576 0 -30.9882
-97.4468 0.986483 0 -31.0095
95.8369 1.03398 0 -34.2633
97.4466 1.02648 0 -34.2848
-98.2529 0.982544 0 -30.9988
-0.836164 1.03077 0 -33.3161
96.6417 1.03024 0 -34.2741
-0.837613 1.02292 0 -33.3162
-0.836885 1.02686 0 -33.3161
-97.4468 0.986483 0 -31.0095
-95.8347 0.994271 0 -31.0311
94.2272 1.04134 0 -34.2414
95.8369 1.03398 0 -34.2633
-96.6407 0.990392 0 -31.0203
-0.834738 1.0385 0 -33.316
95.032 1.03767 0 -34.2524
-0.836164 1.03077 0 -33.3161
-0.835448 1.03465 0 -33.316
-95.8347 0.994271 0 -31.0311
-94.2225 1.00194 0 -31.053
92.6175 1.04856 0 -34.2193
94.2272 1.04134 0 -34.2414
-95.0286 0.998121 0 -31.042
-0.833336 1.0461 0 -33.3158
93.4224 1.04496 0 -34.2304
-0.834738 1.0385 0 -33.316
-0.834034 1.04232 0 -33.3159
-94.2225 1.00194 0 -31.053
-92.6105 1.00949 0 -31.0751
91.0078 1.05565 0 -34.197
92.6175 1.04856 0 -34.2193
-93.4165 1.00573 0 -31.064
-0.831957 1.05357 0 -33.3157
91.8127 1.05212 0 -34.2082
-0.833336 1.0461 0 -33.3158
-0.832643 1.04985 0 -33.3158
-92.6105 1.00949 0 -31.0751
-90.9984 1.01693 0 -31.0975
89.3981 1.0626 0 -34.1743
91.0078 1.05565 0 -34.197
-91.8044 1.01322 0 -31.0863
-0.830601 1.06091 0 -33.3156
90.2029 1.05914 0 -34.1857
-0.831957 1.05357 0 -33.3157
-0.831276 1.05726 0 -33.3157
-90.9984 1.01693 0 -31.0975
-89.3864 1.02424 0 -31.1202
87.7884 1.06942 0 -34.1514
89.3981 1.0626 0 -34.1743
-90.1924 1.0206 0 -31.1088
-0.829269 1.06812 0 -33.3155
88.5932 1.06603 0 -34.1629
-0.830601 1.06091 0 -33.3156
-0.829932 1.06453 0 -33.3156
-89.3864 1.02424 0 -31.1202
-87.7744 1.03144 0 -31.1431
86.1786 1.07611 0 -34.1283
87.7884 1.06942 0 -34.1514
-88.5804 1.02785 0 -31.1316
-0.827961 1.0752 0 -33.3154
86.9835 1.07278 0 -34.1399
-0.829269 1.06812 0 -33.3155
-0.828612 1.07168 0 -33.3155
-87.7744 1.03144 0 -31.1431
-86.1625 1.03851 0 -31.1663
84.5689 1.08265 0 -34.1049
86.1786 1.07611 0 -34.1283
-86.9684 1.03499 0 -31.1547
-0.826676 1.08216 0 -33.3153
85.3737 1.0794 0 -34.1166
-0.827961 1.0752 0 -33.3154
-0.827316 1.0787 0 -33.3153
-86.1625 1.03851 0 -31.1663
-84.5505 1.04547 0 -31.1897
82.9591 1.08907 0 -34.0813
84.5689 1.08265 0 -34.1049
-85.3565 1.04201 0 -31.178
-0.825415 1.08898 0 -33.3152
83.764 1.08588 0 -34.0931
-0.826676 1.08216 0 -33.3153
-0.826043 1.08558 0 -33.3152
-84.5505 1.04547 0 -31.1897
-82.9386 1.05231 0 -31.2134
81.3493 1.09535 0 -34.0574
82.9591 1.08907 0 -34.0813
-83.7446 1.04891 0 -31.2015
-0.824177 1.09567 0 -33.3151
82.1542 1.09223 0 -34.0693
-0.825415 1.08898 0 -33.3152
-0.824793 1.09234 0 -33.3151
-82.9386 1.05231 0 -31.2134
-81.3268 1.05903 0 -31.2373
79.7396 1.10149 0 -34.0333
81.3493 1.09535 0 -34.0574
-82.1327 1.05569 0 -31.2253
-0.822963 1.10224 0 -33.315
80.5445 1.09844 0 -34.0454
-0.824177 1.09567 0 -33.3151
-0.823567 1.09897 0 -33.315
-81.3268 1.05903 0 -31.2373
-79.7149 1.06563 0 -31.2614
78.1298 1.1075 0 -34.0089
79.7396 1.10149 0 -34.0333
-80.5209 1.06235 0 -31.2493
-0.821773 1.10867 0 -33.3149
78.9347 1.10451 0 -34.0211
-0.822963 1.10224 0 -33.315
-0.822365 1.10547 0 -33.3149
-79.7149 1.06563 0 -31.2614
-78.1031 1.07211 0 -31.2858
76.52 1.11338 0 -33.9844
78.1298 1.1075 0 -34.0089
-78.909 1.06889 0 -31.2736
-0.820606 1.11497 0 -33.3148
77.3249 1.11046 0 -33.9967
-0.821773 1.10867 0 -33.3149
-0.821186 1.11184 0 -33.3148
-78.1031 1.07211 0 -31.2858
-76.4913 1.07848 0 -31.3104
74.9102 1.11912 0 -33.9596
76.52 1.11338 0 -33.9844
-77.2972 1.07531 0 -31.2981
-0.819463 1.12115 0 -33.3147
75.7151 1.11626 0 -33.972
-0.820606 1.11497 0 -33.3148
-0.820031 1.11808 0 -33.3147
-76.4913 1.07848 0 -31.3104
-74.8796 1.08472 0 -31.3352
73.3003 1.12473 0 -33.9346
74.9102 1.11912 0 -33.9596
-75.6855 1.08161 0 -31.3228
-0.818343 1.12719 0 -33.3146
74.1052 1.12194 0 -33.9471
-0.819463 1.12115 0 -33.3147
-0.8189 1.12419 0 -33.3146
-74.8796 1.08472 0 -31.3352
-73.2679 1.09084 0 -31.3602
71.6905 1.1302 0 -33.9094
73.3003 1.12473 0 -33.9346
-74.0737 1.08779 0 -31.3477
-0.817248 1.13311 0 -33.3145
72.4954 1.12748 0 -33.922
-0.818343 1.12719 0 -33.3146
-0.817793 1.13017 0 -33.3145
-73.2679 1.09084 0 -31.3602
-71.6562 1.09684 0 -31.3854
70.0806 1.13554 0 -33.884
71.6905 1.1302 0 -33.9094
-72.462 1.09385 0 -31.3728
-0.816176 1.13889 0 -33.3144
70.8856 1.13288 0 -33.8967
-0.817248 1.13311 0 -33.3145
-0.816709 1.13602 0 -33.3145
-71.6562 1.09684 0 -31.3854
-70.0445 1.10272 0 -31.4109
68.4708 1.14074 0 -33.8584
70.0806 1.13554 0 -33.884
-70.8503 1.0998 0 -31.3981
-0.815128 1.14455 0 -33.3143
69.2757 1.13815 0 -33.8712
-0.816176 1.13889 0 -33.3144
-0.815649 1.14174 0 -33.3144
-70.0445 1.10272 0 -31.4109
-68.4329 1.10848 0 -31.4365
66.8609 1.14581 0 -33.8326
68.4708 1.14074 0 -33.8584
-69.2387 1.10562 0 -31.4237
-0.814104 1.15007 0 -33.3142
67.6658 1.14329 0 -33.8455
-0.815128 1.14455 0 -33.3143
-0.814613 1.14733 0 -33.3143
-68.4329 1.10848 0 -31.4365
-66.8213 1.11412 0 -31.4623
65.251 1.15075 0 -33.8066
66.8609 1.14581 0 -33.8326
-67.6271 1.11132 0 -31.4494
-0.813104 1.15547 0 -33.3141
66.056 1.1483 0 -33.8196
-0.814104 1.15007 0 -33.3142
-0.813601 1.15279 0 -33.3142
-66.8213 1.11412 0 -31.4623
-65.2097 1.11964 0 -31.4883
63.6411 1.15555 0 -33.7804
65.251 1.15075 0 -33.8066
-66.0155 1.1169 0 -31.4753
-0.812127 1.16074 0 -33.3141
64.4461 1.15317 0 -33.7935
-0.813104 1.15547 0 -33.3141
-0.812612 1.15812 0 -33.3141
-65.2097 1.11964 0 -31.4883
-63.5981 1.12504 0 -31.5145
62.0312 1.16022 0 -33.754
63.6411 1.15555 0 -33.7804
-64.4039 1.12236 0 -31.5014
-0.811174 1.16587 0 -33.314
62.8361 1.1579 0 -33.7673
-0.812127 1.16074 0 -33.3141
-0.811648 1.16332 0 -33.314
-63.5981 1.12504 0 -31.5145
-61.9866 1.13032 0 -31.5409
60.4213 1.16476 0 -33.7275
62.0312 1.16022 0 -33.754
-62.7924 1.12769 0 -31.5277
-0.810246 1.17088 0 -33.3139
61.2262 1.1625 0 -33.7408
-0.811174 1.16587 0 -33.314
-0.810707 1.16839 0 -33.3139
-61.9866 1.13032 0 -31.5409
-60.3751 1.13548 0 -31.5675
58.8113 1.16916 0 -33.7008
60.4213 1.16476 0 -33.7275
-61.1809 1.13291 0 -31.5542
-0.809341 1.17576 0 -33.3138
59.6163 1.16697 0 -33.7142
-0.810246 1.17088 0 -33.3139
-0.80979 1.17333 0 -33.3139
-60.3751 1.13548 0 -31.5675
-58.7636 1.14051 0 -31.5942
57.2014 1.17343 0 -33.6739
58.8113 1.16916 0 -33.7008
-59.5694 1.13801 0 -31.5808
-0.80846 1.1805 0 -33.3137
58.0063 1.17131 0 -33.6874
-0.809341 1.17576 0 -33.3138
-0.808898 1.17815 0 -33.3138
-58.7636 1.14051 0 -31.5942
-57.1522 1.14542 0 -31.6211
55.5914 1.17756 0 -33.6468
57.2014 1.17343 0 -33.6739
-57.9579 1.14298 0 -31.6076
-0.807603 1.18512 0 -33.3137
56.3964 1.17551 0 -33.6604
-0.80846 1.1805 0 -33.3137
-0.808029 1.18283 0 -33.3137
-57.1522 1.14542 0 -31.6211
-55.5408 1.15022 0 -31.6482
53.9814 1.18157 0 -33.6196
55.5914 1.17756 0 -33.6468
-56.3465 1.14783 0 -31.6346
-0.80677 1.18961 0 -33.3136
54.7864 1.17958 0 -33.6333
-0.807603 1.18512 0 -33.3137
-0.807184 1.18738 0 -33.3136
-55.5408 1.15022 0 -31.6482
-53.9294 1.15488 0 -31.6754
52.3714 1.18543 0 -33.5923
53.9814 1.18157 0 -33.6196
-54.7351 1.15257 0 -31.6618
-0.805961 1.19396 0 -33.3135
53.1764 1.18352 0 -33.606
-0.80677 1.18961 0 -33.3136
-0.806363 1.1918 0 -33.3136
-53.9294 1.15488 0 -31.6754
-52.318 1.15943 0 -31.7028
50.7614 1.18917 0 -33.5648
52.3714 1.18543 0 -33.5923
-53.1237 1.15717 0 -31.6891
-0.805176 1.19819 0 -33.3135
51.5664 1.18732 0 -33.5785
-0.805961 1.19396 0 -33.3135
-0.805565 1.19609 0 -33.3135
-52.318 1.15943 0 -31.7028
-50.7067 1.16385 0 -31.7303
49.1514 1.19277 0 -33.5371
50.7614 1.18917 0 -33.5648
-51.5124 1.16166 0 -31.7165
-0.804413 1.20228 0 -33.3134
49.9564 1.19099 0 -33.551
-0.805176 1.19819 0 -33.3135
-0.804792 1.20025 0 -33.3134
-50.7067 1.16385 0 -31.7303
-49.0954 1.16815 0 -31.758
47.5413 1.19624 0 -33.5093
49.1514 1.19277 0 -33.5371
-49.901 1.16602 0 -31.7441
-0.803674 1.20624 0 -33.3133
48.3464 1.19452 0 -33.5232
-0.804413 1.20228 0 -33.3134
-0.804041 1.20428 0 -33.3134
-49.0954 1.16815 0 -31.758
-47.4841 1.17233 0 -31.7858
45.9313 1.19957 0 -33.4814
47.5413 1.19624 0 -33.5093
-48.2897 1.17026 0 -31.7719
-0.802956 1.21008 0 -33.3133
46.7363 1.19792 0 -33.4954
-0.803674 1.20624 0 -33.3133
-0.803312 1.20818 0 -33.3133
-47.4841 1.17233 0 -31.7858
-45.8728 1.17638 0 -31.8137
44.3212 1.20277 0 -33.4533
45.9313 1.19957 0 -33.4814
-46.6785 1.17437 0 -31.7997
-0.80226 1.21377 0 -33.3132
45.1263 1.20119 0 -33.4674
-0.802956 1.21008 0 -33.3133
-0.802606 1.21194 0 -33.3132
-45.8728 1.17638 0 -31.8137
-44.2616 1.1803 0 -31.8418
42.7112 1.20583 0 -33.4251
44.3212 1.20277 0 -33.4533
-45.0672 1.17835 0 -31.8278
-0.801584 1.21734 0 -33.3131
43.5162 1.20432 0 -33.4392
-0.80226 1.21377 0 -33.3132
-0.80192 1.21557 0 -33.3132
-44.2616 1.1803 0 -31.8418
-42.6504 1.1841 0 -31.87
41.1011 1.20876 0 -33.3968
42.7112 1.20583 0 -33.4251
-43.456 1.18222 0 -31.8559
-0.800926 1.22077 0 -33.3131
41.9061 1.20731 0 -33.411
-0.801584 1.21734 0 -33.3131
-0.801253 1.21907 0 -33.3131
-42.6504 1.1841 0 -31.87
-41.0392 1.18777 0 -31.8983
39.491 1.21155 0 -33.3684
41.1011 1.20876 0 -33.3968
-41.8448 1.18595 0 -31.8842
-0.800285 1.22406 0 -33.313
40.296 1.21017 0 -33.3826
-0.800926 1.22077 0 -33.3131
-0.800604 1.22243 0 -33.3131
-41.0392 1.18777 0 -31.8983
-39.428 1.19132 0 -31.9268
37.8809 1.2142 0 -33.3398
39.491 1.21155 0 -33.3684
-40.2336 1.18956 0 -31.9125
-0.799657 1.22723 0 -33.313
38.6859 1.21289 0 -33.3541
-0.800285 1.22406 0 -33.313
-0.799969 1.22566 0 -33.313
-39.428 1.19132 0 -31.9268
-37.8168 1.19475 0 -31.9553
36.2708 1.21672 0 -33.3112
37.8809 1.2142 0 -33.3398
-38.6224 1.19305 0 -31.941
-0.799041 1.23026 0 -33.3129
37.0758 1.21548 0 -33.3255
-0.799657 1.22723 0 -33.313
-0.799348 1.22876 0 -33.3129
-37.8168 1.19475 0 -31.9553
-36.2057 1.19807 0 -31.9839
34.6607 1.2191 0 -33.2824
36.2708 1.21672 0 -33.3112
-37.0113 1.19643 0 -31.9696
-0.798434 1.23317 0 -33.3128
35.4658 1.21793 0 -33.2968
-0.799041 1.23026 0 -33.3129
-0.798736 1.23173 0 -33.3129
-36.2057 1.19807 0 -31.9839
-34.5946 1.2013 0 -32.0126
33.0506 1.22136 0 -33.2535
34.6607 1.2191 0 -33.2824
-35.4001 1.1997 0 -31.9982
-0.797836 1.23597 0 -33.3127
33.8557 1.22025 0 -33.2679
-0.798434 1.23317 0 -33.3128
-0.798134 1.23458 0 -33.3128
-34.5946 1.2013 0 -32.0126
-32.9835 1.20444 0 -32.0414
31.4406 1.22351 0 -33.2244
33.0506 1.22136 0 -33.2535
-33.7891 1.20288 0 -32.027
-0.797249 1.23867 0 -33.3125
32.2456 1.22245 0 -33.239
-0.797836 1.23597 0 -33.3127
-0.797541 1.23733 0 -33.3126
-32.9835 1.20444 0 -32.0414
-31.3725 1.20752 0 -32.0702
29.8306 1.22558 0 -33.1952
31.4406 1.22351 0 -33.2244
-32.178 1.20599 0 -32.0558
-0.79668 1.2413 0 -33.3123
30.6356 1.22455 0 -33.2099
-0.797249 1.23867 0 -33.3125
-0.796961 1.23999 0 -33.3125
-31.3725 1.20752 0 -32.0702
-29.7616 1.21055 0 -32.0991
28.2206 1.22764 0 -33.1659
29.8306 1.22558 0 -33.1952
-30.567 1.20904 0 -32.0846
-0.796149 1.24391 0 -33.3121
29.0256 1.22661 0 -33.1806
-0.79668 1.2413 0 -33.3123
-0.796408 1.24261 0 -33.3122
-29.7616 1.21055 0 -32.0991
-28.1508 1.21351 0 -32.1281
26.6106 1.22985 0 -33.1365
28.2206 1.22764 0 -33.1659
-28.9562 1.21205 0 -32.1136
-0.79569 1.24656 0 -33.3119
27.4156 1.22871 0 -33.1512
-0.796149 1.24391 0 -33.3121
-0.795907 1.24522 0 -33.312
-28.1508 1.21351 0 -32.1281
-26.54 1.21632 0 -32.1575
25.0004 1.23244 0 -33.1071
26.6106 1.22985 0 -33.1365
-27.3454 1.21495 0 -32.1427
-0.795367 1.24934 0 -33.312
25.8055 1.23107 0 -33.1218
-0.79569 1.24656 0 -33.3119
-0.795506 1.24792 0 -33.3119
-26.54 1.21632 0 -32.1575
-24.9291 1.21864 0 -32.1877
23.3897 1.23603 0 -33.0782
25.0004 1.23244 0 -33.1071
-25.7345 1.21758 0 -32.1724
-0.795294 1.25239 0 -33.3129
24.1951 1.23405 0 -33.0926
-0.795367 1.24934 0 -33.312
-0.795291 1.25082 0 -33.3123
-24.9291 1.21864 0 -32.1877
-23.3175 1.21993 0 -32.2201
21.7774 1.24152 0 -33.051
23.3897 1.23603 0 -33.0782
-24.1235 1.21948 0 -32.2035
-0.795657 1.25592 0 -33.3161
22.5839 1.23845 0 -33.0643
-0.795294 1.25239 0 -33.3129
-0.795405 1.25408 0 -33.3141
-23.3175 1.21993 0 -32.2201
-21.7046 1.21857 0 -32.257
20.1625 1.25107 0 -33.0276
21.7774 1.24152 0 -33.051
-22.5112 1.21974 0 -32.2377
-0.796767 1.26022 0 -33.3246
20.9703 1.24559 0 -33.0386
-0.795657 1.25592 0 -33.3161
-0.796096 1.25796 0 -33.3195
-21.7046 1.21857 0 -32.257
-20.0863 1.21255 0 -32.3036
18.5401 1.26745 0 -33.0127
20.1625 1.25107 0 -33.0276
-20.8966 1.21636 0 -32.2786
-0.79912 1.26571 0 -33.3439
19.3528 1.25813 0 -33.0186
-0.796767 1.26022 0 -33.3246
-0.797744 1.26278 0 -33.3323
-20.0863 1.21255 0 -32.3036
-18.4605 1.19614 0 -32.3689
16.9065 1.29744 0 -33.0149
18.5401 1.26745 0 -33.0127
-19.2741 1.20611 0 -32.3331
-0.803504 1.27298 0 -33.3849
17.7246 1.2802 0 -33.0109
-0.79912 1.26571 0 -33.3439
-0.801006 1.26908 0 -33.361
-18.4605 1.19614 0 -32.3689
-16.8118 1.16467 0 -32.4696
15.2444 1.34724 0 -33.0499
16.9065 1.29744 0 -33.0149
-17.6409 1.18282 0 -32.4133
-0.811111 1.28289 0 -33.466
16.0812 1.31921 0 -33.0269
-0.803504 1.27298 0 -33.3849
-0.80679 1.27753 0 -33.4183
-16.8118 1.16467 0 -32.4696
-15.1344 1.10268 0 -32.632
13.5448 1.43424 0 -33.1429
15.2444 1.34724 0 -33.0499
-15.9756 1.13837 0 -32.5411
-0.823683 1.29655 0 -33.618
14.3984 1.38509 0 -33.0872
-0.811111 1.28289 0 -33.466
-0.816684 1.2892 0 -33.5317
-15.1344 1.10268 0 -32.632
-13.3812 1.0098 0 -32.8983
11.7561 1.56131 0 -33.3342
13.5448 1.43424 0 -33.1429
-14.2738 1.06061 0 -32.7485
-0.843554 1.31533 0 -33.8855
12.6685 1.49207 0 -33.2229
-0.823683 1.29655 0 -33.618
-0.832446 1.30516 0 -33.7318
-13.3812 1.0098 0 -32.8983
-11.5542 0.860435 0 -33.3169
9.87585 1.75594 0 -33.6716
11.7561 1.56131 0 -33.3342
-12.4711 0.941433 0 -33.0856
-0.87332 1.34019 0 -34.3238
10.8219 1.65089 0 -33.4815
-0.843554 1.31533 0 -33.8855
-0.857194 1.32709 0 -34.0835
-11.5542 0.860435 0 -33.3169
-9.54408 0.723592 0 -33.9413
7.7898 1.94932 0 -34.208
9.87585 1.75594 0 -33.6716
-10.5904 0.786533 0 -33.5994
-0.914769 1.37081 0 -34.9741
8.87718 1.85678 0 -33.9114
-0.87332 1.34019 0 -34.3238
-0.892196 1.35468 0 -34.6131
-9.54408 0.723592 0 -33.9413
-7.46676 0.625065 0 -34.7401
5.61707 2.10687 0 -34.9192
7.7898 1.94932 0 -34.208
-8.48592 0.653862 0 -34.3268
-0.965363 1.40145 0 -35.7918
6.68572 2.04941 0 -34.5479
-0.914769 1.37081 0 -34.9741
-0.939911 1.38722 0 -35.3845
-7.46676 0.625065 0 -34.7401
-5.19052 1.00364 0 -35.5211
3.24295 1.76439 0 -35.6291
5.61707 2.10687 0 -34.9192
-6.39382 0.729581 0 -35.1523
-1.01227 1.41609 0 -36.4896
4.49379 2.02566 0 -35.294
-0.965363 1.40145 0 -35.7918
-0.989517 1.41151 0 -36.1602
-5.19052 1.00364 0 -35.5211
-3.31576 2.10968 0 -35.5635
1.32843 0.603587 0 -35.6539
3.24295 1.76439 0 -35.6291
-4.10182 1.41268 0 -35.7091
-1.02204 1.37838 0 -36.308
2.12105 1.34582 0 -35.7955
-1.01227 1.41609 0 -36.4896
-1.02673 1.40843 0 -36.6251
-3.31576 2.10968 0 -35.5635
-1.54017 4.91932 0 -33.552
-0.322038 -2.46525 0 -33.7085
1.32843 0.603587 0 -35.6539
-2.52267 3.34083 0 -34.9173
-0.943154 1.23548 0 -33.9733
0.568785 -0.723324 0 -35.0357
-1.02204 1.37838 0 -36.308
-0.993983 1.32074 0 -35.4195
-1.54017 4.91932 0 -33.552
-1.06754 7.85554 0 -27.3396
-0.33386 -6.01995 0 -27.6339
-0.322038 -2.46525 0 -33.7085
-0.912961 6.42782 0 -31.1174
-0.709596 0.924615 0 -27.8626
-0.772507 -4.22974 0 -31.327
-0.943154 1.23548 0 -33.9733
-0.855861 1.11048 0 -31.643
-1.06754 7.85554 0 -27.3396
-1.363 11.637 0 -15.5011
0.865021 -10.8366 0 -15.9412
-0.33386 -6.01995 0 -27.6339
-1.39747 9.55195 0 -22.166
-0.200672 0.408459 0 -15.2677
0.389494 -8.18369 0 -22.5482
-0.709596 0.924615 0 -27.8626
-0.49472 0.676638 0 -22.3985
306.252 91.8893 0 123.138
298.949 50.4573 0 40.7382
929.557 161.92 0 -3.04111
855.618 256.502 0 78.3585
293.584 71.3872 0 77.6483
613.982 106.053 0 23.8339
905.814 205.868 0 29.205
568.193 170.403 0 112.403
600.698 142.957 0 55.5489
298.949 50.4573 0 40.7382
315.187 29.989 0 -8.66638
947.339 70.5557 0 -28.4938
929.557 161.92 0 -3.04111
311.486 39.06 0 11.6923
628.691 54.6867 0 -15.792
937.493 112.888 0 -19.4106
613.982 106.053 0 23.8339
620.664 76.2945 0 2.38428
315.187 29.989 0 -8.66638
316.317 11.5183 0 -31.0872
956.477 24.3865 0 -33.5392
947.339 70.5557 0 -28.4938
314.622 19.7886 0 -22.1762
636.339 21.2914 0 -32.9328
956.013 42.8241 0 -33.0091
628.691 54.6867 0 -15.792
634.591 36.3629 0 -27.6103
316.317 11.5183 0 -31.0872
317.254 2.86669 0 -39.1143
949.293 2.94831 0 -31.2118
956.477 24.3865 0 -33.5392
318.189 6.4537 0 -36.4576
634.427 4.76007 0 -36.7995
952.555 11.1153 0 -32.2304
636.339 21.2914 0 -32.9328
635.902 11.1192 0 -35.3495
317.254 2.86669 0 -39.1143
313.871 -1.65317 0 -40.0081
940.812 -3.33511 0 -29.6648
949.293 2.94831 0 -31.2118
315.147 0.00869768 0 -40.0054
628.667 -2.25899 0 -36.3186
945.768 -1.22717 0 -30.4456
634.427 4.76007 0 -36.7995
631.892 0.450864 0 -37.0044
313.871 -1.65317 0 -40.0081
311.028 -2.52806 0 -38.6393
930.991 -4.88142 0 -28.675
940.812 -3.33511 0 -29.6648
312.766 -2.28335 0 -39.4681
622.03 -3.91095 0 -34.9156
935.431 -4.55892 0 -28.9937
628.667 -2.25899 0 -36.3186
625.245 -3.55204 0 -35.516
311.028 -2.52806 0 -38.6393
307.673 -2.59097 0 -36.8597
923.055 -4.12316 0 -28.4722
930.991 -4.88142 0 -28.675
309.132 -2.66929 0 -37.7114
616.025 -3.73784 0 -33.6775
927.034 -4.59243 0 -28.5564
622.03 -3.91095 0 -34.9156
618.938 -3.92882 0 -34.3016
307.673 -2.59097 0 -36.8597
305.087 -2.12381 0 -35.4585
915.895 -3.1837 0 -28.4713
923.055 -4.12316 0 -28.4722
306.413 -2.35715 0 -36.1049
610.862 -2.95913 0 -32.8398
919.251 -3.67059 0 -28.4315
616.025 -3.73784 0 -33.6775
613.326 -3.3824 0 -33.1817
305.087 -2.12381 0 -35.4585
302.699 -1.74854 0 -34.5058
909.814 -2.28662 0 -28.6295
915.895 -3.1837 0 -28.4713
303.804 -1.93576 0 -34.9232
606.432 -2.24666 0 -32.3459
912.812 -2.69766 0 -28.5516
610.862 -2.95913 0 -32.8398
608.574 -2.57777 0 -32.5678
302.699 -1.74854 0 -34.5058
300.697 -1.42099 0 -33.9409
904.207 -1.68642 0 -28.8003
909.814 -2.28662 0 -28.6295
301.692 -1.5672 0 -34.1845
602.507 -1.70114 0 -32.1022
906.932 -1.95985 0 -28.7096
606.432 -2.24666 0 -32.3459
604.418 -1.95228 0 -32.1933
300.697 -1.42099 0 -33.9409
298.831 -1.21446 0 -33.6341
898.996 -1.28263 0 -28.983
904.207 -1.68642 0 -28.8003
299.735 -1.30893 0 -33.7609
598.901 -1.34411 0 -32.0117
901.581 -1.45852 0 -28.8944
602.507 -1.70114 0 -32.1022
600.675 -1.50104 0 -32.0451
298.831 -1.21446 0 -33.6341
297.103 -1.07162 0 -33.4911
893.954 -1.04452 0 -29.153
898.996 -1.28263 0 -28.983
297.962 -1.13409 0 -33.5477
595.479 -1.11826 0 -32.0128
896.452 -1.14903 0 -29.0684
598.901 -1.34411 0 -32.0117
597.173 -1.2179 0 -32.0027
297.103 -1.07162 0 -33.4911
295.425 -0.983487 0 -33.4409
889.029 -0.899883 0 -29.3156
893.954 -1.04452 0 -29.153
296.255 -1.02326 0 -33.4574
592.159 -0.982037 0 -32.0623
891.485 -0.962039 0 -29.2359
595.479 -1.11826 0 -32.0128
593.811 -1.04122 0 -32.0339
295.425 -0.983487 0 -33.4409
293.787 -0.922965 0 -33.4414
884.149 -0.815743 0 -29.4691
889.029 -0.899883 0 -29.3156
294.604 -0.950043 0 -33.4368
588.892 -0.898123 0 -32.1368
886.583 -0.85265 0 -29.3931
592.159 -0.982037 0 -32.0623
590.522 -0.935165 0 -32.0973
293.787 -0.922965 0 -33.4414
292.163 -0.880924 0 -33.4672
879.298 -0.7628 0 -29.6165
884.149 -0.815743 0 -29.4691
292.973 -0.900483 0 -33.4522
585.651 -0.844559 0 -32.2224
881.722 -0.786175 0 -29.5436
588.892 -0.898123 0 -32.1368
587.27 -0.868521 0 -32.1789
292.163 -0.880924 0 -33.4672
290.549 -0.847821 0 -33.505
874.456 -0.72749 0 -29.7586
879.298 -0.7628 0 -29.6165
291.356 -0.863433 0 -33.4852
582.422 -0.807038 0 -32.3121
876.876 -0.743695 0 -29.6881
585.651 -0.844559 0 -32.2224
584.036 -0.824365 0 -32.2669
290.549 -0.847821 0 -33.505
288.938 -0.820015 0 -33.5476
869.619 -0.700545 0 -29.8967
874.456 -0.72749 0 -29.7586
289.743 -0.8335 0 -33.526
579.198 -0.777908 0 -32.4024
872.037 -0.713238 0 -29.8282
582.422 -0.807038 0 -32.3121
580.81 -0.791732 0 -32.3574
288.938 -0.820015 0 -33.5476
287.329 -0.794702 0 -33.5917
864.783 -0.677854 0 -30.0314
869.619 -0.700545 0 -29.8967
288.133 -0.807108 0 -33.5696
575.976 -0.752876 0 -32.4919
867.2 -0.688867 0 -29.9645
579.198 -0.777908 0 -32.4024
577.587 -0.765041 0 -32.4473
287.329 -0.794702 0 -33.5917
285.72 -0.770793 0 -33.6356
859.947 -0.657001 0 -30.1629
864.783 -0.677854 0 -30.0314
286.525 -0.782634 0 -33.6137
572.755 -0.729822 0 -32.5797
862.365 -0.667265 0 -30.0975
575.976 -0.752876 0 -32.4919
574.365 -0.741181 0 -32.536
285.72 -0.770793 0 -33.6356
284.112 -0.747576 0 -33.6788
855.111 -0.636997 0 -30.2917
859.947 -0.657001 0 -30.1629
284.916 -0.759115 0 -33.6573
569.533 -0.707686 0 -32.6658
857.529 -0.646937 0 -30.2276
572.755 -0.729822 0 -32.5797
571.144 -0.718677 0 -32.623
284.112 -0.747576 0 -33.6788
282.504 -0.724776 0 -33.7212
850.275 -0.617333 0 -30.4178
855.111 -0.636997 0 -30.2917
283.308 -0.736138 0 -33.7001
566.312 -0.685989 0 -32.75
852.693 -0.627136 0 -30.3551
569.533 -0.707686 0 -32.6658
567.922 -0.696799 0 -32.7081
282.504 -0.724776 0 -33.7212
280.895 -0.70223 0 -33.7625
845.438 -0.59783 0 -30.5414
850.275 -0.617333 0 -30.4178
281.699 -0.713475 0 -33.742
563.09 -0.664518 0 -32.8325
847.856 -0.607569 0 -30.4799
566.312 -0.685989 0 -32.75
564.701 -0.675232 0 -32.7915
280.895 -0.70223 0 -33.7625
279.287 -0.679875 0 -33.803
840.602 -0.57841 0 -30.6624
845.438 -0.59783 0 -30.5414
280.091 -0.691032 0 -33.7829
559.868 -0.64319 0 -32.9133
843.02 -0.588111 0 -30.6022
563.09 -0.664518 0 -32.8325
561.479 -0.653839 0 -32.8731
279.287 -0.679875 0 -33.803
277.678 -0.657673 0 -33.8425
835.765 -0.559059 0 -30.7811
840.602 -0.57841 0 -30.6624
278.483 -0.668756 0 -33.8229
556.646 -0.621973 0 -32.9924
838.183 -0.568727 0 -30.7221
559.868 -0.64319 0 -32.9133
558.257 -0.632568 0 -32.953
277.678 -0.657673 0 -33.8425
276.07 -0.635609 0 -33.8813
830.928 -0.539773 0 -30.8973
835.765 -0.559059 0 -30.7811
276.874 -0.646625 0 -33.862
553.424 -0.600856 0 -33.0698
833.347 -0.549407 0 -30.8395
556.646 -0.621973 0 -32.9924
555.035 -0.611402 0 -33.0313
276.07 -0.635609 0 -33.8813
274.461 -0.613672 0 -33.9191
826.092 -0.520556 0 -31.0111
830.928 -0.539773 0 -30.8973
275.266 -0.624625 0 -33.9003
550.202 -0.579838 0 -33.1457
828.51 -0.530155 0 -30.9545
553.424 -0.600856 0 -33.0698
551.813 -0.590335 0 -33.108
274.461 -0.613672 0 -33.9191
272.853 -0.591857 0 -33.9562
821.255 -0.501412 0 -31.1225
826.092 -0.520556 0 -31.0111
273.657 -0.60275 0 -33.9378
546.98 -0.558918 0 -33.2199
823.673 -0.510974 0 -31.0671
550.202 -0.579838 0 -33.1457
548.591 -0.569366 0 -33.183
272.853 -0.591857 0 -33.9562
271.244 -0.570161 0 -33.9925
816.418 -0.482344 0 -31.2316
821.255 -0.501412 0 -31.1225
272.048 -0.580994 0 -33.9745
543.758 -0.538097 0 -33.2926
818.836 -0.491868 0 -31.1774
546.98 -0.558918 0 -33.2199
545.369 -0.548495 0 -33.2565
271.244 -0.570161 0 -33.9925
269.635 -0.54858 0 -34.028
811.581 -0.463355 0 -31.3384
816.418 -0.482344 0 -31.2316
270.44 -0.559356 0 -34.0104
540.536 -0.517376 0 -33.3637
814 -0.472839 0 -31.2853
543.758 -0.538097 0 -33.2926
542.147 -0.527724 0 -33.3283
269.635 -0.54858 0 -34.028
268.027 -0.527115 0 -34.0627
806.745 -0.444447 0 -31.4428
811.581 -0.463355 0 -31.3384
268.831 -0.537833 0 -34.0455
537.313 -0.496755 0 -33.4333
809.163 -0.45389 0 -31.3909
540.536 -0.517376 0 -33.3637
538.924 -0.507053 0 -33.3987
268.027 -0.527115 0 -34.0627
266.418 -0.505765 0 -34.0967
801.908 -0.425621 0 -31.5449
806.745 -0.444447 0 -31.4428
267.222 -0.516426 0 -34.0798
534.091 -0.476235 0 -33.5013
804.326 -0.435023 0 -31.4941
537.313 -0.496755 0 -33.4333
535.702 -0.486482 0 -33.4675
266.418 -0.505765 0 -34.0967
264.809 -0.48453 0 -34.1298
797.071 -0.406878 0 -31.6447
801.908 -0.425621 0 -31.5449
265.614 -0.495133 0 -34.1134
530.869 -0.455817 0 -33.5677
799.489 -0.416239 0 -31.5951
534.091 -0.476235 0 -33.5013
532.48 -0.466013 0 -33.5347
264.809 -0.48453 0 -34.1298
263.201 -0.46341 0 -34.1623
792.234 -0.388222 0 -31.7422
797.071 -0.406878 0 -31.6447
264.005 -0.473956 0 -34.1461
527.647 -0.435502 0 -33.6327
794.653 -0.397539 0 -31.6937
530.869 -0.455817 0 -33.5677
529.258 -0.445646 0 -33.6004
263.201 -0.46341 0 -34.1623
261.592 -0.442407 0 -34.1939
787.397 -0.369652 0 -31.8374
792.234 -0.388222 0 -31.7422
262.396 -0.452894 0 -34.1782
524.425 -0.415291 0 -33.6961
789.816 -0.378926 0 -31.7901
527.647 -0.435502 0 -33.6327
526.036 -0.425383 0 -33.6646
261.592 -0.442407 0 -34.1939
259.983 -0.42152 0 -34.2248
782.561 -0.35117 0 -31.9304
787.397 -0.369652 0 -31.8374
260.788 -0.431949 0 -34.2095
521.202 -0.395185 0 -33.7581
784.979 -0.3604 0 -31.8842
524.425 -0.415291 0 -33.6961
522.813 -0.405225 0 -33.7273
259.983 -0.42152 0 -34.2248
258.374 -0.40075 0 -34.255
777.724 -0.332779 0 -32.0211
782.561 -0.35117 0 -31.9304
259.179 -0.41112 0 -34.24
517.98 -0.375185 0 -33.8185
780.142 -0.341963 0 -31.9761
521.202 -0.395185 0 -33.7581
519.591 -0.385172 0 -33.7885
258.374 -0.40075 0 -34.255
256.766 -0.380099 0 -34.2844
772.887 -0.314479 0 -32.1097
777.724 -0.332779 0 -32.0211
257.57 -0.39041 0 -34.2698
514.758 -0.355292 0 -33.8775
775.305 -0.323617 0 -32.0657
517.98 -0.375185 0 -33.8185
516.369 -0.365225 0 -33.8482
256.766 -0.380099 0 -34.2844
255.157 -0.359566 0 -34.313
768.05 -0.296271 0 -32.1959
772.887 -0.314479 0 -32.1097
255.961 -0.369817 0 -34.2988
511.536 -0.335508 0 -33.9349
770.469 -0.305363 0 -32.1531
514.758 -0.355292 0 -33.8775
513.147 -0.345387 0 -33.9064
255.157 -0.359566 0 -34.313
253.548 -0.339152 0 -34.341
763.214 -0.278157 0 -32.28
768.05 -0.296271 0 -32.1959
254.352 -0.349344 0 -34.3271
508.313 -0.315833 0 -33.9909
765.632 -0.287202 0 -32.2383
511.536 -0.335508 0 -33.9349
509.925 -0.325657 0 -33.9631
253.548 -0.339152 0 -34.341
251.939 -0.318858 0 -34.3682
758.377 -0.260138 0 -32.3619
763.214 -0.278157 0 -32.28
252.743 -0.32899 0 -34.3547
505.091 -0.296267 0 -34.0455
760.795 -0.269136 0 -32.3212
508.313 -0.315833 0 -33.9909
506.702 -0.306036 0 -34.0184
251.939 -0.318858 0 -34.3682
250.33 -0.298684 0 -34.3946
753.54 -0.242216 0 -32.4416
758.377 -0.260138 0 -32.3619
251.135 -0.308756 0 -34.3815
501.869 -0.276813 0 -34.0985
755.958 -0.251165 0 -32.4021
505.091 -0.296267 0 -34.0455
503.48 -0.286526 0 -34.0722
250.33 -0.298684 0 -34.3946
248.721 -0.278631 0 -34.4204
748.703 -0.224392 0 -32.5192
753.54 -0.242216 0 -32.4416
249.526 -0.288642 0 -34.4076
498.647 -0.257471 0 -34.1502
751.122 -0.233292 0 -32.4807
501.869 -0.276813 0 -34.0985
500.258 -0.267128 0 -34.1245
248.721 -0.278631 0 -34.4204
247.112 -0.258699 0 -34.4454
743.867 -0.206666 0 -32.5946
748.703 -0.224392 0 -32.5192
247.917 -0.26865 0 -34.433
495.424 -0.238241 0 -34.2004
746.285 -0.215516 0 -32.5572
498.647 -0.257471 0 -34.1502
497.036 -0.247842 0 -34.1755
247.112 -0.258699 0 -34.4454
245.504 -0.238889 0 -34.4698
739.03 -0.18904 0 -32.6679
743.867 -0.206666 0 -32.5946
246.308 -0.248779 0 -34.4577
492.202 -0.219124 0 -34.2492
741.448 -0.197841 0 -32.6315
495.424 -0.238241 0 -34.2004
493.813 -0.228668 0 -34.225
245.504 -0.238889 0 -34.4698
243.895 -0.219201 0 -34.4934
734.193 -0.171516 0 -32.739
739.03 -0.18904 0 -32.6679
244.699 -0.22903 0 -34.4817
488.98 -0.200122 0 -34.2966
736.612 -0.180266 0 -32.7037
492.202 -0.219124 0 -34.2492
490.591 -0.209609 0 -34.2731
243.895 -0.219201 0 -34.4934
242.286 -0.199635 0 -34.5163
729.357 -0.154094 0 -32.8081
734.193 -0.171516 0 -32.739
243.09 -0.209403 0 -34.5049
485.758 -0.181235 0 -34.3425
731.775 -0.162792 0 -32.7738
488.98 -0.200122 0 -34.2966
487.369 -0.190664 0 -34.3197
242.286 -0.199635 0 -34.5163
240.677 -0.180193 0 -34.5385
724.52 -0.136775 0 -32.875
729.357 -0.154094 0 -32.8081
241.481 -0.189899 0 -34.5275
482.535 -0.162464 0 -34.3871
726.938 -0.145421 0 -32.8418
485.758 -0.181235 0 -34.3425
484.146 -0.171835 0 -34.365
240.677 -0.180193 0 -34.5385
239.068 -0.160874 0 -34.56
719.683 -0.11956 0 -32.9399
724.52 -0.136775 0 -32.875
239.872 -0.170518 0 -34.5493
479.313 -0.143808 0 -34.4303
722.102 -0.128154 0 -32.9077
482.535 -0.162464 0 -34.3871
480.924 -0.153121 0 -34.4089
239.068 -0.160874 0 -34.56
237.459 -0.141678 0 -34.5808
714.847 -0.102451 0 -33.0027
719.683 -0.11956 0 -32.9399
238.263 -0.15126 0 -34.5705
476.091 -0.125271 0 -34.4721
717.265 -0.110992 0 -32.9716
479.313 -0.143808 0 -34.4303
477.702 -0.134525 0 -34.4514
237.459 -0.141678 0 -34.5808
235.85 -0.122607 0 -34.601
710.01 -0.0854481 0 -33.0635
714.847 -0.102451 0 -33.0027
236.654 -0.132127 0 -34.591
472.868 -0.106851 0 -34.5126
712.429 -0.0939361 0 -33.0334
476.091 -0.125271 0 -34.4721
474.48 -0.116046 0 -34.4925
235.85 -0.122607 0 -34.601
234.241 -0.10366 0 -34.6205
705.174 -0.0685526 0 -33.1222
710.01 -0.0854481 0 -33.0635
235.045 -0.113118 0 -34.6108
469.646 -0.0885491 0 -34.5517
707.592 -0.0769868 0 -33.0931
472.868 -0.106851 0 -34.5126
471.257 -0.097685 0 -34.5323
234.241 -0.10366 0 -34.6205
232.632 -0.0848377 0 -34.6392
700.337 -0.0517655 0 -33.1789
705.174 -0.0685526 0 -33.1222
233.436 -0.0942331 0 -34.6299
466.424 -0.0703668 0 -34.5894
702.756 -0.0601454 0 -33.1508
469.646 -0.0885491 0 -34.5517
468.035 -0.079443 0 -34.5707
232.632 -0.0848377 0 -34.6392
231.023 -0.0661409 0 -34.6574
695.501 -0.0350877 0 -33.2336
700.337 -0.0517655 0 -33.1789
231.827 -0.0754737 0 -34.6484
463.202 -0.0523044 0 -34.6258
697.919 -0.0434129 0 -33.2065
466.424 -0.0703668 0 -34.5894
464.813 -0.0613206 0 -34.6078
231.023 -0.0661409 0 -34.6574
229.414 -0.0475697 0 -34.6748
690.664 -0.0185202 0 -33.2863
695.501 -0.0350877 0 -33.2336
230.218 -0.0568396 0 -34.6662
459.979 -0.0343625 0 -34.6609
693.083 -0.0267901 0 -33.2602
463.202 -0.0523044 0 -34.6258
461.591 -0.0433183 0 -34.6435
229.414 -0.0475697 0 -34.6748
227.805 -0.0291244 0 -34.6916
685.828 -0.00206378 0 -33.337
690.664 -0.0185202 0 -33.2863
228.609 -0.0383313 0 -34.6833
456.757 -0.0165417 0 -34.6946
688.246 -0.010278 0 -33.3119
459.979 -0.0343625 0 -34.6609
458.368 -0.0254369 0 -34.6779
227.805 -0.0291244 0 -34.6916
226.196 -0.0108053 0 -34.7078
680.991 0.0142806 0 -33.3858
685.828 -0.00206378 0 -33.337
227 -0.0199491 0 -34.6998
453.535 0.00115731 0 -34.7271
683.41 0.00612246 0 -33.3617
456.757 -0.0165417 0 -34.6946
455.146 -0.00767694 0 -34.711
226.196 -0.0108053 0 -34.7078
224.587 0.00738711 0 -34.7232
676.155 0.030512 0 -33.4326
680.991 0.0142806 0 -33.3858
225.391 -0.00169326 0 -34.7156
450.313 0.018734 0 -34.7582
678.573 0.0224104 0 -33.4094
453.535 0.00115731 0 -34.7271
451.924 0.00996097 0 -34.7428
224.587 0.00738711 0 -34.7232
222.978 0.0254526 0 -34.7381
671.319 0.0466296 0 -33.4774
676.155 0.030512 0 -33.4326
223.782 0.0164358 0 -34.7307
447.09 0.0361877 0 -34.788
673.737 0.0385851 0 -33.4553
450.313 0.018734 0 -34.7582
448.702 0.0274762 0 -34.7733
222.978 0.0254526 0 -34.7381
221.369 0.0433909 0 -34.7523
666.482 0.0626327 0 -33.5204
671.319 0.0466296 0 -33.4774
222.173 0.0344377 0 -34.7453
443.868 0.0535179 0 -34.8166
668.901 0.0546455 0 -33.4991
447.09 0.0361877 0 -34.788
445.479 0.0448682 0 -34.8025
221.369 0.0433909 0 -34.7523
219.759 0.0612016 0 -34.7658
661.646 0.0785203 0 -33.5614
666.482 0.0626327 0 -33.5204
220.564 0.0523122 0 -34.7591
440.646 0.070724 0 -34.8439
664.064 0.070591 0 -33.5411
443.868 0.0535179 0 -34.8166
442.257 0.0621365 0 -34.8304
219.759 0.0612016 0 -34.7658
218.15 0.0788844 0 -34.7788
656.81 0.0942917 0 -33.6005
661.646 0.0785203 0 -33.5614
218.955 0.070059 0 -34.7724
437.424 0.0878054 0 -34.8699
659.228 0.0864206 0 -33.5812
440.646 0.070724 0 -34.8439
439.035 0.0792803 0 -34.857
218.15 0.0788844 0 -34.7788
216.541 0.0964391 0 -34.7911
651.974 0.109946 0 -33.6378
656.81 0.0942917 0 -33.6005
217.346 0.0876778 0 -34.785
434.202 0.104762 0 -34.8946
654.392 0.102134 0 -33.6194
437.424 0.0878054 0 -34.8699
435.813 0.0962992 0 -34.8824
216.541 0.0964391 0 -34.7911
214.932 0.113865 0 -34.8027
647.137 0.125483 0 -33.6731
651.974 0.109946 0 -33.6378
215.737 0.105168 0 -34.797
430.979 0.121592 0 -34.9182
649.555 0.117729 0 -33.6557
434.202 0.104762 0 -34.8946
432.59 0.113193 0 -34.9066
214.932 0.113865 0 -34.8027
213.323 0.131163 0 -34.8138
642.301 0.140901 0 -33.7066
647.137 0.125483 0 -33.6731
214.128 0.12253 0 -34.8083
427.757 0.138297 0 -34.9404
644.719 0.133207 0 -33.6901
430.979 0.121592 0 -34.9182
429.368 0.12996 0 -34.9295
213.323 0.131163 0 -34.8138
211.714 0.148331 0 -34.8242
637.465 0.1562 0 -33.7383
642.301 0.140901 0 -33.7066
212.518 0.139763 0 -34.8191
424.535 0.154874 0 -34.9615
639.883 0.148565 0 -33.7227
427.757 0.138297 0 -34.9404
426.146 0.146601 0 -34.9511
211.714 0.148331 0 -34.8242
210.105 0.16537 0 -34.8341
632.629 0.171379 0 -33.7681
637.465 0.1562 0 -33.7383
210.909 0.156867 0 -34.8292
421.313 0.171324 0 -34.9813
635.047 0.163804 0 -33.7535
424.535 0.154874 0 -34.9615
422.924 0.163115 0 -34.9716
210.105 0.16537 0 -34.8341
208.496 0.18228 0 -34.8433
627.793 0.186437 0 -33.7962
632.629 0.171379 0 -33.7681
209.3 0.173841 0 -34.8388
418.091 0.187647 0 -34.9999
630.211 0.178923 0 -33.7824
421.313 0.171324 0 -34.9813
419.702 0.179502 0 -34.9908
208.496 0.18228 0 -34.8433
206.886 0.199059 0 -34.8519
622.957 0.201374 0 -33.8224
627.793 0.186437 0 -33.7962
207.691 0.190686 0 -34.8477
414.868 0.203842 0 -35.0174
625.375 0.193921 0 -33.8095
418.091 0.187647 0 -34.9999
416.479 0.19576 0 -35.0088
206.886 0.199059 0 -34.8519
205.277 0.215709 0 -34.8599
618.121 0.216189 0 -33.8468
622.957 0.201374 0 -33.8224
206.082 0.2074 0 -34.856
411.646 0.219907 0 -35.0336
620.539 0.208797 0 -33.8348
414.868 0.203842 0 -35.0174
413.257 0.211891 0 -35.0256
205.277 0.215709 0 -34.8599
203.668 0.232228 0 -34.8674
613.285 0.230882 0 -33.8695
618.121 0.216189 0 -33.8468
204.473 0.223985 0 -34.8637
408.424 0.235844 0 -35.0486
615.703 0.223551 0 -33.8584
411.646 0.219907 0 -35.0336
410.035 0.227892 0 -35.0413
203.668 0.232228 0 -34.8674
202.059 0.248617 0 -34.8742
608.449 0.245451 0 -33.8904
613.285 0.230882 0 -33.8695
202.864 0.240439 0 -34.8709
405.202 0.251652 0 -35.0625
610.867 0.238182 0 -33.8802
408.424 0.235844 0 -35.0486
406.813 0.243764 0 -35.0557
202.059 0.248617 0 -34.8742
200.45 0.264874 0 -34.8805
603.613 0.259896 0 -33.9096
608.449 0.245451 0 -33.8904
201.254 0.256762 0 -34.8774
401.98 0.267329 0 -35.0752
606.031 0.252689 0 -33.9002
405.202 0.251652 0 -35.0625
403.591 0.259507 0 -35.069
200.45 0.264874 0 -34.8805
198.841 0.281001 0 -34.8862
598.777 0.274218 0 -33.927
603.613 0.259896 0 -33.9096
199.645 0.272954 0 -34.8834
398.758 0.282876 0 -35.0868
601.195 0.267073 0 -33.9185
401.98 0.267329 0 -35.0752
400.369 0.275119 0 -35.0811
198.841 0.281001 0 -34.8862
197.231 0.296996 0 -34.8913
593.941 0.288414 0 -33.9427
598.777 0.274218 0 -33.927
198.036 0.289015 0 -34.8888
395.536 0.298292 0 -35.0972
596.359 0.281331 0 -33.9351
398.758 0.282876 0 -35.0868
397.147 0.290601 0 -35.0921
197.231 0.296996 0 -34.8913
195.622 0.31286 0 -34.8959
589.106 0.302484 0 -33.9568
593.941 0.288414 0 -33.9427
196.427 0.304945 0 -34.8937
392.314 0.313578 0 -35.1065
591.523 0.295465 0 -33.95
395.536 0.298292 0 -35.0972
393.925 0.305951 0 -35.102
195.622 0.31286 0 -34.8959
194.013 0.328592 0 -34.8999
584.27 0.316429 0 -33.9691
589.106 0.302484 0 -33.9568
194.817 0.320743 0 -34.8979
389.091 0.328731 0 -35.1146
586.688 0.309473 0 -33.9631
392.314 0.313578 0 -35.1065
390.703 0.321171 0 -35.1107
194.013 0.328592 0 -34.8999
192.404 0.344193 0 -34.9033
579.434 0.330247 0 -33.9797
584.27 0.316429 0 -33.9691
193.208 0.336409 0 -34.9017
385.869 0.343753 0 -35.1217
581.852 0.323354 0 -33.9746
389.091 0.328731 0 -35.1146
387.48 0.336259 0 -35.1183
192.404 0.344193 0 -34.9033
190.794 0.359661 0 -34.9062
574.598 0.343938 0 -33.9887
579.434 0.330247 0 -33.9797
191.599 0.351943 0 -34.9048
382.647 0.358643 0 -35.1276
577.016 0.337109 0 -33.9844
385.869 0.343753 0 -35.1217
384.258 0.351215 0 -35.1248
190.794 0.359661 0 -34.9062
189.185 0.374996 0 -34.9085
569.763 0.357502 0 -33.9961
574.598 0.343938 0 -33.9887
189.99 0.367345 0 -34.9074
379.425 0.3734 0 -35.1324
572.181 0.350736 0 -33.9926
382.647 0.358643 0 -35.1276
381.036 0.366038 0 -35.1301
189.185 0.374996 0 -34.9085
187.576 0.390199 0 -34.9103
564.927 0.370937 0 -34.0018
569.763 0.357502 0 -33.9961
188.381 0.382614 0 -34.9095
376.203 0.388024 0 -35.1362
567.345 0.364235 0 -33.9991
379.425 0.3734 0 -35.1324
377.814 0.380729 0 -35.1344
187.576 0.390199 0 -34.9103
185.967 0.40527 0 -34.9115
560.092 0.384244 0 -34.0059
564.927 0.370937 0 -34.0018
186.771 0.397751 0 -34.911
372.981 0.402515 0 -35.1388
562.509 0.377607 0 -34.004
376.203 0.388024 0 -35.1362
374.592 0.395287 0 -35.1376
185.967 0.40527 0 -34.9115
184.357 0.420207 0 -34.9123
555.256 0.397422 0 -34.0084
560.092 0.384244 0 -34.0059
185.162 0.412755 0 -34.912
369.759 0.416873 0 -35.1404
557.674 0.390849 0 -34.0073
372.981 0.402515 0 -35.1388
371.37 0.409711 0 -35.1398
184.357 0.420207 0 -34.9123
182.748 0.435012 0 -34.9124
550.421 0.410471 0 -34.0092
555.256 0.397422 0 -34.0084
183.553 0.427626 0 -34.9124
366.537 0.431097 0 -35.1409
552.838 0.403963 0 -34.009
369.759 0.416873 0 -35.1404
368.148 0.424002 0 -35.1408
182.748 0.435012 0 -34.9124
181.139 0.449683 0 -34.9121
545.585 0.42339 0 -34.0086
550.421 0.410471 0 -34.0092
181.943 0.442364 0 -34.9123
363.315 0.445187 0 -35.1404
548.003 0.416947 0 -34.0091
366.537 0.431097 0 -35.1409
364.926 0.438158 0 -35.1408
181.139 0.449683 0 -34.9121
179.53 0.464221 0 -34.9112
540.75 0.436179 0 -34.0063
545.585 0.42339 0 -34.0086
180.334 0.456968 0 -34.9117
360.093 0.459142 0 -35.1389
543.168 0.429801 0 -34.0076
363.315 0.445187 0 -35.1404
361.704 0.452181 0 -35.1398
179.53 0.464221 0 -34.9112
177.92 0.478625 0 -34.9098
535.915 0.448838 0 -34.0025
540.75 0.436179 0 -34.0063
178.725 0.471439 0 -34.9106
356.871 0.472963 0 -35.1363
538.332 0.442525 0 -34.0046
360.093 0.459142 0 -35.1389
358.482 0.466069 0 -35.1377
177.92 0.478625 0 -34.9098
176.311 0.492895 0 -34.9079
531.079 0.461366 0 -33.9972
535.915 0.448838 0 -34.0025
177.116 0.485777 0 -34.9089
353.65 0.486649 0 -35.1326
533.497 0.455118 0 -34
356.871 0.472963 0 -35.1363
355.261 0.479823 0 -35.1346
176.311 0.492895 0 -34.9079
174.702 0.507032 0 -34.9055
526.244 0.473762 0 -33.9903
531.079 0.461366 0 -33.9972
175.506 0.49998 0 -34.9068
350.428 0.500199 0 -35.128
528.662 0.46758 0 -33.9939
353.65 0.486649 0 -35.1326
352.039 0.493441 0 -35.1304
174.702 0.507032 0 -34.9055
173.092 0.521034 0 -34.9026
521.409 0.486027 0 -33.982
526.244 0.473762 0 -33.9903
173.897 0.51405 0 -34.9041
347.206 0.513615 0 -35.1224
523.826 0.479911 0 -33.9863
350.428 0.500199 0 -35.128
348.817 0.506924 0 -35.1253
173.092 0.521034 0 -34.9026
171.483 0.534903 0 -34.8992
516.574 0.498161 0 -33.9721
521.409 0.486027 0 -33.982
172.288 0.527985 0 -34.901
343.984 0.526895 0 -35.1157
518.991 0.492111 0 -33.9772
347.206 0.513615 0 -35.1224
345.595 0.520272 0 -35.1192
171.483 0.534903 0 -34.8992
169.874 0.548637 0 -34.8953
511.739 0.510162 0 -33.9608
516.574 0.498161 0 -33.9721
170.678 0.541787 0 -34.8973
340.762 0.540039 0 -35.1081
514.156 0.504178 0 -33.9666
343.984 0.526895 0 -35.1157
342.373 0.533484 0 -35.112
169.874 0.548637 0 -34.8953
168.264 0.562237 0 -34.8909
506.904 0.522031 0 -33.9479
511.739 0.510162 0 -33.9608
169.069 0.555454 0 -34.8932
337.54 0.553047 0 -35.0995
509.321 0.516113 0 -33.9545
340.762 0.540039 0 -35.1081
339.151 0.54656 0 -35.1039
168.264 0.562237 0 -34.8909
166.655 0.575702 0 -34.8861
502.068 0.533767 0 -33.9337
506.904 0.522031 0 -33.9479
167.46 0.568986 0 -34.8886
334.318 0.565918 0 -35.0899
504.486 0.527915 0 -33.941
337.54 0.553047 0 -35.0995
335.929 0.5595 0 -35.0948
166.655 0.575702 0 -34.8861
165.046 0.589032 0 -34.8807
497.234 0.54537 0 -33.918
502.068 0.533767 0 -33.9337
165.85 0.582384 0 -34.8835
331.096 0.578654 0 -35.0794
499.651 0.539585 0 -33.926
334.318 0.565918 0 -35.0899
332.707 0.572303 0 -35.0848
165.046 0.589032 0 -34.8807
163.436 0.602228 0 -34.8749
492.399 0.55684 0 -33.9009
497.234 0.54537 0 -33.918
164.241 0.595647 0 -34.8779
327.875 0.591253 0 -35.0679
494.816 0.551121 0 -33.9096
331.096 0.578654 0 -35.0794
329.486 0.58497 0 -35.0738
163.436 0.602228 0 -34.8749
161.827 0.615289 0 -34.8686
487.564 0.568176 0 -33.8823
492.399 0.55684 0 -33.9009
162.632 0.608775 0 -34.8718
324.653 0.603715 0 -35.0555
489.981 0.562525 0 -33.8918
327.875 0.591253 0 -35.0679
326.264 0.597501 0 -35.0618
161.827 0.615289 0 -34.8686
160.218 0.628215 0 -34.8618
482.729 0.579379 0 -33.8624
487.564 0.568176 0 -33.8823
161.022 0.621769 0 -34.8653
321.431 0.61604 0 -35.0422
485.146 0.573795 0 -33.8725
324.653 0.603715 0 -35.0555
323.042 0.609895 0 -35.0489
160.218 0.628215 0 -34.8618
158.608 0.641006 0 -34.8546
477.894 0.590449 0 -33.8411
482.729 0.579379 0 -33.8624
159.413 0.634627 0 -34.8583
318.209 0.628229 0 -35.0279
480.311 0.584931 0 -33.8519
321.431 0.61604 0 -35.0422
319.82 0.622152 0 -35.0351
158.608 0.641006 0 -34.8546
156.999 0.653662 0 -34.847
473.059 0.601384 0 -33.8184
477.894 0.590449 0 -33.8411
157.803 0.647351 0 -34.8508
314.988 0.64028 0 -35.0127
475.477 0.595933 0 -33.8299
318.209 0.628229 0 -35.0279
316.598 0.634271 0 -35.0204
156.999 0.653662 0 -34.847
155.389 0.666182 0 -34.8388
468.225 0.612185 0 -33.7943
473.059 0.601384 0 -33.8184
156.194 0.659939 0 -34.8429
311.766 0.652193 0 -34.9966
470.642 0.606801 0 -33.8065
314.988 0.64028 0 -35.0127
313.377 0.646254 0 -35.0048
155.389 0.666182 0 -34.8388
153.78 0.678567 0 -34.8303
463.39 0.622852 0 -33.769
468.225 0.612185 0 -33.7943
154.585 0.672392 0 -34.8346
308.544 0.66397 0 -34.9796
465.807 0.617535 0 -33.7818
311.766 0.652193 0 -34.9966
310.155 0.658099 0 -34.9882
153.78 0.678567 0 -34.8303
152.171 0.690817 0 -34.8212
458.555 0.633384 0 -33.7423
463.39 0.622852 0 -33.769
152.975 0.684709 0 -34.8258
305.322 0.675609 0 -34.9618
460.973 0.628135 0 -33.7558
308.544 0.66397 0 -34.9796
306.933 0.669806 0 -34.9708
152.171 0.690817 0 -34.8212
150.561 0.702931 0 -34.8118
453.721 0.643782 0 -33.7142
458.555 0.633384 0 -33.7423
151.366 0.696891 0 -34.8166
302.101 0.68711 0 -34.943
456.138 0.6386 0 -33.7284
305.322 0.675609 0 -34.9618
303.712 0.681377 0 -34.9525
150.561 0.702931 0 -34.8118
148.952 0.71491 0 -34.8019
448.886 0.654045 0 -33.6849
453.721 0.643782 0 -33.7142
149.756 0.708938 0 -34.8069
298.879 0.698473 0 -34.9234
451.303 0.64893 0 -33.6997
302.101 0.68711 0 -34.943
300.49 0.692809 0 -34.9333
148.952 0.71491 0 -34.8019
147.342 0.726753 0 -34.7916
444.052 0.664173 0 -33.6543
448.886 0.654045 0 -33.6849
148.147 0.720848 0 -34.7968
295.657 0.709699 0 -34.9029
446.469 0.659126 0 -33.6698
298.879 0.698473 0 -34.9234
297.268 0.704104 0 -34.9133
147.342 0.726753 0 -34.7916
145.733 0.73846 0 -34.7808
439.217 0.674166 0 -33.6224
444.052 0.664173 0 -33.6543
146.538 0.732624 0 -34.7863
292.436 0.720787 0 -34.8816
441.634 0.669186 0 -33.6385
295.657 0.709699 0 -34.9029
294.047 0.71526 0 -34.8924
145.733 0.73846 0 -34.7808
144.123 0.750032 0 -34.7697
434.383 0.684024 0 -33.5893
439.217 0.674166 0 -33.6224
144.928 0.744263 0 -34.7753
289.214 0.731737 0 -34.8595
436.8 0.679112 0 -33.606
292.436 0.720787 0 -34.8816
290.825 0.726279 0 -34.8707
144.123 0.750032 0 -34.7697
142.514 0.761468 0 -34.7581
429.548 0.693748 0 -33.5549
434.383 0.684024 0 -33.5893
143.319 0.755767 0 -34.764
285.993 0.742549 0 -34.8365
431.966 0.688903 0 -33.5722
289.214 0.731737 0 -34.8595
287.603 0.73716 0 -34.8481
142.514 0.761468 0 -34.7581
140.905 0.772768 0 -34.7461
424.714 0.703336 0 -33.5193
429.548 0.693748 0 -33.5549
141.709 0.767135 0 -34.7522
282.771 0.753222 0 -34.8127
427.131 0.698559 0 -33.5372
285.993 0.742549 0 -34.8365
284.382 0.747903 0 -34.8247
140.905 0.772768 0 -34.7461
139.295 0.783933 0 -34.7338
419.88 0.712789 0 -33.4824
424.714 0.703336 0 -33.5193
140.1 0.778367 0 -34.74
279.549 0.763758 0 -34.7881
422.297 0.708079 0 -33.501
282.771 0.753222 0 -34.8127
281.16 0.758508 0 -34.8005
139.295 0.783933 0 -34.7338
137.686 0.794961 0 -34.721
415.045 0.722106 0 -33.4444
419.88 0.712789 0 -33.4824
138.49 0.789464 0 -34.7274
276.328 0.774156 0 -34.7627
417.463 0.717464 0 -33.4636
279.549 0.763758 0 -34.7881
277.939 0.768974 0 -34.7755
137.686 0.794961 0 -34.721
136.076 0.805853 0 -34.7078
410.211 0.731289 0 -33.4052
415.045 0.722106 0 -33.4444
136.881 0.800424 0 -34.7144
273.106 0.784415 0 -34.7365
412.628 0.726715 0 -33.4249
276.328 0.774156 0 -34.7627
274.717 0.779303 0 -34.7497
136.076 0.805853 0 -34.7078
134.467 0.81661 0 -34.6942
405.377 0.740336 0 -33.3648
410.211 0.731289 0 -33.4052
135.271 0.811249 0 -34.7011
269.885 0.794536 0 -34.7095
407.794 0.73583 0 -33.3851
273.106 0.784415 0 -34.7365
271.496 0.789493 0 -34.7231
134.467 0.81661 0 -34.6942
132.857 0.82723 0 -34.6803
400.543 0.749249 0 -33.3232
405.377 0.740336 0 -33.3648
133.662 0.821937 0 -34.6873
266.663 0.804519 0 -34.6817
402.96 0.744809 0 -33.3441
269.885 0.794536 0 -34.7095
268.274 0.799545 0 -34.6957
132.857 0.82723 0 -34.6803
131.248 0.837715 0 -34.6659
395.709 0.758025 0 -33.2805
400.543 0.749249 0 -33.3232
132.052 0.83249 0 -34.6731
263.442 0.814364 0 -34.6532
398.126 0.753654 0 -33.302
266.663 0.804519 0 -34.6817
265.053 0.809459 0 -34.6675
131.248 0.837715 0 -34.6659
129.638 0.848063 0 -34.6512
390.875 0.766667 0 -33.2367
395.709 0.758025 0 -33.2805
130.443 0.842906 0 -34.6586
260.22 0.824071 0 -34.6239
393.292 0.762363 0 -33.2587
263.442 0.814364 0 -34.6532
261.831 0.819235 0 -34.6386
129.638 0.848063 0 -34.6512
128.029 0.858276 0 -34.6361
386.041 0.775174 0 -33.1917
390.875 0.766667 0 -33.2367
128.833 0.853187 0 -34.6437
256.999 0.833639 0 -34.5939
388.458 0.770937 0 -33.2143
260.22 0.824071 0 -34.6239
258.61 0.828872 0 -34.609
128.029 0.858276 0 -34.6361
126.419 0.868352 0 -34.6207
381.207 0.783545 0 -33.1456
386.041 0.775174 0 -33.1917
127.224 0.863331 0 -34.6284
253.777 0.843069 0 -34.5631
383.624 0.779377 0 -33.1688
256.999 0.833639 0 -34.5939
255.388 0.838371 0 -34.5786
126.419 0.868352 0 -34.6207
124.81 0.878293 0 -34.6048
376.373 0.791782 0 -33.0985
381.207 0.783545 0 -33.1456
125.614 0.87334 0 -34.6128
250.556 0.852361 0 -34.5316
378.79 0.787681 0 -33.1222
253.777 0.843069 0 -34.5631
252.167 0.847733 0 -34.5474
124.81 0.878293 0 -34.6048
123.2 0.888097 0 -34.5887
371.539 0.799884 0 -33.0502
376.373 0.791782 0 -33.0985
124.005 0.883212 0 -34.5968
247.335 0.861516 0 -34.4994
373.956 0.79585 0 -33.0745
250.556 0.852361 0 -34.5316
248.945 0.856956 0 -34.5156
123.2 0.888097 0 -34.5887
121.591 0.897765 0 -34.5721
366.706 0.80785 0 -33.0009
371.539 0.799884 0 -33.0502
122.395 0.892948 0 -34.5804
244.113 0.870532 0 -34.4665
369.122 0.803884 0 -33.0257
247.335 0.861516 0 -34.4994
245.724 0.866041 0 -34.483
121.591 0.897765 0 -34.5721
119.981 0.907298 0 -34.5552
361.872 0.815682 0 -32.9506
366.706 0.80785 0 -33.0009
120.786 0.902549 0 -34.5637
240.892 0.87941 0 -34.4329
364.289 0.811783 0 -32.9759
244.113 0.870532 0 -34.4665
242.502 0.874988 0 -34.4498
119.981 0.907298 0 -34.5552
118.372 0.916694 0 -34.538
357.038 0.823379 0 -32.8992
361.872 0.815682 0 -32.9506
119.176 0.912013 0 -34.5467
237.67 0.88815 0 -34.3985
359.455 0.819548 0 -32.925
240.892 0.87941 0 -34.4329
239.281 0.883797 0 -34.4158
118.372 0.916694 0 -34.538
116.762 0.925954 0 -34.5205
352.204 0.830942 0 -32.8468
357.038 0.823379 0 -32.8992
117.567 0.921341 0 -34.5293
234.449 0.896752 0 -34.3636
354.621 0.827178 0 -32.8731
237.67 0.88815 0 -34.3985
236.06 0.892468 0 -34.3811
116.762 0.925954 0 -34.5205
115.152 0.935079 0 -34.5026
347.371 0.83837 0 -32.7934
352.204 0.830942 0 -32.8468
115.957 0.930533 0 -34.5115
231.228 0.905216 0 -34.3279
349.788 0.834673 0 -32.8202
234.449 0.896752 0 -34.3636
232.838 0.901001 0 -34.3458
115.152 0.935079 0 -34.5026
113.543 0.944067 0 -34.4843
342.537 0.845664 0 -32.739
347.371 0.83837 0 -32.7934
114.348 0.93959 0 -34.4935
228.006 0.913543 0 -34.2916
344.954 0.842034 0 -32.7663
231.228 0.905216 0 -34.3279
229.617 0.909397 0 -34.3098
113.543 0.944067 0 -34.4843
111.933 0.952919 0 -34.4658
337.704 0.852824 0 -32.6836
342.537 0.845664 0 -32.739
112.738 0.94851 0 -34.4751
224.785 0.921732 0 -34.2546
340.12 0.849261 0 -32.7114
228.006 0.913543 0 -34.2916
226.396 0.917655 0 -34.2732
111.933 0.952919 0 -34.4658
110.324 0.961636 0 -34.4469
332.87 0.85985 0 -32.6272
337.704 0.852824 0 -32.6836
111.128 0.957294 0 -34.4564
221.564 0.929783 0 -34.217
335.287 0.856354 0 -32.6555
224.785 0.921732 0 -34.2546
223.174 0.925775 0 -34.2359
110.324 0.961636 0 -34.4469
108.714 0.970216 0 -34.4277
328.037 0.866742 0 -32.5699
332.87 0.85985 0 -32.6272
109.519 0.965943 0 -34.4373
218.342 0.937697 0 -34.1787
330.453 0.863313 0 -32.5987
221.564 0.929783 0 -34.217
219.953 0.933758 0 -34.1979
108.714 0.970216 0 -34.4277
107.104 0.978661 0 -34.4082
323.203 0.8735 0 -32.5117
328.037 0.866742 0 -32.5699
107.909 0.974456 0 -34.418
215.121 0.945474 0 -34.1398
325.62 0.870138 0 -32.5409
218.342 0.937697 0 -34.1787
216.732 0.941603 0 -34.1593
107.104 0.978661 0 -34.4082
105.495 0.98697 0 -34.3884
318.37 0.880125 0 -32.4525
323.203 0.8735 0 -32.5117
106.3 0.982833 0 -34.3983
211.9 0.953113 0 -34.1003
320.787 0.876829 0 -32.4822
215.121 0.945474 0 -34.1398
213.51 0.949311 0 -34.1201
105.495 0.98697 0 -34.3884
103.885 0.995143 0 -34.3682
313.536 0.886616 0 -32.3924
318.37 0.880125 0 -32.4525
104.69 0.991074 0 -34.3783
208.679 0.960616 0 -34.0602
315.953 0.883387 0 -32.4225
211.9 0.953113 0 -34.1003
210.289 0.956882 0 -34.0803
103.885 0.995143 0 -34.3682
102.276 1.00318 0 -34.3478
308.703 0.892975 0 -32.3314
313.536 0.886616 0 -32.3924
103.08 0.999179 0 -34.3581
205.457 0.967981 0 -34.0195
311.12 0.889812 0 -32.362
208.679 0.960616 0 -34.0602
207.068 0.964316 0 -34.0399
102.276 1.00318 0 -34.3478
100.666 1.01108 0 -34.3271
303.87 0.8992 0 -32.2695
308.703 0.892975 0 -32.3314
101.471 1.00715 0 -34.3375
202.236 0.975209 0 -33.9782
306.287 0.896104 0 -32.3006
205.457 0.967981 0 -34.0195
203.847 0.971612 0 -33.9989
100.666 1.01108 0 -34.3271
99.0562 1.01885 0 -34.3061
299.037 0.905293 0 -32.2068
303.87 0.8992 0 -32.2695
99.8611 1.01498 0 -34.3167
199.015 0.982301 0 -33.9363
301.453 0.902263 0 -32.2383
202.236 0.975209 0 -33.9782
200.625 0.978772 0 -33.9573
99.0562 1.01885 0 -34.3061
97.4466 1.02648 0 -34.2848
294.203 0.911253 0 -32.1432
299.037 0.905293 0 -32.2068
98.2514 1.02268 0 -34.2955
195.794 0.989256 0 -33.8939
296.62 0.90829 0 -32.1751
199.015 0.982301 0 -33.9363
197.404 0.985796 0 -33.9152
97.4466 1.02648 0 -34.2848
95.8369 1.03398 0 -34.2633
289.37 0.917081 0 -32.0788
294.203 0.911253 0 -32.1432
96.6417 1.03024 0 -34.2741
192.572 0.996075 0 -33.8509
291.787 0.914184 0 -32.1111
195.794 0.989256 0 -33.8939
194.183 0.992683 0 -33.8725
95.8369 1.03398 0 -34.2633
94.2272 1.04134 0 -34.2414
284.537 0.922778 0 -32.0135
289.37 0.917081 0 -32.0788
95.032 1.03767 0 -34.2524
189.351 1.00276 0 -33.8073
286.954 0.919946 0 -32.0462
192.572 0.996075 0 -33.8509
190.962 0.999433 0 -33.8292
94.2272 1.04134 0 -34.2414
92.6175 1.04856 0 -34.2193
279.704 0.928342 0 -31.9474
284.537 0.922778 0 -32.0135
93.4224 1.04496 0 -34.2304
186.13 1.0093 0 -33.7632
282.121 0.925576 0 -31.9805
189.351 1.00276 0 -33.8073
187.741 1.00605 0 -33.7854
92.6175 1.04856 0 -34.2193
91.0078 1.05565 0 -34.197
274.871 0.933775 0 -31.8805
279.704 0.928342 0 -31.9474
91.8127 1.05212 0 -34.2082
182.909 1.01571 0 -33.7186
277.288 0.931075 0 -31.9141
186.13 1.0093 0 -33.7632
184.519 1.01253 0 -33.741
91.0078 1.05565 0 -34.197
89.3981 1.0626 0 -34.1743
270.038 0.939077 0 -31.8129
274.871 0.933775 0 -31.8805
90.2029 1.05914 0 -34.1857
179.688 1.02199 0 -33.6735
272.455 0.936442 0 -31.8468
182.909 1.01571 0 -33.7186
181.298 1.01887 0 -33.6961
89.3981 1.0626 0 -34.1743
87.7884 1.06942 0 -34.1514
265.205 0.944248 0 -31.7444
270.038 0.939077 0 -31.8129
88.5932 1.06603 0 -34.1629
176.466 1.02813 0 -33.6278
267.622 0.941679 0 -31.7787
179.688 1.02199 0 -33.6735
178.077 1.02507 0 -33.6507
87.7884 1.06942 0 -34.1514
86.1786 1.07611 0 -34.1283
260.372 0.949288 0 -31.6752
265.205 0.944248 0 -31.7444
86.9835 1.07278 0 -34.1399
173.245 1.03413 0 -33.5816
262.789 0.946784 0 -31.7099
176.466 1.02813 0 -33.6278
174.856 1.03115 0 -33.6048
86.1786 1.07611 0 -34.1283
84.5689 1.08265 0 -34.1049
255.539 0.954198 0 -31.6053
260.372 0.949288 0 -31.6752
85.3737 1.0794 0 -34.1166
170.024 1.04 0 -33.5349
257.956 0.951759 0 -31.6403
173.245 1.03413 0 -33.5816
171.635 1.03708 0 -33.5583
84.5689 1.08265 0 -34.1049
82.9591 1.08907 0 -34.0813
250.706 0.958978 0 -31.5346
255.539 0.954198 0 -31.6053
83.764 1.08588 0 -34.0931
166.803 1.04573 0 -33.4878
253.123 0.956604 0 -31.57
170.024 1.04 0 -33.5349
168.414 1.04288 0 -33.5114
82.9591 1.08907 0 -34.0813
81.3493 1.09535 0 -34.0574
245.874 0.963628 0 -31.4632
250.706 0.958978 0 -31.5346
82.1542 1.09223 0 -34.0693
163.582 1.05133 0 -33.4401
248.29 0.961319 0 -31.499
166.803 1.04573 0 -33.4878
165.192 1.04855 0 -33.464
81.3493 1.09535 0 -34.0574
79.7396 1.10149 0 -34.0333
241.041 0.968149 0 -31.3911
245.874 0.963628 0 -31.4632
80.5445 1.09844 0 -34.0454
160.361 1.05679 0 -33.392
243.457 0.965905 0 -31.4272
163.582 1.05133 0 -33.4401
161.971 1.05408 0 -33.4161
79.7396 1.10149 0 -34.0333
78.1298 1.1075 0 -34.0089
236.208 0.972541 0 -31.3183
241.041 0.968149 0 -31.3911
78.9347 1.10451 0 -34.0211
157.14 1.06212 0 -33.3435
238.624 0.970361 0 -31.3548
160.361 1.05679 0 -33.392
158.75 1.05948 0 -33.3678
78.1298 1.1075 0 -34.0089
76.52 1.11338 0 -33.9844
231.375 0.976804 0 -31.2449
236.208 0.972541 0 -31.3183
77.3249 1.11046 0 -33.9967
153.919 1.06732 0 -33.2945
233.792 0.974688 0 -31.2817
157.14 1.06212 0 -33.3435
155.529 1.06474 0 -33.319
76.52 1.11338 0 -33.9844
74.9102 1.11912 0 -33.9596
226.543 0.980938 0 -31.1707
231.375 0.976804 0 -31.2449
75.7151 1.11626 0 -33.972
150.698 1.07238 0 -33.245
228.959 0.978887 0 -31.2079
153.919 1.06732 0 -33.2945
152.308 1.06987 0 -33.2698
74.9102 1.11912 0 -33.9596
73.3003 1.12473 0 -33.9346
221.71 0.984945 0 -31.096
226.543 0.980938 0 -31.1707
74.1052 1.12194 0 -33.9471
147.476 1.07731 0 -33.1951
224.126 0.982957 0 -31.1334
150.698 1.07238 0 -33.245
149.087 1.07486 0 -33.2201
73.3003 1.12473 0 -33.9346
71.6905 1.1302 0 -33.9094
216.877 0.988823 0 -31.0205
221.71 0.984945 0 -31.096
72.4954 1.12748 0 -33.922
144.255 1.0821 0 -33.1448
219.294 0.9869 0 -31.0583
147.476 1.07731 0 -33.1951
145.866 1.07972 0 -33.17
71.6905 1.1302 0 -33.9094
70.0806 1.13554 0 -33.884
212.045 0.992575 0 -30.9445
216.877 0.988823 0 -31.0205
70.8856 1.13288 0 -33.8967
141.034 1.08676 0 -33.0941
214.461 0.990715 0 -30.9826
144.255 1.0821 0 -33.1448
142.645 1.08445 0 -33.1195
70.0806 1.13554 0 -33.884
68.4708 1.14074 0 -33.8584
207.212 0.996199 0 -30.8679
212.045 0.992575 0 -30.9445
69.2757 1.13815 0 -33.8712
137.813 1.09129 0 -33.043
209.628 0.994403 0 -30.9063
141.034 1.08676 0 -33.0941
139.424 1.08904 0 -33.0686
68.4708 1.14074 0 -33.8584
66.8609 1.14581 0 -33.8326
202.38 0.999697 0 -30.7907
207.212 0.996199 0 -30.8679
67.6658 1.14329 0 -33.8455
134.592 1.09568 0 -32.9914
204.796 0.997964 0 -30.8293
137.813 1.09129 0 -33.043
136.203 1.0935 0 -33.0173
66.8609 1.14581 0 -33.8326
65.251 1.15075 0 -33.8066
197.547 1.00307 0 -30.7129
202.38 0.999697 0 -30.7907
66.056 1.1483 0 -33.8196
131.371 1.09994 0 -32.9395
199.963 1.0014 0 -30.7518
134.592 1.09568 0 -32.9914
132.982 1.09783 0 -32.9655
65.251 1.15075 0 -33.8066
63.6411 1.15555 0 -33.7804
192.715 1.00631 0 -30.6345
197.547 1.00307 0 -30.7129
64.4461 1.15317 0 -33.7935
128.15 1.10407 0 -32.8873
195.131 1.00471 0 -30.6737
131.371 1.09994 0 -32.9395
129.761 1.10202 0 -32.9134
63.6411 1.15555 0 -33.7804
62.0312 1.16022 0 -33.754
187.882 1.00943 0 -30.5556
192.715 1.00631 0 -30.6345
62.8361 1.1579 0 -33.7673
124.929 1.10807 0 -32.8346
190.298 1.00789 0 -30.5951
128.15 1.10407 0 -32.8873
126.539 1.10609 0 -32.861
62.0312 1.16022 0 -33.754
60.4213 1.16476 0 -33.7275
183.05 1.01243 0 -30.4761
187.882 1.00943 0 -30.5556
61.2262 1.1625 0 -33.7408
121.708 1.11193 0 -32.7816
185.466 1.01095 0 -30.5159
124.929 1.10807 0 -32.8346
123.318 1.11002 0 -32.8082
60.4213 1.16476 0 -33.7275
58.8113 1.16916 0 -33.7008
178.217 1.0153 0 -30.3961
183.05 1.01243 0 -30.4761
59.6163 1.16697 0 -33.7142
118.487 1.11567 0 -32.7283
180.634 1.01388 0 -30.4362
121.708 1.11193 0 -32.7816
120.097 1.11382 0 -32.755
58.8113 1.16916 0 -33.7008
57.2014 1.17343 0 -33.6739
173.385 1.01804 0 -30.3156
178.217 1.0153 0 -30.3961
58.0063 1.17131 0 -33.6874
115.266 1.11927 0 -32.6746
175.801 1.01669 0 -30.3559
118.487 1.11567 0 -32.7283
116.876 1.11749 0 -32.7015
57.2014 1.17343 0 -33.6739
55.5914 1.17756 0 -33.6468
168.553 1.02067 0 -30.2346
173.385 1.01804 0 -30.3156
56.3964 1.17551 0 -33.6604
112.045 1.12274 0 -32.6205
170.969 1.01937 0 -30.2752
115.266 1.11927 0 -32.6746
113.655 1.12102 0 -32.6476
55.5914 1.17756 0 -33.6468
53.9814 1.18157 0 -33.6196
163.72 1.02316 0 -30.1532
168.553 1.02067 0 -30.2346
54.7864 1.17958 0 -33.6333
108.824 1.12608 0 -32.5662
166.137 1.02193 0 -30.194
112.045 1.12274 0 -32.6205
110.434 1.12443 0 -32.5934
53.9814 1.18157 0 -33.6196
52.3714 1.18543 0 -33.5923
158.888 1.02554 0 -30.0712
163.72 1.02316 0 -30.1532
53.1764 1.18352 0 -33.606
105.603 1.12929 0 -32.5115
161.304 1.02437 0 -30.1122
108.824 1.12608 0 -32.5662
107.213 1.1277 0 -32.5389
52.3714 1.18543 0 -33.5923
50.7614 1.18917 0 -33.5648
154.056 1.02779 0 -29.9888
158.888 1.02554 0 -30.0712
51.5664 1.18732 0 -33.5785
102.382 1.13237 0 -32.4566
156.472 1.02668 0 -30.0301
105.603 1.12929 0 -32.5115
103.992 1.13084 0 -32.4841
50.7614 1.18917 0 -33.5648
49.1514 1.19277 0 -33.5371
149.224 1.02992 0 -29.906
154.056 1.02779 0 -29.9888
49.9564 1.19099 0 -33.551
99.1607 1.13531 0 -32.4013
151.64 1.02887 0 -29.9475
102.382 1.13237 0 -32.4566
100.771 1.13386 0 -32.429
49.1514 1.19277 0 -33.5371
47.5413 1.19624 0 -33.5093
144.391 1.03192 0 -29.8227
149.224 1.02992 0 -29.906
48.3464 1.19452 0 -33.5232
95.9397 1.13813 0 -32.3458
146.808 1.03094 0 -29.8644
99.1607 1.13531 0 -32.4013
97.5502 1.13674 0 -32.3736
47.5413 1.19624 0 -33.5093
45.9313 1.19957 0 -33.4814
139.559 1.03381 0 -29.7391
144.391 1.03192 0 -29.8227
46.7363 1.19792 0 -33.4954
92.7187 1.14081 0 -32.29
141.975 1.03288 0 -29.781
95.9397 1.13813 0 -32.3458
94.3292 1.13949 0 -32.3179
45.9313 1.19957 0 -33.4814
44.3212 1.20277 0 -33.4533
134.727 1.03557 0 -29.655
139.559 1.03381 0 -29.7391
45.1263 1.20119 0 -33.4674
89.4977 1.14337 0 -32.2339
137.143 1.0347 0 -29.6971
92.7187 1.14081 0 -32.29
91.1082 1.14211 0 -32.262
44.3212 1.20277 0 -33.4533
42.7112 1.20583 0 -33.4251
129.895 1.0372 0 -29.5706
134.727 1.03557 0 -29.655
43.5162 1.20432 0 -33.4392
86.2766 1.14579 0 -32.1776
132.311 1.0364 0 -29.6128
89.4977 1.14337 0 -32.2339
87.8872 1.14459 0 -32.2058
42.7112 1.20583 0 -33.4251
41.1011 1.20876 0 -33.3968
125.063 1.03871 0 -29.4857
129.895 1.0372 0 -29.5706
41.9061 1.20731 0 -33.411
83.0556 1.14807 0 -32.121
127.479 1.03797 0 -29.5282
86.2766 1.14579 0 -32.1776
84.6661 1.14695 0 -32.1494
41.1011 1.20876 0 -33.3968
39.491 1.21155 0 -33.3684
120.231 1.0401 0 -29.4006
125.063 1.03871 0 -29.4857
40.296 1.21017 0 -33.3826
79.8346 1.15023 0 -32.0642
122.647 1.03942 0 -29.4432
83.0556 1.14807 0 -32.121
81.4451 1.14917 0 -32.0927
39.491 1.21155 0 -33.3684
37.8809 1.2142 0 -33.3398
115.399 1.04136 0 -29.3151
120.231 1.0401 0 -29.4006
38.6859 1.21289 0 -33.3541
76.6136 1.15224 0 -32.0072
117.815 1.04075 0 -29.3579
79.8346 1.15023 0 -32.0642
78.2241 1.15125 0 -32.0358
37.8809 1.2142 0 -33.3398
36.2708 1.21672 0 -33.3112
110.567 1.04249 0 -29.2292
115.399 1.04136 0 -29.3151
37.0758 1.21548 0 -33.3255
73.3927 1.15412 0 -31.95
112.983 1.04194 0 -29.2722
76.6136 1.15224 0 -32.0072
75.0032 1.1532 0 -31.9786
36.2708 1.21672 0 -33.3112
34.6607 1.2191 0 -33.2824
105.735 1.0435 0 -29.1431
110.567 1.04249 0 -29.2292
35.4658 1.21793 0 -33.2968
70.1717 1.15587 0 -31.8925
108.151 1.04301 0 -29.1862
73.3927 1.15412 0 -31.95
71.7822 1.15501 0 -31.9213
34.6607 1.2191 0 -33.2824
33.0506 1.22136 0 -33.2535
100.903 1.04437 0 -29.0567
105.735 1.0435 0 -29.1431
33.8557 1.22025 0 -33.2679
66.9508 1.15748 0 -31.8348
103.319 1.04395 0 -29.0999
70.1717 1.15587 0 -31.8925
68.5613 1.15669 0 -31.8637
33.0506 1.22136 0 -33.2535
31.4406 1.22351 0 -33.2244
96.0709 1.04512 0 -28.9699
100.903 1.04437 0 -29.0567
32.2456 1.22245 0 -33.239
63.73 1.15898 0 -31.7769
98.4868 1.04476 0 -29.0133
66.9508 1.15748 0 -31.8348
65.3404 1.15825 0 -31.8059
31.4406 1.22351 0 -33.2244
29.8306 1.22558 0 -33.1952
91.2392 1.04578 0 -28.8829
96.0709 1.04512 0 -28.9699
30.6356 1.22455 0 -33.2099
60.5092 1.16039 0 -31.7188
93.655 1.04546 0 -28.9265
63.73 1.15898 0 -31.7769
62.1196 1.15969 0 -31.7479
29.8306 1.22558 0 -33.1952
28.2206 1.22764 0 -33.1659
86.4076 1.04641 0 -28.7955
91.2392 1.04578 0 -28.8829
29.0256 1.22661 0 -33.1806
57.2885 1.16179 0 -31.6604
88.8234 1.04609 0 -28.8393
60.5092 1.16039 0 -31.7188
58.8989 1.16108 0 -31.6896
28.2206 1.22764 0 -33.1659
26.6106 1.22985 0 -33.1365
81.5762 1.04717 0 -28.7078
86.4076 1.04641 0 -28.7955
27.4156 1.22871 0 -33.1512
54.0679 1.16338 0 -31.6018
83.9919 1.04675 0 -28.7517
57.2885 1.16179 0 -31.6604
55.6782 1.16255 0 -31.6311
26.6106 1.22985 0 -33.1365
25.0004 1.23244 0 -33.1071
76.7449 1.04848 0 -28.6196
81.5762 1.04717 0 -28.7078
25.8055 1.23107 0 -33.1218
50.8472 1.16555 0 -31.5429
79.1605 1.04771 0 -28.6638
54.0679 1.16338 0 -31.6018
52.4576 1.16435 0 -31.5724
25.0004 1.23244 0 -33.1071
23.3897 1.23603 0 -33.0782
71.9132 1.05108 0 -28.5307
76.7449 1.04848 0 -28.6196
24.1951 1.23405 0 -33.0926
47.626 1.16912 0 -31.484
74.3291 1.04954 0 -28.5752
50.8472 1.16555 0 -31.5429
49.2367 1.16708 0 -31.5134
23.3897 1.23603 0 -33.0782
21.7774 1.24152 0 -33.051
67.0806 1.05672 0 -28.4407
71.9132 1.05108 0 -28.5307
22.5839 1.23845 0 -33.0643
44.4031 1.17568 0 -31.4254
69.497 1.05335 0 -28.4859
47.626 1.16912 0 -31.484
46.0148 1.17186 0 -31.4546
21.7774 1.24152 0 -33.051
20.1625 1.25107 0 -33.0276
62.2442 1.06829 0 -28.3492
67.0806 1.05672 0 -28.4407
20.9703 1.24559 0 -33.0386
41.1762 1.18832 0 -31.368
64.6632 1.06148 0 -28.3952
44.4031 1.17568 0 -31.4254
42.7904 1.18097 0 -31.3964
20.1625 1.25107 0 -33.0276
18.5401 1.26745 0 -33.0127
57.4007 1.09202 0 -28.2549
62.2442 1.06829 0 -28.3492
19.3528 1.25813 0 -33.0186
37.9403 1.21228 0 -31.3141
59.8234 1.07806 0 -28.3025
41.1762 1.18832 0 -31.368
39.5598 1.19832 0 -31.3405
18.5401 1.26745 0 -33.0127
16.9065 1.29744 0 -33.0149
52.5376 1.13671 0 -28.1571
57.4007 1.09202 0 -28.2549
17.7246 1.2802 0 -33.0109
34.6855 1.25719 0 -31.2677
54.9729 1.1109 0 -28.2065
37.9403 1.21228 0 -31.3141
36.3161 1.23143 0 -31.2894
16.9065 1.29744 0 -33.0149
15.2444 1.34724 0 -33.0499
47.6421 1.22085 0 -28.0528
52.5376 1.13671 0 -28.1571
16.0812 1.31921 0 -33.0269
31.3934 1.33667 0 -31.2372
50.0942 1.17238 0 -28.1061
34.6855 1.25719 0 -31.2677
33.0454 1.29107 0 -31.2503
15.2444 1.34724 0 -33.0499
13.5448 1.43424 0 -33.1429
42.6694 1.36332 0 -27.9433
47.6421 1.22085 0 -28.0528
14.3984 1.38509 0 -33.0872
28.0321 1.47339 0 -31.2367
45.1705 1.28293 0 -27.9983
31.3934 1.33667 0 -31.2372
29.7243 1.39697 0 -31.2309
13.5448 1.43424 0 -33.1429
11.7561 1.56131 0 -33.3342
37.5834 1.6051 0 -27.8249
42.6694 1.36332 0 -27.9433
12.6685 1.49207 0 -33.2229
24.5499 1.68654 0 -31.2908
40.1404 1.46975 0 -27.8859
28.0321 1.47339 0 -31.2367
26.3093 1.56757 0 -31.257
11.7561 1.56131 0 -33.3342
9.87585 1.75594 0 -33.6716
32.2504 1.95051 0 -27.7186
37.5834 1.6051 0 -27.8249
10.8219 1.65089 0 -33.4815
20.8679 1.99821 0 -31.437
34.9638 1.76366 0 -27.7671
24.5499 1.68654 0 -31.2908
22.7417 1.83373 0 -31.3451
9.87585 1.75594 0 -33.6716
7.7898 1.94932 0 -34.208
26.6214 2.43199 0 -27.638
32.2504 1.95051 0 -27.7186
8.87718 1.85678 0 -33.9114
16.8995 2.35098 0 -31.7265
29.4658 2.18052 0 -27.6749
20.8679 1.99821 0 -31.437
18.9216 2.17045 0 -31.568
7.7898 1.94932 0 -34.208
5.61707 2.10687 0 -34.9192
20.409 2.81748 0 -27.7116
26.6214 2.43199 0 -27.638
6.68572 2.04941 0 -34.5479
12.5631 2.60097 0 -32.2106
23.6291 2.6527 0 -27.6404
16.8995 2.35098 0 -31.7265
14.7915 2.52449 0 -31.9254
5.61707 2.10687 0 -34.9192
3.24295 1.76439 0 -35.6291
13.8293 2.80643 0 -28.0401
20.409 2.81748 0 -27.7116
4.49379 2.02566 0 -35.294
7.99192 2.17107 0 -32.8731
17.1118 2.93069 0 -27.8378
12.5631 2.60097 0 -32.2106
10.2739 2.50257 0 -32.5537
3.24295 1.76439 0 -35.6291
1.32843 0.603587 0 -35.6539
6.80727 0.78736 0 -28.9583
13.8293 2.80643 0 -28.0401
2.12105 1.34582 0 -35.7955
3.61495 0.173574 0 -33.3866
10.4314 2.16527 0 -28.3969
7.99192 2.17107 0 -32.8731
5.7758 1.5023 0 -33.1358
1.32843 0.603587 0 -35.6539
-0.322038 -2.46525 0 -33.7085
1.5101 -5.47969 0 -29.7616
6.80727 0.78736 0 -28.9583
0.568785 -0.723324 0 -35.0357
0.782461 -4.97554 0 -32.3982
3.67023 -1.46869 0 -29.4749
3.61495 0.173574 0 -33.3866
1.81139 -2.03024 0 -33.318
-0.322038 -2.46525 0 -33.7085
-0.33386 -6.01995 0 -27.6339
-1.4458 -21.2796 0 -27.6129
1.5101 -5.47969 0 -29.7616
-0.772507 -4.22974 0 -31.327
-0.511761 -13.3481 0 -27.1213
-0.184187 -12.2514 0 -29.442
0.782461 -4.97554 0 -32.3982
0.149089 -8.70037 0 -30.3415
-0.33386 -6.01995 0 -27.6339
0.865021 -10.8366 0 -15.9412
-1.40312 -39.8892 0 -15.1326
-1.4458 -21.2796 0 -27.6129
0.389494 -8.18369 0 -22.5482
-1.00454 -24.2667 0 -16.3564
-2.05254 -31.3474 0 -23.0694
-0.511761 -13.3481 0 -27.1213
-1.0185 -18.7785 0 -22.5794
855.618 256.502 0 78.3585
929.557 161.92 0 -3.04111
1574.44 169.906 0 -87.9414
1486.86 445.464 0 -60.2196
905.814 205.868 0 29.205
1231.94 186.893 0 -36.6222
1544.77 320.372 0 -101.773
1216.29 364.484 0 11.7856
1203.68 259.612 0 -11.9874
929.557 161.92 0 -3.04111
947.339 70.5557 0 -28.4938
1598.28 50.3662 0 -42.5143
1574.44 169.906 0 -87.9414
937.493 112.888 0 -19.4106
1276.17 72.8805 0 -42.926
1596.83 87.2956 0 -63.7836
1231.94 186.893 0 -36.6222
1266.02 125.633 0 -48.0116
947.339 70.5557 0 -28.4938
956.477 24.3865 0 -33.5392
1578.26 8.71987 0 -16.603
1598.28 50.3662 0 -42.5143
956.013 42.8241 0 -33.0091
1273.31 20.7339 0 -29.2669
1586.27 24.5989 0 -25.4788
1276.17 72.8805 0 -42.926
1275.65 39.2685 0 -34.2003
956.477 24.3865 0 -33.5392
949.293 2.94831 0 -31.2118
1564.45 -0.387789 0 -10.9747
1578.26 8.71987 0 -16.603
952.555 11.1153 0 -32.2304
1261.25 0.675055 0 -22.6343
1572.15 2.11711 0 -12.7845
1273.31 20.7339 0 -29.2669
1268.15 8.48745 0 -25.6948
949.293 2.94831 0 -31.2118
940.812 -3.33511 0 -29.6648
1550.6 -3.78476 0 -10.9336
1564.45 -0.387789 0 -10.9747
945.768 -1.22717 0 -30.4456
1248.23 -4.23596 0 -20.6763
1556.41 -2.58135 0 -10.3731
1261.25 0.675055 0 -22.6343
1254.19 -3.0736 0 -20.9437
940.812 -3.33511 0 -29.6648
930.991 -4.88142 0 -28.675
1541.02 -3.23327 0 -13.1497
1550.6 -3.78476 0 -10.9336
935.431 -4.55892 0 -28.9937
1237.37 -4.88126 0 -21.021
1545.96 -3.68573 0 -12.0904
1248.23 -4.23596 0 -20.6763
1242.68 -4.74797 0 -20.8402
930.991 -4.88142 0 -28.675
923.055 -4.12316 0 -28.4722
1531.77 -2.64722 0 -15.0646
1541.02 -3.23327 0 -13.1497
927.034 -4.59243 0 -28.5564
1228.07 -3.86129 0 -21.9588
1536.11 -2.95954 0 -14.1079
1237.37 -4.88126 0 -21.021
1232.47 -4.50179 0 -21.4043
923.055 -4.12316 0 -28.4722
915.895 -3.1837 0 -28.4713
1523.55 -1.83705 0 -16.6788
1531.77 -2.64722 0 -15.0646
919.251 -3.67059 0 -28.4315
1220.01 -2.84608 0 -22.9026
1527.71 -2.21747 0 -15.9605
1228.07 -3.86129 0 -21.9588
1223.95 -3.30689 0 -22.4802
915.895 -3.1837 0 -28.4713
909.814 -2.28662 0 -28.6295
1515.35 -1.33321 0 -17.7634
1523.55 -1.83705 0 -16.6788
912.812 -2.69766 0 -28.5516
1212.66 -1.99488 0 -23.6597
1519.39 -1.56306 0 -17.2616
1220.01 -2.84608 0 -22.9026
1216.26 -2.39937 0 -23.2943
909.814 -2.28662 0 -28.6295
904.207 -1.68642 0 -28.8003
1507.32 -0.965412 0 -18.5426
1515.35 -1.33321 0 -17.7634
906.932 -1.95985 0 -28.7096
1205.75 -1.44102 0 -24.2226
1511.35 -1.12634 0 -18.1941
1212.66 -1.99488 0 -23.6597
1209.18 -1.68055 0 -23.9694
904.207 -1.68642 0 -28.8003
898.996 -1.28263 0 -28.983
1499.27 -0.755459 0 -19.0776
1507.32 -0.965412 0 -18.5426
901.581 -1.45852 0 -28.8944
1199.08 -1.08481 0 -24.6415
1503.29 -0.847907 0 -18.8298
1205.75 -1.44102 0 -24.2226
1202.39 -1.24359 0 -24.4445
898.996 -1.28263 0 -28.983
893.954 -1.04452 0 -29.153
1491.24 -0.625065 0 -19.4831
1499.27 -0.755459 0 -19.0776
896.452 -1.14903 0 -29.0684
1192.52 -0.8773 0 -24.962
1495.26 -0.680828 0 -19.2946
1199.08 -1.08481 0 -24.6415
1195.79 -0.965596 0 -24.8127
893.954 -1.04452 0 -29.153
889.029 -0.899883 0 -29.3156
1483.19 -0.552018 0 -19.8043
1491.24 -0.625065 0 -19.4831
891.485 -0.962039 0 -29.2359
1186.03 -0.75477 0 -25.2232
1487.21 -0.583942 0 -19.6506
1192.52 -0.8773 0 -24.962
1189.27 -0.808218 0 -25.0977
889.029 -0.899883 0 -29.3156
884.149 -0.815743 0 -29.4691
1475.14 -0.507359 0 -20.0824
1483.19 -0.552018 0 -19.8043
886.583 -0.85265 0 -29.3931
1179.56 -0.684075 0 -25.4484
1479.16 -0.526741 0 -19.9477
1186.03 -0.75477 0 -25.2232
1182.79 -0.714484 0 -25.3394
884.149 -0.815743 0 -29.4691
879.298 -0.7628 0 -29.6165
1467.07 -0.479606 0 -20.3345
1475.14 -0.507359 0 -20.0824
881.722 -0.786175 0 -29.5436
1173.1 -0.640376 0 -25.6532
1471.11 -0.492157 0 -20.2107
1179.56 -0.684075 0 -25.4484
1176.33 -0.659857 0 -25.5526
879.298 -0.7628 0 -29.6165
874.456 -0.72749 0 -29.7586
1459.01 -0.459717 0 -20.5728
1467.07 -0.479606 0 -20.3345
876.876 -0.743695 0 -29.6881
1166.65 -0.611213 0 -25.8455
1463.04 -0.468912 0 -20.4551
1173.1 -0.640376 0 -25.6532
1169.88 -0.624496 0 -25.7506
874.456 -0.72749 0 -29.7586
869.619 -0.700545 0 -29.8967
1450.94 -0.443924 0 -20.802
1459.01 -0.459717 0 -20.5728
872.037 -0.713238 0 -29.8282
1160.2 -0.58896 0 -26.0302
1454.98 -0.451517 0 -20.6883
1166.65 -0.611213 0 -25.8455
1163.43 -0.599512 0 -25.9386
869.619 -0.700545 0 -29.8967
864.783 -0.677854 0 -30.0314
1442.87 -0.429844 0 -21.0252
1450.94 -0.443924 0 -20.802
867.2 -0.688867 0 -29.9645
1153.75 -0.570028 0 -26.2094
1446.91 -0.436734 0 -20.9143
1160.2 -0.58896 0 -26.0302
1156.97 -0.579218 0 -26.1204
864.783 -0.677854 0 -30.0314
859.947 -0.657001 0 -30.1629
1434.81 -0.416529 0 -21.2435
1442.87 -0.429844 0 -21.0252
862.365 -0.667265 0 -30.0975
1147.3 -0.5525 0 -26.3845
1438.84 -0.423137 0 -21.1349
1153.75 -0.570028 0 -26.2094
1150.52 -0.561156 0 -26.2974
859.947 -0.657001 0 -30.1629
855.111 -0.636997 0 -30.2917
1426.74 -0.40347 0 -21.4575
1434.81 -0.416529 0 -21.2435
857.529 -0.646937 0 -30.2276
1140.85 -0.535556 0 -26.5559
1430.77 -0.40998 0 -21.351
1147.3 -0.5525 0 -26.3845
1144.07 -0.543984 0 -26.4706
855.111 -0.636997 0 -30.2917
850.275 -0.617333 0 -30.4178
1418.67 -0.390492 0 -21.6673
1426.74 -0.40347 0 -21.4575
852.693 -0.627136 0 -30.3551
1134.39 -0.518821 0 -26.7238
1422.7 -0.396978 0 -21.5629
1140.85 -0.535556 0 -26.5559
1137.62 -0.527174 0 -26.6402
850.275 -0.617333 0 -30.4178
845.438 -0.59783 0 -30.5414
1410.6 -0.377522 0 -21.8731
1418.67 -0.390492 0 -21.6673
847.856 -0.607569 0 -30.4799
1127.94 -0.50216 0 -26.8885
1414.63 -0.384007 0 -21.7707
1134.39 -0.518821 0 -26.7238
1131.17 -0.510485 0 -26.8065
845.438 -0.59783 0 -30.5414
840.602 -0.57841 0 -30.6624
1402.53 -0.364547 0 -22.0749
1410.6 -0.377522 0 -21.8731
843.02 -0.588111 0 -30.6022
1121.49 -0.485531 0 -27.0499
1406.56 -0.371036 0 -21.9745
1127.94 -0.50216 0 -26.8885
1124.71 -0.493842 0 -26.9696
840.602 -0.57841 0 -30.6624
835.765 -0.559059 0 -30.7811
1394.46 -0.351568 0 -22.2727
1402.53 -0.364547 0 -22.0749
838.183 -0.568727 0 -30.7221
1115.04 -0.468928 0 -27.208
1398.49 -0.358057 0 -22.1743
1121.49 -0.485531 0 -27.0499
1118.26 -0.477226 0 -27.1293
835.765 -0.559059 0 -30.7811
830.928 -0.539773 0 -30.8973
1386.39 -0.338593 0 -22.4665
1394.46 -0.351568 0 -22.2727
833.347 -0.549407 0 -30.8395
1108.58 -0.452356 0 -27.363
1390.42 -0.345079 0 -22.3701
1115.04 -0.468928 0 -27.208
1111.81 -0.460638 0 -27.2859
830.928 -0.539773 0 -30.8973
826.092 -0.520556 0 -31.0111
1378.32 -0.325628 0 -22.6564
1386.39 -0.338593 0 -22.4665
828.51 -0.530155 0 -30.9545
1102.13 -0.435824 0 -27.5148
1382.35 -0.332109 0 -22.5619
1108.58 -0.452356 0 -27.363
1105.36 -0.444085 0 -27.4393
826.092 -0.520556 0 -31.0111
821.255 -0.501412 0 -31.1225
1370.25 -0.31268 0 -22.8423
1378.32 -0.325628 0 -22.6564
823.673 -0.510974 0 -31.0671
1095.68 -0.419338 0 -27.6635
1374.28 -0.319152 0 -22.7498
1102.13 -0.435824 0 -27.5148
1098.9 -0.427575 0 -27.5896
821.255 -0.501412 0 -31.1225
816.418 -0.482344 0 -31.2316
1362.18 -0.299754 0 -23.0243
1370.25 -0.31268 0 -22.8423
818.836 -0.491868 0 -31.1774
1089.23 -0.402901 0 -27.809
1366.21 -0.306214 0 -22.9338
1095.68 -0.419338 0 -27.6635
1092.45 -0.411113 0 -27.7367
816.418 -0.482344 0 -31.2316
811.581 -0.463355 0 -31.3384
1354.11 -0.286851 0 -23.2024
1362.18 -0.299754 0 -23.0243
814 -0.472839 0 -31.2853
1082.77 -0.386519 0 -27.9514
1358.14 -0.293299 0 -23.1138
1089.23 -0.402901 0 -27.809
1086 -0.394703 0 -27.8806
811.581 -0.463355 0 -31.3384
806.745 -0.444447 0 -31.4428
1346.04 -0.273977 0 -23.3766
1354.11 -0.286851 0 -23.2024
809.163 -0.45389 0 -31.3909
1076.32 -0.370192 0 -28.0907
1350.08 -0.28041 0 -23.29
1082.77 -0.386519 0 -27.9514
1079.55 -0.378348 0 -28.0215
806.745 -0.444447 0 -31.4428
801.908 -0.425621 0 -31.5449
1337.97 -0.261132 0 -23.5469
1346.04 -0.273977 0 -23.3766
804.326 -0.435023 0 -31.4941
1069.87 -0.353925 0 -28.2269
1342.01 -0.26755 0 -23.4622
1076.32 -0.370192 0 -28.0907
1073.09 -0.362051 0 -28.1592
801.908 -0.425621 0 -31.5449
797.071 -0.406878 0 -31.6447
1329.9 -0.24832 0 -23.7135
1337.97 -0.261132 0 -23.5469
799.489 -0.416239 0 -31.5951
1063.42 -0.337718 0 -28.3601
1333.94 -0.254722 0 -23.6307
1069.87 -0.353925 0 -28.2269
1066.64 -0.345813 0 -28.2939
797.071 -0.406878 0 -31.6447
792.234 -0.388222 0 -31.7422
1321.83 -0.235543 0 -23.8762
1329.9 -0.24832 0 -23.7135
794.653 -0.397539 0 -31.6937
1056.96 -0.321574 0 -28.4902
1325.87 -0.241927 0 -23.7953
1063.42 -0.337718 0 -28.3601
1060.19 -0.329638 0 -28.4255
792.234 -0.388222 0 -31.7422
787.397 -0.369652 0 -31.8374
1313.76 -0.222803 0 -24.0351
1321.83 -0.235543 0 -23.8762
789.816 -0.378926 0 -31.7901
1050.51 -0.305494 0 -28.6172
1317.8 -0.229168 0 -23.9561
1056.96 -0.321574 0 -28.4902
1053.74 -0.313526 0 -28.5541
787.397 -0.369652 0 -31.8374
782.561 -0.35117 0 -31.9304
1305.69 -0.210102 0 -24.1902
1313.76 -0.222803 0 -24.0351
784.979 -0.3604 0 -31.8842
1044.06 -0.289481 0 -28.7413
1309.73 -0.216447 0 -24.1131
1050.51 -0.305494 0 -28.6172
1047.28 -0.297479 0 -28.6797
782.561 -0.35117 0 -31.9304
777.724 -0.332779 0 -32.0211
1297.63 -0.197443 0 -24.3417
1305.69 -0.210102 0 -24.1902
780.142 -0.341963 0 -31.9761
1037.61 -0.273536 0 -28.8624
1301.66 -0.203767 0 -24.2664
1044.06 -0.289481 0 -28.7413
1040.83 -0.2815 0 -28.8022
777.724 -0.332779 0 -32.0211
772.887 -0.314479 0 -32.1097
1289.56 -0.184828 0 -24.4894
1297.63 -0.197443 0 -24.3417
775.305 -0.323617 0 -32.0657
1031.15 -0.257662 0 -28.9805
1293.59 -0.19113 0 -24.416
1037.61 -0.273536 0 -28.8624
1034.38 -0.26559 0 -28.9218
772.887 -0.314479 0 -32.1097
768.05 -0.296271 0 -32.1959
1281.49 -0.172259 0 -24.6334
1289.56 -0.184828 0 -24.4894
770.469 -0.305363 0 -32.1531
1024.7 -0.241859 0 -29.0956
1285.52 -0.178537 0 -24.5618
1031.15 -0.257662 0 -28.9805
1027.93 -0.249751 0 -29.0384
768.05 -0.296271 0 -32.1959
763.214 -0.278157 0 -32.28
1273.42 -0.159737 0 -24.7737
1281.49 -0.172259 0 -24.6334
765.632 -0.287202 0 -32.2383
1018.25 -0.22613 0 -29.2078
1277.45 -0.165992 0 -24.704
1024.7 -0.241859 0 -29.0956
1021.47 -0.233985 0 -29.1521
763.214 -0.278157 0 -32.28
758.377 -0.260138 0 -32.3619
1265.35 -0.147266 0 -24.9104
1273.42 -0.159737 0 -24.7737
760.795 -0.269136 0 -32.3212
1011.8 -0.210476 0 -29.3171
1269.38 -0.153495 0 -24.8425
1018.25 -0.22613 0 -29.2078
1015.02 -0.218293 0 -29.2628
758.377 -0.260138 0 -32.3619
753.54 -0.242216 0 -32.4416
1257.28 -0.134846 0 -25.0434
1265.35 -0.147266 0 -24.9104
755.958 -0.251165 0 -32.4021
1005.34 -0.194898 0 -29.4234
1261.31 -0.141049 0 -24.9773
1011.8 -0.210476 0 -29.3171
1008.57 -0.202677 0 -29.3706
753.54 -0.242216 0 -32.4416
748.703 -0.224392 0 -32.5192
1249.21 -0.12248 0 -25.1729
1257.28 -0.134846 0 -25.0434
751.122 -0.233292 0 -32.4807
998.892 -0.179399 0 -29.5269
1253.25 -0.128656 0 -25.1086
1005.34 -0.194898 0 -29.4234
1002.12 -0.187139 0 -29.4755
748.703 -0.224392 0 -32.5192
743.867 -0.206666 0 -32.5946
1241.14 -0.11017 0 -25.2987
1249.21 -0.12248 0 -25.1729
746.285 -0.215516 0 -32.5572
992.44 -0.16398 0 -29.6275
1245.18 -0.116318 0 -25.2363
998.892 -0.179399 0 -29.5269
995.666 -0.17168 0 -29.5776
743.867 -0.206666 0 -32.5946
739.03 -0.18904 0 -32.6679
1233.07 -0.0979174 0 -25.4211
1241.14 -0.11017 0 -25.2987
741.448 -0.197841 0 -32.6315
985.987 -0.148643 0 -29.7253
1237.11 -0.104036 0 -25.3603
992.44 -0.16398 0 -29.6275
989.213 -0.156301 0 -29.6768
739.03 -0.18904 0 -32.6679
734.193 -0.171516 0 -32.739
1225.01 -0.085724 0 -25.5398
1233.07 -0.0979174 0 -25.4211
736.612 -0.180266 0 -32.7037
979.535 -0.133388 0 -29.8203
1229.04 -0.0918132 0 -25.4809
985.987 -0.148643 0 -29.7253
982.761 -0.141005 0 -29.7732
734.193 -0.171516 0 -32.739
729.357 -0.154094 0 -32.8081
1216.94 -0.0735918 0 -25.6551
1225.01 -0.085724 0 -25.5398
731.775 -0.162792 0 -32.7738
973.083 -0.118217 0 -29.9124
1220.97 -0.0796502 0 -25.5979
979.535 -0.133388 0 -29.8203
976.309 -0.125792 0 -29.8667
729.357 -0.154094 0 -32.8081
724.52 -0.136775 0 -32.875
1208.87 -0.0615225 0 -25.7669
1216.94 -0.0735918 0 -25.6551
726.938 -0.145421 0 -32.8418
966.631 -0.103132 0 -30.0018
1212.9 -0.0675492 0 -25.7114
973.083 -0.118217 0 -29.9124
969.857 -0.110664 0 -29.9575
724.52 -0.136775 0 -32.875
719.683 -0.11956 0 -32.9399
1200.8 -0.0495177 0 -25.8752
1208.87 -0.0615225 0 -25.7669
722.102 -0.128154 0 -32.9077
960.179 -0.0881341 0 -30.0884
1204.83 -0.0555119 0 -25.8215
966.631 -0.103132 0 -30.0018
963.405 -0.0956221 0 -30.0454
719.683 -0.11956 0 -32.9399
714.847 -0.102451 0 -33.0027
1192.73 -0.0375792 0 -25.9801
1200.8 -0.0495177 0 -25.8752
717.265 -0.110992 0 -32.9716
953.727 -0.0732247 0 -30.1722
1196.77 -0.04354 0 -25.9281
960.179 -0.0881341 0 -30.0884
956.953 -0.0806682 0 -30.1306
714.847 -0.102451 0 -33.0027
710.01 -0.0854481 0 -33.0635
1184.66 -0.0257085 0 -26.0815
1192.73 -0.0375792 0 -25.9801
712.429 -0.0939361 0 -33.0334
947.276 -0.058405 0 -30.2533
1188.7 -0.0316353 0 -26.0312
953.727 -0.0732247 0 -30.1722
950.502 -0.0658036 0 -30.2131
710.01 -0.0854481 0 -33.0635
705.174 -0.0685526 0 -33.1222
1176.6 -0.0139072 0 -26.1796
1184.66 -0.0257085 0 -26.0815
707.592 -0.0769868 0 -33.0931
940.824 -0.0436762 0 -30.3317
1180.63 -0.019799 0 -26.131
947.276 -0.058405 0 -30.2533
944.05 -0.0510291 0 -30.2928
705.174 -0.0685526 0 -33.1222
700.337 -0.0517655 0 -33.1789
1168.53 -0.00217712 0 -26.2743
1176.6 -0.0139072 0 -26.1796
702.756 -0.0601454 0 -33.1508
934.372 -0.0290398 0 -30.4074
1172.56 -0.00803321 0 -26.2274
940.824 -0.0436762 0 -30.3317
937.598 -0.0363464 0 -30.3699
700.337 -0.0517655 0 -33.1789
695.501 -0.0350877 0 -33.2336
1160.46 0.00948042 0 -26.3656
1168.53 -0.00217712 0 -26.2743
697.919 -0.0434129 0 -33.2065
927.92 -0.014497 0 -30.4804
1164.49 0.00366082 0 -26.3204
934.372 -0.0290398 0 -30.4074
931.146 -0.0217566 0 -30.4442
695.501 -0.0350877 0 -33.2336
690.664 -0.0185202 0 -33.2863
1152.39 0.0210638 0 -26.4536
1160.46 0.00948042 0 -26.3656
693.083 -0.0267901 0 -33.2602
921.469 -4.89028e-05 0 -30.5507
1156.43 0.0152815 0 -26.41
927.92 -0.014497 0 -30.4804
924.695 -0.00726101 0 -30.5159
690.664 -0.0185202 0 -33.2863
685.828 -0.00206378 0 -33.337
1144.32 0.0325717 0 -26.5383
1152.39 0.0210638 0 -26.4536
688.246 -0.010278 0 -33.3119
915.017 0.0143032 0 -30.6184
1148.36 0.0268273 0 -26.4964
921.469 -4.89028e-05 0 -30.5507
918.243 0.00713922 0 -30.5849
685.828 -0.00206378 0 -33.337
680.991 0.0142806 0 -33.3858
1136.26 0.0440025 0 -26.6198
1144.32 0.0325717 0 -26.5383
683.41 0.00612246 0 -33.3617
908.566 0.0285582 0 -30.6835
1140.29 0.0382968 0 -26.5795
915.017 0.0143032 0 -30.6184
911.791 0.0214429 0 -30.6513
680.991 0.0142806 0 -33.3858
676.155 0.030512 0 -33.4326
1128.19 0.0553549 0 -26.698
1136.26 0.0440025 0 -26.6198
678.573 0.0224104 0 -33.4094
902.114 0.0427148 0 -30.746
1132.22 0.0496886 0 -26.6593
908.566 0.0285582 0 -30.6835
905.34 0.0356489 0 -30.7151
676.155 0.030512 0 -33.4326
671.319 0.0466296 0 -33.4774
1120.12 0.0666275 0 -26.7729
1128.19 0.0553549 0 -26.698
673.737 0.0385851 0 -33.4553
895.663 0.0567721 0 -30.8059
1124.16 0.0610012 0 -26.7358
902.114 0.0427148 0 -30.746
898.888 0.049756 0 -30.7763
671.319 0.0466296 0 -33.4774
666.482 0.0626327 0 -33.5204
1112.06 0.0778188 0 -26.8446
1120.12 0.0666275 0 -26.7729
668.901 0.0546455 0 -33.4991
889.211 0.0707289 0 -30.8632
1116.09 0.0722334 0 -26.8092
895.663 0.0567721 0 -30.8059
892.437 0.0637631 0 -30.8349
666.482 0.0626327 0 -33.5204
661.646 0.0785203 0 -33.5614
1103.99 0.0889277 0 -26.9132
1112.06 0.0778188 0 -26.8446
664.064 0.070591 0 -33.5411
882.76 0.0845842 0 -30.918
1108.02 0.0833837 0 -26.8793
889.211 0.0707289 0 -30.8632
885.986 0.0776693 0 -30.8909
661.646 0.0785203 0 -33.5614
656.81 0.0942917 0 -33.6005
1095.92 0.0999528 0 -26.9786
1103.99 0.0889277 0 -26.9132
659.228 0.0864206 0 -33.5812
876.309 0.0983368 0 -30.9702
1099.95 0.0944508 0 -26.9463
882.76 0.0845842 0 -30.918
879.534 0.0914734 0 -30.9444
656.81 0.0942917 0 -33.6005
651.974 0.109946 0 -33.6378
1087.85 0.110893 0 -27.0408
1095.92 0.0999529 0 -26.9786
654.392 0.102134 0 -33.6194
869.858 0.111986 0 -31.02
1091.89 0.105434 0 -27.0101
876.309 0.0983368 0 -30.9702
873.083 0.105174 0 -30.9954
651.974 0.109946 0 -33.6378
647.137 0.125483 0 -33.6731
1079.79 0.121747 0 -27.1
1087.85 0.110893 0 -27.0408
649.555 0.117729 0 -33.6557
863.406 0.12553 0 -31.0672
1083.82 0.116331 0 -27.0708
869.858 0.111986 0 -31.02
866.632 0.118771 0 -31.0439
647.137 0.125483 0 -33.6731
642.301 0.140901 0 -33.7066
1071.72 0.132513 0 -27.156
1079.79 0.121747 0 -27.1
644.719 0.133207 0 -33.6901
856.955 0.138969 0 -31.112
1075.75 0.127141 0 -27.1284
863.406 0.12553 0 -31.0672
860.181 0.132263 0 -31.0899
642.301 0.140901 0 -33.7066
637.465 0.1562 0 -33.7383
1063.65 0.143191 0 -27.209
1071.72 0.132513 0 -27.156
639.883 0.148565 0 -33.7227
850.504 0.152301 0 -31.1543
1067.69 0.137863 0 -27.1829
856.955 0.138969 0 -31.112
853.73 0.145649 0 -31.1334
637.465 0.1562 0 -33.7383
632.629 0.171379 0 -33.7681
1055.59 0.153779 0 -27.2589
1063.65 0.143191 0 -27.209
635.047 0.163804 0 -33.7535
844.054 0.165526 0 -31.1941
1059.62 0.148496 0 -27.2343
850.504 0.152301 0 -31.1543
847.279 0.158927 0 -31.1745
632.629 0.171379 0 -33.7681
627.793 0.186437 0 -33.7962
1047.52 0.164276 0 -27.3058
1055.59 0.153779 0 -27.2589
630.211 0.178923 0 -33.7824
837.603 0.178643 0 -31.2316
1051.55 0.159039 0 -27.2827
844.054 0.165526 0 -31.1941
840.828 0.172098 0 -31.2132
627.793 0.186437 0 -33.7962
622.957 0.201374 0 -33.8224
1039.45 0.174681 0 -27.3497
1047.52 0.164276 0 -27.3058
625.375 0.193921 0 -33.8095
831.152 0.19165 0 -31.2667
1043.49 0.16949 0 -27.3281
837.603 0.178643 0 -31.2316
834.377 0.18516 0 -31.2494
622.957 0.201374 0 -33.8224
618.121 0.216189 0 -33.8468
1031.39 0.184993 0 -27.3906
1039.45 0.174681 0 -27.3497
620.539 0.208797 0 -33.8348
824.701 0.204547 0 -31.2993
1035.42 0.179849 0 -27.3705
831.152 0.19165 0 -31.2667
827.926 0.198112 0 -31.2833
618.121 0.216189 0 -33.8468
613.285 0.230882 0 -33.8695
1023.32 0.195211 0 -27.4286
1031.39 0.184993 0 -27.3906
615.703 0.223551 0 -33.8584
818.25 0.217333 0 -31.3296
1027.35 0.190114 0 -27.41
824.701 0.204547 0 -31.2993
821.476 0.210954 0 -31.3148
613.285 0.230882 0 -33.8695
608.449 0.245451 0 -33.8904
1015.25 0.205334 0 -27.4636
1023.32 0.195211 0 -27.4286
610.867 0.238182 0 -33.8802
811.8 0.230008 0 -31.3576
1019.29 0.200285 0 -27.4465
818.25 0.217333 0 -31.3296
815.025 0.223685 0 -31.3439
608.449 0.245451 0 -33.8904
603.613 0.259896 0 -33.9096
1007.19 0.215362 0 -27.4957
1015.25 0.205334 0 -27.4636
606.031 0.252689 0 -33.9002
805.349 0.24257 0 -31.3832
1011.22 0.21036 0 -27.48
811.8 0.230008 0 -31.3576
808.575 0.236303 0 -31.3707
603.613 0.259896 0 -33.9096
598.777 0.274218 0 -33.927
999.123 0.225292 0 -27.525
1007.19 0.215362 0 -27.4957
601.195 0.267073 0 -33.9185
798.899 0.255019 0 -31.4066
1003.16 0.220339 0 -27.5107
805.349 0.24257 0 -31.3832
802.124 0.248809 0 -31.3952
598.777 0.274218 0 -33.927
593.941 0.288414 0 -33.9427
991.057 0.235124 0 -27.5513
999.123 0.225292 0 -27.525
596.359 0.281331 0 -33.9351
792.449 0.267354 0 -31.4276
995.09 0.23022 0 -27.5385
798.899 0.255019 0 -31.4066
795.674 0.261201 0 -31.4174
593.941 0.288414 0 -33.9427
589.106 0.302484 0 -33.9568
982.992 0.244858 0 -27.5749
991.057 0.235124 0 -27.5513
591.523 0.295465 0 -33.95
785.998 0.279574 0 -31.4464
987.025 0.240004 0 -27.5635
792.449 0.267354 0 -31.4276
789.223 0.273478 0 -31.4373
589.106 0.302484 0 -33.9568
584.27 0.316429 0 -33.9691
974.926 0.254492 0 -27.5956
982.992 0.244858 0 -27.5749
586.688 0.309473 0 -33.9631
779.548 0.291679 0 -31.4629
978.959 0.249688 0 -27.5856
785.998 0.279574 0 -31.4464
782.773 0.285641 0 -31.4549
584.27 0.316429 0 -33.9691
579.434 0.330247 0 -33.9797
966.861 0.264026 0 -27.6135
974.926 0.254492 0 -27.5956
581.852 0.323354 0 -33.9746
773.098 0.303668 0 -31.4772
970.893 0.259272 0 -27.6049
779.548 0.291679 0 -31.4629
776.323 0.297688 0 -31.4703
579.434 0.330247 0 -33.9797
574.598 0.343938 0 -33.9887
958.795 0.273459 0 -27.6287
966.861 0.264026 0 -27.6135
577.016 0.337109 0 -33.9844
766.648 0.31554 0 -31.4892
962.828 0.268755 0 -27.6215
773.098 0.303668 0 -31.4772
769.873 0.309618 0 -31.4835
574.598 0.343938 0 -33.9887
569.763 0.357502 0 -33.9961
950.73 0.28279 0 -27.6411
958.795 0.273459 0 -27.6287
572.181 0.350736 0 -33.9926
760.198 0.327294 0 -31.4991
954.763 0.278137 0 -27.6352
766.648 0.31554 0 -31.4892
763.423 0.321432 0 -31.4944
569.763 0.357502 0 -33.9961
564.927 0.370937 0 -34.0018
942.665 0.292018 0 -27.6508
950.73 0.28279 0 -27.6411
567.345 0.364235 0 -33.9991
753.748 0.338931 0 -31.5068
946.698 0.287416 0 -27.6463
760.198 0.327294 0 -31.4991
756.973 0.333127 0 -31.5032
564.927 0.370937 0 -34.0018
560.092 0.384244 0 -34.0059
934.6 0.301142 0 -27.6578
942.665 0.292018 0 -27.6508
562.509 0.377607 0 -34.004
747.298 0.350449 0 -31.5123
938.633 0.296593 0 -27.6546
753.748 0.338931 0 -31.5068
750.523 0.344705 0 -31.5098
560.092 0.384244 0 -34.0059
555.256 0.397422 0 -34.0084
926.535 0.310163 0 -27.6621
934.6 0.301142 0 -27.6578
557.674 0.390849 0 -34.0073
740.848 0.361848 0 -31.5157
930.568 0.305666 0 -27.6603
747.298 0.350449 0 -31.5123
744.073 0.356164 0 -31.5143
555.256 0.397422 0 -34.0084
550.421 0.410471 0 -34.0092
918.471 0.319079 0 -27.6638
926.535 0.310163 0 -27.6621
552.838 0.403963 0 -34.009
734.398 0.373128 0 -31.517
922.503 0.314634 0 -27.6633
740.848 0.361848 0 -31.5157
737.623 0.367503 0 -31.5166
550.421 0.410471 0 -34.0092
545.585 0.42339 0 -34.0086
910.406 0.327889 0 -27.6628
918.471 0.319079 0 -27.6638
548.003 0.416947 0 -34.0091
727.949 0.384287 0 -31.5161
914.438 0.323497 0 -27.6636
734.398 0.373128 0 -31.517
731.174 0.378723 0 -31.5168
545.585 0.42339 0 -34.0086
540.75 0.436179 0 -34.0063
902.341 0.336594 0 -27.6592
910.406 0.327889 0 -27.6628
543.168 0.429801 0 -34.0076
721.499 0.395326 0 -31.5132
906.374 0.332255 0 -27.6613
727.949 0.384287 0 -31.5161
724.724 0.389822 0 -31.5149
540.75 0.436179 0 -34.0063
535.915 0.448838 0 -34.0025
894.277 0.345191 0 -27.6531
902.341 0.336594 0 -27.6592
538.332 0.442525 0 -34.0046
715.05 0.406244 0 -31.5082
898.309 0.340906 0 -27.6565
721.499 0.395326 0 -31.5132
718.275 0.4008 0 -31.511
535.915 0.448838 0 -34.0025
531.079 0.461366 0 -33.9972
886.213 0.353682 0 -27.6443
894.277 0.345191 0 -27.6531
533.497 0.455118 0 -34
708.6 0.41704 0 -31.5012
890.245 0.34945 0 -27.649
715.05 0.406244 0 -31.5082
711.825 0.411657 0 -31.505
531.079 0.461366 0 -33.9972
526.244 0.473762 0 -33.9903
878.149 0.362065 0 -27.6331
886.213 0.353682 0 -27.6443
528.662 0.46758 0 -33.9939
702.151 0.427714 0 -31.4921
882.181 0.357887 0 -27.639
708.6 0.41704 0 -31.5012
705.376 0.422392 0 -31.4969
526.244 0.473762 0 -33.9903
521.409 0.486027 0 -33.982
870.085 0.37034 0 -27.6193
878.149 0.362065 0 -27.6331
523.826 0.479911 0 -33.9863
695.702 0.438265 0 -31.481
874.117 0.366216 0 -27.6265
702.151 0.427714 0 -31.4921
698.926 0.433005 0 -31.4868
521.409 0.486027 0 -33.982
516.574 0.498161 0 -33.9721
862.021 0.378506 0 -27.603
870.085 0.37034 0 -27.6193
518.991 0.492111 0 -33.9772
689.253 0.448694 0 -31.468
866.053 0.374437 0 -27.6115
695.702 0.438265 0 -31.481
692.477 0.443495 0 -31.4748
516.574 0.498161 0 -33.9721
511.739 0.510162 0 -33.9608
853.957 0.386563 0 -27.5843
862.021 0.378506 0 -27.603
514.156 0.504178 0 -33.9666
682.804 0.458999 0 -31.4529
857.989 0.382548 0 -27.594
689.253 0.448694 0 -31.468
686.028 0.453862 0 -31.4607
511.739 0.510162 0 -33.9608
506.904 0.522031 0 -33.9479
845.893 0.39451 0 -27.5631
853.957 0.386563 0 -27.5843
509.321 0.516113 0 -33.9545
676.355 0.469181 0 -31.4359
849.925 0.390551 0 -27.574
682.804 0.458999 0 -31.4529
679.579 0.464106 0 -31.4447
506.904 0.522031 0 -33.9479
502.068 0.533767 0 -33.9337
837.83 0.402348 0 -27.5395
845.893 0.39451 0 -27.5631
504.486 0.527915 0 -33.941
669.906 0.479239 0 -31.417
841.861 0.398443 0 -27.5516
676.355 0.469181 0 -31.4359
673.13 0.474226 0 -31.4267
502.068 0.533767 0 -33.9337
497.234 0.54537 0 -33.918
829.766 0.410075 0 -27.5135
837.83 0.402348 0 -27.5395
499.651 0.539585 0 -33.926
663.457 0.489173 0 -31.3961
833.798 0.406225 0 -27.5268
669.906 0.479239 0 -31.417
666.681 0.484222 0 -31.4068
497.234 0.54537 0 -33.918
492.399 0.55684 0 -33.9009
821.703 0.417691 0 -27.4852
829.766 0.410075 0 -27.5135
494.816 0.551121 0 -33.9096
657.008 0.498982 0 -31.3734
825.735 0.413897 0 -27.4996
663.457 0.489173 0 -31.3961
660.232 0.494093 0 -31.385
492.399 0.55684 0 -33.9009
487.564 0.568176 0 -33.8823
813.64 0.425196 0 -27.4544
821.703 0.417691 0 -27.4852
489.981 0.562525 0 -33.8918
650.559 0.508666 0 -31.3487
817.671 0.421457 0 -27.4701
657.008 0.498982 0 -31.3734
653.784 0.50384 0 -31.3613
487.564 0.568176 0 -33.8823
482.729 0.579379 0 -33.8624
805.577 0.43259 0 -27.4214
813.64 0.425196 0 -27.4544
485.146 0.573795 0 -33.8725
644.111 0.518225 0 -31.3222
809.608 0.428907 0 -27.4382
650.559 0.508666 0 -31.3487
647.335 0.513461 0 -31.3357
482.729 0.579379 0 -33.8624
477.894 0.590449 0 -33.8411
797.514 0.439871 0 -27.386
805.577 0.43259 0 -27.4214
480.311 0.584931 0 -33.8519
637.662 0.527659 0 -31.2939
801.545 0.436245 0 -27.404
644.111 0.518225 0 -31.3222
640.886 0.522958 0 -31.3083
477.894 0.590449 0 -33.8411
473.059 0.601384 0 -33.8184
789.451 0.447041 0 -27.3484
797.514 0.439871 0 -27.386
475.477 0.595933 0 -33.8299
631.214 0.536967 0 -31.2637
793.482 0.44347 0 -27.3675
637.662 0.527659 0 -31.2939
634.438 0.532329 0 -31.279
473.059 0.601384 0 -33.8184
468.225 0.612185 0 -33.7943
781.388 0.454099 0 -27.3085
789.451 0.447041 0 -27.3484
470.642 0.606801 0 -33.8065
624.765 0.546149 0 -31.2317
785.42 0.450584 0 -27.3287
631.214 0.536967 0 -31.2637
627.989 0.541574 0 -31.2479
468.225 0.612185 0 -33.7943
463.39 0.622852 0 -33.769
773.326 0.461044 0 -27.2663
781.388 0.454099 0 -27.3085
465.807 0.617535 0 -33.7818
618.317 0.555206 0 -31.198
777.357 0.457585 0 -27.2877
624.765 0.546149 0 -31.2317
621.541 0.550693 0 -31.2151
463.39 0.622852 0 -33.769
458.555 0.633384 0 -33.7423
765.263 0.467876 0 -27.2219
773.326 0.461044 0 -27.2663
460.973 0.628135 0 -33.7558
611.869 0.564136 0 -31.1624
769.295 0.464474 0 -27.2444
618.317 0.555206 0 -31.198
615.093 0.559687 0 -31.1804
458.555 0.633384 0 -33.7423
453.721 0.643782 0 -33.7142
757.201 0.474596 0 -27.1754
765.263 0.467876 0 -27.2219
456.138 0.6386 0 -33.7284
605.421 0.57294 0 -31.1251
761.232 0.47125 0 -27.1989
611.869 0.564136 0 -31.1624
608.645 0.568553 0 -31.144
453.721 0.643782 0 -33.7142
448.886 0.654045 0 -33.6849
749.139 0.481202 0 -27.1267
757.201 0.474596 0 -27.1754
451.303 0.64893 0 -33.6997
598.973 0.581617 0 -31.0861
753.17 0.477913 0 -27.1513
605.421 0.57294 0 -31.1251
602.197 0.577294 0 -31.1058
448.886 0.654045 0 -33.6849
444.052 0.664173 0 -33.6543
741.077 0.487695 0 -27.0758
749.139 0.481202 0 -27.1267
446.469 0.659126 0 -33.6698
592.525 0.590167 0 -31.0454
745.108 0.484463 0 -27.1015
598.973 0.581617 0 -31.0861
595.749 0.585908 0 -31.0659
444.052 0.664173 0 -33.6543
439.217 0.674166 0 -33.6224
733.015 0.494075 0 -27.0228
741.077 0.487695 0 -27.0758
441.634 0.669186 0 -33.6385
586.077 0.598591 0 -31.0029
737.046 0.490899 0 -27.0496
592.525 0.590167 0 -31.0454
589.301 0.594395 0 -31.0243
439.217 0.674166 0 -33.6224
434.383 0.684024 0 -33.5893
724.953 0.500341 0 -26.9678
733.015 0.494075 0 -27.0228
436.8 0.679112 0 -33.606
579.629 0.606888 0 -30.9588
728.984 0.497222 0 -26.9956
586.077 0.598591 0 -31.0029
582.853 0.602756 0 -30.9811
434.383 0.684024 0 -33.5893
429.548 0.693748 0 -33.5549
716.891 0.506493 0 -26.9106
724.953 0.500341 0 -26.9678
431.966 0.688903 0 -33.5722
573.181 0.615058 0 -30.913
720.922 0.503431 0 -26.9394
579.629 0.606888 0 -30.9588
576.405 0.610989 0 -30.9361
429.548 0.693748 0 -33.5549
424.714 0.703336 0 -33.5193
708.83 0.512532 0 -26.8514
716.891 0.506493 0 -26.9106
427.131 0.698559 0 -33.5372
566.733 0.623102 0 -30.8656
712.86 0.509527 0 -26.8813
573.181 0.615058 0 -30.913
569.957 0.619096 0 -30.8895
424.714 0.703336 0 -33.5193
419.88 0.712789 0 -33.4824
700.768 0.518458 0 -26.7902
708.83 0.512532 0 -26.8514
422.297 0.708079 0 -33.501
560.286 0.631018 0 -30.8166
704.799 0.515509 0 -26.821
566.733 0.623102 0 -30.8656
563.51 0.627076 0 -30.8413
419.88 0.712789 0 -33.4824
415.045 0.722106 0 -33.4444
692.707 0.524269 0 -26.7269
700.768 0.518458 0 -26.7902
417.463 0.717464 0 -33.4636
553.838 0.638807 0 -30.7659
696.737 0.521378 0 -26.7588
560.286 0.631018 0 -30.8166
557.062 0.634928 0 -30.7914
415.045 0.722106 0 -33.4444
410.211 0.731289 0 -33.4052
684.646 0.529967 0 -26.6617
692.707 0.524269 0 -26.7269
412.628 0.726715 0 -33.4249
547.391 0.646469 0 -30.7137
688.676 0.527132 0 -26.6946
553.838 0.638807 0 -30.7659
550.615 0.642654 0 -30.74
410.211 0.731289 0 -33.4052
405.377 0.740336 0 -33.3648
676.584 0.535551 0 -26.5945
684.646 0.529967 0 -26.6617
407.794 0.73583 0 -33.3851
540.944 0.654004 0 -30.6599
680.615 0.532774 0 -26.6284
547.391 0.646469 0 -30.7137
544.167 0.650252 0 -30.687
405.377 0.740336 0 -33.3648
400.543 0.749249 0 -33.3232
668.524 0.541022 0 -26.5254
676.584 0.535551 0 -26.5945
402.96 0.744809 0 -33.3441
534.496 0.661412 0 -30.6045
672.554 0.538301 0 -26.5602
540.944 0.654004 0 -30.6599
537.72 0.657724 0 -30.6324
400.543 0.749249 0 -33.3232
395.709 0.758025 0 -33.2805
660.463 0.546379 0 -26.4544
668.524 0.541022 0 -26.5254
398.126 0.753654 0 -33.302
528.049 0.668693 0 -30.5477
664.493 0.543715 0 -26.4901
534.496 0.661412 0 -30.6045
531.273 0.665068 0 -30.5763
395.709 0.758025 0 -33.2805
390.875 0.766667 0 -33.2367
652.402 0.551622 0 -26.3815
660.463 0.546379 0 -26.4544
393.292 0.762363 0 -33.2587
521.602 0.675847 0 -30.4893
656.432 0.549015 0 -26.4181
528.049 0.668693 0 -30.5477
524.826 0.672286 0 -30.5187
390.875 0.766667 0 -33.2367
386.041 0.775174 0 -33.1917
644.341 0.556752 0 -26.3067
652.402 0.551622 0 -26.3815
388.458 0.770937 0 -33.2143
515.155 0.682874 0 -30.4294
648.372 0.554201 0 -26.3443
521.602 0.675847 0 -30.4893
518.379 0.679376 0 -30.4595
386.041 0.775174 0 -33.1917
381.207 0.783545 0 -33.1456
636.281 0.561769 0 -26.23
644.341 0.556752 0 -26.3067
383.624 0.779377 0 -33.1688
508.708 0.689774 0 -30.368
640.311 0.559275 0 -26.2686
515.155 0.682874 0 -30.4294
511.932 0.68634 0 -30.3989
381.207 0.783545 0 -33.1456
376.373 0.791782 0 -33.0985
628.22 0.566672 0 -26.1516
636.281 0.561769 0 -26.23
378.79 0.787681 0 -33.1222
502.261 0.696548 0 -30.3052
632.251 0.564235 0 -26.191
508.708 0.689774 0 -30.368
505.485 0.693177 0 -30.3368
376.373 0.791782 0 -33.0985
371.539 0.799884 0 -33.0502
620.16 0.571462 0 -26.0713
628.22 0.566672 0 -26.1516
373.956 0.79585 0 -33.0745
495.815 0.703195 0 -30.241
624.19 0.569081 0 -26.1117
502.261 0.696548 0 -30.3052
499.038 0.699887 0 -30.2733
371.539 0.799884 0 -33.0502
366.706 0.80785 0 -33.0009
612.1 0.57614 0 -25.9893
620.16 0.571462 0 -26.0713
369.122 0.803884 0 -33.0257
489.368 0.709715 0 -30.1753
616.13 0.573815 0 -26.0305
495.815 0.703195 0 -30.241
492.591 0.706471 0 -30.2083
366.706 0.80785 0 -33.0009
361.872 0.815682 0 -32.9506
604.04 0.580704 0 -25.9055
612.1 0.57614 0 -25.9893
364.289 0.811783 0 -32.9759
482.921 0.71611 0 -30.1082
608.07 0.578436 0 -25.9476
489.368 0.709715 0 -30.1753
486.144 0.712928 0 -30.1419
361.872 0.815682 0 -32.9506
357.038 0.823379 0 -32.8992
595.98 0.585156 0 -25.82
604.04 0.580704 0 -25.9055
359.455 0.819548 0 -32.925
476.475 0.722377 0 -30.0398
600.01 0.582944 0 -25.863
482.921 0.71611 0 -30.1082
479.698 0.719259 0 -30.0742
357.038 0.823379 0 -32.8992
352.204 0.830942 0 -32.8468
587.92 0.589496 0 -25.7328
595.98 0.585156 0 -25.82
354.621 0.827178 0 -32.8731
470.028 0.728519 0 -29.97
591.95 0.58734 0 -25.7766
476.475 0.722377 0 -30.0398
473.251 0.725464 0 -30.005
352.204 0.830942 0 -32.8468
347.371 0.83837 0 -32.7934
579.861 0.593724 0 -25.6439
587.92 0.589496 0 -25.7328
349.788 0.834673 0 -32.8202
463.582 0.734535 0 -29.8988
583.891 0.591624 0 -25.6886
470.028 0.728519 0 -29.97
466.805 0.731543 0 -29.9345
347.371 0.83837 0 -32.7934
342.537 0.845664 0 -32.739
571.801 0.597839 0 -25.5534
579.861 0.593724 0 -25.6439
344.954 0.842034 0 -32.7663
457.135 0.740425 0 -29.8263
575.831 0.595795 0 -25.5989
463.582 0.734535 0 -29.8988
460.359 0.737496 0 -29.8627
342.537 0.845664 0 -32.739
337.704 0.852824 0 -32.6836
563.742 0.601843 0 -25.4612
571.801 0.597839 0 -25.5534
340.12 0.849261 0 -32.7114
450.689 0.74619 0 -29.7525
567.771 0.599855 0 -25.5075
457.135 0.740425 0 -29.8263
453.912 0.743324 0 -29.7896
337.704 0.852824 0 -32.6836
332.87 0.85985 0 -32.6272
555.682 0.605736 0 -25.3674
563.742 0.601843 0 -25.4612
335.287 0.856354 0 -32.6555
444.243 0.75183 0 -29.6774
559.712 0.603804 0 -25.4145
450.689 0.74619 0 -29.7525
447.466 0.749026 0 -29.7151
332.87 0.85985 0 -32.6272
328.037 0.866742 0 -32.5699
547.623 0.609518 0 -25.272
555.682 0.605736 0 -25.3674
330.453 0.863313 0 -32.5987
437.797 0.757344 0 -29.6011
551.653 0.607641 0 -25.3199
444.243 0.75183 0 -29.6774
441.02 0.754603 0 -29.6394
328.037 0.866742 0 -32.5699
323.203 0.8735 0 -32.5117
539.564 0.613189 0 -25.175
547.623 0.609518 0 -25.272
325.62 0.870138 0 -32.5409
431.351 0.762734 0 -29.5235
543.594 0.611367 0 -25.2237
437.797 0.757344 0 -29.6011
434.574 0.760055 0 -29.5624
323.203 0.8735 0 -32.5117
318.37 0.880125 0 -32.4525
531.505 0.616749 0 -25.0765
539.564 0.613189 0 -25.175
320.787 0.876829 0 -32.4822
424.905 0.767999 0 -29.4446
535.535 0.614983 0 -25.126
431.351 0.762734 0 -29.5235
428.128 0.765382 0 -29.4842
318.37 0.880125 0 -32.4525
313.536 0.886616 0 -32.3924
523.446 0.6202 0 -24.9765
531.505 0.616749 0 -25.0765
315.953 0.883387 0 -32.4225
418.459 0.77314 0 -29.3646
527.476 0.618488 0 -25.0267
424.905 0.767999 0 -29.4446
421.682 0.770585 0 -29.4047
313.536 0.886616 0 -32.3924
308.703 0.892975 0 -32.3314
515.388 0.62354 0 -24.875
523.446 0.6202 0 -24.9765
311.12 0.889812 0 -32.362
412.013 0.778157 0 -29.2833
519.417 0.621884 0 -24.926
418.459 0.77314 0 -29.3646
415.236 0.775664 0 -29.3241
308.703 0.892975 0 -32.3314
303.87 0.8992 0 -32.2695
507.329 0.626772 0 -24.772
515.388 0.62354 0 -24.875
306.287 0.896104 0 -32.3006
405.568 0.78305 0 -29.2009
511.358 0.62517 0 -24.8237
412.013 0.778157 0 -29.2833
408.79 0.780619 0 -29.2422
303.87 0.8992 0 -32.2695
299.037 0.905293 0 -32.2068
499.271 0.629894 0 -24.6676
507.329 0.626772 0 -24.772
301.453 0.902263 0 -32.2383
399.122 0.787819 0 -29.1173
503.3 0.628346 0 -24.72
405.568 0.78305 0 -29.2009
402.345 0.78545 0 -29.1592
299.037 0.905293 0 -32.2068
294.203 0.911253 0 -32.1432
491.212 0.632908 0 -24.5617
499.271 0.629894 0 -24.6676
296.62 0.90829 0 -32.1751
392.676 0.792466 0 -29.0325
495.241 0.631414 0 -24.6148
399.122 0.787819 0 -29.1173
395.899 0.790158 0 -29.075
294.203 0.911253 0 -32.1432
289.37 0.917081 0 -32.0788
483.154 0.635813 0 -24.4544
491.212 0.632908 0 -24.5617
291.787 0.914184 0 -32.1111
386.231 0.79699 0 -28.9467
487.183 0.634374 0 -24.5082
392.676 0.792466 0 -29.0325
389.454 0.794743 0 -28.9897
289.37 0.917081 0 -32.0788
284.537 0.922778 0 -32.0135
475.096 0.638611 0 -24.3458
483.154 0.635813 0 -24.4544
286.954 0.919946 0 -32.0462
379.785 0.801391 0 -28.8597
479.125 0.637226 0 -24.4003
386.231 0.79699 0 -28.9467
383.008 0.799206 0 -28.9033
284.537 0.922778 0 -32.0135
279.704 0.928342 0 -31.9474
467.038 0.641302 0 -24.2358
475.096 0.638611 0 -24.3458
282.121 0.925576 0 -31.9805
373.34 0.80567 0 -28.7716
471.067 0.63997 0 -24.2909
379.785 0.801391 0 -28.8597
376.563 0.803546 0 -28.8158
279.704 0.928342 0 -31.9474
274.871 0.933775 0 -31.8805
458.98 0.643886 0 -24.1244
467.038 0.641302 0 -24.2358
277.288 0.931075 0 -31.9141
366.895 0.809828 0 -28.6825
463.009 0.642607 0 -24.1803
373.34 0.80567 0 -28.7716
370.117 0.807764 0 -28.7272
274.871 0.933775 0 -31.8805
270.038 0.939077 0 -31.8129
450.922 0.646363 0 -24.0118
458.98 0.643886 0 -24.1244
272.455 0.936442 0 -31.8468
360.45 0.813864 0 -28.5924
454.951 0.645138 0 -24.0682
366.895 0.809828 0 -28.6825
363.672 0.811861 0 -28.6376
270.038 0.939077 0 -31.8129
265.205 0.944248 0 -31.7444
442.864 0.648734 0 -23.8978
450.922 0.646363 0 -24.0118
267.622 0.941679 0 -31.7787
354.004 0.817779 0 -28.5011
446.893 0.647562 0 -23.9549
360.45 0.813864 0 -28.5924
357.227 0.815836 0 -28.5469
265.205 0.944248 0 -31.7444
260.372 0.949288 0 -31.6752
434.807 0.651 0 -23.7826
442.864 0.648734 0 -23.8978
262.789 0.946784 0 -31.7099
347.559 0.821573 0 -28.4089
438.836 0.64988 0 -23.8404
354.004 0.817779 0 -28.5011
350.782 0.819691 0 -28.4552
260.372 0.949288 0 -31.6752
255.539 0.954198 0 -31.6053
426.749 0.653161 0 -23.6661
434.807 0.651 0 -23.7826
257.956 0.951759 0 -31.6403
341.114 0.825248 0 -28.3157
430.778 0.652094 0 -23.7245
347.559 0.821573 0 -28.4089
344.337 0.823425 0 -28.3625
255.539 0.954198 0 -31.6053
250.706 0.958978 0 -31.5346
418.692 0.655218 0 -23.5484
426.749 0.653161 0 -23.6661
253.123 0.956604 0 -31.57
334.669 0.828802 0 -28.2215
422.721 0.654203 0 -23.6074
341.114 0.825248 0 -28.3157
337.892 0.82704 0 -28.2688
250.706 0.958978 0 -31.5346
245.874 0.963628 0 -31.4632
410.635 0.657171 0 -23.4296
418.692 0.655218 0 -23.5484
248.29 0.961319 0 -31.499
328.224 0.832237 0 -28.1264
414.663 0.656207 0 -23.4892
334.669 0.828802 0 -28.2215
331.447 0.830534 0 -28.1741
245.874 0.963628 0 -31.4632
241.041 0.968149 0 -31.3911
402.577 0.65902 0 -23.3095
410.635 0.657171 0 -23.4296
243.457 0.965905 0 -31.4272
321.78 0.835553 0 -28.0303
406.606 0.658109 0 -23.3697
328.224 0.832237 0 -28.1264
325.002 0.83391 0 -28.0785
241.041 0.968149 0 -31.3911
236.208 0.972541 0 -31.3183
394.52 0.660767 0 -23.1883
402.577 0.65902 0 -23.3095
238.624 0.970361 0 -31.3548
315.335 0.83875 0 -27.9333
398.549 0.659906 0 -23.2491
321.78 0.835553 0 -28.0303
318.557 0.837167 0 -27.9819
236.208 0.972541 0 -31.3183
231.375 0.976804 0 -31.2449
386.463 0.662411 0 -23.066
394.52 0.660767 0 -23.1883
233.792 0.974688 0 -31.2817
308.89 0.84183 0 -27.8354
390.492 0.661602 0 -23.1273
315.335 0.83875 0 -27.9333
312.113 0.840305 0 -27.8845
231.375 0.976804 0 -31.2449
226.543 0.980938 0 -31.1707
378.407 0.663954 0 -22.9426
386.463 0.662411 0 -23.066
228.959 0.978887 0 -31.2079
302.446 0.844792 0 -27.7366
382.435 0.663196 0 -23.0044
308.89 0.84183 0 -27.8354
305.668 0.843325 0 -27.7861
226.543 0.980938 0 -31.1707
221.71 0.984945 0 -31.096
370.35 0.665396 0 -22.818
378.407 0.663954 0 -22.9426
224.126 0.982957 0 -31.1334
296.001 0.847636 0 -27.637
374.378 0.664688 0 -22.8804
302.446 0.844792 0 -27.7366
299.223 0.846229 0 -27.6869
221.71 0.984945 0 -31.096
216.877 0.988823 0 -31.0205
362.293 0.666737 0 -22.6925
370.35 0.665396 0 -22.818
219.294 0.9869 0 -31.0583
289.557 0.850364 0 -27.5365
366.321 0.666079 0 -22.7554
296.001 0.847636 0 -27.637
292.779 0.849015 0 -27.5868
216.877 0.988823 0 -31.0205
212.045 0.992575 0 -30.9445
354.237 0.667979 0 -22.5659
362.293 0.666737 0 -22.6925
214.461 0.990715 0 -30.9826
283.112 0.852976 0 -27.4352
358.265 0.66737 0 -22.6293
289.557 0.850364 0 -27.5365
286.334 0.851685 0 -27.4859
212.045 0.992575 0 -30.9445
207.212 0.996199 0 -30.8679
346.18 0.669121 0 -22.4382
354.237 0.667979 0 -22.5659
209.628 0.994403 0 -30.9063
276.668 0.855472 0 -27.333
350.208 0.668562 0 -22.5022
283.112 0.852976 0 -27.4352
279.89 0.854238 0 -27.3842
207.212 0.996199 0 -30.8679
202.38 0.999697 0 -30.7907
338.124 0.670164 0 -22.3096
346.18 0.669121 0 -22.4382
204.796 0.997964 0 -30.8293
270.224 0.857853 0 -27.2301
342.152 0.669655 0 -22.374
276.668 0.855472 0 -27.333
273.446 0.856677 0 -27.2817
202.38 0.999697 0 -30.7907
197.547 1.00307 0 -30.7129
330.068 0.67111 0 -22.18
338.124 0.670164 0 -22.3096
199.963 1.0014 0 -30.7518
263.779 0.860119 0 -27.1264
334.096 0.670649 0 -22.2449
270.224 0.857853 0 -27.2301
267.001 0.859 0 -27.1783
197.547 1.00307 0 -30.7129
192.715 1.00631 0 -30.6345
322.011 0.671958 0 -22.0495
330.068 0.67111 0 -22.18
195.131 1.00471 0 -30.6737
257.335 0.86227 0 -27.0219
326.039 0.671546 0 -22.1149
263.779 0.860119 0 -27.1264
260.557 0.861209 0 -27.0743
192.715 1.00631 0 -30.6345
187.882 1.00943 0 -30.5556
313.955 0.67271 0 -21.9181
322.011 0.671958 0 -22.0495
190.298 1.00789 0 -30.5951
250.891 0.864309 0 -26.9168
317.983 0.672346 0 -21.9839
257.335 0.86227 0 -27.0219
254.113 0.863304 0 -26.9694
187.882 1.00943 0 -30.5556
183.05 1.01243 0 -30.4761
305.899 0.673365 0 -21.7857
313.955 0.67271 0 -21.9181
185.466 1.01095 0 -30.5159
244.447 0.866234 0 -26.8108
309.927 0.673049 0 -21.852
250.891 0.864309 0 -26.9168
247.669 0.865285 0 -26.8639
183.05 1.01243 0 -30.4761
178.217 1.0153 0 -30.3961
297.844 0.673925 0 -21.6525
305.899 0.673365 0 -21.7857
180.634 1.01388 0 -30.4362
238.003 0.868046 0 -26.7042
301.871 0.673657 0 -21.7192
244.447 0.866234 0 -26.8108
241.225 0.867154 0 -26.7576
178.217 1.0153 0 -30.3961
173.385 1.01804 0 -30.3156
289.788 0.674391 0 -21.5185
297.844 0.673925 0 -21.6525
175.801 1.01669 0 -30.3559
231.559 0.869746 0 -26.597
293.816 0.67417 0 -21.5856
238.003 0.868046 0 -26.7042
234.781 0.86891 0 -26.6507
173.385 1.01804 0 -30.3156
168.553 1.02067 0 -30.2346
281.732 0.674762 0 -21.3836
289.788 0.674391 0 -21.5185
170.969 1.01937 0 -30.2752
225.115 0.871334 0 -26.489
285.76 0.674588 0 -21.4511
231.559 0.869746 0 -26.597
228.337 0.870554 0 -26.5431
168.553 1.02067 0 -30.2346
163.72 1.02316 0 -30.1532
273.677 0.67504 0 -21.2479
281.732 0.674762 0 -21.3836
166.137 1.02193 0 -30.194
218.671 0.872812 0 -26.3804
277.704 0.674913 0 -21.3158
225.115 0.871334 0 -26.489
221.893 0.872087 0 -26.4348
163.72 1.02316 0 -30.1532
158.888 1.02554 0 -30.0712
265.621 0.675226 0 -21.1114
273.677 0.67504 0 -21.2479
161.304 1.02437 0 -30.1122
212.228 0.874179 0 -26.2712
269.649 0.675144 0 -21.1797
218.671 0.872812 0 -26.3804
215.449 0.873509 0 -26.3259
158.888 1.02554 0 -30.0712
154.056 1.02779 0 -29.9888
257.566 0.675319 0 -20.9742
265.621 0.675226 0 -21.1114
156.472 1.02668 0 -30.0301
205.784 0.875435 0 -26.1614
261.593 0.675284 0 -21.0429
212.228 0.874179 0 -26.2712
209.006 0.874821 0 -26.2164
154.056 1.02779 0 -29.9888
149.224 1.02992 0 -29.906
249.51 0.675321 0 -20.8362
257.566 0.675319 0 -20.9742
151.64 1.02887 0 -29.9475
199.34 0.876582 0 -26.051
253.538 0.675331 0 -20.9053
205.784 0.875435 0 -26.1614
202.562 0.876022 0 -26.1063
149.224 1.02992 0 -29.906
144.391 1.03192 0 -29.8227
241.455 0.675232 0 -20.6975
249.51 0.675321 0 -20.8362
146.808 1.03094 0 -29.8644
192.897 0.877619 0 -25.94
245.483 0.675288 0 -20.767
199.34 0.876582 0 -26.051
196.118 0.877114 0 -25.9956
144.391 1.03192 0 -29.8227
139.559 1.03381 0 -29.7391
233.4 0.675053 0 -20.5582
241.455 0.675232 0 -20.6975
141.975 1.03288 0 -29.781
186.453 0.878548 0 -25.8285
237.428 0.675154 0 -20.6279
192.897 0.877619 0 -25.94
189.675 0.878097 0 -25.8843
139.559 1.03381 0 -29.7391
134.727 1.03557 0 -29.655
225.345 0.674785 0 -20.4181
233.4 0.675053 0 -20.5582
137.143 1.0347 0 -29.6971
180.009 0.879367 0 -25.7164
229.373 0.67493 0 -20.4882
186.453 0.878548 0 -25.8285
183.231 0.878971 0 -25.7725
134.727 1.03557 0 -29.655
129.895 1.0372 0 -29.5706
217.29 0.674427 0 -20.2775
225.345 0.674785 0 -20.4181
132.311 1.0364 0 -29.6128
173.566 0.880077 0 -25.6039
221.318 0.674617 0 -20.3479
180.009 0.879367 0 -25.7164
176.788 0.879736 0 -25.6602
129.895 1.0372 0 -29.5706
125.063 1.03871 0 -29.4857
209.235 0.67398 0 -20.1362
217.29 0.674427 0 -20.2775
127.479 1.03797 0 -29.5282
167.123 0.880678 0 -25.4908
213.263 0.674214 0 -20.2069
173.566 0.880077 0 -25.6039
170.344 0.880391 0 -25.5474
125.063 1.03871 0 -29.4857
120.231 1.0401 0 -29.4006
201.18 0.673444 0 -19.9943
209.235 0.67398 0 -20.1362
122.647 1.03942 0 -29.4432
160.679 0.881169 0 -25.3773
205.208 0.673723 0 -20.0653
167.123 0.880678 0 -25.4908
163.901 0.880937 0 -25.4341
120.231 1.0401 0 -29.4006
115.399 1.04136 0 -29.3151
193.126 0.672819 0 -19.8518
201.18 0.673444 0 -19.9943
117.815 1.04075 0 -29.3579
154.236 0.881549 0 -25.2633
197.153 0.673143 0 -19.9231
160.679 0.881169 0 -25.3773
157.458 0.881373 0 -25.3204
115.399 1.04136 0 -29.3151
110.567 1.04249 0 -29.2292
185.071 0.672104 0 -19.7089
193.126 0.672819 0 -19.8518
112.983 1.04194 0 -29.2722
147.793 0.881816 0 -25.1489
189.098 0.672473 0 -19.7804
154.236 0.881549 0 -25.2633
151.014 0.881697 0 -25.2062
110.567 1.04249 0 -29.2292
105.735 1.0435 0 -29.1431
177.017 0.671297 0 -19.5654
185.071 0.672104 0 -19.7089
108.151 1.04301 0 -29.1862
141.35 0.881968 0 -25.0341
181.044 0.671712 0 -19.6372
147.793 0.881816 0 -25.1489
144.571 0.881906 0 -25.0915
105.735 1.0435 0 -29.1431
100.903 1.04437 0 -29.0567
168.962 0.670397 0 -19.4214
177.017 0.671297 0 -19.5654
103.319 1.04395 0 -29.0999
134.906 0.882002 0 -24.9189
172.989 0.670859 0 -19.4934
141.35 0.881968 0 -25.0341
138.128 0.882 0 -24.9765
100.903 1.04437 0 -29.0567
96.0709 1.04512 0 -28.9699
160.908 0.669404 0 -19.277
168.962 0.670397 0 -19.4214
98.4868 1.04476 0 -29.0133
128.463 0.881922 0 -24.8033
164.935 0.669912 0 -19.3492
134.906 0.882002 0 -24.9189
131.685 0.881976 0 -24.8612
96.0709 1.04512 0 -28.9699
91.2392 1.04578 0 -28.8829
152.853 0.668325 0 -19.1321
160.908 0.669404 0 -19.277
93.655 1.04546 0 -28.9265
122.02 0.88174 0 -24.6874
156.88 0.668874 0 -19.2046
128.463 0.881922 0 -24.8033
125.242 0.881842 0 -24.7454
91.2392 1.04578 0 -28.8829
86.4076 1.04641 0 -28.7955
144.799 0.667179 0 -18.9869
152.853 0.668325 0 -19.1321
88.8234 1.04609 0 -28.8393
115.578 0.881504 0 -24.5711
148.826 0.667758 0 -19.0595
122.02 0.88174 0 -24.6874
118.799 0.881624 0 -24.6293
86.4076 1.04641 0 -28.7955
81.5762 1.04717 0 -28.7078
136.745 0.666032 0 -18.8411
144.799 0.667179 0 -18.9869
83.9919 1.04675 0 -28.7517
109.135 0.881334 0 -24.4543
140.772 0.666597 0 -18.9141
115.578 0.881504 0 -24.5711
112.356 0.881396 0 -24.5128
81.5762 1.04717 0 -28.7078
76.7449 1.04848 0 -28.6196
128.692 0.665031 0 -18.6948
136.745 0.666032 0 -18.8411
79.1605 1.04771 0 -28.6638
102.693 0.881528 0 -24.337
132.718 0.6655 0 -18.7681
109.135 0.881334 0 -24.4543
105.914 0.881358 0 -24.3957
76.7449 1.04848 0 -28.6196
71.9132 1.05108 0 -28.5307
120.639 0.664542 0 -18.5475
128.692 0.665031 0 -18.6948
74.3291 1.04954 0 -28.5752
96.2511 0.882699 0 -24.2185
124.665 0.664682 0 -18.6213
102.693 0.881528 0 -24.337
99.472 0.881917 0 -24.2779
71.9132 1.05108 0 -28.5307
67.0806 1.05672 0 -28.4407
112.587 0.665242 0 -18.3983
120.639 0.664542 0 -18.5475
69.497 1.05335 0 -28.4859
89.8091 0.886216 0 -24.0982
116.613 0.664683 0 -18.4732
96.2511 0.882699 0 -24.2185
93.0301 0.884055 0 -24.1587
67.0806 1.05672 0 -28.4407
62.2442 1.06829 0 -28.3492
104.537 0.668715 0 -18.245
112.587 0.665242 0 -18.3983
64.6632 1.06148 0 -28.3952
83.3663 0.894519 0 -23.9741
108.561 0.666476 0 -18.3224
89.8091 0.886216 0 -24.0982
86.5879 0.889468 0 -24.0368
62.2442 1.06829 0 -28.3492
57.4007 1.09202 0 -28.2549
96.489 0.677396 0 -18.0842
104.537 0.668715 0 -18.245
59.8234 1.07806 0 -28.3025
76.9205 0.912734 0 -23.843
100.513 0.672175 0 -18.1659
83.3663 0.894519 0 -23.9741
80.144 0.902054 0 -23.9097
57.4007 1.09202 0 -28.2549
52.5376 1.13671 0 -28.1571
88.4473 0.697081 0 -17.9076
96.489 0.677396 0 -18.0842
54.9729 1.1109 0 -28.2065
70.4666 0.948678 0 -23.699
92.4668 0.685388 0 -17.9987
76.9205 0.912734 0 -23.843
73.6948 0.927428 0 -23.7734
52.5376 1.13671 0 -28.1571
47.6421 1.22085 0 -28.0528
80.4078 0.734331 0 -17.7035
88.4473 0.697081 0 -17.9076
50.0942 1.17238 0 -28.1061
63.9937 1.0183 0 -23.5317
84.4282 0.712743 0 -17.8099
70.4666 0.948678 0 -23.699
67.2337 0.978648 0 -23.6186
47.6421 1.22085 0 -28.0528
42.6694 1.36332 0 -27.9433
72.3823 0.807735 0 -17.4449
80.4078 0.734331 0 -17.7035
45.1705 1.28293 0 -27.9983
57.4812 1.14031 0 -23.3254
76.391 0.765562 0 -17.5836
63.9937 1.0183 0 -23.5317
60.7432 1.06949 0 -23.4358
42.6694 1.36332 0 -27.9433
37.5834 1.6051 0 -27.8249
64.3413 0.926158 0 -17.1038
72.3823 0.807735 0 -17.4449
40.1404 1.46975 0 -27.8859
50.8849 1.35365 0 -23.058
68.3689 0.858877 0 -17.2866
57.4812 1.14031 0 -23.3254
54.1989 1.23623 0 -23.1988
37.5834 1.6051 0 -27.8249
32.2504 1.95051 0 -27.7186
56.3155 1.14261 0 -16.6103
64.3413 0.926158 0 -17.1038
34.9638 1.76366 0 -27.7671
44.139 1.67688 0 -22.7047
60.3189 1.02277 0 -16.8827
50.8849 1.35365 0 -23.058
47.5317 1.49298 0 -22.8984
32.2504 1.95051 0 -27.7186
26.6214 2.43199 0 -27.638
48.1423 1.41873 0 -15.9357
56.3155 1.14261 0 -16.6103
29.4658 2.18052 0 -27.6749
37.0904 2.1612 0 -22.2613
52.2714 1.26536 0 -16.2965
44.139 1.67688 0 -22.7047
40.6745 1.91329 0 -22.4837
26.6214 2.43199 0 -27.638
20.409 2.81748 0 -27.7116
39.8746 1.88078 0 -14.9745
48.1423 1.41873 0 -15.9357
23.6291 2.6527 0 -27.6404
29.5832 2.66772 0 -21.7819
43.9985 1.64795 0 -15.4993
37.0904 2.1612 0 -22.2613
33.386 2.39729 0 -22.038
20.409 2.81748 0 -27.7116
13.8293 2.80643 0 -28.0401
30.7637 2.07364 0 -13.9404
39.8746 1.88078 0 -14.9745
17.1118 2.93069 0 -27.8378
21.1743 2.97241 0 -21.5405
35.5223 1.98986 0 -14.4449
29.5832 2.66772 0 -21.7819
25.5737 2.94643 0 -21.5632
13.8293 2.80643 0 -28.0401
6.80727 0.78736 0 -28.9583
20.8526 2.01839 0 -13.1951
30.7637 2.07364 0 -13.9404
10.4314 2.16527 0 -28.3969
11.878 1.57935 0 -22.1654
25.8562 2.26054 0 -13.4727
21.1743 2.97241 0 -21.5405
16.5448 2.55008 0 -21.7561
6.80727 0.78736 0 -28.9583
1.5101 -5.47969 0 -29.7616
7.99384 -1.99583 0 -15.2076
20.8526 2.01839 0 -13.1951
3.67023 -1.46869 0 -29.4749
1.73284 -4.8391 0 -24.8876
15.0597 0.614562 0 -13.6241
11.878 1.57935 0 -22.1654
7.09019 -0.35465 0 -23.027
1.5101 -5.47969 0 -29.7616
-1.4458 -21.2796 0 -27.6129
-2.67222 -18.1388 0 -23.377
7.99384 -1.99583 0 -15.2076
-0.184187 -12.2514 0 -29.442
-1.90228 -24.441 0 -27.4298
1.91889 -6.20667 0 -18.0469
1.73284 -4.8391 0 -24.8876
-2.06887 -12.8294 0 -26.8892
-1.4458 -21.2796 0 -27.6129
-1.40312 -39.8892 0 -15.1326
0.541666 -79.9412 0 -24.9543
-2.67222 -18.1388 0 -23.377
-2.05254 -31.3474 0 -23.0694
2.63363 -57.3368 0 -14.7296
-4.41299 -43.4018 0 -28.0025
-1.90228 -24.441 0 -27.4298
0.0518076 -40.2292 0 -24.1511
1486.86 445.464 0 -60.2196
1574.44 169.906 0 -87.9414
2113.84 -39.464 0 28.7749
3275.8 981.4 0 -781.39
1544.77 320.372 0 -101.773
1964.65 120.749 0 -114.08
2351.3 -45.0128 0 -111.164
1748.56 523.827 0 -189.458
1939.63 264.68 0 -178.102
1574.44 169.906 0 -87.9414
1598.28 50.3662 0 -42.5143
2093.08 -22.6636 0 8.27195
2113.84 -39.464 0 28.7749
1596.83 87.2956 0 -63.7836
1890.83 17.4684 0 -20.1005
2096.05 7.11849 0 12.1544
1964.65 120.749 0 -114.08
1914.66 43.4027 0 -46.8836
1598.28 50.3662 0 -42.5143
1578.26 8.71987 0 -16.603
2131.53 7.27549 0 3.02438
2093.08 -22.6636 0 8.27195
1586.27 24.5989 0 -25.4788
1865.82 0.183685 0 -3.2323
2115.27 -14.6082 0 8.25802
1890.83 17.4684 0 -20.1005
1877.2 6.3653 0 -10.3961
1578.26 8.71987 0 -16.603
1564.45 -0.387789 0 -10.9747
2140.79 -2.16109 0 -2.14996
2131.53 7.27549 0 3.02438
1572.15 2.11711 0 -12.7845
1854.18 -2.1892 0 -0.994467
2136.71 6.72438 0 -2.31611
1865.82 0.183685 0 -3.2323
1857.79 -2.22828 0 -0.133423
1564.45 -0.387789 0 -10.9747
1550.6 -3.78476 0 -10.9336
2148.38 2.41478 0 -1.70452
2140.79 -2.16109 0 -2.14996
1556.41 -2.58135 0 -10.3731
1848.76 -2.03347 0 -3.79579
2146.25 -1.51627 0 -1.01855
1854.18 -2.1892 0 -0.994467
1852 -1.91043 0 -2.75547
1550.6 -3.78476 0 -10.9336
1541.02 -3.23327 0 -13.1497
2145.2 -0.364112 0 -2.72778
2148.38 2.41478 0 -1.70452
1545.96 -3.68573 0 -12.0904
1842.15 -1.59741 0 -6.41914
2146.99 1.75502 0 -2.7525
1848.76 -2.03347 0 -3.79579
1845.26 -1.96112 0 -4.97523
1541.02 -3.23327 0 -13.1497
1531.77 -2.64722 0 -15.0646
2140.24 0.50441 0 -2.78679
2145.2 -0.364112 0 -2.72778
1536.11 -2.95954 0 -14.1079
1835.15 -1.0922 0 -8.56222
2143.35 -0.293003 0 -2.51872
1842.15 -1.59741 0 -6.41914
1838.93 -1.26517 0 -7.66509
1531.77 -2.64722 0 -15.0646
1523.55 -1.83705 0 -16.6788
2131.59 -0.117711 0 -3.27663
2140.24 0.50441 0 -2.78679
1527.71 -2.21747 0 -15.9605
1826.97 -0.800683 0 -10.0566
2136.04 0.33753 0 -3.15797
1835.15 -1.0922 0 -8.56222
1831.08 -0.959199 0 -9.35043
1523.55 -1.83705 0 -16.6788
1515.35 -1.33321 0 -17.7634
2122.05 0.0465202 0 -3.55691
2131.59 -0.117711 0 -3.27663
1519.39 -1.56306 0 -17.2616
1818.29 -0.574109 0 -11.0709
2127 -0.113325 0 -3.35856
1826.97 -0.800683 0 -10.0566
1822.74 -0.661829 0 -10.6262
1515.35 -1.33321 0 -17.7634
1507.32 -0.965412 0 -18.5426
2111.45 -0.0788595 0 -3.93332
2122.05 0.0465202 0 -3.55691
1511.35 -1.12634 0 -18.1941
1809.11 -0.458771 0 -11.7842
2116.79 0.0126027 0 -3.77476
1818.29 -0.574109 0 -11.0709
1813.72 -0.514709 0 -11.4541
1507.32 -0.965412 0 -18.5426
1499.27 -0.755459 0 -19.0776
2100.54 -0.0481451 0 -4.26586
2111.45 -0.0788595 0 -3.93332
1503.29 -0.847907 0 -18.8298
1799.72 -0.379545 0 -12.2989
2106.04 -0.0799379 0 -4.08629
1809.11 -0.458771 0 -11.7842
1804.45 -0.411373 0 -12.0614
1499.27 -0.755459 0 -19.0776
1491.24 -0.625065 0 -19.4831
2089.38 -0.0692018 0 -4.61372
2100.54 -0.0481451 0 -4.26586
1495.26 -0.680828 0 -19.2946
1790.17 -0.339247 0 -12.7083
2094.97 -0.0529508 0 -4.44679
1799.72 -0.379545 0 -12.2989
1794.95 -0.358082 0 -12.5133
1491.24 -0.625065 0 -19.4831
1483.19 -0.552018 0 -19.8043
2078.13 -0.0620745 0 -4.95019
2089.38 -0.0692018 0 -4.61372
1487.21 -0.583942 0 -19.6506
1780.55 -0.312207 0 -13.0529
2083.76 -0.0690115 0 -4.77952
1790.17 -0.339247 0 -12.7083
1785.37 -0.323523 0 -12.8864
1483.19 -0.552018 0 -19.8043
1475.14 -0.507359 0 -20.0824
2066.84 -0.0631884 0 -5.28465
2078.13 -0.0620745 0 -4.95019
1479.16 -0.526741 0 -19.9477
1770.89 -0.296232 0 -13.3648
2072.49 -0.0615099 0 -5.11939
1780.55 -0.312207 0 -13.0529
1775.73 -0.303808 0 -13.2119
1475.14 -0.507359 0 -20.0824
1467.07 -0.479606 0 -20.3345
2055.54 -0.0599208 0 -5.61285
2066.84 -0.0631884 0 -5.28465
1471.11 -0.492157 0 -20.2107
1761.22 -0.284037 0 -13.6567
2061.19 -0.0622028 0 -5.44882
1770.89 -0.296232 0 -13.3648
1766.06 -0.289582 0 -13.5126
1467.07 -0.479606 0 -20.3345
1459.01 -0.459717 0 -20.5728
2044.23 -0.0577131 0 -5.93578
2055.54 -0.0599208 0 -5.61285
1463.04 -0.468912 0 -20.4551
1751.54 -0.274408 0 -13.9375
2049.88 -0.0586081 0 -5.77526
1761.22 -0.284037 0 -13.6567
1756.38 -0.279144 0 -13.7982
1459.01 -0.459717 0 -20.5728
1450.94 -0.443924 0 -20.802
2032.92 -0.0549954 0 -6.25298
2044.23 -0.0577131 0 -5.93578
1454.98 -0.451517 0 -20.6883
1741.85 -0.265587 0 -14.2104
2038.57 -0.0564671 0 -6.09498
1751.54 -0.274408 0 -13.9375
1746.69 -0.269884 0 -14.0748
1450.94 -0.443924 0 -20.802
1442.87 -0.429844 0 -21.0252
2021.61 -0.052311 0 -6.56441
2032.92 -0.0549954 0 -6.25298
1446.91 -0.436734 0 -20.9143
1732.16 -0.257192 0 -14.4774
2027.26 -0.0536226 0 -6.40945
1741.85 -0.265587 0 -14.2104
1737.01 -0.261389 0 -14.3446
1442.87 -0.429844 0 -21.0252
1434.81 -0.416529 0 -21.2435
2010.3 -0.0495848 0 -6.87011
2021.61 -0.052311 0 -6.56441
1438.84 -0.423137 0 -21.1349
1722.47 -0.24888 0 -14.7391
2015.95 -0.0509682 0 -6.71796
1732.16 -0.257192 0 -14.4774
1727.32 -0.253022 0 -14.6088
1434.81 -0.416529 0 -21.2435
1426.74 -0.40347 0 -21.4575
1998.99 -0.0467807 0 -7.17005
2010.3 -0.0495848 0 -6.87011
1430.77 -0.40998 0 -21.351
1712.78 -0.240572 0 -14.9958
2004.64 -0.0481854 0 -7.0208
1722.47 -0.24888 0 -14.7391
1717.63 -0.244735 0 -14.868
1426.74 -0.40347 0 -21.4575
1418.67 -0.390492 0 -21.6673
1987.68 -0.0439409 0 -7.46428
1998.99 -0.0467807 0 -7.17005
1422.7 -0.396978 0 -21.5629
1703.1 -0.232225 0 -15.2477
1993.33 -0.0453689 0 -7.31788
1712.78 -0.240572 0 -14.9958
1707.94 -0.236402 0 -15.1223
1418.67 -0.390492 0 -21.6673
1410.6 -0.377522 0 -21.8731
1976.37 -0.0410239 0 -7.75281
1987.68 -0.0439409 0 -7.46428
1414.63 -0.384007 0 -21.7707
1693.41 -0.223835 0 -15.4948
1982.03 -0.0424903 0 -7.60925
1703.1 -0.232225 0 -15.2477
1698.25 -0.228036 0 -15.3718
1410.6 -0.377522 0 -21.8731
1402.53 -0.364547 0 -22.0749
1965.07 -0.038053 0 -8.03568
1976.37 -0.0410239 0 -7.75281
1406.56 -0.371036 0 -21.9745
1683.72 -0.215407 0 -15.737
1970.72 -0.0395458 0 -7.89495
1693.41 -0.223835 0 -15.4948
1688.56 -0.219625 0 -15.6165
1402.53 -0.364547 0 -22.0749
1394.46 -0.351568 0 -22.2727
1953.76 -0.035014 0 -8.31291
1965.07 -0.038053 0 -8.03568
1398.49 -0.358057 0 -22.1743
1674.03 -0.206946 0 -15.9745
1959.41 -0.0365415 0 -8.175
1683.72 -0.215407 0 -15.737
1678.88 -0.21118 0 -15.8564
1394.46 -0.351568 0 -22.2727
1386.39 -0.338593 0 -22.4665
1942.45 -0.031917 0 -8.58455
1953.76 -0.0350139 0 -8.31291
1390.42 -0.345079 0 -22.3701
1664.34 -0.198459 0 -16.2072
1948.1 -0.0334727 0 -8.44943
1674.03 -0.206946 0 -15.9745
1669.19 -0.202705 0 -16.0915
1386.39 -0.338593 0 -22.4665
1378.32 -0.325628 0 -22.6564
1931.14 -0.0287599 0 -8.85063
1942.45 -0.031917 0 -8.58455
1382.35 -0.332109 0 -22.5619
1654.66 -0.189952 0 -16.4352
1936.8 -0.0303457 0 -8.71828
1664.34 -0.198459 0 -16.2072
1659.5 -0.194208 0 -16.3218
1378.32 -0.325628 0 -22.6564
1370.25 -0.31268 0 -22.8423
1919.84 -0.0255482 0 -9.11117
1931.14 -0.0287599 0 -8.85063
1374.28 -0.319152 0 -22.7498
1644.97 -0.181427 0 -16.6584
1925.49 -0.0271607 0 -8.98159
1654.66 -0.189952 0 -16.4352
1649.81 -0.185691 0 -16.5473
1370.25 -0.31268 0 -22.8423
1362.18 -0.299754 0 -23.0243
1908.53 -0.0222837 0 -9.36621
1919.84 -0.0255482 0 -9.11117
1366.21 -0.306214 0 -22.9338
1635.28 -0.172891 0 -16.8769
1914.18 -0.0239223 0 -9.23938
1644.97 -0.181427 0 -16.6584
1640.12 -0.17716 0 -16.7682
1362.18 -0.299754 0 -23.0243
1354.11 -0.286851 0 -23.2024
1897.22 -0.0189702 0 -9.61579
1908.53 -0.0222837 0 -9.36621
1358.14 -0.293299 0 -23.1138
1625.59 -0.164344 0 -17.0907
1902.88 -0.0206329 0 -9.49168
1635.28 -0.172891 0 -16.8769
1630.44 -0.168619 0 -16.9843
1354.11 -0.286851 0 -23.2024
1346.04 -0.273977 0 -23.3766
1885.92 -0.0156106 0 -9.85993
1897.22 -0.0189702 0 -9.61579
1350.08 -0.28041 0 -23.29
1615.91 -0.155792 0 -17.2998
1891.57 -0.0172959 0 -9.73854
1625.59 -0.164344 0 -17.0907
1620.75 -0.160069 0 -17.1958
1346.04 -0.273977 0 -23.3766
1337.97 -0.261132 0 -23.5469
1874.61 -0.0122082 0 -10.0987
1885.92 -0.0156106 0 -9.85993
1342.01 -0.26755 0 -23.4622
1606.22 -0.147235 0 -17.5044
1880.26 -0.0139146 0 -9.97997
1615.91 -0.155792 0 -17.2998
1611.06 -0.151514 0 -17.4027
1337.97 -0.261132 0 -23.5469
1329.9 -0.24832 0 -23.7135
1863.3 -0.00876621 0 -10.332
1874.61 -0.0122082 0 -10.0987
1333.94 -0.254722 0 -23.6307
1596.53 -0.138678 0 -17.7043
1868.96 -0.010492 0 -10.216
1606.22 -0.147235 0 -17.5044
1601.37 -0.142956 0 -17.6049
1329.9 -0.24832 0 -23.7135
1321.83 -0.235543 0 -23.8762
1852 -0.00528762 0 -10.5601
1863.3 -0.0087662 0 -10.332
1325.87 -0.241927 0 -23.7953
1586.84 -0.130122 0 -17.8996
1857.65 -0.00703129 0 -10.4467
1596.53 -0.138678 0 -17.7043
1591.69 -0.1344 0 -17.8025
1321.83 -0.235543 0 -23.8762
1313.76 -0.222803 0 -24.0351
1840.69 -0.00177552 0 -10.7828
1852 -0.00528762 0 -10.5601
1317.8 -0.229168 0 -23.9561
1577.16 -0.121572 0 -18.0904
1846.34 -0.00353556 0 -10.6721
1586.84 -0.130122 0 -17.8996
1582 -0.125846 0 -17.9956
1313.76 -0.222803 0 -24.0351
1305.69 -0.210102 0 -24.1902
1829.38 0.0017671 0 -11.0002
1840.69 -0.00177552 0 -10.7828
1309.73 -0.216447 0 -24.1131
1567.47 -0.113028 0 -18.2767
1835.04 -7.85782e-06 0 -10.8922
1577.16 -0.121572 0 -18.0904
1572.31 -0.117299 0 -18.1841
1305.69 -0.210102 0 -24.1902
1297.63 -0.197443 0 -24.3417
1818.08 0.00533731 0 -11.2125
1829.38 0.0017671 0 -11.0002
1301.66 -0.203767 0 -24.2664
1557.78 -0.104494 0 -18.4585
1823.73 0.00354894 0 -11.107
1567.47 -0.113028 0 -18.2767
1562.63 -0.108759 0 -18.3682
1297.63 -0.197443 0 -24.3417
1289.56 -0.184828 0 -24.4894
1806.77 0.00893217 0 -11.4195
1818.08 0.0053373 0 -11.2125
1293.59 -0.19113 0 -24.416
1548.1 -0.0959716 0 -18.6359
1812.43 0.00713181 0 -11.3166
1557.78 -0.104494 0 -18.4585
1552.94 -0.100231 0 -18.5478
1289.56 -0.184828 0 -24.4894
1281.49 -0.172259 0 -24.6334
1795.47 0.0125489 0 -11.6213
1806.77 0.00893217 0 -11.4195
1285.52 -0.178537 0 -24.5618
1538.41 -0.0874642 0 -18.8088
1801.12 0.010738 0 -11.521
1548.1 -0.0959716 0 -18.6359
1543.25 -0.0917159 0 -18.7229
1281.49 -0.172259 0 -24.6334
1273.42 -0.159737 0 -24.7737
1784.16 0.0161846 0 -11.818
1795.47 0.0125489 0 -11.6213
1277.45 -0.165992 0 -24.704
1528.72 -0.0789739 0 -18.9773
1789.82 0.0143645 0 -11.7203
1538.41 -0.0874642 0 -18.8088
1533.57 -0.0832168 0 -18.8936
1273.42 -0.159737 0 -24.7737
1265.35 -0.147266 0 -24.9104
1772.86 0.0198366 0 -12.0096
1784.16 0.0161846 0 -11.818
1269.38 -0.153495 0 -24.8425
1519.04 -0.0705031 0 -19.1414
1778.51 0.0180088 0 -11.9144
1528.72 -0.0789739 0 -18.9773
1523.88 -0.0747359 0 -19.0599
1265.35 -0.147266 0 -24.9104
1257.28 -0.134846 0 -25.0434
1761.55 0.0235022 0 -12.196
1772.86 0.0198366 0 -12.0096
1261.31 -0.141049 0 -24.9773
1509.35 -0.062054 0 -19.3011
1767.2 0.0216679 0 -12.1034
1519.04 -0.0705031 0 -19.1414
1514.19 -0.0662757 0 -19.2218
1257.28 -0.134846 0 -25.0434
1249.21 -0.12248 0 -25.1729
1750.25 0.0271788 0 -12.3775
1761.55 0.0235022 0 -12.196
1253.25 -0.128656 0 -25.1086
1499.66 -0.0536289 0 -19.4566
1755.9 0.0253393 0 -12.2874
1509.35 -0.062054 0 -19.3011
1504.51 -0.0578383 0 -19.3794
1249.21 -0.12248 0 -25.1729
1241.14 -0.11017 0 -25.2987
1738.94 0.0308637 0 -12.5539
1750.25 0.0271788 0 -12.3775
1245.18 -0.116318 0 -25.2363
1489.98 -0.0452301 0 -19.6077
1744.59 0.0290203 0 -12.4663
1499.66 -0.0536289 0 -19.4566
1494.82 -0.049426 0 -19.5327
1241.14 -0.11017 0 -25.2987
1233.07 -0.0979174 0 -25.4211
1727.64 0.0345543 0 -12.7254
1738.94 0.0308637 0 -12.5539
1237.11 -0.104036 0 -25.3603
1480.29 -0.0368597 0 -19.7546
1733.29 0.0327084 0 -12.6403
1489.98 -0.0452301 0 -19.6077
1485.13 -0.0410412 0 -19.6817
1233.07 -0.0979174 0 -25.4211
1225.01 -0.085724 0 -25.5398
1716.33 0.0382483 0 -12.8919
1727.64 0.0345543 0 -12.7254
1229.04 -0.0918132 0 -25.4809
1470.6 -0.02852 0 -19.8972
1721.99 0.0364011 0 -12.8093
1480.29 -0.0368597 0 -19.7546
1475.45 -0.0326859 0 -19.8264
1225.01 -0.085724 0 -25.5398
1216.94 -0.0735918 0 -25.6551
1705.03 0.041943 0 -13.0535
1716.33 0.0382483 0 -12.8919
1220.97 -0.0796502 0 -25.5979
1460.92 -0.0202131 0 -20.0356
1710.68 0.0400957 0 -12.9733
1470.6 -0.02852 0 -19.8972
1465.76 -0.0243623 0 -19.9669
1216.94 -0.0735918 0 -25.6551
1208.87 -0.0615225 0 -25.7669
1693.72 0.0456362 0 -13.2102
1705.03 0.041943 0 -13.0535
1212.9 -0.0675492 0 -25.7114
1451.23 -0.011941 0 -20.1698
1699.38 0.04379 0 -13.1325
1460.92 -0.0202131 0 -20.0356
1456.08 -0.0160726 0 -20.1032
1208.87 -0.0615225 0 -25.7669
1200.8 -0.0495177 0 -25.8752
1682.42 0.0493254 0 -13.3621
1693.72 0.0456362 0 -13.2102
1204.83 -0.0555119 0 -25.8215
1441.55 -0.00370572 0 -20.2999
1688.07 0.0474814 0 -13.2867
1451.23 -0.011941 0 -20.1698
1446.39 -0.00781864 0 -20.2354
1200.8 -0.0495177 0 -25.8752
1192.73 -0.0375792 0 -25.9801
1671.12 0.0530084 0 -13.5091
1682.42 0.0493254 0 -13.3621
1196.77 -0.04354 0 -25.9281
1431.86 0.00449064 0 -20.4259
1676.77 0.0511679 0 -13.4362
1441.55 -0.00370572 0 -20.2999
1436.7 0.000397493 0 -20.3634
1192.73 -0.0375792 0 -25.9801
1184.66 -0.0257085 0 -26.0815
1659.81 0.0566828 0 -13.6514
1671.12 0.0530084 0 -13.5091
1188.7 -0.0316353 0 -26.0312
1422.18 0.0126462 0 -20.5477
1665.46 0.0548468 0 -13.5808
1431.86 0.00449064 0 -20.4259
1427.02 0.0085736 0 -20.4873
1184.66 -0.0257085 0 -26.0815
1176.6 -0.0139072 0 -26.1796
1648.51 0.0603464 0 -13.7889
1659.81 0.0566828 0 -13.6514
1180.63 -0.019799 0 -26.131
1412.49 0.0207591 0 -20.6655
1654.16 0.0585162 0 -13.7207
1422.18 0.0126462 0 -20.5477
1417.33 0.0167082 0 -20.6071
1176.6 -0.0139072 0 -26.1796
1168.53 -0.00217712 0 -26.2743
1637.21 0.0639972 0 -13.9216
1648.51 0.0603464 0 -13.7889
1172.56 -0.00803321 0 -26.2274
1402.81 0.0288274 0 -20.7792
1642.86 0.0621735 0 -13.8558
1412.49 0.0207591 0 -20.6655
1407.65 0.0247989 0 -20.7228
1168.53 -0.00217712 0 -26.2743
1160.46 0.00948042 0 -26.3656
1625.9 0.0676328 0 -14.0497
1637.21 0.0639972 0 -13.9216
1164.49 0.00366082 0 -26.3204
1393.12 0.0368492 0 -20.8889
1631.55 0.065817 0 -13.9863
1402.81 0.0288274 0 -20.7792
1397.96 0.0328442 0 -20.8345
1160.46 0.00948042 0 -26.3656
1152.39 0.0210638 0 -26.4536
1614.6 0.0712513 0 -14.1732
1625.9 0.0676328 0 -14.0497
1156.43 0.0152815 0 -26.41
1383.44 0.0448228 0 -20.9946
1620.25 0.0694443 0 -14.112
1393.12 0.0368492 0 -20.8889
1388.28 0.0408421 0 -20.9422
1152.39 0.0210638 0 -26.4536
1144.32 0.0325717 0 -26.5383
1603.3 0.0748506 0 -14.292
1614.6 0.0712513 0 -14.1732
1148.36 0.0268273 0 -26.4964
1373.75 0.0527464 0 -21.0963
1608.95 0.0730535 0 -14.2332
1383.44 0.0448228 0 -20.9946
1378.59 0.0487909 0 -21.046
1144.32 0.0325717 0 -26.5383
1136.26 0.0440025 0 -26.6198
1591.99 0.0784287 0 -14.4062
1603.3 0.0748506 0 -14.292
1140.29 0.0382968 0 -26.5795
1364.07 0.0606182 0 -21.1942
1597.65 0.0766424 0 -14.3497
1373.75 0.0527464 0 -21.0963
1368.91 0.0566889 0 -21.1457
1136.26 0.0440025 0 -26.6198
1128.19 0.0553549 0 -26.698
1580.69 0.0819836 0 -14.5159
1591.99 0.0784287 0 -14.4062
1132.22 0.0496886 0 -26.6593
1354.38 0.0684367 0 -21.2881
1586.34 0.0802091 0 -14.4616
1364.07 0.0606182 0 -21.1942
1359.22 0.0645343 0 -21.2416
1128.19 0.0553549 0 -26.698
1120.12 0.0666275 0 -26.7729
1569.39 0.0855135 0 -14.621
1580.69 0.0819836 0 -14.5159
1124.16 0.0610012 0 -26.7358
1344.7 0.0762002 0 -21.3781
1575.04 0.0837518 0 -14.569
1354.38 0.0684367 0 -21.2881
1349.54 0.0723254 0 -21.3336
1120.12 0.0666275 0 -26.7729
1112.06 0.0778188 0 -26.8446
1558.09 0.0890164 0 -14.7216
1569.39 0.0855135 0 -14.621
1116.09 0.0722334 0 -26.8092
1335.01 0.0839069 0 -21.4643
1563.74 0.0872684 0 -14.6719
1344.7 0.0762002 0 -21.3781
1339.86 0.0800607 0 -21.4217
1112.06 0.0778188 0 -26.8446
1103.99 0.0889277 0 -26.9132
1546.79 0.0924907 0 -14.8178
1558.09 0.0890164 0 -14.7216
1108.02 0.0833837 0 -26.8793
1325.33 0.0915555 0 -21.5466
1552.44 0.0907573 0 -14.7703
1335.01 0.0839069 0 -21.4643
1330.17 0.0877386 0 -21.5059
1103.99 0.0889277 0 -26.9132
1095.92 0.0999528 0 -26.9786
1535.48 0.0959343 0 -14.9096
1546.79 0.0924906 0 -14.8178
1099.95 0.0944508 0 -26.9463
1315.65 0.0991443 0 -21.6252
1541.13 0.0942164 0 -14.8642
1325.33 0.0915555 0 -21.5466
1320.49 0.0953575 0 -21.5864
1095.92 0.0999529 0 -26.9786
1087.85 0.110893 0 -27.0408
1524.18 0.0993458 0 -14.9969
1535.48 0.0959343 0 -14.9096
1091.89 0.105434 0 -27.0101
1305.96 0.106672 0 -21.7
1529.83 0.0976442 0 -14.9538
1315.65 0.0991443 0 -21.6252
1310.8 0.102916 0 -21.663
1087.85 0.110893 0 -27.0408
1079.79 0.121747 0 -27.1
1512.88 0.102723 0 -15.0799
1524.18 0.0993458 0 -14.9969
1083.82 0.116331 0 -27.0708
1296.28 0.114137 0 -21.771
1518.53 0.101039 0 -15.039
1305.96 0.106672 0 -21.7
1301.12 0.110412 0 -21.736
1079.79 0.121747 0 -27.1
1071.72 0.132513 0 -27.156
1501.58 0.106065 0 -15.1586
1512.88 0.102723 0 -15.0799
1075.75 0.127141 0 -27.1284
1286.59 0.121537 0 -21.8383
1507.23 0.104399 0 -15.1198
1296.28 0.114137 0 -21.771
1291.44 0.117845 0 -21.8051
1071.72 0.132513 0 -27.156
1063.65 0.143191 0 -27.209
1490.28 0.10937 0 -15.2329
1501.58 0.106065 0 -15.1586
1067.69 0.137863 0 -27.1829
1276.91 0.128873 0 -21.902
1495.93 0.107722 0 -15.1963
1286.59 0.121537 0 -21.8383
1281.75 0.125213 0 -21.8706
1063.65 0.143191 0 -27.209
1055.59 0.153779 0 -27.2589
1478.98 0.112636 0 -15.303
1490.28 0.10937 0 -15.2329
1059.62 0.148496 0 -27.2343
1267.23 0.136141 0 -21.962
1484.63 0.111008 0 -15.2685
1276.91 0.128873 0 -21.902
1272.07 0.132515 0 -21.9324
1055.59 0.153779 0 -27.2589
1047.52 0.164276 0 -27.3058
1467.68 0.115861 0 -15.3689
1478.98 0.112636 0 -15.303
1051.55 0.159039 0 -27.2827
1257.55 0.143341 0 -22.0184
1473.33 0.114254 0 -15.3365
1267.23 0.136141 0 -21.962
1262.39 0.13975 0 -21.9906
1047.52 0.164276 0 -27.3058
1039.45 0.174681 0 -27.3497
1456.38 0.119045 0 -15.4305
1467.68 0.115861 0 -15.3689
1043.49 0.16949 0 -27.3281
1247.86 0.150472 0 -22.0711
1462.03 0.117458 0 -15.4002
1257.55 0.143341 0 -22.0184
1252.7 0.146915 0 -22.0452
1039.45 0.174681 0 -27.3497
1031.39 0.184993 0 -27.3906
1445.08 0.122186 0 -15.488
1456.38 0.119045 0 -15.4305
1035.42 0.179849 0 -27.3705
1238.18 0.157532 0 -22.1203
1450.73 0.120621 0 -15.4598
1247.86 0.150472 0 -22.0711
1243.02 0.154011 0 -22.0962
1031.39 0.184993 0 -27.3906
1023.32 0.195211 0 -27.4286
1433.78 0.125281 0 -15.5413
1445.08 0.122186 0 -15.488
1027.35 0.190114 0 -27.41
1228.5 0.16452 0 -22.1659
1439.43 0.123739 0 -15.5152
1238.18 0.157532 0 -22.1203
1233.34 0.161035 0 -22.1436
1023.32 0.195211 0 -27.4286
1015.25 0.205334 0 -27.4636
1422.48 0.128331 0 -15.5906
1433.78 0.125281 0 -15.5413
1019.29 0.200285 0 -27.4465
1218.81 0.171435 0 -22.2081
1428.13 0.126812 0 -15.5665
1228.5 0.16452 0 -22.1659
1223.66 0.167986 0 -22.1874
1015.25 0.205334 0 -27.4636
1007.19 0.215362 0 -27.4957
1411.18 0.131334 0 -15.6358
1422.48 0.128331 0 -15.5906
1011.22 0.21036 0 -27.48
1209.13 0.178275 0 -22.2467
1416.83 0.129839 0 -15.6137
1218.81 0.171435 0 -22.2081
1213.97 0.174864 0 -22.2278
1007.19 0.215362 0 -27.4957
999.123 0.225292 0 -27.525
1399.88 0.134288 0 -15.6769
1411.18 0.131334 0 -15.6358
1003.16 0.220339 0 -27.5107
1199.45 0.185041 0 -22.2819
1405.53 0.132817 0 -15.6568
1209.13 0.178275 0 -22.2467
1204.29 0.181667 0 -22.2647
999.123 0.225292 0 -27.525
991.057 0.235124 0 -27.5513
1388.58 0.137192 0 -15.714
1399.88 0.134288 0 -15.6769
995.09 0.23022 0 -27.5385
1189.77 0.191729 0 -22.3136
1394.23 0.135746 0 -15.6959
1199.45 0.185041 0 -22.2819
1194.61 0.188395 0 -22.2982
991.057 0.235124 0 -27.5513
982.992 0.244858 0 -27.5749
1377.28 0.140045 0 -15.7472
1388.58 0.137192 0 -15.714
987.025 0.240004 0 -27.5635
1180.09 0.198341 0 -22.3419
1382.93 0.138625 0 -15.7311
1189.77 0.191729 0 -22.3136
1184.93 0.195045 0 -22.3282
982.992 0.244858 0 -27.5749
974.926 0.254492 0 -27.5956
1365.98 0.142846 0 -15.7764
1377.28 0.140045 0 -15.7472
978.959 0.249688 0 -27.5856
1170.4 0.204874 0 -22.3669
1371.63 0.141452 0 -15.7622
1180.09 0.198341 0 -22.3419
1175.25 0.201617 0 -22.3548
974.926 0.254492 0 -27.5956
966.861 0.264026 0 -27.6135
1354.68 0.145593 0 -15.8016
1365.98 0.142846 0 -15.7764
970.893 0.259272 0 -27.6049
1160.72 0.211327 0 -22.3885
1360.33 0.144226 0 -15.7895
1170.4 0.204874 0 -22.3669
1165.56 0.20811 0 -22.3781
966.861 0.264026 0 -27.6135
958.795 0.273459 0 -27.6287
1343.39 0.148286 0 -15.8231
1354.68 0.145593 0 -15.8016
962.828 0.268755 0 -27.6215
1151.04 0.2177 0 -22.4068
1349.04 0.146946 0 -15.8128
1160.72 0.211327 0 -22.3885
1155.88 0.214524 0 -22.398
958.795 0.273459 0 -27.6287
950.73 0.28279 0 -27.6411
1332.09 0.150923 0 -15.8406
1343.39 0.148286 0 -15.8231
954.763 0.278137 0 -27.6352
1141.36 0.223991 0 -22.4217
1337.74 0.149611 0 -15.8323
1151.04 0.2177 0 -22.4068
1146.2 0.220856 0 -22.4147
950.73 0.28279 0 -27.6411
942.665 0.292018 0 -27.6508
1320.79 0.153504 0 -15.8544
1332.09 0.150923 0 -15.8406
946.698 0.287416 0 -27.6463
1131.68 0.230201 0 -22.4335
1326.44 0.152221 0 -15.848
1141.36 0.223991 0 -22.4217
1136.52 0.227107 0 -22.428
942.665 0.292018 0 -27.6508
934.6 0.301142 0 -27.6578
1309.49 0.156027 0 -15.8644
1320.79 0.153504 0 -15.8544
938.633 0.296593 0 -27.6546
1122 0.236327 0 -22.4419
1315.14 0.154773 0 -15.8598
1131.68 0.230201 0 -22.4335
1126.84 0.233275 0 -22.4381
934.6 0.301142 0 -27.6578
926.535 0.310163 0 -27.6621
1298.2 0.158492 0 -15.8706
1309.49 0.156027 0 -15.8644
930.568 0.305666 0 -27.6603
1112.32 0.24237 0 -22.4472
1303.84 0.157267 0 -15.8679
1122 0.236327 0 -22.4419
1117.16 0.239359 0 -22.445
926.535 0.310163 0 -27.6621
918.471 0.319079 0 -27.6638
1286.9 0.160897 0 -15.8731
1298.2 0.158492 0 -15.8706
922.503 0.314634 0 -27.6633
1102.64 0.248328 0 -22.4493
1292.55 0.159702 0 -15.8723
1112.32 0.24237 0 -22.4472
1107.48 0.245359 0 -22.4486
918.471 0.319079 0 -27.6638
910.406 0.327889 0 -27.6628
1275.6 0.163242 0 -15.8719
1286.9 0.160897 0 -15.8731
914.438 0.323497 0 -27.6636
1092.96 0.2542 0 -22.4482
1281.25 0.162077 0 -15.873
1102.64 0.248328 0 -22.4493
1097.8 0.251274 0 -22.4491
910.406 0.327889 0 -27.6628
902.341 0.336594 0 -27.6592
1264.3 0.165526 0 -15.8671
1275.6 0.163242 0 -15.8719
906.374 0.332255 0 -27.6613
1083.28 0.259986 0 -22.444
1269.95 0.164392 0 -15.87
1092.96 0.2542 0 -22.4482
1088.12 0.257104 0 -22.4465
902.341 0.336594 0 -27.6592
894.277 0.345191 0 -27.6531
1253.01 0.167749 0 -15.8587
1264.3 0.165526 0 -15.8671
898.309 0.340906 0 -27.6565
1073.6 0.265685 0 -22.4367
1258.66 0.166645 0 -15.8633
1083.28 0.259986 0 -22.444
1078.44 0.262847 0 -22.4407
894.277 0.345191 0 -27.6531
886.213 0.353682 0 -27.6443
1241.71 0.169908 0 -15.8466
1253.01 0.167749 0 -15.8587
890.245 0.34945 0 -27.649
1063.92 0.271297 0 -22.4263
1247.36 0.168836 0 -15.8531
1073.6 0.265685 0 -22.4367
1068.76 0.268502 0 -22.4318
886.213 0.353682 0 -27.6443
878.149 0.362065 0 -27.6331
1230.42 0.172004 0 -15.8311
1241.71 0.169908 0 -15.8466
882.181 0.357887 0 -27.639
1054.24 0.276821 0 -22.4128
1236.06 0.170964 0 -15.8393
1063.92 0.271297 0 -22.4263
1059.08 0.27407 0 -22.4199
878.149 0.362065 0 -27.6331
870.085 0.37034 0 -27.6193
1219.12 0.174036 0 -15.812
1230.42 0.172004 0 -15.8311
874.117 0.366216 0 -27.6265
1044.56 0.282256 0 -22.3964
1224.77 0.173028 0 -15.822
1054.24 0.276821 0 -22.4128
1049.4 0.27955 0 -22.405
870.085 0.37034 0 -27.6193
862.021 0.378506 0 -27.603
1207.82 0.176003 0 -15.7894
1219.12 0.174036 0 -15.812
866.053 0.374437 0 -27.6115
1034.88 0.287602 0 -22.3769
1213.47 0.175028 0 -15.8011
1044.56 0.282256 0 -22.3964
1039.72 0.28494 0 -22.387
862.021 0.378506 0 -27.603
853.957 0.386563 0 -27.5843
1196.53 0.177905 0 -15.7633
1207.82 0.176003 0 -15.7894
857.989 0.382548 0 -27.594
1025.2 0.292857 0 -22.3545
1202.18 0.176962 0 -15.7768
1034.88 0.287602 0 -22.3769
1030.04 0.290241 0 -22.3661
853.957 0.386563 0 -27.5843
845.893 0.39451 0 -27.5631
1185.23 0.179741 0 -15.7339
1196.53 0.177905 0 -15.7633
849.925 0.390551 0 -27.574
1015.52 0.298023 0 -22.3292
1190.88 0.178831 0 -15.749
1025.2 0.292857 0 -22.3545
1020.36 0.295451 0 -22.3422
845.893 0.39451 0 -27.5631
837.83 0.402348 0 -27.5395
1173.94 0.18151 0 -15.701
1185.23 0.179741 0 -15.7339
841.861 0.398443 0 -27.5516
1005.84 0.303097 0 -22.301
1179.59 0.180634 0 -15.7178
1015.52 0.298023 0 -22.3292
1010.68 0.300571 0 -22.3155
837.83 0.402348 0 -27.5395
829.766 0.410075 0 -27.5135
1162.64 0.183212 0 -15.6648
1173.94 0.18151 0 -15.701
833.798 0.406225 0 -27.5268
996.162 0.30808 0 -22.2698
1168.29 0.182369 0 -15.6833
1005.84 0.303097 0 -22.301
1001 0.3056 0 -22.2858
829.766 0.410075 0 -27.5135
821.703 0.417691 0 -27.4852
1151.35 0.184846 0 -15.6252
1162.64 0.183212 0 -15.6648
825.735 0.413897 0 -27.4996
986.484 0.312971 0 -22.2359
1157 0.184038 0 -15.6454
996.162 0.30808 0 -22.2698
991.323 0.310537 0 -22.2532
821.703 0.417691 0 -27.4852
813.64 0.425196 0 -27.4544
1140.06 0.186413 0 -15.5824
1151.35 0.184846 0 -15.6252
817.671 0.421457 0 -27.4701
976.805 0.317771 0 -22.1991
1145.7 0.185638 0 -15.6042
986.484 0.312971 0 -22.2359
981.645 0.315383 0 -22.2178
813.64 0.425196 0 -27.4544
805.577 0.43259 0 -27.4214
1128.76 0.187911 0 -15.5363
1140.06 0.186413 0 -15.5824
809.608 0.428907 0 -27.4382
967.127 0.322477 0 -22.1595
1134.41 0.18717 0 -15.5597
976.805 0.317771 0 -22.1991
971.966 0.320135 0 -22.1796
805.577 0.43259 0 -27.4214
797.514 0.439871 0 -27.386
1117.47 0.18934 0 -15.4869
1128.76 0.187911 0 -15.5363
801.545 0.436245 0 -27.404
957.449 0.327091 0 -22.1171
1123.12 0.188634 0 -15.512
967.127 0.322477 0 -22.1595
962.288 0.324796 0 -22.1386
797.514 0.439871 0 -27.386
789.451 0.447041 0 -27.3484
1106.17 0.190699 0 -15.4344
1117.47 0.18934 0 -15.4869
793.482 0.44347 0 -27.3675
947.771 0.331611 0 -22.072
1111.82 0.190028 0 -15.4611
957.449 0.327091 0 -22.1171
952.61 0.329363 0 -22.0949
789.451 0.447041 0 -27.3484
781.388 0.454099 0 -27.3085
1094.88 0.19199 0 -15.3787
1106.17 0.190699 0 -15.4344
785.42 0.450584 0 -27.3287
938.094 0.336038 0 -22.0242
1100.53 0.191353 0 -15.4069
947.771 0.331611 0 -22.072
942.933 0.333836 0 -22.0485
781.388 0.454099 0 -27.3085
773.326 0.461044 0 -27.2663
1083.59 0.19321 0 -15.3199
1094.88 0.19199 0 -15.3787
777.357 0.457585 0 -27.2877
928.416 0.340371 0 -21.9737
1089.24 0.192608 0 -15.3497
938.094 0.336038 0 -22.0242
933.255 0.338216 0 -21.9993
773.326 0.461044 0 -27.2663
765.263 0.467876 0 -27.2219
1072.3 0.19436 0 -15.2579
1083.59 0.19321 0 -15.3199
769.295 0.464474 0 -27.2444
918.739 0.34461 0 -21.9206
1077.94 0.193794 0 -15.2893
928.416 0.340371 0 -21.9737
923.578 0.342502 0 -21.9475
765.263 0.467876 0 -27.2219
757.201 0.474596 0 -27.1754
1061 0.195439 0 -15.1929
1072.3 0.19436 0 -15.2579
761.232 0.47125 0 -27.1989
909.062 0.348754 0 -21.8648
1066.65 0.194908 0 -15.2258
918.739 0.34461 0 -21.9206
913.9 0.346694 0 -21.893
757.201 0.474596 0 -27.1754
749.139 0.481202 0 -27.1267
1049.71 0.196448 0 -15.1249
1061 0.195439 0 -15.1929
753.17 0.477913 0 -27.1513
899.385 0.352804 0 -21.8064
1055.36 0.195952 0 -15.1593
909.062 0.348754 0 -21.8648
904.223 0.350791 0 -21.8359
749.139 0.481202 0 -27.1267
741.077 0.487695 0 -27.0758
1038.42 0.197386 0 -15.0539
1049.71 0.196448 0 -15.1249
745.108 0.484463 0 -27.1015
889.708 0.35676 0 -21.7454
1044.06 0.196926 0 -15.0898
899.385 0.352804 0 -21.8064
894.546 0.354794 0 -21.7762
741.077 0.487695 0 -27.0758
733.015 0.494075 0 -27.0228
1027.13 0.198253 0 -14.9799
1038.42 0.197386 0 -15.0539
737.046 0.490899 0 -27.0496
880.031 0.360621 0 -21.6819
1032.77 0.197828 0 -15.0172
889.708 0.35676 0 -21.7454
884.87 0.358702 0 -21.714
733.015 0.494075 0 -27.0228
724.953 0.500341 0 -26.9678
1015.83 0.199049 0 -14.9029
1027.13 0.198253 0 -14.9799
728.984 0.497222 0 -26.9956
870.355 0.364386 0 -21.6159
1021.48 0.19866 0 -14.9417
880.031 0.360621 0 -21.6819
875.193 0.362515 0 -21.6492
724.953 0.500341 0 -26.9678
716.891 0.506493 0 -26.9106
1004.54 0.199773 0 -14.8231
1015.83 0.199049 0 -14.9029
720.922 0.503431 0 -26.9394
860.679 0.368057 0 -21.5474
1010.19 0.19942 0 -14.8633
870.355 0.364386 0 -21.6159
865.517 0.366234 0 -21.5819
716.891 0.506493 0 -26.9106
708.83 0.512532 0 -26.8514
993.252 0.200426 0 -14.7403
1004.54 0.199773 0 -14.8231
712.86 0.509527 0 -26.8813
851.002 0.371633 0 -21.4764
998.898 0.200109 0 -14.7821
860.679 0.368057 0 -21.5474
855.841 0.369857 0 -21.5122
708.83 0.512532 0 -26.8514
700.768 0.518458 0 -26.7902
981.961 0.201008 0 -14.6548
993.252 0.200426 0 -14.7403
704.799 0.515509 0 -26.821
841.327 0.375113 0 -21.403
987.607 0.200726 0 -14.6979
851.002 0.371633 0 -21.4764
846.164 0.373385 0 -21.44
700.768 0.518458 0 -26.7902
692.707 0.524269 0 -26.7269
970.67 0.201518 0 -14.5664
981.961 0.201008 0 -14.6548
696.737 0.521378 0 -26.7588
831.651 0.378498 0 -21.3272
976.316 0.201272 0 -14.6109
841.327 0.375113 0 -21.403
836.489 0.376818 0 -21.3654
692.707 0.524269 0 -26.7269
684.646 0.529967 0 -26.6617
959.38 0.201957 0 -14.4752
970.67 0.201518 0 -14.5664
688.676 0.527132 0 -26.6946
821.975 0.381789 0 -21.249
965.025 0.201746 0 -14.5212
831.651 0.378498 0 -21.3272
826.813 0.380155 0 -21.2884
684.646 0.529967 0 -26.6617
676.584 0.535551 0 -26.5945
948.09 0.202324 0 -14.3813
959.38 0.201957 0 -14.4752
680.615 0.532774 0 -26.6284
812.3 0.384984 0 -21.1684
953.735 0.20215 0 -14.4286
821.975 0.381789 0 -21.249
817.137 0.383398 0 -21.209
676.584 0.535551 0 -26.5945
668.524 0.541022 0 -26.5254
936.799 0.20262 0 -14.2847
948.09 0.202324 0 -14.3813
672.554 0.538301 0 -26.5602
802.624 0.388084 0 -21.0856
942.444 0.202481 0 -14.3334
812.3 0.384984 0 -21.1684
807.462 0.386545 0 -21.1273
668.524 0.541022 0 -26.5254
660.463 0.546379 0 -26.4544
925.51 0.202845 0 -14.1855
936.799 0.20262 0 -14.2847
664.493 0.543715 0 -26.4901
792.949 0.391088 0 -21.0004
931.154 0.202742 0 -14.2354
802.624 0.388084 0 -21.0856
797.787 0.389598 0 -21.0433
660.463 0.546379 0 -26.4544
652.402 0.551622 0 -26.3815
914.22 0.202999 0 -14.0835
925.51 0.202845 0 -14.1855
656.432 0.549015 0 -26.4181
783.274 0.393998 0 -20.913
919.865 0.202931 0 -14.1348
792.949 0.391088 0 -21.0004
788.112 0.392555 0 -20.957
652.402 0.551622 0 -26.3815
644.341 0.556752 0 -26.3067
902.93 0.203082 0 -13.979
914.22 0.202999 0 -14.0835
648.372 0.554201 0 -26.3443
773.6 0.396813 0 -20.8233
908.575 0.203049 0 -14.0316
783.274 0.393998 0 -20.913
778.437 0.395418 0 -20.8684
644.341 0.556752 0 -26.3067
636.281 0.561769 0 -26.23
891.641 0.203094 0 -13.8718
902.93 0.203082 0 -13.979
640.311 0.559275 0 -26.2686
763.925 0.399534 0 -20.7314
897.286 0.203097 0 -13.9257
773.6 0.396813 0 -20.8233
768.762 0.398186 0 -20.7776
636.281 0.561769 0 -26.23
628.22 0.566672 0 -26.1516
880.352 0.203035 0 -13.7622
891.641 0.203094 0 -13.8718
632.251 0.564235 0 -26.191
754.251 0.40216 0 -20.6373
885.997 0.203073 0 -13.8173
763.925 0.399534 0 -20.7314
759.088 0.400859 0 -20.6846
628.22 0.566672 0 -26.1516
620.16 0.571462 0 -26.0713
869.064 0.202906 0 -13.65
880.352 0.203035 0 -13.7622
624.19 0.569081 0 -26.1117
744.576 0.404691 0 -20.5411
874.708 0.202979 0 -13.7064
754.251 0.40216 0 -20.6373
749.414 0.403437 0 -20.5895
620.16 0.571462 0 -26.0713
612.1 0.57614 0 -25.9893
857.775 0.202706 0 -13.5353
869.064 0.202906 0 -13.65
616.13 0.573815 0 -26.0305
734.902 0.407129 0 -20.4427
863.419 0.202815 0 -13.5929
744.576 0.404691 0 -20.5411
739.739 0.405922 0 -20.4922
612.1 0.57614 0 -25.9893
604.04 0.580704 0 -25.9055
846.487 0.202437 0 -13.4181
857.775 0.202706 0 -13.5353
608.07 0.578436 0 -25.9476
725.229 0.409472 0 -20.3422
852.131 0.20258 0 -13.477
734.902 0.407129 0 -20.4427
730.065 0.408312 0 -20.3927
604.04 0.580704 0 -25.9055
595.98 0.585156 0 -25.82
835.199 0.202098 0 -13.2986
846.487 0.202437 0 -13.4181
600.01 0.582944 0 -25.863
715.555 0.411722 0 -20.2397
840.843 0.202276 0 -13.3587
725.229 0.409472 0 -20.3422
720.392 0.410609 0 -20.2912
595.98 0.585156 0 -25.82
587.92 0.589496 0 -25.7328
823.911 0.20169 0 -13.1767
835.199 0.202098 0 -13.2986
591.95 0.58734 0 -25.7766
705.881 0.413878 0 -20.1351
829.555 0.201903 0 -13.2379
715.555 0.411722 0 -20.2397
710.718 0.412812 0 -20.1877
587.92 0.589496 0 -25.7328
579.861 0.593724 0 -25.6439
812.623 0.201212 0 -13.0524
823.911 0.20169 0 -13.1767
583.891 0.591624 0 -25.6886
696.208 0.415941 0 -20.0285
818.267 0.20146 0 -13.1148
705.881 0.413878 0 -20.1351
701.044 0.414921 0 -20.0821
579.861 0.593724 0 -25.6439
571.801 0.597839 0 -25.5534
801.336 0.200666 0 -12.9257
812.623 0.201212 0 -13.0524
575.831 0.595795 0 -25.5989
686.535 0.417911 0 -19.9199
806.979 0.200948 0 -12.9893
696.208 0.415941 0 -20.0285
691.371 0.416938 0 -19.9745
571.801 0.597839 0 -25.5534
563.742 0.601843 0 -25.4612
790.049 0.200052 0 -12.7968
801.336 0.200666 0 -12.9257
567.771 0.599855 0 -25.5075
676.862 0.419789 0 -19.8094
795.692 0.200368 0 -12.8616
686.535 0.417911 0 -19.9199
681.698 0.418862 0 -19.8649
563.742 0.601843 0 -25.4612
555.682 0.605736 0 -25.3674
778.762 0.19937 0 -12.6656
790.049 0.200052 0 -12.7968
559.712 0.603804 0 -25.4145
667.189 0.421575 0 -19.6969
784.405 0.19972 0 -12.7315
676.862 0.419789 0 -19.8094
672.025 0.420693 0 -19.7533
555.682 0.605736 0 -25.3674
547.623 0.609518 0 -25.272
767.475 0.19862 0 -12.5322
778.762 0.19937 0 -12.6656
551.653 0.607641 0 -25.3199
657.516 0.423268 0 -19.5825
773.118 0.199004 0 -12.5992
667.189 0.421575 0 -19.6969
662.352 0.422433 0 -19.6399
547.623 0.609518 0 -25.272
539.564 0.613189 0 -25.175
756.188 0.197804 0 -12.3967
767.475 0.19862 0 -12.5322
543.594 0.611367 0 -25.2237
647.843 0.42487 0 -19.4662
761.832 0.19822 0 -12.4647
657.516 0.423268 0 -19.5825
652.68 0.424081 0 -19.5245
539.564 0.613189 0 -25.175
531.505 0.616749 0 -25.0765
744.902 0.19692 0 -12.2589
756.188 0.197804 0 -12.3967
535.535 0.614983 0 -25.126
638.171 0.426381 0 -19.348
750.545 0.19737 0 -12.328
647.843 0.42487 0 -19.4662
643.007 0.425637 0 -19.4073
531.505 0.616749 0 -25.0765
523.446 0.6202 0 -24.9765
733.616 0.195971 0 -12.119
744.902 0.19692 0 -12.2589
527.476 0.618488 0 -25.0267
628.499 0.427802 0 -19.2281
739.259 0.196454 0 -12.1892
638.171 0.426381 0 -19.348
633.335 0.427103 0 -19.2883
523.446 0.6202 0 -24.9765
515.388 0.62354 0 -24.875
722.33 0.194956 0 -11.977
733.616 0.195971 0 -12.119
519.417 0.621884 0 -24.926
618.827 0.429132 0 -19.1063
727.973 0.195472 0 -12.0483
628.499 0.427802 0 -19.2281
623.663 0.428478 0 -19.1674
515.388 0.62354 0 -24.875
507.329 0.626772 0 -24.772
711.044 0.193876 0 -11.833
722.33 0.194956 0 -11.977
511.358 0.62517 0 -24.8237
609.155 0.430372 0 -18.9828
716.687 0.194424 0 -11.9053
618.827 0.429132 0 -19.1063
613.991 0.429763 0 -19.0448
507.329 0.626772 0 -24.772
499.271 0.629894 0 -24.6676
699.759 0.192732 0 -11.6869
711.044 0.193876 0 -11.833
503.3 0.628346 0 -24.72
599.483 0.431523 0 -18.8575
705.402 0.193312 0 -11.7602
609.155 0.430372 0 -18.9828
604.319 0.430959 0 -18.9204
499.271 0.629894 0 -24.6676
491.212 0.632908 0 -24.5617
688.474 0.191524 0 -11.5388
699.759 0.192732 0 -11.6869
495.241 0.631414 0 -24.6148
589.811 0.432585 0 -18.7305
694.116 0.192136 0 -11.6131
599.483 0.431523 0 -18.8575
594.647 0.432065 0 -18.7942
491.212 0.632908 0 -24.5617
483.154 0.635813 0 -24.4544
677.189 0.190252 0 -11.3888
688.474 0.191524 0 -11.5388
487.183 0.634374 0 -24.5082
580.14 0.433559 0 -18.6019
682.831 0.190896 0 -11.4641
589.811 0.432585 0 -18.7305
584.976 0.433083 0 -18.6664
483.154 0.635813 0 -24.4544
475.096 0.638611 0 -24.3458
665.904 0.188917 0 -11.2368
677.189 0.190252 0 -11.3888
479.125 0.637226 0 -24.4003
570.469 0.434445 0 -18.4715
671.546 0.189592 0 -11.3131
580.14 0.433559 0 -18.6019
575.304 0.434013 0 -18.5369
475.096 0.638611 0 -24.3458
467.038 0.641302 0 -24.2358
654.619 0.187521 0 -11.0829
665.904 0.188917 0 -11.2368
471.067 0.63997 0 -24.2909
560.798 0.435244 0 -18.3396
660.262 0.188227 0 -11.1601
570.469 0.434445 0 -18.4715
565.633 0.434855 0 -18.4058
467.038 0.641302 0 -24.2358
458.98 0.643886 0 -24.1244
643.335 0.186063 0 -10.9272
654.619 0.187521 0 -11.0829
463.009 0.642607 0 -24.1803
551.127 0.435955 0 -18.206
648.977 0.186799 0 -11.0053
560.798 0.435244 0 -18.3396
555.962 0.43561 0 -18.273
458.98 0.643886 0 -24.1244
450.922 0.646363 0 -24.0118
632.051 0.184544 0 -10.7696
643.335 0.186063 0 -10.9272
454.951 0.645138 0 -24.0682
541.456 0.436581 0 -18.0709
637.693 0.185311 0 -10.8486
551.127 0.435955 0 -18.206
546.291 0.436279 0 -18.1387
450.922 0.646363 0 -24.0118
442.864 0.648734 0 -23.8978
620.767 0.182965 0 -10.6102
632.051 0.184544 0 -10.7696
446.893 0.647562 0 -23.9549
531.785 0.437121 0 -17.9342
626.409 0.183762 0 -10.6901
541.456 0.436581 0 -18.0709
536.62 0.436862 0 -18.0027
442.864 0.648734 0 -23.8978
434.807 0.651 0 -23.7826
609.483 0.181327 0 -10.449
620.767 0.182965 0 -10.6102
438.836 0.64988 0 -23.8404
522.115 0.437576 0 -17.796
615.125 0.182153 0 -10.5298
531.785 0.437121 0 -17.9342
526.95 0.437359 0 -17.8653
434.807 0.651 0 -23.7826
426.749 0.653161 0 -23.6661
598.2 0.179629 0 -10.2861
609.483 0.181327 0 -10.449
430.778 0.652094 0 -23.7245
512.444 0.437947 0 -17.6563
603.841 0.180485 0 -10.3678
522.115 0.437576 0 -17.796
517.279 0.437772 0 -17.7263
426.749 0.653161 0 -23.6661
418.692 0.655218 0 -23.5484
586.916 0.177874 0 -10.1215
598.2 0.179629 0 -10.2861
422.721 0.654203 0 -23.6074
502.774 0.438234 0 -17.5152
592.558 0.178759 0 -10.204
512.444 0.437947 0 -17.6563
507.609 0.438101 0 -17.5859
418.692 0.655218 0 -23.5484
410.635 0.657171 0 -23.4296
575.633 0.176062 0 -9.95521
586.916 0.177874 0 -10.1215
414.663 0.656207 0 -23.4892
493.104 0.438437 0 -17.3726
581.275 0.176975 0 -10.0386
502.774 0.438234 0 -17.5152
497.939 0.438346 0 -17.444
410.635 0.657171 0 -23.4296
402.577 0.65902 0 -23.3095
564.35 0.174193 0 -9.78727
575.633 0.176062 0 -9.95521
406.606 0.658109 0 -23.3697
483.434 0.438558 0 -17.2286
569.992 0.175135 0 -9.87144
493.104 0.438437 0 -17.3726
488.269 0.438508 0 -17.3007
402.577 0.65902 0 -23.3095
394.52 0.660767 0 -23.1883
553.067 0.172269 0 -9.61772
564.35 0.174193 0 -9.78727
398.549 0.659906 0 -23.2491
473.765 0.438598 0 -17.0832
558.709 0.173238 0 -9.70269
483.434 0.438558 0 -17.2286
478.599 0.438588 0 -17.156
394.52 0.660767 0 -23.1883
386.463 0.662411 0 -23.066
541.785 0.170289 0 -9.44658
553.067 0.172269 0 -9.61772
390.492 0.661602 0 -23.1273
464.095 0.438556 0 -16.9364
547.426 0.171286 0 -9.53234
473.765 0.438598 0 -17.0832
468.93 0.438587 0 -17.01
386.463 0.662411 0 -23.066
378.407 0.663954 0 -22.9426
530.503 0.168255 0 -9.2739
541.785 0.170289 0 -9.44658
382.435 0.663196 0 -23.0044
454.426 0.438433 0 -16.7884
536.144 0.169279 0 -9.36043
464.095 0.438556 0 -16.9364
459.26 0.438505 0 -16.8626
378.407 0.663954 0 -22.9426
370.35 0.665396 0 -22.818
519.221 0.166169 0 -9.09971
530.503 0.168255 0 -9.2739
374.378 0.664688 0 -22.8804
444.756 0.438231 0 -16.639
524.862 0.167219 0 -9.18699
454.426 0.438433 0 -16.7884
449.591 0.438342 0 -16.7138
370.35 0.665396 0 -22.818
362.293 0.666737 0 -22.6925
507.939 0.164029 0 -8.92403
519.221 0.166169 0 -9.09971
366.321 0.666079 0 -22.7554
435.087 0.43795 0 -16.4884
513.58 0.165105 0 -9.01205
444.756 0.438231 0 -16.639
439.922 0.438101 0 -16.5638
362.293 0.666737 0 -22.6925
354.237 0.667979 0 -22.5659
496.657 0.161838 0 -8.7469
507.939 0.164029 0 -8.92403
358.265 0.66737 0 -22.6293
425.418 0.437591 0 -16.3365
502.298 0.16294 0 -8.83565
435.087 0.43795 0 -16.4884
430.253 0.43778 0 -16.4126
354.237 0.667979 0 -22.5659
346.18 0.669121 0 -22.4382
485.375 0.159597 0 -8.56836
496.657 0.161838 0 -8.7469
350.208 0.668562 0 -22.5022
415.749 0.437154 0 -16.1834
491.016 0.160724 0 -8.65781
425.418 0.437591 0 -16.3365
420.584 0.437382 0 -16.2601
346.18 0.669121 0 -22.4382
338.124 0.670164 0 -22.3096
474.094 0.157305 0 -8.38843
485.375 0.159597 0 -8.56836
342.152 0.669655 0 -22.374
406.081 0.43664 0 -16.0291
479.735 0.158457 0 -8.47856
415.749 0.437154 0 -16.1834
410.915 0.436906 0 -16.1064
338.124 0.670164 0 -22.3096
330.068 0.67111 0 -22.18
462.813 0.154965 0 -8.20714
474.094 0.157305 0 -8.38843
334.096 0.670649 0 -22.2449
396.412 0.43605 0 -15.8737
468.454 0.156141 0 -8.29795
406.081 0.43664 0 -16.0291
401.246 0.436354 0 -15.9515
330.068 0.67111 0 -22.18
322.011 0.671958 0 -22.0495
451.532 0.152577 0 -8.02454
462.813 0.154965 0 -8.20714
326.039 0.671546 0 -22.1149
386.744 0.435385 0 -15.7171
457.173 0.153777 0 -8.116
396.412 0.43605 0 -15.8737
391.578 0.435726 0 -15.7955
322.011 0.671958 0 -22.0495
313.955 0.67271 0 -21.9181
440.251 0.150141 0 -7.84064
451.532 0.152577 0 -8.02454
317.983 0.672346 0 -21.9839
377.075 0.434645 0 -15.5594
445.892 0.151365 0 -7.93275
386.744 0.435385 0 -15.7171
381.91 0.435024 0 -15.6384
313.955 0.67271 0 -21.9181
305.899 0.673365 0 -21.7857
428.971 0.14766 0 -7.65549
440.251 0.150141 0 -7.84064
309.927 0.673049 0 -21.852
367.407 0.433831 0 -15.4007
434.611 0.148906 0 -7.74822
377.075 0.434645 0 -15.5594
372.241 0.434247 0 -15.4802
305.899 0.673365 0 -21.7857
297.844 0.673925 0 -21.6525
417.691 0.145133 0 -7.46911
428.971 0.14766 0 -7.65549
301.871 0.673657 0 -21.7192
357.739 0.432945 0 -15.2409
423.331 0.146402 0 -7.56245
367.407 0.433831 0 -15.4007
362.573 0.433397 0 -15.3209
297.844 0.673925 0 -21.6525
289.788 0.674391 0 -21.5185
406.41 0.142562 0 -7.28155
417.691 0.145133 0 -7.46911
293.816 0.67417 0 -21.5856
348.072 0.431987 0 -15.08
412.05 0.143853 0 -7.37548
357.739 0.432945 0 -15.2409
352.905 0.432475 0 -15.1606
289.788 0.674391 0 -21.5185
281.732 0.674762 0 -21.3836
395.13 0.139948 0 -7.09282
406.41 0.142562 0 -7.28155
285.76 0.674588 0 -21.4511
338.404 0.430957 0 -14.9182
400.77 0.14126 0 -7.18733
348.072 0.431987 0 -15.08
343.238 0.431481 0 -14.9992
281.732 0.674762 0 -21.3836
273.677 0.67504 0 -21.2479
383.851 0.137291 0 -6.90296
395.13 0.139948 0 -7.09282
277.704 0.674913 0 -21.3158
328.736 0.429857 0 -14.7554
389.491 0.138625 0 -6.99803
338.404 0.430957 0 -14.9182
333.57 0.430416 0 -14.8369
273.677 0.67504 0 -21.2479
265.621 0.675226 0 -21.1114
372.571 0.134593 0 -6.71201
383.851 0.137291 0 -6.90296
269.649 0.675144 0 -21.1797
319.069 0.428688 0 -14.5917
378.211 0.135947 0 -6.80762
328.736 0.429857 0 -14.7554
323.903 0.429281 0 -14.6737
265.621 0.675226 0 -21.1114
257.566 0.675319 0 -20.9742
361.292 0.131855 0 -6.52
372.571 0.134593 0 -6.71201
261.593 0.675284 0 -21.0429
309.402 0.42745 0 -14.4271
366.931 0.133229 0 -6.61614
319.069 0.428688 0 -14.5917
314.235 0.428077 0 -14.5095
257.566 0.675319 0 -20.9742
249.51 0.675321 0 -20.8362
350.013 0.129078 0 -6.32696
361.292 0.131855 0 -6.52
253.538 0.675331 0 -20.9053
299.734 0.426144 0 -14.2616
355.652 0.130471 0 -6.42361
309.402 0.42745 0 -14.4271
304.568 0.426805 0 -14.3444
249.51 0.675321 0 -20.8362
241.455 0.675232 0 -20.6975
338.733 0.126262 0 -6.13292
350.013 0.129078 0 -6.32696
245.483 0.675288 0 -20.767
290.067 0.424771 0 -14.0952
344.373 0.127674 0 -6.23006
299.734 0.426144 0 -14.2616
294.901 0.425465 0 -14.1785
241.455 0.675232 0 -20.6975
233.4 0.675053 0 -20.5582
327.455 0.123409 0 -5.93791
338.733 0.126262 0 -6.13292
237.428 0.675154 0 -20.6279
280.401 0.423331 0 -13.928
333.094 0.12484 0 -6.03553
290.067 0.424771 0 -14.0952
285.234 0.424059 0 -14.0117
233.4 0.675053 0 -20.5582
225.345 0.674785 0 -20.4181
316.176 0.12052 0 -5.74197
327.455 0.123409 0 -5.93791
229.373 0.67493 0 -20.4882
270.734 0.421827 0 -13.76
321.815 0.121969 0 -5.84005
280.401 0.423331 0 -13.928
275.567 0.422587 0 -13.8441
225.345 0.674785 0 -20.4181
217.29 0.674427 0 -20.2775
304.897 0.117596 0 -5.54513
316.176 0.12052 0 -5.74197
221.318 0.674617 0 -20.3479
261.067 0.420258 0 -13.5912
310.537 0.119062 0 -5.64366
270.734 0.421827 0 -13.76
265.9 0.42105 0 -13.6757
217.29 0.674427 0 -20.2775
209.235 0.67398 0 -20.1362
293.619 0.114638 0 -5.34742
304.897 0.117596 0 -5.54513
213.263 0.674214 0 -20.2069
251.401 0.418625 0 -13.4217
299.258 0.116121 0 -5.44638
261.067 0.420258 0 -13.5912
256.234 0.419449 0 -13.5066
209.235 0.67398 0 -20.1362
201.18 0.673444 0 -19.9943
282.341 0.111647 0 -5.14887
293.619 0.114638 0 -5.34742
205.208 0.673723 0 -20.0653
241.734 0.416929 0 -13.2515
287.98 0.113147 0 -5.24824
251.401 0.418625 0 -13.4217
246.567 0.417785 0 -13.3367
201.18 0.673444 0 -19.9943
193.126 0.672819 0 -19.8518
271.063 0.108624 0 -4.94951
282.341 0.111647 0 -5.14887
197.153 0.673143 0 -19.9231
232.068 0.415171 0 -13.0806
276.702 0.11014 0 -5.04929
241.734 0.416929 0 -13.2515
236.901 0.416058 0 -13.1661
193.126 0.672819 0 -19.8518
185.071 0.672104 0 -19.7089
259.785 0.105572 0 -4.74939
271.063 0.108624 0 -4.94951
189.098 0.672473 0 -19.7804
222.402 0.413351 0 -12.909
265.424 0.107102 0 -4.84954
232.068 0.415171 0 -13.0806
227.235 0.414269 0 -12.9949
185.071 0.672104 0 -19.7089
177.017 0.671297 0 -19.5654
248.507 0.10249 0 -4.54852
259.785 0.105572 0 -4.74939
181.044 0.671712 0 -19.6372
212.736 0.411468 0 -12.7369
254.146 0.104034 0 -4.64904
222.402 0.413351 0 -12.909
217.569 0.412417 0 -12.823
177.017 0.671297 0 -19.5654
168.962 0.670397 0 -19.4214
237.23 0.0993816 0 -4.34694
248.507 0.10249 0 -4.54852
172.989 0.670859 0 -19.4934
203.07 0.409524 0 -12.5641
242.869 0.100939 0 -4.44782
212.736 0.411468 0 -12.7369
207.903 0.410504 0 -12.6506
168.962 0.670397 0 -19.4214
160.908 0.669404 0 -19.277
225.952 0.0962465 0 -4.14469
237.23 0.0993816 0 -4.34694
164.935 0.669912 0 -19.3492
193.404 0.407517 0 -12.3908
231.591 0.097817 0 -4.2459
203.07 0.409524 0 -12.5641
198.237 0.408528 0 -12.4775
160.908 0.669404 0 -19.277
152.853 0.668325 0 -19.1321
214.675 0.093093 0 -3.94179
225.952 0.0962465 0 -4.14469
156.88 0.668874 0 -19.2046
183.738 0.405447 0 -12.217
220.313 0.0946716 0 -4.04332
193.404 0.407517 0 -12.3908
188.571 0.40649 0 -12.3039
152.853 0.668325 0 -19.1321
144.799 0.667179 0 -18.9869
203.397 0.0899187 0 -3.73827
214.675 0.093093 0 -3.94179
148.826 0.667758 0 -19.0595
174.072 0.40332 0 -12.0427
209.036 0.0915091 0 -3.8401
183.738 0.405447 0 -12.217
178.905 0.40439 0 -12.1299
144.799 0.667179 0 -18.9869
136.745 0.666032 0 -18.8411
192.119 0.0867326 0 -3.53417
203.397 0.0899187 0 -3.73827
140.772 0.666597 0 -18.9141
164.406 0.40114 0 -11.8679
197.758 0.0883226 0 -3.63629
174.072 0.40332 0 -12.0427
169.239 0.402237 0 -11.9553
136.745 0.666032 0 -18.8411
128.692 0.665031 0 -18.6948
180.841 0.0835562 0 -3.32953
192.119 0.0867326 0 -3.53417
132.718 0.6655 0 -18.7681
154.74 0.398956 0 -11.6926
186.48 0.0851559 0 -3.4319
164.406 0.40114 0 -11.8679
159.573 0.400042 0 -11.7803
128.692 0.665031 0 -18.6948
120.639 0.664542 0 -18.5475
169.562 0.0803125 0 -3.12438
180.841 0.0835562 0 -3.32953
124.665 0.664682 0 -18.6213
145.075 0.396811 0 -11.5165
175.201 0.0819098 0 -3.22704
154.74 0.398956 0 -11.6926
149.908 0.397879 0 -11.6047
120.639 0.664542 0 -18.5475
112.587 0.665242 0 -18.3983
158.284 0.0772667 0 -2.91887
169.562 0.0803125 0 -3.12438
116.613 0.664683 0 -18.4732
135.411 0.394966 0 -11.3393
163.923 0.0788593 0 -3.02159
145.075 0.396811 0 -11.5165
140.243 0.395821 0 -11.4281
112.587 0.665242 0 -18.3983
104.537 0.668715 0 -18.245
147.006 0.0735998 0 -2.71287
158.284 0.0772667 0 -2.91887
108.561 0.666476 0 -18.3224
125.75 0.393633 0 -11.1594
152.645 0.0753048 0 -2.81607
135.411 0.394966 0 -11.3393
130.58 0.39424 0 -11.2498
104.537 0.668715 0 -18.245
96.489 0.677396 0 -18.0842
135.735 0.071263 0 -2.50729
147.006 0.0735998 0 -2.71287
100.513 0.672175 0 -18.1659
116.096 0.393913 0 -10.9746
141.369 0.0728344 0 -2.60968
125.75 0.393633 0 -11.1594
120.921 0.393435 0 -11.0679
96.489 0.677396 0 -18.0842
88.4473 0.697081 0 -17.9076
124.473 0.0647788 0 -2.3009
135.735 0.071263 0 -2.50729
92.4668 0.685388 0 -17.9987
106.454 0.396616 0 -10.7791
130.102 0.0673445 0 -2.40482
116.096 0.393913 0 -10.9746
111.273 0.395037 0 -10.8786
88.4473 0.697081 0 -17.9076
80.4078 0.734331 0 -17.7035
113.253 0.0659703 0 -2.09826
124.473 0.0647788 0 -2.3009
84.4282 0.712743 0 -17.8099
96.8437 0.405574 0 -10.5637
118.856 0.0675489 0 -2.19765
106.454 0.396616 0 -10.7791
101.643 0.399677 0 -10.6752
80.4078 0.734331 0 -17.7035
72.3823 0.807735 0 -17.4449
102.087 0.0439538 0 -1.89245
113.253 0.0659703 0 -2.09826
76.391 0.765562 0 -17.5836
87.2812 0.423503 0 -10.3092
107.662 0.0513029 0 -1.99865
96.8437 0.405574 0 -10.5637
92.0565 0.414122 0 -10.442
72.3823 0.807735 0 -17.4449
64.3413 0.926158 0 -17.1038
91.1051 0.0624541 0 -1.70377
102.087 0.0439538 0 -1.89245
68.3689 0.858877 0 -17.2866
77.8283 0.461462 0 -9.98517
96.5633 0.0645144 0 -1.78972
87.2812 0.423503 0 -10.3092
82.5329 0.436955 0 -10.1613
64.3413 0.926158 0 -17.1038
56.3155 1.14261 0 -16.6103
80.342 -0.0364799 0 -1.50002
91.1051 0.0624541 0 -1.70377
60.3189 1.02277 0 -16.8827
68.5203 0.528208 0 -9.5422
85.69 -0.00667202 0 -1.61723
77.8283 0.461462 0 -9.98517
73.1608 0.495869 0 -9.77726
56.3155 1.14261 0 -16.6103
48.1423 1.41873 0 -15.9357
70.2727 0.0624151 0 -1.36186
80.342 -0.0364799 0 -1.50002
52.2714 1.26536 0 -16.2965
59.5417 0.648937 0 -8.89139
75.1938 0.0704193 0 -1.39472
68.5203 0.528208 0 -9.5422
63.9599 0.567884 0 -9.26421
48.1423 1.41873 0 -15.9357
39.8746 1.88078 0 -14.9745
60.9423 -0.392593 0 -1.15823
70.2727 0.0624151 0 -1.36186
43.9985 1.64795 0 -15.4993
50.8557 0.849603 0 -7.96482
65.4803 -0.267729 0 -1.33245
59.5417 0.648937 0 -8.89139
55.2012 0.763777 0 -8.44059
39.8746 1.88078 0 -14.9745
30.7637 2.07364 0 -13.9404
53.8417 0.0657545 0 -1.16513
60.9423 -0.392593 0 -1.15823
35.5223 1.98986 0 -14.4449
42.9256 1.16131 0 -6.55834
57.085 0.117394 0 -1.0068
50.8557 0.849603 0 -7.96482
46.6886 0.9333 0 -7.40156
30.7637 2.07364 0 -13.9404
20.8526 2.01839 0 -13.1951
49.2313 -1.74064 0 -0.677457
53.8417 0.0657545 0 -1.16513
25.8562 2.26054 0 -13.4727
34.6992 1.59583 0 -5.03063
50.9564 -1.41209 0 -1.34055
42.9256 1.16131 0 -6.55834
39.1061 1.47289 0 -5.64691
20.8526 2.01839 0 -13.1951
7.99384 -1.99583 0 -15.2076
53.1992 1.53726 0 0.66448
49.2313 -1.74064 0 -0.677457
15.0597 0.614562 0 -13.6241
25.6782 1.32498 0 -4.01256
50.2067 1.05 0 0.242427
34.6992 1.59583 0 -5.03063
30.0767 1.49947 0 -4.62458
7.99384 -1.99583 0 -15.2076
-2.67222 -18.1388 0 -23.377
74.551 7.22103 0 11.4361
53.1992 1.53726 0 0.66448
1.91889 -6.20667 0 -18.0469
3.06019 -10.1213 0 -13.5226
58.9657 -2.42959 0 2.26946
25.6782 1.32498 0 -4.01256
18.1935 -0.644155 0 -5.74797
-2.67222 -18.1388 0 -23.377
0.541666 -79.9412 0 -24.9543
9.84962 -101.182 0 -65.2261
74.551 7.22103 0 11.4361
-4.41299 -43.4018 0 -28.0025
-8.91522 -100.769 0 -39.4316
77.9085 18.3866 0 4.61701
3.06019 -10.1213 0 -13.5226
-7.78855 -33.9937 0 -25.3197
      </DataArray> 
      <DataArray type="Float64" NumberOfComponents="4" Name="GreenStrain" format="ascii">
-0.00148772 -1.11022e-16 0.000637593 -0.000505856
-0.00106082 0.000336246 0.000310531 1.94319e-05
-0.000761585 0.000151076 0.000261647 -5.66108e-05
-0.000676415 0 0.000289892 -3.86628e-05
-0.00118003 0.000374881 0.000345066 -7.12104e-05
-0.000963289 0.000234104 0.000312508 -7.33705e-05
-0.000724216 7.137e-05 0.000279791 -6.56943e-05
-0.000794974 0 0.000340703 -0.000122768
-0.000929298 0.000158424 0.000330375 -0.000115078
-0.00106082 0.000336246 0.000310531 1.94319e-05
-0.00104844 0.000324846 0.000310112 6.01625e-06
-0.000791286 0.000214232 0.000247308 -2.69363e-05
-0.000761585 0.000151076 0.000261647 -5.66108e-05
-0.00104529 0.000310256 0.000315013 8.49512e-06
-0.000941823 0.000274501 0.000285995 -1.2275e-05
-0.000785089 0.000195663 0.000252611 -4.0811e-05
-0.000963289 0.000234104 0.000312508 -7.33705e-05
-0.000949841 0.000265194 0.00029342 -2.96834e-05
-0.00104844 0.000324846 0.000310112 6.01625e-06
-0.0010633 0.000315645 0.000320424 2.79666e-06
-0.000787456 0.000231913 0.00023809 -1.00216e-05
-0.000791286 0.000214232 0.000247308 -2.69363e-05
-0.00105841 0.000324173 0.000314672 6.0975e-06
-0.000931974 0.000279307 0.000279714 -1.25948e-06
-0.000789101 0.000225232 0.000241658 -1.58271e-05
-0.000941823 0.000274501 0.000285995 -1.2275e-05
-0.000936708 0.000277954 0.000282323 -5.95565e-06
-0.0010633 0.000315645 0.000320424 2.79666e-06
-0.00106938 0.000321803 0.000320389 -3.25548e-07
-0.000781906 0.000234314 0.000234682 -6.27464e-06
-0.000787456 0.000231913 0.00023809 -1.00216e-05
-0.001066 0.00031672 0.00032112 -5.60552e-07
-0.000926557 0.000278716 0.000277646 3.24086e-07
-0.000785381 0.000234251 0.000236199 -7.49993e-06
-0.000931974 0.000279307 0.000279714 -1.25948e-06
-0.000928347 0.000279289 0.000278168 8.12281e-07
-0.00106938 0.000321803 0.000320389 -3.25548e-07
-0.00107248 0.000320641 0.000322217 2.1651e-07
-0.000775501 0.000233903 0.000232114 -6.12463e-06
-0.000781906 0.000234314 0.000234682 -6.27464e-06
-0.00107201 0.000322299 0.000321306 5.38261e-07
-0.00092385 0.000277817 0.000276871 -1.32173e-06
-0.000778218 0.000234184 0.000233157 -5.82563e-06
-0.000926557 0.000278716 0.000277646 3.24086e-07
-0.000925443 0.000278244 0.000277371 -7.3726e-07
-0.00107248 0.000320641 0.000322217 2.1651e-07
-0.00107129 0.000321557 0.000321313 -1.99283e-07
-0.000770639 0.000232177 0.000230769 -7.4181e-06
-0.000775501 0.000233903 0.000232114 -6.12463e-06
-0.00107187 0.000320763 0.000321905 -3.41031e-07
-0.000920487 0.000276605 0.000275949 -2.83041e-06
-0.000773171 0.000233149 0.000231438 -6.8056e-06
-0.00092385 0.000277817 0.000276871 -1.32173e-06
-0.000922093 0.000277254 0.00027636 -1.99185e-06
-0.00107129 0.000321557 0.000321313 -1.99283e-07
-0.00106866 0.000320369 0.000320695 1.09386e-08
-0.000765935 0.000230496 0.000229474 -8.50083e-06
-0.000770639 0.000232177 0.000230769 -7.4181e-06
-0.00107034 0.000321239 0.000321043 6.2101e-08
-0.000916913 0.000275304 0.000274975 -4.01733e-06
-0.000768147 0.000231302 0.000230076 -7.96112e-06
-0.000920487 0.000276605 0.000275949 -2.83041e-06
-0.000918828 0.000275956 0.000275516 -3.5378e-06
-0.00106866 0.000320369 0.000320695 1.09386e-08
-0.0010644 0.000319379 0.000319297 -6.45238e-08
-0.000761709 0.000228863 0.000228362 -9.38125e-06
-0.000765935 0.000230496 0.000229474 -8.50083e-06
-0.00106657 0.000319819 0.000320035 -1.08686e-07
-0.000912776 0.000273935 0.000273789 -4.78049e-06
-0.000763842 0.000229674 0.000228929 -8.99938e-06
-0.000916913 0.000275304 0.000274975 -4.01733e-06
-0.000914856 0.000274629 0.000274383 -4.42566e-06
-0.0010644 0.000319379 0.000319297 -6.45238e-08
-0.00105959 0.00031786 0.000317886 -7.49513e-09
-0.000757532 0.000227388 0.000227205 -9.91484e-06
-0.000761709 0.000228863 0.000228362 -9.38125e-06
-0.0010621 0.000318686 0.000318607 2.63367e-09
-0.000908397 0.000272523 0.000272518 -5.2325e-06
-0.000759587 0.000228105 0.000227778 -9.6744e-06
-0.000912776 0.000273935 0.000273789 -4.78049e-06
-0.000910635 0.000273231 0.000273173 -5.04673e-06
-0.00105959 0.00031786 0.000317886 -7.49513e-09
-0.0010543 0.00031633 0.000316273 -1.7953e-08
-0.000753467 0.000226009 0.000226053 -1.02505e-05
-0.000757532 0.000227388 0.000227205 -9.91484e-06
-0.00105697 0.000317088 0.000317091 -3.15484e-08
-0.000903786 0.000271092 0.000271155 -5.49182e-06
-0.000755504 0.000226689 0.000226635 -1.01092e-05
-0.000908397 0.000272523 0.000272518 -5.2325e-06
-0.000906101 0.000271809 0.000271839 -5.37899e-06
-0.0010543 0.00031633 0.000316273 -1.7953e-08
-0.00104884 0.000314678 0.000314641 -3.99995e-09
-0.000749411 0.000224706 0.000224874 -1.04296e-05
-0.000753467 0.000226009 0.000226053 -1.02505e-05
-0.00105159 0.000315519 0.000315461 -1.73093e-09
-0.000899078 0.000269649 0.000269755 -5.62566e-06
-0.000751432 0.00022535 0.000225464 -1.03525e-05
-0.000903786 0.000271092 0.000271155 -5.49182e-06
-0.000901447 0.000270372 0.000270461 -5.57113e-06
-0.00104884 0.000314678 0.000314641 -3.99995e-09
-0.00104326 0.000313015 0.000312963 -4.33178e-09
-0.000745376 0.000223445 0.000223685 -1.05276e-05
-0.000749411 0.000224706 0.000224874 -1.04296e-05
-0.00104606 0.000313846 0.000313804 -8.22891e-09
-0.000894297 0.000268202 0.000268326 -5.69505e-06
-0.000747395 0.000224072 0.000224281 -1.04875e-05
-0.000899078 0.000269649 0.000269755 -5.62566e-06
-0.00089669 0.000268926 0.000269042 -5.66618e-06
-0.00104326 0.000313015 0.000312963 -4.33178e-09
-0.00103764 0.000311328 0.000311279 -1.24004e-09
-0.000741342 0.000222211 0.000222485 -1.05742e-05
-0.000745376 0.000223445 0.000223685 -1.05276e-05
-0.00104046 0.000312174 0.000312121 -6.84928e-10
-0.000889487 0.000266752 0.000266887 -5.72637e-06
-0.000743358 0.000222826 0.000223085 -1.0555e-05
-0.000894297 0.000268202 0.000268326 -5.69505e-06
-0.000891896 0.000267477 0.000267608 -5.71399e-06
-0.00103764 0.000311328 0.000311279 -1.24004e-09
-0.00103201 0.000309637 0.000309587 -8.43782e-10
-0.000737311 0.000220991 0.00022128 -1.05964e-05
-0.000741342 0.000222211 0.000222485 -1.05742e-05
-0.00103483 0.000310482 0.000310433 -1.83833e-09
-0.000884659 0.000265301 0.000265439 -5.74042e-06
-0.000739327 0.0002216 0.000221883 -1.05877e-05
-0.000889487 0.000266752 0.000266887 -5.72637e-06
-0.000887074 0.000266027 0.000266163 -5.73489e-06
-0.00103201 0.000309637 0.000309587 -8.43782e-10
-0.00102636 0.000307944 0.000307894 -2.54408e-10
-0.000733278 0.000219777 0.000220072 -1.06052e-05
-0.000737311 0.000220991 0.00022128 -1.05964e-05
-0.00102918 0.000308791 0.00030874 -1.05257e-10
-0.000879825 0.000263851 0.000263989 -5.74536e-06
-0.000735294 0.000220383 0.000220676 -1.06018e-05
-0.000884659 0.000265301 0.000265439 -5.74042e-06
-0.000882243 0.000264576 0.000264714 -5.74359e-06
-0.00102636 0.000307944 0.000307894 -2.54408e-10
-0.00102072 0.00030625 0.0003062 -9.26459e-11
-0.000729247 0.000218568 0.000218862 -1.06084e-05
-0.000733278 0.000219777 0.000220072 -1.06052e-05
-0.00102354 0.000307097 0.000307047 -3.09122e-10
-0.000874988 0.000262401 0.000262538 -5.7468e-06
-0.000731263 0.000219172 0.000219467 -1.06073e-05
-0.000879825 0.000263851 0.000263989 -5.74536e-06
-0.000877407 0.000263126 0.000263263 -5.74635e-06
-0.00102072 0.00030625 0.0003062 -9.26459e-11
-0.00101507 0.000304556 0.000304507 -1.33592e-11
-0.000725214 0.000217359 0.000217652 -1.06089e-05
-0.000729247 0.000218568 0.000218862 -1.06084e-05
-0.00101789 0.000305403 0.000305353 3.13385e-11
-0.00087015 0.00026095 0.000261086 -5.74671e-06
-0.000727231 0.000217963 0.000218257 -1.06088e-05
-0.000874988 0.000262401 0.000262538 -5.7468e-06
-0.000872569 0.000261675 0.000261812 -5.74684e-06
-0.00101507 0.000304556 0.000304507 -1.33592e-11
-0.00100943 0.000302863 0.000302814 2.29715e-11
-0.000721182 0.000216152 0.000216442 -1.06087e-05
-0.000725214 0.000217359 0.000217652 -1.06089e-05
-0.00101225 0.000303709 0.00030366 -1.33823e-11
-0.000865312 0.0002595 0.000259634 -5.74627e-06
-0.000723198 0.000216756 0.000217047 -1.06089e-05
-0.00087015 0.00026095 0.000261086 -5.74671e-06
-0.000867731 0.000260225 0.00026036 -5.7465e-06
-0.00100943 0.000302863 0.000302814 2.29715e-11
-0.00100378 0.00030117 0.000301121 2.05022e-11
-0.00071715 0.000214945 0.000215231 -1.06082e-05
-0.000721182 0.000216152 0.000216442 -1.06087e-05
-0.00100661 0.000302016 0.000301967 3.50849e-11
-0.000860474 0.00025805 0.000258182 -5.74582e-06
-0.000719166 0.000215548 0.000215836 -1.06084e-05
-0.000865312 0.0002595 0.000259634 -5.74627e-06
-0.000862893 0.000258775 0.000258908 -5.74603e-06
-0.00100378 0.00030117 0.000301121 2.05022e-11
-0.000998142 0.000299477 0.000299428 2.33843e-11
-0.000713117 0.000213738 0.00021402 -1.06078e-05
-0.00071715 0.000214945 0.000215231 -1.06082e-05
-0.00100096 0.000300323 0.000300274 2.06759e-11
-0.000855637 0.0002566 0.00025673 -5.74548e-06
-0.000715134 0.000214341 0.000214625 -1.0608e-05
-0.000860474 0.00025805 0.000258182 -5.74582e-06
-0.000858056 0.000257325 0.000257456 -5.74563e-06
-0.000998142 0.000299477 0.000299428 2.33843e-11
-0.000992499 0.000297784 0.000297735 1.61705e-11
-0.000709085 0.00021253 0.000212809 -1.06075e-05
-0.000713117 0.000213738 0.00021402 -1.06078e-05
-0.00099532 0.00029863 0.000298582 2.1046e-11
-0.000850799 0.00025515 0.000255278 -5.74526e-06
-0.000711101 0.000213134 0.000213415 -1.06077e-05
-0.000855637 0.0002566 0.00025673 -5.74548e-06
-0.000853218 0.000255875 0.000256004 -5.74536e-06
-0.000992499 0.000297784 0.000297735 1.61705e-11
-0.000986857 0.000296091 0.000296043 1.43083e-11
-0.000705053 0.000211323 0.000211598 -1.06074e-05
-0.000709085 0.00021253 0.000212809 -1.06075e-05
-0.000989678 0.000296937 0.000296889 1.54652e-11
-0.000845962 0.0002537 0.000253826 -5.74514e-06
-0.000707069 0.000211927 0.000212204 -1.06074e-05
-0.000850799 0.00025515 0.000255278 -5.74526e-06
-0.000848381 0.000254425 0.000254552 -5.74519e-06
-0.000986857 0.000296091 0.000296043 1.43083e-11
-0.000981215 0.000294398 0.00029435 1.07634e-11
-0.00070102 0.000210116 0.000210388 -1.06073e-05
-0.000705053 0.000211323 0.000211598 -1.06074e-05
-0.000984036 0.000295245 0.000295196 1.23238e-11
-0.000841125 0.00025225 0.000252375 -5.74507e-06
-0.000703037 0.00021072 0.000210993 -1.06073e-05
-0.000845962 0.0002537 0.000253826 -5.74514e-06
-0.000843543 0.000252975 0.000253101 -5.7451e-06
-0.000981215 0.000294398 0.00029435 1.07634e-11
-0.000975573 0.000292706 0.000292658 9.52699e-12
-0.000696988 0.000208909 0.000209177 -1.06072e-05
-0.00070102 0.000210116 0.000210388 -1.06073e-05
-0.000978394 0.000293552 0.000293504 1.02434e-11
-0.000836288 0.0002508 0.000250923 -5.74505e-06
-0.000699004 0.000209512 0.000209782 -1.06073e-05
-0.000841125 0.00025225 0.000252375 -5.74507e-06
-0.000838706 0.000251525 0.000251649 -5.74506e-06
-0.000975573 0.000292706 0.000292658 9.53361e-12
-0.000969932 0.000291013 0.000290965 8.22937e-12
-0.000692956 0.000207701 0.000207966 -1.06072e-05
-0.000696988 0.000208909 0.000209177 -1.06072e-05
-0.000972753 0.000291859 0.000291811 8.70078e-12
-0.00083145 0.00024935 0.000249471 -5.74505e-06
-0.000694972 0.000208305 0.000208572 -1.06072e-05
-0.000836288 0.0002508 0.000250923 -5.74505e-06
-0.000833869 0.000250075 0.000250197 -5.74505e-06
-0.000969932 0.000291013 0.000290965 8.22937e-12
-0.00096429 0.00028932 0.000289273 7.74417e-12
-0.000688923 0.000206494 0.000206755 -1.06072e-05
-0.000692956 0.000207701 0.000207966 -1.06072e-05
-0.000967111 0.000290167 0.000290119 7.99932e-12
-0.000826613 0.0002479 0.00024802 -5.74506e-06
-0.00069094 0.000207098 0.000207361 -1.06072e-05
-0.00083145 0.00024935 0.000249471 -5.74505e-06
-0.000829032 0.000248625 0.000248746 -5.74505e-06
-0.00096429 0.00028932 0.000289273 7.74832e-12
-0.000958648 0.000287628 0.00028758 7.34364e-12
-0.000684891 0.000205287 0.000205545 -1.06073e-05
-0.000688923 0.000206494 0.000206755 -1.06072e-05
-0.000961469 0.000288474 0.000288426 7.47503e-12
-0.000821776 0.000246451 0.000246568 -5.74508e-06
-0.000686907 0.00020589 0.00020615 -1.06073e-05
-0.000826613 0.0002479 0.00024802 -5.74506e-06
-0.000824195 0.000247176 0.000247294 -5.74507e-06
-0.000958648 0.000287628 0.00028758 7.34364e-12
-0.000953006 0.000285935 0.000285888 7.19367e-12
-0.000680859 0.000204079 0.000204334 -1.06073e-05
-0.000684891 0.000205287 0.000205545 -1.06073e-05
-0.000955827 0.000286781 0.000286734 7.2688e-12
-0.000816939 0.000245001 0.000245116 -5.74509e-06
-0.000682875 0.000204683 0.000204939 -1.06073e-05
-0.000821776 0.000246451 0.000246568 -5.74508e-06
-0.000819358 0.000245726 0.000245842 -5.74508e-06
-0.000953006 0.000285935 0.000285888 7.19367e-12
-0.000947364 0.000284242 0.000284195 7.07697e-12
-0.000676827 0.000202872 0.000203123 -1.06073e-05
-0.000680859 0.000204079 0.000204334 -1.06073e-05
-0.000950185 0.000285089 0.000285041 7.1129e-12
-0.000812102 0.000243551 0.000243665 -5.74511e-06
-0.000678843 0.000203476 0.000203729 -1.06073e-05
-0.000816939 0.000245001 0.000245116 -5.74509e-06
-0.000814521 0.000244276 0.000244391 -5.7451e-06
-0.000947364 0.000284242 0.000284195 7.07697e-12
-0.000941723 0.00028255 0.000282503 7.02569e-12
-0.000672795 0.000201665 0.000201913 -1.06073e-05
-0.000676827 0.000202872 0.000203123 -1.06073e-05
-0.000944544 0.000283396 0.000283349 7.04757e-12
-0.000807265 0.000242101 0.000242213 -5.74513e-06
-0.000674811 0.000202268 0.000202518 -1.06073e-05
-0.000812102 0.000243551 0.000243665 -5.74511e-06
-0.000809683 0.000242826 0.000242939 -5.74512e-06
-0.000941723 0.00028255 0.000282503 7.02237e-12
-0.000936081 0.000280857 0.00028081 6.97629e-12
-0.000668762 0.000200457 0.000200702 -1.06074e-05
-0.000672795 0.000201665 0.000201913 -1.06073e-05
-0.000938902 0.000281703 0.000281657 6.9953e-12
-0.000802428 0.000240651 0.000240762 -5.74514e-06
-0.000670778 0.000201061 0.000201308 -1.06074e-05
-0.000807265 0.000242101 0.000242213 -5.74513e-06
-0.000804846 0.000241376 0.000241487 -5.74513e-06
-0.000936081 0.000280857 0.00028081 6.97629e-12
-0.000930439 0.000279164 0.000279118 6.94362e-12
-0.00066473 0.00019925 0.000199492 -1.06074e-05
-0.000668762 0.000200457 0.000200702 -1.06074e-05
-0.00093326 0.000280011 0.000279964 6.95657e-12
-0.000797591 0.000239201 0.00023931 -5.74516e-06
-0.000666746 0.000199854 0.000200097 -1.06074e-05
-0.000802428 0.000240651 0.000240762 -5.74514e-06
-0.000800009 0.000239926 0.000240036 -5.74515e-06
-0.000930439 0.000279164 0.000279118 6.94362e-12
-0.000924797 0.000277472 0.000277425 6.90724e-12
-0.000660698 0.000198043 0.000198281 -1.06074e-05
-0.00066473 0.00019925 0.000199492 -1.06074e-05
-0.000927618 0.000278318 0.000278272 6.92558e-12
-0.000792754 0.000237751 0.000237858 -5.74517e-06
-0.000662714 0.000198646 0.000198886 -1.06074e-05
-0.000797591 0.000239201 0.00023931 -5.74516e-06
-0.000795172 0.000238476 0.000238584 -5.74517e-06
-0.000924797 0.000277472 0.000277425 6.90724e-12
-0.000919156 0.000275779 0.000275733 6.88089e-12
-0.000656666 0.000196835 0.00019707 -1.06074e-05
-0.000660698 0.000198043 0.000198281 -1.06074e-05
-0.000921977 0.000276625 0.000276579 6.89095e-12
-0.000787917 0.000236301 0.000236407 -5.74519e-06
-0.000658682 0.000197439 0.000197676 -1.06074e-05
-0.000792754 0.000237751 0.000237858 -5.74517e-06
-0.000790335 0.000237026 0.000237133 -5.74518e-06
-0.000919156 0.000275779 0.000275733 6.8809e-12
-0.000913514 0.000274086 0.00027404 6.83586e-12
-0.000652634 0.000195628 0.00019586 -1.06074e-05
-0.000656666 0.000196835 0.00019707 -1.06074e-05
-0.000916335 0.000274933 0.000274887 6.86104e-12
-0.00078308 0.000234851 0.000234955 -5.7452e-06
-0.00065465 0.000196231 0.000196465 -1.06074e-05
-0.000787917 0.000236301 0.000236407 -5.74519e-06
-0.000785498 0.000235576 0.000235681 -5.74519e-06
-0.000913514 0.000274086 0.00027404 6.83586e-12
-0.000907872 0.000272394 0.000272348 6.80414e-12
-0.000648602 0.00019442 0.000194649 -1.06075e-05
-0.000652634 0.000195628 0.00019586 -1.06074e-05
-0.000910693 0.00027324 0.000273194 6.82869e-12
-0.000778243 0.000233401 0.000233504 -5.74521e-06
-0.000650618 0.000195024 0.000195255 -1.06075e-05
-0.00078308 0.000234851 0.000234955 -5.7452e-06
-0.000780661 0.000234126 0.000234229 -5.74521e-06
-0.000907872 0.000272394 0.000272348 6.80414e-12
-0.000902231 0.000270701 0.000270655 6.76214e-12
-0.00064457 0.000193213 0.000193439 -1.06075e-05
-0.000648602 0.00019442 0.000194649 -1.06075e-05
-0.000905051 0.000271547 0.000271502 6.78148e-12
-0.000773406 0.000231951 0.000232052 -5.74523e-06
-0.000646586 0.000193817 0.000194044 -1.06075e-05
-0.000778243 0.000233401 0.000233504 -5.74521e-06
-0.000775825 0.000232676 0.000232778 -5.74522e-06
-0.000902231 0.000270701 0.000270655 6.76214e-12
-0.000896589 0.000269009 0.000268963 6.71949e-12
-0.000640538 0.000192006 0.000192228 -1.06075e-05
-0.00064457 0.000193213 0.000193439 -1.06075e-05
-0.00089941 0.000269855 0.000269809 6.73751e-12
-0.000768569 0.000230501 0.000230601 -5.74524e-06
-0.000642554 0.000192609 0.000192833 -1.06075e-05
-0.000773406 0.000231951 0.000232052 -5.74523e-06
-0.000770988 0.000231226 0.000231326 -5.74523e-06
-0.000896589 0.000269009 0.000268963 6.71866e-12
-0.000890947 0.000267316 0.000267271 6.67574e-12
-0.000636506 0.000190798 0.000191018 -1.06075e-05
-0.000640538 0.000192006 0.000192228 -1.06075e-05
-0.000893768 0.000268162 0.000268117 6.68982e-12
-0.000763732 0.000229051 0.000229149 -5.74525e-06
-0.000638522 0.000191402 0.000191623 -1.06075e-05
-0.000768569 0.000230501 0.000230601 -5.74524e-06
-0.000766151 0.000229776 0.000229875 -5.74525e-06
-0.000890947 0.000267316 0.000267271 6.67574e-12
-0.000885306 0.000265623 0.000265578 6.64213e-12
-0.000632474 0.000189591 0.000189807 -1.06075e-05
-0.000636506 0.000190798 0.000191018 -1.06075e-05
-0.000888126 0.00026647 0.000266424 6.65419e-12
-0.000758895 0.000227601 0.000227697 -5.74527e-06
-0.00063449 0.000190194 0.000190412 -1.06075e-05
-0.000763732 0.000229051 0.000229149 -5.74525e-06
-0.000761314 0.000228326 0.000228423 -5.74526e-06
-0.000885306 0.000265623 0.000265578 6.64213e-12
-0.000879664 0.000263931 0.000263886 6.58046e-12
-0.000628442 0.000188383 0.000188597 -1.06076e-05
-0.000632474 0.000189591 0.000189807 -1.06075e-05
-0.000882485 0.000264777 0.000264732 6.6099e-12
-0.000754059 0.000226152 0.000226246 -5.74528e-06
-0.000630458 0.000188987 0.000189202 -1.06075e-05
-0.000758895 0.000227601 0.000227697 -5.74527e-06
-0.000756477 0.000226877 0.000226972 -5.74527e-06
-0.000879664 0.000263931 0.000263886 6.58048e-12
-0.000874022 0.000262238 0.000262193 6.54378e-12
-0.00062441 0.000187176 0.000187386 -1.06076e-05
-0.000628442 0.000188383 0.000188597 -1.06076e-05
-0.000876843 0.000263084 0.000263039 6.56625e-12
-0.000749222 0.000224702 0.000224794 -5.74529e-06
-0.000626426 0.00018778 0.000187991 -1.06076e-05
-0.000754059 0.000226152 0.000226246 -5.74528e-06
-0.00075164 0.000225427 0.00022552 -5.74528e-06
-0.000874022 0.000262238 0.000262193 6.54378e-12
-0.000868381 0.000260546 0.000260501 6.49829e-12
-0.000620378 0.000185969 0.000186176 -1.06076e-05
-0.00062441 0.000187176 0.000187386 -1.06076e-05
-0.000871202 0.000261392 0.000261347 6.53256e-12
-0.000744385 0.000223252 0.000223343 -5.7453e-06
-0.000622394 0.000186572 0.000186781 -1.06076e-05
-0.000749222 0.000224702 0.000224794 -5.74529e-06
-0.000746803 0.000223977 0.000224069 -5.7453e-06
-0.000868381 0.000260546 0.000260501 6.49911e-12
-0.000862739 0.000258853 0.000258808 6.44999e-12
-0.000616346 0.000184761 0.000184965 -1.06076e-05
-0.000620378 0.000185969 0.000186176 -1.06076e-05
-0.00086556 0.000259699 0.000259655 6.46692e-12
-0.000739548 0.000221802 0.000221891 -5.74532e-06
-0.000618362 0.000185365 0.00018557 -1.06076e-05
-0.000744385 0.000223252 0.000223343 -5.7453e-06
-0.000741967 0.000222527 0.000222617 -5.74531e-06
-0.000862739 0.000258853 0.000258808 6.44999e-12
-0.000857098 0.00025716 0.000257116 6.40411e-12
-0.000612315 0.000183554 0.000183755 -1.06076e-05
-0.000616346 0.000184761 0.000184965 -1.06076e-05
-0.000859919 0.000258007 0.000257962 6.43044e-12
-0.000734711 0.000220352 0.00022044 -5.74533e-06
-0.000614331 0.000184157 0.00018436 -1.06076e-05
-0.000739548 0.000221802 0.000221891 -5.74532e-06
-0.00073713 0.000221077 0.000221166 -5.74532e-06
-0.000857098 0.00025716 0.000257116 6.40494e-12
-0.000851456 0.000255468 0.000255424 6.37718e-12
-0.000608283 0.000182346 0.000182544 -1.06076e-05
-0.000612315 0.000183554 0.000183755 -1.06076e-05
-0.000854277 0.000256314 0.00025627 6.38283e-12
-0.000729875 0.000218902 0.000218988 -5.74534e-06
-0.000610299 0.00018295 0.000183149 -1.06076e-05
-0.000734711 0.000220352 0.00022044 -5.74533e-06
-0.000732293 0.000219627 0.000219714 -5.74533e-06
-0.000851456 0.000255468 0.000255424 6.37718e-12
-0.000845815 0.000253775 0.000253731 6.31464e-12
-0.000604251 0.000181139 0.000181334 -1.06077e-05
-0.000608283 0.000182346 0.000182544 -1.06076e-05
-0.000848635 0.000254622 0.000254577 6.34775e-12
-0.000725038 0.000217452 0.000217537 -5.74535e-06
-0.000606267 0.000181742 0.000181939 -1.06077e-05
-0.000729875 0.000218902 0.000218988 -5.74534e-06
-0.000727456 0.000218177 0.000218263 -5.74535e-06
-0.000845815 0.000253775 0.000253731 6.32128e-12
-0.000840173 0.000252083 0.000252039 6.2752e-12
-0.000600219 0.000179931 0.000180123 -1.06077e-05
-0.000604251 0.000181139 0.000181334 -1.06077e-05
-0.000842994 0.000252929 0.000252885 6.28998e-12
-0.000720201 0.000216002 0.000216085 -5.74536e-06
-0.000602235 0.000180535 0.000180729 -1.06077e-05
-0.000725038 0.000217452 0.000217537 -5.74535e-06
-0.00072262 0.000216727 0.000216811 -5.74536e-06
-0.000840173 0.000252083 0.000252039 6.2752e-12
-0.000834532 0.00025039 0.000250346 6.24084e-12
-0.000596188 0.000178724 0.000178913 -1.06077e-05
-0.000600219 0.000179931 0.000180123 -1.06077e-05
-0.000837352 0.000251236 0.000251193 6.27112e-12
-0.000715365 0.000214552 0.000214634 -5.74538e-06
-0.000598203 0.000179328 0.000179518 -1.06077e-05
-0.000720201 0.000216002 0.000216085 -5.74536e-06
-0.000717783 0.000215277 0.00021536 -5.74537e-06
-0.000834532 0.00025039 0.000250346 6.24085e-12
-0.00082889 0.000248698 0.000248654 6.16978e-12
-0.000592156 0.000177516 0.000177703 -1.06077e-05
-0.000596188 0.000178724 0.000178913 -1.06077e-05
-0.000831711 0.000249544 0.0002495 6.21084e-12
-0.000710528 0.000213102 0.000213183 -5.74539e-06
-0.000594172 0.00017812 0.000178308 -1.06077e-05
-0.000715365 0.000214552 0.000214634 -5.74538e-06
-0.000712946 0.000213827 0.000213908 -5.74538e-06
-0.00082889 0.000248698 0.000248654 6.16978e-12
-0.000823249 0.000247005 0.000246962 6.13644e-12
-0.000588124 0.000176309 0.000176492 -1.06077e-05
-0.000592156 0.000177516 0.000177703 -1.06077e-05
-0.000826069 0.000247851 0.000247808 6.14336e-12
-0.000705691 0.000211652 0.000211731 -5.7454e-06
-0.00059014 0.000176913 0.000177097 -1.06077e-05
-0.000710528 0.000213102 0.000213183 -5.74539e-06
-0.00070811 0.000212377 0.000212457 -5.74539e-06
-0.000823249 0.000247005 0.000246962 6.13644e-12
-0.000817607 0.000245313 0.000245269 6.09374e-12
-0.000584093 0.000175101 0.000175282 -1.06077e-05
-0.000588124 0.000176309 0.000176492 -1.06077e-05
-0.000820428 0.000246159 0.000246115 6.13323e-12
-0.000700855 0.000210202 0.00021028 -5.74541e-06
-0.000586108 0.000175705 0.000175887 -1.06077e-05
-0.000705691 0.000211652 0.000211731 -5.7454e-06
-0.000703273 0.000210927 0.000211005 -5.7454e-06
-0.000817607 0.000245313 0.000245269 6.10037e-12
-0.000811966 0.00024362 0.000243577 6.04836e-12
-0.000580061 0.000173894 0.000174072 -1.06078e-05
-0.000584093 0.000175101 0.000175282 -1.06077e-05
-0.000814787 0.000244466 0.000244423 6.07109e-12
-0.000696018 0.000208752 0.000208828 -5.74542e-06
-0.000582077 0.000174498 0.000174677 -1.06077e-05
-0.000700855 0.000210202 0.00021028 -5.74541e-06
-0.000698436 0.000209477 0.000209554 -5.74542e-06
-0.000811966 0.00024362 0.000243577 6.05661e-12
-0.000806324 0.000241928 0.000241884 6.00876e-12
-0.000576029 0.000172686 0.000172861 -1.06078e-05
-0.000580061 0.000173894 0.000174072 -1.06078e-05
-0.000809145 0.000242774 0.000242731 6.04302e-12
-0.000691182 0.000207302 0.000207377 -5.74543e-06
-0.000578045 0.00017329 0.000173466 -1.06078e-05
-0.000696018 0.000208752 0.000208828 -5.74542e-06
-0.0006936 0.000208027 0.000208103 -5.74543e-06
-0.000806324 0.000241928 0.000241884 6.00876e-12
-0.000800683 0.000240235 0.000240192 5.97057e-12
-0.000571998 0.000171479 0.000171651 -1.06078e-05
-0.000576029 0.000172686 0.000172861 -1.06078e-05
-0.000803504 0.000241081 0.000241038 5.98122e-12
-0.000686345 0.000205852 0.000205925 -5.74545e-06
-0.000574014 0.000172083 0.000172256 -1.06078e-05
-0.000691182 0.000207302 0.000207377 -5.74543e-06
-0.000688763 0.000206577 0.000206651 -5.74544e-06
-0.000800683 0.000240235 0.000240192 5.97057e-12
-0.000795042 0.000238543 0.0002385 5.91623e-12
-0.000567966 0.000170271 0.000170441 -1.06078e-05
-0.000571998 0.000171479 0.000171651 -1.06078e-05
-0.000797862 0.000239389 0.000239346 5.94427e-12
-0.000681509 0.000204403 0.000204474 -5.74546e-06
-0.000569982 0.000170875 0.000171046 -1.06078e-05
-0.000686345 0.000205852 0.000205925 -5.74545e-06
-0.000683927 0.000205127 0.0002052 -5.74545e-06
-0.000795042 0.000238543 0.0002385 5.92449e-12
-0.0007894 0.00023685 0.000236807 5.87169e-12
-0.000563935 0.000169064 0.00016923 -1.06078e-05
-0.000567966 0.000170271 0.000170441 -1.06078e-05
-0.000792221 0.000237696 0.000237653 5.89972e-12
-0.000676672 0.000202953 0.000203023 -5.74547e-06
-0.00056595 0.000169668 0.000169835 -1.06078e-05
-0.000681509 0.000204403 0.000204474 -5.74546e-06
-0.00067909 0.000203678 0.000203748 -5.74546e-06
-0.0007894 0.00023685 0.000236807 5.86343e-12
-0.000783759 0.000235158 0.000235115 5.82809e-12
-0.000559903 0.000167856 0.00016802 -1.06078e-05
-0.000563935 0.000169064 0.00016923 -1.06078e-05
-0.00078658 0.000236004 0.000235961 5.84248e-12
-0.000671836 0.000201503 0.000201571 -5.74548e-06
-0.000561919 0.00016846 0.000168625 -1.06078e-05
-0.000676672 0.000202953 0.000203023 -5.74547e-06
-0.000674254 0.000202228 0.000202297 -5.74547e-06
-0.000783759 0.000235158 0.000235115 5.82809e-12
-0.000778118 0.000233465 0.000233423 5.7959e-12
-0.000555872 0.000166649 0.00016681 -1.06078e-05
-0.000559903 0.000167856 0.00016802 -1.06078e-05
-0.000780938 0.000234311 0.000234269 5.80162e-12
-0.000666999 0.000200053 0.00020012 -5.74549e-06
-0.000557887 0.000167253 0.000167415 -1.06078e-05
-0.000671836 0.000201503 0.000201571 -5.74548e-06
-0.000669417 0.000200778 0.000200846 -5.74549e-06
-0.000778118 0.000233465 0.000233423 5.7959e-12
-0.000772476 0.000231773 0.00023173 5.73788e-12
-0.00055184 0.000165441 0.0001656 -1.06079e-05
-0.000555872 0.000166649 0.00016681 -1.06078e-05
-0.000775297 0.000232619 0.000232576 5.76416e-12
-0.000662163 0.000198603 0.000198669 -5.7455e-06
-0.000553856 0.000166045 0.000166205 -1.06079e-05
-0.000666999 0.000200053 0.00020012 -5.74549e-06
-0.000664581 0.000199328 0.000199394 -5.7455e-06
-0.000772476 0.000231773 0.00023173 5.7511e-12
-0.000766835 0.00023008 0.000230038 5.70272e-12
-0.000547809 0.000164234 0.000164389 -1.06079e-05
-0.00055184 0.000165441 0.0001656 -1.06079e-05
-0.000769656 0.000230926 0.000230884 5.72736e-12
-0.000657326 0.000197153 0.000197217 -5.74551e-06
-0.000549825 0.000164838 0.000164994 -1.06079e-05
-0.000662163 0.000198603 0.000198669 -5.7455e-06
-0.000659744 0.000197878 0.000197943 -5.74551e-06
-0.000766835 0.00023008 0.000230038 5.716e-12
-0.000761194 0.000228388 0.000228346 5.65323e-12
-0.000543778 0.000163026 0.000163179 -1.06079e-05
-0.000547809 0.000164234 0.000164389 -1.06079e-05
-0.000764014 0.000229234 0.000229192 5.68624e-12
-0.00065249 0.000195703 0.000195766 -5.74552e-06
-0.000545793 0.00016363 0.000163784 -1.06079e-05
-0.000657326 0.000197153 0.000197217 -5.74551e-06
-0.000654908 0.000196428 0.000196492 -5.74552e-06
-0.000761194 0.000228388 0.000228346 5.65323e-12
-0.000755553 0.000226695 0.000226653 5.61921e-12
-0.000539746 0.000161819 0.000161969 -1.06079e-05
-0.000543778 0.000163026 0.000163179 -1.06079e-05
-0.000758373 0.000227541 0.000227499 5.63838e-12
-0.000647653 0.000194253 0.000194315 -5.74554e-06
-0.000541762 0.000162423 0.000162574 -1.06079e-05
-0.00065249 0.000195703 0.000195766 -5.74552e-06
-0.000650072 0.000194978 0.00019504 -5.74553e-06
-0.000755553 0.000226695 0.000226653 5.61921e-12
-0.000749911 0.000225003 0.000224961 5.56294e-12
-0.000535715 0.000160611 0.000160759 -1.06079e-05
-0.000539746 0.000161819 0.000161969 -1.06079e-05
-0.000752732 0.000225849 0.000225807 5.57783e-12
-0.000642817 0.000192803 0.000192863 -5.74555e-06
-0.000537731 0.000161215 0.000161364 -1.06079e-05
-0.000647653 0.000194253 0.000194315 -5.74554e-06
-0.000645235 0.000193528 0.000193589 -5.74554e-06
-0.000749911 0.000225003 0.000224961 5.56295e-12
-0.00074427 0.00022331 0.000223269 5.52305e-12
-0.000531684 0.000159404 0.000159548 -1.06079e-05
-0.000535715 0.000160611 0.000160759 -1.06079e-05
-0.000747091 0.000224157 0.000224115 5.55106e-12
-0.000637981 0.000191353 0.000191412 -5.74556e-06
-0.000533699 0.000160007 0.000160154 -1.06079e-05
-0.000642817 0.000192803 0.000192863 -5.74555e-06
-0.000640399 0.000192078 0.000192138 -5.74555e-06
-0.00074427 0.00022331 0.000223269 5.50979e-12
-0.000738629 0.000221618 0.000221576 5.48052e-12
-0.000527652 0.000158196 0.000158338 -1.0608e-05
-0.000531684 0.000159404 0.000159548 -1.06079e-05
-0.00074145 0.000222464 0.000222422 5.50197e-12
-0.000633145 0.000189903 0.000189961 -5.74557e-06
-0.000529668 0.0001588 0.000158943 -1.06079e-05
-0.000637981 0.000191353 0.000191412 -5.74556e-06
-0.000635563 0.000190628 0.000190686 -5.74556e-06
-0.000738629 0.000221618 0.000221576 5.48052e-12
-0.000732988 0.000219925 0.000219884 5.43771e-12
-0.000523621 0.000156989 0.000157128 -1.0608e-05
-0.000527652 0.000158196 0.000158338 -1.0608e-05
-0.000735808 0.000220772 0.00022073 5.46047e-12
-0.000628308 0.000188453 0.000188509 -5.74558e-06
-0.000525637 0.000157592 0.000157733 -1.0608e-05
-0.000633145 0.000189903 0.000189961 -5.74557e-06
-0.000630726 0.000189178 0.000189235 -5.74557e-06
-0.000732988 0.000219925 0.000219884 5.43771e-12
-0.000727347 0.000218233 0.000218192 5.38379e-12
-0.00051959 0.000155781 0.000155918 -1.0608e-05
-0.000523621 0.000156989 0.000157128 -1.0608e-05
-0.000730167 0.000219079 0.000219038 5.40843e-12
-0.000623472 0.000187003 0.000187058 -5.74559e-06
-0.000521605 0.000156385 0.000156523 -1.0608e-05
-0.000628308 0.000188453 0.000188509 -5.74558e-06
-0.00062589 0.000187728 0.000187784 -5.74559e-06
-0.000727347 0.000218233 0.000218192 5.39702e-12
-0.000721705 0.000216541 0.000216499 5.33173e-12
-0.000515559 0.000154573 0.000154708 -1.0608e-05
-0.00051959 0.000155781 0.000155918 -1.0608e-05
-0.000724526 0.000217387 0.000217345 5.35951e-12
-0.000618636 0.000185553 0.000185607 -5.7456e-06
-0.000517574 0.000155177 0.000155313 -1.0608e-05
-0.000623472 0.000187003 0.000187058 -5.74559e-06
-0.000621054 0.000186278 0.000186332 -5.7456e-06
-0.000721705 0.000216541 0.000216499 5.34497e-12
-0.000716064 0.000214848 0.000214807 5.2902e-12
-0.000511527 0.000153366 0.000153498 -1.0608e-05
-0.000515559 0.000154573 0.000154708 -1.0608e-05
-0.000718885 0.000215694 0.000215653 5.31767e-12
-0.0006138 0.000184103 0.000184156 -5.74561e-06
-0.000513543 0.00015397 0.000154103 -1.0608e-05
-0.000618636 0.000185553 0.000185607 -5.7456e-06
-0.000616218 0.000184828 0.000184881 -5.74561e-06
-0.000716064 0.000214848 0.000214807 5.2902e-12
-0.000710423 0.000213156 0.000213115 5.25336e-12
-0.000507496 0.000152158 0.000152288 -1.0608e-05
-0.000511527 0.000153366 0.000153498 -1.0608e-05
-0.000713244 0.000214002 0.000213961 5.26486e-12
-0.000608963 0.000182653 0.000182704 -5.74562e-06
-0.000509512 0.000152762 0.000152893 -1.0608e-05
-0.0006138 0.000184103 0.000184156 -5.74561e-06
-0.000611381 0.000183378 0.00018343 -5.74562e-06
-0.000710423 0.000213156 0.000213115 5.25336e-12
-0.000704782 0.000211463 0.000211422 5.21637e-12
-0.000503465 0.000150951 0.000151078 -1.0608e-05
-0.000507496 0.000152158 0.000152288 -1.0608e-05
-0.000707603 0.000212309 0.000212269 5.25726e-12
-0.000604127 0.000181203 0.000181253 -5.74564e-06
-0.000505481 0.000151555 0.000151683 -1.0608e-05
-0.000608963 0.000182653 0.000182704 -5.74562e-06
-0.000606545 0.000181928 0.000181979 -5.74563e-06
-0.000704782 0.000211463 0.000211422 5.21802e-12
-0.000699141 0.000209771 0.00020973 5.17714e-12
-0.000499434 0.000149743 0.000149868 -1.06081e-05
-0.000503465 0.000150951 0.000151078 -1.0608e-05
-0.000701962 0.000210617 0.000210576 5.18006e-12
-0.000599291 0.000179754 0.000179802 -5.74565e-06
-0.00050145 0.000150347 0.000150473 -1.0608e-05
-0.000604127 0.000181203 0.000181253 -5.74564e-06
-0.000601709 0.000180478 0.000180527 -5.74564e-06
-0.000699141 0.000209771 0.00020973 5.17543e-12
-0.0006935 0.000208078 0.000208038 5.12096e-12
-0.000495403 0.000148536 0.000148657 -1.06081e-05
-0.000499434 0.000149743 0.000149868 -1.06081e-05
-0.000696321 0.000208925 0.000208884 5.15705e-12
-0.000594455 0.000178304 0.000178351 -5.74566e-06
-0.000497418 0.000149139 0.000149263 -1.06081e-05
-0.000599291 0.000179754 0.000179802 -5.74565e-06
-0.000596873 0.000179029 0.000179076 -5.74565e-06
-0.0006935 0.000208078 0.000208038 5.12096e-12
-0.000687859 0.000206386 0.000206346 5.08852e-12
-0.000491372 0.000147328 0.000147447 -1.06081e-05
-0.000495403 0.000148536 0.000148657 -1.06081e-05
-0.00069068 0.000207232 0.000207192 5.11908e-12
-0.000589619 0.000176854 0.000176899 -5.74567e-06
-0.000493387 0.000147932 0.000148052 -1.06081e-05
-0.000594455 0.000178304 0.000178351 -5.74566e-06
-0.000592037 0.000177579 0.000177625 -5.74566e-06
-0.000687859 0.000206386 0.000206346 5.08852e-12
-0.000682218 0.000204694 0.000204653 5.02032e-12
-0.000487341 0.00014612 0.000146237 -1.06081e-05
-0.000491372 0.000147328 0.000147447 -1.06081e-05
-0.000685038 0.00020554 0.000205499 5.07726e-12
-0.000584783 0.000175404 0.000175448 -5.74568e-06
-0.000489356 0.000146724 0.000146842 -1.06081e-05
-0.000589619 0.000176854 0.000176899 -5.74567e-06
-0.000587201 0.000176129 0.000176174 -5.74567e-06
-0.000682218 0.000204694 0.000204653 5.0468e-12
-0.000676577 0.000203001 0.000202961 4.98133e-12
-0.00048331 0.000144913 0.000145027 -1.06081e-05
-0.000487341 0.00014612 0.000146237 -1.06081e-05
-0.000679397 0.000203847 0.000203807 5.00016e-12
-0.000579947 0.000173954 0.000173997 -5.74569e-06
-0.000485325 0.000145516 0.000145632 -1.06081e-05
-0.000584783 0.000175404 0.000175448 -5.74568e-06
-0.000582365 0.000174679 0.000174723 -5.74568e-06
-0.000676577 0.000203001 0.000202961 4.99456e-12
-0.000670936 0.000201309 0.000201269 4.9455e-12
-0.000479279 0.000143705 0.000143817 -1.06081e-05
-0.00048331 0.000144913 0.000145027 -1.06081e-05
-0.000673756 0.000202155 0.000202115 4.97644e-12
-0.000575111 0.000172504 0.000172546 -5.7457e-06
-0.000481294 0.000144309 0.000144422 -1.06081e-05
-0.000579947 0.000173954 0.000173997 -5.74569e-06
-0.000577529 0.000173229 0.000173271 -5.74569e-06
-0.000670936 0.000201309 0.000201269 4.9455e-12
-0.000665295 0.000199617 0.000199576 4.90663e-12
-0.000475248 0.000142497 0.000142607 -1.06081e-05
-0.000479279 0.000143705 0.000143817 -1.06081e-05
-0.000668116 0.000200463 0.000200423 4.93921e-12
-0.000570275 0.000171054 0.000171095 -5.74571e-06
-0.000477263 0.000143101 0.000143212 -1.06081e-05
-0.000575111 0.000172504 0.000172546 -5.7457e-06
-0.000572693 0.000171779 0.00017182 -5.74571e-06
-0.000665295 0.000199617 0.000199576 4.90663e-12
-0.000659654 0.000197924 0.000197884 4.84992e-12
-0.000471217 0.00014129 0.000141397 -1.06082e-05
-0.000475248 0.000142497 0.000142607 -1.06081e-05
-0.000662475 0.00019877 0.00019873 4.90738e-12
-0.000565439 0.000169604 0.000169644 -5.74572e-06
-0.000473233 0.000141894 0.000142002 -1.06081e-05
-0.000570275 0.000171054 0.000171095 -5.74571e-06
-0.000567857 0.000170329 0.000170369 -5.74572e-06
-0.000659654 0.000197924 0.000197884 4.85649e-12
-0.000654013 0.000196232 0.000196192 4.80511e-12
-0.000467186 0.000140082 0.000140187 -1.06082e-05
-0.000471217 0.00014129 0.000141397 -1.06082e-05
-0.000656834 0.000197078 0.000197038 4.84865e-12
-0.000560603 0.000168154 0.000168192 -5.74573e-06
-0.000469202 0.000140686 0.000140792 -1.06082e-05
-0.000565439 0.000169604 0.000169644 -5.74572e-06
-0.000563021 0.000168879 0.000168918 -5.74573e-06
-0.000654013 0.000196232 0.000196192 4.80671e-12
-0.000648372 0.000194539 0.0001945 4.77863e-12
-0.000463155 0.000138874 0.000138978 -1.06082e-05
-0.000467186 0.000140082 0.000140187 -1.06082e-05
-0.000651193 0.000195386 0.000195346 4.79911e-12
-0.000555767 0.000166704 0.000166741 -5.74574e-06
-0.000465171 0.000139478 0.000139583 -1.06082e-05
-0.000560603 0.000168154 0.000168192 -5.74573e-06
-0.000558185 0.000167429 0.000167467 -5.74574e-06
-0.000648372 0.000194539 0.0001945 4.77863e-12
-0.000642731 0.000192847 0.000192808 4.71766e-12
-0.000459125 0.000137667 0.000137768 -1.06082e-05
-0.000463155 0.000138874 0.000138978 -1.06082e-05
-0.000645552 0.000193693 0.000193654 4.73433e-12
-0.000550931 0.000165254 0.00016529 -5.74575e-06
-0.00046114 0.000138271 0.000138373 -1.06082e-05
-0.000555767 0.000166704 0.000166741 -5.74574e-06
-0.000553349 0.000165979 0.000166016 -5.74575e-06
-0.000642731 0.000192847 0.000192808 4.71766e-12
-0.000637091 0.000191155 0.000191115 4.71197e-12
-0.000455094 0.000136459 0.000136558 -1.06082e-05
-0.000459125 0.000137667 0.000137768 -1.06082e-05
-0.000639911 0.000192001 0.000191961 4.71217e-12
-0.000546095 0.000163804 0.000163839 -5.74576e-06
-0.000457109 0.000137063 0.000137163 -1.06082e-05
-0.000550931 0.000165254 0.00016529 -5.74575e-06
-0.000548513 0.000164529 0.000164565 -5.74576e-06
-0.000637091 0.000191155 0.000191115 4.70531e-12
-0.00063145 0.000189462 0.000189423 4.65959e-12
-0.000451063 0.000135251 0.000135348 -1.06082e-05
-0.000455094 0.000136459 0.000136558 -1.06082e-05
-0.00063427 0.000190309 0.000190269 4.67758e-12
-0.000541259 0.000162354 0.000162388 -5.74578e-06
-0.000453078 0.000135855 0.000135953 -1.06082e-05
-0.000546095 0.000163804 0.000163839 -5.74576e-06
-0.000543677 0.000163079 0.000163113 -5.74577e-06
-0.00063145 0.000189462 0.000189423 4.64634e-12
-0.000625809 0.00018777 0.000187731 4.60232e-12
-0.000447032 0.000134044 0.000134138 -1.06082e-05
-0.000451063 0.000135251 0.000135348 -1.06082e-05
-0.000628629 0.000188616 0.000188577 4.63257e-12
-0.000536423 0.000160904 0.000160937 -5.74579e-06
-0.000449048 0.000134648 0.000134743 -1.06082e-05
-0.000541259 0.000162354 0.000162388 -5.74578e-06
-0.000538841 0.000161629 0.000161662 -5.74578e-06
-0.000625809 0.00018777 0.000187731 4.60232e-12
-0.000620168 0.000186078 0.000186039 4.55907e-12
-0.000443002 0.000132836 0.000132928 -1.06083e-05
-0.000447032 0.000134044 0.000134138 -1.06082e-05
-0.000622988 0.000186924 0.000186885 4.59077e-12
-0.000531588 0.000159454 0.000159486 -5.7458e-06
-0.000445017 0.00013344 0.000133533 -1.06082e-05
-0.000536423 0.000160904 0.000160937 -5.74579e-06
-0.000534005 0.000160179 0.000160211 -5.74579e-06
-0.000620168 0.000186078 0.000186039 4.55907e-12
-0.000614527 0.000184385 0.000184346 4.52856e-12
-0.000438971 0.000131628 0.000131718 -1.06083e-05
-0.000443002 0.000132836 0.000132928 -1.06083e-05
-0.000617348 0.000185232 0.000185193 4.53696e-12
-0.000526752 0.000158004 0.000158035 -5.74581e-06
-0.000440986 0.000132232 0.000132323 -1.06083e-05
-0.000531588 0.000159454 0.000159486 -5.7458e-06
-0.00052917 0.000158729 0.00015876 -5.7458e-06
-0.000614527 0.000184385 0.000184346 4.5104e-12
-0.000608886 0.000182693 0.000182654 4.47342e-12
-0.00043494 0.000130421 0.000130508 -1.06083e-05
-0.000438971 0.000131628 0.000131718 -1.06083e-05
-0.000611707 0.000183539 0.0001835 4.48979e-12
-0.000521916 0.000156554 0.000156584 -5.74582e-06
-0.000436956 0.000131025 0.000131113 -1.06083e-05
-0.000526752 0.000158004 0.000158035 -5.74581e-06
-0.000524334 0.000157279 0.000157309 -5.74581e-06
-0.000608886 0.000182693 0.000182654 4.47339e-12
-0.000603246 0.000181001 0.000180962 4.43526e-12
-0.00043091 0.000129213 0.000129299 -1.06083e-05
-0.00043494 0.000130421 0.000130508 -1.06083e-05
-0.000606066 0.000181847 0.000181808 4.45803e-12
-0.00051708 0.000155104 0.000155133 -5.74583e-06
-0.000432925 0.000129817 0.000129903 -1.06083e-05
-0.000521916 0.000156554 0.000156584 -5.74582e-06
-0.000519498 0.000155829 0.000155858 -5.74582e-06
-0.000603246 0.000181001 0.000180962 4.43526e-12
-0.000597605 0.000179309 0.00017927 4.39044e-12
-0.000426879 0.000128005 0.000128089 -1.06083e-05
-0.00043091 0.000129213 0.000129299 -1.06083e-05
-0.000600425 0.000180155 0.000180116 4.42983e-12
-0.000512245 0.000153654 0.000153681 -5.74584e-06
-0.000428894 0.000128609 0.000128694 -1.06083e-05
-0.00051708 0.000155104 0.000155133 -5.74583e-06
-0.000514662 0.000154379 0.000154407 -5.74583e-06
-0.000597605 0.000179309 0.00017927 4.39044e-12
-0.000591964 0.000177616 0.000177578 4.34597e-12
-0.000422848 0.000126798 0.000126879 -1.06083e-05
-0.000426879 0.000128005 0.000128089 -1.06083e-05
-0.000594785 0.000178462 0.000178424 4.38078e-12
-0.000507409 0.000152204 0.00015223 -5.74585e-06
-0.000424864 0.000127401 0.000127484 -1.06083e-05
-0.000512245 0.000153654 0.000153681 -5.74584e-06
-0.000509827 0.000152929 0.000152956 -5.74585e-06
-0.000591964 0.000177616 0.000177578 4.31943e-12
-0.000586324 0.000175924 0.000175886 4.29345e-12
-0.000418818 0.00012559 0.000125669 -1.06083e-05
-0.000422848 0.000126798 0.000126879 -1.06083e-05
-0.000589144 0.00017677 0.000176732 4.3321e-12
-0.000502573 0.000150754 0.000150779 -5.74586e-06
-0.000420833 0.000126194 0.000126274 -1.06083e-05
-0.000507409 0.000152204 0.00015223 -5.74585e-06
-0.000504991 0.000151479 0.000151505 -5.74586e-06
-0.000586324 0.000175924 0.000175886 4.30666e-12
-0.000580683 0.000174232 0.000174193 4.26086e-12
-0.000414787 0.000124382 0.000124459 -1.06084e-05
-0.000418818 0.00012559 0.000125669 -1.06083e-05
-0.000583503 0.000175078 0.000175039 4.27252e-12
-0.000497737 0.000149305 0.000149328 -5.74587e-06
-0.000416803 0.000124986 0.000125064 -1.06083e-05
-0.000502573 0.000150754 0.000150779 -5.74586e-06
-0.000500155 0.000150029 0.000150054 -5.74587e-06
-0.000580683 0.000174232 0.000174193 4.26086e-12
-0.000575042 0.000172539 0.000172501 4.21738e-12
-0.000410757 0.000123174 0.00012325 -1.06084e-05
-0.000414787 0.000124382 0.000124459 -1.06084e-05
-0.000577862 0.000173385 0.000173347 4.23004e-12
-0.000492902 0.000147855 0.000147877 -5.74588e-06
-0.000412772 0.000123778 0.000123854 -1.06084e-05
-0.000497737 0.000149305 0.000149328 -5.74587e-06
-0.00049532 0.00014858 0.000148603 -5.74588e-06
-0.000575042 0.000172539 0.000172501 4.21738e-12
-0.000569401 0.000170847 0.000170809 4.16381e-12
-0.000406726 0.000121967 0.00012204 -1.06084e-05
-0.000410757 0.000123174 0.00012325 -1.06084e-05
-0.000572222 0.000171693 0.000171655 4.19727e-12
-0.000488066 0.000146405 0.000146426 -5.74589e-06
-0.000408742 0.000122571 0.000122645 -1.06084e-05
-0.000492902 0.000147855 0.000147877 -5.74588e-06
-0.000490484 0.00014713 0.000147152 -5.74589e-06
-0.000569401 0.000170847 0.000170809 4.16383e-12
-0.000563761 0.000169155 0.000169117 4.11361e-12
-0.000402696 0.000120759 0.00012083 -1.06084e-05
-0.000406726 0.000121967 0.00012204 -1.06084e-05
-0.000566581 0.000170001 0.000169963 4.15272e-12
-0.000483231 0.000144955 0.000144975 -5.74591e-06
-0.000404711 0.000121363 0.000121435 -1.06084e-05
-0.000488066 0.000146405 0.000146426 -5.74589e-06
-0.000485648 0.00014568 0.000145701 -5.7459e-06
-0.000563761 0.000169155 0.000169117 4.10202e-12
-0.00055812 0.000167463 0.000167425 4.06651e-12
-0.000398665 0.000119551 0.00011962 -1.06084e-05
-0.000402696 0.000120759 0.00012083 -1.06084e-05
-0.000560941 0.000168309 0.000168271 4.08773e-12
-0.000478395 0.000143505 0.000143524 -5.74592e-06
-0.000400681 0.000120155 0.000120225 -1.06084e-05
-0.000483231 0.000144955 0.000144975 -5.74591e-06
-0.000480813 0.00014423 0.00014425 -5.74591e-06
-0.00055812 0.000167463 0.000167425 4.06651e-12
-0.00055248 0.00016577 0.000165733 4.04498e-12
-0.000394635 0.000118343 0.000118411 -1.06084e-05
-0.000398665 0.000119551 0.00011962 -1.06084e-05
-0.0005553 0.000166616 0.000166579 4.05676e-12
-0.00047356 0.000142055 0.000142074 -5.74593e-06
-0.00039665 0.000118947 0.000119016 -1.06084e-05
-0.000478395 0.000143505 0.000143524 -5.74592e-06
-0.000475977 0.00014278 0.000142799 -5.74592e-06
-0.00055248 0.00016577 0.000165733 4.04498e-12
-0.000546839 0.000164078 0.00016404 3.98402e-12
-0.000390605 0.000117136 0.000117201 -1.06084e-05
-0.000394635 0.000118343 0.000118411 -1.06084e-05
-0.000549659 0.000164924 0.000164887 4.00549e-12
-0.000468724 0.000140605 0.000140623 -5.74594e-06
-0.00039262 0.00011774 0.000117806 -1.06084e-05
-0.00047356 0.000142055 0.000142074 -5.74593e-06
-0.000471142 0.00014133 0.000141348 -5.74593e-06
-0.000546839 0.000164078 0.00016404 4.00721e-12
-0.000541199 0.000162386 0.000162348 3.95204e-12
-0.000386574 0.000115928 0.000115991 -1.06085e-05
-0.000390605 0.000117136 0.000117201 -1.06084e-05
-0.000544019 0.000163232 0.000163194 3.95326e-12
-0.000463889 0.000139155 0.000139172 -5.74595e-06
-0.00038859 0.000116532 0.000116596 -1.06084e-05
-0.000468724 0.000140605 0.000140623 -5.74594e-06
-0.000466306 0.00013988 0.000139897 -5.74594e-06
-0.000541199 0.000162386 0.000162348 3.95203e-12
-0.000535558 0.000160693 0.000160656 3.87686e-12
-0.000382544 0.00011472 0.000114782 -1.06085e-05
-0.000386574 0.000115928 0.000115991 -1.06085e-05
-0.000538378 0.00016154 0.000161502 3.91506e-12
-0.000459053 0.000137705 0.000137721 -5.74596e-06
-0.000384559 0.000115324 0.000115386 -1.06085e-05
-0.000463889 0.000139155 0.000139172 -5.74595e-06
-0.000461471 0.00013843 0.000138446 -5.74595e-06
-0.000535558 0.000160693 0.000160656 3.87686e-12
-0.000529917 0.000159001 0.000158964 3.84952e-12
-0.000378514 0.000113512 0.000113572 -1.06085e-05
-0.000382544 0.00011472 0.000114782 -1.06085e-05
-0.000532738 0.000159847 0.00015981 3.8701e-12
-0.000454218 0.000136255 0.00013627 -5.74597e-06
-0.000380529 0.000114116 0.000114177 -1.06085e-05
-0.000459053 0.000137705 0.000137721 -5.74596e-06
-0.000456635 0.00013698 0.000136995 -5.74597e-06
-0.000529917 0.000159001 0.000158964 3.84952e-12
-0.000524277 0.000157309 0.000157272 3.83349e-12
-0.000374484 0.000112305 0.000112362 -1.06085e-05
-0.000378514 0.000113512 0.000113572 -1.06085e-05
-0.000527097 0.000158155 0.000158118 3.82273e-12
-0.000449382 0.000134805 0.000134819 -5.74598e-06
-0.000376499 0.000112909 0.000112967 -1.06085e-05
-0.000454218 0.000136255 0.00013627 -5.74597e-06
-0.0004518 0.00013553 0.000135544 -5.74598e-06
-0.000524277 0.000157309 0.000157272 3.83362e-12
-0.000518636 0.000155617 0.00015558 3.77387e-12
-0.000370453 0.000111097 0.000111153 -1.06085e-05
-0.000374484 0.000112305 0.000112362 -1.06085e-05
-0.000521457 0.000156463 0.000156426 3.81662e-12
-0.000444547 0.000133355 0.000133368 -5.74599e-06
-0.000372468 0.000111701 0.000111758 -1.06085e-05
-0.000449382 0.000134805 0.000134819 -5.74598e-06
-0.000446965 0.00013408 0.000134093 -5.74599e-06
-0.000518636 0.000155617 0.00015558 3.78717e-12
-0.000512996 0.000153925 0.000153888 3.71112e-12
-0.000366423 0.000109889 0.000109943 -1.06085e-05
-0.000370453 0.000111097 0.000111153 -1.06085e-05
-0.000515816 0.000154771 0.000154734 3.75986e-12
-0.000439711 0.000131905 0.000131917 -5.746e-06
-0.000368438 0.000110493 0.000110548 -1.06085e-05
-0.000444547 0.000133355 0.000133368 -5.74599e-06
-0.000442129 0.00013263 0.000132643 -5.746e-06
-0.000512996 0.000153925 0.000153888 3.71112e-12
-0.000507356 0.000152232 0.000152196 3.68202e-12
-0.000362393 0.000108681 0.000108734 -1.06085e-05
-0.000366423 0.000109889 0.000109943 -1.06085e-05
-0.000510176 0.000153078 0.000153042 3.70939e-12
-0.000434876 0.000130455 0.000130466 -5.74602e-06
-0.000364408 0.000109285 0.000109338 -1.06085e-05
-0.000439711 0.000131905 0.000131917 -5.746e-06
-0.000437294 0.00013118 0.000131192 -5.74601e-06
-0.000507356 0.000152232 0.000152196 3.68202e-12
-0.000501715 0.00015054 0.000150504 3.626e-12
-0.000358363 0.000107473 0.000107524 -1.06086e-05
-0.000362393 0.000108681 0.000108734 -1.06085e-05
-0.000504535 0.000151386 0.00015135 3.66086e-12
-0.000430041 0.000129005 0.000129015 -5.74603e-06
-0.000360378 0.000108077 0.000108129 -1.06086e-05
-0.000434876 0.000130455 0.000130466 -5.74602e-06
-0.000432458 0.00012973 0.000129741 -5.74602e-06
-0.000501715 0.00015054 0.000150504 3.65259e-12
-0.000496075 0.000148848 0.000148812 3.60784e-12
-0.000354333 0.000106266 0.000106314 -1.06086e-05
-0.000358363 0.000107473 0.000107524 -1.06086e-05
-0.000498895 0.000149694 0.000149658 3.61983e-12
-0.000425205 0.000127555 0.000127565 -5.74604e-06
-0.000356348 0.000106869 0.000106919 -1.06086e-05
-0.000430041 0.000129005 0.000129015 -5.74603e-06
-0.000427623 0.00012828 0.00012829 -5.74603e-06
-0.000496075 0.000148848 0.000148812 3.60789e-12
-0.000490434 0.000147156 0.000147119 3.56027e-12
-0.000350303 0.000105058 0.000105105 -1.06086e-05
-0.000354333 0.000106266 0.000106314 -1.06086e-05
-0.000493255 0.000148002 0.000147965 3.58676e-12
-0.00042037 0.000126105 0.000126114 -5.74605e-06
-0.000352318 0.000105662 0.00010571 -1.06086e-05
-0.000425205 0.000127555 0.000127565 -5.74604e-06
-0.000422788 0.00012683 0.000126839 -5.74604e-06
-0.000490434 0.000147156 0.000147119 3.56027e-12
-0.000484794 0.000145463 0.000145427 3.49961e-12
-0.000346272 0.00010385 0.000103895 -1.06086e-05
-0.000350303 0.000105058 0.000105105 -1.06086e-05
-0.000487614 0.00014631 0.000146273 3.5213e-12
-0.000415535 0.000124655 0.000124663 -5.74606e-06
-0.000348288 0.000104454 0.0001045 -1.06086e-05
-0.00042037 0.000126105 0.000126114 -5.74605e-06
-0.000417953 0.00012538 0.000125388 -5.74606e-06
-0.000484794 0.000145463 0.000145427 3.49961e-12
-0.000479154 0.000143771 0.000143735 3.46262e-12
-0.000342242 0.000102642 0.000102686 -1.06086e-05
-0.000346272 0.00010385 0.000103895 -1.06086e-05
-0.000481974 0.000144617 0.000144581 3.46999e-12
-0.0004107 0.000123205 0.000123212 -5.74607e-06
-0.000344257 0.000103246 0.000103291 -1.06086e-05
-0.000415535 0.000124655 0.000124663 -5.74606e-06
-0.000413117 0.00012393 0.000123937 -5.74607e-06
-0.000479154 0.000143771 0.000143735 3.46253e-12
-0.000473513 0.000142079 0.000142043 3.41608e-12
-0.000338212 0.000101434 0.000101476 -1.06086e-05
-0.000342242 0.000102642 0.000102686 -1.06086e-05
-0.000476333 0.000142925 0.000142889 3.45028e-12
-0.000405864 0.000121755 0.000121761 -5.74608e-06
-0.000340227 0.000102038 0.000102081 -1.06086e-05
-0.0004107 0.000123205 0.000123212 -5.74607e-06
-0.000408282 0.00012248 0.000122487 -5.74608e-06
-0.000473513 0.000142079 0.000142043 3.42599e-12
-0.000467873 0.000140387 0.000140351 3.38041e-12
-0.000334182 0.000100226 0.000100267 -1.06087e-05
-0.000338212 0.000101434 0.000101476 -1.06086e-05
-0.000470693 0.000141233 0.000141197 3.40193e-12
-0.000401029 0.000120305 0.00012031 -5.7461e-06
-0.000336197 0.00010083 0.000100872 -1.06086e-05
-0.000405864 0.000121755 0.000121761 -5.74608e-06
-0.000403447 0.00012103 0.000121036 -5.74609e-06
-0.000467873 0.000140387 0.000140351 3.38041e-12
-0.000462233 0.000138695 0.000138659 3.32038e-12
-0.000330153 9.90185e-05 9.90574e-05 -1.06087e-05
-0.000334182 0.000100226 0.000100267 -1.06087e-05
-0.000465053 0.000139541 0.000139505 3.34659e-12
-0.000396194 0.000118855 0.00011886 -5.74611e-06
-0.000332167 9.96224e-05 9.96622e-05 -1.06087e-05
-0.000401029 0.000120305 0.00012031 -5.7461e-06
-0.000398612 0.00011958 0.000119585 -5.7461e-06
-0.000462233 0.000138695 0.000138659 3.32038e-12
-0.000456592 0.000137002 0.000136967 3.2889e-12
-0.000326123 9.78106e-05 9.7848e-05 -1.06087e-05
-0.000330153 9.90185e-05 9.90574e-05 -1.06087e-05
-0.000459412 0.000137849 0.000137813 3.32124e-12
-0.000391359 0.000117405 0.000117409 -5.74612e-06
-0.000328138 9.84146e-05 9.84527e-05 -1.06087e-05
-0.000396194 0.000118855 0.00011886 -5.74611e-06
-0.000393777 0.00011813 0.000118134 -5.74611e-06
-0.000456592 0.000137002 0.000136967 3.3022e-12
-0.000450952 0.00013531 0.000135275 3.27086e-12
-0.000322093 9.66028e-05 9.66385e-05 -1.06087e-05
-0.000326123 9.78106e-05 9.7848e-05 -1.06087e-05
-0.000453772 0.000136156 0.000136121 3.2753e-12
-0.000386524 0.000115955 0.000115958 -5.74613e-06
-0.000324108 9.72067e-05 9.72433e-05 -1.06087e-05
-0.000391359 0.000117405 0.000117409 -5.74612e-06
-0.000388941 0.00011668 0.000116683 -5.74612e-06
-0.000450952 0.00013531 0.000135275 3.27091e-12
-0.000445312 0.000133618 0.000133583 3.17337e-12
-0.000318063 9.53949e-05 9.54291e-05 -1.06087e-05
-0.000322093 9.66028e-05 9.66385e-05 -1.06087e-05
-0.000448132 0.000134464 0.000134429 3.2101e-12
-0.000381689 0.000114505 0.000114507 -5.74614e-06
-0.000320078 9.59988e-05 9.60338e-05 -1.06087e-05
-0.000386524 0.000115955 0.000115958 -5.74613e-06
-0.000384106 0.00011523 0.000115233 -5.74614e-06
-0.000445312 0.000133618 0.000133583 3.17337e-12
-0.000439672 0.000131926 0.000131891 3.17552e-12
-0.000314033 9.4187e-05 9.42197e-05 -1.06087e-05
-0.000318063 9.53949e-05 9.54291e-05 -1.06087e-05
-0.000442492 0.000132772 0.000132737 3.20079e-12
-0.000376854 0.000113055 0.000113057 -5.74615e-06
-0.000316048 9.47909e-05 9.48244e-05 -1.06087e-05
-0.000381689 0.000114505 0.000114507 -5.74614e-06
-0.000379271 0.00011378 0.000113782 -5.74615e-06
-0.000439672 0.000131926 0.000131891 3.17552e-12
-0.000434031 0.000130234 0.000130199 3.12596e-12
-0.000310003 9.29791e-05 9.30103e-05 -1.06087e-05
-0.000314033 9.4187e-05 9.42197e-05 -1.06087e-05
-0.000436852 0.00013108 0.000131045 3.1529e-12
-0.000372019 0.000111605 0.000111606 -5.74617e-06
-0.000312018 9.3583e-05 9.3615e-05 -1.06087e-05
-0.000376854 0.000113055 0.000113057 -5.74615e-06
-0.000374436 0.00011233 0.000112331 -5.74616e-06
-0.000434031 0.000130234 0.000130199 3.12587e-12
-0.000428391 0.000128542 0.000128507 3.05843e-12
-0.000305973 9.17712e-05 9.18009e-05 -1.06088e-05
-0.000310003 9.29791e-05 9.30103e-05 -1.06087e-05
-0.000431211 0.000129388 0.000129353 3.09372e-12
-0.000367184 0.000110155 0.000110155 -5.74618e-06
-0.000307988 9.23751e-05 9.24056e-05 -1.06088e-05
-0.000372019 0.000111605 0.000111606 -5.74617e-06
-0.000369601 0.00011088 0.00011088 -5.74617e-06
-0.000428391 0.000128542 0.000128507 3.09824e-12
-0.000422751 0.000126849 0.000126815 3.03761e-12
-0.000301944 9.05633e-05 9.05915e-05 -1.06088e-05
-0.000305973 9.17712e-05 9.18009e-05 -1.06088e-05
-0.000425571 0.000127696 0.000127661 3.07794e-12
-0.000362349 0.000108705 0.000108704 -5.74619e-06
-0.000303958 9.11672e-05 9.11962e-05 -1.06088e-05
-0.000367184 0.000110155 0.000110155 -5.74618e-06
-0.000364766 0.00010943 0.00010943 -5.74618e-06
-0.000422751 0.000126849 0.000126815 3.03761e-12
-0.000417111 0.000125157 0.000125123 3.01973e-12
-0.000297914 8.93554e-05 8.93822e-05 -1.06088e-05
-0.000301944 9.05633e-05 9.05915e-05 -1.06088e-05
-0.000419931 0.000126003 0.000125969 3.02932e-12
-0.000357514 0.000107255 0.000107254 -5.7462e-06
-0.000299929 8.99593e-05 8.99869e-05 -1.06088e-05
-0.000362349 0.000108705 0.000108704 -5.74619e-06
-0.000359931 0.00010798 0.000107979 -5.7462e-06
-0.000417111 0.000125157 0.000125123 3.01973e-12
-0.000411471 0.000123465 0.000123431 2.96275e-12
-0.000293884 8.81474e-05 8.81729e-05 -1.06088e-05
-0.000297914 8.93554e-05 8.93822e-05 -1.06088e-05
-0.000414291 0.000124311 0.000124277 2.99569e-12
-0.000352679 0.000105805 0.000105803 -5.74621e-06
-0.000295899 8.87514e-05 8.87775e-05 -1.06088e-05
-0.000357514 0.000107255 0.000107254 -5.7462e-06
-0.000355096 0.00010653 0.000106528 -5.74621e-06
-0.000411471 0.000123465 0.000123431 2.96615e-12
-0.000405831 0.000121773 0.000121739 2.94018e-12
-0.000289854 8.69395e-05 8.69635e-05 -1.06088e-05
-0.000293884 8.81474e-05 8.81729e-05 -1.06088e-05
-0.000408651 0.000122619 0.000122585 2.93488e-12
-0.000347844 0.000104355 0.000104352 -5.74623e-06
-0.000291869 8.75435e-05 8.75682e-05 -1.06088e-05
-0.000352679 0.000105805 0.000105803 -5.74621e-06
-0.000350261 0.00010508 0.000105078 -5.74622e-06
-0.000405831 0.000121773 0.000121739 2.94018e-12
-0.000400191 0.000120081 0.000120047 2.86859e-12
-0.000285825 8.57316e-05 8.57542e-05 -1.06088e-05
-0.000289854 8.69395e-05 8.69635e-05 -1.06088e-05
-0.000403011 0.000120927 0.000120893 2.89506e-12
-0.000343009 0.000102905 0.000102902 -5.74624e-06
-0.00028784 8.63355e-05 8.63589e-05 -1.06088e-05
-0.000347844 0.000104355 0.000104352 -5.74623e-06
-0.000345426 0.00010363 0.000103627 -5.74623e-06
-0.000400191 0.000120081 0.000120047 2.86859e-12
-0.00039455 0.000118389 0.000118355 2.83516e-12
-0.000281795 8.45236e-05 8.45449e-05 -1.06089e-05
-0.000285825 8.57316e-05 8.57542e-05 -1.06088e-05
-0.00039737 0.000119235 0.000119201 2.83663e-12
-0.000338174 0.000101455 0.000101451 -5.74625e-06
-0.00028381 8.51276e-05 8.51496e-05 -1.06089e-05
-0.000343009 0.000102905 0.000102902 -5.74624e-06
-0.000340591 0.00010218 0.000102176 -5.74624e-06
-0.00039455 0.000118389 0.000118355 2.83516e-12
-0.00038891 0.000116697 0.000116663 2.79992e-12
-0.000277766 8.33157e-05 8.33356e-05 -1.06089e-05
-0.000281795 8.45236e-05 8.45449e-05 -1.06089e-05
-0.00039173 0.000117543 0.000117509 2.80757e-12
-0.000333339 0.000100005 0.0001 -5.74626e-06
-0.00027978 8.39197e-05 8.39403e-05 -1.06089e-05
-0.000338174 0.000101455 0.000101451 -5.74625e-06
-0.000335756 0.00010073 0.000100726 -5.74626e-06
-0.00038891 0.000116697 0.000116663 2.79992e-12
-0.00038327 0.000115005 0.000114971 2.76562e-12
-0.000273736 8.21077e-05 8.21264e-05 -1.06089e-05
-0.000277766 8.33157e-05 8.33356e-05 -1.06089e-05
-0.00038609 0.000115851 0.000115817 2.78047e-12
-0.000328504 9.85551e-05 9.85496e-05 -5.74627e-06
-0.000275751 8.27117e-05 8.2731e-05 -1.06089e-05
-0.000333339 0.000100005 0.0001 -5.74626e-06
-0.000330922 9.92801e-05 9.92749e-05 -5.74627e-06
-0.00038327 0.000115005 0.000114971 2.73912e-12
-0.00037763 0.000113312 0.000113279 2.69967e-12
-0.000269706 8.08998e-05 8.09171e-05 -1.06089e-05
-0.000273736 8.21077e-05 8.21264e-05 -1.06089e-05
-0.00038045 0.000114158 0.000114125 2.71284e-12
-0.000323669 9.71051e-05 9.7099e-05 -5.74629e-06
-0.000271721 8.15037e-05 8.15217e-05 -1.06089e-05
-0.000328504 9.85551e-05 9.85496e-05 -5.74627e-06
-0.000326087 9.78301e-05 9.78243e-05 -5.74628e-06
-0.00037763 0.000113312 0.000113279 2.69967e-12
-0.00037199 0.00011162 0.000111587 2.63632e-12
-0.000265677 7.96918e-05 7.97079e-05 -1.06089e-05
-0.000269706 8.08998e-05 8.09171e-05 -1.06089e-05
-0.00037481 0.000112466 0.000112433 2.66455e-12
-0.000318835 9.56551e-05 9.56484e-05 -5.7463e-06
-0.000267692 8.02958e-05 8.03125e-05 -1.06089e-05
-0.000323669 9.71051e-05 9.7099e-05 -5.74629e-06
-0.000321252 9.63801e-05 9.63737e-05 -5.74629e-06
-0.00037199 0.00011162 0.000111587 2.63632e-12
-0.00036635 0.000109928 0.000109895 2.621e-12
-0.000261647 7.84838e-05 7.84987e-05 -1.06089e-05
-0.000265677 7.96918e-05 7.97079e-05 -1.06089e-05
-0.00036917 0.000110774 0.000110741 2.62917e-12
-0.000314 9.4205e-05 9.41977e-05 -5.74631e-06
-0.000263662 7.90878e-05 7.91033e-05 -1.06089e-05
-0.000318835 9.56551e-05 9.56484e-05 -5.7463e-06
-0.000316417 9.493e-05 9.4923e-05 -5.74631e-06
-0.00036635 0.000109928 0.000109895 2.6077e-12
-0.00036071 0.000108236 0.000108203 2.56794e-12
-0.000257618 7.72758e-05 7.72894e-05 -1.0609e-05
-0.000261647 7.84838e-05 7.84987e-05 -1.06089e-05
-0.00036353 0.000109082 0.000109049 2.60255e-12
-0.000309165 9.2755e-05 9.27471e-05 -5.74632e-06
-0.000259633 7.78798e-05 7.78941e-05 -1.0609e-05
-0.000314 9.4205e-05 9.41977e-05 -5.74631e-06
-0.000311582 9.348e-05 9.34724e-05 -5.74632e-06
-0.00036071 0.000108236 0.000108203 2.56803e-12
-0.00035507 0.000106544 0.000106511 2.51713e-12
-0.000253588 7.60678e-05 7.60803e-05 -1.0609e-05
-0.000257618 7.72758e-05 7.72894e-05 -1.0609e-05
-0.00035789 0.00010739 0.000107357 2.55752e-12
-0.00030433 9.1305e-05 9.12965e-05 -5.74634e-06
-0.000255603 7.66718e-05 7.66848e-05 -1.0609e-05
-0.000309165 9.2755e-05 9.27471e-05 -5.74632e-06
-0.000306748 9.203e-05 9.20218e-05 -5.74633e-06
-0.00035507 0.000106544 0.000106511 2.51713e-12
-0.00034943 0.000104852 0.000104819 2.49823e-12
-0.000249559 7.48598e-05 7.48711e-05 -1.0609e-05
-0.000253588 7.60678e-05 7.60803e-05 -1.0609e-05
-0.00035225 0.000105698 0.000105665 2.53241e-12
-0.000299496 8.9855e-05 8.9846e-05 -5.74635e-06
-0.000251574 7.54638e-05 7.54757e-05 -1.0609e-05
-0.00030433 9.1305e-05 9.12965e-05 -5.74634e-06
-0.000301913 9.058e-05 9.05712e-05 -5.74634e-06
-0.00034943 0.000104852 0.000104819 2.49823e-12
-0.00034379 0.00010316 0.000103127 2.45433e-12
-0.00024553 7.36518e-05 7.36619e-05 -1.0609e-05
-0.000249559 7.48598e-05 7.48711e-05 -1.0609e-05
-0.00034661 0.000104006 0.000103973 2.45859e-12
-0.000294661 8.8405e-05 8.83954e-05 -5.74636e-06
-0.000247544 7.42558e-05 7.42665e-05 -1.0609e-05
-0.000299496 8.9855e-05 8.9846e-05 -5.74635e-06
-0.000297078 8.913e-05 8.91207e-05 -5.74636e-06
-0.00034379 0.00010316 0.000103127 2.45443e-12
-0.00033815 0.000101468 0.000101435 2.38588e-12
-0.0002415 7.24438e-05 7.24528e-05 -1.0609e-05
-0.00024553 7.36518e-05 7.36619e-05 -1.0609e-05
-0.00034097 0.000102314 0.000102281 2.39572e-12
-0.000289826 8.69549e-05 8.69448e-05 -5.74638e-06
-0.000243515 7.30478e-05 7.30573e-05 -1.0609e-05
-0.000294661 8.8405e-05 8.83954e-05 -5.74636e-06
-0.000292244 8.76799e-05 8.76701e-05 -5.74637e-06
-0.00033815 0.000101468 0.000101435 2.39918e-12
-0.000332511 9.97756e-05 9.97436e-05 2.37897e-12
-0.000237471 7.12358e-05 7.12436e-05 -1.06091e-05
-0.0002415 7.24438e-05 7.24528e-05 -1.0609e-05
-0.000335331 0.000100622 0.00010059 2.37405e-12
-0.000284992 8.55049e-05 8.54943e-05 -5.74639e-06
-0.000239486 7.18398e-05 7.18482e-05 -1.0609e-05
-0.000289826 8.69549e-05 8.69448e-05 -5.74638e-06
-0.000287409 8.62299e-05 8.62195e-05 -5.74638e-06
-0.000332511 9.97756e-05 9.97436e-05 2.37897e-12
-0.000326871 9.80835e-05 9.80517e-05 2.33553e-12
-0.000233442 7.00277e-05 7.00345e-05 -1.06091e-05
-0.000237471 7.12358e-05 7.12436e-05 -1.06091e-05
-0.000329691 9.89296e-05 9.88976e-05 2.31484e-12
-0.000280157 8.40549e-05 8.40437e-05 -5.7464e-06
-0.000235456 7.06318e-05 7.06391e-05 -1.06091e-05
-0.000284992 8.55049e-05 8.54943e-05 -5.74639e-06
-0.000282574 8.47799e-05 8.4769e-05 -5.7464e-06
-0.000326871 9.80835e-05 9.80517e-05 2.33553e-12
-0.000321231 9.63914e-05 9.63597e-05 2.28991e-12
-0.000229412 6.88197e-05 6.88254e-05 -1.06091e-05
-0.000233442 7.00277e-05 7.00345e-05 -1.06091e-05
-0.000324051 9.72375e-05 9.72057e-05 2.29682e-12
-0.000275322 8.26048e-05 8.25932e-05 -5.74642e-06
-0.000231427 6.94237e-05 6.94299e-05 -1.06091e-05
-0.000280157 8.40549e-05 8.40437e-05 -5.7464e-06
-0.00027774 8.33299e-05 8.33185e-05 -5.74641e-06
-0.000321231 9.63914e-05 9.63597e-05 2.28669e-12
-0.000315591 9.46994e-05 9.46678e-05 2.20304e-12
-0.000225383 6.76117e-05 6.76163e-05 -1.06091e-05
-0.000229412 6.88197e-05 6.88254e-05 -1.06091e-05
-0.000318411 9.55454e-05 9.55138e-05 2.25457e-12
-0.000270488 8.11548e-05 8.11427e-05 -5.74643e-06
-0.000227398 6.82157e-05 6.82208e-05 -1.06091e-05
-0.000275322 8.26048e-05 8.25932e-05 -5.74642e-06
-0.000272905 8.18798e-05 8.18679e-05 -5.74642e-06
-0.000315591 9.46994e-05 9.46678e-05 2.20314e-12
-0.000309951 9.30073e-05 9.29759e-05 2.18817e-12
-0.000221354 6.64036e-05 6.64072e-05 -1.06091e-05
-0.000225383 6.76117e-05 6.76163e-05 -1.06091e-05
-0.000312771 9.38533e-05 9.38219e-05 2.17833e-12
-0.000265653 7.97048e-05 7.96922e-05 -5.74644e-06
-0.000223368 6.70076e-05 6.70117e-05 -1.06091e-05
-0.000270488 8.11548e-05 8.11427e-05 -5.74643e-06
-0.00026807 8.04298e-05 8.04174e-05 -5.74644e-06
-0.000309951 9.30073e-05 9.29759e-05 2.18817e-12
-0.000304311 9.13152e-05 9.12841e-05 2.15498e-12
-0.000217325 6.51955e-05 6.51981e-05 -1.06091e-05
-0.000221354 6.64036e-05 6.64072e-05 -1.06091e-05
-0.000307131 9.21613e-05 9.213e-05 2.19953e-12
-0.000260819 7.82547e-05 7.82417e-05 -5.74646e-06
-0.000219339 6.57996e-05 6.58027e-05 -1.06091e-05
-0.000265653 7.97048e-05 7.96922e-05 -5.74644e-06
-0.000263236 7.89797e-05 7.89669e-05 -5.74645e-06
-0.000304311 9.13152e-05 9.12841e-05 2.15498e-12
-0.000298672 8.96232e-05 8.95922e-05 2.11374e-12
-0.000213295 6.39875e-05 6.39891e-05 -1.06092e-05
-0.000217325 6.51955e-05 6.51981e-05 -1.06091e-05
-0.000301491 9.04692e-05 9.04381e-05 2.09424e-12
-0.000255984 7.68047e-05 7.67912e-05 -5.74647e-06
-0.00021531 6.45915e-05 6.45936e-05 -1.06092e-05
-0.000260819 7.82547e-05 7.82417e-05 -5.74646e-06
-0.000258401 7.75297e-05 7.75164e-05 -5.74646e-06
-0.000298672 8.96232e-05 8.95922e-05 2.11365e-12
-0.000293032 8.79311e-05 8.79003e-05 2.04366e-12
-0.000209266 6.27794e-05 6.27801e-05 -1.06092e-05
-0.000213295 6.39875e-05 6.39891e-05 -1.06092e-05
-0.000295852 8.87771e-05 8.87462e-05 2.08576e-12
-0.00025115 7.53546e-05 7.53407e-05 -5.74648e-06
-0.000211281 6.33834e-05 6.33846e-05 -1.06092e-05
-0.000255984 7.68047e-05 7.67912e-05 -5.74647e-06
-0.000253567 7.60797e-05 7.60659e-05 -5.74648e-06
-0.000293032 8.79311e-05 8.79003e-05 2.04371e-12
-0.000287392 8.6239e-05 8.62084e-05 2.05882e-12
-0.000205237 6.15713e-05 6.1571e-05 -1.06092e-05
-0.000209266 6.27794e-05 6.27801e-05 -1.06092e-05
-0.000290212 8.70851e-05 8.70543e-05 2.0202e-12
-0.000246315 7.39046e-05 7.38902e-05 -5.7465e-06
-0.000207252 6.21754e-05 6.21755e-05 -1.06092e-05
-0.00025115 7.53546e-05 7.53407e-05 -5.74648e-06
-0.000248732 7.46296e-05 7.46155e-05 -5.74649e-06
-0.000287392 8.6239e-05 8.62084e-05 2.05882e-12
-0.000281752 8.4547e-05 8.45165e-05 1.96958e-12
-0.000201208 6.03632e-05 6.0362e-05 -1.06092e-05
-0.000205237 6.15713e-05 6.1571e-05 -1.06092e-05
-0.000284572 8.5393e-05 8.53625e-05 2.0204e-12
-0.000241481 7.24545e-05 7.24398e-05 -5.74651e-06
-0.000203222 6.09673e-05 6.09665e-05 -1.06092e-05
-0.000246315 7.39046e-05 7.38902e-05 -5.7465e-06
-0.000243898 7.31796e-05 7.3165e-05 -5.7465e-06
-0.000281752 8.4547e-05 8.45165e-05 1.99609e-12
-0.000276113 8.28549e-05 8.28247e-05 1.94848e-12
-0.000197179 5.91551e-05 5.9153e-05 -1.06092e-05
-0.000201208 6.03632e-05 6.0362e-05 -1.06092e-05
-0.000278932 8.3701e-05 8.36706e-05 1.9954e-12
-0.000236646 7.10045e-05 7.09893e-05 -5.74652e-06
-0.000199193 5.97592e-05 5.97575e-05 -1.06092e-05
-0.000241481 7.24545e-05 7.24398e-05 -5.74651e-06
-0.000239063 7.17295e-05 7.17145e-05 -5.74652e-06
-0.000276113 8.28549e-05 8.28247e-05 1.94848e-12
-0.000270473 8.11629e-05 8.11328e-05 1.89298e-12
-0.00019315 5.7947e-05 5.7944e-05 -1.06093e-05
-0.000197179 5.91551e-05 5.9153e-05 -1.06092e-05
-0.000273293 8.20089e-05 8.19787e-05 1.93066e-12
-0.000231812 6.95544e-05 6.95389e-05 -5.74654e-06
-0.000195164 5.85511e-05 5.85485e-05 -1.06093e-05
-0.000236646 7.10045e-05 7.09893e-05 -5.74652e-06
-0.000234229 7.02795e-05 7.02641e-05 -5.74653e-06
-0.000270473 8.11629e-05 8.11328e-05 1.89298e-12
-0.000264833 7.94709e-05 7.9441e-05 1.87065e-12
-0.000189121 5.67389e-05 5.67351e-05 -1.06093e-05
-0.00019315 5.7947e-05 5.7944e-05 -1.06093e-05
-0.000267653 8.03169e-05 8.02869e-05 1.88939e-12
-0.000226977 6.81044e-05 6.80885e-05 -5.74655e-06
-0.000191135 5.7343e-05 5.73396e-05 -1.06093e-05
-0.000231812 6.95544e-05 6.95389e-05 -5.74654e-06
-0.000229395 6.88294e-05 6.88137e-05 -5.74654e-06
-0.000264833 7.94709e-05 7.9441e-05 1.87065e-12
-0.000259193 7.77788e-05 7.77491e-05 1.7956e-12
-0.000185092 5.55308e-05 5.55261e-05 -1.06093e-05
-0.000189121 5.67389e-05 5.67351e-05 -1.06093e-05
-0.000262013 7.86248e-05 7.8595e-05 1.83168e-12
-0.000222143 6.66543e-05 6.6638e-05 -5.74657e-06
-0.000187106 5.61349e-05 5.61306e-05 -1.06093e-05
-0.000226977 6.81044e-05 6.80885e-05 -5.74655e-06
-0.00022456 6.73794e-05 6.73632e-05 -5.74656e-06
-0.000259193 7.77788e-05 7.77491e-05 1.82535e-12
-0.000253554 7.60868e-05 7.60573e-05 1.77417e-12
-0.000181063 5.43227e-05 5.43172e-05 -1.06093e-05
-0.000185092 5.55308e-05 5.55261e-05 -1.06093e-05
-0.000256374 7.69328e-05 7.69032e-05 1.79136e-12
-0.000217309 6.52043e-05 6.51876e-05 -5.74658e-06
-0.000183077 5.49267e-05 5.49217e-05 -1.06093e-05
-0.000222143 6.66543e-05 6.6638e-05 -5.74657e-06
-0.000219726 6.59293e-05 6.59128e-05 -5.74657e-06
-0.000253554 7.60868e-05 7.60573e-05 1.77417e-12
-0.000247914 7.43948e-05 7.43654e-05 1.72662e-12
-0.000177034 5.31145e-05 5.31083e-05 -1.06093e-05
-0.000181063 5.43227e-05 5.43172e-05 -1.06093e-05
-0.000250734 7.52408e-05 7.52113e-05 1.70118e-12
-0.000212474 6.37542e-05 6.37372e-05 -5.74659e-06
-0.000179048 5.37186e-05 5.37127e-05 -1.06093e-05
-0.000217309 6.52043e-05 6.51876e-05 -5.74658e-06
-0.000214892 6.44792e-05 6.44624e-05 -5.74659e-06
-0.000247914 7.43948e-05 7.43654e-05 1.72662e-12
-0.000242274 7.27027e-05 7.26736e-05 1.67208e-12
-0.000173005 5.19064e-05 5.18994e-05 -1.06094e-05
-0.000177034 5.31145e-05 5.31083e-05 -1.06093e-05
-0.000245094 7.35487e-05 7.35195e-05 1.70882e-12
-0.00020764 6.23041e-05 6.22868e-05 -5.74661e-06
-0.000175019 5.25105e-05 5.25038e-05 -1.06094e-05
-0.000212474 6.37542e-05 6.37372e-05 -5.74659e-06
-0.000210057 6.30292e-05 6.3012e-05 -5.7466e-06
-0.000242274 7.27027e-05 7.26736e-05 1.67218e-12
-0.000236635 7.10107e-05 7.09818e-05 1.6535e-12
-0.000168976 5.06982e-05 5.06905e-05 -1.06094e-05
-0.000173005 5.19064e-05 5.18994e-05 -1.06094e-05
-0.000239455 7.18567e-05 7.18277e-05 1.67407e-12
-0.000202806 6.08541e-05 6.08365e-05 -5.74662e-06
-0.00017099 5.13023e-05 5.12949e-05 -1.06094e-05
-0.00020764 6.23041e-05 6.22868e-05 -5.74661e-06
-0.000205223 6.15791e-05 6.15617e-05 -5.74661e-06
-0.000236635 7.10107e-05 7.09818e-05 1.6535e-12
-0.000230995 6.93187e-05 6.92899e-05 1.62059e-12
-0.000164947 4.94901e-05 4.94816e-05 -1.06094e-05
-0.000168976 5.06982e-05 5.06905e-05 -1.06094e-05
-0.000233815 7.01647e-05 7.01359e-05 1.57785e-12
-0.000197972 5.9404e-05 5.93861e-05 -5.74664e-06
-0.000166962 5.00942e-05 5.0086e-05 -1.06094e-05
-0.000202806 6.08541e-05 6.08365e-05 -5.74662e-06
-0.000200389 6.0129e-05 6.01113e-05 -5.74663e-06
-0.000230995 6.93187e-05 6.92899e-05 1.62059e-12
-0.000225356 6.76267e-05 6.75981e-05 1.57415e-12
-0.000160918 4.82819e-05 4.82727e-05 -1.06094e-05
-0.000164947 4.94901e-05 4.94816e-05 -1.06094e-05
-0.000228175 6.84727e-05 6.8444e-05 1.57649e-12
-0.000193137 5.79539e-05 5.79357e-05 -5.74665e-06
-0.000162933 4.8886e-05 4.88771e-05 -1.06094e-05
-0.000197972 5.9404e-05 5.93861e-05 -5.74664e-06
-0.000195554 5.8679e-05 5.86609e-05 -5.74664e-06
-0.000225356 6.76267e-05 6.75981e-05 1.57415e-12
-0.000219716 6.59347e-05 6.59063e-05 1.5133e-12
-0.000156889 4.70737e-05 4.70639e-05 -1.06095e-05
-0.000160918 4.82819e-05 4.82727e-05 -1.06094e-05
-0.000222536 6.67807e-05 6.67522e-05 1.5263e-12
-0.000188303 5.65038e-05 5.64854e-05 -5.74667e-06
-0.000158904 4.76778e-05 4.76683e-05 -1.06094e-05
-0.000193137 5.79539e-05 5.79357e-05 -5.74665e-06
-0.00019072 5.72289e-05 5.72106e-05 -5.74666e-06
-0.000219716 6.59347e-05 6.59063e-05 1.5133e-12
-0.000214076 6.42426e-05 6.42145e-05 1.48848e-12
-0.000152861 4.58655e-05 4.5855e-05 -1.06095e-05
-0.000156889 4.70737e-05 4.70639e-05 -1.06095e-05
-0.000216896 6.50886e-05 6.50604e-05 1.48788e-12
-0.000183469 5.50538e-05 5.50351e-05 -5.74668e-06
-0.000154875 4.64696e-05 4.64594e-05 -1.06095e-05
-0.000188303 5.65038e-05 5.64854e-05 -5.74667e-06
-0.000185886 5.57788e-05 5.57602e-05 -5.74667e-06
-0.000214076 6.42426e-05 6.42145e-05 1.48849e-12
-0.000208437 6.25506e-05 6.25227e-05 1.44889e-12
-0.000148832 4.46574e-05 4.46462e-05 -1.06095e-05
-0.000152861 4.58655e-05 4.5855e-05 -1.06095e-05
-0.000211257 6.33966e-05 6.33686e-05 1.45151e-12
-0.000178635 5.36037e-05 5.35847e-05 -5.7467e-06
-0.000150846 4.52615e-05 4.52506e-05 -1.06095e-05
-0.000183469 5.50538e-05 5.50351e-05 -5.74668e-06
-0.000181052 5.43287e-05 5.43099e-05 -5.74669e-06
-0.000208437 6.25506e-05 6.25227e-05 1.44889e-12
-0.000202797 6.08586e-05 6.08309e-05 1.40969e-12
-0.000144803 4.34492e-05 4.34374e-05 -1.06095e-05
-0.000148832 4.46574e-05 4.46462e-05 -1.06095e-05
-0.000205617 6.17046e-05 6.16768e-05 1.46223e-12
-0.000173801 5.21536e-05 5.21344e-05 -5.74671e-06
-0.000146817 4.40533e-05 4.40418e-05 -1.06095e-05
-0.000178635 5.36037e-05 5.35847e-05 -5.7467e-06
-0.000176218 5.28786e-05 5.28596e-05 -5.7467e-06
-0.000202797 6.08586e-05 6.08309e-05 1.40969e-12
-0.000197158 5.91666e-05 5.91391e-05 1.35126e-12
-0.000140774 4.2241e-05 4.22286e-05 -1.06095e-05
-0.000144803 4.34492e-05 4.34374e-05 -1.06095e-05
-0.000199978 6.00126e-05 5.9985e-05 1.38574e-12
-0.000168966 5.07035e-05 5.06841e-05 -5.74673e-06
-0.000142789 4.28451e-05 4.2833e-05 -1.06095e-05
-0.000173801 5.21536e-05 5.21344e-05 -5.74671e-06
-0.000171383 5.14286e-05 5.14093e-05 -5.74672e-06
-0.000197158 5.91666e-05 5.91391e-05 1.35136e-12
-0.000191518 5.74746e-05 5.74473e-05 1.32106e-12
-0.000136746 4.10327e-05 4.10198e-05 -1.06096e-05
-0.000140774 4.2241e-05 4.22286e-05 -1.06095e-05
-0.000194338 5.83206e-05 5.82932e-05 1.27298e-12
-0.000164132 4.92534e-05 4.92338e-05 -5.74674e-06
-0.00013876 4.16368e-05 4.16242e-05 -1.06096e-05
-0.000168966 5.07035e-05 5.06841e-05 -5.74673e-06
-0.000166549 4.99785e-05 4.99589e-05 -5.74673e-06
-0.000191518 5.74746e-05 5.74473e-05 1.32106e-12
-0.000185879 5.57826e-05 5.57555e-05 1.23547e-12
-0.000132717 3.98245e-05 3.9811e-05 -1.06096e-05
-0.000136746 4.10327e-05 4.10198e-05 -1.06096e-05
-0.000188699 5.66286e-05 5.66014e-05 1.2541e-12
-0.000159298 4.78033e-05 4.77835e-05 -5.74676e-06
-0.000134731 4.04286e-05 4.04154e-05 -1.06096e-05
-0.000164132 4.92534e-05 4.92338e-05 -5.74674e-06
-0.000161715 4.85284e-05 4.85087e-05 -5.74675e-06
-0.000185879 5.57826e-05 5.57555e-05 1.23547e-12
-0.000180239 5.40907e-05 5.40638e-05 1.19998e-12
-0.000128688 3.86163e-05 3.86023e-05 -1.06096e-05
-0.000132717 3.98245e-05 3.9811e-05 -1.06096e-05
-0.000183059 5.49366e-05 5.49097e-05 1.19656e-12
-0.000154464 4.63532e-05 4.63332e-05 -5.74677e-06
-0.000130703 3.92204e-05 3.92067e-05 -1.06096e-05
-0.000159298 4.78033e-05 4.77835e-05 -5.74676e-06
-0.000156881 4.70783e-05 4.70584e-05 -5.74676e-06
-0.000180239 5.40907e-05 5.40638e-05 1.19998e-12
-0.0001746 5.23987e-05 5.2372e-05 1.14287e-12
-0.00012466 3.7408e-05 3.73936e-05 -1.06096e-05
-0.000128688 3.86163e-05 3.86023e-05 -1.06096e-05
-0.00017742 5.32447e-05 5.32179e-05 1.14105e-12
-0.00014963 4.49031e-05 4.4883e-05 -5.74679e-06
-0.000126674 3.80122e-05 3.79979e-05 -1.06096e-05
-0.000154464 4.63532e-05 4.63332e-05 -5.74677e-06
-0.000152047 4.56282e-05 4.56081e-05 -5.74678e-06
-0.0001746 5.23987e-05 5.2372e-05 1.14278e-12
-0.000168961 5.07067e-05 5.06802e-05 1.12004e-12
-0.000120631 3.61998e-05 3.61848e-05 -1.06096e-05
-0.00012466 3.7408e-05 3.73936e-05 -1.06096e-05
-0.00017178 5.15527e-05 5.15261e-05 1.13614e-12
-0.000144796 4.3453e-05 4.34327e-05 -5.7468e-06
-0.000122645 3.68039e-05 3.67892e-05 -1.06096e-05
-0.00014963 4.49031e-05 4.4883e-05 -5.74679e-06
-0.000147213 4.41781e-05 4.41578e-05 -5.74679e-06
-0.000168961 5.07067e-05 5.06802e-05 1.13349e-12
-0.000163321 4.90147e-05 4.89885e-05 1.02654e-12
-0.000116602 3.49915e-05 3.49761e-05 -1.06097e-05
-0.000120631 3.61998e-05 3.61848e-05 -1.06096e-05
-0.000166141 4.98607e-05 4.98343e-05 1.07084e-12
-0.000139962 4.20029e-05 4.19825e-05 -5.74681e-06
-0.000118617 3.55957e-05 3.55805e-05 -1.06097e-05
-0.000144796 4.3453e-05 4.34327e-05 -5.7468e-06
-0.000142379 4.2728e-05 4.27076e-05 -5.74681e-06
-0.000163321 4.90147e-05 4.89885e-05 1.02654e-12
-0.000157682 4.73227e-05 4.72967e-05 9.6115e-13
-0.000112574 3.37833e-05 3.37674e-05 -1.06097e-05
-0.000116602 3.49915e-05 3.49761e-05 -1.06097e-05
-0.000160501 4.81687e-05 4.81426e-05 1.02875e-12
-0.000135128 4.05528e-05 4.05322e-05 -5.74683e-06
-0.000114588 3.43874e-05 3.43718e-05 -1.06097e-05
-0.000139962 4.20029e-05 4.19825e-05 -5.74681e-06
-0.000137545 4.12779e-05 4.12573e-05 -5.74682e-06
-0.000157682 4.73227e-05 4.72967e-05 9.6115e-13
-0.000152042 4.56308e-05 4.5605e-05 8.8437e-13
-0.000108545 3.2575e-05 3.25587e-05 -1.06097e-05
-0.000112574 3.37833e-05 3.37674e-05 -1.06097e-05
-0.000154862 4.64767e-05 4.64508e-05 9.29901e-13
-0.000130294 3.91027e-05 3.9082e-05 -5.74684e-06
-0.00011056 3.31791e-05 3.31631e-05 -1.06097e-05
-0.000135128 4.05528e-05 4.05322e-05 -5.74683e-06
-0.000132711 3.98278e-05 3.98071e-05 -5.74683e-06
-0.000152042 4.56308e-05 4.5605e-05 9.34199e-13
-0.000146403 4.39388e-05 4.39132e-05 8.46776e-13
-0.000104517 3.13667e-05 3.13501e-05 -1.06097e-05
-0.000108545 3.2575e-05 3.25587e-05 -1.06097e-05
-0.000149223 4.47848e-05 4.47591e-05 8.78408e-13
-0.00012546 3.76526e-05 3.76318e-05 -5.74685e-06
-0.000106531 3.19709e-05 3.19544e-05 -1.06097e-05
-0.000130294 3.91027e-05 3.9082e-05 -5.74684e-06
-0.000127877 3.83777e-05 3.83569e-05 -5.74685e-06
-0.000146403 4.39388e-05 4.39132e-05 8.46963e-13
-0.000140764 4.22468e-05 4.22215e-05 8.51667e-13
-0.000100488 3.01584e-05 3.01414e-05 -1.06097e-05
-0.000104517 3.13667e-05 3.13501e-05 -1.06097e-05
-0.000143583 4.30928e-05 4.30673e-05 8.8594e-13
-0.000120626 3.62025e-05 3.61816e-05 -5.74686e-06
-0.000102503 3.07626e-05 3.07457e-05 -1.06097e-05
-0.00012546 3.76526e-05 3.76318e-05 -5.74685e-06
-0.000123043 3.69275e-05 3.69067e-05 -5.74686e-06
-0.000140764 4.22468e-05 4.22215e-05 8.51667e-13
-0.000135124 4.05549e-05 4.05297e-05 9.47519e-13
-9.646e-05 2.89501e-05 2.89328e-05 -1.06098e-05
-0.000100488 3.01584e-05 3.01414e-05 -1.06097e-05
-0.000137944 4.14008e-05 4.13756e-05 8.7517e-13
-0.000115792 3.47524e-05 3.47314e-05 -5.74687e-06
-9.84742e-05 2.95543e-05 2.95371e-05 -1.06097e-05
-0.000120626 3.62025e-05 3.61816e-05 -5.74686e-06
-0.000118209 3.54774e-05 3.54565e-05 -5.74687e-06
-0.000135124 4.05549e-05 4.05297e-05 9.47519e-13
-0.000129485 3.88629e-05 3.8838e-05 1.14938e-12
-9.24316e-05 2.77419e-05 2.77242e-05 -1.06098e-05
-9.646e-05 2.89501e-05 2.89328e-05 -1.06098e-05
-0.000132305 3.97089e-05 3.96839e-05 1.04029e-12
-0.000110958 3.33023e-05 3.32812e-05 -5.74688e-06
-9.44458e-05 2.8346e-05 2.83285e-05 -1.06098e-05
-0.000115792 3.47524e-05 3.47314e-05 -5.74687e-06
-0.000113375 3.40273e-05 3.40063e-05 -5.74688e-06
-0.000129485 3.88629e-05 3.8838e-05 1.14938e-12
-0.000123846 3.7171e-05 3.71463e-05 1.67154e-12
-8.84032e-05 2.65335e-05 2.65155e-05 -1.06098e-05
-9.24316e-05 2.77419e-05 2.77242e-05 -1.06098e-05
-0.000126665 3.80169e-05 3.79922e-05 1.31167e-12
-0.000106125 3.18521e-05 3.1831e-05 -5.7469e-06
-9.04174e-05 2.71377e-05 2.71199e-05 -1.06098e-05
-0.000110958 3.33023e-05 3.32812e-05 -5.74688e-06
-0.000108541 3.25772e-05 3.25561e-05 -5.74689e-06
-0.000123846 3.7171e-05 3.71463e-05 1.7013e-12
-0.000118206 3.5479e-05 3.54546e-05 2.29244e-12
-8.43748e-05 2.53252e-05 2.53069e-05 -1.06098e-05
-8.84032e-05 2.65335e-05 2.65155e-05 -1.06098e-05
-0.000121026 3.6325e-05 3.63004e-05 1.88919e-12
-0.000101291 3.0402e-05 3.03809e-05 -5.74692e-06
-8.6389e-05 2.59294e-05 2.59112e-05 -1.06098e-05
-0.000106125 3.18521e-05 3.1831e-05 -5.7469e-06
-0.000103708 3.11271e-05 3.11059e-05 -5.74691e-06
-0.000118206 3.5479e-05 3.54546e-05 2.29244e-12
-0.000112567 3.37871e-05 3.37629e-05 4.04159e-12
-8.03465e-05 2.4117e-05 2.40984e-05 -1.06099e-05
-8.43748e-05 2.53252e-05 2.53069e-05 -1.06098e-05
-0.000115387 3.4633e-05 3.46087e-05 3.33871e-12
-9.64569e-05 2.89519e-05 2.89307e-05 -5.74696e-06
-8.23606e-05 2.47211e-05 2.47027e-05 -1.06098e-05
-0.000101291 3.0402e-05 3.03809e-05 -5.74692e-06
-9.88738e-05 2.9677e-05 2.96558e-05 -5.74694e-06
-0.000112567 3.37871e-05 3.37629e-05 4.04159e-12
-0.000106928 3.20951e-05 3.20712e-05 5.25668e-12
-7.63182e-05 2.29087e-05 2.28898e-05 -1.061e-05
-8.03465e-05 2.4117e-05 2.40984e-05 -1.06099e-05
-0.000109747 3.29411e-05 3.2917e-05 4.25739e-12
-9.1623e-05 2.75018e-05 2.74805e-05 -5.74703e-06
-7.83323e-05 2.35128e-05 2.34941e-05 -1.06099e-05
-9.64569e-05 2.89519e-05 2.89307e-05 -5.74696e-06
-9.404e-05 2.82268e-05 2.82056e-05 -5.74699e-06
-0.000106928 3.20951e-05 3.20712e-05 5.25337e-12
-0.000101288 3.04031e-05 3.03794e-05 7.72545e-12
-7.22899e-05 2.17004e-05 2.16812e-05 -1.06101e-05
-7.63182e-05 2.29087e-05 2.28898e-05 -1.061e-05
-0.000104108 3.12491e-05 3.12253e-05 8.38162e-12
-8.67892e-05 2.60516e-05 2.60304e-05 -5.74715e-06
-7.4304e-05 2.23045e-05 2.22855e-05 -1.061e-05
-9.1623e-05 2.75018e-05 2.74805e-05 -5.74703e-06
-8.92061e-05 2.67767e-05 2.67555e-05 -5.74708e-06
-0.000101288 3.04031e-05 3.03794e-05 7.72554e-12
-9.56489e-05 2.87111e-05 2.86876e-05 7.60377e-12
-6.82617e-05 2.04921e-05 2.04727e-05 -1.06103e-05
-7.22899e-05 2.17004e-05 2.16812e-05 -1.06101e-05
-9.84687e-05 2.95571e-05 2.95335e-05 4.93756e-12
-8.19553e-05 2.46015e-05 2.45802e-05 -5.74731e-06
-7.02758e-05 2.10962e-05 2.1077e-05 -1.06102e-05
-8.67892e-05 2.60516e-05 2.60304e-05 -5.74715e-06
-8.43723e-05 2.53266e-05 2.53053e-05 -5.74722e-06
-9.56489e-05 2.87111e-05 2.86876e-05 7.60377e-12
-9.00091e-05 2.70189e-05 2.69958e-05 -9.35669e-13
-6.42336e-05 1.92838e-05 1.92642e-05 -1.06105e-05
-6.82617e-05 2.04921e-05 2.04727e-05 -1.06103e-05
-9.2829e-05 2.7865e-05 2.78417e-05 1.53116e-11
-7.71214e-05 2.31513e-05 2.313e-05 -5.74752e-06
-6.62476e-05 1.98879e-05 1.98684e-05 -1.06104e-05
-8.19553e-05 2.46015e-05 2.45802e-05 -5.74731e-06
-7.95383e-05 2.38764e-05 2.38551e-05 -5.74742e-06
-9.00091e-05 2.70189e-05 2.69958e-05 -9.35669e-13
-8.43689e-05 2.53267e-05 2.53038e-05 -1.27396e-11
-6.02055e-05 1.80752e-05 1.80559e-05 -1.06104e-05
-6.42336e-05 1.92838e-05 1.92642e-05 -1.06105e-05
-8.71891e-05 2.61728e-05 2.61498e-05 -2.3194e-11
-7.22875e-05 2.17011e-05 2.16799e-05 -5.74765e-06
-6.22195e-05 1.86795e-05 1.866e-05 -1.06105e-05
-7.71214e-05 2.31513e-05 2.313e-05 -5.74752e-06
-7.47044e-05 2.24262e-05 2.24049e-05 -5.74761e-06
-8.43689e-05 2.53267e-05 2.53038e-05 -1.27396e-11
-7.87285e-05 2.36343e-05 2.36118e-05 -1.05943e-10
-5.61776e-05 1.68662e-05 1.68477e-05 -1.06097e-05
-6.02055e-05 1.80752e-05 1.80559e-05 -1.06104e-05
-8.15487e-05 2.44805e-05 2.44578e-05 7.91783e-13
-6.74538e-05 2.02508e-05 2.02299e-05 -5.74746e-06
-5.81916e-05 1.74708e-05 1.74518e-05 -1.06102e-05
-7.22875e-05 2.17011e-05 2.16799e-05 -5.74765e-06
-6.98705e-05 2.0976e-05 2.09548e-05 -5.74763e-06
-7.87285e-05 2.36343e-05 2.36118e-05 -1.05973e-10
-7.3088e-05 2.19421e-05 2.19197e-05 -1.57131e-10
-5.21498e-05 1.5656e-05 1.56402e-05 -1.06072e-05
-5.61776e-05 1.68662e-05 1.68477e-05 -1.06097e-05
-7.59083e-05 2.27883e-05 2.27657e-05 -2.21295e-10
-6.26208e-05 1.88005e-05 1.87801e-05 -5.7461e-06
-5.41636e-05 1.62613e-05 1.62438e-05 -1.06088e-05
-6.74538e-05 2.02508e-05 2.02299e-05 -5.74746e-06
-6.50372e-05 1.95256e-05 1.9505e-05 -5.74698e-06
-7.3088e-05 2.19421e-05 2.19197e-05 -1.57131e-10
-6.74496e-05 2.025e-05 2.02284e-05 -6.80147e-10
-4.81217e-05 1.44433e-05 1.44336e-05 -1.06008e-05
-5.21498e-05 1.5656e-05 1.56402e-05 -1.06072e-05
-7.02683e-05 2.10957e-05 2.1074e-05 -1.47271e-10
-5.77903e-05 1.73501e-05 1.73315e-05 -5.74218e-06
-5.01359e-05 1.50501e-05 1.50368e-05 -1.06047e-05
-6.26208e-05 1.88005e-05 1.87801e-05 -5.7461e-06
-6.0205e-05 1.80753e-05 1.80556e-05 -5.74464e-06
-6.74496e-05 2.025e-05 2.02284e-05 -6.80147e-10
-6.18153e-05 1.85609e-05 1.85376e-05 -7.61991e-10
-4.40939e-05 1.32257e-05 1.32292e-05 -1.05854e-05
-4.81217e-05 1.44433e-05 1.44336e-05 -1.06008e-05
-6.4632e-05 1.94056e-05 1.93827e-05 -1.17361e-09
-5.29642e-05 1.58998e-05 1.58848e-05 -5.73203e-06
-4.61075e-05 1.38353e-05 1.38309e-05 -1.05947e-05
-5.77903e-05 1.73501e-05 1.73315e-05 -5.74218e-06
-5.53766e-05 1.66249e-05 1.66079e-05 -5.73809e-06
-6.18153e-05 1.85609e-05 1.85376e-05 -7.61991e-10
-5.6198e-05 1.68735e-05 1.68533e-05 -3.09445e-09
-4.00629e-05 1.1999e-05 1.20274e-05 -1.0554e-05
-4.40939e-05 1.32257e-05 1.32292e-05 -1.05854e-05
-5.90029e-05 1.77151e-05 1.76948e-05 -7.66393e-10
-4.81502e-05 1.445e-05 1.4443e-05 -5.70983e-06
-4.20794e-05 1.2614e-05 1.2628e-05 -1.05722e-05
-5.29642e-05 1.58998e-05 1.58848e-05 -5.73203e-06
-5.05548e-05 1.51748e-05 1.51628e-05 -5.72328e-06
-5.6198e-05 1.68735e-05 1.68533e-05 -3.09445e-09
-5.06076e-05 1.52046e-05 1.51727e-05 -2.66582e-09
-3.60308e-05 1.07549e-05 1.08325e-05 -1.04896e-05
-4.00629e-05 1.1999e-05 1.20274e-05 -1.0554e-05
-5.33998e-05 1.60399e-05 1.60114e-05 -5.03939e-09
-4.33555e-05 1.30013e-05 1.30089e-05 -5.66319e-06
-3.80461e-05 1.13793e-05 1.14286e-05 -1.05276e-05
-4.81502e-05 1.445e-05 1.4443e-05 -5.70983e-06
-4.57505e-05 1.37252e-05 1.37251e-05 -5.68999e-06
-5.06076e-05 1.52046e-05 1.51727e-05 -2.66582e-09
-4.50987e-05 1.35421e-05 1.35242e-05 -1.17471e-08
-3.19807e-05 9.4839e-06 9.64149e-06 -1.03749e-05
-3.60308e-05 1.07549e-05 1.08325e-05 -1.04896e-05
-4.78358e-05 1.43629e-05 1.43455e-05 -2.28274e-09
-3.86072e-05 1.15564e-05 1.15932e-05 -5.57216e-06
-3.4011e-05 1.01248e-05 1.0237e-05 -1.04397e-05
-4.33555e-05 1.30013e-05 1.30089e-05 -5.66319e-06
-4.09721e-05 1.22788e-05 1.22971e-05 -5.62674e-06
-4.50987e-05 1.35421e-05 1.35242e-05 -1.17471e-08
-3.97089e-05 1.1968e-05 1.18889e-05 -7.22845e-09
-2.79178e-05 8.16246e-06 8.46658e-06 -1.01654e-05
-3.19807e-05 9.4839e-06 9.64149e-06 -1.03749e-05
-4.23914e-05 1.27605e-05 1.2699e-05 -1.95343e-08
-3.39194e-05 1.01148e-05 1.0202e-05 -5.40477e-06
-2.99472e-05 8.82821e-06 9.05099e-06 -1.02864e-05
-3.86072e-05 1.15564e-05 1.15932e-05 -5.57216e-06
-3.62574e-05 1.08336e-05 1.08959e-05 -5.49716e-06
-3.97089e-05 1.1968e-05 1.18889e-05 -7.22845e-09
-3.46273e-05 1.03979e-05 1.0384e-05 -3.92896e-08
-2.37662e-05 6.7846e-06 7.27781e-06 -9.84426e-06
-2.79178e-05 8.16246e-06 8.46658e-06 -1.01654e-05
-3.71035e-05 1.11371e-05 1.11285e-05 -1.91524e-09
-2.93765e-05 8.68871e-06 8.86621e-06 -5.10216e-06
-2.58662e-05 7.48807e-06 7.87636e-06 -1.0019e-05
-3.39194e-05 1.01148e-05 1.0202e-05 -5.40477e-06
-3.16177e-05 9.40276e-06 9.52068e-06 -5.28434e-06
-3.46273e-05 1.03979e-05 1.0384e-05 -3.92896e-08
-2.99818e-05 9.20755e-06 8.90324e-06 -1.34428e-08
-1.95311e-05 5.29333e-06 6.10191e-06 -9.3442e-06
-2.37662e-05 6.7846e-06 7.27781e-06 -9.84426e-06
-3.22602e-05 9.83701e-06 9.60995e-06 -7.33352e-08
-2.49541e-05 7.25837e-06 7.58389e-06 -4.6215e-06
-2.16452e-05 6.03945e-06 6.68818e-06 -9.6225e-06
-2.93765e-05 8.68871e-06 8.86621e-06 -5.10216e-06
-2.71655e-05 7.96725e-06 8.22782e-06 -4.86971e-06
-2.99818e-05 9.20755e-06 8.90324e-06 -1.34428e-08
-2.62988e-05 7.89574e-06 7.88701e-06 -1.08028e-07
-1.49153e-05 3.80894e-06 4.75988e-06 -8.80639e-06
-1.95311e-05 5.29333e-06 6.10191e-06 -9.3442e-06
-2.7944e-05 8.36364e-06 8.39158e-06 3.19721e-08
-2.08704e-05 5.87185e-06 6.42797e-06 -3.82708e-06
-1.73218e-05 4.57461e-06 5.46309e-06 -9.06455e-06
-2.49541e-05 7.25837e-06 7.58389e-06 -4.6215e-06
-2.28274e-05 6.57444e-06 6.96557e-06 -4.31553e-06
-2.62988e-05 7.89574e-06 7.88701e-06 -1.08028e-07
-2.41539e-05 8.05889e-06 6.89785e-06 1.75262e-07
-9.9504e-06 2.33854e-06 3.26222e-06 -8.46319e-06
-1.49153e-05 3.80894e-06 4.75988e-06 -8.80639e-06
-2.50381e-05 8.18751e-06 7.22166e-06 -2.3661e-07
-1.66114e-05 4.377e-06 5.2433e-06 -2.96498e-06
-1.24215e-05 2.97154e-06 4.05e-06 -8.57549e-06
-2.08704e-05 5.87185e-06 6.42797e-06 -3.82708e-06
-1.88696e-05 5.11759e-06 5.89372e-06 -3.29757e-06
-2.41539e-05 8.05889e-06 6.89785e-06 1.75262e-07
-2.54603e-05 6.94099e-06 7.93683e-06 1.04759e-06
-4.19119e-06 2.46793e-06 7.38541e-07 -9.88518e-06
-9.9504e-06 2.33854e-06 3.26222e-06 -8.46319e-06
-2.41325e-05 6.77445e-06 7.43917e-06 7.46004e-07
-1.20655e-05 3.13093e-06 3.82911e-06 -2.44304e-06
-7.28069e-06 2.18339e-06 2.18456e-06 -8.80158e-06
-1.66114e-05 4.377e-06 5.2433e-06 -2.96498e-06
-1.42814e-05 3.71929e-06 4.52663e-06 -2.77036e-06
-2.54603e-05 6.94099e-06 7.93683e-06 1.04759e-06
-3.46703e-05 6.96595e-06 1.18733e-05 8.12728e-06
-1.50154e-06 9.10152e-06 -3.25713e-06 -1.50742e-05
-4.19119e-06 2.46793e-06 7.38541e-07 -9.88518e-06
-2.87639e-05 9.69702e-06 8.17153e-06 2.194e-06
-2.72119e-06 5.68861e-06 -1.27175e-06 -8.75157e-06
-1.86907e-06 3.7273e-06 -7.96385e-07 -1.17408e-05
-1.20655e-05 3.13093e-06 3.82911e-06 -2.44304e-06
-8.65004e-06 3.03559e-06 2.40619e-06 -3.64751e-06
-3.46703e-05 6.96595e-06 1.18733e-05 8.12728e-06
-1.9677e-05 5.29221e-05 -1.42479e-05 -4.11897e-05
-1.23262e-05 4.02356e-05 -1.19612e-05 -1.52119e-05
-1.50154e-06 9.10152e-06 -3.25713e-06 -1.50742e-05
-3.45281e-05 2.04304e-06 1.39222e-05 3.52586e-06
-1.10196e-05 4.94885e-05 -1.64867e-05 -2.44593e-05
-4.51259e-06 2.14914e-05 -7.27662e-06 -1.77414e-05
-2.72119e-06 5.68861e-06 -1.27175e-06 -8.75157e-06
-1.20297e-06 1.62277e-05 -6.43915e-06 -1.62013e-05
-0.000676415 0 0.000289892 -3.86628e-05
-0.000761585 0.000151076 0.000261647 -5.66108e-05
-0.000441138 5.82193e-05 0.000164108 -1.6966e-06
-0.000390101 0 0.000167186 5.12038e-05
-0.000724216 7.137e-05 0.000279791 -6.56943e-05
-0.000588254 9.1121e-05 0.000213057 -2.34335e-05
-0.00042272 3.27349e-05 0.000167137 1.92547e-05
-0.000553836 0 0.000237358 8.08956e-06
-0.000563231 5.05165e-05 0.000219735 -7.44647e-06
-0.000761585 0.000151076 0.000261647 -5.66108e-05
-0.000791286 0.000214232 0.000247308 -2.69363e-05
-0.000463662 0.00010648 0.000153078 -1.81579e-05
-0.000441138 5.82193e-05 0.000164108 -1.6966e-06
-0.000785089 0.000195663 0.000252611 -4.0811e-05
-0.000627378 0.00015468 0.000202585 -2.73777e-05
-0.000452429 8.3885e-05 0.000157947 -1.2306e-05
-0.000588254 9.1121e-05 0.000213057 -2.34335e-05
-0.000614453 0.000126837 0.000208978 -3.07589e-05
-0.000791286 0.000214232 0.000247308 -2.69363e-05
-0.000787456 0.000231913 0.00023809 -1.00216e-05
-0.000475073 0.000130812 0.000147541 -2.13359e-05
-0.000463662 0.00010648 0.000153078 -1.81579e-05
-0.000789101 0.000225232 0.000241658 -1.58271e-05
-0.000633663 0.000180177 0.000194351 -1.83902e-05
-0.000472117 0.000121587 0.000150227 -2.10389e-05
-0.000627378 0.00015468 0.000202585 -2.73777e-05
-0.000632095 0.000171334 0.000197469 -2.16439e-05
-0.000787456 0.000231913 0.00023809 -1.00216e-05
-0.000781906 0.000234314 0.000234682 -6.27464e-06
-0.000474634 0.000140351 0.000143264 -1.97402e-05
-0.000475073 0.000130812 0.000147541 -2.13359e-05
-0.000785381 0.000234251 0.000236199 -7.49993e-06
-0.00063059 0.000188294 0.000189556 -1.39936e-05
-0.000475067 0.000136804 0.00014497 -2.04415e-05
-0.000633663 0.000180177 0.000194351 -1.83902e-05
-0.000632892 0.000185468 0.000191753 -1.60262e-05
-0.000781906 0.000234314 0.000234682 -6.27464e-06
-0.000775501 0.000233903 0.000232114 -6.12463e-06
-0.0004713 0.000142152 0.000141063 -1.86604e-05
-0.000474634 0.000140351 0.000143264 -1.97402e-05
-0.000778218 0.000234184 0.000233157 -5.82563e-06
-0.000624798 0.000188735 0.000186884 -1.26283e-05
-0.000473477 0.000141872 0.000142116 -1.92052e-05
-0.00063059 0.000188294 0.000189556 -1.39936e-05
-0.000627609 0.000189074 0.000187944 -1.28498e-05
-0.000775501 0.000233903 0.000232114 -6.12463e-06
-0.000770639 0.000232177 0.000230769 -7.4181e-06
-0.000466606 0.000141415 0.000139368 -1.79379e-05
-0.0004713 0.000142152 0.000141063 -1.86604e-05
-0.000773171 0.000233149 0.000231438 -6.8056e-06
-0.000619466 0.000187403 0.00018517 -1.27444e-05
-0.000468783 0.000141935 0.000140078 -1.81855e-05
-0.000624798 0.000188735 0.000186884 -1.26283e-05
-0.000622103 0.000188143 0.000185983 -1.2683e-05
-0.000770639 0.000232177 0.000230769 -7.4181e-06
-0.000765935 0.000230496 0.000229474 -8.50083e-06
-0.000462519 0.00013983 0.000138296 -1.77196e-05
-0.000466606 0.000141415 0.000139368 -1.79379e-05
-0.000768147 0.000231302 0.000230076 -7.96112e-06
-0.000614666 0.000185489 0.000183933 -1.32328e-05
-0.00046458 0.000140667 0.00013882 -1.78186e-05
-0.000619466 0.000187403 0.00018517 -1.27444e-05
-0.000616962 0.000186473 0.000184495 -1.29342e-05
-0.000765935 0.000230496 0.000229474 -8.50083e-06
-0.000761709 0.000228863 0.000228362 -9.38125e-06
-0.000458799 0.000138284 0.000137364 -1.76252e-05
-0.000462519 0.00013983 0.000138296 -1.77196e-05
-0.000763842 0.000229674 0.000228929 -8.99938e-06
-0.000610489 0.000183776 0.000182877 -1.37166e-05
-0.00046055 0.000139031 0.000137794 -1.76469e-05
-0.000614666 0.000185489 0.000183933 -1.32328e-05
-0.000612526 0.000184595 0.000183399 -1.35077e-05
-0.000761709 0.000228863 0.000228362 -9.38125e-06
-0.000757532 0.000227388 0.000227205 -9.91484e-06
-0.000455627 0.000136931 0.000136584 -1.76298e-05
-0.000458799 0.000138284 0.000137364 -1.76252e-05
-0.000759587 0.000228105 0.000227778 -9.6744e-06
-0.000606693 0.000182256 0.000181901 -1.40744e-05
-0.000457186 0.000137581 0.000136973 -1.76287e-05
-0.000610489 0.000183776 0.000182877 -1.37166e-05
-0.000608548 0.000182993 0.000182381 -1.39044e-05
-0.000757532 0.000227388 0.000227205 -9.91484e-06
-0.000753467 0.000226009 0.000226053 -1.02505e-05
-0.000452737 0.000135801 0.00013583 -1.76403e-05
-0.000455627 0.000136931 0.000136584 -1.76298e-05
-0.000755504 0.000226689 0.000226635 -1.01092e-05
-0.000603159 0.000180954 0.000180945 -1.43047e-05
-0.000454139 0.00013634 0.000136199 -1.76317e-05
-0.000606693 0.000182256 0.000181901 -1.40744e-05
-0.000604904 0.000181582 0.000181424 -1.42079e-05
-0.000753467 0.000226009 0.000226053 -1.02505e-05
-0.000749411 0.000224706 0.000224874 -1.04296e-05
-0.000450073 0.000134831 0.000135104 -1.76582e-05
-0.000452737 0.000135801 0.00013583 -1.76403e-05
-0.000751432 0.00022535 0.000225464 -1.03525e-05
-0.000599769 0.000179787 0.000179992 -1.4442e-05
-0.000451391 0.0001353 0.000135468 -1.7651e-05
-0.000603159 0.000180954 0.000180945 -1.43047e-05
-0.00060145 0.000180358 0.000180468 -1.43812e-05
-0.000749411 0.000224706 0.000224874 -1.04296e-05
-0.000745376 0.000223445 0.000223685 -1.05276e-05
-0.000447519 0.000133971 0.000134378 -1.76688e-05
-0.000450073 0.000134831 0.000135104 -1.76582e-05
-0.000747395 0.000224072 0.000224281 -1.04875e-05
-0.000596462 0.000178713 0.000179035 -1.45172e-05
-0.000448783 0.000134391 0.00013474 -1.76636e-05
-0.000599769 0.000179787 0.000179992 -1.4442e-05
-0.000598109 0.000179241 0.000179515 -1.44864e-05
-0.000745376 0.000223445 0.000223685 -1.05276e-05
-0.000741342 0.000222211 0.000222485 -1.05742e-05
-0.000445036 0.000133175 0.000133655 -1.76763e-05
-0.000447519 0.000133971 0.000134378 -1.76688e-05
-0.000743358 0.000222826 0.000223085 -1.0555e-05
-0.000593198 0.000177691 0.000178075 -1.45564e-05
-0.000446273 0.000133567 0.000134017 -1.76733e-05
-0.000596462 0.000178713 0.000179035 -1.45172e-05
-0.000594827 0.000178197 0.000178555 -1.45398e-05
-0.000741342 0.000222211 0.000222485 -1.05742e-05
-0.000737311 0.000220991 0.00022128 -1.05964e-05
-0.000442585 0.000132417 0.000132929 -1.76799e-05
-0.000445036 0.000133175 0.000133655 -1.76763e-05
-0.000739327 0.0002216 0.000221883 -1.05877e-05
-0.000589955 0.000176698 0.00017711 -1.45751e-05
-0.000443807 0.000132793 0.000133292 -1.76783e-05
-0.000593198 0.000177691 0.000178075 -1.45564e-05
-0.000591575 0.000177191 0.000177593 -1.45677e-05
-0.000737311 0.000220991 0.00022128 -1.05964e-05
-0.000733278 0.000219777 0.000220072 -1.06052e-05
-0.000440151 0.000131677 0.000132203 -1.76818e-05
-0.000442585 0.000132417 0.000132929 -1.76799e-05
-0.000735294 0.000220383 0.000220676 -1.06018e-05
-0.000586722 0.00017572 0.000176143 -1.45834e-05
-0.000441367 0.000132045 0.000132566 -1.76811e-05
-0.000589955 0.000176698 0.00017711 -1.45751e-05
-0.000588337 0.000176208 0.000176627 -1.45801e-05
-0.000733278 0.000219777 0.000220072 -1.06052e-05
-0.000729247 0.000218568 0.000218862 -1.06084e-05
-0.000437725 0.000130948 0.000131476 -1.76824e-05
-0.000440151 0.000131677 0.000132203 -1.76818e-05
-0.000731263 0.000219172 0.000219467 -1.06073e-05
-0.000583493 0.00017475 0.000175175 -1.45865e-05
-0.000438937 0.000131312 0.000131839 -1.76822e-05
-0.000586722 0.00017572 0.000176143 -1.45834e-05
-0.000585107 0.000175235 0.000175659 -1.45854e-05
-0.000729247 0.000218568 0.000218862 -1.06084e-05
-0.000725214 0.000217359 0.000217652 -1.06089e-05
-0.000435302 0.000130223 0.000130748 -1.76825e-05
-0.000437725 0.000130948 0.000131476 -1.76824e-05
-0.000727231 0.000217963 0.000218257 -1.06088e-05
-0.000580265 0.000173784 0.000174206 -1.45874e-05
-0.000436513 0.000130585 0.000131112 -1.76825e-05
-0.000583493 0.00017475 0.000175175 -1.45865e-05
-0.000581879 0.000174267 0.000174691 -1.45871e-05
-0.000725214 0.000217359 0.000217652 -1.06089e-05
-0.000721182 0.000216152 0.000216442 -1.06087e-05
-0.00043288 0.0001295 0.00013002 -1.76825e-05
-0.000435302 0.000130223 0.000130748 -1.76825e-05
-0.000723198 0.000216756 0.000217047 -1.06089e-05
-0.000577038 0.000172819 0.000173237 -1.45873e-05
-0.000434091 0.000129861 0.000130384 -1.76825e-05
-0.000580265 0.000173784 0.000174206 -1.45874e-05
-0.000578651 0.000173301 0.000173722 -1.45874e-05
-0.000721182 0.000216152 0.000216442 -1.06087e-05
-0.00071715 0.000214945 0.000215231 -1.06082e-05
-0.000430458 0.000128778 0.000129292 -1.76823e-05
-0.00043288 0.0001295 0.00013002 -1.76825e-05
-0.000719166 0.000215548 0.000215836 -1.06084e-05
-0.000573811 0.000171854 0.000172267 -1.45871e-05
-0.000431669 0.000129139 0.000129656 -1.76824e-05
-0.000577038 0.000172819 0.000173237 -1.45873e-05
-0.000575424 0.000172336 0.000172752 -1.45872e-05
-0.00071715 0.000214945 0.000215231 -1.06082e-05
-0.000713117 0.000213738 0.00021402 -1.06078e-05
-0.000428036 0.000128055 0.000128563 -1.76822e-05
-0.000430458 0.000128778 0.000129292 -1.76823e-05
-0.000715134 0.000214341 0.000214625 -1.0608e-05
-0.000570584 0.000170889 0.000171298 -1.45868e-05
-0.000429247 0.000128416 0.000128927 -1.76822e-05
-0.000573811 0.000171854 0.000172267 -1.45871e-05
-0.000572197 0.000171372 0.000171782 -1.45869e-05
-0.000713117 0.000213738 0.00021402 -1.06078e-05
-0.000709085 0.00021253 0.000212809 -1.06075e-05
-0.000425614 0.000127333 0.000127835 -1.76821e-05
-0.000428036 0.000128055 0.000128563 -1.76822e-05
-0.000711101 0.000213134 0.000213415 -1.06077e-05
-0.000567357 0.000169925 0.000170328 -1.45865e-05
-0.000426825 0.000127694 0.000128199 -1.76821e-05
-0.000570584 0.000170889 0.000171298 -1.45868e-05
-0.00056897 0.000170407 0.000170813 -1.45866e-05
-0.000709085 0.00021253 0.000212809 -1.06075e-05
-0.000705053 0.000211323 0.000211598 -1.06074e-05
-0.000423192 0.000126611 0.000127106 -1.7682e-05
-0.000425614 0.000127333 0.000127835 -1.76821e-05
-0.000707069 0.000211927 0.000212204 -1.06074e-05
-0.000564129 0.00016896 0.000169358 -1.45864e-05
-0.000424403 0.000126972 0.000127471 -1.7682e-05
-0.000567357 0.000169925 0.000170328 -1.45865e-05
-0.000565743 0.000169442 0.000169843 -1.45865e-05
-0.000705053 0.000211323 0.000211598 -1.06074e-05
-0.00070102 0.000210116 0.000210388 -1.06073e-05
-0.00042077 0.000125888 0.000126378 -1.7682e-05
-0.000423192 0.000126611 0.000127106 -1.7682e-05
-0.000703037 0.00021072 0.000210993 -1.06073e-05
-0.000560902 0.000167995 0.000168389 -1.45863e-05
-0.000421981 0.00012625 0.000126742 -1.7682e-05
-0.000564129 0.00016896 0.000169358 -1.45864e-05
-0.000562516 0.000168478 0.000168873 -1.45864e-05
-0.00070102 0.000210116 0.000210388 -1.06073e-05
-0.000696988 0.000208909 0.000209177 -1.06072e-05
-0.000418348 0.000125166 0.00012565 -1.7682e-05
-0.00042077 0.000125888 0.000126378 -1.7682e-05
-0.000699004 0.000209512 0.000209782 -1.06073e-05
-0.000557675 0.00016703 0.000167419 -1.45863e-05
-0.000419559 0.000125527 0.000126014 -1.7682e-05
-0.000560902 0.000167995 0.000168389 -1.45863e-05
-0.000559289 0.000167513 0.000167904 -1.45863e-05
-0.000696988 0.000208909 0.000209177 -1.06072e-05
-0.000692956 0.000207701 0.000207966 -1.06072e-05
-0.000415926 0.000124443 0.000124921 -1.7682e-05
-0.000418348 0.000125166 0.00012565 -1.7682e-05
-0.000694972 0.000208305 0.000208572 -1.06072e-05
-0.000554448 0.000166066 0.000166449 -1.45863e-05
-0.000417137 0.000124805 0.000125285 -1.7682e-05
-0.000557675 0.00016703 0.000167419 -1.45863e-05
-0.000556061 0.000166548 0.000166934 -1.45863e-05
-0.000692956 0.000207701 0.000207966 -1.06072e-05
-0.000688923 0.000206494 0.000206755 -1.06072e-05
-0.000413504 0.000123721 0.000124193 -1.7682e-05
-0.000415926 0.000124443 0.000124921 -1.7682e-05
-0.00069094 0.000207098 0.000207361 -1.06072e-05
-0.00055122 0.000165101 0.00016548 -1.45863e-05
-0.000414715 0.000124082 0.000124557 -1.7682e-05
-0.000554448 0.000166066 0.000166449 -1.45863e-05
-0.000552834 0.000165583 0.000165965 -1.45863e-05
-0.000688923 0.000206494 0.000206755 -1.06072e-05
-0.000684891 0.000205287 0.000205545 -1.06073e-05
-0.000411082 0.000122998 0.000123464 -1.7682e-05
-0.000413504 0.000123721 0.000124193 -1.7682e-05
-0.000686907 0.00020589 0.00020615 -1.06073e-05
-0.000547993 0.000164136 0.00016451 -1.45863e-05
-0.000412293 0.000123359 0.000123829 -1.7682e-05
-0.00055122 0.000165101 0.00016548 -1.45863e-05
-0.000549607 0.000164618 0.000164995 -1.45863e-05
-0.000684891 0.000205287 0.000205545 -1.06073e-05
-0.000680859 0.000204079 0.000204334 -1.06073e-05
-0.00040866 0.000122275 0.000122736 -1.76821e-05
-0.000411082 0.000122998 0.000123464 -1.7682e-05
-0.000682875 0.000204683 0.000204939 -1.06073e-05
-0.000544766 0.000163171 0.000163541 -1.45864e-05
-0.000409871 0.000122637 0.0001231 -1.7682e-05
-0.000547993 0.000164136 0.00016451 -1.45863e-05
-0.000546379 0.000163653 0.000164025 -1.45863e-05
-0.000680859 0.000204079 0.000204334 -1.06073e-05
-0.000676827 0.000202872 0.000203123 -1.06073e-05
-0.000406238 0.000121553 0.000122008 -1.76821e-05
-0.00040866 0.000122275 0.000122736 -1.76821e-05
-0.000678843 0.000203476 0.000203729 -1.06073e-05
-0.000541539 0.000162206 0.000162571 -1.45864e-05
-0.000407449 0.000121914 0.000122372 -1.76821e-05
-0.000544766 0.000163171 0.000163541 -1.45864e-05
-0.000543152 0.000162688 0.000163056 -1.45864e-05
-0.000676827 0.000202872 0.000203123 -1.06073e-05
-0.000672795 0.000201665 0.000201913 -1.06073e-05
-0.000403816 0.00012083 0.00012128 -1.76821e-05
-0.000406238 0.000121553 0.000122008 -1.76821e-05
-0.000674811 0.000202268 0.000202518 -1.06073e-05
-0.000538311 0.000161241 0.000161602 -1.45864e-05
-0.000405027 0.000121192 0.000121644 -1.76821e-05
-0.000541539 0.000162206 0.000162571 -1.45864e-05
-0.000539925 0.000161724 0.000162086 -1.45864e-05
-0.000672795 0.000201665 0.000201913 -1.06073e-05
-0.000668762 0.000200457 0.000200702 -1.06074e-05
-0.000401394 0.000120107 0.000120551 -1.76821e-05
-0.000403816 0.00012083 0.00012128 -1.76821e-05
-0.000670778 0.000201061 0.000201308 -1.06074e-05
-0.000535084 0.000160276 0.000160632 -1.45864e-05
-0.000402605 0.000120469 0.000120915 -1.76821e-05
-0.000538311 0.000161241 0.000161602 -1.45864e-05
-0.000536698 0.000160759 0.000161117 -1.45864e-05
-0.000668762 0.000200457 0.000200702 -1.06074e-05
-0.00066473 0.00019925 0.000199492 -1.06074e-05
-0.000398972 0.000119385 0.000119823 -1.76821e-05
-0.000401394 0.000120107 0.000120551 -1.76821e-05
-0.000666746 0.000199854 0.000200097 -1.06074e-05
-0.000531857 0.000159311 0.000159663 -1.45865e-05
-0.000400183 0.000119746 0.000120187 -1.76821e-05
-0.000535084 0.000160276 0.000160632 -1.45864e-05
-0.000533471 0.000159794 0.000160147 -1.45864e-05
-0.00066473 0.00019925 0.000199492 -1.06074e-05
-0.000660698 0.000198043 0.000198281 -1.06074e-05
-0.00039655 0.000118662 0.000119095 -1.76821e-05
-0.000398972 0.000119385 0.000119823 -1.76821e-05
-0.000662714 0.000198646 0.000198886 -1.06074e-05
-0.00052863 0.000158346 0.000158693 -1.45865e-05
-0.000397761 0.000119023 0.000119459 -1.76821e-05
-0.000531857 0.000159311 0.000159663 -1.45865e-05
-0.000530244 0.000158829 0.000159178 -1.45865e-05
-0.000660698 0.000198043 0.000198281 -1.06074e-05
-0.000656666 0.000196835 0.00019707 -1.06074e-05
-0.000394128 0.000117939 0.000118367 -1.76822e-05
-0.00039655 0.000118662 0.000119095 -1.76821e-05
-0.000658682 0.000197439 0.000197676 -1.06074e-05
-0.000525403 0.000157381 0.000157724 -1.45865e-05
-0.000395339 0.000118301 0.000118731 -1.76821e-05
-0.00052863 0.000158346 0.000158693 -1.45865e-05
-0.000527017 0.000157864 0.000158208 -1.45865e-05
-0.000656666 0.000196835 0.00019707 -1.06074e-05
-0.000652634 0.000195628 0.00019586 -1.06074e-05
-0.000391706 0.000117217 0.000117638 -1.76822e-05
-0.000394128 0.000117939 0.000118367 -1.76822e-05
-0.00065465 0.000196231 0.000196465 -1.06074e-05
-0.000522176 0.000156416 0.000156754 -1.45865e-05
-0.000392917 0.000117578 0.000118002 -1.76822e-05
-0.000525403 0.000157381 0.000157724 -1.45865e-05
-0.00052379 0.000156899 0.000157239 -1.45865e-05
-0.000652634 0.000195628 0.00019586 -1.06074e-05
-0.000648602 0.00019442 0.000194649 -1.06075e-05
-0.000389284 0.000116494 0.00011691 -1.76822e-05
-0.000391706 0.000117217 0.000117638 -1.76822e-05
-0.000650618 0.000195024 0.000195255 -1.06075e-05
-0.000518949 0.000155451 0.000155785 -1.45865e-05
-0.000390495 0.000116855 0.000117274 -1.76822e-05
-0.000522176 0.000156416 0.000156754 -1.45865e-05
-0.000520563 0.000155934 0.000156269 -1.45865e-05
-0.000648602 0.00019442 0.000194649 -1.06075e-05
-0.00064457 0.000193213 0.000193439 -1.06075e-05
-0.000386863 0.000115771 0.000116182 -1.76822e-05
-0.000389284 0.000116494 0.00011691 -1.76822e-05
-0.000646586 0.000193817 0.000194044 -1.06075e-05
-0.000515722 0.000154486 0.000154815 -1.45865e-05
-0.000388073 0.000116133 0.000116546 -1.76822e-05
-0.000518949 0.000155451 0.000155785 -1.45865e-05
-0.000517336 0.000154969 0.0001553 -1.45865e-05
-0.00064457 0.000193213 0.000193439 -1.06075e-05
-0.000640538 0.000192006 0.000192228 -1.06075e-05
-0.000384441 0.000115048 0.000115454 -1.76822e-05
-0.000386863 0.000115771 0.000116182 -1.76822e-05
-0.000642554 0.000192609 0.000192833 -1.06075e-05
-0.000512495 0.000153521 0.000153846 -1.45866e-05
-0.000385652 0.00011541 0.000115818 -1.76822e-05
-0.000515722 0.000154486 0.000154815 -1.45865e-05
-0.000514109 0.000154004 0.000154331 -1.45866e-05
-0.000640538 0.000192006 0.000192228 -1.06075e-05
-0.000636506 0.000190798 0.000191018 -1.06075e-05
-0.000382019 0.000114326 0.000114726 -1.76822e-05
-0.000384441 0.000115048 0.000115454 -1.76822e-05
-0.000638522 0.000191402 0.000191623 -1.06075e-05
-0.000509268 0.000152556 0.000152877 -1.45866e-05
-0.00038323 0.000114687 0.00011509 -1.76822e-05
-0.000512495 0.000153521 0.000153846 -1.45866e-05
-0.000510882 0.000153039 0.000153361 -1.45866e-05
-0.000636506 0.000190798 0.000191018 -1.06075e-05
-0.000632474 0.000189591 0.000189807 -1.06075e-05
-0.000379597 0.000113603 0.000113998 -1.76822e-05
-0.000382019 0.000114326 0.000114726 -1.76822e-05
-0.00063449 0.000190194 0.000190412 -1.06075e-05
-0.000506041 0.000151591 0.000151907 -1.45866e-05
-0.000380808 0.000113964 0.000114362 -1.76822e-05
-0.000509268 0.000152556 0.000152877 -1.45866e-05
-0.000507655 0.000152074 0.000152392 -1.45866e-05
-0.000632474 0.000189591 0.000189807 -1.06075e-05
-0.000628442 0.000188383 0.000188597 -1.06076e-05
-0.000377176 0.00011288 0.00011327 -1.76822e-05
-0.000379597 0.000113603 0.000113998 -1.76822e-05
-0.000630458 0.000188987 0.000189202 -1.06075e-05
-0.000502814 0.000150626 0.000150938 -1.45866e-05
-0.000378387 0.000113241 0.000113634 -1.76822e-05
-0.000506041 0.000151591 0.000151907 -1.45866e-05
-0.000504428 0.000151109 0.000151423 -1.45866e-05
-0.000628442 0.000188383 0.000188597 -1.06076e-05
-0.00062441 0.000187176 0.000187386 -1.06076e-05
-0.000374754 0.000112157 0.000112542 -1.76822e-05
-0.000377176 0.00011288 0.00011327 -1.76822e-05
-0.000626426 0.00018778 0.000187991 -1.06076e-05
-0.000499588 0.000149661 0.000149968 -1.45866e-05
-0.000375965 0.000112519 0.000112906 -1.76822e-05
-0.000502814 0.000150626 0.000150938 -1.45866e-05
-0.000501201 0.000150144 0.000150453 -1.45866e-05
-0.00062441 0.000187176 0.000187386 -1.06076e-05
-0.000620378 0.000185969 0.000186176 -1.06076e-05
-0.000372333 0.000111434 0.000111813 -1.76822e-05
-0.000374754 0.000112157 0.000112542 -1.76822e-05
-0.000622394 0.000186572 0.000186781 -1.06076e-05
-0.000496361 0.000148696 0.000148999 -1.45866e-05
-0.000373543 0.000111796 0.000112178 -1.76822e-05
-0.000499588 0.000149661 0.000149968 -1.45866e-05
-0.000497974 0.000149179 0.000149484 -1.45866e-05
-0.000620378 0.000185969 0.000186176 -1.06076e-05
-0.000616346 0.000184761 0.000184965 -1.06076e-05
-0.000369911 0.000110712 0.000111085 -1.76823e-05
-0.000372333 0.000111434 0.000111813 -1.76822e-05
-0.000618362 0.000185365 0.00018557 -1.06076e-05
-0.000493134 0.000147731 0.00014803 -1.45867e-05
-0.000371122 0.000111073 0.000111449 -1.76823e-05
-0.000496361 0.000148696 0.000148999 -1.45866e-05
-0.000494747 0.000148214 0.000148515 -1.45867e-05
-0.000616346 0.000184761 0.000184965 -1.06076e-05
-0.000612315 0.000183554 0.000183755 -1.06076e-05
-0.000367489 0.000109989 0.000110357 -1.76823e-05
-0.000369911 0.000110712 0.000111085 -1.76823e-05
-0.000614331 0.000184157 0.00018436 -1.06076e-05
-0.000489907 0.000146766 0.000147061 -1.45867e-05
-0.0003687 0.00011035 0.000110721 -1.76823e-05
-0.000493134 0.000147731 0.00014803 -1.45867e-05
-0.000491521 0.000147248 0.000147545 -1.45867e-05
-0.000612315 0.000183554 0.000183755 -1.06076e-05
-0.000608283 0.000182346 0.000182544 -1.06076e-05
-0.000365068 0.000109266 0.000109629 -1.76823e-05
-0.000367489 0.000109989 0.000110357 -1.76823e-05
-0.000610299 0.00018295 0.000183149 -1.06076e-05
-0.000486681 0.000145801 0.000146091 -1.45867e-05
-0.000366279 0.000109627 0.000109993 -1.76823e-05
-0.000489907 0.000146766 0.000147061 -1.45867e-05
-0.000488294 0.000146283 0.000146576 -1.45867e-05
-0.000608283 0.000182346 0.000182544 -1.06076e-05
-0.000604251 0.000181139 0.000181334 -1.06077e-05
-0.000362646 0.000108543 0.000108901 -1.76823e-05
-0.000365068 0.000109266 0.000109629 -1.76823e-05
-0.000606267 0.000181742 0.000181939 -1.06077e-05
-0.000483454 0.000144836 0.000145122 -1.45867e-05
-0.000363857 0.000108904 0.000109265 -1.76823e-05
-0.000486681 0.000145801 0.000146091 -1.45867e-05
-0.000485067 0.000145318 0.000145607 -1.45867e-05
-0.000604251 0.000181139 0.000181334 -1.06077e-05
-0.000600219 0.000179931 0.000180123 -1.06077e-05
-0.000360225 0.00010782 0.000108174 -1.76823e-05
-0.000362646 0.000108543 0.000108901 -1.76823e-05
-0.000602235 0.000180535 0.000180729 -1.06077e-05
-0.000480227 0.000143871 0.000144153 -1.45867e-05
-0.000361436 0.000108181 0.000108538 -1.76823e-05
-0.000483454 0.000144836 0.000145122 -1.45867e-05
-0.000481841 0.000144353 0.000144637 -1.45867e-05
-0.000600219 0.000179931 0.000180123 -1.06077e-05
-0.000596188 0.000178724 0.000178913 -1.06077e-05
-0.000357804 0.000107097 0.000107446 -1.76823e-05
-0.000360225 0.00010782 0.000108174 -1.76823e-05
-0.000598203 0.000179328 0.000179518 -1.06077e-05
-0.000477001 0.000142906 0.000143184 -1.45867e-05
-0.000359014 0.000107459 0.00010781 -1.76823e-05
-0.000480227 0.000143871 0.000144153 -1.45867e-05
-0.000478614 0.000143388 0.000143668 -1.45867e-05
-0.000596188 0.000178724 0.000178913 -1.06077e-05
-0.000592156 0.000177516 0.000177703 -1.06077e-05
-0.000355382 0.000106374 0.000106718 -1.76823e-05
-0.000357804 0.000107097 0.000107446 -1.76823e-05
-0.000594172 0.00017812 0.000178308 -1.06077e-05
-0.000473774 0.00014194 0.000142214 -1.45868e-05
-0.000356593 0.000106736 0.000107082 -1.76823e-05
-0.000477001 0.000142906 0.000143184 -1.45867e-05
-0.000475387 0.000142423 0.000142699 -1.45867e-05
-0.000592156 0.000177516 0.000177703 -1.06077e-05
-0.000588124 0.000176309 0.000176492 -1.06077e-05
-0.000352961 0.000105651 0.00010599 -1.76823e-05
-0.000355382 0.000106374 0.000106718 -1.76823e-05
-0.00059014 0.000176913 0.000177097 -1.06077e-05
-0.000470547 0.000140975 0.000141245 -1.45868e-05
-0.000354171 0.000106013 0.000106354 -1.76823e-05
-0.000473774 0.00014194 0.000142214 -1.45868e-05
-0.000472161 0.000141458 0.00014173 -1.45868e-05
-0.000588124 0.000176309 0.000176492 -1.06077e-05
-0.000584093 0.000175101 0.000175282 -1.06077e-05
-0.000350539 0.000104928 0.000105262 -1.76823e-05
-0.000352961 0.000105651 0.00010599 -1.76823e-05
-0.000586108 0.000175705 0.000175887 -1.06077e-05
-0.000467321 0.00014001 0.000140276 -1.45868e-05
-0.00035175 0.00010529 0.000105626 -1.76823e-05
-0.000470547 0.000140975 0.000141245 -1.45868e-05
-0.000468934 0.000140493 0.000140761 -1.45868e-05
-0.000584093 0.000175101 0.000175282 -1.06077e-05
-0.000580061 0.000173894 0.000174072 -1.06078e-05
-0.000348118 0.000104205 0.000104534 -1.76823e-05
-0.000350539 0.000104928 0.000105262 -1.76823e-05
-0.000582077 0.000174498 0.000174677 -1.06077e-05
-0.000464094 0.000139045 0.000139307 -1.45868e-05
-0.000349329 0.000104567 0.000104898 -1.76823e-05
-0.000467321 0.00014001 0.000140276 -1.45868e-05
-0.000465708 0.000139528 0.000139791 -1.45868e-05
-0.000580061 0.000173894 0.000174072 -1.06078e-05
-0.000576029 0.000172686 0.000172861 -1.06078e-05
-0.000345697 0.000103482 0.000103806 -1.76823e-05
-0.000348118 0.000104205 0.000104534 -1.76823e-05
-0.000578045 0.00017329 0.000173466 -1.06078e-05
-0.000460868 0.00013808 0.000138338 -1.45868e-05
-0.000346908 0.000103844 0.00010417 -1.76823e-05
-0.000464094 0.000139045 0.000139307 -1.45868e-05
-0.000462481 0.000138562 0.000138822 -1.45868e-05
-0.000576029 0.000172686 0.000172861 -1.06078e-05
-0.000571998 0.000171479 0.000171651 -1.06078e-05
-0.000343276 0.000102759 0.000103078 -1.76823e-05
-0.000345697 0.000103482 0.000103806 -1.76823e-05
-0.000574014 0.000172083 0.000172256 -1.06078e-05
-0.000457641 0.000137115 0.000137369 -1.45868e-05
-0.000344486 0.000103121 0.000103442 -1.76823e-05
-0.000460868 0.00013808 0.000138338 -1.45868e-05
-0.000459255 0.000137597 0.000137853 -1.45868e-05
-0.000571998 0.000171479 0.000171651 -1.06078e-05
-0.000567966 0.000170271 0.000170441 -1.06078e-05
-0.000340854 0.000102036 0.000102351 -1.76824e-05
-0.000343276 0.000102759 0.000103078 -1.76823e-05
-0.000569982 0.000170875 0.000171046 -1.06078e-05
-0.000454415 0.000136149 0.000136399 -1.45868e-05
-0.000342065 0.000102398 0.000102715 -1.76823e-05
-0.000457641 0.000137115 0.000137369 -1.45868e-05
-0.000456028 0.000136632 0.000136884 -1.45868e-05
-0.000567966 0.000170271 0.000170441 -1.06078e-05
-0.000563935 0.000169064 0.00016923 -1.06078e-05
-0.000338433 0.000101313 0.000101623 -1.76824e-05
-0.000340854 0.000102036 0.000102351 -1.76824e-05
-0.00056595 0.000169668 0.000169835 -1.06078e-05
-0.000451188 0.000135184 0.00013543 -1.45868e-05
-0.000339644 0.000101675 0.000101987 -1.76824e-05
-0.000454415 0.000136149 0.000136399 -1.45868e-05
-0.000452802 0.000135667 0.000135915 -1.45868e-05
-0.000563935 0.000169064 0.00016923 -1.06078e-05
-0.000559903 0.000167856 0.00016802 -1.06078e-05
-0.000336012 0.00010059 0.000100895 -1.76824e-05
-0.000338433 0.000101313 0.000101623 -1.76824e-05
-0.000561919 0.00016846 0.000168625 -1.06078e-05
-0.000447962 0.000134219 0.000134461 -1.45869e-05
-0.000337223 0.000100952 0.000101259 -1.76824e-05
-0.000451188 0.000135184 0.00013543 -1.45868e-05
-0.000449575 0.000134702 0.000134946 -1.45869e-05
-0.000559903 0.000167856 0.00016802 -1.06078e-05
-0.000555872 0.000166649 0.00016681 -1.06078e-05
-0.000333591 9.98673e-05 0.000100167 -1.76824e-05
-0.000336012 0.00010059 0.000100895 -1.76824e-05
-0.000557887 0.000167253 0.000167415 -1.06078e-05
-0.000444736 0.000133254 0.000133492 -1.45869e-05
-0.000334802 0.000100229 0.000100531 -1.76824e-05
-0.000447962 0.000134219 0.000134461 -1.45869e-05
-0.000446349 0.000133736 0.000133977 -1.45869e-05
-0.000555872 0.000166649 0.00016681 -1.06078e-05
-0.00055184 0.000165441 0.0001656 -1.06079e-05
-0.00033117 9.91442e-05 9.94396e-05 -1.76824e-05
-0.000333591 9.98673e-05 0.000100167 -1.76824e-05
-0.000553856 0.000166045 0.000166205 -1.06079e-05
-0.000441509 0.000132289 0.000132523 -1.45869e-05
-0.000332381 9.95057e-05 9.98035e-05 -1.76824e-05
-0.000444736 0.000133254 0.000133492 -1.45869e-05
-0.000443123 0.000132771 0.000133008 -1.45869e-05
-0.00055184 0.000165441 0.0001656 -1.06079e-05
-0.000547809 0.000164234 0.000164389 -1.06079e-05
-0.000328749 9.84211e-05 9.87119e-05 -1.76824e-05
-0.00033117 9.91442e-05 9.94396e-05 -1.76824e-05
-0.000549825 0.000164838 0.000164994 -1.06079e-05
-0.000438283 0.000131323 0.000131554 -1.45869e-05
-0.000329959 9.87827e-05 9.90758e-05 -1.76824e-05
-0.000441509 0.000132289 0.000132523 -1.45869e-05
-0.000439896 0.000131806 0.000132039 -1.45869e-05
-0.000547809 0.000164234 0.000164389 -1.06079e-05
-0.000543778 0.000163026 0.000163179 -1.06079e-05
-0.000326328 9.7698e-05 9.79842e-05 -1.76824e-05
-0.000328749 9.84211e-05 9.87119e-05 -1.76824e-05
-0.000545793 0.00016363 0.000163784 -1.06079e-05
-0.000435057 0.000130358 0.000130585 -1.45869e-05
-0.000327538 9.80596e-05 9.83481e-05 -1.76824e-05
-0.000438283 0.000131323 0.000131554 -1.45869e-05
-0.00043667 0.000130841 0.00013107 -1.45869e-05
-0.000543778 0.000163026 0.000163179 -1.06079e-05
-0.000539746 0.000161819 0.000161969 -1.06079e-05
-0.000323907 9.69749e-05 9.72566e-05 -1.76824e-05
-0.000326328 9.7698e-05 9.79842e-05 -1.76824e-05
-0.000541762 0.000162423 0.000162574 -1.06079e-05
-0.000431831 0.000129393 0.000129616 -1.45869e-05
-0.000325117 9.73365e-05 9.76204e-05 -1.76824e-05
-0.000435057 0.000130358 0.000130585 -1.45869e-05
-0.000433444 0.000129875 0.000130101 -1.45869e-05
-0.000539746 0.000161819 0.000161969 -1.06079e-05
-0.000535715 0.000160611 0.000160759 -1.06079e-05
-0.000321486 9.62518e-05 9.65289e-05 -1.76824e-05
-0.000323907 9.69749e-05 9.72566e-05 -1.76824e-05
-0.000537731 0.000161215 0.000161364 -1.06079e-05
-0.000428604 0.000128428 0.000128647 -1.45869e-05
-0.000322696 9.66134e-05 9.68928e-05 -1.76824e-05
-0.000431831 0.000129393 0.000129616 -1.45869e-05
-0.000430218 0.00012891 0.000129132 -1.45869e-05
-0.000535715 0.000160611 0.000160759 -1.06079e-05
-0.000531684 0.000159404 0.000159548 -1.06079e-05
-0.000319065 9.55287e-05 9.58013e-05 -1.76824e-05
-0.000321486 9.62518e-05 9.65289e-05 -1.76824e-05
-0.000533699 0.000160007 0.000160154 -1.06079e-05
-0.000425378 0.000127462 0.000127678 -1.4587e-05
-0.000320276 9.58903e-05 9.61651e-05 -1.76824e-05
-0.000428604 0.000128428 0.000128647 -1.45869e-05
-0.000426991 0.000127945 0.000128163 -1.45869e-05
-0.000531684 0.000159404 0.000159548 -1.06079e-05
-0.000527652 0.000158196 0.000158338 -1.0608e-05
-0.000316644 9.48056e-05 9.50737e-05 -1.76824e-05
-0.000319065 9.55287e-05 9.58013e-05 -1.76824e-05
-0.000529668 0.0001588 0.000158943 -1.06079e-05
-0.000422152 0.000126497 0.000126709 -1.4587e-05
-0.000317855 9.51671e-05 9.54375e-05 -1.76824e-05
-0.000425378 0.000127462 0.000127678 -1.4587e-05
-0.000423765 0.00012698 0.000127194 -1.4587e-05
-0.000527652 0.000158196 0.000158338 -1.0608e-05
-0.000523621 0.000156989 0.000157128 -1.0608e-05
-0.000314223 9.40824e-05 9.43461e-05 -1.76824e-05
-0.000316644 9.48056e-05 9.50737e-05 -1.76824e-05
-0.000525637 0.000157592 0.000157733 -1.0608e-05
-0.000418926 0.000125532 0.00012574 -1.4587e-05
-0.000315434 9.4444e-05 9.47099e-05 -1.76824e-05
-0.000422152 0.000126497 0.000126709 -1.4587e-05
-0.000420539 0.000126014 0.000126225 -1.4587e-05
-0.000523621 0.000156989 0.000157128 -1.0608e-05
-0.00051959 0.000155781 0.000155918 -1.0608e-05
-0.000311803 9.33592e-05 9.36186e-05 -1.76824e-05
-0.000314223 9.40824e-05 9.43461e-05 -1.76824e-05
-0.000521605 0.000156385 0.000156523 -1.0608e-05
-0.0004157 0.000124566 0.000124772 -1.4587e-05
-0.000313013 9.37208e-05 9.39823e-05 -1.76824e-05
-0.000418926 0.000125532 0.00012574 -1.4587e-05
-0.000417313 0.000125049 0.000125256 -1.4587e-05
-0.00051959 0.000155781 0.000155918 -1.0608e-05
-0.000515559 0.000154573 0.000154708 -1.0608e-05
-0.000309382 9.2636e-05 9.2891e-05 -1.76824e-05
-0.000311803 9.33592e-05 9.36186e-05 -1.76824e-05
-0.000517574 0.000155177 0.000155313 -1.0608e-05
-0.000412474 0.000123601 0.000123803 -1.4587e-05
-0.000310592 9.29976e-05 9.32548e-05 -1.76824e-05
-0.0004157 0.000124566 0.000124772 -1.4587e-05
-0.000414087 0.000124084 0.000124287 -1.4587e-05
-0.000515559 0.000154573 0.000154708 -1.0608e-05
-0.000511527 0.000153366 0.000153498 -1.0608e-05
-0.000306961 9.19128e-05 9.21635e-05 -1.76824e-05
-0.000309382 9.2636e-05 9.2891e-05 -1.76824e-05
-0.000513543 0.00015397 0.000154103 -1.0608e-05
-0.000409248 0.000122636 0.000122834 -1.4587e-05
-0.000308171 9.22744e-05 9.25273e-05 -1.76824e-05
-0.000412474 0.000123601 0.000123803 -1.4587e-05
-0.000410861 0.000123118 0.000123318 -1.4587e-05
-0.000511527 0.000153366 0.000153498 -1.0608e-05
-0.000507496 0.000152158 0.000152288 -1.0608e-05
-0.00030454 9.11896e-05 9.1436e-05 -1.76824e-05
-0.000306961 9.19128e-05 9.21635e-05 -1.76824e-05
-0.000509512 0.000152762 0.000152893 -1.0608e-05
-0.000406022 0.00012167 0.000121865 -1.4587e-05
-0.000305751 9.15512e-05 9.17997e-05 -1.76824e-05
-0.000409248 0.000122636 0.000122834 -1.4587e-05
-0.000407635 0.000122153 0.000122349 -1.4587e-05
-0.000507496 0.000152158 0.000152288 -1.0608e-05
-0.000503465 0.000150951 0.000151078 -1.0608e-05
-0.00030212 9.04664e-05 9.07085e-05 -1.76824e-05
-0.00030454 9.11896e-05 9.1436e-05 -1.76824e-05
-0.000505481 0.000151555 0.000151683 -1.0608e-05
-0.000402796 0.000120705 0.000120896 -1.4587e-05
-0.00030333 9.0828e-05 9.10722e-05 -1.76824e-05
-0.000406022 0.00012167 0.000121865 -1.4587e-05
-0.000404409 0.000121188 0.000121381 -1.4587e-05
-0.000503465 0.000150951 0.000151078 -1.0608e-05
-0.000499434 0.000149743 0.000149868 -1.06081e-05
-0.000299699 8.97432e-05 8.9981e-05 -1.76824e-05
-0.00030212 9.04664e-05 9.07085e-05 -1.76824e-05
-0.00050145 0.000150347 0.000150473 -1.0608e-05
-0.00039957 0.00011974 0.000119927 -1.4587e-05
-0.000300909 9.01048e-05 9.03448e-05 -1.76824e-05
-0.000402796 0.000120705 0.000120896 -1.4587e-05
-0.000401183 0.000120222 0.000120412 -1.4587e-05
-0.000499434 0.000149743 0.000149868 -1.06081e-05
-0.000495403 0.000148536 0.000148657 -1.06081e-05
-0.000297278 8.90199e-05 8.92536e-05 -1.76825e-05
-0.000299699 8.97432e-05 8.9981e-05 -1.76824e-05
-0.000497418 0.000149139 0.000149263 -1.06081e-05
-0.000396344 0.000118774 0.000118958 -1.45871e-05
-0.000298489 8.93816e-05 8.96173e-05 -1.76825e-05
-0.00039957 0.00011974 0.000119927 -1.4587e-05
-0.000397957 0.000119257 0.000119443 -1.45871e-05
-0.000495403 0.000148536 0.000148657 -1.06081e-05
-0.000491372 0.000147328 0.000147447 -1.06081e-05
-0.000294858 8.82967e-05 8.85261e-05 -1.76825e-05
-0.000297278 8.90199e-05 8.92536e-05 -1.76825e-05
-0.000493387 0.000147932 0.000148052 -1.06081e-05
-0.000393118 0.000117809 0.00011799 -1.45871e-05
-0.000296068 8.86583e-05 8.88899e-05 -1.76825e-05
-0.000396344 0.000118774 0.000118958 -1.45871e-05
-0.000394731 0.000118292 0.000118474 -1.45871e-05
-0.000491372 0.000147328 0.000147447 -1.06081e-05
-0.000487341 0.00014612 0.000146237 -1.06081e-05
-0.000292437 8.75734e-05 8.77987e-05 -1.76825e-05
-0.000294858 8.82967e-05 8.85261e-05 -1.76825e-05
-0.000489356 0.000146724 0.000146842 -1.06081e-05
-0.000389892 0.000116844 0.000117021 -1.45871e-05
-0.000293647 8.7935e-05 8.81624e-05 -1.76825e-05
-0.000393118 0.000117809 0.00011799 -1.45871e-05
-0.000391505 0.000117326 0.000117505 -1.45871e-05
-0.000487341 0.00014612 0.000146237 -1.06081e-05
-0.00048331 0.000144913 0.000145027 -1.06081e-05
-0.000290017 8.68501e-05 8.70713e-05 -1.76825e-05
-0.000292437 8.75734e-05 8.77987e-05 -1.76825e-05
-0.000485325 0.000145516 0.000145632 -1.06081e-05
-0.000386667 0.000115878 0.000116052 -1.45871e-05
-0.000291227 8.72117e-05 8.7435e-05 -1.76825e-05
-0.000389892 0.000116844 0.000117021 -1.45871e-05
-0.000388279 0.000116361 0.000116537 -1.45871e-05
-0.00048331 0.000144913 0.000145027 -1.06081e-05
-0.000479279 0.000143705 0.000143817 -1.06081e-05
-0.000287596 8.61268e-05 8.6344e-05 -1.76825e-05
-0.000290017 8.68501e-05 8.70713e-05 -1.76825e-05
-0.000481294 0.000144309 0.000144422 -1.06081e-05
-0.000383441 0.000114913 0.000115083 -1.45871e-05
-0.000288806 8.64884e-05 8.67077e-05 -1.76825e-05
-0.000386667 0.000115878 0.000116052 -1.45871e-05
-0.000385054 0.000115395 0.000115568 -1.45871e-05
-0.000479279 0.000143705 0.000143817 -1.06081e-05
-0.000475248 0.000142497 0.000142607 -1.06081e-05
-0.000285176 8.54035e-05 8.56166e-05 -1.76825e-05
-0.000287596 8.61268e-05 8.6344e-05 -1.76825e-05
-0.000477263 0.000143101 0.000143212 -1.06081e-05
-0.000380215 0.000113947 0.000114115 -1.45871e-05
-0.000286386 8.57651e-05 8.59803e-05 -1.76825e-05
-0.000383441 0.000114913 0.000115083 -1.45871e-05
-0.000381828 0.00011443 0.000114599 -1.45871e-05
-0.000475248 0.000142497 0.000142607 -1.06081e-05
-0.000471217 0.00014129 0.000141397 -1.06082e-05
-0.000282755 8.46801e-05 8.48893e-05 -1.76825e-05
-0.000285176 8.54035e-05 8.56166e-05 -1.76825e-05
-0.000473233 0.000141894 0.000142002 -1.06081e-05
-0.000376989 0.000112982 0.000113146 -1.45871e-05
-0.000283965 8.50418e-05 8.5253e-05 -1.76825e-05
-0.000380215 0.000113947 0.000114115 -1.45871e-05
-0.000378602 0.000113465 0.00011363 -1.45871e-05
-0.000471217 0.00014129 0.000141397 -1.06082e-05
-0.000467186 0.000140082 0.000140187 -1.06082e-05
-0.000280335 8.39568e-05 8.4162e-05 -1.76825e-05
-0.000282755 8.46801e-05 8.48893e-05 -1.76825e-05
-0.000469202 0.000140686 0.000140792 -1.06082e-05
-0.000373764 0.000112016 0.000112177 -1.45871e-05
-0.000281545 8.43185e-05 8.45256e-05 -1.76825e-05
-0.000376989 0.000112982 0.000113146 -1.45871e-05
-0.000375376 0.000112499 0.000112662 -1.45871e-05
-0.000467186 0.000140082 0.000140187 -1.06082e-05
-0.000463155 0.000138874 0.000138978 -1.06082e-05
-0.000277914 8.32334e-05 8.34347e-05 -1.76825e-05
-0.000280335 8.39568e-05 8.4162e-05 -1.76825e-05
-0.000465171 0.000139478 0.000139583 -1.06082e-05
-0.000370538 0.000111051 0.000111209 -1.45872e-05
-0.000279125 8.35951e-05 8.37983e-05 -1.76825e-05
-0.000373764 0.000112016 0.000112177 -1.45871e-05
-0.000372151 0.000111534 0.000111693 -1.45871e-05
-0.000463155 0.000138874 0.000138978 -1.06082e-05
-0.000459125 0.000137667 0.000137768 -1.06082e-05
-0.000275494 8.251e-05 8.27074e-05 -1.76825e-05
-0.000277914 8.32334e-05 8.34347e-05 -1.76825e-05
-0.00046114 0.000138271 0.000138373 -1.06082e-05
-0.000367312 0.000110085 0.00011024 -1.45872e-05
-0.000276704 8.28717e-05 8.30711e-05 -1.76825e-05
-0.000370538 0.000111051 0.000111209 -1.45872e-05
-0.000368925 0.000110568 0.000110724 -1.45872e-05
-0.000459125 0.000137667 0.000137768 -1.06082e-05
-0.000455094 0.000136459 0.000136558 -1.06082e-05
-0.000273074 8.17866e-05 8.19802e-05 -1.76825e-05
-0.000275494 8.251e-05 8.27074e-05 -1.76825e-05
-0.000457109 0.000137063 0.000137163 -1.06082e-05
-0.000364087 0.00010912 0.000109271 -1.45872e-05
-0.000274284 8.21483e-05 8.23438e-05 -1.76825e-05
-0.000367312 0.000110085 0.00011024 -1.45872e-05
-0.000365699 0.000109603 0.000109756 -1.45872e-05
-0.000455094 0.000136459 0.000136558 -1.06082e-05
-0.000451063 0.000135251 0.000135348 -1.06082e-05
-0.000270653 8.10632e-05 8.12529e-05 -1.76825e-05
-0.000273074 8.17866e-05 8.19802e-05 -1.76825e-05
-0.000453078 0.000135855 0.000135953 -1.06082e-05
-0.000360861 0.000108155 0.000108303 -1.45872e-05
-0.000271864 8.14249e-05 8.16166e-05 -1.76825e-05
-0.000364087 0.00010912 0.000109271 -1.45872e-05
-0.000362474 0.000108637 0.000108787 -1.45872e-05
-0.000451063 0.000135251 0.000135348 -1.06082e-05
-0.000447032 0.000134044 0.000134138 -1.06082e-05
-0.000268233 8.03398e-05 8.05257e-05 -1.76825e-05
-0.000270653 8.10632e-05 8.12529e-05 -1.76825e-05
-0.000449048 0.000134648 0.000134743 -1.06082e-05
-0.000357636 0.000107189 0.000107334 -1.45872e-05
-0.000269443 8.07015e-05 8.08893e-05 -1.76825e-05
-0.000360861 0.000108155 0.000108303 -1.45872e-05
-0.000359248 0.000107672 0.000107819 -1.45872e-05
-0.000447032 0.000134044 0.000134138 -1.06082e-05
-0.000443002 0.000132836 0.000132928 -1.06083e-05
-0.000265813 7.96164e-05 7.97985e-05 -1.76825e-05
-0.000268233 8.03398e-05 8.05257e-05 -1.76825e-05
-0.000445017 0.00013344 0.000133533 -1.06082e-05
-0.00035441 0.000106224 0.000106366 -1.45872e-05
-0.000267023 7.99781e-05 8.01621e-05 -1.76825e-05
-0.000357636 0.000107189 0.000107334 -1.45872e-05
-0.000356023 0.000106706 0.00010685 -1.45872e-05
-0.000443002 0.000132836 0.000132928 -1.06083e-05
-0.000438971 0.000131628 0.000131718 -1.06083e-05
-0.000263393 7.88929e-05 7.90714e-05 -1.76825e-05
-0.000265813 7.96164e-05 7.97985e-05 -1.76825e-05
-0.000440986 0.000132232 0.000132323 -1.06083e-05
-0.000351185 0.000105258 0.000105397 -1.45872e-05
-0.000264603 7.92547e-05 7.94349e-05 -1.76825e-05
-0.00035441 0.000106224 0.000106366 -1.45872e-05
-0.000352797 0.000105741 0.000105881 -1.45872e-05
-0.000438971 0.000131628 0.000131718 -1.06083e-05
-0.00043494 0.000130421 0.000130508 -1.06083e-05
-0.000260973 7.81695e-05 7.83442e-05 -1.76825e-05
-0.000263393 7.88929e-05 7.90714e-05 -1.76825e-05
-0.000436956 0.000131025 0.000131113 -1.06083e-05
-0.000347959 0.000104292 0.000104429 -1.45872e-05
-0.000262183 7.85312e-05 7.87078e-05 -1.76825e-05
-0.000351185 0.000105258 0.000105397 -1.45872e-05
-0.000349572 0.000104775 0.000104913 -1.45872e-05
-0.00043494 0.000130421 0.000130508 -1.06083e-05
-0.00043091 0.000129213 0.000129299 -1.06083e-05
-0.000258553 7.7446e-05 7.76171e-05 -1.76825e-05
-0.000260973 7.81695e-05 7.83442e-05 -1.76825e-05
-0.000432925 0.000129817 0.000129903 -1.06083e-05
-0.000344734 0.000103327 0.00010346 -1.45872e-05
-0.000259763 7.78077e-05 7.79806e-05 -1.76825e-05
-0.000347959 0.000104292 0.000104429 -1.45872e-05
-0.000346346 0.00010381 0.000103944 -1.45872e-05
-0.00043091 0.000129213 0.000129299 -1.06083e-05
-0.000426879 0.000128005 0.000128089 -1.06083e-05
-0.000256132 7.67225e-05 7.689e-05 -1.76825e-05
-0.000258553 7.7446e-05 7.76171e-05 -1.76825e-05
-0.000428894 0.000128609 0.000128694 -1.06083e-05
-0.000341508 0.000102361 0.000102492 -1.45873e-05
-0.000257342 7.70843e-05 7.72535e-05 -1.76825e-05
-0.000344734 0.000103327 0.00010346 -1.45872e-05
-0.000343121 0.000102844 0.000102976 -1.45873e-05
-0.000426879 0.000128005 0.000128089 -1.06083e-05
-0.000422848 0.000126798 0.000126879 -1.06083e-05
-0.000253712 7.5999e-05 7.61629e-05 -1.76825e-05
-0.000256132 7.67225e-05 7.689e-05 -1.76825e-05
-0.000424864 0.000127401 0.000127484 -1.06083e-05
-0.000338283 0.000101396 0.000101523 -1.45873e-05
-0.000254922 7.63608e-05 7.65264e-05 -1.76825e-05
-0.000341508 0.000102361 0.000102492 -1.45873e-05
-0.000339896 0.000101879 0.000102007 -1.45873e-05
-0.000422848 0.000126798 0.000126879 -1.06083e-05
-0.000418818 0.00012559 0.000125669 -1.06083e-05
-0.000251292 7.52755e-05 7.54358e-05 -1.76825e-05
-0.000253712 7.5999e-05 7.61629e-05 -1.76825e-05
-0.000420833 0.000126194 0.000126274 -1.06083e-05
-0.000335058 0.00010043 0.000100555 -1.45873e-05
-0.000252502 7.56373e-05 7.57993e-05 -1.76825e-05
-0.000338283 0.000101396 0.000101523 -1.45873e-05
-0.00033667 0.000100913 0.000101039 -1.45873e-05
-0.000418818 0.00012559 0.000125669 -1.06083e-05
-0.000414787 0.000124382 0.000124459 -1.06084e-05
-0.000248872 7.4552e-05 7.47087e-05 -1.76825e-05
-0.000251292 7.52755e-05 7.54358e-05 -1.76825e-05
-0.000416803 0.000124986 0.000125064 -1.06083e-05
-0.000331832 9.94647e-05 9.95861e-05 -1.45873e-05
-0.000250082 7.49137e-05 7.50723e-05 -1.76825e-05
-0.000335058 0.00010043 0.000100555 -1.45873e-05
-0.000333445 9.99475e-05 0.00010007 -1.45873e-05
-0.000414787 0.000124382 0.000124459 -1.06084e-05
-0.000410757 0.000123174 0.00012325 -1.06084e-05
-0.000246452 7.38284e-05 7.39817e-05 -1.76826e-05
-0.000248872 7.4552e-05 7.47087e-05 -1.76825e-05
-0.000412772 0.000123778 0.000123854 -1.06084e-05
-0.000328607 9.84991e-05 9.86177e-05 -1.45873e-05
-0.000247662 7.41902e-05 7.43452e-05 -1.76825e-05
-0.000331832 9.94647e-05 9.95861e-05 -1.45873e-05
-0.00033022 9.89819e-05 9.91019e-05 -1.45873e-05
-0.000410757 0.000123174 0.00012325 -1.06084e-05
-0.000406726 0.000121967 0.00012204 -1.06084e-05
-0.000244032 7.31049e-05 7.32547e-05 -1.76826e-05
-0.000246452 7.38284e-05 7.39817e-05 -1.76826e-05
-0.000408742 0.000122571 0.000122645 -1.06084e-05
-0.000325382 9.75335e-05 9.76492e-05 -1.45873e-05
-0.000245242 7.34666e-05 7.36182e-05 -1.76826e-05
-0.000328607 9.84991e-05 9.86177e-05 -1.45873e-05
-0.000326994 9.80163e-05 9.81335e-05 -1.45873e-05
-0.000406726 0.000121967 0.00012204 -1.06084e-05
-0.000402696 0.000120759 0.00012083 -1.06084e-05
-0.000241613 7.23813e-05 7.25277e-05 -1.76826e-05
-0.000244032 7.31049e-05 7.32547e-05 -1.76826e-05
-0.000404711 0.000121363 0.000121435 -1.06084e-05
-0.000322157 9.65679e-05 9.66808e-05 -1.45873e-05
-0.000242823 7.27431e-05 7.28912e-05 -1.76826e-05
-0.000325382 9.75335e-05 9.76492e-05 -1.45873e-05
-0.000323769 9.70507e-05 9.7165e-05 -1.45873e-05
-0.000402696 0.000120759 0.00012083 -1.06084e-05
-0.000398665 0.000119551 0.00011962 -1.06084e-05
-0.000239193 7.16577e-05 7.18007e-05 -1.76826e-05
-0.000241613 7.23813e-05 7.25277e-05 -1.76826e-05
-0.000400681 0.000120155 0.000120225 -1.06084e-05
-0.000318931 9.56023e-05 9.57125e-05 -1.45873e-05
-0.000240403 7.20195e-05 7.21642e-05 -1.76826e-05
-0.000322157 9.65679e-05 9.66808e-05 -1.45873e-05
-0.000320544 9.60851e-05 9.61967e-05 -1.45873e-05
-0.000398665 0.000119551 0.00011962 -1.06084e-05
-0.000394635 0.000118343 0.000118411 -1.06084e-05
-0.000236773 7.09341e-05 7.10738e-05 -1.76826e-05
-0.000239193 7.16577e-05 7.18007e-05 -1.76826e-05
-0.00039665 0.000118947 0.000119016 -1.06084e-05
-0.000315706 9.46366e-05 9.47441e-05 -1.45874e-05
-0.000237983 7.12959e-05 7.14372e-05 -1.76826e-05
-0.000318931 9.56023e-05 9.57125e-05 -1.45873e-05
-0.000317319 9.51194e-05 9.52283e-05 -1.45873e-05
-0.000394635 0.000118343 0.000118411 -1.06084e-05
-0.000390605 0.000117136 0.000117201 -1.06084e-05
-0.000234353 7.02105e-05 7.03468e-05 -1.76826e-05
-0.000236773 7.09341e-05 7.10738e-05 -1.76826e-05
-0.00039262 0.00011774 0.000117806 -1.06084e-05
-0.000312481 9.3671e-05 9.37758e-05 -1.45874e-05
-0.000235563 7.05723e-05 7.07103e-05 -1.76826e-05
-0.000315706 9.46366e-05 9.47441e-05 -1.45874e-05
-0.000314094 9.41538e-05 9.42599e-05 -1.45874e-05
-0.000390605 0.000117136 0.000117201 -1.06084e-05
-0.000386574 0.000115928 0.000115991 -1.06085e-05
-0.000231933 6.94868e-05 6.96199e-05 -1.76826e-05
-0.000234353 7.02105e-05 7.03468e-05 -1.76826e-05
-0.00038859 0.000116532 0.000116596 -1.06084e-05
-0.000309256 9.27053e-05 9.28074e-05 -1.45874e-05
-0.000233143 6.98487e-05 6.99834e-05 -1.76826e-05
-0.000312481 9.3671e-05 9.37758e-05 -1.45874e-05
-0.000310869 9.31881e-05 9.32916e-05 -1.45874e-05
-0.000386574 0.000115928 0.000115991 -1.06085e-05
-0.000382544 0.00011472 0.000114782 -1.06085e-05
-0.000229514 6.87632e-05 6.8893e-05 -1.76826e-05
-0.000231933 6.94868e-05 6.96199e-05 -1.76826e-05
-0.000384559 0.000115324 0.000115386 -1.06085e-05
-0.000306031 9.17396e-05 9.18391e-05 -1.45874e-05
-0.000230723 6.9125e-05 6.92565e-05 -1.76826e-05
-0.000309256 9.27053e-05 9.28074e-05 -1.45874e-05
-0.000307643 9.22225e-05 9.23233e-05 -1.45874e-05
-0.000382544 0.00011472 0.000114782 -1.06085e-05
-0.000378514 0.000113512 0.000113572 -1.06085e-05
-0.000227094 6.80395e-05 6.81662e-05 -1.76826e-05
-0.000229514 6.87632e-05 6.8893e-05 -1.76826e-05
-0.000380529 0.000114116 0.000114177 -1.06085e-05
-0.000302806 9.0774e-05 9.08708e-05 -1.45874e-05
-0.000228304 6.84014e-05 6.85296e-05 -1.76826e-05
-0.000306031 9.17396e-05 9.18391e-05 -1.45874e-05
-0.000304418 9.12568e-05 9.1355e-05 -1.45874e-05
-0.000378514 0.000113512 0.000113572 -1.06085e-05
-0.000374484 0.000112305 0.000112362 -1.06085e-05
-0.000224674 6.73159e-05 6.74393e-05 -1.76826e-05
-0.000227094 6.80395e-05 6.81662e-05 -1.76826e-05
-0.000376499 0.000112909 0.000112967 -1.06085e-05
-0.000299581 8.98083e-05 8.99025e-05 -1.45874e-05
-0.000225884 6.76777e-05 6.78027e-05 -1.76826e-05
-0.000302806 9.0774e-05 9.08708e-05 -1.45874e-05
-0.000301193 9.02911e-05 9.03867e-05 -1.45874e-05
-0.000374484 0.000112305 0.000112362 -1.06085e-05
-0.000370453 0.000111097 0.000111153 -1.06085e-05
-0.000222255 6.65922e-05 6.67125e-05 -1.76826e-05
-0.000224674 6.73159e-05 6.74393e-05 -1.76826e-05
-0.000372468 0.000111701 0.000111758 -1.06085e-05
-0.000296356 8.88426e-05 8.89343e-05 -1.45874e-05
-0.000223464 6.6954e-05 6.70759e-05 -1.76826e-05
-0.000299581 8.98083e-05 8.99025e-05 -1.45874e-05
-0.000297968 8.93254e-05 8.94184e-05 -1.45874e-05
-0.000370453 0.000111097 0.000111153 -1.06085e-05
-0.000366423 0.000109889 0.000109943 -1.06085e-05
-0.000219835 6.58685e-05 6.59857e-05 -1.76826e-05
-0.000222255 6.65922e-05 6.67125e-05 -1.76826e-05
-0.000368438 0.000110493 0.000110548 -1.06085e-05
-0.000293131 8.78769e-05 8.7966e-05 -1.45874e-05
-0.000221045 6.62303e-05 6.63491e-05 -1.76826e-05
-0.000296356 8.88426e-05 8.89343e-05 -1.45874e-05
-0.000294743 8.83597e-05 8.84502e-05 -1.45874e-05
-0.000366423 0.000109889 0.000109943 -1.06085e-05
-0.000362393 0.000108681 0.000108734 -1.06085e-05
-0.000217415 6.51448e-05 6.52589e-05 -1.76826e-05
-0.000219835 6.58685e-05 6.59857e-05 -1.76826e-05
-0.000364408 0.000109285 0.000109338 -1.06085e-05
-0.000289906 8.69111e-05 8.69978e-05 -1.45875e-05
-0.000218625 6.55066e-05 6.56223e-05 -1.76826e-05
-0.000293131 8.78769e-05 8.7966e-05 -1.45874e-05
-0.000291518 8.7394e-05 8.74819e-05 -1.45874e-05
-0.000362393 0.000108681 0.000108734 -1.06085e-05
-0.000358363 0.000107473 0.000107524 -1.06086e-05
-0.000214996 6.4421e-05 6.45321e-05 -1.76826e-05
-0.000217415 6.51448e-05 6.52589e-05 -1.76826e-05
-0.000360378 0.000108077 0.000108129 -1.06086e-05
-0.000286681 8.59454e-05 8.60296e-05 -1.45875e-05
-0.000216206 6.47829e-05 6.48955e-05 -1.76826e-05
-0.000289906 8.69111e-05 8.69978e-05 -1.45875e-05
-0.000288294 8.64283e-05 8.65137e-05 -1.45875e-05
-0.000358363 0.000107473 0.000107524 -1.06086e-05
-0.000354333 0.000106266 0.000106314 -1.06086e-05
-0.000212576 6.36973e-05 6.38053e-05 -1.76826e-05
-0.000214996 6.4421e-05 6.45321e-05 -1.76826e-05
-0.000356348 0.000106869 0.000106919 -1.06086e-05
-0.000283456 8.49797e-05 8.50614e-05 -1.45875e-05
-0.000213786 6.40592e-05 6.41687e-05 -1.76826e-05
-0.000286681 8.59454e-05 8.60296e-05 -1.45875e-05
-0.000285069 8.54625e-05 8.55455e-05 -1.45875e-05
-0.000354333 0.000106266 0.000106314 -1.06086e-05
-0.000350303 0.000105058 0.000105105 -1.06086e-05
-0.000210157 6.29735e-05 6.30786e-05 -1.76826e-05
-0.000212576 6.36973e-05 6.38053e-05 -1.76826e-05
-0.000352318 0.000105662 0.00010571 -1.06086e-05
-0.000280231 8.40139e-05 8.40932e-05 -1.45875e-05
-0.000211367 6.33354e-05 6.3442e-05 -1.76826e-05
-0.000283456 8.49797e-05 8.50614e-05 -1.45875e-05
-0.000281844 8.44968e-05 8.45773e-05 -1.45875e-05
-0.000350303 0.000105058 0.000105105 -1.06086e-05
-0.000346272 0.00010385 0.000103895 -1.06086e-05
-0.000207737 6.22497e-05 6.23519e-05 -1.76826e-05
-0.000210157 6.29735e-05 6.30786e-05 -1.76826e-05
-0.000348288 0.000104454 0.0001045 -1.06086e-05
-0.000277007 8.30482e-05 8.31251e-05 -1.45875e-05
-0.000208947 6.26116e-05 6.27152e-05 -1.76826e-05
-0.000280231 8.40139e-05 8.40932e-05 -1.45875e-05
-0.000278619 8.3531e-05 8.36092e-05 -1.45875e-05
-0.000346272 0.00010385 0.000103895 -1.06086e-05
-0.000342242 0.000102642 0.000102686 -1.06086e-05
-0.000205318 6.1526e-05 6.16252e-05 -1.76826e-05
-0.000207737 6.22497e-05 6.23519e-05 -1.76826e-05
-0.000344257 0.000103246 0.000103291 -1.06086e-05
-0.000273782 8.20824e-05 8.21569e-05 -1.45875e-05
-0.000206528 6.18878e-05 6.19885e-05 -1.76826e-05
-0.000277007 8.30482e-05 8.31251e-05 -1.45875e-05
-0.000275394 8.25653e-05 8.2641e-05 -1.45875e-05
-0.000342242 0.000102642 0.000102686 -1.06086e-05
-0.000338212 0.000101434 0.000101476 -1.06086e-05
-0.000202899 6.08021e-05 6.08985e-05 -1.76827e-05
-0.000205318 6.1526e-05 6.16252e-05 -1.76826e-05
-0.000340227 0.000102038 0.000102081 -1.06086e-05
-0.000270557 8.11166e-05 8.11888e-05 -1.45875e-05
-0.000204108 6.1164e-05 6.12619e-05 -1.76827e-05
-0.000273782 8.20824e-05 8.21569e-05 -1.45875e-05
-0.00027217 8.15995e-05 8.16729e-05 -1.45875e-05
-0.000338212 0.000101434 0.000101476 -1.06086e-05
-0.000334182 0.000100226 0.000100267 -1.06087e-05
-0.000200479 6.00783e-05 6.01719e-05 -1.76827e-05
-0.000202899 6.08021e-05 6.08985e-05 -1.76827e-05
-0.000336197 0.00010083 0.000100872 -1.06086e-05
-0.000267332 8.01508e-05 8.02207e-05 -1.45875e-05
-0.000201689 6.04402e-05 6.05352e-05 -1.76827e-05
-0.000270557 8.11166e-05 8.11888e-05 -1.45875e-05
-0.000268945 8.06337e-05 8.07048e-05 -1.45875e-05
-0.000334182 0.000100226 0.000100267 -1.06087e-05
-0.000330153 9.90185e-05 9.90574e-05 -1.06087e-05
-0.00019806 5.93545e-05 5.94452e-05 -1.76827e-05
-0.000200479 6.00783e-05 6.01719e-05 -1.76827e-05
-0.000332167 9.96224e-05 9.96622e-05 -1.06087e-05
-0.000264108 7.9185e-05 7.92526e-05 -1.45876e-05
-0.00019927 5.97164e-05 5.98085e-05 -1.76827e-05
-0.000267332 8.01508e-05 8.02207e-05 -1.45875e-05
-0.00026572 7.96679e-05 7.97367e-05 -1.45876e-05
-0.000330153 9.90185e-05 9.90574e-05 -1.06087e-05
-0.000326123 9.78106e-05 9.7848e-05 -1.06087e-05
-0.000195641 5.86306e-05 5.87186e-05 -1.76827e-05
-0.00019806 5.93545e-05 5.94452e-05 -1.76827e-05
-0.000328138 9.84146e-05 9.84527e-05 -1.06087e-05
-0.000260883 7.82192e-05 7.82846e-05 -1.45876e-05
-0.00019685 5.89926e-05 5.90819e-05 -1.76827e-05
-0.000264108 7.9185e-05 7.92526e-05 -1.45876e-05
-0.000262495 7.87021e-05 7.87686e-05 -1.45876e-05
-0.000326123 9.78106e-05 9.7848e-05 -1.06087e-05
-0.000322093 9.66028e-05 9.66385e-05 -1.06087e-05
-0.000193222 5.79068e-05 5.7992e-05 -1.76827e-05
-0.000195641 5.86306e-05 5.87186e-05 -1.76827e-05
-0.000324108 9.72067e-05 9.72433e-05 -1.06087e-05
-0.000257659 7.72533e-05 7.73165e-05 -1.45876e-05
-0.000194431 5.82687e-05 5.83553e-05 -1.76827e-05
-0.000260883 7.82192e-05 7.82846e-05 -1.45876e-05
-0.000259271 7.77362e-05 7.78006e-05 -1.45876e-05
-0.000322093 9.66028e-05 9.66385e-05 -1.06087e-05
-0.000318063 9.53949e-05 9.54291e-05 -1.06087e-05
-0.000190802 5.71829e-05 5.72655e-05 -1.76827e-05
-0.000193222 5.79068e-05 5.7992e-05 -1.76827e-05
-0.000320078 9.59988e-05 9.60338e-05 -1.06087e-05
-0.000254434 7.62875e-05 7.63485e-05 -1.45876e-05
-0.000192012 5.75448e-05 5.76287e-05 -1.76827e-05
-0.000257659 7.72533e-05 7.73165e-05 -1.45876e-05
-0.000256046 7.67704e-05 7.68325e-05 -1.45876e-05
-0.000318063 9.53949e-05 9.54291e-05 -1.06087e-05
-0.000314033 9.4187e-05 9.42197e-05 -1.06087e-05
-0.000188383 5.6459e-05 5.65389e-05 -1.76827e-05
-0.000190802 5.71829e-05 5.72655e-05 -1.76827e-05
-0.000316048 9.47909e-05 9.48244e-05 -1.06087e-05
-0.000251209 7.53216e-05 7.53805e-05 -1.45876e-05
-0.000189593 5.6821e-05 5.69022e-05 -1.76827e-05
-0.000254434 7.62875e-05 7.63485e-05 -1.45876e-05
-0.000252822 7.58046e-05 7.58645e-05 -1.45876e-05
-0.000314033 9.4187e-05 9.42197e-05 -1.06087e-05
-0.000310003 9.29791e-05 9.30103e-05 -1.06087e-05
-0.000185964 5.57351e-05 5.58124e-05 -1.76827e-05
-0.000188383 5.6459e-05 5.65389e-05 -1.76827e-05
-0.000312018 9.3583e-05 9.3615e-05 -1.06087e-05
-0.000247985 7.43558e-05 7.44125e-05 -1.45876e-05
-0.000187174 5.60971e-05 5.61756e-05 -1.76827e-05
-0.000251209 7.53216e-05 7.53805e-05 -1.45876e-05
-0.000249597 7.48387e-05 7.48965e-05 -1.45876e-05
-0.000310003 9.29791e-05 9.30103e-05 -1.06087e-05
-0.000305973 9.17712e-05 9.18009e-05 -1.06088e-05
-0.000183545 5.50112e-05 5.50859e-05 -1.76827e-05
-0.000185964 5.57351e-05 5.58124e-05 -1.76827e-05
-0.000307988 9.23751e-05 9.24056e-05 -1.06088e-05
-0.00024476 7.33899e-05 7.34445e-05 -1.45876e-05
-0.000184754 5.53731e-05 5.54491e-05 -1.76827e-05
-0.000247985 7.43558e-05 7.44125e-05 -1.45876e-05
-0.000246373 7.38728e-05 7.39285e-05 -1.45876e-05
-0.000305973 9.17712e-05 9.18009e-05 -1.06088e-05
-0.000301944 9.05633e-05 9.05915e-05 -1.06088e-05
-0.000181126 5.42872e-05 5.43594e-05 -1.76827e-05
-0.000183545 5.50112e-05 5.50859e-05 -1.76827e-05
-0.000303958 9.11672e-05 9.11962e-05 -1.06088e-05
-0.000241536 7.2424e-05 7.24766e-05 -1.45877e-05
-0.000182335 5.46492e-05 5.47226e-05 -1.76827e-05
-0.00024476 7.33899e-05 7.34445e-05 -1.45876e-05
-0.000243148 7.29069e-05 7.29605e-05 -1.45876e-05
-0.000301944 9.05633e-05 9.05915e-05 -1.06088e-05
-0.000297914 8.93554e-05 8.93822e-05 -1.06088e-05
-0.000178707 5.35633e-05 5.36329e-05 -1.76827e-05
-0.000181126 5.42872e-05 5.43594e-05 -1.76827e-05
-0.000299929 8.99593e-05 8.99869e-05 -1.06088e-05
-0.000238312 7.14581e-05 7.15086e-05 -1.45877e-05
-0.000179916 5.39253e-05 5.39961e-05 -1.76827e-05
-0.000241536 7.2424e-05 7.24766e-05 -1.45877e-05
-0.000239924 7.1941e-05 7.19926e-05 -1.45877e-05
-0.000297914 8.93554e-05 8.93822e-05 -1.06088e-05
-0.000293884 8.81474e-05 8.81729e-05 -1.06088e-05
-0.000176288 5.28393e-05 5.29064e-05 -1.76827e-05
-0.000178707 5.35633e-05 5.36329e-05 -1.76827e-05
-0.000295899 8.87514e-05 8.87775e-05 -1.06088e-05
-0.000235087 7.04922e-05 7.05407e-05 -1.45877e-05
-0.000177497 5.32013e-05 5.32697e-05 -1.76827e-05
-0.000238312 7.14581e-05 7.15086e-05 -1.45877e-05
-0.000236699 7.09751e-05 7.10246e-05 -1.45877e-05
-0.000293884 8.81474e-05 8.81729e-05 -1.06088e-05
-0.000289854 8.69395e-05 8.69635e-05 -1.06088e-05
-0.000173869 5.21153e-05 5.218e-05 -1.76827e-05
-0.000176288 5.28393e-05 5.29064e-05 -1.76827e-05
-0.000291869 8.75435e-05 8.75682e-05 -1.06088e-05
-0.000231863 6.95263e-05 6.95728e-05 -1.45877e-05
-0.000175078 5.24773e-05 5.25432e-05 -1.76827e-05
-0.000235087 7.04922e-05 7.05407e-05 -1.45877e-05
-0.000233475 7.00092e-05 7.00567e-05 -1.45877e-05
-0.000289854 8.69395e-05 8.69635e-05 -1.06088e-05
-0.000285825 8.57316e-05 8.57542e-05 -1.06088e-05
-0.00017145 5.13913e-05 5.14536e-05 -1.76828e-05
-0.000173869 5.21153e-05 5.218e-05 -1.76827e-05
-0.00028784 8.63355e-05 8.63589e-05 -1.06088e-05
-0.000228638 6.85603e-05 6.86049e-05 -1.45877e-05
-0.000172659 5.17533e-05 5.18168e-05 -1.76828e-05
-0.000231863 6.95263e-05 6.95728e-05 -1.45877e-05
-0.000230251 6.90433e-05 6.90888e-05 -1.45877e-05
-0.000285825 8.57316e-05 8.57542e-05 -1.06088e-05
-0.000281795 8.45236e-05 8.45449e-05 -1.06089e-05
-0.000169031 5.06673e-05 5.07272e-05 -1.76828e-05
-0.00017145 5.13913e-05 5.14536e-05 -1.76828e-05
-0.00028381 8.51276e-05 8.51496e-05 -1.06089e-05
-0.000225414 6.75944e-05 6.7637e-05 -1.45877e-05
-0.00017024 5.10293e-05 5.10904e-05 -1.76828e-05
-0.000228638 6.85603e-05 6.86049e-05 -1.45877e-05
-0.000227026 6.80774e-05 6.8121e-05 -1.45877e-05
-0.000281795 8.45236e-05 8.45449e-05 -1.06089e-05
-0.000277766 8.33157e-05 8.33356e-05 -1.06089e-05
-0.000166612 4.99433e-05 5.00008e-05 -1.76828e-05
-0.000169031 5.06673e-05 5.07272e-05 -1.76828e-05
-0.00027978 8.39197e-05 8.39403e-05 -1.06089e-05
-0.00022219 6.66284e-05 6.66692e-05 -1.45877e-05
-0.000167821 5.03053e-05 5.0364e-05 -1.76828e-05
-0.000225414 6.75944e-05 6.7637e-05 -1.45877e-05
-0.000223802 6.71114e-05 6.71531e-05 -1.45877e-05
-0.000277766 8.33157e-05 8.33356e-05 -1.06089e-05
-0.000273736 8.21077e-05 8.21264e-05 -1.06089e-05
-0.000164193 4.92193e-05 4.92745e-05 -1.76828e-05
-0.000166612 4.99433e-05 5.00008e-05 -1.76828e-05
-0.000275751 8.27117e-05 8.2731e-05 -1.06089e-05
-0.000218966 6.56625e-05 6.57013e-05 -1.45878e-05
-0.000165402 4.95813e-05 4.96376e-05 -1.76828e-05
-0.00022219 6.66284e-05 6.66692e-05 -1.45877e-05
-0.000220578 6.61454e-05 6.61852e-05 -1.45878e-05
-0.000273736 8.21077e-05 8.21264e-05 -1.06089e-05
-0.000269706 8.08998e-05 8.09171e-05 -1.06089e-05
-0.000161774 4.84952e-05 4.85481e-05 -1.76828e-05
-0.000164193 4.92193e-05 4.92745e-05 -1.76828e-05
-0.000271721 8.15037e-05 8.15217e-05 -1.06089e-05
-0.000215741 6.46965e-05 6.47335e-05 -1.45878e-05
-0.000162984 4.88572e-05 4.89113e-05 -1.76828e-05
-0.000218966 6.56625e-05 6.57013e-05 -1.45878e-05
-0.000217353 6.51795e-05 6.52174e-05 -1.45878e-05
-0.000269706 8.08998e-05 8.09171e-05 -1.06089e-05
-0.000265677 7.96918e-05 7.97079e-05 -1.06089e-05
-0.000159355 4.77711e-05 4.78218e-05 -1.76828e-05
-0.000161774 4.84952e-05 4.85481e-05 -1.76828e-05
-0.000267692 8.02958e-05 8.03125e-05 -1.06089e-05
-0.000212517 6.37305e-05 6.37657e-05 -1.45878e-05
-0.000160565 4.81332e-05 4.8185e-05 -1.76828e-05
-0.000215741 6.46965e-05 6.47335e-05 -1.45878e-05
-0.000214129 6.42135e-05 6.42496e-05 -1.45878e-05
-0.000265677 7.96918e-05 7.97079e-05 -1.06089e-05
-0.000261647 7.84838e-05 7.84987e-05 -1.06089e-05
-0.000156937 4.70471e-05 4.70955e-05 -1.76828e-05
-0.000159355 4.77711e-05 4.78218e-05 -1.76828e-05
-0.000263662 7.90878e-05 7.91033e-05 -1.06089e-05
-0.000209293 6.27645e-05 6.27979e-05 -1.45878e-05
-0.000158146 4.74091e-05 4.74587e-05 -1.76828e-05
-0.000212517 6.37305e-05 6.37657e-05 -1.45878e-05
-0.000210905 6.32475e-05 6.32818e-05 -1.45878e-05
-0.000261647 7.84838e-05 7.84987e-05 -1.06089e-05
-0.000257618 7.72758e-05 7.72894e-05 -1.0609e-05
-0.000154518 4.6323e-05 4.63693e-05 -1.76828e-05
-0.000156937 4.70471e-05 4.70955e-05 -1.76828e-05
-0.000259633 7.78798e-05 7.78941e-05 -1.0609e-05
-0.000206069 6.17985e-05 6.18302e-05 -1.45878e-05
-0.000155727 4.6685e-05 4.67324e-05 -1.76828e-05
-0.000209293 6.27645e-05 6.27979e-05 -1.45878e-05
-0.000207681 6.22815e-05 6.2314e-05 -1.45878e-05
-0.000257618 7.72758e-05 7.72894e-05 -1.0609e-05
-0.000253588 7.60678e-05 7.60803e-05 -1.0609e-05
-0.000152099 4.55988e-05 4.5643e-05 -1.76828e-05
-0.000154518 4.6323e-05 4.63693e-05 -1.76828e-05
-0.000255603 7.66718e-05 7.66848e-05 -1.0609e-05
-0.000202845 6.08324e-05 6.08624e-05 -1.45878e-05
-0.000153309 4.59609e-05 4.60061e-05 -1.76828e-05
-0.000206069 6.17985e-05 6.18302e-05 -1.45878e-05
-0.000204457 6.13155e-05 6.13463e-05 -1.45878e-05
-0.000253588 7.60678e-05 7.60803e-05 -1.0609e-05
-0.000249559 7.48598e-05 7.48711e-05 -1.0609e-05
-0.000149681 4.48747e-05 4.49168e-05 -1.76828e-05
-0.000152099 4.55988e-05 4.5643e-05 -1.76828e-05
-0.000251574 7.54638e-05 7.54757e-05 -1.0609e-05
-0.000199621 5.98664e-05 5.98947e-05 -1.45879e-05
-0.00015089 4.52368e-05 4.52799e-05 -1.76828e-05
-0.000202845 6.08324e-05 6.08624e-05 -1.45878e-05
-0.000201233 6.03494e-05 6.03785e-05 -1.45879e-05
-0.000249559 7.48598e-05 7.48711e-05 -1.0609e-05
-0.00024553 7.36518e-05 7.36619e-05 -1.0609e-05
-0.000147262 4.41506e-05 4.41906e-05 -1.76829e-05
-0.000149681 4.48747e-05 4.49168e-05 -1.76828e-05
-0.000247544 7.42558e-05 7.42665e-05 -1.0609e-05
-0.000196397 5.89004e-05 5.8927e-05 -1.45879e-05
-0.000148471 4.45126e-05 4.45537e-05 -1.76829e-05
-0.000199621 5.98664e-05 5.98947e-05 -1.45879e-05
-0.000198009 5.93834e-05 5.94108e-05 -1.45879e-05
-0.00024553 7.36518e-05 7.36619e-05 -1.0609e-05
-0.0002415 7.24438e-05 7.24528e-05 -1.0609e-05
-0.000144843 4.34264e-05 4.34644e-05 -1.76829e-05
-0.000147262 4.41506e-05 4.41906e-05 -1.76829e-05
-0.000243515 7.30478e-05 7.30573e-05 -1.0609e-05
-0.000193173 5.79343e-05 5.79593e-05 -1.45879e-05
-0.000146053 4.37885e-05 4.38275e-05 -1.76829e-05
-0.000196397 5.89004e-05 5.8927e-05 -1.45879e-05
-0.000194785 5.84173e-05 5.84431e-05 -1.45879e-05
-0.0002415 7.24438e-05 7.24528e-05 -1.0609e-05
-0.000237471 7.12358e-05 7.12436e-05 -1.06091e-05
-0.000142425 4.27022e-05 4.27382e-05 -1.76829e-05
-0.000144843 4.34264e-05 4.34644e-05 -1.76829e-05
-0.000239486 7.18398e-05 7.18482e-05 -1.0609e-05
-0.000189949 5.69682e-05 5.69916e-05 -1.45879e-05
-0.000143634 4.30643e-05 4.31013e-05 -1.76829e-05
-0.000193173 5.79343e-05 5.79593e-05 -1.45879e-05
-0.000191561 5.74513e-05 5.74754e-05 -1.45879e-05
-0.000237471 7.12358e-05 7.12436e-05 -1.06091e-05
-0.000233442 7.00277e-05 7.00345e-05 -1.06091e-05
-0.000140006 4.1978e-05 4.20121e-05 -1.76829e-05
-0.000142425 4.27022e-05 4.27382e-05 -1.76829e-05
-0.000235456 7.06318e-05 7.06391e-05 -1.06091e-05
-0.000186725 5.60021e-05 5.60239e-05 -1.45879e-05
-0.000141215 4.23401e-05 4.23751e-05 -1.76829e-05
-0.000189949 5.69682e-05 5.69916e-05 -1.45879e-05
-0.000188337 5.64852e-05 5.65078e-05 -1.45879e-05
-0.000233442 7.00277e-05 7.00345e-05 -1.06091e-05
-0.000229412 6.88197e-05 6.88254e-05 -1.06091e-05
-0.000137588 4.12538e-05 4.12859e-05 -1.76829e-05
-0.000140006 4.1978e-05 4.20121e-05 -1.76829e-05
-0.000231427 6.94237e-05 6.94299e-05 -1.06091e-05
-0.000183501 5.5036e-05 5.50563e-05 -1.45879e-05
-0.000138797 4.16159e-05 4.1649e-05 -1.76829e-05
-0.000186725 5.60021e-05 5.60239e-05 -1.45879e-05
-0.000185113 5.55191e-05 5.55401e-05 -1.45879e-05
-0.000229412 6.88197e-05 6.88254e-05 -1.06091e-05
-0.000225383 6.76117e-05 6.76163e-05 -1.06091e-05
-0.000135169 4.05296e-05 4.05598e-05 -1.76829e-05
-0.000137588 4.12538e-05 4.12859e-05 -1.76829e-05
-0.000227398 6.82157e-05 6.82208e-05 -1.06091e-05
-0.000180277 5.40699e-05 5.40887e-05 -1.4588e-05
-0.000136378 4.08917e-05 4.09229e-05 -1.76829e-05
-0.000183501 5.5036e-05 5.50563e-05 -1.45879e-05
-0.000181889 5.4553e-05 5.45725e-05 -1.4588e-05
-0.000225383 6.76117e-05 6.76163e-05 -1.06091e-05
-0.000221354 6.64036e-05 6.64072e-05 -1.06091e-05
-0.000132751 3.98054e-05 3.98337e-05 -1.76829e-05
-0.000135169 4.05296e-05 4.05598e-05 -1.76829e-05
-0.000223368 6.70076e-05 6.70117e-05 -1.06091e-05
-0.000177053 5.31038e-05 5.31211e-05 -1.4588e-05
-0.00013396 4.01675e-05 4.01968e-05 -1.76829e-05
-0.000180277 5.40699e-05 5.40887e-05 -1.4588e-05
-0.000178665 5.35869e-05 5.36049e-05 -1.4588e-05
-0.000221354 6.64036e-05 6.64072e-05 -1.06091e-05
-0.000217325 6.51955e-05 6.51981e-05 -1.06091e-05
-0.000130332 3.90811e-05 3.91077e-05 -1.76829e-05
-0.000132751 3.98054e-05 3.98337e-05 -1.76829e-05
-0.000219339 6.57996e-05 6.58027e-05 -1.06091e-05
-0.000173829 5.21377e-05 5.21535e-05 -1.4588e-05
-0.000131542 3.94433e-05 3.94707e-05 -1.76829e-05
-0.000177053 5.31038e-05 5.31211e-05 -1.4588e-05
-0.000175441 5.26207e-05 5.26373e-05 -1.4588e-05
-0.000217325 6.51955e-05 6.51981e-05 -1.06091e-05
-0.000213295 6.39875e-05 6.39891e-05 -1.06092e-05
-0.000127914 3.83569e-05 3.83816e-05 -1.7683e-05
-0.000130332 3.90811e-05 3.91077e-05 -1.76829e-05
-0.00021531 6.45915e-05 6.45936e-05 -1.06092e-05
-0.000170605 5.11715e-05 5.11859e-05 -1.4588e-05
-0.000129123 3.8719e-05 3.87446e-05 -1.76829e-05
-0.000173829 5.21377e-05 5.21535e-05 -1.4588e-05
-0.000172217 5.16546e-05 5.16697e-05 -1.4588e-05
-0.000213295 6.39875e-05 6.39891e-05 -1.06092e-05
-0.000209266 6.27794e-05 6.27801e-05 -1.06092e-05
-0.000125496 3.76326e-05 3.76556e-05 -1.7683e-05
-0.000127914 3.83569e-05 3.83816e-05 -1.7683e-05
-0.000211281 6.33834e-05 6.33846e-05 -1.06092e-05
-0.000167382 5.02054e-05 5.02183e-05 -1.4588e-05
-0.000126705 3.79947e-05 3.80186e-05 -1.7683e-05
-0.000170605 5.11715e-05 5.11859e-05 -1.4588e-05
-0.000168993 5.06885e-05 5.07021e-05 -1.4588e-05
-0.000209266 6.27794e-05 6.27801e-05 -1.06092e-05
-0.000205237 6.15713e-05 6.1571e-05 -1.06092e-05
-0.000123077 3.69083e-05 3.69296e-05 -1.7683e-05
-0.000125496 3.76326e-05 3.76556e-05 -1.7683e-05
-0.000207252 6.21754e-05 6.21755e-05 -1.06092e-05
-0.000164158 4.92392e-05 4.92508e-05 -1.45881e-05
-0.000124286 3.72704e-05 3.72926e-05 -1.7683e-05
-0.000167382 5.02054e-05 5.02183e-05 -1.4588e-05
-0.00016577 4.97223e-05 4.97346e-05 -1.4588e-05
-0.000205237 6.15713e-05 6.1571e-05 -1.06092e-05
-0.000201208 6.03632e-05 6.0362e-05 -1.06092e-05
-0.000120659 3.6184e-05 3.62036e-05 -1.7683e-05
-0.000123077 3.69083e-05 3.69296e-05 -1.7683e-05
-0.000203222 6.09673e-05 6.09665e-05 -1.06092e-05
-0.000160934 4.8273e-05 4.82833e-05 -1.45881e-05
-0.000121868 3.65461e-05 3.65666e-05 -1.7683e-05
-0.000164158 4.92392e-05 4.92508e-05 -1.45881e-05
-0.000162546 4.87561e-05 4.8767e-05 -1.45881e-05
-0.000201208 6.03632e-05 6.0362e-05 -1.06092e-05
-0.000197179 5.91551e-05 5.9153e-05 -1.06092e-05
-0.000118241 3.54596e-05 3.54776e-05 -1.7683e-05
-0.000120659 3.6184e-05 3.62036e-05 -1.7683e-05
-0.000199193 5.97592e-05 5.97575e-05 -1.06092e-05
-0.00015771 4.73069e-05 4.73158e-05 -1.45881e-05
-0.00011945 3.58218e-05 3.58406e-05 -1.7683e-05
-0.000160934 4.8273e-05 4.82833e-05 -1.45881e-05
-0.000159322 4.77899e-05 4.77995e-05 -1.45881e-05
-0.000197179 5.91551e-05 5.9153e-05 -1.06092e-05
-0.00019315 5.7947e-05 5.7944e-05 -1.06093e-05
-0.000115823 3.47353e-05 3.47517e-05 -1.7683e-05
-0.000118241 3.54596e-05 3.54776e-05 -1.7683e-05
-0.000195164 5.85511e-05 5.85485e-05 -1.06093e-05
-0.000154487 4.63406e-05 4.63483e-05 -1.45881e-05
-0.000117032 3.50975e-05 3.51146e-05 -1.7683e-05
-0.00015771 4.73069e-05 4.73158e-05 -1.45881e-05
-0.000156099 4.68238e-05 4.6832e-05 -1.45881e-05
-0.00019315 5.7947e-05 5.7944e-05 -1.06093e-05
-0.000189121 5.67389e-05 5.67351e-05 -1.06093e-05
-0.000113404 3.40109e-05 3.40257e-05 -1.7683e-05
-0.000115823 3.47353e-05 3.47517e-05 -1.7683e-05
-0.000191135 5.7343e-05 5.73396e-05 -1.06093e-05
-0.000151263 4.53744e-05 4.53808e-05 -1.45881e-05
-0.000114613 3.43731e-05 3.43887e-05 -1.7683e-05
-0.000154487 4.63406e-05 4.63483e-05 -1.45881e-05
-0.000152875 4.58575e-05 4.58646e-05 -1.45881e-05
-0.000189121 5.67389e-05 5.67351e-05 -1.06093e-05
-0.000185092 5.55308e-05 5.55261e-05 -1.06093e-05
-0.000110986 3.32866e-05 3.32998e-05 -1.76831e-05
-0.000113404 3.40109e-05 3.40257e-05 -1.7683e-05
-0.000187106 5.61349e-05 5.61306e-05 -1.06093e-05
-0.000148039 4.44082e-05 4.44134e-05 -1.45882e-05
-0.000112195 3.36488e-05 3.36628e-05 -1.7683e-05
-0.000151263 4.53744e-05 4.53808e-05 -1.45881e-05
-0.000149651 4.48913e-05 4.48971e-05 -1.45881e-05
-0.000185092 5.55308e-05 5.55261e-05 -1.06093e-05
-0.000181063 5.43227e-05 5.43172e-05 -1.06093e-05
-0.000108568 3.25622e-05 3.25739e-05 -1.76831e-05
-0.000110986 3.32866e-05 3.32998e-05 -1.76831e-05
-0.000183077 5.49267e-05 5.49217e-05 -1.06093e-05
-0.000144816 4.3442e-05 4.3446e-05 -1.45882e-05
-0.000109777 3.29244e-05 3.29369e-05 -1.76831e-05
-0.000148039 4.44082e-05 4.44134e-05 -1.45882e-05
-0.000146428 4.39251e-05 4.39297e-05 -1.45882e-05
-0.000181063 5.43227e-05 5.43172e-05 -1.06093e-05
-0.000177034 5.31145e-05 5.31083e-05 -1.06093e-05
-0.00010615 3.18378e-05 3.18481e-05 -1.76831e-05
-0.000108568 3.25622e-05 3.25739e-05 -1.76831e-05
-0.000179048 5.37186e-05 5.37127e-05 -1.06093e-05
-0.000141592 4.24757e-05 4.24785e-05 -1.45882e-05
-0.000107359 3.22e-05 3.2211e-05 -1.76831e-05
-0.000144816 4.3442e-05 4.3446e-05 -1.45882e-05
-0.000143204 4.29588e-05 4.29623e-05 -1.45882e-05
-0.000177034 5.31145e-05 5.31083e-05 -1.06093e-05
-0.000173005 5.19064e-05 5.18994e-05 -1.06094e-05
-0.000103732 3.11134e-05 3.11222e-05 -1.76831e-05
-0.00010615 3.18378e-05 3.18481e-05 -1.76831e-05
-0.000175019 5.25105e-05 5.25038e-05 -1.06094e-05
-0.000138369 4.15095e-05 4.15112e-05 -1.45882e-05
-0.000104941 3.14756e-05 3.14851e-05 -1.76831e-05
-0.000141592 4.24757e-05 4.24785e-05 -1.45882e-05
-0.000139981 4.19926e-05 4.19948e-05 -1.45882e-05
-0.000173005 5.19064e-05 5.18994e-05 -1.06094e-05
-0.000168976 5.06982e-05 5.06905e-05 -1.06094e-05
-0.000101314 3.03889e-05 3.03964e-05 -1.76831e-05
-0.000103732 3.11134e-05 3.11222e-05 -1.76831e-05
-0.00017099 5.13023e-05 5.12949e-05 -1.06094e-05
-0.000135145 4.05432e-05 4.05438e-05 -1.45882e-05
-0.000102523 3.07512e-05 3.07593e-05 -1.76831e-05
-0.000138369 4.15095e-05 4.15112e-05 -1.45882e-05
-0.000136757 4.10263e-05 4.10275e-05 -1.45882e-05
-0.000168976 5.06982e-05 5.06905e-05 -1.06094e-05
-0.000164947 4.94901e-05 4.94816e-05 -1.06094e-05
-9.88958e-05 2.96645e-05 2.96706e-05 -1.76831e-05
-0.000101314 3.03889e-05 3.03964e-05 -1.76831e-05
-0.000166962 5.00942e-05 5.0086e-05 -1.06094e-05
-0.000131922 3.95769e-05 3.95764e-05 -1.45883e-05
-0.000100105 3.00267e-05 3.00335e-05 -1.76831e-05
-0.000135145 4.05432e-05 4.05438e-05 -1.45882e-05
-0.000133534 4.006e-05 4.00601e-05 -1.45882e-05
-0.000164947 4.94901e-05 4.94816e-05 -1.06094e-05
-0.000160918 4.82819e-05 4.82727e-05 -1.06094e-05
-9.64778e-05 2.894e-05 2.89448e-05 -1.76831e-05
-9.88958e-05 2.96645e-05 2.96706e-05 -1.76831e-05
-0.000162933 4.8886e-05 4.88771e-05 -1.06094e-05
-0.000128698 3.86106e-05 3.86091e-05 -1.45883e-05
-9.76868e-05 2.93023e-05 2.93077e-05 -1.76831e-05
-0.000131922 3.95769e-05 3.95764e-05 -1.45883e-05
-0.00013031 3.90938e-05 3.90927e-05 -1.45883e-05
-0.000160918 4.82819e-05 4.82727e-05 -1.06094e-05
-0.000156889 4.70737e-05 4.70639e-05 -1.06095e-05
-9.40599e-05 2.82155e-05 2.8219e-05 -1.76832e-05
-9.64778e-05 2.894e-05 2.89448e-05 -1.76831e-05
-0.000158904 4.76778e-05 4.76683e-05 -1.06094e-05
-0.000125475 3.76443e-05 3.76417e-05 -1.45883e-05
-9.52689e-05 2.85778e-05 2.85819e-05 -1.76832e-05
-0.000128698 3.86106e-05 3.86091e-05 -1.45883e-05
-0.000127087 3.81275e-05 3.81254e-05 -1.45883e-05
-0.000156889 4.70737e-05 4.70639e-05 -1.06095e-05
-0.000152861 4.58655e-05 4.5855e-05 -1.06095e-05
-9.1642e-05 2.7491e-05 2.74933e-05 -1.76832e-05
-9.40599e-05 2.82155e-05 2.8219e-05 -1.76832e-05
-0.000154875 4.64696e-05 4.64594e-05 -1.06095e-05
-0.000122252 3.6678e-05 3.66744e-05 -1.45883e-05
-9.28509e-05 2.78533e-05 2.78561e-05 -1.76832e-05
-0.000125475 3.76443e-05 3.76417e-05 -1.45883e-05
-0.000123863 3.71611e-05 3.71581e-05 -1.45883e-05
-0.000152861 4.58655e-05 4.5855e-05 -1.06095e-05
-0.000148832 4.46574e-05 4.46462e-05 -1.06095e-05
-8.92241e-05 2.67665e-05 2.67675e-05 -1.76832e-05
-9.1642e-05 2.7491e-05 2.74933e-05 -1.76832e-05
-0.000150846 4.52615e-05 4.52506e-05 -1.06095e-05
-0.000119028 3.57116e-05 3.57071e-05 -1.45883e-05
-9.04331e-05 2.71288e-05 2.71304e-05 -1.76832e-05
-0.000122252 3.6678e-05 3.66744e-05 -1.45883e-05
-0.00012064 3.61948e-05 3.61908e-05 -1.45883e-05
-0.000148832 4.46574e-05 4.46462e-05 -1.06095e-05
-0.000144803 4.34492e-05 4.34374e-05 -1.06095e-05
-8.68063e-05 2.6042e-05 2.60418e-05 -1.76832e-05
-8.92241e-05 2.67665e-05 2.67675e-05 -1.76832e-05
-0.000146817 4.40533e-05 4.40418e-05 -1.06095e-05
-0.000115805 3.47453e-05 3.47399e-05 -1.45884e-05
-8.80152e-05 2.64043e-05 2.64047e-05 -1.76832e-05
-0.000119028 3.57116e-05 3.57071e-05 -1.45883e-05
-0.000117417 3.52285e-05 3.52235e-05 -1.45884e-05
-0.000144803 4.34492e-05 4.34374e-05 -1.06095e-05
-0.000140774 4.2241e-05 4.22286e-05 -1.06095e-05
-8.43885e-05 2.53175e-05 2.53161e-05 -1.76832e-05
-8.68063e-05 2.6042e-05 2.60418e-05 -1.76832e-05
-0.000142789 4.28451e-05 4.2833e-05 -1.06095e-05
-0.000112582 3.37789e-05 3.37726e-05 -1.45884e-05
-8.55974e-05 2.56797e-05 2.5679e-05 -1.76832e-05
-0.000115805 3.47453e-05 3.47399e-05 -1.45884e-05
-0.000114193 3.42621e-05 3.42562e-05 -1.45884e-05
-0.000140774 4.2241e-05 4.22286e-05 -1.06095e-05
-0.000136746 4.10327e-05 4.10198e-05 -1.06096e-05
-8.19707e-05 2.45929e-05 2.45905e-05 -1.76832e-05
-8.43885e-05 2.53175e-05 2.53161e-05 -1.76832e-05
-0.00013876 4.16368e-05 4.16242e-05 -1.06096e-05
-0.000109358 3.28126e-05 3.28054e-05 -1.45884e-05
-8.31796e-05 2.49552e-05 2.49533e-05 -1.76832e-05
-0.000112582 3.37789e-05 3.37726e-05 -1.45884e-05
-0.00011097 3.32957e-05 3.3289e-05 -1.45884e-05
-0.000136746 4.10327e-05 4.10198e-05 -1.06096e-05
-0.000132717 3.98245e-05 3.9811e-05 -1.06096e-05
-7.95529e-05 2.38683e-05 2.38648e-05 -1.76833e-05
-8.19707e-05 2.45929e-05 2.45905e-05 -1.76832e-05
-0.000134731 4.04286e-05 4.04154e-05 -1.06096e-05
-0.000106135 3.18462e-05 3.18382e-05 -1.45884e-05
-8.07618e-05 2.42306e-05 2.42276e-05 -1.76833e-05
-0.000109358 3.28126e-05 3.28054e-05 -1.45884e-05
-0.000107747 3.23294e-05 3.23218e-05 -1.45884e-05
-0.000132717 3.98245e-05 3.9811e-05 -1.06096e-05
-0.000128688 3.86163e-05 3.86023e-05 -1.06096e-05
-7.71352e-05 2.31437e-05 2.31392e-05 -1.76833e-05
-7.95529e-05 2.38683e-05 2.38648e-05 -1.76833e-05
-0.000130703 3.92204e-05 3.92067e-05 -1.06096e-05
-0.000102912 3.08798e-05 3.08709e-05 -1.45885e-05
-7.83441e-05 2.3506e-05 2.3502e-05 -1.76833e-05
-0.000106135 3.18462e-05 3.18382e-05 -1.45884e-05
-0.000104524 3.1363e-05 3.13545e-05 -1.45884e-05
-0.000128688 3.86163e-05 3.86023e-05 -1.06096e-05
-0.00012466 3.7408e-05 3.73936e-05 -1.06096e-05
-7.47175e-05 2.24191e-05 2.24136e-05 -1.76833e-05
-7.71352e-05 2.31437e-05 2.31392e-05 -1.76833e-05
-0.000126674 3.80122e-05 3.79979e-05 -1.06096e-05
-9.96888e-05 2.99134e-05 2.99038e-05 -1.45885e-05
-7.59263e-05 2.27814e-05 2.27764e-05 -1.76833e-05
-0.000102912 3.08798e-05 3.08709e-05 -1.45885e-05
-0.0001013 3.03966e-05 3.03874e-05 -1.45885e-05
-0.00012466 3.7408e-05 3.73936e-05 -1.06096e-05
-0.000120631 3.61998e-05 3.61848e-05 -1.06096e-05
-7.22998e-05 2.16945e-05 2.1688e-05 -1.76833e-05
-7.47175e-05 2.24191e-05 2.24136e-05 -1.76833e-05
-0.000122645 3.68039e-05 3.67892e-05 -1.06096e-05
-9.64657e-05 2.8947e-05 2.89366e-05 -1.45885e-05
-7.35087e-05 2.20568e-05 2.20508e-05 -1.76833e-05
-9.96888e-05 2.99134e-05 2.99038e-05 -1.45885e-05
-9.80772e-05 2.94302e-05 2.94202e-05 -1.45885e-05
-0.000120631 3.61998e-05 3.61848e-05 -1.06096e-05
-0.000116602 3.49915e-05 3.49761e-05 -1.06097e-05
-6.98822e-05 2.09699e-05 2.09624e-05 -1.76833e-05
-7.22998e-05 2.16945e-05 2.1688e-05 -1.76833e-05
-0.000118617 3.55957e-05 3.55805e-05 -1.06097e-05
-9.32426e-05 2.79805e-05 2.79694e-05 -1.45885e-05
-7.1091e-05 2.13322e-05 2.13252e-05 -1.76833e-05
-9.64657e-05 2.8947e-05 2.89366e-05 -1.45885e-05
-9.48541e-05 2.84637e-05 2.8453e-05 -1.45885e-05
-0.000116602 3.49915e-05 3.49761e-05 -1.06097e-05
-0.000112574 3.37833e-05 3.37674e-05 -1.06097e-05
-6.74646e-05 2.02452e-05 2.02369e-05 -1.76834e-05
-6.98822e-05 2.09699e-05 2.09624e-05 -1.76833e-05
-0.000114588 3.43874e-05 3.43718e-05 -1.06097e-05
-9.00195e-05 2.70141e-05 2.70023e-05 -1.45885e-05
-6.86734e-05 2.06076e-05 2.05997e-05 -1.76833e-05
-9.32426e-05 2.79805e-05 2.79694e-05 -1.45885e-05
-9.1631e-05 2.74973e-05 2.74859e-05 -1.45885e-05
-0.000112574 3.37833e-05 3.37674e-05 -1.06097e-05
-0.000108545 3.2575e-05 3.25587e-05 -1.06097e-05
-6.5047e-05 1.95206e-05 1.95114e-05 -1.76834e-05
-6.74646e-05 2.02452e-05 2.02369e-05 -1.76834e-05
-0.00011056 3.31791e-05 3.31631e-05 -1.06097e-05
-8.67964e-05 2.60476e-05 2.60352e-05 -1.45886e-05
-6.62558e-05 1.98829e-05 1.98741e-05 -1.76834e-05
-9.00195e-05 2.70141e-05 2.70023e-05 -1.45885e-05
-8.84079e-05 2.65308e-05 2.65188e-05 -1.45886e-05
-0.000108545 3.2575e-05 3.25587e-05 -1.06097e-05
-0.000104517 3.13667e-05 3.13501e-05 -1.06097e-05
-6.26295e-05 1.87959e-05 1.87858e-05 -1.76834e-05
-6.5047e-05 1.95206e-05 1.95114e-05 -1.76834e-05
-0.000106531 3.19709e-05 3.19544e-05 -1.06097e-05
-8.35734e-05 2.50811e-05 2.50681e-05 -1.45886e-05
-6.38383e-05 1.91582e-05 1.91486e-05 -1.76834e-05
-8.67964e-05 2.60476e-05 2.60352e-05 -1.45886e-05
-8.51849e-05 2.55644e-05 2.55516e-05 -1.45886e-05
-0.000104517 3.13667e-05 3.13501e-05 -1.06097e-05
-0.000100488 3.01584e-05 3.01414e-05 -1.06097e-05
-6.0212e-05 1.80712e-05 1.80604e-05 -1.76834e-05
-6.26295e-05 1.87959e-05 1.87858e-05 -1.76834e-05
-0.000102503 3.07626e-05 3.07457e-05 -1.06097e-05
-8.03504e-05 2.41147e-05 2.4101e-05 -1.45886e-05
-6.14207e-05 1.84335e-05 1.84231e-05 -1.76834e-05
-8.35734e-05 2.50811e-05 2.50681e-05 -1.45886e-05
-8.19619e-05 2.45979e-05 2.45846e-05 -1.45886e-05
-0.000100488 3.01584e-05 3.01414e-05 -1.06097e-05
-9.646e-05 2.89501e-05 2.89328e-05 -1.06098e-05
-5.77945e-05 1.73464e-05 1.73349e-05 -1.76834e-05
-6.0212e-05 1.80712e-05 1.80604e-05 -1.76834e-05
-9.84742e-05 2.95543e-05 2.95371e-05 -1.06097e-05
-7.71274e-05 2.31482e-05 2.3134e-05 -1.45886e-05
-5.90033e-05 1.77088e-05 1.76976e-05 -1.76834e-05
-8.03504e-05 2.41147e-05 2.4101e-05 -1.45886e-05
-7.87389e-05 2.36314e-05 2.36175e-05 -1.45886e-05
-9.646e-05 2.89501e-05 2.89328e-05 -1.06098e-05
-9.24316e-05 2.77419e-05 2.77242e-05 -1.06098e-05
-5.53771e-05 1.66217e-05 1.66094e-05 -1.76834e-05
-5.77945e-05 1.73464e-05 1.73349e-05 -1.76834e-05
-9.44458e-05 2.8346e-05 2.83285e-05 -1.06098e-05
-7.39045e-05 2.21817e-05 2.21669e-05 -1.45886e-05
-5.65858e-05 1.69841e-05 1.69722e-05 -1.76834e-05
-7.71274e-05 2.31482e-05 2.3134e-05 -1.45886e-05
-7.55159e-05 2.26649e-05 2.26504e-05 -1.45886e-05
-9.24316e-05 2.77419e-05 2.77242e-05 -1.06098e-05
-8.84032e-05 2.65335e-05 2.65155e-05 -1.06098e-05
-5.29597e-05 1.5897e-05 1.5884e-05 -1.76834e-05
-5.53771e-05 1.66217e-05 1.66094e-05 -1.76834e-05
-9.04174e-05 2.71377e-05 2.71199e-05 -1.06098e-05
-7.06815e-05 2.12152e-05 2.11999e-05 -1.45886e-05
-5.41684e-05 1.62594e-05 1.62467e-05 -1.76834e-05
-7.39045e-05 2.21817e-05 2.21669e-05 -1.45886e-05
-7.2293e-05 2.16984e-05 2.16834e-05 -1.45886e-05
-8.84032e-05 2.65335e-05 2.65155e-05 -1.06098e-05
-8.43748e-05 2.53252e-05 2.53069e-05 -1.06098e-05
-5.05423e-05 1.51723e-05 1.51586e-05 -1.76834e-05
-5.29597e-05 1.5897e-05 1.5884e-05 -1.76834e-05
-8.6389e-05 2.59294e-05 2.59112e-05 -1.06098e-05
-6.74587e-05 2.02487e-05 2.02329e-05 -1.45887e-05
-5.1751e-05 1.55346e-05 1.55213e-05 -1.76834e-05
-7.06815e-05 2.12152e-05 2.11999e-05 -1.45886e-05
-6.90701e-05 2.07319e-05 2.07164e-05 -1.45886e-05
-8.43748e-05 2.53252e-05 2.53069e-05 -1.06098e-05
-8.03465e-05 2.4117e-05 2.40984e-05 -1.06099e-05
-4.8125e-05 1.44475e-05 1.44332e-05 -1.76834e-05
-5.05423e-05 1.51723e-05 1.51586e-05 -1.76834e-05
-8.23606e-05 2.47211e-05 2.47027e-05 -1.06098e-05
-6.42359e-05 1.92822e-05 1.92659e-05 -1.45887e-05
-4.93337e-05 1.48099e-05 1.47959e-05 -1.76834e-05
-6.74587e-05 2.02487e-05 2.02329e-05 -1.45887e-05
-6.58473e-05 1.97654e-05 1.97494e-05 -1.45887e-05
-8.03465e-05 2.4117e-05 2.40984e-05 -1.06099e-05
-7.63182e-05 2.29087e-05 2.28898e-05 -1.061e-05
-4.57078e-05 1.37229e-05 1.37078e-05 -1.76834e-05
-4.8125e-05 1.44475e-05 1.44332e-05 -1.76834e-05
-7.83323e-05 2.35128e-05 2.34941e-05 -1.06099e-05
-6.10131e-05 1.83157e-05 1.82989e-05 -1.45888e-05
-4.69164e-05 1.40852e-05 1.40705e-05 -1.76834e-05
-6.42359e-05 1.92822e-05 1.92659e-05 -1.45887e-05
-6.26245e-05 1.87989e-05 1.87824e-05 -1.45887e-05
-7.63182e-05 2.29087e-05 2.28898e-05 -1.061e-05
-7.22899e-05 2.17004e-05 2.16812e-05 -1.06101e-05
-4.32907e-05 1.29982e-05 1.29825e-05 -1.76835e-05
-4.57078e-05 1.37229e-05 1.37078e-05 -1.76834e-05
-7.4304e-05 2.23045e-05 2.22855e-05 -1.061e-05
-5.77904e-05 1.73493e-05 1.73319e-05 -1.45889e-05
-4.44992e-05 1.33605e-05 1.33452e-05 -1.76834e-05
-6.10131e-05 1.83157e-05 1.82989e-05 -1.45888e-05
-5.94018e-05 1.78325e-05 1.78154e-05 -1.45888e-05
-7.22899e-05 2.17004e-05 2.16812e-05 -1.06101e-05
-6.82617e-05 2.04921e-05 2.04727e-05 -1.06103e-05
-4.08736e-05 1.22735e-05 1.22572e-05 -1.76835e-05
-4.32907e-05 1.29982e-05 1.29825e-05 -1.76835e-05
-7.02758e-05 2.10962e-05 2.1077e-05 -1.06102e-05
-5.45678e-05 1.63828e-05 1.6365e-05 -1.4589e-05
-4.20821e-05 1.26358e-05 1.26198e-05 -1.76835e-05
-5.77904e-05 1.73493e-05 1.73319e-05 -1.45889e-05
-5.61791e-05 1.6866e-05 1.68485e-05 -1.45889e-05
-6.82617e-05 2.04921e-05 2.04727e-05 -1.06103e-05
-6.42336e-05 1.92838e-05 1.92642e-05 -1.06105e-05
-3.84566e-05 1.15486e-05 1.1532e-05 -1.76835e-05
-4.08736e-05 1.22735e-05 1.22572e-05 -1.76835e-05
-6.62476e-05 1.98879e-05 1.98684e-05 -1.06104e-05
-5.13453e-05 1.54162e-05 1.53982e-05 -1.45891e-05
-3.96651e-05 1.19111e-05 1.18946e-05 -1.76835e-05
-5.45678e-05 1.63828e-05 1.6365e-05 -1.4589e-05
-5.29566e-05 1.58995e-05 1.58816e-05 -1.4589e-05
-6.42336e-05 1.92838e-05 1.92642e-05 -1.06105e-05
-6.02055e-05 1.80752e-05 1.80559e-05 -1.06104e-05
-3.60393e-05 1.08232e-05 1.08069e-05 -1.76836e-05
-3.84566e-05 1.15486e-05 1.1532e-05 -1.76835e-05
-6.22195e-05 1.86795e-05 1.866e-05 -1.06105e-05
-4.81227e-05 1.44492e-05 1.44315e-05 -1.45889e-05
-3.7248e-05 1.1186e-05 1.11694e-05 -1.76836e-05
-5.13453e-05 1.54162e-05 1.53982e-05 -1.45891e-05
-4.9734e-05 1.49328e-05 1.49148e-05 -1.4589e-05
-6.02055e-05 1.80752e-05 1.80559e-05 -1.06104e-05
-5.61776e-05 1.68662e-05 1.68477e-05 -1.06097e-05
-3.36212e-05 1.00964e-05 1.00821e-05 -1.76835e-05
-3.60393e-05 1.08232e-05 1.08069e-05 -1.76836e-05
-5.81916e-05 1.74708e-05 1.74518e-05 -1.06102e-05
-4.48997e-05 1.34811e-05 1.34651e-05 -1.45882e-05
-3.48304e-05 1.046e-05 1.04444e-05 -1.76836e-05
-4.81227e-05 1.44492e-05 1.44315e-05 -1.45889e-05
-4.65113e-05 1.39654e-05 1.39483e-05 -1.45887e-05
-5.61776e-05 1.68662e-05 1.68477e-05 -1.06097e-05
-5.21498e-05 1.5656e-05 1.56402e-05 -1.06072e-05
-3.12006e-05 9.36642e-06 9.3575e-06 -1.76833e-05
-3.36212e-05 1.00964e-05 1.00821e-05 -1.76835e-05
-5.41636e-05 1.62613e-05 1.62438e-05 -1.06088e-05
-4.16754e-05 1.25107e-05 1.24992e-05 -1.45859e-05
-3.24114e-05 9.73197e-06 9.71975e-06 -1.76835e-05
-4.48997e-05 1.34811e-05 1.34651e-05 -1.45882e-05
-4.32878e-05 1.29964e-05 1.29821e-05 -1.45873e-05
-5.21498e-05 1.5656e-05 1.56402e-05 -1.06072e-05
-4.81217e-05 1.44433e-05 1.44336e-05 -1.06008e-05
-2.87749e-05 8.62986e-06 8.6336e-06 -1.76825e-05
-3.12006e-05 9.36642e-06 9.3575e-06 -1.76833e-05
-5.01359e-05 1.50501e-05 1.50368e-05 -1.06047e-05
-3.8448e-05 1.15349e-05 1.15342e-05 -1.45803e-05
-2.99885e-05 8.99926e-06 8.99539e-06 -1.76831e-05
-4.16754e-05 1.25107e-05 1.24992e-05 -1.45859e-05
-4.00623e-05 1.20237e-05 1.20166e-05 -1.45836e-05
-4.81217e-05 1.44433e-05 1.44336e-05 -1.06008e-05
-4.40939e-05 1.32257e-05 1.32292e-05 -1.05854e-05
-2.63369e-05 7.88061e-06 7.90984e-06 -1.76812e-05
-2.87749e-05 8.62986e-06 8.6336e-06 -1.76825e-05
-4.61075e-05 1.38353e-05 1.38309e-05 -1.05947e-05
-3.52135e-05 1.05492e-05 1.05704e-05 -1.45679e-05
-2.75582e-05 8.25743e-06 8.27178e-06 -1.76819e-05
-3.8448e-05 1.15349e-05 1.15342e-05 -1.45803e-05
-3.68319e-05 1.10439e-05 1.1052e-05 -1.45754e-05
-4.40939e-05 1.32257e-05 1.32292e-05 -1.05854e-05
-4.00629e-05 1.1999e-05 1.20274e-05 -1.0554e-05
-2.38775e-05 7.10764e-06 7.18706e-06 -1.76782e-05
-2.63369e-05 7.88061e-06 7.90984e-06 -1.76812e-05
-4.20794e-05 1.2614e-05 1.2628e-05 -1.05722e-05
-3.19638e-05 9.54377e-06 9.6086e-06 -1.45429e-05
-2.51102e-05 7.49786e-06 7.54815e-06 -1.76801e-05
-3.52135e-05 1.05492e-05 1.05704e-05 -1.45679e-05
-3.35913e-05 1.00495e-05 1.00893e-05 -1.45572e-05
-4.00629e-05 1.1999e-05 1.20274e-05 -1.0554e-05
-3.60308e-05 1.07549e-05 1.08325e-05 -1.04896e-05
-2.13717e-05 6.29501e-06 6.46146e-06 -1.76753e-05
-2.38775e-05 7.10764e-06 7.18706e-06 -1.76782e-05
-3.80461e-05 1.13793e-05 1.14286e-05 -1.05276e-05
-2.86857e-05 8.50591e-06 8.64847e-06 -1.4496e-05
-2.26331e-05 6.70795e-06 6.82508e-06 -1.76764e-05
-3.19638e-05 9.54377e-06 9.6086e-06 -1.45429e-05
-3.03293e-05 9.0307e-06 9.12797e-06 -1.45237e-05
-3.60308e-05 1.07549e-05 1.08325e-05 -1.04896e-05
-3.19807e-05 9.4839e-06 9.64149e-06 -1.03749e-05
-1.8796e-05 5.41688e-06 5.7339e-06 -1.76715e-05
-2.13717e-05 6.29501e-06 6.46146e-06 -1.76753e-05
-3.4011e-05 1.01248e-05 1.0237e-05 -1.04397e-05
-2.53507e-05 7.40917e-06 7.68922e-06 -1.44141e-05
-2.00928e-05 5.86515e-06 6.09758e-06 -1.7674e-05
-2.86857e-05 8.50591e-06 8.64847e-06 -1.4496e-05
-2.70278e-05 7.96537e-06 8.16963e-06 -1.4459e-05
-3.19807e-05 9.4839e-06 9.64149e-06 -1.03749e-05
-2.79178e-05 8.16246e-06 8.46658e-06 -1.01654e-05
-1.60838e-05 4.45146e-06 4.98531e-06 -1.76818e-05
-1.8796e-05 5.41688e-06 5.7339e-06 -1.76715e-05
-2.99472e-05 8.82821e-06 9.05099e-06 -1.02864e-05
-2.19229e-05 6.23377e-06 6.72389e-06 -1.42825e-05
-1.7465e-05 4.94802e-06 5.36443e-06 -1.76728e-05
-2.53507e-05 7.40917e-06 7.68922e-06 -1.44141e-05
-2.36503e-05 6.83585e-06 7.2062e-06 -1.43585e-05
-2.79178e-05 8.16246e-06 8.46658e-06 -1.01654e-05
-2.37662e-05 6.7846e-06 7.27781e-06 -9.84426e-06
-1.32069e-05 3.37513e-06 4.2136e-06 -1.77156e-05
-1.60838e-05 4.45146e-06 4.98531e-06 -1.76818e-05
-2.58662e-05 7.48807e-06 7.87636e-06 -1.0019e-05
-1.83189e-05 4.93147e-06 5.73745e-06 -1.41006e-05
-1.46614e-05 3.92302e-06 4.60218e-06 -1.76959e-05
-2.19229e-05 6.23377e-06 6.72389e-06 -1.42825e-05
-2.01514e-05 5.59437e-06 6.2387e-06 -1.41909e-05
-2.37662e-05 6.7846e-06 7.27781e-06 -9.84426e-06
-1.95311e-05 5.29333e-06 6.10191e-06 -9.3442e-06
-1.00605e-05 2.26272e-06 3.34191e-06 -1.78544e-05
-1.32069e-05 3.37513e-06 4.2136e-06 -1.77156e-05
-2.16452e-05 6.03945e-06 6.68818e-06 -9.6225e-06
-1.44839e-05 3.5492e-06 4.68631e-06 -1.39026e-05
-1.16849e-05 2.8213e-06 3.7987e-06 -1.7762e-05
-1.83189e-05 4.93147e-06 5.73745e-06 -1.41006e-05
-1.64286e-05 4.25651e-06 5.21662e-06 -1.40113e-05
-1.95311e-05 5.29333e-06 6.10191e-06 -9.3442e-06
-1.49153e-05 3.80894e-06 4.75988e-06 -8.80639e-06
-6.80046e-06 1.29684e-06 2.35869e-06 -1.81534e-05
-1.00605e-05 2.26272e-06 3.34191e-06 -1.78544e-05
-1.73218e-05 4.57461e-06 5.46309e-06 -9.06455e-06
-1.02407e-05 2.13972e-06 3.47186e-06 -1.38657e-05
-8.40764e-06 1.71911e-06 2.86651e-06 -1.79817e-05
-1.44839e-05 3.5492e-06 4.68631e-06 -1.39026e-05
-1.24372e-05 2.80817e-06 4.12671e-06 -1.38204e-05
-1.49153e-05 3.80894e-06 4.75988e-06 -8.80639e-06
-9.9504e-06 2.33854e-06 3.26222e-06 -8.46319e-06
-3.63847e-06 1.27265e-06 1.01392e-06 -1.88035e-05
-6.80046e-06 1.29684e-06 2.35869e-06 -1.81534e-05
-1.24215e-05 2.97154e-06 4.05e-06 -8.57549e-06
-5.83778e-06 1.46373e-06 1.87459e-06 -1.43722e-05
-5.2178e-06 1.11695e-06 1.75751e-06 -1.84173e-05
-1.02407e-05 2.13972e-06 3.47186e-06 -1.38657e-05
-8.00434e-06 1.66586e-06 2.71649e-06 -1.40608e-05
-9.9504e-06 2.33854e-06 3.26222e-06 -8.46319e-06
-4.19119e-06 2.46793e-06 7.38541e-07 -9.88518e-06
-1.96772e-06 3.60149e-06 -7.00187e-07 -1.92867e-05
-3.63847e-06 1.27265e-06 1.01392e-06 -1.88035e-05
-7.28069e-06 2.18339e-06 2.18456e-06 -8.80158e-06
-1.82795e-06 3.20665e-06 -5.90872e-07 -1.61659e-05
-2.43195e-06 1.9334e-06 2.13665e-07 -1.91393e-05
-5.83778e-06 1.46373e-06 1.87459e-06 -1.43722e-05
-3.7695e-06 1.7328e-06 8.72872e-07 -1.49615e-05
-4.19119e-06 2.46793e-06 7.38541e-07 -9.88518e-06
-1.50154e-06 9.10152e-06 -3.25713e-06 -1.50742e-05
-2.80439e-06 1.09109e-05 -3.47423e-06 -1.77017e-05
-1.96772e-06 3.60149e-06 -7.00187e-07 -1.92867e-05
-1.86907e-06 3.7273e-06 -7.96385e-07 -1.17408e-05
-3.01442e-06 1.24329e-05 -4.03648e-06 -1.75706e-05
-2.13034e-06 6.68855e-06 -1.95352e-06 -1.89987e-05
-1.82795e-06 3.20665e-06 -5.90872e-07 -1.61659e-05
-1.18547e-06 6.65186e-06 -2.34274e-06 -1.73915e-05
-1.50154e-06 9.10152e-06 -3.25713e-06 -1.50742e-05
-1.23262e-05 4.02356e-05 -1.19612e-05 -1.52119e-05
-5.29369e-06 1.97448e-05 -6.19335e-06 -9.3587e-06
-2.80439e-06 1.09109e-05 -3.47423e-06 -1.77017e-05
-4.51259e-06 2.14914e-05 -7.27662e-06 -1.77414e-05
-9.79041e-06 2.90302e-05 -8.24563e-06 -8.87574e-06
-3.89161e-06 1.56628e-05 -5.04479e-06 -1.46261e-05
-3.01442e-06 1.24329e-05 -4.03648e-06 -1.75706e-05
-6.24077e-06 2.04352e-05 -6.08331e-06 -1.52107e-05
-0.000390101 0 0.000167186 5.12038e-05
-0.000441138 5.82193e-05 0.000164108 -1.6966e-06
-0.00014294 1.9354e-05 5.29652e-05 2.65641e-05
-0.000140514 -1.11022e-16 6.02201e-05 8.01652e-05
-0.00042272 3.27349e-05 0.000167137 1.92547e-05
-0.000291973 3.88149e-05 0.000108496 1.56775e-05
-0.000137177 8.19914e-06 5.52761e-05 5.05581e-05
-0.000259548 0 0.000111235 7.32539e-05
-0.000279856 1.84781e-05 0.000112019 3.62894e-05
-0.000441138 5.82193e-05 0.000164108 -1.6966e-06
-0.000463662 0.00010648 0.000153078 -1.81579e-05
-0.000154047 3.18716e-05 5.23607e-05 -5.52217e-06
-0.00014294 1.9354e-05 5.29652e-05 2.65641e-05
-0.000452429 8.3885e-05 0.000157947 -1.2306e-05
-0.000306953 6.65662e-05 0.000103023 -1.0038e-05
-0.000150872 2.68471e-05 5.31537e-05 7.69718e-06
-0.000291973 3.88149e-05 0.000108496 1.56775e-05
-0.00029973 5.46173e-05 0.000105048 1.74949e-06
-0.000463662 0.00010648 0.000153078 -1.81579e-05
-0.000475073 0.000130812 0.000147541 -2.13359e-05
-0.000157323 4.11758e-05 4.97773e-05 -2.00597e-05
-0.000154047 3.18716e-05 5.23607e-05 -5.52217e-06
-0.000472117 0.000121587 0.000150227 -2.10389e-05
-0.000315724 8.43134e-05 9.9176e-05 -2.11075e-05
-0.000155263 3.68331e-05 5.07558e-05 -1.42864e-05
-0.000306953 6.65662e-05 0.000103023 -1.0038e-05
-0.000312623 7.65629e-05 0.000101169 -1.76848e-05
-0.000475073 0.000130812 0.000147541 -2.13359e-05
-0.000474634 0.000140351 0.000143264 -1.97402e-05
-0.000159037 4.55597e-05 4.86333e-05 -2.52434e-05
-0.000157323 4.11758e-05 4.97773e-05 -2.00597e-05
-0.000475067 0.000136804 0.00014497 -2.04415e-05
-0.000317188 9.22013e-05 9.64227e-05 -2.35556e-05
-0.000158992 4.39458e-05 4.93055e-05 -2.3533e-05
-0.000315724 8.43134e-05 9.9176e-05 -2.11075e-05
-0.000316998 8.92865e-05 9.75906e-05 -2.26438e-05
-0.000474634 0.000140351 0.000143264 -1.97402e-05
-0.0004713 0.000142152 0.000141063 -1.86604e-05
-0.000157982 4.7248e-05 4.74574e-05 -2.57943e-05
-0.000159037 4.55597e-05 4.86333e-05 -2.52434e-05
-0.000473477 0.000141872 0.000142116 -1.92052e-05
-0.000315319 9.47804e-05 9.45164e-05 -2.31873e-05
-0.00015839 4.66381e-05 4.78938e-05 -2.58069e-05
-0.000317188 9.22013e-05 9.64227e-05 -2.35556e-05
-0.000316544 9.39392e-05 9.54021e-05 -2.36604e-05
-0.0004713 0.000142152 0.000141063 -1.86604e-05
-0.000466606 0.000141415 0.000139368 -1.79379e-05
-0.000156662 4.72148e-05 4.69059e-05 -2.48775e-05
-0.000157982 4.7248e-05 4.74574e-05 -2.57943e-05
-0.000468783 0.000141935 0.000140078 -1.81855e-05
-0.000312222 9.45671e-05 9.32807e-05 -2.22219e-05
-0.000157507 4.73727e-05 4.72006e-05 -2.54298e-05
-0.000315319 9.47804e-05 9.45164e-05 -2.31873e-05
-0.000313787 9.48889e-05 9.38133e-05 -2.2639e-05
-0.000466606 0.000141415 0.000139368 -1.79379e-05
-0.000462519 0.00013983 0.000138296 -1.77196e-05
-0.000154976 4.67186e-05 4.63962e-05 -2.36926e-05
-0.000156662 4.72148e-05 4.69059e-05 -2.48775e-05
-0.00046458 0.000140667 0.00013882 -1.78186e-05
-0.000309181 9.35586e-05 9.24098e-05 -2.13609e-05
-0.000155725 4.69866e-05 4.66023e-05 -2.42604e-05
-0.000312222 9.45671e-05 9.32807e-05 -2.22219e-05
-0.000310672 9.40993e-05 9.28168e-05 -2.17953e-05
-0.000462519 0.00013983 0.000138296 -1.77196e-05
-0.000458799 0.000138284 0.000137364 -1.76252e-05
-0.000153605 4.60886e-05 4.60786e-05 -2.27522e-05
-0.000154976 4.67186e-05 4.63962e-05 -2.36926e-05
-0.00046055 0.000139031 0.000137794 -1.76469e-05
-0.000306479 9.23887e-05 9.17529e-05 -2.07558e-05
-0.000154306 4.64067e-05 4.62427e-05 -2.31874e-05
-0.000309181 9.35586e-05 9.24098e-05 -2.13609e-05
-0.000307776 9.29714e-05 9.20589e-05 -2.10088e-05
-0.000458799 0.000138284 0.000137364 -1.76252e-05
-0.000455627 0.000136931 0.000136584 -1.76298e-05
-0.000152352 4.55456e-05 4.57743e-05 -2.21013e-05
-0.000153605 4.60886e-05 4.60786e-05 -2.27522e-05
-0.000457186 0.000137581 0.000136973 -1.76287e-05
-0.000304157 9.13726e-05 9.11932e-05 -2.03707e-05
-0.000152934 4.58024e-05 4.59134e-05 -2.23886e-05
-0.000306479 9.23887e-05 9.17529e-05 -2.07558e-05
-0.000305277 9.18561e-05 9.14662e-05 -2.05473e-05
-0.000455627 0.000136931 0.000136584 -1.76298e-05
-0.000452737 0.000135801 0.00013583 -1.76403e-05
-0.000151302 4.50919e-05 4.55188e-05 -2.17014e-05
-0.000152352 4.55456e-05 4.57743e-05 -2.21013e-05
-0.000454139 0.00013634 0.000136199 -1.76317e-05
-0.000302114 9.05222e-05 9.06824e-05 -2.01462e-05
-0.000151821 4.53084e-05 4.56485e-05 -2.18762e-05
-0.000304157 9.13726e-05 9.11932e-05 -2.03707e-05
-0.000303106 9.09282e-05 9.09335e-05 -2.02386e-05
-0.000452737 0.000135801 0.00013583 -1.76403e-05
-0.000450073 0.000134831 0.000135104 -1.76582e-05
-0.00015034 4.47235e-05 4.52643e-05 -2.14687e-05
-0.000151302 4.50919e-05 4.55188e-05 -2.17014e-05
-0.000451391 0.0001353 0.000135468 -1.7651e-05
-0.00030026 8.98173e-05 9.01897e-05 -2.00205e-05
-0.000150805 4.48985e-05 4.53886e-05 -2.15678e-05
-0.000302114 9.05222e-05 9.06824e-05 -2.01462e-05
-0.00030117 9.01543e-05 9.04351e-05 -2.00757e-05
-0.000450073 0.000134831 0.000135104 -1.76582e-05
-0.000447519 0.000133971 0.000134378 -1.76688e-05
-0.000149456 4.44097e-05 4.50199e-05 -2.13426e-05
-0.00015034 4.47235e-05 4.52643e-05 -2.14687e-05
-0.000448783 0.000134391 0.00013474 -1.76636e-05
-0.000298517 8.92076e-05 8.97042e-05 -1.99548e-05
-0.000149895 4.45613e-05 4.51429e-05 -2.13959e-05
-0.00030026 8.98173e-05 9.01897e-05 -2.00205e-05
-0.000299378 8.95032e-05 8.99465e-05 -1.99814e-05
-0.000447519 0.000133971 0.000134378 -1.76688e-05
-0.000445036 0.000133175 0.000133655 -1.76763e-05
-0.000148605 4.41317e-05 4.47742e-05 -2.12772e-05
-0.000149456 4.44097e-05 4.50199e-05 -2.13426e-05
-0.000446273 0.000133567 0.000134017 -1.76733e-05
-0.000296838 8.86584e-05 8.92199e-05 -1.99214e-05
-0.000149026 4.42672e-05 4.48965e-05 -2.13042e-05
-0.000298517 8.92076e-05 8.97042e-05 -1.99548e-05
-0.000297672 8.89272e-05 8.94621e-05 -1.99356e-05
-0.000445036 0.000133175 0.000133655 -1.76763e-05
-0.000442585 0.000132417 0.000132929 -1.76799e-05
-0.000147777 4.38734e-05 4.453e-05 -2.12453e-05
-0.000148605 4.41317e-05 4.47742e-05 -2.12772e-05
-0.000443807 0.000132793 0.000133292 -1.76783e-05
-0.000295192 8.81432e-05 8.87354e-05 -1.99056e-05
-0.00014819 4.40008e-05 4.46524e-05 -2.12584e-05
-0.000296838 8.86584e-05 8.92199e-05 -1.99214e-05
-0.000296012 8.83977e-05 8.89777e-05 -1.99118e-05
-0.000442585 0.000132417 0.000132929 -1.76799e-05
-0.000440151 0.000131677 0.000132203 -1.76818e-05
-0.000146958 4.36262e-05 4.4285e-05 -2.12307e-05
-0.000147777 4.38734e-05 4.453e-05 -2.12453e-05
-0.000441367 0.000132045 0.000132566 -1.76811e-05
-0.000293563 8.76467e-05 8.825e-05 -1.98984e-05
-0.000147366 4.37488e-05 4.44074e-05 -2.12366e-05
-0.000295192 8.81432e-05 8.87354e-05 -1.99056e-05
-0.000294377 8.78933e-05 8.84928e-05 -1.99014e-05
-0.000440151 0.000131677 0.000132203 -1.76818e-05
-0.000437725 0.000130948 0.000131476 -1.76824e-05
-0.000146144 4.33843e-05 4.40399e-05 -2.12246e-05
-0.000146958 4.36262e-05 4.4285e-05 -2.12307e-05
-0.000438937 0.000131312 0.000131839 -1.76822e-05
-0.000291942 8.71595e-05 8.7764e-05 -1.98954e-05
-0.000146551 4.35048e-05 4.41625e-05 -2.1227e-05
-0.000293563 8.76467e-05 8.825e-05 -1.98984e-05
-0.000292752 8.74023e-05 8.80071e-05 -1.98966e-05
-0.000437725 0.000130948 0.000131476 -1.76824e-05
-0.000435302 0.000130223 0.000130748 -1.76825e-05
-0.000145332 4.31449e-05 4.37945e-05 -2.12224e-05
-0.000146144 4.33843e-05 4.40399e-05 -2.12246e-05
-0.000436513 0.000130585 0.000131112 -1.76825e-05
-0.000290324 8.66768e-05 8.72775e-05 -1.98943e-05
-0.000145738 4.32644e-05 4.39172e-05 -2.12232e-05
-0.000291942 8.71595e-05 8.7764e-05 -1.98954e-05
-0.000291133 8.69178e-05 8.75208e-05 -1.98948e-05
-0.000435302 0.000130223 0.000130748 -1.76825e-05
-0.00043288 0.0001295 0.00013002 -1.76825e-05
-0.000144521 4.29065e-05 4.3549e-05 -2.12217e-05
-0.000145332 4.31449e-05 4.37945e-05 -2.12224e-05
-0.000434091 0.000129861 0.000130384 -1.76825e-05
-0.000288707 8.61959e-05 8.67906e-05 -1.9894e-05
-0.000144926 4.30256e-05 4.36718e-05 -2.12219e-05
-0.000290324 8.66768e-05 8.72775e-05 -1.98943e-05
-0.000289516 8.64362e-05 8.70341e-05 -1.98941e-05
-0.00043288 0.0001295 0.00013002 -1.76825e-05
-0.000430458 0.000128778 0.000129292 -1.76823e-05
-0.00014371 4.26685e-05 4.33034e-05 -2.12217e-05
-0.000144521 4.29065e-05 4.3549e-05 -2.12217e-05
-0.000431669 0.000129139 0.000129656 -1.76824e-05
-0.000287091 8.57157e-05 8.63037e-05 -1.98939e-05
-0.000144115 4.27875e-05 4.34262e-05 -2.12217e-05
-0.000288707 8.61959e-05 8.67906e-05 -1.9894e-05
-0.000287899 8.59558e-05 8.65472e-05 -1.98939e-05
-0.000430458 0.000128778 0.000129292 -1.76823e-05
-0.000428036 0.000128055 0.000128563 -1.76822e-05
-0.000142899 4.24304e-05 4.30578e-05 -2.12219e-05
-0.00014371 4.26685e-05 4.33034e-05 -2.12217e-05
-0.000429247 0.000128416 0.000128927 -1.76822e-05
-0.000285474 8.52357e-05 8.58166e-05 -1.98939e-05
-0.000143304 4.25494e-05 4.31806e-05 -2.12218e-05
-0.000287091 8.57157e-05 8.63037e-05 -1.98939e-05
-0.000286283 8.54757e-05 8.60601e-05 -1.98939e-05
-0.000428036 0.000128055 0.000128563 -1.76822e-05
-0.000425614 0.000127333 0.000127835 -1.76821e-05
-0.000142088 4.21923e-05 4.28122e-05 -2.1222e-05
-0.000142899 4.24304e-05 4.30578e-05 -2.12219e-05
-0.000426825 0.000127694 0.000128199 -1.76821e-05
-0.000283858 8.47556e-05 8.53295e-05 -1.9894e-05
-0.000142493 4.23114e-05 4.2935e-05 -2.1222e-05
-0.000285474 8.52357e-05 8.58166e-05 -1.98939e-05
-0.000284666 8.49957e-05 8.55731e-05 -1.9894e-05
-0.000425614 0.000127333 0.000127835 -1.76821e-05
-0.000423192 0.000126611 0.000127106 -1.7682e-05
-0.000141276 4.19541e-05 4.25666e-05 -2.12222e-05
-0.000142088 4.21923e-05 4.28122e-05 -2.1222e-05
-0.000424403 0.000126972 0.000127471 -1.7682e-05
-0.000282241 8.42754e-05 8.48425e-05 -1.9894e-05
-0.000141682 4.20732e-05 4.26894e-05 -2.12221e-05
-0.000283858 8.47556e-05 8.53295e-05 -1.9894e-05
-0.00028305 8.45155e-05 8.5086e-05 -1.9894e-05
-0.000423192 0.000126611 0.000127106 -1.7682e-05
-0.00042077 0.000125888 0.000126378 -1.7682e-05
-0.000140465 4.17157e-05 4.23211e-05 -2.12222e-05
-0.000141276 4.19541e-05 4.25666e-05 -2.12222e-05
-0.000421981 0.00012625 0.000126742 -1.7682e-05
-0.000280624 8.37952e-05 8.43554e-05 -1.9894e-05
-0.000140871 4.18349e-05 4.24439e-05 -2.12222e-05
-0.000282241 8.42754e-05 8.48425e-05 -1.9894e-05
-0.000281433 8.40353e-05 8.45989e-05 -1.9894e-05
-0.00042077 0.000125888 0.000126378 -1.7682e-05
-0.000418348 0.000125166 0.00012565 -1.7682e-05
-0.000139654 4.14773e-05 4.20755e-05 -2.12223e-05
-0.000140465 4.17157e-05 4.23211e-05 -2.12222e-05
-0.000419559 0.000125527 0.000126014 -1.7682e-05
-0.000279008 8.33148e-05 8.38684e-05 -1.98941e-05
-0.000140059 4.15966e-05 4.21983e-05 -2.12223e-05
-0.000280624 8.37952e-05 8.43554e-05 -1.9894e-05
-0.000279816 8.3555e-05 8.41119e-05 -1.98941e-05
-0.000418348 0.000125166 0.00012565 -1.7682e-05
-0.000415926 0.000124443 0.000124921 -1.7682e-05
-0.000138842 4.12389e-05 4.183e-05 -2.12223e-05
-0.000139654 4.14773e-05 4.20755e-05 -2.12223e-05
-0.000417137 0.000124805 0.000125285 -1.7682e-05
-0.000277391 8.28344e-05 8.33813e-05 -1.98941e-05
-0.000139248 4.13581e-05 4.19528e-05 -2.12223e-05
-0.000279008 8.33148e-05 8.38684e-05 -1.98941e-05
-0.000278199 8.30746e-05 8.36248e-05 -1.98941e-05
-0.000415926 0.000124443 0.000124921 -1.7682e-05
-0.000413504 0.000123721 0.000124193 -1.7682e-05
-0.000138031 4.10004e-05 4.15845e-05 -2.12223e-05
-0.000138842 4.12389e-05 4.183e-05 -2.12223e-05
-0.000414715 0.000124082 0.000124557 -1.7682e-05
-0.000275774 8.23539e-05 8.28943e-05 -1.98941e-05
-0.000138437 4.11197e-05 4.17073e-05 -2.12223e-05
-0.000277391 8.28344e-05 8.33813e-05 -1.98941e-05
-0.000276582 8.25942e-05 8.31378e-05 -1.98941e-05
-0.000413504 0.000123721 0.000124193 -1.7682e-05
-0.000411082 0.000122998 0.000123464 -1.7682e-05
-0.00013722 4.07619e-05 4.1339e-05 -2.12223e-05
-0.000138031 4.10004e-05 4.15845e-05 -2.12223e-05
-0.000412293 0.000123359 0.000123829 -1.7682e-05
-0.000274157 8.18735e-05 8.24074e-05 -1.98941e-05
-0.000137625 4.08812e-05 4.14618e-05 -2.12223e-05
-0.000275774 8.23539e-05 8.28943e-05 -1.98941e-05
-0.000274966 8.21137e-05 8.26508e-05 -1.98941e-05
-0.000411082 0.000122998 0.000123464 -1.7682e-05
-0.00040866 0.000122275 0.000122736 -1.76821e-05
-0.000136408 4.05234e-05 4.10936e-05 -2.12223e-05
-0.00013722 4.07619e-05 4.1339e-05 -2.12223e-05
-0.000409871 0.000122637 0.0001231 -1.7682e-05
-0.000272541 8.1393e-05 8.19204e-05 -1.98941e-05
-0.000136814 4.06426e-05 4.12163e-05 -2.12223e-05
-0.000274157 8.18735e-05 8.24074e-05 -1.98941e-05
-0.000273349 8.16332e-05 8.21639e-05 -1.98941e-05
-0.00040866 0.000122275 0.000122736 -1.76821e-05
-0.000406238 0.000121553 0.000122008 -1.76821e-05
-0.000135597 4.02848e-05 4.08482e-05 -2.12223e-05
-0.000136408 4.05234e-05 4.10936e-05 -2.12223e-05
-0.000407449 0.000121914 0.000122372 -1.76821e-05
-0.000270924 8.09124e-05 8.14335e-05 -1.98941e-05
-0.000136003 4.04041e-05 4.09709e-05 -2.12223e-05
-0.000272541 8.1393e-05 8.19204e-05 -1.98941e-05
-0.000271732 8.11527e-05 8.16769e-05 -1.98941e-05
-0.000406238 0.000121553 0.000122008 -1.76821e-05
-0.000403816 0.00012083 0.00012128 -1.76821e-05
-0.000134786 4.00462e-05 4.06028e-05 -2.12223e-05
-0.000135597 4.02848e-05 4.08482e-05 -2.12223e-05
-0.000405027 0.000121192 0.000121644 -1.76821e-05
-0.000269307 8.04319e-05 8.09466e-05 -1.98941e-05
-0.000135192 4.01655e-05 4.07255e-05 -2.12223e-05
-0.000270924 8.09124e-05 8.14335e-05 -1.98941e-05
-0.000270116 8.06722e-05 8.119e-05 -1.98941e-05
-0.000403816 0.00012083 0.00012128 -1.76821e-05
-0.000401394 0.000120107 0.000120551 -1.76821e-05
-0.000133975 3.98076e-05 4.03574e-05 -2.12223e-05
-0.000134786 4.00462e-05 4.06028e-05 -2.12223e-05
-0.000402605 0.000120469 0.000120915 -1.76821e-05
-0.000267691 7.99513e-05 8.04597e-05 -1.98941e-05
-0.00013438 3.99269e-05 4.04801e-05 -2.12223e-05
-0.000269307 8.04319e-05 8.09466e-05 -1.98941e-05
-0.000268499 8.01916e-05 8.07031e-05 -1.98941e-05
-0.000401394 0.000120107 0.000120551 -1.76821e-05
-0.000398972 0.000119385 0.000119823 -1.76821e-05
-0.000133164 3.9569e-05 4.0112e-05 -2.12223e-05
-0.000133975 3.98076e-05 4.03574e-05 -2.12223e-05
-0.000400183 0.000119746 0.000120187 -1.76821e-05
-0.000266074 7.94707e-05 7.99728e-05 -1.98942e-05
-0.000133569 3.96883e-05 4.02347e-05 -2.12223e-05
-0.000267691 7.99513e-05 8.04597e-05 -1.98941e-05
-0.000266882 7.9711e-05 8.02162e-05 -1.98942e-05
-0.000398972 0.000119385 0.000119823 -1.76821e-05
-0.00039655 0.000118662 0.000119095 -1.76821e-05
-0.000132353 3.93304e-05 3.98667e-05 -2.12223e-05
-0.000133164 3.9569e-05 4.0112e-05 -2.12223e-05
-0.000397761 0.000119023 0.000119459 -1.76821e-05
-0.000264457 7.89902e-05 7.9486e-05 -1.98942e-05
-0.000132758 3.94497e-05 3.99893e-05 -2.12223e-05
-0.000266074 7.94707e-05 7.99728e-05 -1.98942e-05
-0.000265266 7.92305e-05 7.97294e-05 -1.98942e-05
-0.00039655 0.000118662 0.000119095 -1.76821e-05
-0.000394128 0.000117939 0.000118367 -1.76822e-05
-0.000131542 3.90918e-05 3.96213e-05 -2.12223e-05
-0.000132353 3.93304e-05 3.98667e-05 -2.12223e-05
-0.000395339 0.000118301 0.000118731 -1.76821e-05
-0.000262841 7.85096e-05 7.89991e-05 -1.98942e-05
-0.000131947 3.92111e-05 3.9744e-05 -2.12223e-05
-0.000264457 7.89902e-05 7.9486e-05 -1.98942e-05
-0.000263649 7.87499e-05 7.92425e-05 -1.98942e-05
-0.000394128 0.000117939 0.000118367 -1.76822e-05
-0.000391706 0.000117217 0.000117638 -1.76822e-05
-0.000130731 3.88531e-05 3.9376e-05 -2.12223e-05
-0.000131542 3.90918e-05 3.96213e-05 -2.12223e-05
-0.000392917 0.000117578 0.000118002 -1.76822e-05
-0.000261224 7.80289e-05 7.85123e-05 -1.98942e-05
-0.000131136 3.89724e-05 3.94987e-05 -2.12223e-05
-0.000262841 7.85096e-05 7.89991e-05 -1.98942e-05
-0.000262033 7.82692e-05 7.87557e-05 -1.98942e-05
-0.000391706 0.000117217 0.000117638 -1.76822e-05
-0.000389284 0.000116494 0.00011691 -1.76822e-05
-0.00012992 3.86144e-05 3.91308e-05 -2.12223e-05
-0.000130731 3.88531e-05 3.9376e-05 -2.12223e-05
-0.000390495 0.000116855 0.000117274 -1.76822e-05
-0.000259608 7.75483e-05 7.80255e-05 -1.98942e-05
-0.000130325 3.87338e-05 3.92534e-05 -2.12223e-05
-0.000261224 7.80289e-05 7.85123e-05 -1.98942e-05
-0.000260416 7.77886e-05 7.82689e-05 -1.98942e-05
-0.000389284 0.000116494 0.00011691 -1.76822e-05
-0.000386863 0.000115771 0.000116182 -1.76822e-05
-0.000129109 3.83757e-05 3.88855e-05 -2.12223e-05
-0.00012992 3.86144e-05 3.91308e-05 -2.12223e-05
-0.000388073 0.000116133 0.000116546 -1.76822e-05
-0.000257991 7.70677e-05 7.75388e-05 -1.98942e-05
-0.000129514 3.84951e-05 3.90081e-05 -2.12223e-05
-0.000259608 7.75483e-05 7.80255e-05 -1.98942e-05
-0.0002588 7.7308e-05 7.77821e-05 -1.98942e-05
-0.000386863 0.000115771 0.000116182 -1.76822e-05
-0.000384441 0.000115048 0.000115454 -1.76822e-05
-0.000128298 3.8137e-05 3.86403e-05 -2.12223e-05
-0.000129109 3.83757e-05 3.88855e-05 -2.12223e-05
-0.000385652 0.00011541 0.000115818 -1.76822e-05
-0.000256375 7.6587e-05 7.7052e-05 -1.98942e-05
-0.000128703 3.82564e-05 3.87629e-05 -2.12223e-05
-0.000257991 7.70677e-05 7.75388e-05 -1.98942e-05
-0.000257183 7.68273e-05 7.72954e-05 -1.98942e-05
-0.000384441 0.000115048 0.000115454 -1.76822e-05
-0.000382019 0.000114326 0.000114726 -1.76822e-05
-0.000127487 3.78983e-05 3.83951e-05 -2.12223e-05
-0.000128298 3.8137e-05 3.86403e-05 -2.12223e-05
-0.00038323 0.000114687 0.00011509 -1.76822e-05
-0.000254759 7.61063e-05 7.65653e-05 -1.98942e-05
-0.000127892 3.80177e-05 3.85177e-05 -2.12223e-05
-0.000256375 7.6587e-05 7.7052e-05 -1.98942e-05
-0.000255567 7.63466e-05 7.68086e-05 -1.98942e-05
-0.000382019 0.000114326 0.000114726 -1.76822e-05
-0.000379597 0.000113603 0.000113998 -1.76822e-05
-0.000126676 3.76595e-05 3.81499e-05 -2.12222e-05
-0.000127487 3.78983e-05 3.83951e-05 -2.12223e-05
-0.000380808 0.000113964 0.000114362 -1.76822e-05
-0.000253142 7.56256e-05 7.60786e-05 -1.98942e-05
-0.000127081 3.77789e-05 3.82725e-05 -2.12223e-05
-0.000254759 7.61063e-05 7.65653e-05 -1.98942e-05
-0.00025395 7.5866e-05 7.63219e-05 -1.98942e-05
-0.000379597 0.000113603 0.000113998 -1.76822e-05
-0.000377176 0.00011288 0.00011327 -1.76822e-05
-0.000125865 3.74208e-05 3.79047e-05 -2.12222e-05
-0.000126676 3.76595e-05 3.81499e-05 -2.12222e-05
-0.000378387 0.000113241 0.000113634 -1.76822e-05
-0.000251526 7.51449e-05 7.55919e-05 -1.98942e-05
-0.00012627 3.75402e-05 3.80273e-05 -2.12222e-05
-0.000253142 7.56256e-05 7.60786e-05 -1.98942e-05
-0.000252334 7.53853e-05 7.58352e-05 -1.98942e-05
-0.000377176 0.00011288 0.00011327 -1.76822e-05
-0.000374754 0.000112157 0.000112542 -1.76822e-05
-0.000125054 3.7182e-05 3.76595e-05 -2.12222e-05
-0.000125865 3.74208e-05 3.79047e-05 -2.12222e-05
-0.000375965 0.000112519 0.000112906 -1.76822e-05
-0.00024991 7.46642e-05 7.51052e-05 -1.98942e-05
-0.00012546 3.73014e-05 3.77821e-05 -2.12222e-05
-0.000251526 7.51449e-05 7.55919e-05 -1.98942e-05
-0.000250718 7.49045e-05 7.53485e-05 -1.98942e-05
-0.000374754 0.000112157 0.000112542 -1.76822e-05
-0.000372333 0.000111434 0.000111813 -1.76822e-05
-0.000124243 3.69432e-05 3.74144e-05 -2.12222e-05
-0.000125054 3.7182e-05 3.76595e-05 -2.12222e-05
-0.000373543 0.000111796 0.000112178 -1.76822e-05
-0.000248293 7.41834e-05 7.46186e-05 -1.98942e-05
-0.000124649 3.70626e-05 3.7537e-05 -2.12222e-05
-0.00024991 7.46642e-05 7.51052e-05 -1.98942e-05
-0.000249102 7.44238e-05 7.48619e-05 -1.98942e-05
-0.000372333 0.000111434 0.000111813 -1.76822e-05
-0.000369911 0.000110712 0.000111085 -1.76823e-05
-0.000123433 3.67044e-05 3.71693e-05 -2.12222e-05
-0.000124243 3.69432e-05 3.74144e-05 -2.12222e-05
-0.000371122 0.000111073 0.000111449 -1.76823e-05
-0.000246677 7.37027e-05 7.41319e-05 -1.98942e-05
-0.000123838 3.68238e-05 3.72918e-05 -2.12222e-05
-0.000248293 7.41834e-05 7.46186e-05 -1.98942e-05
-0.000247485 7.3943e-05 7.43752e-05 -1.98942e-05
-0.000369911 0.000110712 0.000111085 -1.76823e-05
-0.000367489 0.000109989 0.000110357 -1.76823e-05
-0.000122622 3.64656e-05 3.69242e-05 -2.12222e-05
-0.000123433 3.67044e-05 3.71693e-05 -2.12222e-05
-0.0003687 0.00011035 0.000110721 -1.76823e-05
-0.000245061 7.32219e-05 7.36453e-05 -1.98942e-05
-0.000123027 3.6585e-05 3.70468e-05 -2.12222e-05
-0.000246677 7.37027e-05 7.41319e-05 -1.98942e-05
-0.000245869 7.34623e-05 7.38886e-05 -1.98942e-05
-0.000367489 0.000109989 0.000110357 -1.76823e-05
-0.000365068 0.000109266 0.000109629 -1.76823e-05
-0.000121811 3.62267e-05 3.66791e-05 -2.12222e-05
-0.000122622 3.64656e-05 3.69242e-05 -2.12222e-05
-0.000366279 0.000109627 0.000109993 -1.76823e-05
-0.000243445 7.27411e-05 7.31587e-05 -1.98942e-05
-0.000122217 3.63461e-05 3.68017e-05 -2.12222e-05
-0.000245061 7.32219e-05 7.36453e-05 -1.98942e-05
-0.000244253 7.29815e-05 7.3402e-05 -1.98942e-05
-0.000365068 0.000109266 0.000109629 -1.76823e-05
-0.000362646 0.000108543 0.000108901 -1.76823e-05
-0.000121001 3.59878e-05 3.64341e-05 -2.12222e-05
-0.000121811 3.62267e-05 3.66791e-05 -2.12222e-05
-0.000363857 0.000108904 0.000109265 -1.76823e-05
-0.000241829 7.22603e-05 7.26722e-05 -1.98942e-05
-0.000121406 3.61073e-05 3.65566e-05 -2.12222e-05
-0.000243445 7.27411e-05 7.31587e-05 -1.98942e-05
-0.000242637 7.25007e-05 7.29155e-05 -1.98942e-05
-0.000362646 0.000108543 0.000108901 -1.76823e-05
-0.000360225 0.00010782 0.000108174 -1.76823e-05
-0.00012019 3.5749e-05 3.61891e-05 -2.12222e-05
-0.000121001 3.59878e-05 3.64341e-05 -2.12222e-05
-0.000361436 0.000108181 0.000108538 -1.76823e-05
-0.000240213 7.17795e-05 7.21856e-05 -1.98942e-05
-0.000120595 3.58684e-05 3.63116e-05 -2.12222e-05
-0.000241829 7.22603e-05 7.26722e-05 -1.98942e-05
-0.000241021 7.20199e-05 7.24289e-05 -1.98942e-05
-0.000360225 0.00010782 0.000108174 -1.76823e-05
-0.000357804 0.000107097 0.000107446 -1.76823e-05
-0.00011938 3.55101e-05 3.59441e-05 -2.12221e-05
-0.00012019 3.5749e-05 3.61891e-05 -2.12222e-05
-0.000359014 0.000107459 0.00010781 -1.76823e-05
-0.000238597 7.12986e-05 7.16991e-05 -1.98942e-05
-0.000119785 3.56295e-05 3.60666e-05 -2.12221e-05
-0.000240213 7.17795e-05 7.21856e-05 -1.98942e-05
-0.000239405 7.1539e-05 7.19424e-05 -1.98942e-05
-0.000357804 0.000107097 0.000107446 -1.76823e-05
-0.000355382 0.000106374 0.000106718 -1.76823e-05
-0.000118569 3.52711e-05 3.56991e-05 -2.12221e-05
-0.00011938 3.55101e-05 3.59441e-05 -2.12221e-05
-0.000356593 0.000106736 0.000107082 -1.76823e-05
-0.000236981 7.08178e-05 7.12126e-05 -1.98942e-05
-0.000118974 3.53906e-05 3.58216e-05 -2.12221e-05
-0.000238597 7.12986e-05 7.16991e-05 -1.98942e-05
-0.000237789 7.10582e-05 7.14559e-05 -1.98942e-05
-0.000355382 0.000106374 0.000106718 -1.76823e-05
-0.000352961 0.000105651 0.00010599 -1.76823e-05
-0.000117759 3.50322e-05 3.54541e-05 -2.12221e-05
-0.000118569 3.52711e-05 3.56991e-05 -2.12221e-05
-0.000354171 0.000106013 0.000106354 -1.76823e-05
-0.000235365 7.03369e-05 7.07261e-05 -1.98942e-05
-0.000118164 3.51517e-05 3.55766e-05 -2.12221e-05
-0.000236981 7.08178e-05 7.12126e-05 -1.98942e-05
-0.000236173 7.05773e-05 7.09694e-05 -1.98942e-05
-0.000352961 0.000105651 0.00010599 -1.76823e-05
-0.000350539 0.000104928 0.000105262 -1.76823e-05
-0.000116948 3.47932e-05 3.52092e-05 -2.12221e-05
-0.000117759 3.50322e-05 3.54541e-05 -2.12221e-05
-0.00035175 0.00010529 0.000105626 -1.76823e-05
-0.000233749 6.9856e-05 7.02397e-05 -1.98942e-05
-0.000117353 3.49127e-05 3.53317e-05 -2.12221e-05
-0.000235365 7.03369e-05 7.07261e-05 -1.98942e-05
-0.000234557 7.00965e-05 7.04829e-05 -1.98942e-05
-0.000350539 0.000104928 0.000105262 -1.76823e-05
-0.000348118 0.000104205 0.000104534 -1.76823e-05
-0.000116138 3.45543e-05 3.49643e-05 -2.12221e-05
-0.000116948 3.47932e-05 3.52092e-05 -2.12221e-05
-0.000349329 0.000104567 0.000104898 -1.76823e-05
-0.000232133 6.93751e-05 6.97532e-05 -1.98942e-05
-0.000116543 3.46738e-05 3.50867e-05 -2.12221e-05
-0.000233749 6.9856e-05 7.02397e-05 -1.98942e-05
-0.000232941 6.96156e-05 6.99964e-05 -1.98942e-05
-0.000348118 0.000104205 0.000104534 -1.76823e-05
-0.000345697 0.000103482 0.000103806 -1.76823e-05
-0.000115327 3.43153e-05 3.47194e-05 -2.12221e-05
-0.000116138 3.45543e-05 3.49643e-05 -2.12221e-05
-0.000346908 0.000103844 0.00010417 -1.76823e-05
-0.000230517 6.88942e-05 6.92668e-05 -1.98942e-05
-0.000115732 3.44348e-05 3.48418e-05 -2.12221e-05
-0.000232133 6.93751e-05 6.97532e-05 -1.98942e-05
-0.000231325 6.91346e-05 6.951e-05 -1.98942e-05
-0.000345697 0.000103482 0.000103806 -1.76823e-05
-0.000343276 0.000102759 0.000103078 -1.76823e-05
-0.000114517 3.40763e-05 3.44745e-05 -2.12221e-05
-0.000115327 3.43153e-05 3.47194e-05 -2.12221e-05
-0.000344486 0.000103121 0.000103442 -1.76823e-05
-0.000228901 6.84132e-05 6.87804e-05 -1.98942e-05
-0.000114922 3.41958e-05 3.4597e-05 -2.12221e-05
-0.000230517 6.88942e-05 6.92668e-05 -1.98942e-05
-0.000229709 6.86537e-05 6.90236e-05 -1.98942e-05
-0.000343276 0.000102759 0.000103078 -1.76823e-05
-0.000340854 0.000102036 0.000102351 -1.76824e-05
-0.000113706 3.38373e-05 3.42297e-05 -2.1222e-05
-0.000114517 3.40763e-05 3.44745e-05 -2.12221e-05
-0.000342065 0.000102398 0.000102715 -1.76823e-05
-0.000227285 6.79323e-05 6.8294e-05 -1.98942e-05
-0.000114112 3.39568e-05 3.43521e-05 -2.1222e-05
-0.000228901 6.84132e-05 6.87804e-05 -1.98942e-05
-0.000228093 6.81728e-05 6.85372e-05 -1.98942e-05
-0.000340854 0.000102036 0.000102351 -1.76824e-05
-0.000338433 0.000101313 0.000101623 -1.76824e-05
-0.000112896 3.35982e-05 3.39848e-05 -2.1222e-05
-0.000113706 3.38373e-05 3.42297e-05 -2.1222e-05
-0.000339644 0.000101675 0.000101987 -1.76824e-05
-0.000225669 6.74513e-05 6.78077e-05 -1.98942e-05
-0.000113301 3.37177e-05 3.41073e-05 -2.1222e-05
-0.000227285 6.79323e-05 6.8294e-05 -1.98942e-05
-0.000226477 6.76918e-05 6.80508e-05 -1.98942e-05
-0.000338433 0.000101313 0.000101623 -1.76824e-05
-0.000336012 0.00010059 0.000100895 -1.76824e-05
-0.000112086 3.33591e-05 3.374e-05 -2.1222e-05
-0.000112896 3.35982e-05 3.39848e-05 -2.1222e-05
-0.000337223 0.000100952 0.000101259 -1.76824e-05
-0.000224053 6.69703e-05 6.73213e-05 -1.98941e-05
-0.000112491 3.34787e-05 3.38624e-05 -2.1222e-05
-0.000225669 6.74513e-05 6.78077e-05 -1.98942e-05
-0.000224861 6.72108e-05 6.75645e-05 -1.98942e-05
-0.000336012 0.00010059 0.000100895 -1.76824e-05
-0.000333591 9.98673e-05 0.000100167 -1.76824e-05
-0.000111276 3.31201e-05 3.34952e-05 -2.1222e-05
-0.000112086 3.33591e-05 3.374e-05 -2.1222e-05
-0.000334802 0.000100229 0.000100531 -1.76824e-05
-0.000222438 6.64893e-05 6.6835e-05 -1.98941e-05
-0.000111681 3.32396e-05 3.36176e-05 -2.1222e-05
-0.000224053 6.69703e-05 6.73213e-05 -1.98941e-05
-0.000223246 6.67298e-05 6.70782e-05 -1.98941e-05
-0.000333591 9.98673e-05 0.000100167 -1.76824e-05
-0.00033117 9.91442e-05 9.94396e-05 -1.76824e-05
-0.000110465 3.2881e-05 3.32505e-05 -2.1222e-05
-0.000111276 3.31201e-05 3.34952e-05 -2.1222e-05
-0.000332381 9.95057e-05 9.98035e-05 -1.76824e-05
-0.000220822 6.60083e-05 6.63487e-05 -1.98941e-05
-0.000110871 3.30005e-05 3.33729e-05 -2.1222e-05
-0.000222438 6.64893e-05 6.6835e-05 -1.98941e-05
-0.00022163 6.62488e-05 6.65919e-05 -1.98941e-05
-0.00033117 9.91442e-05 9.94396e-05 -1.76824e-05
-0.000328749 9.84211e-05 9.87119e-05 -1.76824e-05
-0.000109655 3.26419e-05 3.30057e-05 -2.1222e-05
-0.000110465 3.2881e-05 3.32505e-05 -2.1222e-05
-0.000329959 9.87827e-05 9.90758e-05 -1.76824e-05
-0.000219206 6.55273e-05 6.58624e-05 -1.98941e-05
-0.00011006 3.27614e-05 3.31281e-05 -2.1222e-05
-0.000220822 6.60083e-05 6.63487e-05 -1.98941e-05
-0.000220014 6.57678e-05 6.61056e-05 -1.98941e-05
-0.000328749 9.84211e-05 9.87119e-05 -1.76824e-05
-0.000326328 9.7698e-05 9.79842e-05 -1.76824e-05
-0.000108845 3.24027e-05 3.2761e-05 -2.12219e-05
-0.000109655 3.26419e-05 3.30057e-05 -2.1222e-05
-0.000327538 9.80596e-05 9.83481e-05 -1.76824e-05
-0.000217591 6.50463e-05 6.53762e-05 -1.98941e-05
-0.00010925 3.25223e-05 3.28834e-05 -2.1222e-05
-0.000219206 6.55273e-05 6.58624e-05 -1.98941e-05
-0.000218399 6.52868e-05 6.56193e-05 -1.98941e-05
-0.000326328 9.7698e-05 9.79842e-05 -1.76824e-05
-0.000323907 9.69749e-05 9.72566e-05 -1.76824e-05
-0.000108035 3.21636e-05 3.25163e-05 -2.12219e-05
-0.000108845 3.24027e-05 3.2761e-05 -2.12219e-05
-0.000325117 9.73365e-05 9.76204e-05 -1.76824e-05
-0.000215975 6.45652e-05 6.489e-05 -1.98941e-05
-0.00010844 3.22832e-05 3.26387e-05 -2.12219e-05
-0.000217591 6.50463e-05 6.53762e-05 -1.98941e-05
-0.000216783 6.48057e-05 6.51331e-05 -1.98941e-05
-0.000323907 9.69749e-05 9.72566e-05 -1.76824e-05
-0.000321486 9.62518e-05 9.65289e-05 -1.76824e-05
-0.000107225 3.19244e-05 3.22716e-05 -2.12219e-05
-0.000108035 3.21636e-05 3.25163e-05 -2.12219e-05
-0.000322696 9.66134e-05 9.68928e-05 -1.76824e-05
-0.00021436 6.40841e-05 6.44037e-05 -1.98941e-05
-0.00010763 3.2044e-05 3.2394e-05 -2.12219e-05
-0.000215975 6.45652e-05 6.489e-05 -1.98941e-05
-0.000215167 6.43246e-05 6.46468e-05 -1.98941e-05
-0.000321486 9.62518e-05 9.65289e-05 -1.76824e-05
-0.000319065 9.55287e-05 9.58013e-05 -1.76824e-05
-0.000106415 3.16852e-05 3.2027e-05 -2.12219e-05
-0.000107225 3.19244e-05 3.22716e-05 -2.12219e-05
-0.000320276 9.58903e-05 9.61651e-05 -1.76824e-05
-0.000212744 6.3603e-05 6.39176e-05 -1.98941e-05
-0.00010682 3.18048e-05 3.21493e-05 -2.12219e-05
-0.00021436 6.40841e-05 6.44037e-05 -1.98941e-05
-0.000213552 6.38436e-05 6.41606e-05 -1.98941e-05
-0.000319065 9.55287e-05 9.58013e-05 -1.76824e-05
-0.000316644 9.48056e-05 9.50737e-05 -1.76824e-05
-0.000105605 3.1446e-05 3.17824e-05 -2.12219e-05
-0.000106415 3.16852e-05 3.2027e-05 -2.12219e-05
-0.000317855 9.51671e-05 9.54375e-05 -1.76824e-05
-0.000211128 6.31219e-05 6.34314e-05 -1.98941e-05
-0.00010601 3.15656e-05 3.19047e-05 -2.12219e-05
-0.000212744 6.3603e-05 6.39176e-05 -1.98941e-05
-0.000211936 6.33625e-05 6.36745e-05 -1.98941e-05
-0.000316644 9.48056e-05 9.50737e-05 -1.76824e-05
-0.000314223 9.40824e-05 9.43461e-05 -1.76824e-05
-0.000104795 3.12068e-05 3.15378e-05 -2.12219e-05
-0.000105605 3.1446e-05 3.17824e-05 -2.12219e-05
-0.000315434 9.4444e-05 9.47099e-05 -1.76824e-05
-0.000209513 6.26408e-05 6.29452e-05 -1.98941e-05
-0.0001052 3.13264e-05 3.16601e-05 -2.12219e-05
-0.000211128 6.31219e-05 6.34314e-05 -1.98941e-05
-0.000210321 6.28813e-05 6.31883e-05 -1.98941e-05
-0.000314223 9.40824e-05 9.43461e-05 -1.76824e-05
-0.000311803 9.33592e-05 9.36186e-05 -1.76824e-05
-0.000103985 3.09676e-05 3.12932e-05 -2.12219e-05
-0.000104795 3.12068e-05 3.15378e-05 -2.12219e-05
-0.000313013 9.37208e-05 9.39823e-05 -1.76824e-05
-0.000207898 6.21596e-05 6.24591e-05 -1.98941e-05
-0.00010439 3.10872e-05 3.14155e-05 -2.12219e-05
-0.000209513 6.26408e-05 6.29452e-05 -1.98941e-05
-0.000208705 6.24002e-05 6.27022e-05 -1.98941e-05
-0.000311803 9.33592e-05 9.36186e-05 -1.76824e-05
-0.000309382 9.2636e-05 9.2891e-05 -1.76824e-05
-0.000103175 3.07283e-05 3.10486e-05 -2.12218e-05
-0.000103985 3.09676e-05 3.12932e-05 -2.12219e-05
-0.000310592 9.29976e-05 9.32548e-05 -1.76824e-05
-0.000206282 6.16785e-05 6.1973e-05 -1.98941e-05
-0.00010358 3.08479e-05 3.11709e-05 -2.12218e-05
-0.000207898 6.21596e-05 6.24591e-05 -1.98941e-05
-0.00020709 6.1919e-05 6.2216e-05 -1.98941e-05
-0.000309382 9.2636e-05 9.2891e-05 -1.76824e-05
-0.000306961 9.19128e-05 9.21635e-05 -1.76824e-05
-0.000102365 3.0489e-05 3.0804e-05 -2.12218e-05
-0.000103175 3.07283e-05 3.10486e-05 -2.12218e-05
-0.000308171 9.22744e-05 9.25273e-05 -1.76824e-05
-0.000204667 6.11973e-05 6.14869e-05 -1.98941e-05
-0.00010277 3.06087e-05 3.09263e-05 -2.12218e-05
-0.000206282 6.16785e-05 6.1973e-05 -1.98941e-05
-0.000205474 6.14379e-05 6.173e-05 -1.98941e-05
-0.000306961 9.19128e-05 9.21635e-05 -1.76824e-05
-0.00030454 9.11896e-05 9.1436e-05 -1.76824e-05
-0.000101555 3.02497e-05 3.05595e-05 -2.12218e-05
-0.000102365 3.0489e-05 3.0804e-05 -2.12218e-05
-0.000305751 9.15512e-05 9.17997e-05 -1.76824e-05
-0.000203051 6.07161e-05 6.10008e-05 -1.98941e-05
-0.00010196 3.03694e-05 3.06818e-05 -2.12218e-05
-0.000204667 6.11973e-05 6.14869e-05 -1.98941e-05
-0.000203859 6.09567e-05 6.12439e-05 -1.98941e-05
-0.00030454 9.11896e-05 9.1436e-05 -1.76824e-05
-0.00030212 9.04664e-05 9.07085e-05 -1.76824e-05
-0.000100745 3.00104e-05 3.0315e-05 -2.12218e-05
-0.000101555 3.02497e-05 3.05595e-05 -2.12218e-05
-0.00030333 9.0828e-05 9.10722e-05 -1.76824e-05
-0.000201436 6.02349e-05 6.05148e-05 -1.98941e-05
-0.00010115 3.01301e-05 3.04373e-05 -2.12218e-05
-0.000203051 6.07161e-05 6.10008e-05 -1.98941e-05
-0.000202244 6.04755e-05 6.07578e-05 -1.98941e-05
-0.00030212 9.04664e-05 9.07085e-05 -1.76824e-05
-0.000299699 8.97432e-05 8.9981e-05 -1.76824e-05
-9.99357e-05 2.97711e-05 3.00705e-05 -2.12218e-05
-0.000100745 3.00104e-05 3.0315e-05 -2.12218e-05
-0.000300909 9.01048e-05 9.03448e-05 -1.76824e-05
-0.000199821 5.97536e-05 6.00288e-05 -1.98941e-05
-0.000100341 2.98907e-05 3.01928e-05 -2.12218e-05
-0.000201436 6.02349e-05 6.05148e-05 -1.98941e-05
-0.000200628 5.99943e-05 6.02718e-05 -1.98941e-05
-0.000299699 8.97432e-05 8.9981e-05 -1.76824e-05
-0.000297278 8.90199e-05 8.92536e-05 -1.76825e-05
-9.91259e-05 2.95317e-05 2.98261e-05 -2.12217e-05
-9.99357e-05 2.97711e-05 3.00705e-05 -2.12218e-05
-0.000298489 8.93816e-05 8.96173e-05 -1.76825e-05
-0.000198206 5.92724e-05 5.95428e-05 -1.98941e-05
-9.95308e-05 2.96514e-05 2.99483e-05 -2.12218e-05
-0.000199821 5.97536e-05 6.00288e-05 -1.98941e-05
-0.000199013 5.9513e-05 5.97858e-05 -1.98941e-05
-0.000297278 8.90199e-05 8.92536e-05 -1.76825e-05
-0.000294858 8.82967e-05 8.85261e-05 -1.76825e-05
-9.83162e-05 2.92924e-05 2.95817e-05 -2.12217e-05
-9.91259e-05 2.95317e-05 2.98261e-05 -2.12217e-05
-0.000296068 8.86583e-05 8.88899e-05 -1.76825e-05
-0.00019659 5.87911e-05 5.90568e-05 -1.98941e-05
-9.87211e-05 2.94121e-05 2.97039e-05 -2.12217e-05
-0.000198206 5.92724e-05 5.95428e-05 -1.98941e-05
-0.000197398 5.90318e-05 5.92998e-05 -1.98941e-05
-0.000294858 8.82967e-05 8.85261e-05 -1.76825e-05
-0.000292437 8.75734e-05 8.77987e-05 -1.76825e-05
-9.75065e-05 2.9053e-05 2.93372e-05 -2.12217e-05
-9.83162e-05 2.92924e-05 2.95817e-05 -2.12217e-05
-0.000293647 8.7935e-05 8.81624e-05 -1.76825e-05
-0.000194975 5.83099e-05 5.85708e-05 -1.98941e-05
-9.79114e-05 2.91727e-05 2.94594e-05 -2.12217e-05
-0.00019659 5.87911e-05 5.90568e-05 -1.98941e-05
-0.000195783 5.85505e-05 5.88138e-05 -1.98941e-05
-0.000292437 8.75734e-05 8.77987e-05 -1.76825e-05
-0.000290017 8.68501e-05 8.70713e-05 -1.76825e-05
-9.66969e-05 2.88136e-05 2.90929e-05 -2.12217e-05
-9.75065e-05 2.9053e-05 2.93372e-05 -2.12217e-05
-0.000291227 8.72117e-05 8.7435e-05 -1.76825e-05
-0.00019336 5.78286e-05 5.80849e-05 -1.98941e-05
-9.71017e-05 2.89333e-05 2.9215e-05 -2.12217e-05
-0.000194975 5.83099e-05 5.85708e-05 -1.98941e-05
-0.000194168 5.80692e-05 5.83279e-05 -1.98941e-05
-0.000290017 8.68501e-05 8.70713e-05 -1.76825e-05
-0.000287596 8.61268e-05 8.6344e-05 -1.76825e-05
-9.58873e-05 2.85742e-05 2.88485e-05 -2.12217e-05
-9.66969e-05 2.88136e-05 2.90929e-05 -2.12217e-05
-0.000288806 8.64884e-05 8.67077e-05 -1.76825e-05
-0.000191745 5.73473e-05 5.7599e-05 -1.98941e-05
-9.62921e-05 2.86939e-05 2.89707e-05 -2.12217e-05
-0.00019336 5.78286e-05 5.80849e-05 -1.98941e-05
-0.000192552 5.75879e-05 5.78419e-05 -1.98941e-05
-0.000287596 8.61268e-05 8.6344e-05 -1.76825e-05
-0.000285176 8.54035e-05 8.56166e-05 -1.76825e-05
-9.50777e-05 2.83347e-05 2.86041e-05 -2.12217e-05
-9.58873e-05 2.85742e-05 2.88485e-05 -2.12217e-05
-0.000286386 8.57651e-05 8.59803e-05 -1.76825e-05
-0.00019013 5.68659e-05 5.71131e-05 -1.9894e-05
-9.54825e-05 2.84544e-05 2.87263e-05 -2.12217e-05
-0.000191745 5.73473e-05 5.7599e-05 -1.98941e-05
-0.000190937 5.71066e-05 5.7356e-05 -1.98941e-05
-0.000285176 8.54035e-05 8.56166e-05 -1.76825e-05
-0.000282755 8.46801e-05 8.48893e-05 -1.76825e-05
-9.42682e-05 2.80953e-05 2.83598e-05 -2.12216e-05
-9.50777e-05 2.83347e-05 2.86041e-05 -2.12217e-05
-0.000283965 8.50418e-05 8.5253e-05 -1.76825e-05
-0.000188515 5.63846e-05 5.66272e-05 -1.9894e-05
-9.46729e-05 2.8215e-05 2.8482e-05 -2.12217e-05
-0.00019013 5.68659e-05 5.71131e-05 -1.9894e-05
-0.000189322 5.66253e-05 5.68702e-05 -1.9894e-05
-0.000282755 8.46801e-05 8.48893e-05 -1.76825e-05
-0.000280335 8.39568e-05 8.4162e-05 -1.76825e-05
-9.34586e-05 2.78558e-05 2.81155e-05 -2.12216e-05
-9.42682e-05 2.80953e-05 2.83598e-05 -2.12216e-05
-0.000281545 8.43185e-05 8.45256e-05 -1.76825e-05
-0.0001869 5.59032e-05 5.61414e-05 -1.9894e-05
-9.38634e-05 2.79755e-05 2.82377e-05 -2.12216e-05
-0.000188515 5.63846e-05 5.66272e-05 -1.9894e-05
-0.000187707 5.61439e-05 5.63843e-05 -1.9894e-05
-0.000280335 8.39568e-05 8.4162e-05 -1.76825e-05
-0.000277914 8.32334e-05 8.34347e-05 -1.76825e-05
-9.26492e-05 2.76163e-05 2.78712e-05 -2.12216e-05
-9.34586e-05 2.78558e-05 2.81155e-05 -2.12216e-05
-0.000279125 8.35951e-05 8.37983e-05 -1.76825e-05
-0.000185285 5.54219e-05 5.56555e-05 -1.9894e-05
-9.30539e-05 2.7736e-05 2.79934e-05 -2.12216e-05
-0.0001869 5.59032e-05 5.61414e-05 -1.9894e-05
-0.000186092 5.56625e-05 5.58985e-05 -1.9894e-05
-0.000277914 8.32334e-05 8.34347e-05 -1.76825e-05
-0.000275494 8.251e-05 8.27074e-05 -1.76825e-05
-9.18397e-05 2.73768e-05 2.7627e-05 -2.12216e-05
-9.26492e-05 2.76163e-05 2.78712e-05 -2.12216e-05
-0.000276704 8.28717e-05 8.30711e-05 -1.76825e-05
-0.00018367 5.49405e-05 5.51697e-05 -1.9894e-05
-9.22444e-05 2.74965e-05 2.77491e-05 -2.12216e-05
-0.000185285 5.54219e-05 5.56555e-05 -1.9894e-05
-0.000184477 5.51812e-05 5.54126e-05 -1.9894e-05
-0.000275494 8.251e-05 8.27074e-05 -1.76825e-05
-0.000273074 8.17866e-05 8.19802e-05 -1.76825e-05
-9.10303e-05 2.71373e-05 2.73827e-05 -2.12216e-05
-9.18397e-05 2.73768e-05 2.7627e-05 -2.12216e-05
-0.000274284 8.21483e-05 8.23438e-05 -1.76825e-05
-0.000182055 5.44591e-05 5.46839e-05 -1.9894e-05
-9.1435e-05 2.7257e-05 2.75049e-05 -2.12216e-05
-0.00018367 5.49405e-05 5.51697e-05 -1.9894e-05
-0.000182862 5.46998e-05 5.49268e-05 -1.9894e-05
-0.000273074 8.17866e-05 8.19802e-05 -1.76825e-05
-0.000270653 8.10632e-05 8.12529e-05 -1.76825e-05
-9.02209e-05 2.68977e-05 2.71385e-05 -2.12216e-05
-9.10303e-05 2.71373e-05 2.73827e-05 -2.12216e-05
-0.000271864 8.14249e-05 8.16166e-05 -1.76825e-05
-0.00018044 5.39776e-05 5.41982e-05 -1.9894e-05
-9.06256e-05 2.70175e-05 2.72606e-05 -2.12216e-05
-0.000182055 5.44591e-05 5.46839e-05 -1.9894e-05
-0.000181247 5.42183e-05 5.44411e-05 -1.9894e-05
-0.000270653 8.10632e-05 8.12529e-05 -1.76825e-05
-0.000268233 8.03398e-05 8.05257e-05 -1.76825e-05
-8.94116e-05 2.66581e-05 2.68943e-05 -2.12215e-05
-9.02209e-05 2.68977e-05 2.71385e-05 -2.12216e-05
-0.000269443 8.07015e-05 8.08893e-05 -1.76825e-05
-0.000178825 5.34962e-05 5.37124e-05 -1.9894e-05
-8.98162e-05 2.67779e-05 2.70164e-05 -2.12216e-05
-0.00018044 5.39776e-05 5.41982e-05 -1.9894e-05
-0.000179633 5.37369e-05 5.39553e-05 -1.9894e-05
-0.000268233 8.03398e-05 8.05257e-05 -1.76825e-05
-0.000265813 7.96164e-05 7.97985e-05 -1.76825e-05
-8.86023e-05 2.64185e-05 2.66502e-05 -2.12215e-05
-8.94116e-05 2.66581e-05 2.68943e-05 -2.12215e-05
-0.000267023 7.99781e-05 8.01621e-05 -1.76825e-05
-0.00017721 5.30147e-05 5.32267e-05 -1.9894e-05
-8.90069e-05 2.65383e-05 2.67722e-05 -2.12215e-05
-0.000178825 5.34962e-05 5.37124e-05 -1.9894e-05
-0.000178018 5.32555e-05 5.34696e-05 -1.9894e-05
-0.000265813 7.96164e-05 7.97985e-05 -1.76825e-05
-0.000263393 7.88929e-05 7.90714e-05 -1.76825e-05
-8.7793e-05 2.61789e-05 2.6406e-05 -2.12215e-05
-8.86023e-05 2.64185e-05 2.66502e-05 -2.12215e-05
-0.000264603 7.92547e-05 7.94349e-05 -1.76825e-05
-0.000175596 5.25333e-05 5.2741e-05 -1.9894e-05
-8.81976e-05 2.62987e-05 2.65281e-05 -2.12215e-05
-0.00017721 5.30147e-05 5.32267e-05 -1.9894e-05
-0.000176403 5.2774e-05 5.29839e-05 -1.9894e-05
-0.000263393 7.88929e-05 7.90714e-05 -1.76825e-05
-0.000260973 7.81695e-05 7.83442e-05 -1.76825e-05
-8.69837e-05 2.59393e-05 2.61619e-05 -2.12215e-05
-8.7793e-05 2.61789e-05 2.6406e-05 -2.12215e-05
-0.000262183 7.85312e-05 7.87078e-05 -1.76825e-05
-0.000173981 5.20518e-05 5.22553e-05 -1.9894e-05
-8.73884e-05 2.60591e-05 2.6284e-05 -2.12215e-05
-0.000175596 5.25333e-05 5.2741e-05 -1.9894e-05
-0.000174788 5.22925e-05 5.24982e-05 -1.9894e-05
-0.000260973 7.81695e-05 7.83442e-05 -1.76825e-05
-0.000258553 7.7446e-05 7.76171e-05 -1.76825e-05
-8.61745e-05 2.56997e-05 2.59178e-05 -2.12215e-05
-8.69837e-05 2.59393e-05 2.61619e-05 -2.12215e-05
-0.000259763 7.78077e-05 7.79806e-05 -1.76825e-05
-0.000172366 5.15703e-05 5.17697e-05 -1.9894e-05
-8.65791e-05 2.58195e-05 2.60398e-05 -2.12215e-05
-0.000173981 5.20518e-05 5.22553e-05 -1.9894e-05
-0.000173173 5.1811e-05 5.20125e-05 -1.9894e-05
-0.000258553 7.7446e-05 7.76171e-05 -1.76825e-05
-0.000256132 7.67225e-05 7.689e-05 -1.76825e-05
-8.53654e-05 2.546e-05 2.56737e-05 -2.12215e-05
-8.61745e-05 2.56997e-05 2.59178e-05 -2.12215e-05
-0.000257342 7.70843e-05 7.72535e-05 -1.76825e-05
-0.000170751 5.10887e-05 5.1284e-05 -1.9894e-05
-8.57699e-05 2.55799e-05 2.57957e-05 -2.12215e-05
-0.000172366 5.15703e-05 5.17697e-05 -1.9894e-05
-0.000171559 5.13295e-05 5.15268e-05 -1.9894e-05
-0.000256132 7.67225e-05 7.689e-05 -1.76825e-05
-0.000253712 7.5999e-05 7.61629e-05 -1.76825e-05
-8.45562e-05 2.52203e-05 2.54297e-05 -2.12214e-05
-8.53654e-05 2.546e-05 2.56737e-05 -2.12215e-05
-0.000254922 7.63608e-05 7.65264e-05 -1.76825e-05
-0.000169137 5.06072e-05 5.07984e-05 -1.9894e-05
-8.49608e-05 2.53402e-05 2.55517e-05 -2.12214e-05
-0.000170751 5.10887e-05 5.1284e-05 -1.9894e-05
-0.000169944 5.0848e-05 5.10412e-05 -1.9894e-05
-0.000253712 7.5999e-05 7.61629e-05 -1.76825e-05
-0.000251292 7.52755e-05 7.54358e-05 -1.76825e-05
-8.37471e-05 2.49807e-05 2.51856e-05 -2.12214e-05
-8.45562e-05 2.52203e-05 2.54297e-05 -2.12214e-05
-0.000252502 7.56373e-05 7.57993e-05 -1.76825e-05
-0.000167522 5.01256e-05 5.03128e-05 -1.9894e-05
-8.41516e-05 2.51005e-05 2.53076e-05 -2.12214e-05
-0.000169137 5.06072e-05 5.07984e-05 -1.9894e-05
-0.00016833 5.03664e-05 5.05556e-05 -1.9894e-05
-0.000251292 7.52755e-05 7.54358e-05 -1.76825e-05
-0.000248872 7.4552e-05 7.47087e-05 -1.76825e-05
-8.2938e-05 2.47409e-05 2.49416e-05 -2.12214e-05
-8.37471e-05 2.49807e-05 2.51856e-05 -2.12214e-05
-0.000250082 7.49137e-05 7.50723e-05 -1.76825e-05
-0.000165908 4.9644e-05 4.98272e-05 -1.9894e-05
-8.33426e-05 2.48608e-05 2.50636e-05 -2.12214e-05
-0.000167522 5.01256e-05 5.03128e-05 -1.9894e-05
-0.000166715 4.98848e-05 5.007e-05 -1.9894e-05
-0.000248872 7.4552e-05 7.47087e-05 -1.76825e-05
-0.000246452 7.38284e-05 7.39817e-05 -1.76826e-05
-8.2129e-05 2.45012e-05 2.46976e-05 -2.12214e-05
-8.2938e-05 2.47409e-05 2.49416e-05 -2.12214e-05
-0.000247662 7.41902e-05 7.43452e-05 -1.76825e-05
-0.000164293 4.91625e-05 4.93417e-05 -1.9894e-05
-8.25335e-05 2.46211e-05 2.48196e-05 -2.12214e-05
-0.000165908 4.9644e-05 4.98272e-05 -1.9894e-05
-0.0001651 4.94033e-05 4.95845e-05 -1.9894e-05
-0.000246452 7.38284e-05 7.39817e-05 -1.76826e-05
-0.000244032 7.31049e-05 7.32547e-05 -1.76826e-05
-8.132e-05 2.42615e-05 2.44536e-05 -2.12214e-05
-8.2129e-05 2.45012e-05 2.46976e-05 -2.12214e-05
-0.000245242 7.34666e-05 7.36182e-05 -1.76826e-05
-0.000162679 4.86808e-05 4.88562e-05 -1.9894e-05
-8.17245e-05 2.43813e-05 2.45756e-05 -2.12214e-05
-0.000164293 4.91625e-05 4.93417e-05 -1.9894e-05
-0.000163486 4.89217e-05 4.90989e-05 -1.9894e-05
-0.000244032 7.31049e-05 7.32547e-05 -1.76826e-05
-0.000241613 7.23813e-05 7.25277e-05 -1.76826e-05
-8.0511e-05 2.40217e-05 2.42097e-05 -2.12214e-05
-8.132e-05 2.42615e-05 2.44536e-05 -2.12214e-05
-0.000242823 7.27431e-05 7.28912e-05 -1.76826e-05
-0.000161064 4.81992e-05 4.83707e-05 -1.9894e-05
-8.09155e-05 2.41416e-05 2.43317e-05 -2.12214e-05
-0.000162679 4.86808e-05 4.88562e-05 -1.9894e-05
-0.000161871 4.844e-05 4.86134e-05 -1.9894e-05
-0.000241613 7.23813e-05 7.25277e-05 -1.76826e-05
-0.000239193 7.16577e-05 7.18007e-05 -1.76826e-05
-7.9702e-05 2.37819e-05 2.39658e-05 -2.12213e-05
-8.0511e-05 2.40217e-05 2.42097e-05 -2.12214e-05
-0.000240403 7.20195e-05 7.21642e-05 -1.76826e-05
-0.00015945 4.77176e-05 4.78852e-05 -1.98939e-05
-8.01065e-05 2.39018e-05 2.40877e-05 -2.12213e-05
-0.000161064 4.81992e-05 4.83707e-05 -1.9894e-05
-0.000160257 4.79584e-05 4.81279e-05 -1.98939e-05
-0.000239193 7.16577e-05 7.18007e-05 -1.76826e-05
-0.000236773 7.09341e-05 7.10738e-05 -1.76826e-05
-7.88931e-05 2.35421e-05 2.37219e-05 -2.12213e-05
-7.9702e-05 2.37819e-05 2.39658e-05 -2.12213e-05
-0.000237983 7.12959e-05 7.14372e-05 -1.76826e-05
-0.000157835 4.72359e-05 4.73997e-05 -1.98939e-05
-7.92976e-05 2.3662e-05 2.38438e-05 -2.12213e-05
-0.00015945 4.77176e-05 4.78852e-05 -1.98939e-05
-0.000158642 4.74767e-05 4.76424e-05 -1.98939e-05
-0.000236773 7.09341e-05 7.10738e-05 -1.76826e-05
-0.000234353 7.02105e-05 7.03468e-05 -1.76826e-05
-7.80843e-05 2.33023e-05 2.3478e-05 -2.12213e-05
-7.88931e-05 2.35421e-05 2.37219e-05 -2.12213e-05
-0.000235563 7.05723e-05 7.07103e-05 -1.76826e-05
-0.000156221 4.67542e-05 4.69143e-05 -1.98939e-05
-7.84887e-05 2.34222e-05 2.35999e-05 -2.12213e-05
-0.000157835 4.72359e-05 4.73997e-05 -1.98939e-05
-0.000157028 4.69951e-05 4.7157e-05 -1.98939e-05
-0.000234353 7.02105e-05 7.03468e-05 -1.76826e-05
-0.000231933 6.94868e-05 6.96199e-05 -1.76826e-05
-7.72754e-05 2.30624e-05 2.32341e-05 -2.12213e-05
-7.80843e-05 2.33023e-05 2.3478e-05 -2.12213e-05
-0.000233143 6.98487e-05 6.99834e-05 -1.76826e-05
-0.000154606 4.62725e-05 4.64288e-05 -1.98939e-05
-7.76798e-05 2.31823e-05 2.33561e-05 -2.12213e-05
-0.000156221 4.67542e-05 4.69143e-05 -1.98939e-05
-0.000155414 4.65134e-05 4.66715e-05 -1.98939e-05
-0.000231933 6.94868e-05 6.96199e-05 -1.76826e-05
-0.000229514 6.87632e-05 6.8893e-05 -1.76826e-05
-7.64666e-05 2.28226e-05 2.29903e-05 -2.12213e-05
-7.72754e-05 2.30624e-05 2.32341e-05 -2.12213e-05
-0.000230723 6.9125e-05 6.92565e-05 -1.76826e-05
-0.000152992 4.57908e-05 4.59434e-05 -1.98939e-05
-7.6871e-05 2.29425e-05 2.31122e-05 -2.12213e-05
-0.000154606 4.62725e-05 4.64288e-05 -1.98939e-05
-0.000153799 4.60317e-05 4.61861e-05 -1.98939e-05
-0.000229514 6.87632e-05 6.8893e-05 -1.76826e-05
-0.000227094 6.80395e-05 6.81662e-05 -1.76826e-05
-7.56578e-05 2.25827e-05 2.27465e-05 -2.12213e-05
-7.64666e-05 2.28226e-05 2.29903e-05 -2.12213e-05
-0.000228304 6.84014e-05 6.85296e-05 -1.76826e-05
-0.000151378 4.53091e-05 4.54581e-05 -1.98939e-05
-7.60622e-05 2.27026e-05 2.28684e-05 -2.12213e-05
-0.000152992 4.57908e-05 4.59434e-05 -1.98939e-05
-0.000152185 4.555e-05 4.57007e-05 -1.98939e-05
-0.000227094 6.80395e-05 6.81662e-05 -1.76826e-05
-0.000224674 6.73159e-05 6.74393e-05 -1.76826e-05
-7.48491e-05 2.23428e-05 2.25027e-05 -2.12212e-05
-7.56578e-05 2.25827e-05 2.27465e-05 -2.12213e-05
-0.000225884 6.76777e-05 6.78027e-05 -1.76826e-05
-0.000149764 4.48274e-05 4.49727e-05 -1.98939e-05
-7.52535e-05 2.24627e-05 2.26246e-05 -2.12212e-05
-0.000151378 4.53091e-05 4.54581e-05 -1.98939e-05
-0.000150571 4.50682e-05 4.52154e-05 -1.98939e-05
-0.000224674 6.73159e-05 6.74393e-05 -1.76826e-05
-0.000222255 6.65922e-05 6.67125e-05 -1.76826e-05
-7.40404e-05 2.21029e-05 2.22589e-05 -2.12212e-05
-7.48491e-05 2.23428e-05 2.25027e-05 -2.12212e-05
-0.000223464 6.6954e-05 6.70759e-05 -1.76826e-05
-0.000148149 4.43456e-05 4.44874e-05 -1.98939e-05
-7.44447e-05 2.22228e-05 2.23808e-05 -2.12212e-05
-0.000149764 4.48274e-05 4.49727e-05 -1.98939e-05
-0.000148957 4.45865e-05 4.473e-05 -1.98939e-05
-0.000222255 6.65922e-05 6.67125e-05 -1.76826e-05
-0.000219835 6.58685e-05 6.59857e-05 -1.76826e-05
-7.32317e-05 2.18629e-05 2.20152e-05 -2.12212e-05
-7.40404e-05 2.21029e-05 2.22589e-05 -2.12212e-05
-0.000221045 6.62303e-05 6.63491e-05 -1.76826e-05
-0.000146535 4.38638e-05 4.4002e-05 -1.98939e-05
-7.36361e-05 2.19829e-05 2.21371e-05 -2.12212e-05
-0.000148149 4.43456e-05 4.44874e-05 -1.98939e-05
-0.000147342 4.41047e-05 4.42447e-05 -1.98939e-05
-0.000219835 6.58685e-05 6.59857e-05 -1.76826e-05
-0.000217415 6.51448e-05 6.52589e-05 -1.76826e-05
-7.24231e-05 2.1623e-05 2.17715e-05 -2.12212e-05
-7.32317e-05 2.18629e-05 2.20152e-05 -2.12212e-05
-0.000218625 6.55066e-05 6.56223e-05 -1.76826e-05
-0.000144921 4.3382e-05 4.35168e-05 -1.98939e-05
-7.28274e-05 2.17429e-05 2.18933e-05 -2.12212e-05
-0.000146535 4.38638e-05 4.4002e-05 -1.98939e-05
-0.000145728 4.36229e-05 4.37594e-05 -1.98939e-05
-0.000217415 6.51448e-05 6.52589e-05 -1.76826e-05
-0.000214996 6.4421e-05 6.45321e-05 -1.76826e-05
-7.16145e-05 2.1383e-05 2.15278e-05 -2.12212e-05
-7.24231e-05 2.1623e-05 2.17715e-05 -2.12212e-05
-0.000216206 6.47829e-05 6.48955e-05 -1.76826e-05
-0.000143307 4.29002e-05 4.30315e-05 -1.98939e-05
-7.20188e-05 2.1503e-05 2.16496e-05 -2.12212e-05
-0.000144921 4.3382e-05 4.35168e-05 -1.98939e-05
-0.000144114 4.31411e-05 4.32741e-05 -1.98939e-05
-0.000214996 6.4421e-05 6.45321e-05 -1.76826e-05
-0.000212576 6.36973e-05 6.38053e-05 -1.76826e-05
-7.08059e-05 2.1143e-05 2.12841e-05 -2.12212e-05
-7.16145e-05 2.1383e-05 2.15278e-05 -2.12212e-05
-0.000213786 6.40592e-05 6.41687e-05 -1.76826e-05
-0.000141693 4.24184e-05 4.25462e-05 -1.98939e-05
-7.12102e-05 2.1263e-05 2.14059e-05 -2.12212e-05
-0.000143307 4.29002e-05 4.30315e-05 -1.98939e-05
-0.0001425 4.26593e-05 4.27889e-05 -1.98939e-05
-0.000212576 6.36973e-05 6.38053e-05 -1.76826e-05
-0.000210157 6.29735e-05 6.30786e-05 -1.76826e-05
-6.99974e-05 2.0903e-05 2.10405e-05 -2.12211e-05
-7.08059e-05 2.1143e-05 2.12841e-05 -2.12212e-05
-0.000211367 6.33354e-05 6.3442e-05 -1.76826e-05
-0.000140079 4.19365e-05 4.2061e-05 -1.98939e-05
-7.04016e-05 2.1023e-05 2.11623e-05 -2.12212e-05
-0.000141693 4.24184e-05 4.25462e-05 -1.98939e-05
-0.000140886 4.21775e-05 4.23036e-05 -1.98939e-05
-0.000210157 6.29735e-05 6.30786e-05 -1.76826e-05
-0.000207737 6.22497e-05 6.23519e-05 -1.76826e-05
-6.91889e-05 2.0663e-05 2.07968e-05 -2.12211e-05
-6.99974e-05 2.0903e-05 2.10405e-05 -2.12211e-05
-0.000208947 6.26116e-05 6.27152e-05 -1.76826e-05
-0.000138465 4.14547e-05 4.15758e-05 -1.98939e-05
-6.95931e-05 2.0783e-05 2.09186e-05 -2.12211e-05
-0.000140079 4.19365e-05 4.2061e-05 -1.98939e-05
-0.000139272 4.16956e-05 4.18184e-05 -1.98939e-05
-0.000207737 6.22497e-05 6.23519e-05 -1.76826e-05
-0.000205318 6.1526e-05 6.16252e-05 -1.76826e-05
-6.83804e-05 2.04229e-05 2.05532e-05 -2.12211e-05
-6.91889e-05 2.0663e-05 2.07968e-05 -2.12211e-05
-0.000206528 6.18878e-05 6.19885e-05 -1.76826e-05
-0.000136851 4.09728e-05 4.10906e-05 -1.98939e-05
-6.87846e-05 2.05429e-05 2.0675e-05 -2.12211e-05
-0.000138465 4.14547e-05 4.15758e-05 -1.98939e-05
-0.000137658 4.12137e-05 4.13332e-05 -1.98939e-05
-0.000205318 6.1526e-05 6.16252e-05 -1.76826e-05
-0.000202899 6.08021e-05 6.08985e-05 -1.76827e-05
-6.7572e-05 2.01828e-05 2.03096e-05 -2.12211e-05
-6.83804e-05 2.04229e-05 2.05532e-05 -2.12211e-05
-0.000204108 6.1164e-05 6.12619e-05 -1.76827e-05
-0.000135237 4.04909e-05 4.06055e-05 -1.98939e-05
-6.79762e-05 2.03029e-05 2.04314e-05 -2.12211e-05
-0.000136851 4.09728e-05 4.10906e-05 -1.98939e-05
-0.000136044 4.07318e-05 4.0848e-05 -1.98939e-05
-0.000202899 6.08021e-05 6.08985e-05 -1.76827e-05
-0.000200479 6.00783e-05 6.01719e-05 -1.76827e-05
-6.67636e-05 1.99427e-05 2.00661e-05 -2.12211e-05
-6.7572e-05 2.01828e-05 2.03096e-05 -2.12211e-05
-0.000201689 6.04402e-05 6.05352e-05 -1.76827e-05
-0.000133623 4.0009e-05 4.01203e-05 -1.98939e-05
-6.71678e-05 2.00628e-05 2.01878e-05 -2.12211e-05
-0.000135237 4.04909e-05 4.06055e-05 -1.98939e-05
-0.00013443 4.02499e-05 4.03629e-05 -1.98939e-05
-0.000200479 6.00783e-05 6.01719e-05 -1.76827e-05
-0.00019806 5.93545e-05 5.94452e-05 -1.76827e-05
-6.59552e-05 1.97026e-05 1.98225e-05 -2.12211e-05
-6.67636e-05 1.99427e-05 2.00661e-05 -2.12211e-05
-0.00019927 5.97164e-05 5.98085e-05 -1.76827e-05
-0.000132009 3.9527e-05 3.96352e-05 -1.98939e-05
-6.63594e-05 1.98227e-05 1.99443e-05 -2.12211e-05
-0.000133623 4.0009e-05 4.01203e-05 -1.98939e-05
-0.000132816 3.9768e-05 3.98777e-05 -1.98939e-05
-0.00019806 5.93545e-05 5.94452e-05 -1.76827e-05
-0.000195641 5.86306e-05 5.87186e-05 -1.76827e-05
-6.51469e-05 1.94625e-05 1.9579e-05 -2.12211e-05
-6.59552e-05 1.97026e-05 1.98225e-05 -2.12211e-05
-0.00019685 5.89926e-05 5.90819e-05 -1.76827e-05
-0.000130395 3.90451e-05 3.91501e-05 -1.98939e-05
-6.5551e-05 1.95826e-05 1.97008e-05 -2.12211e-05
-0.000132009 3.9527e-05 3.96352e-05 -1.98939e-05
-0.000131202 3.92861e-05 3.93926e-05 -1.98939e-05
-0.000195641 5.86306e-05 5.87186e-05 -1.76827e-05
-0.000193222 5.79068e-05 5.7992e-05 -1.76827e-05
-6.43386e-05 1.92224e-05 1.93355e-05 -2.1221e-05
-6.51469e-05 1.94625e-05 1.9579e-05 -2.12211e-05
-0.000194431 5.82687e-05 5.83553e-05 -1.76827e-05
-0.000128782 3.85631e-05 3.8665e-05 -1.98939e-05
-6.47427e-05 1.93424e-05 1.94573e-05 -2.12211e-05
-0.000130395 3.90451e-05 3.91501e-05 -1.98939e-05
-0.000129588 3.88041e-05 3.89076e-05 -1.98939e-05
-0.000193222 5.79068e-05 5.7992e-05 -1.76827e-05
-0.000190802 5.71829e-05 5.72655e-05 -1.76827e-05
-6.35303e-05 1.89822e-05 1.9092e-05 -2.1221e-05
-6.43386e-05 1.92224e-05 1.93355e-05 -2.1221e-05
-0.000192012 5.75448e-05 5.76287e-05 -1.76827e-05
-0.000127168 3.80811e-05 3.818e-05 -1.98939e-05
-6.39344e-05 1.91023e-05 1.92138e-05 -2.1221e-05
-0.000128782 3.85631e-05 3.8665e-05 -1.98939e-05
-0.000127975 3.83221e-05 3.84225e-05 -1.98939e-05
-0.000190802 5.71829e-05 5.72655e-05 -1.76827e-05
-0.000188383 5.6459e-05 5.65389e-05 -1.76827e-05
-6.27221e-05 1.8742e-05 1.88486e-05 -2.1221e-05
-6.35303e-05 1.89822e-05 1.9092e-05 -2.1221e-05
-0.000189593 5.6821e-05 5.69022e-05 -1.76827e-05
-0.000125554 3.75991e-05 3.76949e-05 -1.98939e-05
-6.31262e-05 1.88621e-05 1.89703e-05 -2.1221e-05
-0.000127168 3.80811e-05 3.818e-05 -1.98939e-05
-0.000126361 3.78401e-05 3.79374e-05 -1.98939e-05
-0.000188383 5.6459e-05 5.65389e-05 -1.76827e-05
-0.000185964 5.57351e-05 5.58124e-05 -1.76827e-05
-6.19139e-05 1.85018e-05 1.86052e-05 -2.1221e-05
-6.27221e-05 1.8742e-05 1.88486e-05 -2.1221e-05
-0.000187174 5.60971e-05 5.61756e-05 -1.76827e-05
-0.00012394 3.71171e-05 3.72099e-05 -1.98939e-05
-6.2318e-05 1.86219e-05 1.87269e-05 -2.1221e-05
-0.000125554 3.75991e-05 3.76949e-05 -1.98939e-05
-0.000124747 3.73581e-05 3.74524e-05 -1.98939e-05
-0.000185964 5.57351e-05 5.58124e-05 -1.76827e-05
-0.000183545 5.50112e-05 5.50859e-05 -1.76827e-05
-6.11057e-05 1.82616e-05 1.83618e-05 -2.1221e-05
-6.19139e-05 1.85018e-05 1.86052e-05 -2.1221e-05
-0.000184754 5.53731e-05 5.54491e-05 -1.76827e-05
-0.000122327 3.66351e-05 3.67249e-05 -1.98939e-05
-6.15098e-05 1.83817e-05 1.84835e-05 -2.1221e-05
-0.00012394 3.71171e-05 3.72099e-05 -1.98939e-05
-0.000123133 3.68761e-05 3.69674e-05 -1.98939e-05
-0.000183545 5.50112e-05 5.50859e-05 -1.76827e-05
-0.000181126 5.42872e-05 5.43594e-05 -1.76827e-05
-6.02976e-05 1.80214e-05 1.81184e-05 -2.1221e-05
-6.11057e-05 1.82616e-05 1.83618e-05 -2.1221e-05
-0.000182335 5.46492e-05 5.47226e-05 -1.76827e-05
-0.000120713 3.6153e-05 3.624e-05 -1.98939e-05
-6.07016e-05 1.81415e-05 1.82401e-05 -2.1221e-05
-0.000122327 3.66351e-05 3.67249e-05 -1.98939e-05
-0.00012152 3.63941e-05 3.64824e-05 -1.98939e-05
-0.000181126 5.42872e-05 5.43594e-05 -1.76827e-05
-0.000178707 5.35633e-05 5.36329e-05 -1.76827e-05
-5.94895e-05 1.77811e-05 1.7875e-05 -2.1221e-05
-6.02976e-05 1.80214e-05 1.81184e-05 -2.1221e-05
-0.000179916 5.39253e-05 5.39961e-05 -1.76827e-05
-0.000119099 3.5671e-05 3.5755e-05 -1.98939e-05
-5.98935e-05 1.79012e-05 1.79967e-05 -2.1221e-05
-0.000120713 3.6153e-05 3.624e-05 -1.98939e-05
-0.000119906 3.5912e-05 3.59975e-05 -1.98939e-05
-0.000178707 5.35633e-05 5.36329e-05 -1.76827e-05
-0.000176288 5.28393e-05 5.29064e-05 -1.76827e-05
-5.86814e-05 1.75408e-05 1.76317e-05 -2.1221e-05
-5.94895e-05 1.77811e-05 1.7875e-05 -2.1221e-05
-0.000177497 5.32013e-05 5.32697e-05 -1.76827e-05
-0.000117486 3.51889e-05 3.52701e-05 -1.98939e-05
-5.90854e-05 1.7661e-05 1.77533e-05 -2.1221e-05
-0.000119099 3.5671e-05 3.5755e-05 -1.98939e-05
-0.000118293 3.54299e-05 3.55126e-05 -1.98939e-05
-0.000176288 5.28393e-05 5.29064e-05 -1.76827e-05
-0.000173869 5.21153e-05 5.218e-05 -1.76827e-05
-5.78734e-05 1.73005e-05 1.73884e-05 -2.12209e-05
-5.86814e-05 1.75408e-05 1.76317e-05 -2.1221e-05
-0.000175078 5.24773e-05 5.25432e-05 -1.76827e-05
-0.000115872 3.47068e-05 3.47852e-05 -1.98939e-05
-5.82774e-05 1.74207e-05 1.751e-05 -2.12209e-05
-0.000117486 3.51889e-05 3.52701e-05 -1.98939e-05
-0.000116679 3.49478e-05 3.50276e-05 -1.98939e-05
-0.000173869 5.21153e-05 5.218e-05 -1.76827e-05
-0.00017145 5.13913e-05 5.14536e-05 -1.76828e-05
-5.70654e-05 1.70602e-05 1.71451e-05 -2.12209e-05
-5.78734e-05 1.73005e-05 1.73884e-05 -2.12209e-05
-0.000172659 5.17533e-05 5.18168e-05 -1.76828e-05
-0.000114259 3.42246e-05 3.43003e-05 -1.98939e-05
-5.74694e-05 1.71804e-05 1.72667e-05 -2.12209e-05
-0.000115872 3.47068e-05 3.47852e-05 -1.98939e-05
-0.000115065 3.44657e-05 3.45428e-05 -1.98939e-05
-0.00017145 5.13913e-05 5.14536e-05 -1.76828e-05
-0.000169031 5.06673e-05 5.07272e-05 -1.76828e-05
-5.62574e-05 1.68199e-05 1.69018e-05 -2.12209e-05
-5.70654e-05 1.70602e-05 1.71451e-05 -2.12209e-05
-0.00017024 5.10293e-05 5.10904e-05 -1.76828e-05
-0.000112645 3.37425e-05 3.38155e-05 -1.98939e-05
-5.66614e-05 1.69401e-05 1.70234e-05 -2.12209e-05
-0.000114259 3.42246e-05 3.43003e-05 -1.98939e-05
-0.000113452 3.39836e-05 3.40579e-05 -1.98939e-05
-0.000169031 5.06673e-05 5.07272e-05 -1.76828e-05
-0.000166612 4.99433e-05 5.00008e-05 -1.76828e-05
-5.54495e-05 1.65795e-05 1.66586e-05 -2.12209e-05
-5.62574e-05 1.68199e-05 1.69018e-05 -2.12209e-05
-0.000167821 5.03053e-05 5.0364e-05 -1.76828e-05
-0.000111032 3.32604e-05 3.33306e-05 -1.98939e-05
-5.58535e-05 1.66997e-05 1.67802e-05 -2.12209e-05
-0.000112645 3.37425e-05 3.38155e-05 -1.98939e-05
-0.000111839 3.35014e-05 3.3573e-05 -1.98939e-05
-0.000166612 4.99433e-05 5.00008e-05 -1.76828e-05
-0.000164193 4.92193e-05 4.92745e-05 -1.76828e-05
-5.46416e-05 1.63392e-05 1.64153e-05 -2.12209e-05
-5.54495e-05 1.65795e-05 1.66586e-05 -2.12209e-05
-0.000165402 4.95813e-05 4.96376e-05 -1.76828e-05
-0.000109418 3.27782e-05 3.28458e-05 -1.98939e-05
-5.50456e-05 1.64594e-05 1.65369e-05 -2.12209e-05
-0.000111032 3.32604e-05 3.33306e-05 -1.98939e-05
-0.000110225 3.30193e-05 3.30882e-05 -1.98939e-05
-0.000164193 4.92193e-05 4.92745e-05 -1.76828e-05
-0.000161774 4.84952e-05 4.85481e-05 -1.76828e-05
-5.38338e-05 1.60988e-05 1.61721e-05 -2.12209e-05
-5.46416e-05 1.63392e-05 1.64153e-05 -2.12209e-05
-0.000162984 4.88572e-05 4.89113e-05 -1.76828e-05
-0.000107805 3.2296e-05 3.2361e-05 -1.98939e-05
-5.42377e-05 1.6219e-05 1.62937e-05 -2.12209e-05
-0.000109418 3.27782e-05 3.28458e-05 -1.98939e-05
-0.000108612 3.25371e-05 3.26034e-05 -1.98939e-05
-0.000161774 4.84952e-05 4.85481e-05 -1.76828e-05
-0.000159355 4.77711e-05 4.78218e-05 -1.76828e-05
-5.30259e-05 1.58584e-05 1.5929e-05 -2.12209e-05
-5.38338e-05 1.60988e-05 1.61721e-05 -2.12209e-05
-0.000160565 4.81332e-05 4.8185e-05 -1.76828e-05
-0.000106192 3.18138e-05 3.18762e-05 -1.98939e-05
-5.34298e-05 1.59786e-05 1.60505e-05 -2.12209e-05
-0.000107805 3.2296e-05 3.2361e-05 -1.98939e-05
-0.000106998 3.20549e-05 3.21186e-05 -1.98939e-05
-0.000159355 4.77711e-05 4.78218e-05 -1.76828e-05
-0.000156937 4.70471e-05 4.70955e-05 -1.76828e-05
-5.22181e-05 1.56179e-05 1.56858e-05 -2.12209e-05
-5.30259e-05 1.58584e-05 1.5929e-05 -2.12209e-05
-0.000158146 4.74091e-05 4.74587e-05 -1.76828e-05
-0.000104578 3.13315e-05 3.13915e-05 -1.98939e-05
-5.2622e-05 1.57382e-05 1.58074e-05 -2.12209e-05
-0.000106192 3.18138e-05 3.18762e-05 -1.98939e-05
-0.000105385 3.15727e-05 3.16339e-05 -1.98939e-05
-0.000156937 4.70471e-05 4.70955e-05 -1.76828e-05
-0.000154518 4.6323e-05 4.63693e-05 -1.76828e-05
-5.14104e-05 1.53775e-05 1.54427e-05 -2.12208e-05
-5.22181e-05 1.56179e-05 1.56858e-05 -2.12209e-05
-0.000155727 4.6685e-05 4.67324e-05 -1.76828e-05
-0.000102965 3.08493e-05 3.09068e-05 -1.98939e-05
-5.18143e-05 1.54977e-05 1.55642e-05 -2.12209e-05
-0.000104578 3.13315e-05 3.13915e-05 -1.98939e-05
-0.000103772 3.10904e-05 3.11491e-05 -1.98939e-05
-0.000154518 4.6323e-05 4.63693e-05 -1.76828e-05
-0.000152099 4.55988e-05 4.5643e-05 -1.76828e-05
-5.06027e-05 1.5137e-05 1.51996e-05 -2.12208e-05
-5.14104e-05 1.53775e-05 1.54427e-05 -2.12208e-05
-0.000153309 4.59609e-05 4.60061e-05 -1.76828e-05
-0.000101352 3.0367e-05 3.04221e-05 -1.98939e-05
-5.10065e-05 1.52573e-05 1.53211e-05 -2.12208e-05
-0.000102965 3.08493e-05 3.09068e-05 -1.98939e-05
-0.000102158 3.06082e-05 3.06644e-05 -1.98939e-05
-0.000152099 4.55988e-05 4.5643e-05 -1.76828e-05
-0.000149681 4.48747e-05 4.49168e-05 -1.76828e-05
-4.9795e-05 1.48965e-05 1.49565e-05 -2.12208e-05
-5.06027e-05 1.5137e-05 1.51996e-05 -2.12208e-05
-0.00015089 4.52368e-05 4.52799e-05 -1.76828e-05
-9.97386e-05 2.98848e-05 2.99374e-05 -1.98939e-05
-5.01988e-05 1.50168e-05 1.5078e-05 -2.12208e-05
-0.000101352 3.0367e-05 3.04221e-05 -1.98939e-05
-0.000100545 3.01259e-05 3.01797e-05 -1.98939e-05
-0.000149681 4.48747e-05 4.49168e-05 -1.76828e-05
-0.000147262 4.41506e-05 4.41906e-05 -1.76829e-05
-4.89873e-05 1.4656e-05 1.47134e-05 -2.12208e-05
-4.9795e-05 1.48965e-05 1.49565e-05 -2.12208e-05
-0.000148471 4.45126e-05 4.45537e-05 -1.76829e-05
-9.81255e-05 2.94025e-05 2.94527e-05 -1.98939e-05
-4.93911e-05 1.47763e-05 1.48349e-05 -2.12208e-05
-9.97386e-05 2.98848e-05 2.99374e-05 -1.98939e-05
-9.89321e-05 2.96436e-05 2.9695e-05 -1.98939e-05
-0.000147262 4.41506e-05 4.41906e-05 -1.76829e-05
-0.000144843 4.34264e-05 4.34644e-05 -1.76829e-05
-4.81797e-05 1.44155e-05 1.44704e-05 -2.12208e-05
-4.89873e-05 1.4656e-05 1.47134e-05 -2.12208e-05
-0.000146053 4.37885e-05 4.38275e-05 -1.76829e-05
-9.65123e-05 2.89201e-05 2.89681e-05 -1.98939e-05
-4.85835e-05 1.45358e-05 1.45919e-05 -2.12208e-05
-9.81255e-05 2.94025e-05 2.94527e-05 -1.98939e-05
-9.73189e-05 2.91613e-05 2.92104e-05 -1.98939e-05
-0.000144843 4.34264e-05 4.34644e-05 -1.76829e-05
-0.000142425 4.27022e-05 4.27382e-05 -1.76829e-05
-4.73721e-05 1.4175e-05 1.42273e-05 -2.12208e-05
-4.81797e-05 1.44155e-05 1.44704e-05 -2.12208e-05
-0.000143634 4.30643e-05 4.31013e-05 -1.76829e-05
-9.48992e-05 2.84378e-05 2.84835e-05 -1.98939e-05
-4.77759e-05 1.42952e-05 1.43489e-05 -2.12208e-05
-9.65123e-05 2.89201e-05 2.89681e-05 -1.98939e-05
-9.57058e-05 2.8679e-05 2.87258e-05 -1.98939e-05
-0.000142425 4.27022e-05 4.27382e-05 -1.76829e-05
-0.000140006 4.1978e-05 4.20121e-05 -1.76829e-05
-4.65646e-05 1.39344e-05 1.39844e-05 -2.12208e-05
-4.73721e-05 1.4175e-05 1.42273e-05 -2.12208e-05
-0.000141215 4.23401e-05 4.23751e-05 -1.76829e-05
-9.32862e-05 2.79555e-05 2.79989e-05 -1.98939e-05
-4.69683e-05 1.40547e-05 1.41058e-05 -2.12208e-05
-9.48992e-05 2.84378e-05 2.84835e-05 -1.98939e-05
-9.40927e-05 2.81966e-05 2.82412e-05 -1.98939e-05
-0.000140006 4.1978e-05 4.20121e-05 -1.76829e-05
-0.000137588 4.12538e-05 4.12859e-05 -1.76829e-05
-4.5757e-05 1.36938e-05 1.37414e-05 -2.12208e-05
-4.65646e-05 1.39344e-05 1.39844e-05 -2.12208e-05
-0.000138797 4.16159e-05 4.1649e-05 -1.76829e-05
-9.16731e-05 2.74731e-05 2.75143e-05 -1.98939e-05
-4.61608e-05 1.38141e-05 1.38629e-05 -2.12208e-05
-9.32862e-05 2.79555e-05 2.79989e-05 -1.98939e-05
-9.24796e-05 2.77143e-05 2.77566e-05 -1.98939e-05
-0.000137588 4.12538e-05 4.12859e-05 -1.76829e-05
-0.000135169 4.05296e-05 4.05598e-05 -1.76829e-05
-4.49496e-05 1.34532e-05 1.34984e-05 -2.12208e-05
-4.5757e-05 1.36938e-05 1.37414e-05 -2.12208e-05
-0.000136378 4.08917e-05 4.09229e-05 -1.76829e-05
-9.00601e-05 2.69907e-05 2.70297e-05 -1.98939e-05
-4.53533e-05 1.35735e-05 1.36199e-05 -2.12208e-05
-9.16731e-05 2.74731e-05 2.75143e-05 -1.98939e-05
-9.08666e-05 2.72319e-05 2.7272e-05 -1.98939e-05
-0.000135169 4.05296e-05 4.05598e-05 -1.76829e-05
-0.000132751 3.98054e-05 3.98337e-05 -1.76829e-05
-4.41421e-05 1.32126e-05 1.32555e-05 -2.12208e-05
-4.49496e-05 1.34532e-05 1.34984e-05 -2.12208e-05
-0.00013396 4.01675e-05 4.01968e-05 -1.76829e-05
-8.84471e-05 2.65083e-05 2.65452e-05 -1.98939e-05
-4.45458e-05 1.33329e-05 1.3377e-05 -2.12208e-05
-9.00601e-05 2.69907e-05 2.70297e-05 -1.98939e-05
-8.92536e-05 2.67495e-05 2.67875e-05 -1.98939e-05
-0.000132751 3.98054e-05 3.98337e-05 -1.76829e-05
-0.000130332 3.90811e-05 3.91077e-05 -1.76829e-05
-4.33347e-05 1.2972e-05 1.30126e-05 -2.12208e-05
-4.41421e-05 1.32126e-05 1.32555e-05 -2.12208e-05
-0.000131542 3.94433e-05 3.94707e-05 -1.76829e-05
-8.68342e-05 2.60259e-05 2.60607e-05 -1.98939e-05
-4.37384e-05 1.30923e-05 1.3134e-05 -2.12208e-05
-8.84471e-05 2.65083e-05 2.65452e-05 -1.98939e-05
-8.76407e-05 2.62671e-05 2.6303e-05 -1.98939e-05
-0.000130332 3.90811e-05 3.91077e-05 -1.76829e-05
-0.000127914 3.83569e-05 3.83816e-05 -1.7683e-05
-4.25273e-05 1.27313e-05 1.27697e-05 -2.12208e-05
-4.33347e-05 1.2972e-05 1.30126e-05 -2.12208e-05
-0.000129123 3.8719e-05 3.87446e-05 -1.76829e-05
-8.52213e-05 2.55435e-05 2.55762e-05 -1.98939e-05
-4.2931e-05 1.28516e-05 1.28912e-05 -2.12208e-05
-8.68342e-05 2.60259e-05 2.60607e-05 -1.98939e-05
-8.60277e-05 2.57847e-05 2.58185e-05 -1.98939e-05
-0.000127914 3.83569e-05 3.83816e-05 -1.7683e-05
-0.000125496 3.76326e-05 3.76556e-05 -1.7683e-05
-4.172e-05 1.24906e-05 1.25269e-05 -2.12207e-05
-4.25273e-05 1.27313e-05 1.27697e-05 -2.12208e-05
-0.000126705 3.79947e-05 3.80186e-05 -1.7683e-05
-8.36084e-05 2.5061e-05 2.50917e-05 -1.98939e-05
-4.21236e-05 1.2611e-05 1.26483e-05 -2.12207e-05
-8.52213e-05 2.55435e-05 2.55762e-05 -1.98939e-05
-8.44148e-05 2.53022e-05 2.5334e-05 -1.98939e-05
-0.000125496 3.76326e-05 3.76556e-05 -1.7683e-05
-0.000123077 3.69083e-05 3.69296e-05 -1.7683e-05
-4.09126e-05 1.22499e-05 1.2284e-05 -2.12207e-05
-4.172e-05 1.24906e-05 1.25269e-05 -2.12207e-05
-0.000124286 3.72704e-05 3.72926e-05 -1.7683e-05
-8.19956e-05 2.45785e-05 2.46073e-05 -1.98939e-05
-4.13163e-05 1.23703e-05 1.24054e-05 -2.12207e-05
-8.36084e-05 2.5061e-05 2.50917e-05 -1.98939e-05
-8.2802e-05 2.48198e-05 2.48495e-05 -1.98939e-05
-0.000123077 3.69083e-05 3.69296e-05 -1.7683e-05
-0.000120659 3.6184e-05 3.62036e-05 -1.7683e-05
-4.01054e-05 1.20092e-05 1.20412e-05 -2.12207e-05
-4.09126e-05 1.22499e-05 1.2284e-05 -2.12207e-05
-0.000121868 3.65461e-05 3.65666e-05 -1.7683e-05
-8.03828e-05 2.4096e-05 2.41229e-05 -1.98939e-05
-4.0509e-05 1.21296e-05 1.21626e-05 -2.12207e-05
-8.19956e-05 2.45785e-05 2.46073e-05 -1.98939e-05
-8.11892e-05 2.43373e-05 2.43651e-05 -1.98939e-05
-0.000120659 3.6184e-05 3.62036e-05 -1.7683e-05
-0.000118241 3.54596e-05 3.54776e-05 -1.7683e-05
-3.92981e-05 1.17685e-05 1.17984e-05 -2.12207e-05
-4.01054e-05 1.20092e-05 1.20412e-05 -2.12207e-05
-0.00011945 3.58218e-05 3.58406e-05 -1.7683e-05
-7.877e-05 2.36135e-05 2.36385e-05 -1.98939e-05
-3.97017e-05 1.18889e-05 1.19198e-05 -2.12207e-05
-8.03828e-05 2.4096e-05 2.41229e-05 -1.98939e-05
-7.95764e-05 2.38548e-05 2.38807e-05 -1.98939e-05
-0.000118241 3.54596e-05 3.54776e-05 -1.7683e-05
-0.000115823 3.47353e-05 3.47517e-05 -1.7683e-05
-3.84909e-05 1.15277e-05 1.15556e-05 -2.12207e-05
-3.92981e-05 1.17685e-05 1.17984e-05 -2.12207e-05
-0.000117032 3.50975e-05 3.51146e-05 -1.7683e-05
-7.71572e-05 2.3131e-05 2.31541e-05 -1.98939e-05
-3.88945e-05 1.16481e-05 1.1677e-05 -2.12207e-05
-7.877e-05 2.36135e-05 2.36385e-05 -1.98939e-05
-7.79636e-05 2.33723e-05 2.33963e-05 -1.98939e-05
-0.000115823 3.47353e-05 3.47517e-05 -1.7683e-05
-0.000113404 3.40109e-05 3.40257e-05 -1.7683e-05
-3.76837e-05 1.1287e-05 1.13129e-05 -2.12207e-05
-3.84909e-05 1.15277e-05 1.15556e-05 -2.12207e-05
-0.000114613 3.43731e-05 3.43887e-05 -1.7683e-05
-7.55445e-05 2.26485e-05 2.26697e-05 -1.98939e-05
-3.80873e-05 1.14073e-05 1.14343e-05 -2.12207e-05
-7.71572e-05 2.3131e-05 2.31541e-05 -1.98939e-05
-7.63509e-05 2.28897e-05 2.29119e-05 -1.98939e-05
-0.000113404 3.40109e-05 3.40257e-05 -1.7683e-05
-0.000110986 3.32866e-05 3.32998e-05 -1.76831e-05
-3.68766e-05 1.10462e-05 1.10702e-05 -2.12207e-05
-3.76837e-05 1.1287e-05 1.13129e-05 -2.12207e-05
-0.000112195 3.36488e-05 3.36628e-05 -1.7683e-05
-7.39319e-05 2.21659e-05 2.21854e-05 -1.98939e-05
-3.72801e-05 1.11666e-05 1.11915e-05 -2.12207e-05
-7.55445e-05 2.26485e-05 2.26697e-05 -1.98939e-05
-7.47382e-05 2.24072e-05 2.24276e-05 -1.98939e-05
-0.000110986 3.32866e-05 3.32998e-05 -1.76831e-05
-0.000108568 3.25622e-05 3.25739e-05 -1.76831e-05
-3.60695e-05 1.08053e-05 1.08275e-05 -2.12207e-05
-3.68766e-05 1.10462e-05 1.10702e-05 -2.12207e-05
-0.000109777 3.29244e-05 3.29369e-05 -1.76831e-05
-7.23192e-05 2.16833e-05 2.17011e-05 -1.98939e-05
-3.6473e-05 1.09258e-05 1.09488e-05 -2.12207e-05
-7.39319e-05 2.21659e-05 2.21854e-05 -1.98939e-05
-7.31255e-05 2.19246e-05 2.19433e-05 -1.98939e-05
-0.000108568 3.25622e-05 3.25739e-05 -1.76831e-05
-0.00010615 3.18378e-05 3.18481e-05 -1.76831e-05
-3.52624e-05 1.05645e-05 1.05848e-05 -2.12207e-05
-3.60695e-05 1.08053e-05 1.08275e-05 -2.12207e-05
-0.000107359 3.22e-05 3.2211e-05 -1.76831e-05
-7.07066e-05 2.12007e-05 2.12168e-05 -1.98939e-05
-3.56659e-05 1.06849e-05 1.07061e-05 -2.12207e-05
-7.23192e-05 2.16833e-05 2.17011e-05 -1.98939e-05
-7.15129e-05 2.1442e-05 2.1459e-05 -1.98939e-05
-0.00010615 3.18378e-05 3.18481e-05 -1.76831e-05
-0.000103732 3.11134e-05 3.11222e-05 -1.76831e-05
-3.44553e-05 1.03237e-05 1.03421e-05 -2.12207e-05
-3.52624e-05 1.05645e-05 1.05848e-05 -2.12207e-05
-0.000104941 3.14756e-05 3.14851e-05 -1.76831e-05
-6.9094e-05 2.07181e-05 2.07325e-05 -1.98939e-05
-3.48589e-05 1.04441e-05 1.04635e-05 -2.12207e-05
-7.07066e-05 2.12007e-05 2.12168e-05 -1.98939e-05
-6.99003e-05 2.09594e-05 2.09747e-05 -1.98939e-05
-0.000103732 3.11134e-05 3.11222e-05 -1.76831e-05
-0.000101314 3.03889e-05 3.03964e-05 -1.76831e-05
-3.36483e-05 1.00828e-05 1.00995e-05 -2.12207e-05
-3.44553e-05 1.03237e-05 1.03421e-05 -2.12207e-05
-0.000102523 3.07512e-05 3.07593e-05 -1.76831e-05
-6.74815e-05 2.02355e-05 2.02483e-05 -1.98939e-05
-3.40518e-05 1.02032e-05 1.02208e-05 -2.12207e-05
-6.9094e-05 2.07181e-05 2.07325e-05 -1.98939e-05
-6.82878e-05 2.04768e-05 2.04904e-05 -1.98939e-05
-0.000101314 3.03889e-05 3.03964e-05 -1.76831e-05
-9.88958e-05 2.96645e-05 2.96706e-05 -1.76831e-05
-3.28414e-05 9.84191e-06 9.85691e-06 -2.12207e-05
-3.36483e-05 1.00828e-05 1.00995e-05 -2.12207e-05
-0.000100105 3.00267e-05 3.00335e-05 -1.76831e-05
-6.5869e-05 1.97528e-05 1.97641e-05 -1.9894e-05
-3.32448e-05 9.96235e-06 9.97821e-06 -2.12207e-05
-6.74815e-05 2.02355e-05 2.02483e-05 -1.98939e-05
-6.66752e-05 1.99941e-05 2.00062e-05 -1.9894e-05
-9.88958e-05 2.96645e-05 2.96706e-05 -1.76831e-05
-9.64778e-05 2.894e-05 2.89448e-05 -1.76831e-05
-3.20344e-05 9.601e-06 9.61432e-06 -2.12207e-05
-3.28414e-05 9.84191e-06 9.85691e-06 -2.12207e-05
-9.76868e-05 2.93023e-05 2.93077e-05 -1.76831e-05
-6.42565e-05 1.92701e-05 1.92799e-05 -1.9894e-05
-3.24379e-05 9.72145e-06 9.73561e-06 -2.12207e-05
-6.5869e-05 1.97528e-05 1.97641e-05 -1.9894e-05
-6.50627e-05 1.95115e-05 1.9522e-05 -1.9894e-05
-9.64778e-05 2.894e-05 2.89448e-05 -1.76831e-05
-9.40599e-05 2.82155e-05 2.8219e-05 -1.76832e-05
-3.12275e-05 9.36007e-06 9.37176e-06 -2.12207e-05
-3.20344e-05 9.601e-06 9.61432e-06 -2.12207e-05
-9.52689e-05 2.85778e-05 2.85819e-05 -1.76832e-05
-6.26441e-05 1.87875e-05 1.87957e-05 -1.9894e-05
-3.1631e-05 9.48054e-06 9.49304e-06 -2.12207e-05
-6.42565e-05 1.92701e-05 1.92799e-05 -1.9894e-05
-6.34503e-05 1.90288e-05 1.90378e-05 -1.9894e-05
-9.40599e-05 2.82155e-05 2.8219e-05 -1.76832e-05
-9.1642e-05 2.7491e-05 2.74933e-05 -1.76832e-05
-3.04206e-05 9.11912e-06 9.12922e-06 -2.12207e-05
-3.12275e-05 9.36007e-06 9.37176e-06 -2.12207e-05
-9.28509e-05 2.78533e-05 2.78561e-05 -1.76832e-05
-6.10317e-05 1.83048e-05 1.83115e-05 -1.9894e-05
-3.08241e-05 9.2396e-06 9.25049e-06 -2.12207e-05
-6.26441e-05 1.87875e-05 1.87957e-05 -1.9894e-05
-6.18379e-05 1.85461e-05 1.85536e-05 -1.9894e-05
-9.1642e-05 2.7491e-05 2.74933e-05 -1.76832e-05
-8.92241e-05 2.67665e-05 2.67675e-05 -1.76832e-05
-2.96138e-05 8.87815e-06 8.8867e-06 -2.12207e-05
-3.04206e-05 9.11912e-06 9.12922e-06 -2.12207e-05
-9.04331e-05 2.71288e-05 2.71304e-05 -1.76832e-05
-5.94193e-05 1.7822e-05 1.78274e-05 -1.9894e-05
-3.00172e-05 8.99864e-06 9.00796e-06 -2.12207e-05
-6.10317e-05 1.83048e-05 1.83115e-05 -1.9894e-05
-6.02255e-05 1.80634e-05 1.80695e-05 -1.9894e-05
-8.92241e-05 2.67665e-05 2.67675e-05 -1.76832e-05
-8.68063e-05 2.6042e-05 2.60418e-05 -1.76832e-05
-2.8807e-05 8.63717e-06 8.64421e-06 -2.12207e-05
-2.96138e-05 8.87815e-06 8.8867e-06 -2.12207e-05
-8.80152e-05 2.64043e-05 2.64047e-05 -1.76832e-05
-5.78069e-05 1.73393e-05 1.73433e-05 -1.9894e-05
-2.92104e-05 8.75766e-06 8.76545e-06 -2.12207e-05
-5.94193e-05 1.7822e-05 1.78274e-05 -1.9894e-05
-5.86131e-05 1.75807e-05 1.75853e-05 -1.9894e-05
-8.68063e-05 2.6042e-05 2.60418e-05 -1.76832e-05
-8.43885e-05 2.53175e-05 2.53161e-05 -1.76832e-05
-2.80002e-05 8.39616e-06 8.40174e-06 -2.12207e-05
-2.8807e-05 8.63717e-06 8.64421e-06 -2.12207e-05
-8.55974e-05 2.56797e-05 2.5679e-05 -1.76832e-05
-5.61946e-05 1.68565e-05 1.68592e-05 -1.9894e-05
-2.84036e-05 8.51667e-06 8.52297e-06 -2.12207e-05
-5.78069e-05 1.73393e-05 1.73433e-05 -1.9894e-05
-5.70008e-05 1.70979e-05 1.71012e-05 -1.9894e-05
-8.43885e-05 2.53175e-05 2.53161e-05 -1.76832e-05
-8.19707e-05 2.45929e-05 2.45905e-05 -1.76832e-05
-2.71935e-05 8.15513e-06 8.15929e-06 -2.12207e-05
-2.80002e-05 8.39616e-06 8.40174e-06 -2.12207e-05
-8.31796e-05 2.49552e-05 2.49533e-05 -1.76832e-05
-5.45824e-05 1.63738e-05 1.63751e-05 -1.9894e-05
-2.75968e-05 8.27565e-06 8.28051e-06 -2.12207e-05
-5.61946e-05 1.68565e-05 1.68592e-05 -1.9894e-05
-5.53885e-05 1.66152e-05 1.66171e-05 -1.9894e-05
-8.19707e-05 2.45929e-05 2.45905e-05 -1.76832e-05
-7.95529e-05 2.38683e-05 2.38648e-05 -1.76833e-05
-2.63868e-05 7.91409e-06 7.91686e-06 -2.12207e-05
-2.71935e-05 8.15513e-06 8.15929e-06 -2.12207e-05
-8.07618e-05 2.42306e-05 2.42276e-05 -1.76833e-05
-5.29701e-05 1.5891e-05 1.58911e-05 -1.9894e-05
-2.67901e-05 8.03461e-06 8.03807e-06 -2.12207e-05
-5.45824e-05 1.63738e-05 1.63751e-05 -1.9894e-05
-5.37762e-05 1.61324e-05 1.61331e-05 -1.9894e-05
-7.95529e-05 2.38683e-05 2.38648e-05 -1.76833e-05
-7.71352e-05 2.31437e-05 2.31392e-05 -1.76833e-05
-2.55801e-05 7.67302e-06 7.67446e-06 -2.12207e-05
-2.63868e-05 7.91409e-06 7.91686e-06 -2.12207e-05
-7.83441e-05 2.3506e-05 2.3502e-05 -1.76833e-05
-5.13579e-05 1.54082e-05 1.5407e-05 -1.9894e-05
-2.59834e-05 7.79356e-06 7.79566e-06 -2.12207e-05
-5.29701e-05 1.5891e-05 1.58911e-05 -1.9894e-05
-5.2164e-05 1.56496e-05 1.5649e-05 -1.9894e-05
-7.71352e-05 2.31437e-05 2.31392e-05 -1.76833e-05
-7.47175e-05 2.24191e-05 2.24136e-05 -1.76833e-05
-2.47735e-05 7.43194e-06 7.43208e-06 -2.12207e-05
-2.55801e-05 7.67302e-06 7.67446e-06 -2.12207e-05
-7.59263e-05 2.27814e-05 2.27764e-05 -1.76833e-05
-4.97457e-05 1.49253e-05 1.4923e-05 -1.9894e-05
-2.51768e-05 7.55248e-06 7.55327e-06 -2.12207e-05
-5.13579e-05 1.54082e-05 1.5407e-05 -1.9894e-05
-5.05518e-05 1.51667e-05 1.5165e-05 -1.9894e-05
-7.47175e-05 2.24191e-05 2.24136e-05 -1.76833e-05
-7.22998e-05 2.16945e-05 2.1688e-05 -1.76833e-05
-2.39669e-05 7.19083e-06 7.18972e-06 -2.12207e-05
-2.47735e-05 7.43194e-06 7.43208e-06 -2.12207e-05
-7.35087e-05 2.20568e-05 2.20508e-05 -1.76833e-05
-4.81336e-05 1.44425e-05 1.4439e-05 -1.98941e-05
-2.43702e-05 7.31139e-06 7.3109e-06 -2.12207e-05
-4.97457e-05 1.49253e-05 1.4923e-05 -1.9894e-05
-4.89396e-05 1.46839e-05 1.4681e-05 -1.98941e-05
-7.22998e-05 2.16945e-05 2.1688e-05 -1.76833e-05
-6.98822e-05 2.09699e-05 2.09624e-05 -1.76833e-05
-2.31603e-05 6.9497e-06 6.94739e-06 -2.12207e-05
-2.39669e-05 7.19083e-06 7.18972e-06 -2.12207e-05
-7.1091e-05 2.13322e-05 2.13252e-05 -1.76833e-05
-4.65215e-05 1.39596e-05 1.39551e-05 -1.98941e-05
-2.35636e-05 7.07027e-06 7.06855e-06 -2.12207e-05
-4.81336e-05 1.44425e-05 1.4439e-05 -1.98941e-05
-4.73275e-05 1.4201e-05 1.41971e-05 -1.98941e-05
-6.98822e-05 2.09699e-05 2.09624e-05 -1.76833e-05
-6.74646e-05 2.02452e-05 2.02369e-05 -1.76834e-05
-2.23537e-05 6.70856e-06 6.70508e-06 -2.12207e-05
-2.31603e-05 6.9497e-06 6.94739e-06 -2.12207e-05
-6.86734e-05 2.06076e-05 2.05997e-05 -1.76833e-05
-4.49094e-05 1.34767e-05 1.34711e-05 -1.98941e-05
-2.2757e-05 6.82913e-06 6.82623e-06 -2.12207e-05
-4.65215e-05 1.39596e-05 1.39551e-05 -1.98941e-05
-4.57154e-05 1.37182e-05 1.37131e-05 -1.98941e-05
-6.74646e-05 2.02452e-05 2.02369e-05 -1.76834e-05
-6.5047e-05 1.95206e-05 1.95114e-05 -1.76834e-05
-2.15472e-05 6.46739e-06 6.46279e-06 -2.12207e-05
-2.23537e-05 6.70856e-06 6.70508e-06 -2.12207e-05
-6.62558e-05 1.98829e-05 1.98741e-05 -1.76834e-05
-4.32973e-05 1.29938e-05 1.29872e-05 -1.98941e-05
-2.19505e-05 6.58797e-06 6.58393e-06 -2.12207e-05
-4.49094e-05 1.34767e-05 1.34711e-05 -1.98941e-05
-4.41033e-05 1.32353e-05 1.32292e-05 -1.98941e-05
-6.5047e-05 1.95206e-05 1.95114e-05 -1.76834e-05
-6.26295e-05 1.87959e-05 1.87858e-05 -1.76834e-05
-2.07408e-05 6.22619e-06 6.22053e-06 -2.12207e-05
-2.15472e-05 6.46739e-06 6.46279e-06 -2.12207e-05
-6.38383e-05 1.91582e-05 1.91486e-05 -1.76834e-05
-4.16853e-05 1.25109e-05 1.25033e-05 -1.98941e-05
-2.1144e-05 6.34679e-06 6.34166e-06 -2.12207e-05
-4.32973e-05 1.29938e-05 1.29872e-05 -1.98941e-05
-4.24913e-05 1.27523e-05 1.27453e-05 -1.98941e-05
-6.26295e-05 1.87959e-05 1.87858e-05 -1.76834e-05
-6.0212e-05 1.80712e-05 1.80604e-05 -1.76834e-05
-1.99343e-05 5.98498e-06 5.97828e-06 -2.12207e-05
-2.07408e-05 6.22619e-06 6.22053e-06 -2.12207e-05
-6.14207e-05 1.84335e-05 1.84231e-05 -1.76834e-05
-4.00733e-05 1.20279e-05 1.20194e-05 -1.98941e-05
-2.03375e-05 6.10559e-06 6.0994e-06 -2.12207e-05
-4.16853e-05 1.25109e-05 1.25033e-05 -1.98941e-05
-4.08793e-05 1.22694e-05 1.22614e-05 -1.98941e-05
-6.0212e-05 1.80712e-05 1.80604e-05 -1.76834e-05
-5.77945e-05 1.73464e-05 1.73349e-05 -1.76834e-05
-1.91279e-05 5.74375e-06 5.73606e-06 -2.12206e-05
-1.99343e-05 5.98498e-06 5.97828e-06 -2.12207e-05
-5.90033e-05 1.77088e-05 1.76976e-05 -1.76834e-05
-3.84614e-05 1.1545e-05 1.15356e-05 -1.98941e-05
-1.95311e-05 5.86437e-06 5.85717e-06 -2.12207e-05
-4.00733e-05 1.20279e-05 1.20194e-05 -1.98941e-05
-3.92673e-05 1.17865e-05 1.17775e-05 -1.98941e-05
-5.77945e-05 1.73464e-05 1.73349e-05 -1.76834e-05
-5.53771e-05 1.66217e-05 1.66094e-05 -1.76834e-05
-1.83215e-05 5.5025e-06 5.49386e-06 -2.12206e-05
-1.91279e-05 5.74375e-06 5.73606e-06 -2.12206e-05
-5.65858e-05 1.69841e-05 1.69722e-05 -1.76834e-05
-3.68494e-05 1.1062e-05 1.10518e-05 -1.98941e-05
-1.87247e-05 5.62313e-06 5.61496e-06 -2.12206e-05
-3.84614e-05 1.1545e-05 1.15356e-05 -1.98941e-05
-3.76554e-05 1.13035e-05 1.12937e-05 -1.98941e-05
-5.53771e-05 1.66217e-05 1.66094e-05 -1.76834e-05
-5.29597e-05 1.5897e-05 1.5884e-05 -1.76834e-05
-1.75152e-05 5.26124e-06 5.25168e-06 -2.12206e-05
-1.83215e-05 5.5025e-06 5.49386e-06 -2.12206e-05
-5.41684e-05 1.62594e-05 1.62467e-05 -1.76834e-05
-3.52375e-05 1.0579e-05 1.05679e-05 -1.98941e-05
-1.79183e-05 5.38187e-06 5.37277e-06 -2.12206e-05
-3.68494e-05 1.1062e-05 1.10518e-05 -1.98941e-05
-3.60435e-05 1.08205e-05 1.08098e-05 -1.98941e-05
-5.29597e-05 1.5897e-05 1.5884e-05 -1.76834e-05
-5.05423e-05 1.51723e-05 1.51586e-05 -1.76834e-05
-1.67088e-05 5.01997e-06 5.00952e-06 -2.12206e-05
-1.75152e-05 5.26124e-06 5.25168e-06 -2.12206e-05
-5.1751e-05 1.55346e-05 1.55213e-05 -1.76834e-05
-3.36257e-05 1.0096e-05 1.00841e-05 -1.9894e-05
-1.7112e-05 5.1406e-06 5.1306e-06 -2.12206e-05
-3.52375e-05 1.0579e-05 1.05679e-05 -1.98941e-05
-3.44316e-05 1.03375e-05 1.0326e-05 -1.98941e-05
-5.05423e-05 1.51723e-05 1.51586e-05 -1.76834e-05
-4.8125e-05 1.44475e-05 1.44332e-05 -1.76834e-05
-1.59026e-05 4.7787e-06 4.76738e-06 -2.12205e-05
-1.67088e-05 5.01997e-06 5.00952e-06 -2.12206e-05
-4.93337e-05 1.48099e-05 1.47959e-05 -1.76834e-05
-3.20139e-05 9.61305e-06 9.60037e-06 -1.9894e-05
-1.63057e-05 4.89933e-06 4.88845e-06 -2.12205e-05
-3.36257e-05 1.0096e-05 1.00841e-05 -1.9894e-05
-3.28198e-05 9.85454e-06 9.84226e-06 -1.9894e-05
-4.8125e-05 1.44475e-05 1.44332e-05 -1.76834e-05
-4.57078e-05 1.37229e-05 1.37078e-05 -1.76834e-05
-1.50964e-05 4.53746e-06 4.52525e-06 -2.12204e-05
-1.59026e-05 4.7787e-06 4.76738e-06 -2.12205e-05
-4.69164e-05 1.40852e-05 1.40705e-05 -1.76834e-05
-3.04022e-05 9.1301e-06 9.11662e-06 -1.9894e-05
-1.54995e-05 4.65808e-06 4.64631e-06 -2.12205e-05
-3.20139e-05 9.61305e-06 9.60037e-06 -1.9894e-05
-3.12081e-05 9.37157e-06 9.35849e-06 -1.9894e-05
-4.57078e-05 1.37229e-05 1.37078e-05 -1.76834e-05
-4.32907e-05 1.29982e-05 1.29825e-05 -1.76835e-05
-1.42903e-05 4.29624e-06 4.28315e-06 -2.12203e-05
-1.50964e-05 4.53746e-06 4.52525e-06 -2.12204e-05
-4.44992e-05 1.33605e-05 1.33452e-05 -1.76834e-05
-2.87906e-05 8.64717e-06 8.6329e-06 -1.98939e-05
-1.46933e-05 4.41684e-06 4.4042e-06 -2.12204e-05
-3.04022e-05 9.1301e-06 9.11662e-06 -1.9894e-05
-2.95964e-05 8.88863e-06 8.87475e-06 -1.98939e-05
-4.32907e-05 1.29982e-05 1.29825e-05 -1.76835e-05
-4.08736e-05 1.22735e-05 1.22572e-05 -1.76835e-05
-1.34842e-05 4.05504e-06 4.04107e-06 -2.12202e-05
-1.42903e-05 4.29624e-06 4.28315e-06 -2.12203e-05
-4.20821e-05 1.26358e-05 1.26198e-05 -1.76835e-05
-2.71791e-05 8.16422e-06 8.14921e-06 -1.98939e-05
-1.38872e-05 4.17564e-06 4.16211e-06 -2.12203e-05
-2.87906e-05 8.64717e-06 8.6329e-06 -1.98939e-05
-2.79848e-05 8.4057e-06 8.39105e-06 -1.98939e-05
-4.08736e-05 1.22735e-05 1.22572e-05 -1.76835e-05
-3.84566e-05 1.15486e-05 1.1532e-05 -1.76835e-05
-1.26782e-05 3.8138e-06 3.79902e-06 -2.12204e-05
-1.34842e-05 4.05504e-06 4.04107e-06 -2.12202e-05
-3.96651e-05 1.19111e-05 1.18946e-05 -1.76835e-05
-2.55675e-05 7.68111e-06 7.6656e-06 -1.9894e-05
-1.30812e-05 3.93443e-06 3.92005e-06 -2.12203e-05
-2.71791e-05 8.16422e-06 8.14921e-06 -1.98939e-05
-2.63733e-05 7.9227e-06 7.9074e-06 -1.98939e-05
-3.84566e-05 1.15486e-05 1.1532e-05 -1.76835e-05
-3.60393e-05 1.08232e-05 1.08069e-05 -1.76836e-05
-1.18721e-05 3.57233e-06 3.55705e-06 -2.1221e-05
-1.26782e-05 3.8138e-06 3.79902e-06 -2.12204e-05
-3.7248e-05 1.1186e-05 1.11694e-05 -1.76836e-05
-2.39557e-05 7.19747e-06 7.1821e-06 -1.98943e-05
-1.22751e-05 3.69311e-06 3.67802e-06 -2.12206e-05
-2.55675e-05 7.68111e-06 7.6656e-06 -1.9894e-05
-2.47617e-05 7.43939e-06 7.42383e-06 -1.98941e-05
-3.60393e-05 1.08232e-05 1.08069e-05 -1.76836e-05
-3.36212e-05 1.00964e-05 1.00821e-05 -1.76835e-05
-1.10655e-05 3.33022e-06 3.3151e-06 -2.12229e-05
-1.18721e-05 3.57233e-06 3.55705e-06 -2.1221e-05
-3.48304e-05 1.046e-05 1.04444e-05 -1.76836e-05
-2.2343e-05 6.71253e-06 6.69877e-06 -1.98954e-05
-1.14689e-05 3.4514e-06 3.43608e-06 -2.12217e-05
-2.39557e-05 7.19747e-06 7.1821e-06 -1.98943e-05
-2.31495e-05 6.95525e-06 6.9404e-06 -1.98948e-05
-3.36212e-05 1.00964e-05 1.00821e-05 -1.76835e-05
-3.12006e-05 9.36642e-06 9.3575e-06 -1.76833e-05
-1.02577e-05 3.08651e-06 3.07336e-06 -2.12277e-05
-1.10655e-05 3.33022e-06 3.3151e-06 -2.12229e-05
-3.24114e-05 9.73197e-06 9.71975e-06 -1.76835e-05
-2.07279e-05 6.22459e-06 6.21572e-06 -1.98979e-05
-1.06617e-05 3.20864e-06 3.19417e-06 -2.12248e-05
-2.2343e-05 6.71253e-06 6.69877e-06 -1.98954e-05
-2.15359e-05 6.46908e-06 6.4572e-06 -1.98964e-05
-3.12006e-05 9.36642e-06 9.3575e-06 -1.76833e-05
-2.87749e-05 8.62986e-06 8.6336e-06 -1.76825e-05
-9.44637e-06 2.8395e-06 2.83152e-06 -2.12386e-05
-1.02577e-05 3.08651e-06 3.07336e-06 -2.12277e-05
-2.99885e-05 8.99926e-06 8.99539e-06 -1.76831e-05
-1.91075e-05 5.73057e-06 5.73298e-06 -1.99037e-05
-9.85276e-06 2.96361e-06 2.95249e-06 -2.12321e-05
-2.07279e-05 6.22459e-06 6.21572e-06 -1.98979e-05
-1.99187e-05 5.97866e-06 5.97429e-06 -1.99003e-05
-2.87749e-05 8.62986e-06 8.6336e-06 -1.76825e-05
-2.63369e-05 7.88061e-06 7.90984e-06 -1.76812e-05
-8.62928e-06 2.58573e-06 2.59009e-06 -2.12615e-05
-9.44637e-06 2.8395e-06 2.83152e-06 -2.12386e-05
-2.75582e-05 8.25743e-06 8.27178e-06 -1.76819e-05
-1.74759e-05 5.22457e-06 5.25055e-06 -1.99158e-05
-9.03854e-06 2.71368e-06 2.71065e-06 -2.12481e-05
-1.91075e-05 5.73057e-06 5.73298e-06 -1.99037e-05
-1.82936e-05 5.47951e-06 5.49174e-06 -1.99085e-05
-2.63369e-05 7.88061e-06 7.90984e-06 -1.76812e-05
-2.38775e-05 7.10764e-06 7.18706e-06 -1.76782e-05
-7.79774e-06 2.32021e-06 2.34751e-06 -2.13069e-05
-8.62928e-06 2.58573e-06 2.59009e-06 -2.12615e-05
-2.51102e-05 7.49786e-06 7.54815e-06 -1.76801e-05
-1.58223e-05 4.69748e-06 4.76779e-06 -1.99402e-05
-8.21641e-06 2.45504e-06 2.46916e-06 -2.12804e-05
-1.74759e-05 5.22457e-06 5.25055e-06 -1.99158e-05
-1.66527e-05 4.9646e-06 5.00917e-06 -1.99263e-05
-2.38775e-05 7.10764e-06 7.18706e-06 -1.76782e-05
-2.13717e-05 6.29501e-06 6.46146e-06 -1.76753e-05
-6.94584e-06 2.03371e-06 2.1052e-06 -2.13915e-05
-7.79774e-06 2.32021e-06 2.34751e-06 -2.13069e-05
-2.26331e-05 6.70795e-06 6.82508e-06 -1.76764e-05
-1.41284e-05 4.13376e-06 4.28341e-06 -1.99872e-05
-7.37398e-06 2.17991e-06 2.22603e-06 -2.1343e-05
-1.58223e-05 4.69748e-06 4.76779e-06 -1.99402e-05
-1.49819e-05 4.42103e-06 4.52608e-06 -1.99594e-05
-2.13717e-05 6.29501e-06 6.46146e-06 -1.76753e-05
-1.8796e-05 5.41688e-06 5.7339e-06 -1.76715e-05
-6.04894e-06 1.71793e-06 1.85615e-06 -2.15423e-05
-6.94584e-06 2.03371e-06 2.1052e-06 -2.13915e-05
-2.00928e-05 5.86515e-06 6.09758e-06 -1.7674e-05
-1.23665e-05 3.51661e-06 3.79279e-06 -2.00734e-05
-6.50645e-06 1.8808e-06 1.98242e-06 -2.14564e-05
-1.41284e-05 4.13376e-06 4.28341e-06 -1.99872e-05
-1.32579e-05 3.83376e-06 4.03891e-06 -2.00253e-05
-1.8796e-05 5.41688e-06 5.7339e-06 -1.76715e-05
-1.60838e-05 4.45146e-06 4.98531e-06 -1.76818e-05
-5.10313e-06 1.35926e-06 1.60451e-06 -2.17905e-05
-6.04894e-06 1.71793e-06 1.85615e-06 -2.15423e-05
-1.7465e-05 4.94802e-06 5.36443e-06 -1.76728e-05
-1.04954e-05 2.82384e-06 3.2878e-06 -2.02243e-05
-5.5792e-06 1.54279e-06 1.72989e-06 -2.16523e-05
-1.23665e-05 3.51661e-06 3.79279e-06 -2.00734e-05
-1.14477e-05 3.17893e-06 3.54377e-06 -2.0136e-05
-1.60838e-05 4.45146e-06 4.98531e-06 -1.76818e-05
-1.32069e-05 3.37513e-06 4.2136e-06 -1.77156e-05
-4.06274e-06 9.745e-07 1.32353e-06 -2.21703e-05
-5.10313e-06 1.35926e-06 1.60451e-06 -2.17905e-05
-1.46614e-05 3.92302e-06 4.60218e-06 -1.76959e-05
-8.48175e-06 2.07101e-06 2.74746e-06 -2.04725e-05
-4.60342e-06 1.17102e-06 1.47103e-06 -2.19615e-05
-1.04954e-05 2.82384e-06 3.2878e-06 -2.02243e-05
-9.50737e-06 2.45492e-06 3.02248e-06 -2.03391e-05
-1.32069e-05 3.37513e-06 4.2136e-06 -1.77156e-05
-1.00605e-05 2.26272e-06 3.34191e-06 -1.78544e-05
-2.99037e-06 5.94664e-07 1.02673e-06 -2.2663e-05
-4.06274e-06 9.745e-07 1.32353e-06 -2.21703e-05
-1.16849e-05 2.8213e-06 3.7987e-06 -1.7762e-05
-6.30754e-06 1.31687e-06 2.13886e-06 -2.08485e-05
-3.51407e-06 7.71762e-07 1.17528e-06 -2.24071e-05
-8.48175e-06 2.07101e-06 2.74746e-06 -2.04725e-05
-7.41597e-06 1.67825e-06 2.45903e-06 -2.06328e-05
-1.00605e-05 2.26272e-06 3.34191e-06 -1.78544e-05
-6.80046e-06 1.29684e-06 2.35869e-06 -1.81534e-05
-1.89052e-06 4.2396e-07 6.28527e-07 -2.31475e-05
-2.99037e-06 5.94664e-07 1.02673e-06 -2.2663e-05
-8.40764e-06 1.71911e-06 2.86651e-06 -1.79817e-05
-4.1232e-06 8.63769e-07 1.3969e-06 -2.1329e-05
-2.4598e-06 4.76177e-07 8.50123e-07 -2.29191e-05
-6.30754e-06 1.31687e-06 2.13886e-06 -2.08485e-05
-5.19657e-06 1.0332e-06 1.7843e-06 -2.10988e-05
-6.80046e-06 1.29684e-06 2.35869e-06 -1.81534e-05
-3.63847e-06 1.27265e-06 1.01392e-06 -1.88035e-05
-1.11811e-06 6.94824e-07 1.81408e-07 -2.31657e-05
-1.89052e-06 4.2396e-07 6.28527e-07 -2.31475e-05
-5.2178e-06 1.11695e-06 1.75751e-06 -1.84173e-05
-2.26449e-06 1.20358e-06 4.54676e-07 -2.16804e-05
-1.40311e-06 4.60739e-07 4.03872e-07 -2.32614e-05
-4.1232e-06 8.63769e-07 1.3969e-06 -2.1329e-05
-3.13123e-06 8.67637e-07 9.70113e-07 -2.15147e-05
-3.63847e-06 1.27265e-06 1.01392e-06 -1.88035e-05
-1.96772e-06 3.60149e-06 -7.00187e-07 -1.92867e-05
-6.99865e-07 1.88153e-06 -5.06428e-07 -2.18715e-05
-1.11811e-06 6.94824e-07 1.81408e-07 -2.31657e-05
-2.43195e-06 1.9334e-06 2.13665e-07 -1.91393e-05
-1.59956e-06 3.28293e-06 -7.21441e-07 -2.09865e-05
-9.21654e-07 1.2069e-06 -1.22246e-07 -2.27512e-05
-2.26449e-06 1.20358e-06 4.54676e-07 -2.16804e-05
-1.6962e-06 2.01487e-06 -1.36574e-07 -2.16203e-05
-1.96772e-06 3.60149e-06 -7.00187e-07 -1.92867e-05
-2.80439e-06 1.09109e-05 -3.47423e-06 -1.77017e-05
-1.05282e-06 3.42792e-06 -1.0179e-06 -1.78658e-05
-6.99865e-07 1.88153e-06 -5.06428e-07 -2.18715e-05
-2.13034e-06 6.68855e-06 -1.95352e-06 -1.89987e-05
-2.06613e-06 7.06583e-06 -2.14273e-06 -1.74493e-05
-6.70877e-07 2.60018e-06 -8.26846e-07 -2.03007e-05
-1.59956e-06 3.28293e-06 -7.21441e-07 -2.09865e-05
-1.78581e-06 4.9628e-06 -1.36157e-06 -1.96001e-05
-2.80439e-06 1.09109e-05 -3.47423e-06 -1.77017e-05
-5.29369e-06 1.97448e-05 -6.19335e-06 -9.3587e-06
-2.05151e-06 5.64715e-06 -1.54099e-06 -1.0225e-05
-1.05282e-06 3.42792e-06 -1.0179e-06 -1.78658e-05
-3.89161e-06 1.56628e-05 -5.04479e-06 -1.46261e-05
-3.19214e-06 1.20577e-05 -3.79953e-06 -1.0329e-05
-1.5962e-06 4.44979e-06 -1.22297e-06 -1.45296e-05
-2.06613e-06 7.06583e-06 -2.14273e-06 -1.74493e-05
-2.51132e-06 9.54428e-06 -3.01413e-06 -1.44344e-05
-0.000140514 0 6.02201e-05 8.01652e-05
-0.00014294 1.9354e-05 5.29652e-05 2.65641e-05
0.000141872 -1.95958e-05 -5.24042e-05 2.64961e-05
0.000139325 0 -5.97108e-05 8.00078e-05
-0.000137177 8.19914e-06 5.52761e-05 5.05581e-05
-5.4388e-07 -1.27936e-07 2.87921e-07 3.0076e-05
0.000136055 -8.33226e-06 -5.47385e-05 5.04636e-05
-6.14198e-07 0 2.63228e-07 8.17489e-05
-5.71237e-07 -7.87889e-08 2.78583e-07 5.65553e-05
-0.00014294 1.9354e-05 5.29652e-05 2.65641e-05
-0.000154047 3.18716e-05 5.23607e-05 -5.52217e-06
0.000153069 -3.22759e-05 -5.17684e-05 -5.5676e-06
0.000141872 -1.95958e-05 -5.24042e-05 2.64961e-05
-0.000150872 2.68471e-05 5.31537e-05 7.69718e-06
-4.98182e-07 -2.07826e-07 3.02575e-07 -3.86096e-06
0.000149852 -2.71776e-05 -5.25747e-05 7.64151e-06
-5.4388e-07 -1.27936e-07 2.87921e-07 3.0076e-05
-5.21861e-07 -1.69807e-07 2.96429e-07 9.18135e-06
-0.000154047 3.18716e-05 5.23607e-05 -5.52217e-06
-0.000157323 4.11758e-05 4.97773e-05 -2.00597e-05
0.000156421 -4.17003e-05 -4.91658e-05 -2.00943e-05
0.000153069 -3.22759e-05 -5.17684e-05 -5.5676e-06
-0.000155263 3.68331e-05 5.07558e-05 -1.42864e-05
-4.58726e-07 -2.71935e-07 3.1314e-07 -1.95888e-05
0.000154324 -3.73011e-05 -5.01529e-05 -1.43257e-05
-4.98182e-07 -2.07826e-07 3.02575e-07 -3.86096e-06
-4.7658e-07 -2.41923e-07 3.0793e-07 -1.27994e-05
-0.000157323 4.11758e-05 4.97773e-05 -2.00597e-05
-0.000159037 4.55597e-05 4.86333e-05 -2.52434e-05
0.000158201 -4.61828e-05 -4.80078e-05 -2.52682e-05
0.000156421 -4.17003e-05 -4.91658e-05 -2.00943e-05
-0.000158992 4.39458e-05 4.93055e-05 -2.3533e-05
-4.26893e-07 -3.19727e-07 3.1998e-07 -2.5665e-05
0.000158124 -4.45222e-05 -4.86864e-05 -2.35622e-05
-4.58726e-07 -2.71935e-07 3.1314e-07 -1.95888e-05
-4.42767e-07 -2.9755e-07 3.17278e-07 -2.37637e-05
-0.000159037 4.55597e-05 4.86333e-05 -2.52434e-05
-0.000157982 4.7248e-05 4.74574e-05 -2.57943e-05
0.000157199 -4.79464e-05 -4.68223e-05 -2.58101e-05
0.000158201 -4.61828e-05 -4.80078e-05 -2.52682e-05
-0.00015839 4.66381e-05 4.78938e-05 -2.58069e-05
-4.00222e-07 -3.57086e-07 3.2456e-07 -2.67014e-05
0.000157582 -4.73019e-05 -4.72631e-05 -2.58276e-05
-4.26893e-07 -3.19727e-07 3.1998e-07 -2.5665e-05
-4.12438e-07 -3.39704e-07 3.22347e-07 -2.64384e-05
-0.000157982 4.7248e-05 4.74574e-05 -2.57943e-05
-0.000156662 4.72148e-05 4.69059e-05 -2.48775e-05
0.000155916 -4.79651e-05 -4.62648e-05 -2.4884e-05
0.000157199 -4.79464e-05 -4.68223e-05 -2.58101e-05
-0.000157507 4.73727e-05 4.72006e-05 -2.54298e-05
-3.81075e-07 -3.82454e-07 3.27227e-07 -2.5802e-05
0.000156745 -4.80999e-05 -4.6562e-05 -2.54405e-05
-4.00222e-07 -3.57086e-07 3.2456e-07 -2.67014e-05
-3.89902e-07 -3.71206e-07 3.26189e-07 -2.64278e-05
-0.000156662 4.72148e-05 4.69059e-05 -2.48775e-05
-0.000154976 4.67186e-05 4.63962e-05 -2.36926e-05
0.000154255 -4.74996e-05 -4.57523e-05 -2.36931e-05
0.000155916 -4.79651e-05 -4.62648e-05 -2.4884e-05
-0.000155725 4.69866e-05 4.66023e-05 -2.42604e-05
-3.68233e-07 -3.98264e-07 3.28499e-07 -2.45288e-05
0.000154993 -4.77546e-05 -4.59594e-05 -2.42638e-05
-3.81075e-07 -3.82454e-07 3.27227e-07 -2.5802e-05
-3.73857e-07 -3.91446e-07 3.27987e-07 -2.51229e-05
-0.000154976 4.67186e-05 4.63962e-05 -2.36926e-05
-0.000153605 4.60886e-05 4.60786e-05 -2.27522e-05
0.000152899 -4.68842e-05 -4.54348e-05 -2.27489e-05
0.000154255 -4.74996e-05 -4.57523e-05 -2.36931e-05
-0.000154306 4.64067e-05 4.62427e-05 -2.31874e-05
-3.60406e-07 -4.05765e-07 3.28359e-07 -2.3453e-05
0.000153593 -4.71967e-05 -4.55985e-05 -2.31856e-05
-3.68233e-07 -3.98264e-07 3.28499e-07 -2.45288e-05
-3.63865e-07 -4.02905e-07 3.28616e-07 -2.39671e-05
-0.000153605 4.60886e-05 4.60786e-05 -2.27522e-05
-0.000152352 4.55456e-05 4.57743e-05 -2.21013e-05
0.000151655 -4.63445e-05 -4.51331e-05 -2.20969e-05
0.000152899 -4.68842e-05 -4.54348e-05 -2.27489e-05
-0.000152934 4.58024e-05 4.59134e-05 -2.23886e-05
-3.55561e-07 -4.0771e-07 3.27116e-07 -2.27046e-05
0.000152232 -4.66008e-05 -4.52707e-05 -2.23846e-05
-3.60406e-07 -4.05765e-07 3.28359e-07 -2.3453e-05
-3.57698e-07 -4.07295e-07 3.27854e-07 -2.303e-05
-0.000152352 4.55456e-05 4.57743e-05 -2.21013e-05
-0.000151302 4.50919e-05 4.55188e-05 -2.17014e-05
0.000150612 -4.58871e-05 -4.4882e-05 -2.16971e-05
0.000151655 -4.63445e-05 -4.51331e-05 -2.20969e-05
-0.000151821 4.53084e-05 4.56485e-05 -2.18762e-05
-3.52277e-07 -4.05901e-07 3.24934e-07 -2.22333e-05
0.000151128 -4.61061e-05 -4.50093e-05 -2.18717e-05
-3.55561e-07 -4.0771e-07 3.27116e-07 -2.27046e-05
-3.53813e-07 -4.07167e-07 3.26134e-07 -2.2443e-05
-0.000151302 4.50919e-05 4.55188e-05 -2.17014e-05
-0.00015034 4.47235e-05 4.52643e-05 -2.14687e-05
0.000149655 -4.55109e-05 -4.46333e-05 -2.14655e-05
0.000150612 -4.58871e-05 -4.4882e-05 -2.16971e-05
-0.000150805 4.48985e-05 4.53886e-05 -2.15678e-05
-3.49484e-07 -4.02029e-07 3.22077e-07 -2.19596e-05
0.000150117 -4.56901e-05 -4.47546e-05 -2.1564e-05
-3.52277e-07 -4.05901e-07 3.24934e-07 -2.22333e-05
-3.50865e-07 -4.04146e-07 3.23576e-07 -2.20749e-05
-0.00015034 4.47235e-05 4.52643e-05 -2.14687e-05
-0.000149456 4.44097e-05 4.50199e-05 -2.13426e-05
0.000148777 -4.51875e-05 -4.43955e-05 -2.13407e-05
0.000149655 -4.55109e-05 -4.46333e-05 -2.14655e-05
-0.000149895 4.45613e-05 4.51429e-05 -2.13959e-05
-3.46587e-07 -3.97101e-07 3.18724e-07 -2.1809e-05
0.000149213 -4.53441e-05 -4.45151e-05 -2.13933e-05
-3.49484e-07 -4.02029e-07 3.22077e-07 -2.19596e-05
-3.48076e-07 -3.99647e-07 3.20453e-07 -2.18735e-05
-0.000149456 4.44097e-05 4.50199e-05 -2.13426e-05
-0.000148605 4.41317e-05 4.47742e-05 -2.12772e-05
0.000147933 -4.48992e-05 -4.41572e-05 -2.12766e-05
0.000148777 -4.51875e-05 -4.43955e-05 -2.13407e-05
-0.000149026 4.42672e-05 4.48965e-05 -2.13042e-05
-3.43279e-07 -3.91831e-07 3.15047e-07 -2.17313e-05
0.00014835 -4.504e-05 -4.42758e-05 -2.1303e-05
-3.46587e-07 -3.97101e-07 3.18724e-07 -2.1809e-05
-3.44995e-07 -3.9448e-07 3.16918e-07 -2.17631e-05
-0.000148605 4.41317e-05 4.47742e-05 -2.12772e-05
-0.000147777 4.38734e-05 4.453e-05 -2.12453e-05
0.000147112 -4.46308e-05 -4.39207e-05 -2.1246e-05
0.000147933 -4.48992e-05 -4.41572e-05 -2.12766e-05
-0.00014819 4.40008e-05 4.46524e-05 -2.12584e-05
-3.39462e-07 -3.86586e-07 3.11163e-07 -2.16932e-05
0.000147521 -4.47632e-05 -4.40392e-05 -2.12585e-05
-3.43279e-07 -3.91831e-07 3.15047e-07 -2.17313e-05
-3.41436e-07 -3.8919e-07 3.13126e-07 -2.1709e-05
-0.000147777 4.38734e-05 4.453e-05 -2.12453e-05
-0.000146958 4.36262e-05 4.4285e-05 -2.12307e-05
0.000146302 -4.43738e-05 -4.36835e-05 -2.12324e-05
0.000147112 -4.46308e-05 -4.39207e-05 -2.1246e-05
-0.000147366 4.37488e-05 4.44074e-05 -2.12366e-05
-3.35147e-07 -3.81567e-07 3.07163e-07 -2.16759e-05
0.000146706 -4.45013e-05 -4.3802e-05 -2.12378e-05
-3.39462e-07 -3.86586e-07 3.11163e-07 -2.16932e-05
-3.37363e-07 -3.84042e-07 3.09174e-07 -2.16827e-05
-0.000146958 4.36262e-05 4.4285e-05 -2.12307e-05
-0.000146144 4.33843e-05 4.40399e-05 -2.12246e-05
0.000145498 -4.41227e-05 -4.34465e-05 -2.1227e-05
0.000146302 -4.43738e-05 -4.36835e-05 -2.12324e-05
-0.000146551 4.35048e-05 4.41625e-05 -2.1227e-05
-3.30404e-07 -3.76841e-07 3.03105e-07 -2.16687e-05
0.0001459 -4.42478e-05 -4.35651e-05 -2.12291e-05
-3.35147e-07 -3.81567e-07 3.07163e-07 -2.16759e-05
-3.32824e-07 -3.79167e-07 3.05139e-07 -2.16715e-05
-0.000146144 4.33843e-05 4.40399e-05 -2.12246e-05
-0.000145332 4.31449e-05 4.37945e-05 -2.12224e-05
0.000144696 -4.38748e-05 -4.32091e-05 -2.12254e-05
0.000145498 -4.41227e-05 -4.34465e-05 -2.1227e-05
-0.000145738 4.32644e-05 4.39172e-05 -2.12232e-05
-3.25319e-07 -3.72413e-07 2.99028e-07 -2.16661e-05
0.000145097 -4.39985e-05 -4.33278e-05 -2.12259e-05
-3.30404e-07 -3.76841e-07 3.03105e-07 -2.16687e-05
-3.27898e-07 -3.74591e-07 3.01067e-07 -2.1667e-05
-0.000145332 4.31449e-05 4.37945e-05 -2.12224e-05
-0.000144521 4.29065e-05 4.3549e-05 -2.12217e-05
0.000143895 -4.36283e-05 -4.29716e-05 -2.12251e-05
0.000144696 -4.38748e-05 -4.32091e-05 -2.12254e-05
-0.000144926 4.30256e-05 4.36718e-05 -2.12219e-05
-3.19982e-07 -3.68249e-07 2.94956e-07 -2.16655e-05
0.000144296 -4.37514e-05 -4.30904e-05 -2.12251e-05
-3.25319e-07 -3.72413e-07 2.99028e-07 -2.16661e-05
-3.22677e-07 -3.703e-07 2.9699e-07 -2.16657e-05
-0.000144521 4.29065e-05 4.3549e-05 -2.12217e-05
-0.00014371 4.26685e-05 4.33034e-05 -2.12217e-05
0.000143095 -4.33826e-05 -4.2734e-05 -2.12254e-05
0.000143895 -4.36283e-05 -4.29716e-05 -2.12251e-05
-0.000144115 4.27875e-05 4.34262e-05 -2.12217e-05
-3.14466e-07 -3.64307e-07 2.90903e-07 -2.16656e-05
0.000143495 -4.35054e-05 -4.28528e-05 -2.12252e-05
-3.19982e-07 -3.68249e-07 2.94956e-07 -2.16655e-05
-3.17242e-07 -3.66253e-07 2.92926e-07 -2.16655e-05
-0.00014371 4.26685e-05 4.33034e-05 -2.12217e-05
-0.000142899 4.24304e-05 4.30578e-05 -2.12219e-05
0.000142295 -4.31372e-05 -4.24963e-05 -2.12257e-05
0.000143095 -4.33826e-05 -4.2734e-05 -2.12254e-05
-0.000143304 4.25494e-05 4.31806e-05 -2.12218e-05
-3.08835e-07 -3.60541e-07 2.86875e-07 -2.16659e-05
0.000142695 -4.32599e-05 -4.26152e-05 -2.12255e-05
-3.14466e-07 -3.64307e-07 2.90903e-07 -2.16656e-05
-3.11662e-07 -3.62404e-07 2.88886e-07 -2.16657e-05
-0.000142899 4.24304e-05 4.30578e-05 -2.12219e-05
-0.000142088 4.21923e-05 4.28122e-05 -2.1222e-05
0.000141495 -4.2892e-05 -4.22586e-05 -2.1226e-05
0.000142295 -4.31372e-05 -4.24963e-05 -2.12257e-05
-0.000142493 4.23114e-05 4.2935e-05 -2.1222e-05
-3.03136e-07 -3.56909e-07 2.82877e-07 -2.16661e-05
0.000141895 -4.30146e-05 -4.23774e-05 -2.12258e-05
-3.08835e-07 -3.60541e-07 2.86875e-07 -2.16659e-05
-3.05992e-07 -3.5871e-07 2.84872e-07 -2.1666e-05
-0.000142088 4.21923e-05 4.28122e-05 -2.1222e-05
-0.000141276 4.19541e-05 4.25666e-05 -2.12222e-05
0.000140695 -4.26469e-05 -4.20208e-05 -2.12261e-05
0.000141495 -4.2892e-05 -4.22586e-05 -2.1226e-05
-0.000141682 4.20732e-05 4.26894e-05 -2.12221e-05
-2.97403e-07 -3.53379e-07 2.78907e-07 -2.16663e-05
0.000141095 -4.27694e-05 -4.21397e-05 -2.1226e-05
-3.03136e-07 -3.56909e-07 2.82877e-07 -2.16661e-05
-3.00272e-07 -3.55133e-07 2.80888e-07 -2.16662e-05
-0.000141276 4.19541e-05 4.25666e-05 -2.12222e-05
-0.000140465 4.17157e-05 4.23211e-05 -2.12222e-05
0.000139895 -4.24018e-05 -4.1783e-05 -2.12262e-05
0.000140695 -4.26469e-05 -4.20208e-05 -2.12261e-05
-0.000140871 4.18349e-05 4.24439e-05 -2.12222e-05
-2.91662e-07 -3.49925e-07 2.74966e-07 -2.16664e-05
0.000140295 -4.25244e-05 -4.19019e-05 -2.12262e-05
-2.97403e-07 -3.53379e-07 2.78907e-07 -2.16663e-05
-2.94533e-07 -3.51644e-07 2.76933e-07 -2.16663e-05
-0.000140465 4.17157e-05 4.23211e-05 -2.12222e-05
-0.000139654 4.14773e-05 4.20755e-05 -2.12223e-05
0.000139095 -4.21568e-05 -4.15451e-05 -2.12263e-05
0.000139895 -4.24018e-05 -4.1783e-05 -2.12262e-05
-0.000140059 4.15966e-05 4.21983e-05 -2.12223e-05
-2.85929e-07 -3.46526e-07 2.71052e-07 -2.16664e-05
0.000139495 -4.22793e-05 -4.1664e-05 -2.12262e-05
-2.91662e-07 -3.49925e-07 2.74966e-07 -2.16664e-05
-2.88794e-07 -3.4822e-07 2.73006e-07 -2.16664e-05
-0.000139654 4.14773e-05 4.20755e-05 -2.12223e-05
-0.000138842 4.12389e-05 4.183e-05 -2.12223e-05
0.000138295 -4.19118e-05 -4.13072e-05 -2.12263e-05
0.000139095 -4.21568e-05 -4.15451e-05 -2.12263e-05
-0.000139248 4.13581e-05 4.19528e-05 -2.12223e-05
-2.80214e-07 -3.4317e-07 2.67164e-07 -2.16665e-05
0.000138695 -4.20343e-05 -4.14262e-05 -2.12263e-05
-2.85929e-07 -3.46526e-07 2.71052e-07 -2.16664e-05
-2.83069e-07 -3.44843e-07 2.69105e-07 -2.16664e-05
-0.000138842 4.12389e-05 4.183e-05 -2.12223e-05
-0.000138031 4.10004e-05 4.15845e-05 -2.12223e-05
0.000137495 -4.16668e-05 -4.10693e-05 -2.12263e-05
0.000138295 -4.19118e-05 -4.13072e-05 -2.12263e-05
-0.000138437 4.11197e-05 4.17073e-05 -2.12223e-05
-2.74526e-07 -3.39845e-07 2.63302e-07 -2.16665e-05
0.000137895 -4.17893e-05 -4.11883e-05 -2.12263e-05
-2.80214e-07 -3.4317e-07 2.67164e-07 -2.16665e-05
-2.77366e-07 -3.41504e-07 2.6523e-07 -2.16665e-05
-0.000138031 4.10004e-05 4.15845e-05 -2.12223e-05
-0.00013722 4.07619e-05 4.1339e-05 -2.12223e-05
0.000136695 -4.14219e-05 -4.08314e-05 -2.12262e-05
0.000137495 -4.16668e-05 -4.10693e-05 -2.12263e-05
-0.000137625 4.08812e-05 4.14618e-05 -2.12223e-05
-2.68867e-07 -3.36547e-07 2.59463e-07 -2.16665e-05
0.000137095 -4.15444e-05 -4.09503e-05 -2.12262e-05
-2.74526e-07 -3.39845e-07 2.63302e-07 -2.16665e-05
-2.71692e-07 -3.38193e-07 2.61379e-07 -2.16665e-05
-0.00013722 4.07619e-05 4.1339e-05 -2.12223e-05
-0.000136408 4.05234e-05 4.10936e-05 -2.12223e-05
0.000135895 -4.11769e-05 -4.05934e-05 -2.12262e-05
0.000136695 -4.14219e-05 -4.08314e-05 -2.12262e-05
-0.000136814 4.06426e-05 4.12163e-05 -2.12223e-05
-2.6324e-07 -3.3327e-07 2.55647e-07 -2.16664e-05
0.000136295 -4.12994e-05 -4.07124e-05 -2.12262e-05
-2.68867e-07 -3.36547e-07 2.59463e-07 -2.16665e-05
-2.66049e-07 -3.34906e-07 2.57552e-07 -2.16664e-05
-0.000136408 4.05234e-05 4.10936e-05 -2.12223e-05
-0.000135597 4.02848e-05 4.08482e-05 -2.12223e-05
0.000135095 -4.0932e-05 -4.03555e-05 -2.12262e-05
0.000135895 -4.11769e-05 -4.05934e-05 -2.12262e-05
-0.000136003 4.04041e-05 4.09709e-05 -2.12223e-05
-2.57646e-07 -3.30013e-07 2.51854e-07 -2.16664e-05
0.000135495 -4.10545e-05 -4.04744e-05 -2.12262e-05
-2.6324e-07 -3.3327e-07 2.55647e-07 -2.16664e-05
-2.60439e-07 -3.31639e-07 2.53748e-07 -2.16664e-05
-0.000135597 4.02848e-05 4.08482e-05 -2.12223e-05
-0.000134786 4.00462e-05 4.06028e-05 -2.12223e-05
0.000134295 -4.06871e-05 -4.01175e-05 -2.12261e-05
0.000135095 -4.0932e-05 -4.03555e-05 -2.12262e-05
-0.000135192 4.01655e-05 4.07255e-05 -2.12223e-05
-2.52085e-07 -3.26774e-07 2.48082e-07 -2.16664e-05
0.000134695 -4.08096e-05 -4.02365e-05 -2.12262e-05
-2.57646e-07 -3.30013e-07 2.51854e-07 -2.16664e-05
-2.54861e-07 -3.28391e-07 2.49965e-07 -2.16664e-05
-0.000134786 4.00462e-05 4.06028e-05 -2.12223e-05
-0.000133975 3.98076e-05 4.03574e-05 -2.12223e-05
0.000133494 -4.04422e-05 -3.98794e-05 -2.12261e-05
0.000134295 -4.06871e-05 -4.01175e-05 -2.12261e-05
-0.00013438 3.99269e-05 4.04801e-05 -2.12223e-05
-2.46558e-07 -3.23552e-07 2.44333e-07 -2.16664e-05
0.000133894 -4.05647e-05 -3.99985e-05 -2.12261e-05
-2.52085e-07 -3.26774e-07 2.48082e-07 -2.16664e-05
-2.49317e-07 -3.2516e-07 2.46205e-07 -2.16664e-05
-0.000133975 3.98076e-05 4.03574e-05 -2.12223e-05
-0.000133164 3.9569e-05 4.0112e-05 -2.12223e-05
0.000132694 -4.01974e-05 -3.96414e-05 -2.12261e-05
0.000133494 -4.04422e-05 -3.98794e-05 -2.12261e-05
-0.000133569 3.96883e-05 4.02347e-05 -2.12223e-05
-2.41064e-07 -3.20347e-07 2.40605e-07 -2.16664e-05
0.000133094 -4.03198e-05 -3.97604e-05 -2.12261e-05
-2.46558e-07 -3.23552e-07 2.44333e-07 -2.16664e-05
-2.43807e-07 -3.21947e-07 2.42466e-07 -2.16664e-05
-0.000133164 3.9569e-05 4.0112e-05 -2.12223e-05
-0.000132353 3.93304e-05 3.98667e-05 -2.12223e-05
0.000131894 -3.99525e-05 -3.94034e-05 -2.12261e-05
0.000132694 -4.01974e-05 -3.96414e-05 -2.12261e-05
-0.000132758 3.94497e-05 3.99893e-05 -2.12223e-05
-2.35603e-07 -3.17159e-07 2.36898e-07 -2.16664e-05
0.000132294 -4.00749e-05 -3.95224e-05 -2.12261e-05
-2.41064e-07 -3.20347e-07 2.40605e-07 -2.16664e-05
-2.38329e-07 -3.18751e-07 2.38749e-07 -2.16664e-05
-0.000132353 3.93304e-05 3.98667e-05 -2.12223e-05
-0.000131542 3.90918e-05 3.96213e-05 -2.12223e-05
0.000131093 -3.97077e-05 -3.91653e-05 -2.1226e-05
0.000131894 -3.99525e-05 -3.94034e-05 -2.12261e-05
-0.000131947 3.92111e-05 3.9744e-05 -2.12223e-05
-2.30174e-07 -3.13989e-07 2.33213e-07 -2.16663e-05
0.000131493 -3.98301e-05 -3.92843e-05 -2.1226e-05
-2.35603e-07 -3.17159e-07 2.36898e-07 -2.16664e-05
-2.32885e-07 -3.15572e-07 2.35053e-07 -2.16663e-05
-0.000131542 3.90918e-05 3.96213e-05 -2.12223e-05
-0.000130731 3.88531e-05 3.9376e-05 -2.12223e-05
0.000130293 -3.94629e-05 -3.89272e-05 -2.1226e-05
0.000131093 -3.97077e-05 -3.91653e-05 -2.1226e-05
-0.000131136 3.89724e-05 3.94987e-05 -2.12223e-05
-2.24778e-07 -3.10836e-07 2.29549e-07 -2.16663e-05
0.000130693 -3.95853e-05 -3.90462e-05 -2.1226e-05
-2.30174e-07 -3.13989e-07 2.33213e-07 -2.16663e-05
-2.27472e-07 -3.1241e-07 2.31378e-07 -2.16663e-05
-0.000130731 3.88531e-05 3.9376e-05 -2.12223e-05
-0.00012992 3.86144e-05 3.91308e-05 -2.12223e-05
0.000129493 -3.92181e-05 -3.86891e-05 -2.1226e-05
0.000130293 -3.94629e-05 -3.89272e-05 -2.1226e-05
-0.000130325 3.87338e-05 3.92534e-05 -2.12223e-05
-2.19415e-07 -3.077e-07 2.25906e-07 -2.16663e-05
0.000129893 -3.93405e-05 -3.88081e-05 -2.1226e-05
-2.24778e-07 -3.10836e-07 2.29549e-07 -2.16663e-05
-2.22093e-07 -3.09266e-07 2.27725e-07 -2.16663e-05
-0.00012992 3.86144e-05 3.91308e-05 -2.12223e-05
-0.000129109 3.83757e-05 3.88855e-05 -2.12223e-05
0.000128692 -3.89733e-05 -3.84509e-05 -2.12259e-05
0.000129493 -3.92181e-05 -3.86891e-05 -2.1226e-05
-0.000129514 3.84951e-05 3.90081e-05 -2.12223e-05
-2.14083e-07 -3.04582e-07 2.22285e-07 -2.16663e-05
0.000129092 -3.90957e-05 -3.857e-05 -2.12259e-05
-2.19415e-07 -3.077e-07 2.25906e-07 -2.16663e-05
-2.16745e-07 -3.06139e-07 2.24093e-07 -2.16663e-05
-0.000129109 3.83757e-05 3.88855e-05 -2.12223e-05
-0.000128298 3.8137e-05 3.86403e-05 -2.12223e-05
0.000127892 -3.87285e-05 -3.82128e-05 -2.12259e-05
0.000128692 -3.89733e-05 -3.84509e-05 -2.12259e-05
-0.000128703 3.82564e-05 3.87629e-05 -2.12223e-05
-2.08784e-07 -3.01481e-07 2.18685e-07 -2.16662e-05
0.000128292 -3.88509e-05 -3.83318e-05 -2.12259e-05
-2.14083e-07 -3.04582e-07 2.22285e-07 -2.16663e-05
-2.11429e-07 -3.03029e-07 2.20482e-07 -2.16663e-05
-0.000128298 3.8137e-05 3.86403e-05 -2.12223e-05
-0.000127487 3.78983e-05 3.83951e-05 -2.12223e-05
0.000127091 -3.84838e-05 -3.79746e-05 -2.12259e-05
0.000127892 -3.87285e-05 -3.82128e-05 -2.12259e-05
-0.000127892 3.80177e-05 3.85177e-05 -2.12223e-05
-2.03516e-07 -2.98399e-07 2.15106e-07 -2.16662e-05
0.000127491 -3.86061e-05 -3.80937e-05 -2.12259e-05
-2.08784e-07 -3.01481e-07 2.18685e-07 -2.16662e-05
-2.06146e-07 -2.99938e-07 2.16893e-07 -2.16662e-05
-0.000127487 3.78983e-05 3.83951e-05 -2.12223e-05
-0.000126676 3.76595e-05 3.81499e-05 -2.12222e-05
0.000126291 -3.8239e-05 -3.77364e-05 -2.12258e-05
0.000127091 -3.84838e-05 -3.79746e-05 -2.12259e-05
-0.000127081 3.77789e-05 3.82725e-05 -2.12223e-05
-1.9828e-07 -2.95335e-07 2.11549e-07 -2.16662e-05
0.000126691 -3.83614e-05 -3.78555e-05 -2.12258e-05
-2.03516e-07 -2.98399e-07 2.15106e-07 -2.16662e-05
-2.00894e-07 -2.96865e-07 2.13325e-07 -2.16662e-05
-0.000126676 3.76595e-05 3.81499e-05 -2.12222e-05
-0.000125865 3.74208e-05 3.79047e-05 -2.12222e-05
0.00012549 -3.79943e-05 -3.74981e-05 -2.12258e-05
0.000126291 -3.8239e-05 -3.77364e-05 -2.12258e-05
-0.00012627 3.75402e-05 3.80273e-05 -2.12222e-05
-1.93077e-07 -2.92288e-07 2.08014e-07 -2.16662e-05
0.00012589 -3.81167e-05 -3.76173e-05 -2.12258e-05
-1.9828e-07 -2.95335e-07 2.11549e-07 -2.16662e-05
-1.95675e-07 -2.93809e-07 2.09779e-07 -2.16662e-05
-0.000125865 3.74208e-05 3.79047e-05 -2.12222e-05
-0.000125054 3.7182e-05 3.76595e-05 -2.12222e-05
0.000124689 -3.77496e-05 -3.72599e-05 -2.12258e-05
0.00012549 -3.79943e-05 -3.74981e-05 -2.12258e-05
-0.00012546 3.73014e-05 3.77821e-05 -2.12222e-05
-1.87905e-07 -2.8926e-07 2.04499e-07 -2.16662e-05
0.00012509 -3.7872e-05 -3.7379e-05 -2.12258e-05
-1.93077e-07 -2.92288e-07 2.08014e-07 -2.16662e-05
-1.90487e-07 -2.90772e-07 2.06254e-07 -2.16662e-05
-0.000125054 3.7182e-05 3.76595e-05 -2.12222e-05
-0.000124243 3.69432e-05 3.74144e-05 -2.12222e-05
0.000123889 -3.75049e-05 -3.70216e-05 -2.12257e-05
0.000124689 -3.77496e-05 -3.72599e-05 -2.12258e-05
-0.000124649 3.70626e-05 3.7537e-05 -2.12222e-05
-1.82766e-07 -2.8625e-07 2.01007e-07 -2.16661e-05
0.000124289 -3.76273e-05 -3.71408e-05 -2.12257e-05
-1.87905e-07 -2.8926e-07 2.04499e-07 -2.16662e-05
-1.85331e-07 -2.87752e-07 2.0275e-07 -2.16661e-05
-0.000124243 3.69432e-05 3.74144e-05 -2.12222e-05
-0.000123433 3.67044e-05 3.71693e-05 -2.12222e-05
0.000123088 -3.72603e-05 -3.67834e-05 -2.12257e-05
0.000123889 -3.75049e-05 -3.70216e-05 -2.12257e-05
-0.000123838 3.68238e-05 3.72918e-05 -2.12222e-05
-1.77658e-07 -2.83258e-07 1.97535e-07 -2.16661e-05
0.000123488 -3.73826e-05 -3.69025e-05 -2.12257e-05
-1.82766e-07 -2.8625e-07 2.01007e-07 -2.16661e-05
-1.80208e-07 -2.84751e-07 1.99268e-07 -2.16661e-05
-0.000123433 3.67044e-05 3.71693e-05 -2.12222e-05
-0.000122622 3.64656e-05 3.69242e-05 -2.12222e-05
0.000122287 -3.70156e-05 -3.6545e-05 -2.12257e-05
0.000123088 -3.72603e-05 -3.67834e-05 -2.12257e-05
-0.000123027 3.6585e-05 3.70468e-05 -2.12222e-05
-1.72582e-07 -2.80284e-07 1.94085e-07 -2.16661e-05
0.000122688 -3.7138e-05 -3.66642e-05 -2.12257e-05
-1.77658e-07 -2.83258e-07 1.97535e-07 -2.16661e-05
-1.75116e-07 -2.81768e-07 1.95808e-07 -2.16661e-05
-0.000122622 3.64656e-05 3.69242e-05 -2.12222e-05
-0.000121811 3.62267e-05 3.66791e-05 -2.12222e-05
0.000121487 -3.6771e-05 -3.63067e-05 -2.12256e-05
0.000122287 -3.70156e-05 -3.6545e-05 -2.12257e-05
-0.000122217 3.63461e-05 3.68017e-05 -2.12222e-05
-1.67539e-07 -2.77328e-07 1.90657e-07 -2.16661e-05
0.000121887 -3.68933e-05 -3.64259e-05 -2.12256e-05
-1.72582e-07 -2.80284e-07 1.94085e-07 -2.16661e-05
-1.70056e-07 -2.78804e-07 1.92369e-07 -2.16661e-05
-0.000121811 3.62267e-05 3.66791e-05 -2.12222e-05
-0.000121001 3.59878e-05 3.64341e-05 -2.12222e-05
0.000120686 -3.65264e-05 -3.60684e-05 -2.12256e-05
0.000121487 -3.6771e-05 -3.63067e-05 -2.12256e-05
-0.000121406 3.61073e-05 3.65566e-05 -2.12222e-05
-1.62527e-07 -2.74391e-07 1.87251e-07 -2.1666e-05
0.000121086 -3.66487e-05 -3.61875e-05 -2.12256e-05
-1.67539e-07 -2.77328e-07 1.90657e-07 -2.16661e-05
-1.65029e-07 -2.75857e-07 1.88951e-07 -2.16661e-05
-0.000121001 3.59878e-05 3.64341e-05 -2.12222e-05
-0.00012019 3.5749e-05 3.61891e-05 -2.12222e-05
0.000119885 -3.62818e-05 -3.583e-05 -2.12255e-05
0.000120686 -3.65264e-05 -3.60684e-05 -2.12256e-05
-0.000120595 3.58684e-05 3.63116e-05 -2.12222e-05
-1.57548e-07 -2.71472e-07 1.83866e-07 -2.1666e-05
0.000120286 -3.64041e-05 -3.59492e-05 -2.12256e-05
-1.62527e-07 -2.74391e-07 1.87251e-07 -2.1666e-05
-1.60033e-07 -2.72929e-07 1.85555e-07 -2.1666e-05
-0.00012019 3.5749e-05 3.61891e-05 -2.12222e-05
-0.00011938 3.55101e-05 3.59441e-05 -2.12221e-05
0.000119084 -3.60373e-05 -3.55916e-05 -2.12255e-05
0.000119885 -3.62818e-05 -3.583e-05 -2.12255e-05
-0.000119785 3.56295e-05 3.60666e-05 -2.12221e-05
-1.526e-07 -2.68571e-07 1.80502e-07 -2.1666e-05
0.000119485 -3.61595e-05 -3.57108e-05 -2.12255e-05
-1.57548e-07 -2.71472e-07 1.83866e-07 -2.1666e-05
-1.5507e-07 -2.70019e-07 1.82181e-07 -2.1666e-05
-0.00011938 3.55101e-05 3.59441e-05 -2.12221e-05
-0.000118569 3.52711e-05 3.56991e-05 -2.12221e-05
0.000118284 -3.57927e-05 -3.53532e-05 -2.12255e-05
0.000119084 -3.60373e-05 -3.55916e-05 -2.12255e-05
-0.000118974 3.53906e-05 3.58216e-05 -2.12221e-05
-1.47685e-07 -2.65689e-07 1.7716e-07 -2.1666e-05
0.000118684 -3.5915e-05 -3.54724e-05 -2.12255e-05
-1.526e-07 -2.68571e-07 1.80502e-07 -2.1666e-05
-1.50139e-07 -2.67128e-07 1.78829e-07 -2.1666e-05
-0.000118569 3.52711e-05 3.56991e-05 -2.12221e-05
-0.000117759 3.50322e-05 3.54541e-05 -2.12221e-05
0.000117483 -3.55482e-05 -3.51148e-05 -2.12254e-05
0.000118284 -3.57927e-05 -3.53532e-05 -2.12255e-05
-0.000118164 3.51517e-05 3.55766e-05 -2.12221e-05
-1.42802e-07 -2.62825e-07 1.7384e-07 -2.16659e-05
0.000117883 -3.56704e-05 -3.5234e-05 -2.12255e-05
-1.47685e-07 -2.65689e-07 1.7716e-07 -2.1666e-05
-1.45239e-07 -2.64255e-07 1.75498e-07 -2.1666e-05
-0.000117759 3.50322e-05 3.54541e-05 -2.12221e-05
-0.000116948 3.47932e-05 3.52092e-05 -2.12221e-05
0.000116682 -3.53037e-05 -3.48763e-05 -2.12254e-05
0.000117483 -3.55482e-05 -3.51148e-05 -2.12254e-05
-0.000117353 3.49127e-05 3.53317e-05 -2.12221e-05
-1.37951e-07 -2.5998e-07 1.70542e-07 -2.16659e-05
0.000117082 -3.54259e-05 -3.49955e-05 -2.12254e-05
-1.42802e-07 -2.62825e-07 1.7384e-07 -2.16659e-05
-1.40372e-07 -2.614e-07 1.72188e-07 -2.16659e-05
-0.000116948 3.47932e-05 3.52092e-05 -2.12221e-05
-0.000116138 3.45543e-05 3.49643e-05 -2.12221e-05
0.000115881 -3.50592e-05 -3.46378e-05 -2.12254e-05
0.000116682 -3.53037e-05 -3.48763e-05 -2.12254e-05
-0.000116543 3.46738e-05 3.50867e-05 -2.12221e-05
-1.33132e-07 -2.57153e-07 1.67265e-07 -2.16659e-05
0.000116281 -3.51814e-05 -3.47571e-05 -2.12254e-05
-1.37951e-07 -2.5998e-07 1.70542e-07 -2.16659e-05
-1.35538e-07 -2.58564e-07 1.68901e-07 -2.16659e-05
-0.000116138 3.45543e-05 3.49643e-05 -2.12221e-05
-0.000115327 3.43153e-05 3.47194e-05 -2.12221e-05
0.00011508 -3.48147e-05 -3.43993e-05 -2.12253e-05
0.000115881 -3.50592e-05 -3.46378e-05 -2.12254e-05
-0.000115732 3.44348e-05 3.48418e-05 -2.12221e-05
-1.28346e-07 -2.54344e-07 1.6401e-07 -2.16659e-05
0.00011548 -3.49369e-05 -3.45186e-05 -2.12253e-05
-1.33132e-07 -2.57153e-07 1.67265e-07 -2.16659e-05
-1.30735e-07 -2.55746e-07 1.65635e-07 -2.16659e-05
-0.000115327 3.43153e-05 3.47194e-05 -2.12221e-05
-0.000114517 3.40763e-05 3.44745e-05 -2.12221e-05
0.000114279 -3.45702e-05 -3.41608e-05 -2.12253e-05
0.00011508 -3.48147e-05 -3.43993e-05 -2.12253e-05
-0.000114922 3.41958e-05 3.4597e-05 -2.12221e-05
-1.23592e-07 -2.51554e-07 1.60777e-07 -2.16658e-05
0.000114679 -3.46925e-05 -3.42801e-05 -2.12253e-05
-1.28346e-07 -2.54344e-07 1.6401e-07 -2.16659e-05
-1.25965e-07 -2.52947e-07 1.62391e-07 -2.16658e-05
-0.000114517 3.40763e-05 3.44745e-05 -2.12221e-05
-0.000113706 3.38373e-05 3.42297e-05 -2.1222e-05
0.000113478 -3.43258e-05 -3.39223e-05 -2.12253e-05
0.000114279 -3.45702e-05 -3.41608e-05 -2.12253e-05
-0.000114112 3.39568e-05 3.43521e-05 -2.1222e-05
-1.1887e-07 -2.48782e-07 1.57565e-07 -2.16658e-05
0.000113878 -3.4448e-05 -3.40416e-05 -2.12253e-05
-1.23592e-07 -2.51554e-07 1.60777e-07 -2.16658e-05
-1.21227e-07 -2.50166e-07 1.59168e-07 -2.16658e-05
-0.000113706 3.38373e-05 3.42297e-05 -2.1222e-05
-0.000112896 3.35982e-05 3.39848e-05 -2.1222e-05
0.000112677 -3.40814e-05 -3.36837e-05 -2.12252e-05
0.000113478 -3.43258e-05 -3.39223e-05 -2.12253e-05
-0.000113301 3.37177e-05 3.41073e-05 -2.1222e-05
-1.1418e-07 -2.46029e-07 1.54375e-07 -2.16658e-05
0.000113077 -3.42036e-05 -3.3803e-05 -2.12252e-05
-1.1887e-07 -2.48782e-07 1.57565e-07 -2.16658e-05
-1.16521e-07 -2.47403e-07 1.55967e-07 -2.16658e-05
-0.000112896 3.35982e-05 3.39848e-05 -2.1222e-05
-0.000112086 3.33591e-05 3.374e-05 -2.1222e-05
0.000111876 -3.3837e-05 -3.34452e-05 -2.12252e-05
0.000112677 -3.40814e-05 -3.36837e-05 -2.12252e-05
-0.000112491 3.34787e-05 3.38624e-05 -2.1222e-05
-1.09523e-07 -2.43294e-07 1.51207e-07 -2.16658e-05
0.000112276 -3.39592e-05 -3.35644e-05 -2.12252e-05
-1.1418e-07 -2.46029e-07 1.54375e-07 -2.16658e-05
-1.11847e-07 -2.44659e-07 1.52789e-07 -2.16658e-05
-0.000112086 3.33591e-05 3.374e-05 -2.1222e-05
-0.000111276 3.31201e-05 3.34952e-05 -2.1222e-05
0.000111075 -3.35926e-05 -3.32066e-05 -2.12251e-05
0.000111876 -3.3837e-05 -3.34452e-05 -2.12252e-05
-0.000111681 3.32396e-05 3.36176e-05 -2.1222e-05
-1.04898e-07 -2.40578e-07 1.48061e-07 -2.16657e-05
0.000111475 -3.37148e-05 -3.33259e-05 -2.12252e-05
-1.09523e-07 -2.43294e-07 1.51207e-07 -2.16658e-05
-1.07206e-07 -2.41934e-07 1.49631e-07 -2.16657e-05
-0.000111276 3.31201e-05 3.34952e-05 -2.1222e-05
-0.000110465 3.2881e-05 3.32505e-05 -2.1222e-05
0.000110273 -3.33482e-05 -3.29679e-05 -2.12251e-05
0.000111075 -3.35926e-05 -3.32066e-05 -2.12251e-05
-0.000110871 3.30005e-05 3.33729e-05 -2.1222e-05
-1.00305e-07 -2.37881e-07 1.44937e-07 -2.16657e-05
0.000110674 -3.34704e-05 -3.30872e-05 -2.12251e-05
-1.04898e-07 -2.40578e-07 1.48061e-07 -2.16657e-05
-1.02597e-07 -2.39227e-07 1.46496e-07 -2.16657e-05
-0.000110465 3.2881e-05 3.32505e-05 -2.1222e-05
-0.000109655 3.26419e-05 3.30057e-05 -2.1222e-05
0.000109472 -3.31039e-05 -3.27293e-05 -2.12251e-05
0.000110273 -3.33482e-05 -3.29679e-05 -2.12251e-05
-0.00011006 3.27614e-05 3.31281e-05 -2.1222e-05
-9.57448e-08 -2.35202e-07 1.41834e-07 -2.16657e-05
0.000109873 -3.3226e-05 -3.28486e-05 -2.12251e-05
-1.00305e-07 -2.37881e-07 1.44937e-07 -2.16657e-05
-9.80208e-08 -2.36539e-07 1.43383e-07 -2.16657e-05
-0.000109655 3.26419e-05 3.30057e-05 -2.1222e-05
-0.000108845 3.24027e-05 3.2761e-05 -2.12219e-05
0.000108671 -3.28595e-05 -3.24906e-05 -2.1225e-05
0.000109472 -3.31039e-05 -3.27293e-05 -2.12251e-05
-0.00010925 3.25223e-05 3.28834e-05 -2.1222e-05
-9.12169e-08 -2.32542e-07 1.38754e-07 -2.16656e-05
0.000109072 -3.29817e-05 -3.261e-05 -2.1225e-05
-9.57448e-08 -2.35202e-07 1.41834e-07 -2.16657e-05
-9.34768e-08 -2.33869e-07 1.40291e-07 -2.16657e-05
-0.000108845 3.24027e-05 3.2761e-05 -2.12219e-05
-0.000108035 3.21636e-05 3.25163e-05 -2.12219e-05
0.00010787 -3.26152e-05 -3.22519e-05 -2.1225e-05
0.000108671 -3.28595e-05 -3.24906e-05 -2.1225e-05
-0.00010844 3.22832e-05 3.26387e-05 -2.12219e-05
-8.67216e-08 -2.299e-07 1.35695e-07 -2.16656e-05
0.00010827 -3.27374e-05 -3.23713e-05 -2.1225e-05
-9.12169e-08 -2.32542e-07 1.38754e-07 -2.16656e-05
-8.89652e-08 -2.31218e-07 1.37222e-07 -2.16656e-05
-0.000108035 3.21636e-05 3.25163e-05 -2.12219e-05
-0.000107225 3.19244e-05 3.22716e-05 -2.12219e-05
0.000107068 -3.23709e-05 -3.20132e-05 -2.12249e-05
0.00010787 -3.26152e-05 -3.22519e-05 -2.1225e-05
-0.00010763 3.2044e-05 3.2394e-05 -2.12219e-05
-8.22586e-08 -2.27277e-07 1.32658e-07 -2.16656e-05
0.000107469 -3.24931e-05 -3.21326e-05 -2.1225e-05
-8.67216e-08 -2.299e-07 1.35695e-07 -2.16656e-05
-8.44861e-08 -2.28586e-07 1.34174e-07 -2.16656e-05
-0.000107225 3.19244e-05 3.22716e-05 -2.12219e-05
-0.000106415 3.16852e-05 3.2027e-05 -2.12219e-05
0.000106267 -3.21267e-05 -3.17745e-05 -2.12249e-05
0.000107068 -3.23709e-05 -3.20132e-05 -2.12249e-05
-0.00010682 3.18048e-05 3.21493e-05 -2.12219e-05
-7.78282e-08 -2.24673e-07 1.29643e-07 -2.16656e-05
0.000106668 -3.22488e-05 -3.18939e-05 -2.12249e-05
-8.22586e-08 -2.27277e-07 1.32658e-07 -2.16656e-05
-8.00394e-08 -2.25973e-07 1.31148e-07 -2.16656e-05
-0.000106415 3.16852e-05 3.2027e-05 -2.12219e-05
-0.000105605 3.1446e-05 3.17824e-05 -2.12219e-05
0.000105466 -3.18824e-05 -3.15358e-05 -2.12249e-05
0.000106267 -3.21267e-05 -3.17745e-05 -2.12249e-05
-0.00010601 3.15656e-05 3.19047e-05 -2.12219e-05
-7.34303e-08 -2.22087e-07 1.2665e-07 -2.16655e-05
0.000105866 -3.20045e-05 -3.16551e-05 -2.12249e-05
-7.78282e-08 -2.24673e-07 1.29643e-07 -2.16656e-05
-7.56252e-08 -2.23378e-07 1.28144e-07 -2.16655e-05
-0.000105605 3.1446e-05 3.17824e-05 -2.12219e-05
-0.000104795 3.12068e-05 3.15378e-05 -2.12219e-05
0.000104664 -3.16382e-05 -3.1297e-05 -2.12248e-05
0.000105466 -3.18824e-05 -3.15358e-05 -2.12249e-05
-0.0001052 3.13264e-05 3.16601e-05 -2.12219e-05
-6.90648e-08 -2.1952e-07 1.23679e-07 -2.16655e-05
0.000105065 -3.17603e-05 -3.14164e-05 -2.12249e-05
-7.34303e-08 -2.22087e-07 1.2665e-07 -2.16655e-05
-7.12435e-08 -2.20801e-07 1.25162e-07 -2.16655e-05
-0.000104795 3.12068e-05 3.15378e-05 -2.12219e-05
-0.000103985 3.09676e-05 3.12932e-05 -2.12219e-05
0.000103863 -3.13939e-05 -3.10582e-05 -2.12248e-05
0.000104664 -3.16382e-05 -3.1297e-05 -2.12248e-05
-0.00010439 3.10872e-05 3.14155e-05 -2.12219e-05
-6.4732e-08 -2.16972e-07 1.2073e-07 -2.16655e-05
0.000104264 -3.15161e-05 -3.11776e-05 -2.12248e-05
-6.90648e-08 -2.1952e-07 1.23679e-07 -2.16655e-05
-6.68943e-08 -2.18244e-07 1.22202e-07 -2.16655e-05
-0.000103985 3.09676e-05 3.12932e-05 -2.12219e-05
-0.000103175 3.07283e-05 3.10486e-05 -2.12218e-05
0.000103062 -3.11497e-05 -3.08194e-05 -2.12248e-05
0.000103863 -3.13939e-05 -3.10582e-05 -2.12248e-05
-0.00010358 3.08479e-05 3.11709e-05 -2.12218e-05
-6.04316e-08 -2.14443e-07 1.17803e-07 -2.16654e-05
0.000103462 -3.12718e-05 -3.09388e-05 -2.12248e-05
-6.4732e-08 -2.16972e-07 1.2073e-07 -2.16655e-05
-6.25778e-08 -2.15705e-07 1.19264e-07 -2.16655e-05
-0.000103175 3.07283e-05 3.10486e-05 -2.12218e-05
-0.000102365 3.0489e-05 3.0804e-05 -2.12218e-05
0.00010226 -3.09056e-05 -3.05805e-05 -2.12247e-05
0.000103062 -3.11497e-05 -3.08194e-05 -2.12248e-05
-0.00010277 3.06087e-05 3.09263e-05 -2.12218e-05
-5.61639e-08 -2.11933e-07 1.14898e-07 -2.16654e-05
0.000102661 -3.10277e-05 -3.07e-05 -2.12247e-05
-6.04316e-08 -2.14443e-07 1.17803e-07 -2.16654e-05
-5.82937e-08 -2.13185e-07 1.16348e-07 -2.16654e-05
-0.000102365 3.0489e-05 3.0804e-05 -2.12218e-05
-0.000101555 3.02497e-05 3.05595e-05 -2.12218e-05
0.000101459 -3.06614e-05 -3.03417e-05 -2.12247e-05
0.00010226 -3.09056e-05 -3.05805e-05 -2.12247e-05
-0.00010196 3.03694e-05 3.06818e-05 -2.12218e-05
-5.19288e-08 -2.09441e-07 1.12016e-07 -2.16654e-05
0.000101859 -3.07835e-05 -3.04611e-05 -2.12247e-05
-5.61639e-08 -2.11933e-07 1.14898e-07 -2.16654e-05
-5.40423e-08 -2.10684e-07 1.13454e-07 -2.16654e-05
-0.000101555 3.02497e-05 3.05595e-05 -2.12218e-05
-0.000100745 3.00104e-05 3.0315e-05 -2.12218e-05
0.000100657 -3.04173e-05 -3.01028e-05 -2.12246e-05
0.000101459 -3.06614e-05 -3.03417e-05 -2.12247e-05
-0.00010115 3.01301e-05 3.04373e-05 -2.12218e-05
-4.77263e-08 -2.06968e-07 1.09155e-07 -2.16654e-05
0.000101058 -3.05393e-05 -3.02223e-05 -2.12247e-05
-5.19288e-08 -2.09441e-07 1.12016e-07 -2.16654e-05
-4.98235e-08 -2.08202e-07 1.10582e-07 -2.16654e-05
-0.000100745 3.00104e-05 3.0315e-05 -2.12218e-05
-9.99357e-05 2.97711e-05 3.00705e-05 -2.12218e-05
9.98556e-05 -3.01731e-05 -2.98639e-05 -2.12246e-05
0.000100657 -3.04173e-05 -3.01028e-05 -2.12246e-05
-0.000100341 2.98907e-05 3.01928e-05 -2.12218e-05
-4.35564e-08 -2.04514e-07 1.06316e-07 -2.16653e-05
0.000100256 -3.02952e-05 -2.99834e-05 -2.12246e-05
-4.77263e-08 -2.06968e-07 1.09155e-07 -2.16654e-05
-4.56373e-08 -2.05739e-07 1.07733e-07 -2.16653e-05
-9.99357e-05 2.97711e-05 3.00705e-05 -2.12218e-05
-9.91259e-05 2.95317e-05 2.98261e-05 -2.12217e-05
9.9054e-05 -2.9929e-05 -2.9625e-05 -2.12246e-05
9.98556e-05 -3.01731e-05 -2.98639e-05 -2.12246e-05
-9.95308e-05 2.96514e-05 2.99483e-05 -2.12218e-05
-3.94192e-08 -2.02079e-07 1.03499e-07 -2.16653e-05
9.94548e-05 -3.00511e-05 -2.97445e-05 -2.12246e-05
-4.35564e-08 -2.04514e-07 1.06316e-07 -2.16653e-05
-4.14838e-08 -2.03294e-07 1.04905e-07 -2.16653e-05
-9.91259e-05 2.95317e-05 2.98261e-05 -2.12217e-05
-9.83162e-05 2.92924e-05 2.95817e-05 -2.12217e-05
9.82524e-05 -2.96849e-05 -2.93861e-05 -2.12245e-05
9.9054e-05 -2.9929e-05 -2.9625e-05 -2.12246e-05
-9.87211e-05 2.94121e-05 2.97039e-05 -2.12217e-05
-3.53147e-08 -1.99663e-07 1.00705e-07 -2.16653e-05
9.86532e-05 -2.9807e-05 -2.95055e-05 -2.12245e-05
-3.94192e-08 -2.02079e-07 1.03499e-07 -2.16653e-05
-3.73629e-08 -2.00869e-07 1.02099e-07 -2.16653e-05
-9.83162e-05 2.92924e-05 2.95817e-05 -2.12217e-05
-9.75065e-05 2.9053e-05 2.93372e-05 -2.12217e-05
9.74507e-05 -2.94409e-05 -2.91471e-05 -2.12245e-05
9.82524e-05 -2.96849e-05 -2.93861e-05 -2.12245e-05
-9.79114e-05 2.91727e-05 2.94594e-05 -2.12217e-05
-3.12429e-08 -1.97266e-07 9.79323e-08 -2.16652e-05
9.78516e-05 -2.95629e-05 -2.92666e-05 -2.12245e-05
-3.53147e-08 -1.99663e-07 1.00705e-07 -2.16653e-05
-3.32748e-08 -1.98462e-07 9.93157e-08 -2.16653e-05
-9.75065e-05 2.9053e-05 2.93372e-05 -2.12217e-05
-9.66969e-05 2.88136e-05 2.90929e-05 -2.12217e-05
9.66491e-05 -2.91968e-05 -2.89081e-05 -2.12244e-05
9.74507e-05 -2.94409e-05 -2.91471e-05 -2.12245e-05
-9.71017e-05 2.89333e-05 2.9215e-05 -2.12217e-05
-2.72039e-08 -1.94887e-07 9.5182e-08 -2.16652e-05
9.70499e-05 -2.93188e-05 -2.90276e-05 -2.12245e-05
-3.12429e-08 -1.97266e-07 9.79323e-08 -2.16652e-05
-2.92193e-08 -1.96074e-07 9.65543e-08 -2.16652e-05
-9.66969e-05 2.88136e-05 2.90929e-05 -2.12217e-05
-9.58873e-05 2.85742e-05 2.88485e-05 -2.12217e-05
9.58474e-05 -2.89528e-05 -2.86691e-05 -2.12244e-05
9.66491e-05 -2.91968e-05 -2.89081e-05 -2.12244e-05
-9.62921e-05 2.86939e-05 2.89707e-05 -2.12217e-05
-2.31975e-08 -1.92528e-07 9.24538e-08 -2.16652e-05
9.62482e-05 -2.90748e-05 -2.87886e-05 -2.12244e-05
-2.72039e-08 -1.94887e-07 9.5182e-08 -2.16652e-05
-2.51966e-08 -1.93705e-07 9.38151e-08 -2.16652e-05
-9.58873e-05 2.85742e-05 2.88485e-05 -2.12217e-05
-9.50777e-05 2.83347e-05 2.86041e-05 -2.12217e-05
9.50456e-05 -2.87088e-05 -2.84301e-05 -2.12244e-05
9.58474e-05 -2.89528e-05 -2.86691e-05 -2.12244e-05
-9.54825e-05 2.84544e-05 2.87263e-05 -2.12217e-05
-1.9224e-08 -1.90188e-07 8.97478e-08 -2.16652e-05
9.54465e-05 -2.88308e-05 -2.85496e-05 -2.12244e-05
-2.31975e-08 -1.92528e-07 9.24538e-08 -2.16652e-05
-2.12067e-08 -1.91355e-07 9.10981e-08 -2.16652e-05
-9.50777e-05 2.83347e-05 2.86041e-05 -2.12217e-05
-9.42682e-05 2.80953e-05 2.83598e-05 -2.12216e-05
9.42438e-05 -2.84648e-05 -2.8191e-05 -2.12243e-05
9.50456e-05 -2.87088e-05 -2.84301e-05 -2.12244e-05
-9.46729e-05 2.8215e-05 2.8482e-05 -2.12217e-05
-1.52832e-08 -1.87866e-07 8.70641e-08 -2.16651e-05
9.46447e-05 -2.85868e-05 -2.83106e-05 -2.12243e-05
-1.9224e-08 -1.90188e-07 8.97478e-08 -2.16652e-05
-1.72495e-08 -1.89025e-07 8.84032e-08 -2.16651e-05
-9.42682e-05 2.80953e-05 2.83598e-05 -2.12216e-05
-9.34586e-05 2.78558e-05 2.81155e-05 -2.12216e-05
9.3442e-05 -2.82208e-05 -2.7952e-05 -2.12243e-05
9.42438e-05 -2.84648e-05 -2.8191e-05 -2.12243e-05
-9.38634e-05 2.79755e-05 2.82377e-05 -2.12216e-05
-1.13752e-08 -1.85564e-07 8.44025e-08 -2.16651e-05
9.38429e-05 -2.83428e-05 -2.80715e-05 -2.12243e-05
-1.52832e-08 -1.87866e-07 8.70641e-08 -2.16651e-05
-1.33251e-08 -1.86713e-07 8.57305e-08 -2.16651e-05
-9.34586e-05 2.78558e-05 2.81155e-05 -2.12216e-05
-9.26492e-05 2.76163e-05 2.78712e-05 -2.12216e-05
9.26402e-05 -2.79769e-05 -2.77129e-05 -2.12242e-05
9.3442e-05 -2.82208e-05 -2.7952e-05 -2.12243e-05
-9.30539e-05 2.7736e-05 2.79934e-05 -2.12216e-05
-7.50007e-09 -1.83281e-07 8.17631e-08 -2.16651e-05
9.30411e-05 -2.80988e-05 -2.78324e-05 -2.12243e-05
-1.13752e-08 -1.85564e-07 8.44025e-08 -2.16651e-05
-9.43357e-09 -1.8442e-07 8.308e-08 -2.16651e-05
-9.26492e-05 2.76163e-05 2.78712e-05 -2.12216e-05
-9.18397e-05 2.73768e-05 2.7627e-05 -2.12216e-05
9.18383e-05 -2.77329e-05 -2.74738e-05 -2.12242e-05
9.26402e-05 -2.79769e-05 -2.77129e-05 -2.12242e-05
-9.22444e-05 2.74965e-05 2.77491e-05 -2.12216e-05
-3.65777e-09 -1.81016e-07 7.9146e-08 -2.1665e-05
9.22393e-05 -2.78549e-05 -2.75933e-05 -2.12242e-05
-7.50007e-09 -1.83281e-07 8.17631e-08 -2.16651e-05
-5.57484e-09 -1.82146e-07 8.04518e-08 -2.16651e-05
-9.18397e-05 2.73768e-05 2.7627e-05 -2.12216e-05
-9.10303e-05 2.71373e-05 2.73827e-05 -2.12216e-05
9.10364e-05 -2.7489e-05 -2.72346e-05 -2.12242e-05
9.18383e-05 -2.77329e-05 -2.74738e-05 -2.12242e-05
-9.1435e-05 2.7257e-05 2.75049e-05 -2.12216e-05
1.51682e-10 -1.78771e-07 7.65512e-08 -2.1665e-05
9.14374e-05 -2.7611e-05 -2.73542e-05 -2.12242e-05
-3.65777e-09 -1.81016e-07 7.9146e-08 -2.1665e-05
-1.74896e-09 -1.79891e-07 7.78458e-08 -2.1665e-05
-9.10303e-05 2.71373e-05 2.73827e-05 -2.12216e-05
-9.02209e-05 2.68977e-05 2.71385e-05 -2.12216e-05
9.02345e-05 -2.72451e-05 -2.69955e-05 -2.12241e-05
9.10364e-05 -2.7489e-05 -2.72346e-05 -2.12242e-05
-9.06256e-05 2.70175e-05 2.72606e-05 -2.12216e-05
3.92825e-09 -1.76545e-07 7.39786e-08 -2.1665e-05
9.06355e-05 -2.7367e-05 -2.7115e-05 -2.12241e-05
1.51682e-10 -1.78771e-07 7.65512e-08 -2.1665e-05
2.04406e-09 -1.77656e-07 7.52621e-08 -2.1665e-05
-9.02209e-05 2.68977e-05 2.71385e-05 -2.12216e-05
-8.94116e-05 2.66581e-05 2.68943e-05 -2.12215e-05
8.94326e-05 -2.70012e-05 -2.67563e-05 -2.12241e-05
9.02345e-05 -2.72451e-05 -2.69955e-05 -2.12241e-05
-8.98162e-05 2.67779e-05 2.70164e-05 -2.12216e-05
7.67193e-09 -1.74338e-07 7.14283e-08 -2.16649e-05
8.98335e-05 -2.71232e-05 -2.68759e-05 -2.12241e-05
3.92826e-09 -1.76545e-07 7.39786e-08 -2.1665e-05
5.80417e-09 -1.75439e-07 7.27007e-08 -2.1665e-05
-8.94116e-05 2.66581e-05 2.68943e-05 -2.12215e-05
-8.86023e-05 2.64185e-05 2.66502e-05 -2.12215e-05
8.86306e-05 -2.67574e-05 -2.65171e-05 -2.1224e-05
8.94326e-05 -2.70012e-05 -2.67563e-05 -2.12241e-05
-8.90069e-05 2.65383e-05 2.67722e-05 -2.12215e-05
1.13827e-08 -1.7215e-07 6.89004e-08 -2.16649e-05
8.90316e-05 -2.68793e-05 -2.66367e-05 -2.12241e-05
7.67193e-09 -1.74338e-07 7.14283e-08 -2.16649e-05
9.5314e-09 -1.73242e-07 7.01616e-08 -2.16649e-05
-8.86023e-05 2.64185e-05 2.66502e-05 -2.12215e-05
-8.7793e-05 2.61789e-05 2.6406e-05 -2.12215e-05
8.78285e-05 -2.65135e-05 -2.62779e-05 -2.1224e-05
8.86306e-05 -2.67574e-05 -2.65171e-05 -2.1224e-05
-8.81976e-05 2.62987e-05 2.65281e-05 -2.12215e-05
1.50605e-08 -1.69982e-07 6.63947e-08 -2.16649e-05
8.82296e-05 -2.66354e-05 -2.63975e-05 -2.1224e-05
1.13827e-08 -1.7215e-07 6.89004e-08 -2.16649e-05
1.32257e-08 -1.71063e-07 6.76448e-08 -2.16649e-05
-8.7793e-05 2.61789e-05 2.6406e-05 -2.12215e-05
-8.69837e-05 2.59393e-05 2.61619e-05 -2.12215e-05
8.70265e-05 -2.62697e-05 -2.60386e-05 -2.1224e-05
8.78285e-05 -2.65135e-05 -2.62779e-05 -2.1224e-05
-8.73884e-05 2.60591e-05 2.6284e-05 -2.12215e-05
1.87054e-08 -1.67832e-07 6.39114e-08 -2.16649e-05
8.74275e-05 -2.63916e-05 -2.61582e-05 -2.1224e-05
1.50605e-08 -1.69982e-07 6.63947e-08 -2.16649e-05
1.68871e-08 -1.68904e-07 6.51503e-08 -2.16649e-05
-8.69837e-05 2.59393e-05 2.61619e-05 -2.12215e-05
-8.61745e-05 2.56997e-05 2.59178e-05 -2.12215e-05
8.62244e-05 -2.60259e-05 -2.57994e-05 -2.12239e-05
8.70265e-05 -2.62697e-05 -2.60386e-05 -2.1224e-05
-8.65791e-05 2.58195e-05 2.60398e-05 -2.12215e-05
2.23173e-08 -1.65702e-07 6.14504e-08 -2.16648e-05
8.66254e-05 -2.61478e-05 -2.5919e-05 -2.12239e-05
1.87054e-08 -1.67832e-07 6.39114e-08 -2.16649e-05
2.05155e-08 -1.66764e-07 6.26781e-08 -2.16648e-05
-8.61745e-05 2.56997e-05 2.59178e-05 -2.12215e-05
-8.53654e-05 2.546e-05 2.56737e-05 -2.12215e-05
8.54223e-05 -2.57821e-05 -2.55601e-05 -2.12239e-05
8.62244e-05 -2.60259e-05 -2.57994e-05 -2.12239e-05
-8.57699e-05 2.55799e-05 2.57957e-05 -2.12215e-05
2.58962e-08 -1.6359e-07 5.90118e-08 -2.16648e-05
8.58233e-05 -2.5904e-05 -2.56797e-05 -2.12239e-05
2.23173e-08 -1.65702e-07 6.14504e-08 -2.16648e-05
2.41109e-08 -1.64644e-07 6.02283e-08 -2.16648e-05
-8.53654e-05 2.546e-05 2.56737e-05 -2.12215e-05
-8.45562e-05 2.52203e-05 2.54297e-05 -2.12214e-05
8.46201e-05 -2.55383e-05 -2.53208e-05 -2.12238e-05
8.54223e-05 -2.57821e-05 -2.55601e-05 -2.12239e-05
-8.49608e-05 2.53402e-05 2.55517e-05 -2.12214e-05
2.94422e-08 -1.61499e-07 5.65956e-08 -2.16648e-05
8.50212e-05 -2.56602e-05 -2.54404e-05 -2.12239e-05
2.58962e-08 -1.6359e-07 5.90118e-08 -2.16648e-05
2.76733e-08 -1.62542e-07 5.78009e-08 -2.16648e-05
-8.45562e-05 2.52203e-05 2.54297e-05 -2.12214e-05
-8.37471e-05 2.49807e-05 2.51856e-05 -2.12214e-05
8.3818e-05 -2.52946e-05 -2.50814e-05 -2.12238e-05
8.46201e-05 -2.55383e-05 -2.53208e-05 -2.12238e-05
-8.41516e-05 2.51005e-05 2.53076e-05 -2.12214e-05
3.29551e-08 -1.59426e-07 5.42017e-08 -2.16647e-05
8.4219e-05 -2.54165e-05 -2.52011e-05 -2.12238e-05
2.94422e-08 -1.61499e-07 5.65956e-08 -2.16648e-05
3.12027e-08 -1.6046e-07 5.53959e-08 -2.16648e-05
-8.37471e-05 2.49807e-05 2.51856e-05 -2.12214e-05
-8.2938e-05 2.47409e-05 2.49416e-05 -2.12214e-05
8.30157e-05 -2.50509e-05 -2.48421e-05 -2.12238e-05
8.3818e-05 -2.52946e-05 -2.50814e-05 -2.12238e-05
-8.33426e-05 2.48608e-05 2.50636e-05 -2.12214e-05
3.64349e-08 -1.57372e-07 5.18303e-08 -2.16647e-05
8.34169e-05 -2.51727e-05 -2.49618e-05 -2.12238e-05
3.29551e-08 -1.59426e-07 5.42017e-08 -2.16647e-05
3.46991e-08 -1.58397e-07 5.30132e-08 -2.16647e-05
-8.2938e-05 2.47409e-05 2.49416e-05 -2.12214e-05
-8.2129e-05 2.45012e-05 2.46976e-05 -2.12214e-05
8.22135e-05 -2.48072e-05 -2.46027e-05 -2.12237e-05
8.30157e-05 -2.50509e-05 -2.48421e-05 -2.12238e-05
-8.25335e-05 2.46211e-05 2.48196e-05 -2.12214e-05
3.98818e-08 -1.55338e-07 4.94813e-08 -2.16647e-05
8.26146e-05 -2.4929e-05 -2.47224e-05 -2.12237e-05
3.64349e-08 -1.57372e-07 5.18303e-08 -2.16647e-05
3.81625e-08 -1.56353e-07 5.0653e-08 -2.16647e-05
-8.2129e-05 2.45012e-05 2.46976e-05 -2.12214e-05
-8.132e-05 2.42615e-05 2.44536e-05 -2.12214e-05
8.14112e-05 -2.45635e-05 -2.43633e-05 -2.12237e-05
8.22135e-05 -2.48072e-05 -2.46027e-05 -2.12237e-05
-8.17245e-05 2.43813e-05 2.45756e-05 -2.12214e-05
4.32955e-08 -1.53323e-07 4.71548e-08 -2.16647e-05
8.18124e-05 -2.46853e-05 -2.4483e-05 -2.12237e-05
3.98818e-08 -1.55338e-07 4.94813e-08 -2.16647e-05
4.15928e-08 -1.54328e-07 4.83152e-08 -2.16647e-05
-8.132e-05 2.42615e-05 2.44536e-05 -2.12214e-05
-8.0511e-05 2.40217e-05 2.42097e-05 -2.12214e-05
8.06089e-05 -2.43198e-05 -2.41239e-05 -2.12236e-05
8.14112e-05 -2.45635e-05 -2.43633e-05 -2.12237e-05
-8.09155e-05 2.41416e-05 2.43317e-05 -2.12214e-05
4.66762e-08 -1.51328e-07 4.48506e-08 -2.16646e-05
8.10101e-05 -2.44416e-05 -2.42436e-05 -2.12237e-05
4.32955e-08 -1.53323e-07 4.71548e-08 -2.16647e-05
4.499e-08 -1.52323e-07 4.59999e-08 -2.16646e-05
-8.0511e-05 2.40217e-05 2.42097e-05 -2.12214e-05
-7.9702e-05 2.37819e-05 2.39658e-05 -2.12213e-05
7.98066e-05 -2.40762e-05 -2.38845e-05 -2.12236e-05
8.06089e-05 -2.43198e-05 -2.41239e-05 -2.12236e-05
-8.01065e-05 2.39018e-05 2.40877e-05 -2.12213e-05
5.00237e-08 -1.49351e-07 4.2569e-08 -2.16646e-05
8.02078e-05 -2.4198e-05 -2.40042e-05 -2.12236e-05
4.66762e-08 -1.51328e-07 4.48506e-08 -2.16646e-05
4.83541e-08 -1.50337e-07 4.3707e-08 -2.16646e-05
-7.9702e-05 2.37819e-05 2.39658e-05 -2.12213e-05
-7.88931e-05 2.35421e-05 2.37219e-05 -2.12213e-05
7.90042e-05 -2.38325e-05 -2.3645e-05 -2.12236e-05
7.98066e-05 -2.40762e-05 -2.38845e-05 -2.12236e-05
-7.92976e-05 2.3662e-05 2.38438e-05 -2.12213e-05
5.33382e-08 -1.47394e-07 4.03098e-08 -2.16646e-05
7.94054e-05 -2.39543e-05 -2.37647e-05 -2.12236e-05
5.00237e-08 -1.49351e-07 4.2569e-08 -2.16646e-05
5.16851e-08 -1.4837e-07 4.14366e-08 -2.16646e-05
-7.88931e-05 2.35421e-05 2.37219e-05 -2.12213e-05
-7.80843e-05 2.33023e-05 2.3478e-05 -2.12213e-05
7.82018e-05 -2.35889e-05 -2.34055e-05 -2.12235e-05
7.90042e-05 -2.38325e-05 -2.3645e-05 -2.12236e-05
-7.84887e-05 2.34222e-05 2.35999e-05 -2.12213e-05
5.66195e-08 -1.45457e-07 3.80732e-08 -2.16645e-05
7.8603e-05 -2.37107e-05 -2.35253e-05 -2.12235e-05
5.33382e-08 -1.47394e-07 4.03098e-08 -2.16646e-05
5.49829e-08 -1.46423e-07 3.91887e-08 -2.16646e-05
-7.80843e-05 2.33023e-05 2.3478e-05 -2.12213e-05
-7.72754e-05 2.30624e-05 2.32341e-05 -2.12213e-05
7.73994e-05 -2.33453e-05 -2.3166e-05 -2.12235e-05
7.82018e-05 -2.35889e-05 -2.34055e-05 -2.12235e-05
-7.76798e-05 2.31823e-05 2.33561e-05 -2.12213e-05
5.98676e-08 -1.43539e-07 3.5859e-08 -2.16645e-05
7.78006e-05 -2.34671e-05 -2.32858e-05 -2.12235e-05
5.66195e-08 -1.45457e-07 3.80732e-08 -2.16645e-05
5.82477e-08 -1.44495e-07 3.69633e-08 -2.16645e-05
-7.72754e-05 2.30624e-05 2.32341e-05 -2.12213e-05
-7.64666e-05 2.28226e-05 2.29903e-05 -2.12213e-05
7.65969e-05 -2.31017e-05 -2.29265e-05 -2.12234e-05
7.73994e-05 -2.33453e-05 -2.3166e-05 -2.12235e-05
-7.6871e-05 2.29425e-05 2.31122e-05 -2.12213e-05
6.30826e-08 -1.4164e-07 3.36674e-08 -2.16645e-05
7.69981e-05 -2.32235e-05 -2.30463e-05 -2.12235e-05
5.98676e-08 -1.43539e-07 3.5859e-08 -2.16645e-05
6.14792e-08 -1.42587e-07 3.47604e-08 -2.16645e-05
-7.64666e-05 2.28226e-05 2.29903e-05 -2.12213e-05
-7.56578e-05 2.25827e-05 2.27465e-05 -2.12213e-05
7.57944e-05 -2.28582e-05 -2.2687e-05 -2.12234e-05
7.65969e-05 -2.31017e-05 -2.29265e-05 -2.12234e-05
-7.60622e-05 2.27026e-05 2.28684e-05 -2.12213e-05
6.62644e-08 -1.3976e-07 3.14982e-08 -2.16645e-05
7.61957e-05 -2.298e-05 -2.28067e-05 -2.12234e-05
6.30826e-08 -1.4164e-07 3.36674e-08 -2.16645e-05
6.46777e-08 -1.40698e-07 3.258e-08 -2.16645e-05
-7.56578e-05 2.25827e-05 2.27465e-05 -2.12213e-05
-7.48491e-05 2.23428e-05 2.25027e-05 -2.12212e-05
7.49919e-05 -2.26147e-05 -2.24474e-05 -2.12234e-05
7.57944e-05 -2.28582e-05 -2.2687e-05 -2.12234e-05
-7.52535e-05 2.24627e-05 2.26246e-05 -2.12212e-05
6.9413e-08 -1.379e-07 2.93517e-08 -2.16644e-05
7.53932e-05 -2.27364e-05 -2.25672e-05 -2.12234e-05
6.62644e-08 -1.3976e-07 3.14982e-08 -2.16645e-05
6.78429e-08 -1.38828e-07 3.04222e-08 -2.16644e-05
-7.48491e-05 2.23428e-05 2.25027e-05 -2.12212e-05
-7.40404e-05 2.21029e-05 2.22589e-05 -2.12212e-05
7.41893e-05 -2.23711e-05 -2.22078e-05 -2.12233e-05
7.49919e-05 -2.26147e-05 -2.24474e-05 -2.12234e-05
-7.44447e-05 2.22228e-05 2.23808e-05 -2.12212e-05
7.25284e-08 -1.3606e-07 2.72277e-08 -2.16644e-05
7.45906e-05 -2.24929e-05 -2.23276e-05 -2.12233e-05
6.9413e-08 -1.379e-07 2.93517e-08 -2.16644e-05
7.09749e-08 -1.36978e-07 2.82869e-08 -2.16644e-05
-7.40404e-05 2.21029e-05 2.22589e-05 -2.12212e-05
-7.32317e-05 2.18629e-05 2.20152e-05 -2.12212e-05
7.33867e-05 -2.21276e-05 -2.19682e-05 -2.12233e-05
7.41893e-05 -2.23711e-05 -2.22078e-05 -2.12233e-05
-7.36361e-05 2.19829e-05 2.21371e-05 -2.12212e-05
7.56106e-08 -1.34239e-07 2.51262e-08 -2.16644e-05
7.3788e-05 -2.22494e-05 -2.2088e-05 -2.12233e-05
7.25284e-08 -1.3606e-07 2.72277e-08 -2.16644e-05
7.40737e-08 -1.35147e-07 2.61741e-08 -2.16644e-05
-7.32317e-05 2.18629e-05 2.20152e-05 -2.12212e-05
-7.24231e-05 2.1623e-05 2.17715e-05 -2.12212e-05
7.25841e-05 -2.18842e-05 -2.17286e-05 -2.12232e-05
7.33867e-05 -2.21276e-05 -2.19682e-05 -2.12233e-05
-7.28274e-05 2.17429e-05 2.18933e-05 -2.12212e-05
7.86596e-08 -1.32437e-07 2.30474e-08 -2.16643e-05
7.29854e-05 -2.20059e-05 -2.18484e-05 -2.12233e-05
7.56106e-08 -1.34239e-07 2.51262e-08 -2.16644e-05
7.71392e-08 -1.33335e-07 2.4084e-08 -2.16644e-05
-7.24231e-05 2.1623e-05 2.17715e-05 -2.12212e-05
-7.16145e-05 2.1383e-05 2.15278e-05 -2.12212e-05
7.17815e-05 -2.16407e-05 -2.14889e-05 -2.12232e-05
7.25841e-05 -2.18842e-05 -2.17286e-05 -2.12232e-05
-7.20188e-05 2.1503e-05 2.16496e-05 -2.12212e-05
8.16752e-08 -1.30655e-07 2.09912e-08 -2.16643e-05
7.21828e-05 -2.17624e-05 -2.16087e-05 -2.12232e-05
7.86596e-08 -1.32437e-07 2.30474e-08 -2.16643e-05
8.01715e-08 -1.31543e-07 2.20165e-08 -2.16643e-05
-7.16145e-05 2.1383e-05 2.15278e-05 -2.12212e-05
-7.08059e-05 2.1143e-05 2.12841e-05 -2.12212e-05
7.09788e-05 -2.13973e-05 -2.12492e-05 -2.12232e-05
7.17815e-05 -2.16407e-05 -2.14889e-05 -2.12232e-05
-7.12102e-05 2.1263e-05 2.14059e-05 -2.12212e-05
8.46576e-08 -1.28892e-07 1.89575e-08 -2.16643e-05
7.13801e-05 -2.1519e-05 -2.13691e-05 -2.12232e-05
8.16752e-08 -1.30655e-07 2.09912e-08 -2.16643e-05
8.31706e-08 -1.29771e-07 1.99715e-08 -2.16643e-05
-7.08059e-05 2.1143e-05 2.12841e-05 -2.12212e-05
-6.99974e-05 2.0903e-05 2.10405e-05 -2.12211e-05
7.01761e-05 -2.11538e-05 -2.10095e-05 -2.12231e-05
7.09788e-05 -2.13973e-05 -2.12492e-05 -2.12232e-05
-7.04016e-05 2.1023e-05 2.11623e-05 -2.12212e-05
8.76067e-08 -1.27149e-07 1.69465e-08 -2.16643e-05
7.05774e-05 -2.12756e-05 -2.11294e-05 -2.12231e-05
8.46576e-08 -1.28892e-07 1.89575e-08 -2.16643e-05
8.61363e-08 -1.28018e-07 1.79492e-08 -2.16643e-05
-6.99974e-05 2.0903e-05 2.10405e-05 -2.12211e-05
-6.91889e-05 2.0663e-05 2.07968e-05 -2.12211e-05
6.93733e-05 -2.09104e-05 -2.07698e-05 -2.12231e-05
7.01761e-05 -2.11538e-05 -2.10095e-05 -2.12231e-05
-6.95931e-05 2.0783e-05 2.09186e-05 -2.12211e-05
9.05226e-08 -1.25425e-07 1.49581e-08 -2.16642e-05
6.97747e-05 -2.10321e-05 -2.08897e-05 -2.12231e-05
8.76067e-08 -1.27149e-07 1.69465e-08 -2.16643e-05
8.90688e-08 -1.26284e-07 1.59495e-08 -2.16643e-05
-6.91889e-05 2.0663e-05 2.07968e-05 -2.12211e-05
-6.83804e-05 2.04229e-05 2.05532e-05 -2.12211e-05
6.85705e-05 -2.06671e-05 -2.05301e-05 -2.12231e-05
6.93733e-05 -2.09104e-05 -2.07698e-05 -2.12231e-05
-6.87846e-05 2.05429e-05 2.0675e-05 -2.12211e-05
9.34051e-08 -1.23721e-07 1.29924e-08 -2.16642e-05
6.89719e-05 -2.07888e-05 -2.06499e-05 -2.12231e-05
9.05226e-08 -1.25425e-07 1.49581e-08 -2.16642e-05
9.1968e-08 -1.2457e-07 1.39724e-08 -2.16642e-05
-6.83804e-05 2.04229e-05 2.05532e-05 -2.12211e-05
-6.7572e-05 2.01828e-05 2.03096e-05 -2.12211e-05
6.77677e-05 -2.04237e-05 -2.02903e-05 -2.1223e-05
6.85705e-05 -2.06671e-05 -2.05301e-05 -2.12231e-05
-6.79762e-05 2.03029e-05 2.04314e-05 -2.12211e-05
9.62543e-08 -1.22036e-07 1.10493e-08 -2.16642e-05
6.81691e-05 -2.05454e-05 -2.04102e-05 -2.1223e-05
9.34051e-08 -1.23721e-07 1.29924e-08 -2.16642e-05
9.48338e-08 -1.22876e-07 1.2018e-08 -2.16642e-05
-6.7572e-05 2.01828e-05 2.03096e-05 -2.12211e-05
-6.67636e-05 1.99427e-05 2.00661e-05 -2.12211e-05
6.69649e-05 -2.01804e-05 -2.00505e-05 -2.1223e-05
6.77677e-05 -2.04237e-05 -2.02903e-05 -2.1223e-05
-6.71678e-05 2.00628e-05 2.01878e-05 -2.12211e-05
9.90701e-08 -1.20371e-07 9.12891e-09 -2.16642e-05
6.73663e-05 -2.0302e-05 -2.01704e-05 -2.1223e-05
9.62542e-08 -1.22036e-07 1.10493e-08 -2.16642e-05
9.76663e-08 -1.21201e-07 1.00863e-08 -2.16642e-05
-6.67636e-05 1.99427e-05 2.00661e-05 -2.12211e-05
-6.59552e-05 1.97026e-05 1.98225e-05 -2.12211e-05
6.6162e-05 -1.9937e-05 -1.98107e-05 -2.12229e-05
6.69649e-05 -2.01804e-05 -2.00505e-05 -2.1223e-05
-6.63594e-05 1.98227e-05 1.99443e-05 -2.12211e-05
1.01853e-07 -1.18725e-07 7.23119e-09 -2.16641e-05
6.65634e-05 -2.00587e-05 -1.99306e-05 -2.1223e-05
9.90701e-08 -1.20371e-07 9.12891e-09 -2.16642e-05
1.00465e-07 -1.19546e-07 8.17722e-09 -2.16641e-05
-6.59552e-05 1.97026e-05 1.98225e-05 -2.12211e-05
-6.51469e-05 1.94625e-05 1.9579e-05 -2.12211e-05
6.53591e-05 -1.96937e-05 -1.95709e-05 -2.12229e-05
6.6162e-05 -1.9937e-05 -1.98107e-05 -2.12229e-05
-6.5551e-05 1.95826e-05 1.97008e-05 -2.12211e-05
1.04602e-07 -1.17099e-07 5.35617e-09 -2.16641e-05
6.57605e-05 -1.98154e-05 -1.96908e-05 -2.12229e-05
1.01853e-07 -1.18725e-07 7.23119e-09 -2.16641e-05
1.03231e-07 -1.1791e-07 6.29085e-09 -2.16641e-05
-6.51469e-05 1.94625e-05 1.9579e-05 -2.12211e-05
-6.43386e-05 1.92224e-05 1.93355e-05 -2.1221e-05
6.45561e-05 -1.94505e-05 -1.9331e-05 -2.12229e-05
6.53591e-05 -1.96937e-05 -1.95709e-05 -2.12229e-05
-6.47427e-05 1.93424e-05 1.94573e-05 -2.12211e-05
1.07317e-07 -1.15493e-07 3.50385e-09 -2.16641e-05
6.49576e-05 -1.95721e-05 -1.94509e-05 -2.12229e-05
1.04602e-07 -1.17099e-07 5.35617e-09 -2.16641e-05
1.05964e-07 -1.16294e-07 4.42717e-09 -2.16641e-05
-6.43386e-05 1.92224e-05 1.93355e-05 -2.1221e-05
-6.35303e-05 1.89822e-05 1.9092e-05 -2.1221e-05
6.37532e-05 -1.92072e-05 -1.90911e-05 -2.12228e-05
6.45561e-05 -1.94505e-05 -1.9331e-05 -2.12229e-05
-6.39344e-05 1.91023e-05 1.92138e-05 -2.1221e-05
1.1e-07 -1.13906e-07 1.67424e-09 -2.16641e-05
6.41547e-05 -1.93288e-05 -1.92111e-05 -2.12228e-05
1.07317e-07 -1.15493e-07 3.50384e-09 -2.16641e-05
1.08663e-07 -1.14697e-07 2.58621e-09 -2.16641e-05
-6.35303e-05 1.89822e-05 1.9092e-05 -2.1221e-05
-6.27221e-05 1.8742e-05 1.88486e-05 -2.1221e-05
6.29502e-05 -1.8964e-05 -1.88512e-05 -2.12228e-05
6.37532e-05 -1.92072e-05 -1.90911e-05 -2.12228e-05
-6.31262e-05 1.88621e-05 1.89703e-05 -2.1221e-05
1.12649e-07 -1.12339e-07 -1.32648e-10 -2.1664e-05
6.33517e-05 -1.90856e-05 -1.89712e-05 -2.12228e-05
1.1e-07 -1.13906e-07 1.67424e-09 -2.16641e-05
1.11328e-07 -1.1312e-07 7.6796e-10 -2.1664e-05
-6.27221e-05 1.8742e-05 1.88486e-05 -2.1221e-05
-6.19139e-05 1.85018e-05 1.86052e-05 -2.1221e-05
6.21471e-05 -1.87207e-05 -1.86113e-05 -2.12228e-05
6.29502e-05 -1.8964e-05 -1.88512e-05 -2.12228e-05
-6.2318e-05 1.86219e-05 1.87269e-05 -2.1221e-05
1.15264e-07 -1.10792e-07 -1.91679e-09 -2.1664e-05
6.25486e-05 -1.88423e-05 -1.87313e-05 -2.12228e-05
1.12649e-07 -1.12339e-07 -1.32648e-10 -2.1664e-05
1.13961e-07 -1.11563e-07 -1.02755e-09 -2.1664e-05
-6.19139e-05 1.85018e-05 1.86052e-05 -2.1221e-05
-6.11057e-05 1.82616e-05 1.83618e-05 -2.1221e-05
6.13441e-05 -1.84775e-05 -1.83714e-05 -2.12227e-05
6.21471e-05 -1.87207e-05 -1.86113e-05 -2.12228e-05
-6.15098e-05 1.83817e-05 1.84835e-05 -2.1221e-05
1.17846e-07 -1.09264e-07 -3.67818e-09 -2.1664e-05
6.17456e-05 -1.85991e-05 -1.84913e-05 -2.12227e-05
1.15264e-07 -1.10792e-07 -1.91679e-09 -2.1664e-05
1.16559e-07 -1.10025e-07 -2.80032e-09 -2.1664e-05
-6.11057e-05 1.82616e-05 1.83618e-05 -2.1221e-05
-6.02976e-05 1.80214e-05 1.81184e-05 -2.1221e-05
6.0541e-05 -1.82343e-05 -1.81314e-05 -2.12227e-05
6.13441e-05 -1.84775e-05 -1.83714e-05 -2.12227e-05
-6.07016e-05 1.81415e-05 1.82401e-05 -2.1221e-05
1.20395e-07 -1.07756e-07 -5.41681e-09 -2.1664e-05
6.09425e-05 -1.83559e-05 -1.82514e-05 -2.12227e-05
1.17846e-07 -1.09264e-07 -3.67818e-09 -2.1664e-05
1.19125e-07 -1.08507e-07 -4.55033e-09 -2.1664e-05
-6.02976e-05 1.80214e-05 1.81184e-05 -2.1221e-05
-5.94895e-05 1.77811e-05 1.7875e-05 -2.1221e-05
5.97378e-05 -1.79912e-05 -1.78914e-05 -2.12227e-05
6.0541e-05 -1.82343e-05 -1.81314e-05 -2.12227e-05
-5.98935e-05 1.79012e-05 1.79967e-05 -2.1221e-05
1.2291e-07 -1.06267e-07 -7.13267e-09 -2.16639e-05
6.01394e-05 -1.81127e-05 -1.80114e-05 -2.12227e-05
1.20395e-07 -1.07756e-07 -5.41681e-09 -2.1664e-05
1.21657e-07 -1.07009e-07 -6.27758e-09 -2.16639e-05
-5.94895e-05 1.77811e-05 1.7875e-05 -2.1221e-05
-5.86814e-05 1.75408e-05 1.76317e-05 -2.1221e-05
5.89347e-05 -1.7748e-05 -1.76514e-05 -2.12226e-05
5.97378e-05 -1.79912e-05 -1.78914e-05 -2.12227e-05
-5.90854e-05 1.7661e-05 1.77533e-05 -2.1221e-05
1.25392e-07 -1.04798e-07 -8.82575e-09 -2.16639e-05
5.93362e-05 -1.78696e-05 -1.77714e-05 -2.12226e-05
1.2291e-07 -1.06267e-07 -7.13267e-09 -2.16639e-05
1.24155e-07 -1.0553e-07 -7.98205e-09 -2.16639e-05
-5.86814e-05 1.75408e-05 1.76317e-05 -2.1221e-05
-5.78734e-05 1.73005e-05 1.73884e-05 -2.12209e-05
5.81315e-05 -1.75049e-05 -1.74114e-05 -2.12226e-05
5.89347e-05 -1.7748e-05 -1.76514e-05 -2.12226e-05
-5.82774e-05 1.74207e-05 1.751e-05 -2.12209e-05
1.2784e-07 -1.03349e-07 -1.0496e-08 -2.16639e-05
5.85331e-05 -1.76265e-05 -1.75314e-05 -2.12226e-05
1.25392e-07 -1.04798e-07 -8.82575e-09 -2.16639e-05
1.2662e-07 -1.04071e-07 -9.66374e-09 -2.16639e-05
-5.78734e-05 1.73005e-05 1.73884e-05 -2.12209e-05
-5.70654e-05 1.70602e-05 1.71451e-05 -2.12209e-05
5.73282e-05 -1.72618e-05 -1.71713e-05 -2.12225e-05
5.81315e-05 -1.75049e-05 -1.74114e-05 -2.12226e-05
-5.74694e-05 1.71804e-05 1.72667e-05 -2.12209e-05
1.30255e-07 -1.0192e-07 -1.21435e-08 -2.16639e-05
5.77298e-05 -1.73833e-05 -1.72914e-05 -2.12226e-05
1.2784e-07 -1.03349e-07 -1.0496e-08 -2.16639e-05
1.29052e-07 -1.02632e-07 -1.13226e-08 -2.16639e-05
-5.70654e-05 1.70602e-05 1.71451e-05 -2.12209e-05
-5.62574e-05 1.68199e-05 1.69018e-05 -2.12209e-05
5.6525e-05 -1.70187e-05 -1.69313e-05 -2.12225e-05
5.73282e-05 -1.72618e-05 -1.71713e-05 -2.12225e-05
-5.66614e-05 1.69401e-05 1.70234e-05 -2.12209e-05
1.32636e-07 -1.0051e-07 -1.37682e-08 -2.16638e-05
5.69266e-05 -1.71402e-05 -1.70513e-05 -2.12225e-05
1.30255e-07 -1.0192e-07 -1.21435e-08 -2.16639e-05
1.3145e-07 -1.01213e-07 -1.29587e-08 -2.16638e-05
-5.62574e-05 1.68199e-05 1.69018e-05 -2.12209e-05
-5.54495e-05 1.65795e-05 1.66586e-05 -2.12209e-05
5.57217e-05 -1.67756e-05 -1.66912e-05 -2.12225e-05
5.6525e-05 -1.70187e-05 -1.69313e-05 -2.12225e-05
-5.58535e-05 1.66997e-05 1.67802e-05 -2.12209e-05
1.34984e-07 -9.91203e-08 -1.53701e-08 -2.16638e-05
5.61233e-05 -1.68972e-05 -1.68112e-05 -2.12225e-05
1.32636e-07 -1.0051e-07 -1.37682e-08 -2.16638e-05
1.33814e-07 -9.98128e-08 -1.4572e-08 -2.16638e-05
-5.54495e-05 1.65795e-05 1.66586e-05 -2.12209e-05
-5.46416e-05 1.63392e-05 1.64153e-05 -2.12209e-05
5.49183e-05 -1.65326e-05 -1.6451e-05 -2.12224e-05
5.57217e-05 -1.67756e-05 -1.66912e-05 -2.12225e-05
-5.50456e-05 1.64594e-05 1.65369e-05 -2.12209e-05
1.37298e-07 -9.77501e-08 -1.69491e-08 -2.16638e-05
5.532e-05 -1.66541e-05 -1.65711e-05 -2.12225e-05
1.34984e-07 -9.91203e-08 -1.53701e-08 -2.16638e-05
1.36145e-07 -9.84327e-08 -1.61624e-08 -2.16638e-05
-5.46416e-05 1.63392e-05 1.64153e-05 -2.12209e-05
-5.38338e-05 1.60988e-05 1.61721e-05 -2.12209e-05
5.4115e-05 -1.62895e-05 -1.62109e-05 -2.12224e-05
5.49183e-05 -1.65326e-05 -1.6451e-05 -2.12224e-05
-5.42377e-05 1.6219e-05 1.62937e-05 -2.12209e-05
1.39579e-07 -9.63997e-08 -1.85053e-08 -2.16638e-05
5.45167e-05 -1.64111e-05 -1.6331e-05 -2.12224e-05
1.37298e-07 -9.77501e-08 -1.69491e-08 -2.16638e-05
1.38443e-07 -9.70724e-08 -1.77301e-08 -2.16638e-05
-5.38338e-05 1.60988e-05 1.61721e-05 -2.12209e-05
-5.30259e-05 1.58584e-05 1.5929e-05 -2.12209e-05
5.33116e-05 -1.60465e-05 -1.59707e-05 -2.12224e-05
5.4115e-05 -1.62895e-05 -1.62109e-05 -2.12224e-05
-5.34298e-05 1.59786e-05 1.60505e-05 -2.12209e-05
1.41826e-07 -9.5069e-08 -2.00386e-08 -2.16637e-05
5.37133e-05 -1.6168e-05 -1.60908e-05 -2.12224e-05
1.39579e-07 -9.63997e-08 -1.85053e-08 -2.16638e-05
1.40706e-07 -9.57318e-08 -1.92748e-08 -2.16638e-05
-5.30259e-05 1.58584e-05 1.5929e-05 -2.12209e-05
-5.22181e-05 1.56179e-05 1.56858e-05 -2.12209e-05
5.25082e-05 -1.58035e-05 -1.57306e-05 -2.12223e-05
5.33116e-05 -1.60465e-05 -1.59707e-05 -2.12224e-05
-5.2622e-05 1.57382e-05 1.58074e-05 -2.12209e-05
1.44039e-07 -9.37581e-08 -2.15491e-08 -2.16637e-05
5.29099e-05 -1.5925e-05 -1.58507e-05 -2.12224e-05
1.41826e-07 -9.5069e-08 -2.00386e-08 -2.16637e-05
1.42937e-07 -9.4411e-08 -2.07967e-08 -2.16637e-05
-5.22181e-05 1.56179e-05 1.56858e-05 -2.12209e-05
-5.14104e-05 1.53775e-05 1.54427e-05 -2.12208e-05
5.17047e-05 -1.55606e-05 -1.54903e-05 -2.12223e-05
5.25082e-05 -1.58035e-05 -1.57306e-05 -2.12223e-05
-5.18143e-05 1.54977e-05 1.55642e-05 -2.12209e-05
1.46219e-07 -9.24669e-08 -2.30367e-08 -2.16637e-05
5.21065e-05 -1.56821e-05 -1.56105e-05 -2.12223e-05
1.44039e-07 -9.37581e-08 -2.15491e-08 -2.16637e-05
1.45134e-07 -9.311e-08 -2.22958e-08 -2.16637e-05
-5.14104e-05 1.53775e-05 1.54427e-05 -2.12208e-05
-5.06027e-05 1.5137e-05 1.51996e-05 -2.12208e-05
5.09012e-05 -1.53176e-05 -1.52501e-05 -2.12223e-05
5.17047e-05 -1.55606e-05 -1.54903e-05 -2.12223e-05
-5.10065e-05 1.52573e-05 1.53211e-05 -2.12208e-05
1.48366e-07 -9.11956e-08 -2.45015e-08 -2.16637e-05
5.1303e-05 -1.54391e-05 -1.53702e-05 -2.12223e-05
1.46219e-07 -9.24669e-08 -2.30367e-08 -2.16637e-05
1.47297e-07 -9.18288e-08 -2.3772e-08 -2.16637e-05
-5.06027e-05 1.5137e-05 1.51996e-05 -2.12208e-05
-4.9795e-05 1.48965e-05 1.49565e-05 -2.12208e-05
5.00977e-05 -1.50747e-05 -1.50099e-05 -2.12222e-05
5.09012e-05 -1.53176e-05 -1.52501e-05 -2.12223e-05
-5.01988e-05 1.50168e-05 1.5078e-05 -2.12208e-05
1.50479e-07 -8.99441e-08 -2.59433e-08 -2.16637e-05
5.04995e-05 -1.51962e-05 -1.513e-05 -2.12223e-05
1.48366e-07 -9.11956e-08 -2.45015e-08 -2.16637e-05
1.49426e-07 -9.05674e-08 -2.52253e-08 -2.16637e-05
-4.9795e-05 1.48965e-05 1.49565e-05 -2.12208e-05
-4.89873e-05 1.4656e-05 1.47134e-05 -2.12208e-05
4.92942e-05 -1.48318e-05 -1.47696e-05 -2.12222e-05
5.00977e-05 -1.50747e-05 -1.50099e-05 -2.12222e-05
-4.93911e-05 1.47763e-05 1.48349e-05 -2.12208e-05
1.52558e-07 -8.87124e-08 -2.73623e-08 -2.16636e-05
4.96959e-05 -1.49532e-05 -1.48897e-05 -2.12222e-05
1.50479e-07 -8.99441e-08 -2.59433e-08 -2.16637e-05
1.51522e-07 -8.93258e-08 -2.66557e-08 -2.16636e-05
-4.89873e-05 1.4656e-05 1.47134e-05 -2.12208e-05
-4.81797e-05 1.44155e-05 1.44704e-05 -2.12208e-05
4.84906e-05 -1.45889e-05 -1.45293e-05 -2.12222e-05
4.92942e-05 -1.48318e-05 -1.47696e-05 -2.12222e-05
-4.85835e-05 1.45358e-05 1.45919e-05 -2.12208e-05
1.54603e-07 -8.75006e-08 -2.87584e-08 -2.16636e-05
4.88924e-05 -1.47103e-05 -1.46494e-05 -2.12222e-05
1.52558e-07 -8.87124e-08 -2.73623e-08 -2.16636e-05
1.53585e-07 -8.8104e-08 -2.80632e-08 -2.16636e-05
-4.81797e-05 1.44155e-05 1.44704e-05 -2.12208e-05
-4.73721e-05 1.4175e-05 1.42273e-05 -2.12208e-05
4.7687e-05 -1.4346e-05 -1.4289e-05 -2.12221e-05
4.84906e-05 -1.45889e-05 -1.45293e-05 -2.12222e-05
-4.77759e-05 1.42952e-05 1.43489e-05 -2.12208e-05
1.56615e-07 -8.63085e-08 -3.01315e-08 -2.16636e-05
4.80888e-05 -1.44674e-05 -1.44091e-05 -2.12222e-05
1.54603e-07 -8.75006e-08 -2.87584e-08 -2.16636e-05
1.55614e-07 -8.69021e-08 -2.94478e-08 -2.16636e-05
-4.73721e-05 1.4175e-05 1.42273e-05 -2.12208e-05
-4.65646e-05 1.39344e-05 1.39844e-05 -2.12208e-05
4.68833e-05 -1.41032e-05 -1.40486e-05 -2.12221e-05
4.7687e-05 -1.4346e-05 -1.4289e-05 -2.12221e-05
-4.69683e-05 1.40547e-05 1.41058e-05 -2.12208e-05
1.58594e-07 -8.51363e-08 -3.14817e-08 -2.16636e-05
4.72851e-05 -1.42246e-05 -1.41688e-05 -2.12221e-05
1.56615e-07 -8.63085e-08 -3.01315e-08 -2.16636e-05
1.57609e-07 -8.57199e-08 -3.08095e-08 -2.16636e-05
-4.65646e-05 1.39344e-05 1.39844e-05 -2.12208e-05
-4.5757e-05 1.36938e-05 1.37414e-05 -2.12208e-05
4.60796e-05 -1.38603e-05 -1.38083e-05 -2.12221e-05
4.68833e-05 -1.41032e-05 -1.40486e-05 -2.12221e-05
-4.61608e-05 1.38141e-05 1.38629e-05 -2.12208e-05
1.60538e-07 -8.3984e-08 -3.28091e-08 -2.16635e-05
4.64815e-05 -1.39817e-05 -1.39285e-05 -2.12221e-05
1.58594e-07 -8.51363e-08 -3.14817e-08 -2.16636e-05
1.5957e-07 -8.45577e-08 -3.21483e-08 -2.16636e-05
-4.5757e-05 1.36938e-05 1.37414e-05 -2.12208e-05
-4.49496e-05 1.34532e-05 1.34984e-05 -2.12208e-05
4.52759e-05 -1.36175e-05 -1.35679e-05 -2.12221e-05
4.60796e-05 -1.38603e-05 -1.38083e-05 -2.12221e-05
-4.53533e-05 1.35735e-05 1.36199e-05 -2.12208e-05
1.6245e-07 -8.28516e-08 -3.41134e-08 -2.16635e-05
4.56778e-05 -1.37389e-05 -1.36881e-05 -2.12221e-05
1.60538e-07 -8.3984e-08 -3.28091e-08 -2.16635e-05
1.61498e-07 -8.34153e-08 -3.34641e-08 -2.16635e-05
-4.49496e-05 1.34532e-05 1.34984e-05 -2.12208e-05
-4.41421e-05 1.32126e-05 1.32555e-05 -2.12208e-05
4.44722e-05 -1.33747e-05 -1.33275e-05 -2.1222e-05
4.52759e-05 -1.36175e-05 -1.35679e-05 -2.12221e-05
-4.45458e-05 1.33329e-05 1.3377e-05 -2.12208e-05
1.64327e-07 -8.1739e-08 -3.53949e-08 -2.16635e-05
4.4874e-05 -1.34961e-05 -1.34477e-05 -2.1222e-05
1.6245e-07 -8.28516e-08 -3.41134e-08 -2.16635e-05
1.63392e-07 -8.22928e-08 -3.4757e-08 -2.16635e-05
-4.41421e-05 1.32126e-05 1.32555e-05 -2.12208e-05
-4.33347e-05 1.2972e-05 1.30126e-05 -2.12208e-05
4.36684e-05 -1.31319e-05 -1.3087e-05 -2.1222e-05
4.44722e-05 -1.33747e-05 -1.33275e-05 -2.1222e-05
-4.37384e-05 1.30923e-05 1.3134e-05 -2.12208e-05
1.66171e-07 -8.06463e-08 -3.66533e-08 -2.16635e-05
4.40703e-05 -1.32533e-05 -1.32073e-05 -2.1222e-05
1.64327e-07 -8.1739e-08 -3.53949e-08 -2.16635e-05
1.65253e-07 -8.11901e-08 -3.6027e-08 -2.16635e-05
-4.33347e-05 1.2972e-05 1.30126e-05 -2.12208e-05
-4.25273e-05 1.27313e-05 1.27697e-05 -2.12208e-05
4.28646e-05 -1.28892e-05 -1.28466e-05 -2.1222e-05
4.36684e-05 -1.31319e-05 -1.3087e-05 -2.1222e-05
-4.2931e-05 1.28516e-05 1.28912e-05 -2.12208e-05
1.67981e-07 -7.95735e-08 -3.78889e-08 -2.16635e-05
4.32665e-05 -1.30106e-05 -1.29668e-05 -2.1222e-05
1.66171e-07 -8.06463e-08 -3.66533e-08 -2.16635e-05
1.6708e-07 -8.01074e-08 -3.7274e-08 -2.16635e-05
-4.25273e-05 1.27313e-05 1.27697e-05 -2.12208e-05
-4.172e-05 1.24906e-05 1.25269e-05 -2.12207e-05
4.20607e-05 -1.26465e-05 -1.26061e-05 -2.12219e-05
4.28646e-05 -1.28892e-05 -1.28466e-05 -2.1222e-05
-4.21236e-05 1.2611e-05 1.26483e-05 -2.12207e-05
1.69757e-07 -7.85206e-08 -3.91014e-08 -2.16634e-05
4.24627e-05 -1.27678e-05 -1.27264e-05 -2.12219e-05
1.67981e-07 -7.95735e-08 -3.78889e-08 -2.16635e-05
1.68873e-07 -7.90445e-08 -3.8498e-08 -2.16635e-05
-4.172e-05 1.24906e-05 1.25269e-05 -2.12207e-05
-4.09126e-05 1.22499e-05 1.2284e-05 -2.12207e-05
4.12569e-05 -1.24037e-05 -1.23656e-05 -2.12219e-05
4.20607e-05 -1.26465e-05 -1.26061e-05 -2.12219e-05
-4.13163e-05 1.23703e-05 1.24054e-05 -2.12207e-05
1.715e-07 -7.74876e-08 -4.0291e-08 -2.16634e-05
4.16588e-05 -1.25251e-05 -1.24859e-05 -2.12219e-05
1.69757e-07 -7.85206e-08 -3.91014e-08 -2.16634e-05
1.70633e-07 -7.80016e-08 -3.96991e-08 -2.16634e-05
-4.09126e-05 1.22499e-05 1.2284e-05 -2.12207e-05
-4.01054e-05 1.20092e-05 1.20412e-05 -2.12207e-05
4.04529e-05 -1.2161e-05 -1.21251e-05 -2.12219e-05
4.12569e-05 -1.24037e-05 -1.23656e-05 -2.12219e-05
-4.0509e-05 1.21296e-05 1.21626e-05 -2.12207e-05
1.73209e-07 -7.64745e-08 -4.14576e-08 -2.16634e-05
4.08549e-05 -1.22824e-05 -1.22454e-05 -2.12219e-05
1.715e-07 -7.74876e-08 -4.0291e-08 -2.16634e-05
1.72359e-07 -7.69785e-08 -4.08771e-08 -2.16634e-05
-4.01054e-05 1.20092e-05 1.20412e-05 -2.12207e-05
-3.92981e-05 1.17685e-05 1.17984e-05 -2.12207e-05
3.9649e-05 -1.19184e-05 -1.18846e-05 -2.12218e-05
4.04529e-05 -1.2161e-05 -1.21251e-05 -2.12219e-05
-3.97017e-05 1.18889e-05 1.19198e-05 -2.12207e-05
1.74884e-07 -7.54814e-08 -4.26012e-08 -2.16634e-05
4.0051e-05 -1.20397e-05 -1.20048e-05 -2.12219e-05
1.73209e-07 -7.64745e-08 -4.14576e-08 -2.16634e-05
1.74051e-07 -7.59754e-08 -4.20323e-08 -2.16634e-05
-3.92981e-05 1.17685e-05 1.17984e-05 -2.12207e-05
-3.84909e-05 1.15277e-05 1.15556e-05 -2.12207e-05
3.8845e-05 -1.16757e-05 -1.1644e-05 -2.12218e-05
3.9649e-05 -1.19184e-05 -1.18846e-05 -2.12218e-05
-3.88945e-05 1.16481e-05 1.1677e-05 -2.12207e-05
1.76526e-07 -7.45081e-08 -4.37218e-08 -2.16634e-05
3.9247e-05 -1.1797e-05 -1.17643e-05 -2.12218e-05
1.74884e-07 -7.54814e-08 -4.26012e-08 -2.16634e-05
1.75709e-07 -7.49922e-08 -4.31644e-08 -2.16634e-05
-3.84909e-05 1.15277e-05 1.15556e-05 -2.12207e-05
-3.76837e-05 1.1287e-05 1.13129e-05 -2.12207e-05
3.8041e-05 -1.14331e-05 -1.14034e-05 -2.12218e-05
3.8845e-05 -1.16757e-05 -1.1644e-05 -2.12218e-05
-3.80873e-05 1.14073e-05 1.14343e-05 -2.12207e-05
1.78134e-07 -7.35549e-08 -4.48194e-08 -2.16634e-05
3.8443e-05 -1.15544e-05 -1.15237e-05 -2.12218e-05
1.76526e-07 -7.45081e-08 -4.37218e-08 -2.16634e-05
1.77334e-07 -7.4029e-08 -4.42735e-08 -2.16634e-05
-3.76837e-05 1.1287e-05 1.13129e-05 -2.12207e-05
-3.68766e-05 1.10462e-05 1.10702e-05 -2.12207e-05
3.7237e-05 -1.11905e-05 -1.11628e-05 -2.12218e-05
3.8041e-05 -1.14331e-05 -1.14034e-05 -2.12218e-05
-3.72801e-05 1.11666e-05 1.11915e-05 -2.12207e-05
1.79708e-07 -7.26215e-08 -4.58941e-08 -2.16633e-05
3.7639e-05 -1.13118e-05 -1.12831e-05 -2.12218e-05
1.78134e-07 -7.35549e-08 -4.48194e-08 -2.16634e-05
1.78925e-07 -7.30857e-08 -4.53596e-08 -2.16634e-05
-3.68766e-05 1.10462e-05 1.10702e-05 -2.12207e-05
-3.60695e-05 1.08053e-05 1.08275e-05 -2.12207e-05
3.64329e-05 -1.09479e-05 -1.09222e-05 -2.12217e-05
3.7237e-05 -1.11905e-05 -1.11628e-05 -2.12218e-05
-3.6473e-05 1.09258e-05 1.09488e-05 -2.12207e-05
1.81248e-07 -7.17082e-08 -4.69457e-08 -2.16633e-05
3.6835e-05 -1.10692e-05 -1.10425e-05 -2.12217e-05
1.79708e-07 -7.26215e-08 -4.58941e-08 -2.16633e-05
1.80482e-07 -7.21623e-08 -4.64227e-08 -2.16633e-05
-3.60695e-05 1.08053e-05 1.08275e-05 -2.12207e-05
-3.52624e-05 1.05645e-05 1.05848e-05 -2.12207e-05
3.56288e-05 -1.07053e-05 -1.06815e-05 -2.12217e-05
3.64329e-05 -1.09479e-05 -1.09222e-05 -2.12217e-05
-3.56659e-05 1.06849e-05 1.07061e-05 -2.12207e-05
1.82755e-07 -7.08147e-08 -4.79743e-08 -2.16633e-05
3.60309e-05 -1.08266e-05 -1.08018e-05 -2.12217e-05
1.81248e-07 -7.17082e-08 -4.69457e-08 -2.16633e-05
1.82006e-07 -7.12589e-08 -4.74628e-08 -2.16633e-05
-3.52624e-05 1.05645e-05 1.05848e-05 -2.12207e-05
-3.44553e-05 1.03237e-05 1.03421e-05 -2.12207e-05
3.48247e-05 -1.04627e-05 -1.04408e-05 -2.12217e-05
3.56288e-05 -1.07053e-05 -1.06815e-05 -2.12217e-05
-3.48589e-05 1.04441e-05 1.04635e-05 -2.12207e-05
1.84228e-07 -6.99413e-08 -4.89798e-08 -2.16633e-05
3.52267e-05 -1.0584e-05 -1.05612e-05 -2.12217e-05
1.82755e-07 -7.08147e-08 -4.79743e-08 -2.16633e-05
1.83495e-07 -7.03755e-08 -4.84799e-08 -2.16633e-05
-3.44553e-05 1.03237e-05 1.03421e-05 -2.12207e-05
-3.36483e-05 1.00828e-05 1.00995e-05 -2.12207e-05
3.40205e-05 -1.02202e-05 -1.02001e-05 -2.12216e-05
3.48247e-05 -1.04627e-05 -1.04408e-05 -2.12217e-05
-3.40518e-05 1.02032e-05 1.02208e-05 -2.12207e-05
1.85667e-07 -6.90878e-08 -4.99623e-08 -2.16633e-05
3.44226e-05 -1.03414e-05 -1.03205e-05 -2.12217e-05
1.84228e-07 -6.99413e-08 -4.89798e-08 -2.16633e-05
1.84951e-07 -6.95121e-08 -4.94739e-08 -2.16633e-05
-3.36483e-05 1.00828e-05 1.00995e-05 -2.12207e-05
-3.28414e-05 9.84191e-06 9.85691e-06 -2.12207e-05
3.32163e-05 -9.97766e-06 -9.95942e-06 -2.12216e-05
3.40205e-05 -1.02202e-05 -1.02001e-05 -2.12216e-05
-3.32448e-05 9.96235e-06 9.97821e-06 -2.12207e-05
1.87072e-07 -6.82543e-08 -5.09218e-08 -2.16633e-05
3.36184e-05 -1.00989e-05 -1.00798e-05 -2.12216e-05
1.85667e-07 -6.90878e-08 -4.99623e-08 -2.16633e-05
1.86373e-07 -6.86686e-08 -5.04449e-08 -2.16633e-05
-3.28414e-05 9.84191e-06 9.85691e-06 -2.12207e-05
-3.20344e-05 9.601e-06 9.61432e-06 -2.12207e-05
3.24121e-05 -9.73516e-06 -9.71867e-06 -2.12216e-05
3.32163e-05 -9.97766e-06 -9.95942e-06 -2.12216e-05
-3.24379e-05 9.72145e-06 9.73561e-06 -2.12207e-05
1.88443e-07 -6.74408e-08 -5.18582e-08 -2.16632e-05
3.28142e-05 -9.85641e-06 -9.83905e-06 -2.12216e-05
1.87072e-07 -6.82543e-08 -5.09218e-08 -2.16633e-05
1.87762e-07 -6.78451e-08 -5.13929e-08 -2.16633e-05
-3.20344e-05 9.601e-06 9.61432e-06 -2.12207e-05
-3.12275e-05 9.36007e-06 9.37176e-06 -2.12207e-05
3.16078e-05 -9.49268e-06 -9.47791e-06 -2.12216e-05
3.24121e-05 -9.73516e-06 -9.71867e-06 -2.12216e-05
-3.1631e-05 9.48054e-06 9.49304e-06 -2.12207e-05
1.89781e-07 -6.66473e-08 -5.27716e-08 -2.16632e-05
3.20099e-05 -9.61392e-06 -9.59829e-06 -2.12216e-05
1.88443e-07 -6.74408e-08 -5.18582e-08 -2.16632e-05
1.89116e-07 -6.70415e-08 -5.23178e-08 -2.16632e-05
-3.12275e-05 9.36007e-06 9.37176e-06 -2.12207e-05
-3.04206e-05 9.11912e-06 9.12922e-06 -2.12207e-05
3.08035e-05 -9.25022e-06 -9.23712e-06 -2.12215e-05
3.16078e-05 -9.49268e-06 -9.47791e-06 -2.12216e-05
-3.08241e-05 9.2396e-06 9.25049e-06 -2.12207e-05
1.91085e-07 -6.58738e-08 -5.36619e-08 -2.16632e-05
3.12056e-05 -9.37145e-06 -9.35751e-06 -2.12216e-05
1.89781e-07 -6.66473e-08 -5.27716e-08 -2.16632e-05
1.90437e-07 -6.6258e-08 -5.32197e-08 -2.16632e-05
-3.04206e-05 9.11912e-06 9.12922e-06 -2.12207e-05
-2.96138e-05 8.87815e-06 8.8867e-06 -2.12207e-05
2.99992e-05 -9.00778e-06 -8.99631e-06 -2.12215e-05
3.08035e-05 -9.25022e-06 -9.23712e-06 -2.12215e-05
-3.00172e-05 8.99864e-06 9.00796e-06 -2.12207e-05
1.92355e-07 -6.51204e-08 -5.45292e-08 -2.16632e-05
3.04013e-05 -9.129e-06 -9.11671e-06 -2.12215e-05
1.91085e-07 -6.58738e-08 -5.36619e-08 -2.16632e-05
1.91724e-07 -6.54946e-08 -5.40984e-08 -2.16632e-05
-2.96138e-05 8.87815e-06 8.8867e-06 -2.12207e-05
-2.8807e-05 8.63717e-06 8.64421e-06 -2.12207e-05
2.91948e-05 -8.76536e-06 -8.75547e-06 -2.12215e-05
2.99992e-05 -9.00778e-06 -8.99631e-06 -2.12215e-05
-2.92104e-05 8.75766e-06 8.76545e-06 -2.12207e-05
1.93591e-07 -6.4387e-08 -5.53733e-08 -2.16632e-05
2.9597e-05 -8.88657e-06 -8.87589e-06 -2.12215e-05
1.92355e-07 -6.51204e-08 -5.45292e-08 -2.16632e-05
1.92977e-07 -6.47511e-08 -5.49541e-08 -2.16632e-05
-2.8807e-05 8.63717e-06 8.64421e-06 -2.12207e-05
-2.80002e-05 8.39616e-06 8.40174e-06 -2.12207e-05
2.83904e-05 -8.52296e-06 -8.51461e-06 -2.12215e-05
2.91948e-05 -8.76536e-06 -8.75547e-06 -2.12215e-05
-2.84036e-05 8.51667e-06 8.52297e-06 -2.12207e-05
1.94794e-07 -6.36738e-08 -5.61944e-08 -2.16632e-05
2.87926e-05 -8.64416e-06 -8.63505e-06 -2.12215e-05
1.93591e-07 -6.4387e-08 -5.53733e-08 -2.16632e-05
1.94197e-07 -6.40278e-08 -5.57867e-08 -2.16632e-05
-2.80002e-05 8.39616e-06 8.40174e-06 -2.12207e-05
-2.71935e-05 8.15513e-06 8.15929e-06 -2.12207e-05
2.7586e-05 -8.28058e-06 -8.27373e-06 -2.12214e-05
2.83904e-05 -8.52296e-06 -8.51461e-06 -2.12215e-05
-2.75968e-05 8.27565e-06 8.28051e-06 -2.12207e-05
1.95963e-07 -6.29808e-08 -5.69923e-08 -2.16632e-05
2.79882e-05 -8.40177e-06 -8.39418e-06 -2.12215e-05
1.94794e-07 -6.36738e-08 -5.61944e-08 -2.16632e-05
1.95383e-07 -6.33247e-08 -5.65962e-08 -2.16632e-05
-2.71935e-05 8.15513e-06 8.15929e-06 -2.12207e-05
-2.63868e-05 7.91409e-06 7.91686e-06 -2.12207e-05
2.67815e-05 -8.03822e-06 -8.03283e-06 -2.12214e-05
2.7586e-05 -8.28058e-06 -8.27373e-06 -2.12214e-05
-2.67901e-05 8.03461e-06 8.03807e-06 -2.12207e-05
1.97098e-07 -6.23081e-08 -5.77671e-08 -2.16632e-05
2.71837e-05 -8.1594e-06 -8.15329e-06 -2.12214e-05
1.95963e-07 -6.29808e-08 -5.69923e-08 -2.16632e-05
1.96535e-07 -6.26419e-08 -5.73826e-08 -2.16632e-05
-2.63868e-05 7.91409e-06 7.91686e-06 -2.12207e-05
-2.55801e-05 7.67302e-06 7.67446e-06 -2.12207e-05
2.5977e-05 -7.79588e-06 -7.79191e-06 -2.12214e-05
2.67815e-05 -8.03822e-06 -8.03283e-06 -2.12214e-05
-2.59834e-05 7.79356e-06 7.79566e-06 -2.12207e-05
1.982e-07 -6.1656e-08 -5.85187e-08 -2.16631e-05
2.63792e-05 -7.91705e-06 -7.91237e-06 -2.12214e-05
1.97098e-07 -6.23081e-08 -5.77671e-08 -2.16632e-05
1.97653e-07 -6.19795e-08 -5.81458e-08 -2.16631e-05
-2.55801e-05 7.67302e-06 7.67446e-06 -2.12207e-05
-2.47735e-05 7.43194e-06 7.43208e-06 -2.12207e-05
2.51725e-05 -7.55356e-06 -7.55096e-06 -2.12214e-05
2.5977e-05 -7.79588e-06 -7.79191e-06 -2.12214e-05
-2.51768e-05 7.55248e-06 7.55327e-06 -2.12207e-05
1.99268e-07 -6.10247e-08 -5.92472e-08 -2.16631e-05
2.55747e-05 -7.67471e-06 -7.67144e-06 -2.12214e-05
1.982e-07 -6.1656e-08 -5.85187e-08 -2.16631e-05
1.98738e-07 -6.13377e-08 -5.88858e-08 -2.16631e-05
-2.47735e-05 7.43194e-06 7.43208e-06 -2.12207e-05
-2.39669e-05 7.19083e-06 7.18972e-06 -2.12207e-05
2.43679e-05 -7.31126e-06 -7.30999e-06 -2.12214e-05
2.51725e-05 -7.55356e-06 -7.55096e-06 -2.12214e-05
-2.43702e-05 7.31139e-06 7.3109e-06 -2.12207e-05
2.00304e-07 -6.04144e-08 -5.99525e-08 -2.16631e-05
2.47702e-05 -7.43241e-06 -7.43048e-06 -2.12214e-05
1.99268e-07 -6.10247e-08 -5.92472e-08 -2.16631e-05
1.9979e-07 -6.07169e-08 -5.96027e-08 -2.16631e-05
-2.39669e-05 7.19083e-06 7.18972e-06 -2.12207e-05
-2.31603e-05 6.9497e-06 6.94739e-06 -2.12207e-05
2.35633e-05 -7.06898e-06 -7.069e-06 -2.12213e-05
2.43679e-05 -7.31126e-06 -7.30999e-06 -2.12214e-05
-2.35636e-05 7.07027e-06 7.06855e-06 -2.12207e-05
2.01306e-07 -5.98256e-08 -6.06346e-08 -2.16631e-05
2.39656e-05 -7.19012e-06 -7.1895e-06 -2.12213e-05
2.00304e-07 -6.04144e-08 -5.99525e-08 -2.16631e-05
2.00809e-07 -6.01173e-08 -6.02964e-08 -2.16631e-05
-2.31603e-05 6.9497e-06 6.94739e-06 -2.12207e-05
-2.23537e-05 6.70856e-06 6.70508e-06 -2.12207e-05
2.27587e-05 -6.82672e-06 -6.82798e-06 -2.12213e-05
2.35633e-05 -7.06898e-06 -7.069e-06 -2.12213e-05
-2.2757e-05 6.82913e-06 6.82623e-06 -2.12207e-05
2.02277e-07 -5.92587e-08 -6.12936e-08 -2.16631e-05
2.3161e-05 -6.94785e-06 -6.94849e-06 -2.12213e-05
2.01306e-07 -5.98256e-08 -6.06346e-08 -2.16631e-05
2.01796e-07 -5.95394e-08 -6.0967e-08 -2.16631e-05
-2.23537e-05 6.70856e-06 6.70508e-06 -2.12207e-05
-2.15472e-05 6.46739e-06 6.46279e-06 -2.12207e-05
2.1954e-05 -6.58449e-06 -6.58695e-06 -2.12213e-05
2.27587e-05 -6.82672e-06 -6.82798e-06 -2.12213e-05
-2.19505e-05 6.58797e-06 6.58393e-06 -2.12207e-05
2.03217e-07 -5.87143e-08 -6.19297e-08 -2.16631e-05
2.23564e-05 -6.7056e-06 -6.70747e-06 -2.12213e-05
2.02277e-07 -5.92587e-08 -6.12936e-08 -2.16631e-05
2.02751e-07 -5.89837e-08 -6.16145e-08 -2.16631e-05
-2.15472e-05 6.46739e-06 6.46279e-06 -2.12207e-05
-2.07408e-05 6.22619e-06 6.22053e-06 -2.12207e-05
2.11493e-05 -6.34228e-06 -6.34589e-06 -2.12213e-05
2.1954e-05 -6.58449e-06 -6.58695e-06 -2.12213e-05
-2.1144e-05 6.34679e-06 6.34166e-06 -2.12207e-05
2.04126e-07 -5.81926e-08 -6.25429e-08 -2.16631e-05
2.15517e-05 -6.46338e-06 -6.46642e-06 -2.12213e-05
2.03217e-07 -5.87143e-08 -6.19297e-08 -2.16631e-05
2.03675e-07 -5.84505e-08 -6.22391e-08 -2.16631e-05
-2.07408e-05 6.22619e-06 6.22053e-06 -2.12207e-05
-1.99343e-05 5.98498e-06 5.97828e-06 -2.12207e-05
2.03446e-05 -6.10009e-06 -6.1048e-06 -2.12213e-05
2.11493e-05 -6.34228e-06 -6.34589e-06 -2.12213e-05
-2.03375e-05 6.10559e-06 6.0994e-06 -2.12207e-05
2.05006e-07 -5.76939e-08 -6.31336e-08 -2.16631e-05
2.0747e-05 -6.22118e-06 -6.22535e-06 -2.12213e-05
2.04126e-07 -5.81926e-08 -6.25429e-08 -2.16631e-05
2.04569e-07 -5.79404e-08 -6.2841e-08 -2.16631e-05
-1.99343e-05 5.98498e-06 5.97828e-06 -2.12207e-05
-1.91279e-05 5.74375e-06 5.73606e-06 -2.12206e-05
1.95399e-05 -5.85793e-06 -5.8637e-06 -2.12212e-05
2.03446e-05 -6.10009e-06 -6.1048e-06 -2.12213e-05
-1.95311e-05 5.86437e-06 5.85717e-06 -2.12207e-05
2.05857e-07 -5.7218e-08 -6.37023e-08 -2.1663e-05
1.99423e-05 -5.979e-06 -5.98425e-06 -2.12212e-05
2.05006e-07 -5.76939e-08 -6.31336e-08 -2.16631e-05
2.05435e-07 -5.74532e-08 -6.34206e-08 -2.16631e-05
-1.91279e-05 5.74375e-06 5.73606e-06 -2.12206e-05
-1.83215e-05 5.5025e-06 5.49386e-06 -2.12206e-05
1.87351e-05 -5.61579e-06 -5.62258e-06 -2.12212e-05
1.95399e-05 -5.85793e-06 -5.8637e-06 -2.12212e-05
-1.87247e-05 5.62313e-06 5.61496e-06 -2.12206e-05
2.0668e-07 -5.67636e-08 -6.42499e-08 -2.1663e-05
1.91375e-05 -5.73685e-06 -5.74314e-06 -2.12212e-05
2.05857e-07 -5.7218e-08 -6.37023e-08 -2.1663e-05
2.06272e-07 -5.69882e-08 -6.39787e-08 -2.1663e-05
-1.83215e-05 5.5025e-06 5.49386e-06 -2.12206e-05
-1.75152e-05 5.26124e-06 5.25168e-06 -2.12206e-05
1.79303e-05 -5.37367e-06 -5.38143e-06 -2.12212e-05
1.87351e-05 -5.61579e-06 -5.62258e-06 -2.12212e-05
-1.79183e-05 5.38187e-06 5.37277e-06 -2.12206e-05
2.07475e-07 -5.6328e-08 -6.47775e-08 -2.1663e-05
1.83327e-05 -5.49473e-06 -5.50201e-06 -2.12212e-05
2.0668e-07 -5.67636e-08 -6.42499e-08 -2.1663e-05
2.07081e-07 -5.65437e-08 -6.45161e-08 -2.1663e-05
-1.75152e-05 5.26124e-06 5.25168e-06 -2.12206e-05
-1.67088e-05 5.01997e-06 5.00952e-06 -2.12206e-05
1.71255e-05 -5.13158e-06 -5.14027e-06 -2.12211e-05
1.79303e-05 -5.37367e-06 -5.38143e-06 -2.12212e-05
-1.7112e-05 5.1406e-06 5.1306e-06 -2.12206e-05
2.08242e-07 -5.59058e-08 -6.52867e-08 -2.16629e-05
1.75279e-05 -5.25262e-06 -5.26085e-06 -2.12212e-05
2.07475e-07 -5.6328e-08 -6.47775e-08 -2.1663e-05
2.07862e-07 -5.61157e-08 -6.50343e-08 -2.1663e-05
-1.67088e-05 5.01997e-06 5.00952e-06 -2.12206e-05
-1.59026e-05 4.7787e-06 4.76738e-06 -2.12205e-05
1.63207e-05 -4.8895e-06 -4.8991e-06 -2.12211e-05
1.71255e-05 -5.13158e-06 -5.14027e-06 -2.12211e-05
-1.63057e-05 4.89933e-06 4.88845e-06 -2.12205e-05
2.08974e-07 -5.54876e-08 -6.578e-08 -2.16629e-05
1.67231e-05 -5.01054e-06 -5.01969e-06 -2.12211e-05
2.08242e-07 -5.59058e-08 -6.52867e-08 -2.16629e-05
2.08612e-07 -5.5697e-08 -6.55352e-08 -2.16629e-05
-1.59026e-05 4.7787e-06 4.76738e-06 -2.12205e-05
-1.50964e-05 4.53746e-06 4.52525e-06 -2.12204e-05
1.55159e-05 -4.64741e-06 -4.65792e-06 -2.12209e-05
1.63207e-05 -4.8895e-06 -4.8991e-06 -2.12211e-05
-1.54995e-05 4.65808e-06 4.64631e-06 -2.12205e-05
2.09665e-07 -5.50582e-08 -6.62602e-08 -2.16627e-05
1.59183e-05 -4.76846e-06 -4.77851e-06 -2.1221e-05
2.08974e-07 -5.54876e-08 -6.578e-08 -2.16629e-05
2.09326e-07 -5.52756e-08 -6.60215e-08 -2.16628e-05
-1.50964e-05 4.53746e-06 4.52525e-06 -2.12204e-05
-1.42903e-05 4.29624e-06 4.28315e-06 -2.12203e-05
1.4711e-05 -4.4053e-06 -4.41674e-06 -2.12208e-05
1.55159e-05 -4.64741e-06 -4.65792e-06 -2.12209e-05
-1.46933e-05 4.41684e-06 4.4042e-06 -2.12204e-05
2.10299e-07 -5.45936e-08 -6.6731e-08 -2.16626e-05
1.51135e-05 -4.52636e-06 -4.53733e-06 -2.12209e-05
2.09665e-07 -5.50582e-08 -6.62602e-08 -2.16627e-05
2.09991e-07 -5.48322e-08 -6.64964e-08 -2.16627e-05
-1.42903e-05 4.29624e-06 4.28315e-06 -2.12203e-05
-1.34842e-05 4.05504e-06 4.04107e-06 -2.12202e-05
1.39061e-05 -4.16306e-06 -4.17557e-06 -2.12206e-05
1.4711e-05 -4.4053e-06 -4.41674e-06 -2.12208e-05
-1.38872e-05 4.17564e-06 4.16211e-06 -2.12203e-05
2.10851e-07 -5.4058e-08 -6.71969e-08 -2.16625e-05
1.43085e-05 -4.2842e-06 -4.29615e-06 -2.12207e-05
2.10299e-07 -5.45936e-08 -6.6731e-08 -2.16626e-05
2.10587e-07 -5.43375e-08 -6.69642e-08 -2.16625e-05
-1.34842e-05 4.05504e-06 4.04107e-06 -2.12202e-05
-1.26782e-05 3.8138e-06 3.79902e-06 -2.12204e-05
1.31009e-05 -3.92056e-06 -3.93444e-06 -2.12206e-05
1.39061e-05 -4.16306e-06 -4.17557e-06 -2.12206e-05
-1.30812e-05 3.93443e-06 3.92005e-06 -2.12203e-05
2.11279e-07 -5.33999e-08 -6.76625e-08 -2.16626e-05
1.35035e-05 -4.04186e-06 -4.055e-06 -2.12206e-05
2.10851e-07 -5.4058e-08 -6.71969e-08 -2.16625e-05
2.11084e-07 -5.37483e-08 -6.74294e-08 -2.16625e-05
-1.26782e-05 3.8138e-06 3.79902e-06 -2.12204e-05
-1.18721e-05 3.57233e-06 3.55705e-06 -2.1221e-05
1.22954e-05 -3.67747e-06 -3.69338e-06 -2.12209e-05
1.31009e-05 -3.92056e-06 -3.93444e-06 -2.12206e-05
-1.22751e-05 3.69311e-06 3.67802e-06 -2.12206e-05
2.11522e-07 -5.25478e-08 -6.81318e-08 -2.16632e-05
1.26982e-05 -3.79911e-06 -3.81389e-06 -2.12207e-05
2.11279e-07 -5.33999e-08 -6.76625e-08 -2.16626e-05
2.11428e-07 -5.30036e-08 -6.78963e-08 -2.16628e-05
-1.18721e-05 3.57233e-06 3.55705e-06 -2.1221e-05
-1.10655e-05 3.33022e-06 3.3151e-06 -2.12229e-05
1.14887e-05 -3.43318e-06 -3.45238e-06 -2.12224e-05
1.22954e-05 -3.67747e-06 -3.69338e-06 -2.12209e-05
-1.14689e-05 3.4514e-06 3.43608e-06 -2.12217e-05
2.11488e-07 -5.14056e-08 -6.86069e-08 -2.16654e-05
1.18923e-05 -3.55553e-06 -3.57288e-06 -2.12214e-05
2.11522e-07 -5.25478e-08 -6.81318e-08 -2.16632e-05
2.11546e-07 -5.20199e-08 -6.83685e-08 -2.1664e-05
-1.10655e-05 3.33022e-06 3.3151e-06 -2.12229e-05
-1.02577e-05 3.08651e-06 3.07336e-06 -2.12277e-05
1.06802e-05 -3.18652e-06 -3.21158e-06 -2.12265e-05
1.14887e-05 -3.43318e-06 -3.45238e-06 -2.12224e-05
-1.06617e-05 3.20864e-06 3.19417e-06 -2.12248e-05
2.1105e-07 -4.98522e-08 -6.90847e-08 -2.16709e-05
1.10847e-05 -3.31024e-06 -3.33192e-06 -2.1224e-05
2.11488e-07 -5.14056e-08 -6.86069e-08 -2.16654e-05
2.11329e-07 -5.06893e-08 -6.88456e-08 -2.16676e-05
-1.02577e-05 3.08651e-06 3.07336e-06 -2.12277e-05
-9.44637e-06 2.8395e-06 2.83152e-06 -2.12386e-05
9.86709e-06 -2.93549e-06 -2.97069e-06 -2.12363e-05
1.06802e-05 -3.18652e-06 -3.21158e-06 -2.12265e-05
-9.85276e-06 2.96361e-06 2.95249e-06 -2.12321e-05
2.10032e-07 -4.77389e-08 -6.95541e-08 -2.16835e-05
1.02745e-05 -3.06177e-06 -3.09119e-06 -2.12304e-05
2.1105e-07 -4.98522e-08 -6.90847e-08 -2.16709e-05
2.10626e-07 -4.88751e-08 -6.93217e-08 -2.16759e-05
-9.44637e-06 2.8395e-06 2.83152e-06 -2.12386e-05
-8.62928e-06 2.58573e-06 2.59009e-06 -2.12615e-05
9.04669e-06 -2.67635e-06 -2.73015e-06 -2.12575e-05
9.86709e-06 -2.93549e-06 -2.97069e-06 -2.12363e-05
-9.03854e-06 2.71368e-06 2.71065e-06 -2.12481e-05
2.08209e-07 -4.49078e-08 -6.99863e-08 -2.17103e-05
9.45782e-06 -2.80718e-06 -2.85028e-06 -2.1245e-05
2.10032e-07 -4.77389e-08 -6.95541e-08 -2.16835e-05
2.09237e-07 -4.64241e-08 -6.97768e-08 -2.16947e-05
-8.62928e-06 2.58573e-06 2.59009e-06 -2.12615e-05
-7.79774e-06 2.32021e-06 2.34751e-06 -2.13069e-05
8.20982e-06 -2.40378e-06 -2.4883e-06 -2.13008e-05
9.04669e-06 -2.67635e-06 -2.73015e-06 -2.12575e-05
-8.21641e-06 2.45504e-06 2.46916e-06 -2.12804e-05
2.05304e-07 -4.11994e-08 -7.03304e-08 -2.17632e-05
8.63145e-06 -2.54236e-06 -2.60961e-06 -2.12755e-05
2.08209e-07 -4.49078e-08 -6.99863e-08 -2.17103e-05
2.06911e-07 -4.31691e-08 -7.01751e-08 -2.17321e-05
-7.79774e-06 2.32021e-06 2.34751e-06 -2.13069e-05
-6.94584e-06 2.03371e-06 2.1052e-06 -2.13915e-05
7.34999e-06 -2.10837e-06 -2.24641e-06 -2.13825e-05
8.20982e-06 -2.40378e-06 -2.4883e-06 -2.13008e-05
-7.37398e-06 2.17991e-06 2.22603e-06 -2.1343e-05
2.01015e-07 -3.654e-08 -7.04893e-08 -2.18623e-05
7.78246e-06 -2.25926e-06 -2.36708e-06 -2.13356e-05
2.05304e-07 -4.11994e-08 -7.03304e-08 -2.17632e-05
2.0335e-07 -3.89923e-08 -7.04392e-08 -2.1806e-05
-6.94584e-06 2.03371e-06 2.1052e-06 -2.13915e-05
-6.04894e-06 1.71793e-06 1.85615e-06 -2.15423e-05
6.44198e-06 -1.78192e-06 -1.99717e-06 -2.15298e-05
7.34999e-06 -2.10837e-06 -2.24641e-06 -2.13825e-05
-6.50645e-06 1.8808e-06 1.98242e-06 -2.14564e-05
1.95045e-07 -3.09697e-08 -7.03181e-08 -2.20365e-05
6.90548e-06 -1.95032e-06 -2.12364e-06 -2.14457e-05
2.01015e-07 -3.654e-08 -7.04893e-08 -2.18623e-05
1.98259e-07 -3.3847e-08 -7.04625e-08 -2.19364e-05
-6.04894e-06 1.71793e-06 1.85615e-06 -2.15423e-05
-5.10313e-06 1.35926e-06 1.60451e-06 -2.17905e-05
5.48153e-06 -1.41145e-06 -1.74432e-06 -2.17738e-05
6.44198e-06 -1.78192e-06 -1.99717e-06 -2.15298e-05
-5.5792e-06 1.54279e-06 1.72989e-06 -2.16523e-05
1.87278e-07 -2.4945e-08 -6.95713e-08 -2.23218e-05
5.96537e-06 -1.60093e-06 -1.87047e-06 -2.16377e-05
1.95045e-07 -3.09697e-08 -7.03181e-08 -2.20365e-05
1.91382e-07 -2.79781e-08 -7.00301e-08 -2.21654e-05
-5.10313e-06 1.35926e-06 1.60451e-06 -2.17905e-05
-4.06274e-06 9.745e-07 1.32353e-06 -2.21703e-05
4.42317e-06 -1.01555e-06 -1.46041e-06 -2.21496e-05
5.48153e-06 -1.41145e-06 -1.74432e-06 -2.17738e-05
-4.60342e-06 1.17102e-06 1.47103e-06 -2.19615e-05
1.77863e-07 -1.93637e-08 -6.79281e-08 -2.2745e-05
4.97322e-06 -1.21739e-06 -1.60964e-06 -2.19428e-05
1.87278e-07 -2.4945e-08 -6.95713e-08 -2.23218e-05
1.82762e-07 -2.19832e-08 -6.89053e-08 -2.25101e-05
-4.06274e-06 9.745e-07 1.32353e-06 -2.21703e-05
-2.99037e-06 5.94664e-07 1.02673e-06 -2.2663e-05
3.331e-06 -6.28735e-07 -1.15811e-06 -2.26396e-05
4.42317e-06 -1.01555e-06 -1.46041e-06 -2.21496e-05
-3.51407e-06 7.71762e-07 1.17528e-06 -2.24071e-05
1.6785e-07 -1.6385e-08 -6.49134e-08 -2.32772e-05
3.86467e-06 -8.08462e-07 -1.3098e-06 -2.23849e-05
1.77863e-07 -1.93637e-08 -6.79281e-08 -2.2745e-05
1.72814e-07 -1.7396e-08 -6.66076e-08 -2.30122e-05
-2.99037e-06 5.94664e-07 1.02673e-06 -2.2663e-05
-1.89052e-06 4.2396e-07 6.28527e-07 -2.31475e-05
2.21299e-06 -4.61576e-07 -7.50605e-07 -2.31252e-05
3.331e-06 -6.28735e-07 -1.15811e-06 -2.26396e-05
-2.4598e-06 4.76177e-07 8.50123e-07 -2.29191e-05
1.5914e-07 -1.90166e-08 -6.00531e-08 -2.37312e-05
2.79087e-06 -5.10195e-07 -9.77432e-07 -2.28956e-05
1.6785e-07 -1.6385e-08 -6.49134e-08 -2.32772e-05
1.63211e-07 -1.67053e-08 -6.27883e-08 -2.35169e-05
-1.89052e-06 4.2396e-07 6.28527e-07 -2.31475e-05
-1.11811e-06 6.94824e-07 1.81408e-07 -2.31657e-05
1.4307e-06 -7.55657e-07 -2.89306e-07 -2.31504e-05
2.21299e-06 -4.61576e-07 -7.50605e-07 -2.31252e-05
-1.40311e-06 4.60739e-07 4.03872e-07 -2.32614e-05
1.55625e-07 -3.21058e-08 -5.2937e-08 -2.36129e-05
1.71904e-06 -5.068e-07 -5.19529e-07 -2.32417e-05
1.5914e-07 -1.90166e-08 -6.00531e-08 -2.37312e-05
1.56368e-07 -2.39962e-08 -5.67308e-08 -2.38193e-05
-1.11811e-06 6.94824e-07 1.81408e-07 -2.31657e-05
-6.99865e-07 1.88153e-06 -5.06428e-07 -2.18715e-05
1.01874e-06 -1.99533e-06 4.18538e-07 -2.18698e-05
1.4307e-06 -7.55657e-07 -2.89306e-07 -2.31504e-05
-9.21654e-07 1.2069e-06 -1.22246e-07 -2.27512e-05
1.60356e-07 -5.90951e-08 -4.33976e-08 -2.20937e-05
1.23495e-06 -1.29016e-06 2.36597e-08 -2.27421e-05
1.55625e-07 -3.21058e-08 -5.2937e-08 -2.36129e-05
1.56944e-07 -4.37216e-08 -4.85238e-08 -2.30348e-05
-6.99865e-07 1.88153e-06 -5.06428e-07 -2.18715e-05
-1.05282e-06 3.42792e-06 -1.0179e-06 -1.78658e-05
1.39917e-06 -3.62371e-06 9.53372e-07 -1.78814e-05
1.01874e-06 -1.99533e-06 4.18538e-07 -2.18698e-05
-6.70877e-07 2.60018e-06 -8.26846e-07 -2.03007e-05
1.76702e-07 -1.02152e-07 -3.19499e-08 -1.81179e-05
1.00062e-06 -2.75231e-06 7.50721e-07 -2.03071e-05
1.60356e-07 -5.90951e-08 -4.33976e-08 -2.20937e-05
1.6667e-07 -7.84662e-08 -3.78016e-08 -2.05775e-05
-1.05282e-06 3.42792e-06 -1.0179e-06 -1.78658e-05
-2.05151e-06 5.64715e-06 -1.54099e-06 -1.0225e-05
2.43863e-06 -5.92895e-06 1.49585e-06 -1.02141e-05
1.39917e-06 -3.62371e-06 9.53372e-07 -1.78814e-05
-1.5962e-06 4.44979e-06 -1.22297e-06 -1.45296e-05
2.05543e-07 -1.3303e-07 -3.1077e-08 -9.92452e-06
1.96248e-06 -4.69092e-06 1.16933e-06 -1.45432e-05
1.76702e-07 -1.02152e-07 -3.19499e-08 -1.81179e-05
1.89855e-07 -1.2664e-07 -2.7092e-08 -1.45631e-05
0.000139325 0 -5.97108e-05 8.00078e-05
0.000141872 -1.95958e-05 -5.24042e-05 2.64961e-05
0.000440247 -5.83643e-05 -0.000163664 -1.88991e-06
0.000389155 0 -0.000166781 5.08765e-05
0.000136055 -8.33226e-06 -5.47385e-05 5.04636e-05
0.000290972 -3.90183e-05 -0.00010798 1.55347e-05
0.000421804 -3.28273e-05 -0.000166704 1.89998e-05
0.000258461 0 -0.000110769 7.3008e-05
0.000278805 -1.85767e-05 -0.000111527 3.61019e-05
0.000141872 -1.95958e-05 -5.24042e-05 2.64961e-05
0.000153069 -3.22759e-05 -5.17684e-05 -5.5676e-06
0.000462824 -0.000106736 -0.000152609 -1.82967e-05
0.000440247 -5.83643e-05 -0.000163664 -1.88991e-06
0.000149852 -2.71776e-05 -5.25747e-05 7.64151e-06
0.000306029 -6.69223e-05 -0.000102474 -1.01277e-05
0.00045156 -8.40813e-05 -0.000157491 -1.24626e-05
0.000290972 -3.90183e-05 -0.00010798 1.55347e-05
0.000298773 -5.49051e-05 -0.000104515 1.63889e-06
0.000153069 -3.22759e-05 -5.17684e-05 -5.5676e-06
0.000156421 -4.17003e-05 -4.91658e-05 -2.00943e-05
0.000474313 -0.000131209 -0.000147044 -2.14445e-05
0.000462824 -0.000106736 -0.000152609 -1.82967e-05
0.000154324 -3.73011e-05 -5.01529e-05 -1.43257e-05
0.000314871 -8.47869e-05 -9.86073e-05 -2.1176e-05
0.000471315 -0.000121913 -0.000149744 -2.11632e-05
0.000306029 -6.69223e-05 -0.000102474 -1.01277e-05
0.000311731 -7.69797e-05 -0.000100608 -1.77618e-05
0.000156421 -4.17003e-05 -4.91658e-05 -2.00943e-05
0.000158201 -4.61828e-05 -4.80078e-05 -2.52682e-05
0.000473942 -0.000140862 -0.000142749 -1.98134e-05
0.000474313 -0.000131209 -0.000147044 -2.14445e-05
0.000158124 -4.45222e-05 -4.86864e-05 -2.35622e-05
0.000316404 -9.27801e-05 -9.5839e-05 -2.36057e-05
0.000474345 -0.000137263 -0.000144464 -2.0534e-05
0.000314871 -8.47869e-05 -9.86073e-05 -2.1176e-05
0.000316183 -8.9815e-05 -9.70147e-05 -2.27042e-05
0.000158201 -4.61828e-05 -4.80078e-05 -2.52682e-05
0.000157199 -4.79464e-05 -4.68223e-05 -2.58101e-05
0.000470653 -0.00014274 -0.000140534 -1.86972e-05
0.000473942 -0.000140862 -0.000142749 -1.98134e-05
0.000157582 -4.73019e-05 -4.72631e-05 -2.58276e-05
0.000314587 -9.54355e-05 -9.3922e-05 -2.32164e-05
0.00047281 -0.000142425 -0.000141593 -1.92588e-05
0.000316404 -9.27801e-05 -9.5839e-05 -2.36057e-05
0.000315788 -9.456e-05 -9.48121e-05 -2.36997e-05
0.000157199 -4.79464e-05 -4.68223e-05 -2.58101e-05
0.000155916 -4.79651e-05 -4.62648e-05 -2.4884e-05
0.000465986 -0.000142047 -0.000138831 -1.79487e-05
0.000470653 -0.00014274 -0.000140534 -1.86972e-05
0.000156745 -4.80999e-05 -4.6562e-05 -2.54405e-05
0.000311525 -9.52734e-05 -9.26792e-05 -2.22333e-05
0.000468152 -0.000142548 -0.000139544 -1.82082e-05
0.000314587 -9.54355e-05 -9.3922e-05 -2.32164e-05
0.000313074 -9.55725e-05 -9.3215e-05 -2.26587e-05
0.000155916 -4.79651e-05 -4.62648e-05 -2.4884e-05
0.000154255 -4.74996e-05 -4.57523e-05 -2.36931e-05
0.000461915 -0.000140485 -0.000137756 -1.77142e-05
0.000465986 -0.000142047 -0.000138831 -1.79487e-05
0.000154993 -4.77546e-05 -4.59594e-05 -2.42638e-05
0.000308505 -9.42927e-05 -9.18052e-05 -2.136e-05
0.000463969 -0.000141313 -0.000138281 -1.78199e-05
0.000311525 -9.52734e-05 -9.26792e-05 -2.22333e-05
0.000309986 -9.4822e-05 -9.22131e-05 -2.17997e-05
0.000154255 -4.74996e-05 -4.57523e-05 -2.36931e-05
0.000152899 -4.68842e-05 -4.54348e-05 -2.27489e-05
0.000458205 -0.000138949 -0.000136824 -1.76128e-05
0.000461915 -0.000140485 -0.000137756 -1.77142e-05
0.000153593 -4.71967e-05 -4.55985e-05 -2.31856e-05
0.000305815 -9.31356e-05 -9.11483e-05 -2.07486e-05
0.000459951 -0.000139692 -0.000137254 -1.76372e-05
0.000308505 -9.42927e-05 -9.18052e-05 -2.136e-05
0.000307106 -9.37134e-05 -9.14541e-05 -2.10041e-05
0.000152899 -4.68842e-05 -4.54348e-05 -2.27489e-05
0.000151655 -4.63445e-05 -4.51331e-05 -2.20969e-05
0.000455041 -0.000137596 -0.000136048 -1.76158e-05
0.000458205 -0.000138949 -0.000136824 -1.76128e-05
0.000152232 -4.66008e-05 -4.52707e-05 -2.23846e-05
0.000303501 -9.21216e-05 -9.05913e-05 -2.03616e-05
0.000456596 -0.000138247 -0.000136435 -1.76149e-05
0.000305815 -9.31356e-05 -9.11483e-05 -2.07486e-05
0.000304618 -9.26051e-05 -9.08626e-05 -2.05387e-05
0.000151655 -4.63445e-05 -4.51331e-05 -2.20969e-05
0.000150612 -4.58871e-05 -4.4882e-05 -2.16971e-05
0.000452157 -0.000136462 -0.000135298 -1.76283e-05
0.000455041 -0.000137596 -0.000136048 -1.76158e-05
0.000151128 -4.61061e-05 -4.50093e-05 -2.18717e-05
0.000301465 -9.12672e-05 -9.0085e-05 -2.01378e-05
0.000453556 -0.000137004 -0.000135665 -1.76185e-05
0.000303501 -9.21216e-05 -9.05913e-05 -2.03616e-05
0.000302454 -9.16758e-05 -9.03336e-05 -2.02296e-05
0.000150612 -4.58871e-05 -4.4882e-05 -2.16971e-05
0.000149655 -4.55109e-05 -4.46333e-05 -2.14655e-05
0.000449501 -0.000135486 -0.000134578 -1.76497e-05
0.000452157 -0.000136462 -0.000135298 -1.76283e-05
0.000150117 -4.56901e-05 -4.47546e-05 -2.1564e-05
0.000299617 -9.0555e-05 -8.9598e-05 -2.00143e-05
0.000450815 -0.000135958 -0.000134939 -1.76406e-05
0.000301465 -9.12672e-05 -9.0085e-05 -2.01378e-05
0.000300524 -9.0896e-05 -8.98404e-05 -2.00683e-05
0.000149655 -4.55109e-05 -4.46333e-05 -2.14655e-05
0.000148777 -4.51875e-05 -4.43955e-05 -2.13407e-05
0.000446954 -0.000134618 -0.000133858 -1.76642e-05
0.000449501 -0.000135486 -0.000134578 -1.76497e-05
0.000149213 -4.53441e-05 -4.45151e-05 -2.13933e-05
0.000297881 -8.99363e-05 -8.91191e-05 -1.99513e-05
0.000448214 -0.000135042 -0.000134217 -1.7657e-05
0.000299617 -9.0555e-05 -8.9598e-05 -2.00143e-05
0.000298739 -9.02365e-05 -8.9358e-05 -1.99765e-05
0.000148777 -4.51875e-05 -4.43955e-05 -2.13407e-05
0.000147933 -4.48992e-05 -4.41572e-05 -2.12766e-05
0.000444479 -0.000133815 -0.000133142 -1.76753e-05
0.000446954 -0.000134618 -0.000133858 -1.76642e-05
0.00014835 -4.504e-05 -4.42758e-05 -2.1303e-05
0.000296209 -8.93778e-05 -8.86419e-05 -1.99205e-05
0.000445712 -0.000134211 -0.000133501 -1.76705e-05
0.000297881 -8.99363e-05 -8.91191e-05 -1.99513e-05
0.000297039 -8.96513e-05 -8.88806e-05 -1.99334e-05
0.000147933 -4.48992e-05 -4.41572e-05 -2.12766e-05
0.000147112 -4.46308e-05 -4.39207e-05 -2.1246e-05
0.000442036 -0.000133048 -0.000132423 -1.7682e-05
0.000444479 -0.000133815 -0.000133142 -1.76753e-05
0.000147521 -4.47632e-05 -4.40392e-05 -2.12585e-05
0.000294571 -8.88534e-05 -8.81649e-05 -1.9907e-05
0.000443254 -0.000133428 -0.000132783 -1.76789e-05
0.000296209 -8.93778e-05 -8.86419e-05 -1.99205e-05
0.000295387 -8.91125e-05 -8.84035e-05 -1.99121e-05
0.000147112 -4.46308e-05 -4.39207e-05 -2.1246e-05
0.000146302 -4.43738e-05 -4.36835e-05 -2.12324e-05
0.000439612 -0.000132302 -0.000131704 -1.76863e-05
0.000442036 -0.000133048 -0.000132423 -1.7682e-05
0.000146706 -4.45013e-05 -4.3802e-05 -2.12378e-05
0.000292951 -8.8348e-05 -8.76871e-05 -1.99017e-05
0.000440823 -0.000132673 -0.000132064 -1.76845e-05
0.000294571 -8.88534e-05 -8.81649e-05 -1.9907e-05
0.00029376 -8.8599e-05 -8.79261e-05 -1.99037e-05
0.000146302 -4.43738e-05 -4.36835e-05 -2.12324e-05
0.000145498 -4.41227e-05 -4.34465e-05 -2.1227e-05
0.000437195 -0.000131565 -0.000130984 -1.76888e-05
0.000439612 -0.000132302 -0.000131704 -1.76863e-05
0.0001459 -4.42478e-05 -4.35651e-05 -2.12291e-05
0.00029134 -8.78525e-05 -8.72087e-05 -1.99001e-05
0.000438403 -0.000131933 -0.000131344 -1.76877e-05
0.000292951 -8.8348e-05 -8.76871e-05 -1.99017e-05
0.000292145 -8.80994e-05 -8.7448e-05 -1.99006e-05
0.000145498 -4.41227e-05 -4.34465e-05 -2.1227e-05
0.000144696 -4.38748e-05 -4.32091e-05 -2.12254e-05
0.000434782 -0.000130834 -0.000130264 -1.76903e-05
0.000437195 -0.000131565 -0.000130984 -1.76888e-05
0.000145097 -4.39985e-05 -4.33278e-05 -2.12259e-05
0.000289732 -8.73619e-05 -8.67299e-05 -1.99e-05
0.000435988 -0.000131199 -0.000130624 -1.76897e-05
0.00029134 -8.78525e-05 -8.72087e-05 -1.99001e-05
0.000290535 -8.76068e-05 -8.69694e-05 -1.99e-05
0.000144696 -4.38748e-05 -4.32091e-05 -2.12254e-05
0.000143895 -4.36283e-05 -4.29716e-05 -2.12251e-05
0.00043237 -0.000130104 -0.000129542 -1.76911e-05
0.000434782 -0.000130834 -0.000130264 -1.76903e-05
0.000144296 -4.37514e-05 -4.30904e-05 -2.12251e-05
0.000288125 -8.68737e-05 -8.62507e-05 -1.99004e-05
0.000433576 -0.000130469 -0.000129903 -1.76908e-05
0.000289732 -8.73619e-05 -8.67299e-05 -1.99e-05
0.000288928 -8.71176e-05 -8.64903e-05 -1.99001e-05
0.000143895 -4.36283e-05 -4.29716e-05 -2.12251e-05
0.000143095 -4.33826e-05 -4.2734e-05 -2.12254e-05
0.000429958 -0.000129376 -0.000128821 -1.76916e-05
0.00043237 -0.000130104 -0.000129542 -1.76911e-05
0.000143495 -4.35054e-05 -4.28528e-05 -2.12252e-05
0.000286519 -8.63864e-05 -8.57713e-05 -1.99008e-05
0.000431164 -0.00012974 -0.000129182 -1.76914e-05
0.000288125 -8.68737e-05 -8.62507e-05 -1.99004e-05
0.000287322 -8.663e-05 -8.6011e-05 -1.99006e-05
0.000143095 -4.33826e-05 -4.2734e-05 -2.12254e-05
0.000142295 -4.31372e-05 -4.24963e-05 -2.12257e-05
0.000427547 -0.000128648 -0.000128099 -1.76918e-05
0.000429958 -0.000129376 -0.000128821 -1.76916e-05
0.000142695 -4.32599e-05 -4.26152e-05 -2.12255e-05
0.000284914 -8.58997e-05 -8.52917e-05 -1.99011e-05
0.000428752 -0.000129012 -0.00012846 -1.76917e-05
0.000286519 -8.63864e-05 -8.57713e-05 -1.99008e-05
0.000285717 -8.6143e-05 -8.55315e-05 -1.99009e-05
0.000142295 -4.31372e-05 -4.24963e-05 -2.12257e-05
0.000141495 -4.2892e-05 -4.22586e-05 -2.1226e-05
0.000425135 -0.00012792 -0.000127378 -1.76919e-05
0.000427547 -0.000128648 -0.000128099 -1.76918e-05
0.000141895 -4.30146e-05 -4.23774e-05 -2.12258e-05
0.000283308 -8.54131e-05 -8.48121e-05 -1.99013e-05
0.000426341 -0.000128284 -0.000127739 -1.76919e-05
0.000284914 -8.58997e-05 -8.52917e-05 -1.99011e-05
0.000284111 -8.56564e-05 -8.50519e-05 -1.99012e-05
0.000141495 -4.2892e-05 -4.22586e-05 -2.1226e-05
0.000140695 -4.26469e-05 -4.20208e-05 -2.12261e-05
0.000422723 -0.000127192 -0.000126656 -1.76919e-05
0.000425135 -0.00012792 -0.000127378 -1.76919e-05
0.000141095 -4.27694e-05 -4.21397e-05 -2.1226e-05
0.000281702 -8.49265e-05 -8.43324e-05 -1.99014e-05
0.000423929 -0.000127556 -0.000127017 -1.76919e-05
0.000283308 -8.54131e-05 -8.48121e-05 -1.99013e-05
0.000282505 -8.51698e-05 -8.45723e-05 -1.99014e-05
0.000140695 -4.26469e-05 -4.20208e-05 -2.12261e-05
0.000139895 -4.24018e-05 -4.1783e-05 -2.12262e-05
0.000420311 -0.000126464 -0.000125934 -1.76919e-05
0.000422723 -0.000127192 -0.000126656 -1.76919e-05
0.000140295 -4.25244e-05 -4.19019e-05 -2.12262e-05
0.000280096 -8.444e-05 -8.38527e-05 -1.99015e-05
0.000421517 -0.000126828 -0.000126295 -1.7692e-05
0.000281702 -8.49265e-05 -8.43324e-05 -1.99014e-05
0.000280899 -8.46833e-05 -8.40925e-05 -1.99015e-05
0.000139895 -4.24018e-05 -4.1783e-05 -2.12262e-05
0.000139095 -4.21568e-05 -4.15451e-05 -2.12263e-05
0.000417899 -0.000125737 -0.000125212 -1.76919e-05
0.000420311 -0.000126464 -0.000125934 -1.76919e-05
0.000139495 -4.22793e-05 -4.1664e-05 -2.12262e-05
0.00027849 -8.39535e-05 -8.33729e-05 -1.99015e-05
0.000419105 -0.000126101 -0.000125573 -1.76919e-05
0.000280096 -8.444e-05 -8.38527e-05 -1.99015e-05
0.000279293 -8.41968e-05 -8.36128e-05 -1.99015e-05
0.000139095 -4.21568e-05 -4.15451e-05 -2.12263e-05
0.000138295 -4.19118e-05 -4.13072e-05 -2.12263e-05
0.000415487 -0.000125009 -0.000124491 -1.76919e-05
0.000417899 -0.000125737 -0.000125212 -1.76919e-05
0.000138695 -4.20343e-05 -4.14262e-05 -2.12263e-05
0.000276884 -8.3467e-05 -8.28931e-05 -1.99015e-05
0.000416693 -0.000125373 -0.000124851 -1.76919e-05
0.00027849 -8.39535e-05 -8.33729e-05 -1.99015e-05
0.000277687 -8.37103e-05 -8.3133e-05 -1.99015e-05
0.000138295 -4.19118e-05 -4.13072e-05 -2.12263e-05
0.000137495 -4.16668e-05 -4.10693e-05 -2.12263e-05
0.000413075 -0.000124281 -0.000123769 -1.76918e-05
0.000415487 -0.000125009 -0.000124491 -1.76919e-05
0.000137895 -4.17893e-05 -4.11883e-05 -2.12263e-05
0.000275278 -8.29806e-05 -8.24133e-05 -1.99015e-05
0.000414281 -0.000124645 -0.00012413 -1.76919e-05
0.000276884 -8.3467e-05 -8.28931e-05 -1.99015e-05
0.000276081 -8.32238e-05 -8.26532e-05 -1.99015e-05
0.000137495 -4.16668e-05 -4.10693e-05 -2.12263e-05
0.000136695 -4.14219e-05 -4.08314e-05 -2.12262e-05
0.000410663 -0.000123553 -0.000123047 -1.76918e-05
0.000413075 -0.000124281 -0.000123769 -1.76918e-05
0.000137095 -4.15444e-05 -4.09503e-05 -2.12262e-05
0.000273672 -8.24941e-05 -8.19335e-05 -1.99014e-05
0.000411869 -0.000123917 -0.000123408 -1.76918e-05
0.000275278 -8.29806e-05 -8.24133e-05 -1.99015e-05
0.000274475 -8.27373e-05 -8.21734e-05 -1.99014e-05
0.000136695 -4.14219e-05 -4.08314e-05 -2.12262e-05
0.000135895 -4.11769e-05 -4.05934e-05 -2.12262e-05
0.00040825 -0.000122825 -0.000122325 -1.76917e-05
0.000410663 -0.000123553 -0.000123047 -1.76918e-05
0.000136295 -4.12994e-05 -4.07124e-05 -2.12262e-05
0.000272066 -8.20076e-05 -8.14536e-05 -1.99014e-05
0.000409456 -0.000123189 -0.000122686 -1.76918e-05
0.000273672 -8.24941e-05 -8.19335e-05 -1.99014e-05
0.000272869 -8.22509e-05 -8.16936e-05 -1.99014e-05
0.000135895 -4.11769e-05 -4.05934e-05 -2.12262e-05
0.000135095 -4.0932e-05 -4.03555e-05 -2.12262e-05
0.000405838 -0.000122098 -0.000121603 -1.76917e-05
0.00040825 -0.000122825 -0.000122325 -1.76917e-05
0.000135495 -4.10545e-05 -4.04744e-05 -2.12262e-05
0.00027046 -8.15212e-05 -8.09738e-05 -1.99013e-05
0.000407044 -0.000122461 -0.000121964 -1.76917e-05
0.000272066 -8.20076e-05 -8.14536e-05 -1.99014e-05
0.000271263 -8.17644e-05 -8.12137e-05 -1.99014e-05
0.000135095 -4.0932e-05 -4.03555e-05 -2.12262e-05
0.000134295 -4.06871e-05 -4.01175e-05 -2.12261e-05
0.000403426 -0.00012137 -0.000120881 -1.76916e-05
0.000405838 -0.000122098 -0.000121603 -1.76917e-05
0.000134695 -4.08096e-05 -4.02365e-05 -2.12262e-05
0.000268854 -8.10348e-05 -8.04939e-05 -1.99013e-05
0.000404632 -0.000121734 -0.000121242 -1.76917e-05
0.00027046 -8.15212e-05 -8.09738e-05 -1.99013e-05
0.000269657 -8.1278e-05 -8.07338e-05 -1.99013e-05
0.000134295 -4.06871e-05 -4.01175e-05 -2.12261e-05
0.000133494 -4.04422e-05 -3.98794e-05 -2.12261e-05
0.000401014 -0.000120642 -0.000120159 -1.76916e-05
0.000403426 -0.00012137 -0.000120881 -1.76916e-05
0.000133894 -4.05647e-05 -3.99985e-05 -2.12261e-05
0.000267248 -8.05484e-05 -8.0014e-05 -1.99013e-05
0.00040222 -0.000121006 -0.00012052 -1.76916e-05
0.000268854 -8.10348e-05 -8.04939e-05 -1.99013e-05
0.000268051 -8.07916e-05 -8.02539e-05 -1.99013e-05
0.000133494 -4.04422e-05 -3.98794e-05 -2.12261e-05
0.000132694 -4.01974e-05 -3.96414e-05 -2.12261e-05
0.000398601 -0.000119914 -0.000119437 -1.76915e-05
0.000401014 -0.000120642 -0.000120159 -1.76916e-05
0.000133094 -4.03198e-05 -3.97604e-05 -2.12261e-05
0.000265641 -8.0062e-05 -7.9534e-05 -1.99012e-05
0.000399807 -0.000120278 -0.000119798 -1.76916e-05
0.000267248 -8.05484e-05 -8.0014e-05 -1.99013e-05
0.000266445 -8.03052e-05 -7.9774e-05 -1.99012e-05
0.000132694 -4.01974e-05 -3.96414e-05 -2.12261e-05
0.000131894 -3.99525e-05 -3.94034e-05 -2.12261e-05
0.000396189 -0.000119187 -0.000118715 -1.76915e-05
0.000398601 -0.000119914 -0.000119437 -1.76915e-05
0.000132294 -4.00749e-05 -3.95224e-05 -2.12261e-05
0.000264035 -7.95757e-05 -7.90541e-05 -1.99012e-05
0.000397395 -0.00011955 -0.000119076 -1.76915e-05
0.000265641 -8.0062e-05 -7.9534e-05 -1.99012e-05
0.000264838 -7.98188e-05 -7.92941e-05 -1.99012e-05
0.000131894 -3.99525e-05 -3.94034e-05 -2.12261e-05
0.000131093 -3.97077e-05 -3.91653e-05 -2.1226e-05
0.000393777 -0.000118459 -0.000117993 -1.76914e-05
0.000396189 -0.000119187 -0.000118715 -1.76915e-05
0.000131493 -3.98301e-05 -3.92843e-05 -2.1226e-05
0.000262429 -7.90893e-05 -7.85741e-05 -1.99011e-05
0.000394983 -0.000118823 -0.000118354 -1.76915e-05
0.000264035 -7.95757e-05 -7.90541e-05 -1.99012e-05
0.000263232 -7.93325e-05 -7.88141e-05 -1.99012e-05
0.000131093 -3.97077e-05 -3.91653e-05 -2.1226e-05
0.000130293 -3.94629e-05 -3.89272e-05 -2.1226e-05
0.000391364 -0.000117731 -0.000117271 -1.76914e-05
0.000393777 -0.000118459 -0.000117993 -1.76914e-05
0.000130693 -3.95853e-05 -3.90462e-05 -2.1226e-05
0.000260823 -7.8603e-05 -7.80941e-05 -1.99011e-05
0.00039257 -0.000118095 -0.000117632 -1.76914e-05
0.000262429 -7.90893e-05 -7.85741e-05 -1.99011e-05
0.000261626 -7.88461e-05 -7.83341e-05 -1.99011e-05
0.000130293 -3.94629e-05 -3.89272e-05 -2.1226e-05
0.000129493 -3.92181e-05 -3.86891e-05 -2.1226e-05
0.000388952 -0.000117003 -0.000116549 -1.76914e-05
0.000391364 -0.000117731 -0.000117271 -1.76914e-05
0.000129893 -3.93405e-05 -3.88081e-05 -2.1226e-05
0.000259216 -7.81166e-05 -7.76141e-05 -1.99011e-05
0.000390158 -0.000117367 -0.00011691 -1.76914e-05
0.000260823 -7.8603e-05 -7.80941e-05 -1.99011e-05
0.000260019 -7.83598e-05 -7.78541e-05 -1.99011e-05
0.000129493 -3.92181e-05 -3.86891e-05 -2.1226e-05
0.000128692 -3.89733e-05 -3.84509e-05 -2.12259e-05
0.000386539 -0.000116276 -0.000115827 -1.76913e-05
0.000388952 -0.000117003 -0.000116549 -1.76914e-05
0.000129092 -3.90957e-05 -3.857e-05 -2.12259e-05
0.00025761 -7.76303e-05 -7.71341e-05 -1.9901e-05
0.000387746 -0.00011664 -0.000116188 -1.76913e-05
0.000259216 -7.81166e-05 -7.76141e-05 -1.99011e-05
0.000258413 -7.78735e-05 -7.73741e-05 -1.9901e-05
0.000128692 -3.89733e-05 -3.84509e-05 -2.12259e-05
0.000127892 -3.87285e-05 -3.82128e-05 -2.12259e-05
0.000384127 -0.000115548 -0.000115105 -1.76913e-05
0.000386539 -0.000116276 -0.000115827 -1.76913e-05
0.000128292 -3.88509e-05 -3.83318e-05 -2.12259e-05
0.000256003 -7.71441e-05 -7.6654e-05 -1.9901e-05
0.000385333 -0.000115912 -0.000115466 -1.76913e-05
0.00025761 -7.76303e-05 -7.71341e-05 -1.9901e-05
0.000256807 -7.73872e-05 -7.68941e-05 -1.9901e-05
0.000127892 -3.87285e-05 -3.82128e-05 -2.12259e-05
0.000127091 -3.84838e-05 -3.79746e-05 -2.12259e-05
0.000381714 -0.00011482 -0.000114383 -1.76912e-05
0.000384127 -0.000115548 -0.000115105 -1.76913e-05
0.000127491 -3.86061e-05 -3.80937e-05 -2.12259e-05
0.000254397 -7.66578e-05 -7.6174e-05 -1.99009e-05
0.000382921 -0.000115184 -0.000114744 -1.76912e-05
0.000256003 -7.71441e-05 -7.6654e-05 -1.9901e-05
0.0002552 -7.69009e-05 -7.6414e-05 -1.9901e-05
0.000127091 -3.84838e-05 -3.79746e-05 -2.12259e-05
0.000126291 -3.8239e-05 -3.77364e-05 -2.12258e-05
0.000379302 -0.000114093 -0.000113661 -1.76912e-05
0.000381714 -0.00011482 -0.000114383 -1.76912e-05
0.000126691 -3.83614e-05 -3.78555e-05 -2.12258e-05
0.000252791 -7.61715e-05 -7.56939e-05 -1.99009e-05
0.000380508 -0.000114457 -0.000114022 -1.76912e-05
0.000254397 -7.66578e-05 -7.6174e-05 -1.99009e-05
0.000253594 -7.64147e-05 -7.59339e-05 -1.99009e-05
0.000126291 -3.8239e-05 -3.77364e-05 -2.12258e-05
0.00012549 -3.79943e-05 -3.74981e-05 -2.12258e-05
0.000376889 -0.000113365 -0.000112939 -1.76911e-05
0.000379302 -0.000114093 -0.000113661 -1.76912e-05
0.00012589 -3.81167e-05 -3.76173e-05 -2.12258e-05
0.000251184 -7.56853e-05 -7.52138e-05 -1.99008e-05
0.000378096 -0.000113729 -0.0001133 -1.76911e-05
0.000252791 -7.61715e-05 -7.56939e-05 -1.99009e-05
0.000251987 -7.59284e-05 -7.54538e-05 -1.99009e-05
0.00012549 -3.79943e-05 -3.74981e-05 -2.12258e-05
0.000124689 -3.77496e-05 -3.72599e-05 -2.12258e-05
0.000374477 -0.000112638 -0.000112217 -1.76911e-05
0.000376889 -0.000113365 -0.000112939 -1.76911e-05
0.00012509 -3.7872e-05 -3.7379e-05 -2.12258e-05
0.000249578 -7.51991e-05 -7.47337e-05 -1.99008e-05
0.000375683 -0.000113001 -0.000112578 -1.76911e-05
0.000251184 -7.56853e-05 -7.52138e-05 -1.99008e-05
0.000250381 -7.54422e-05 -7.49737e-05 -1.99008e-05
0.000124689 -3.77496e-05 -3.72599e-05 -2.12258e-05
0.000123889 -3.75049e-05 -3.70216e-05 -2.12257e-05
0.000372064 -0.00011191 -0.000111495 -1.7691e-05
0.000374477 -0.000112638 -0.000112217 -1.76911e-05
0.000124289 -3.76273e-05 -3.71408e-05 -2.12257e-05
0.000247971 -7.47129e-05 -7.42535e-05 -1.99008e-05
0.000373271 -0.000112274 -0.000111856 -1.76911e-05
0.000249578 -7.51991e-05 -7.47337e-05 -1.99008e-05
0.000248774 -7.4956e-05 -7.44936e-05 -1.99008e-05
0.000123889 -3.75049e-05 -3.70216e-05 -2.12257e-05
0.000123088 -3.72603e-05 -3.67834e-05 -2.12257e-05
0.000369652 -0.000111182 -0.000110773 -1.7691e-05
0.000372064 -0.00011191 -0.000111495 -1.7691e-05
0.000123488 -3.73826e-05 -3.69025e-05 -2.12257e-05
0.000246365 -7.42267e-05 -7.37734e-05 -1.99007e-05
0.000370858 -0.000111546 -0.000111134 -1.7691e-05
0.000247971 -7.47129e-05 -7.42535e-05 -1.99008e-05
0.000247168 -7.44698e-05 -7.40134e-05 -1.99007e-05
0.000123088 -3.72603e-05 -3.67834e-05 -2.12257e-05
0.000122287 -3.70156e-05 -3.6545e-05 -2.12257e-05
0.000367239 -0.000110455 -0.00011005 -1.76909e-05
0.000369652 -0.000111182 -0.000110773 -1.7691e-05
0.000122688 -3.7138e-05 -3.66642e-05 -2.12257e-05
0.000244758 -7.37405e-05 -7.32932e-05 -1.99007e-05
0.000368445 -0.000110819 -0.000110411 -1.7691e-05
0.000246365 -7.42267e-05 -7.37734e-05 -1.99007e-05
0.000245561 -7.39836e-05 -7.35333e-05 -1.99007e-05
0.000122287 -3.70156e-05 -3.6545e-05 -2.12257e-05
0.000121487 -3.6771e-05 -3.63067e-05 -2.12256e-05
0.000364826 -0.000109727 -0.000109328 -1.76909e-05
0.000367239 -0.000110455 -0.00011005 -1.76909e-05
0.000121887 -3.68933e-05 -3.64259e-05 -2.12256e-05
0.000243151 -7.32544e-05 -7.2813e-05 -1.99006e-05
0.000366033 -0.000110091 -0.000109689 -1.76909e-05
0.000244758 -7.37405e-05 -7.32932e-05 -1.99007e-05
0.000243955 -7.34974e-05 -7.30531e-05 -1.99007e-05
0.000121487 -3.6771e-05 -3.63067e-05 -2.12256e-05
0.000120686 -3.65264e-05 -3.60684e-05 -2.12256e-05
0.000362414 -0.000109 -0.000108606 -1.76908e-05
0.000364826 -0.000109727 -0.000109328 -1.76909e-05
0.000121086 -3.66487e-05 -3.61875e-05 -2.12256e-05
0.000241545 -7.27682e-05 -7.23328e-05 -1.99006e-05
0.00036362 -0.000109364 -0.000108967 -1.76909e-05
0.000243151 -7.32544e-05 -7.2813e-05 -1.99006e-05
0.000242348 -7.30113e-05 -7.25729e-05 -1.99006e-05
0.000120686 -3.65264e-05 -3.60684e-05 -2.12256e-05
0.000119885 -3.62818e-05 -3.583e-05 -2.12255e-05
0.000360001 -0.000108272 -0.000107884 -1.76908e-05
0.000362414 -0.000109 -0.000108606 -1.76908e-05
0.000120286 -3.64041e-05 -3.59492e-05 -2.12256e-05
0.000239938 -7.22821e-05 -7.18525e-05 -1.99005e-05
0.000361207 -0.000108636 -0.000108245 -1.76908e-05
0.000241545 -7.27682e-05 -7.23328e-05 -1.99006e-05
0.000240741 -7.25252e-05 -7.20926e-05 -1.99006e-05
0.000119885 -3.62818e-05 -3.583e-05 -2.12255e-05
0.000119084 -3.60373e-05 -3.55916e-05 -2.12255e-05
0.000357588 -0.000107545 -0.000107161 -1.76907e-05
0.000360001 -0.000108272 -0.000107884 -1.76908e-05
0.000119485 -3.61595e-05 -3.57108e-05 -2.12255e-05
0.000238331 -7.1796e-05 -7.13723e-05 -1.99005e-05
0.000358795 -0.000107909 -0.000107523 -1.76908e-05
0.000239938 -7.22821e-05 -7.18525e-05 -1.99005e-05
0.000239135 -7.20391e-05 -7.16124e-05 -1.99005e-05
0.000119084 -3.60373e-05 -3.55916e-05 -2.12255e-05
0.000118284 -3.57927e-05 -3.53532e-05 -2.12255e-05
0.000355175 -0.000106817 -0.000106439 -1.76907e-05
0.000357588 -0.000107545 -0.000107161 -1.76907e-05
0.000118684 -3.5915e-05 -3.54724e-05 -2.12255e-05
0.000236725 -7.13099e-05 -7.0892e-05 -1.99005e-05
0.000356382 -0.000107181 -0.0001068 -1.76907e-05
0.000238331 -7.1796e-05 -7.13723e-05 -1.99005e-05
0.000237528 -7.1553e-05 -7.11321e-05 -1.99005e-05
0.000118284 -3.57927e-05 -3.53532e-05 -2.12255e-05
0.000117483 -3.55482e-05 -3.51148e-05 -2.12254e-05
0.000352763 -0.00010609 -0.000105717 -1.76906e-05
0.000355175 -0.000106817 -0.000106439 -1.76907e-05
0.000117883 -3.56704e-05 -3.5234e-05 -2.12255e-05
0.000235118 -7.08239e-05 -7.04117e-05 -1.99004e-05
0.000353969 -0.000106454 -0.000106078 -1.76907e-05
0.000236725 -7.13099e-05 -7.0892e-05 -1.99005e-05
0.000235921 -7.10669e-05 -7.06518e-05 -1.99004e-05
0.000117483 -3.55482e-05 -3.51148e-05 -2.12254e-05
0.000116682 -3.53037e-05 -3.48763e-05 -2.12254e-05
0.00035035 -0.000105362 -0.000104995 -1.76906e-05
0.000352763 -0.00010609 -0.000105717 -1.76906e-05
0.000117082 -3.54259e-05 -3.49955e-05 -2.12254e-05
0.000233511 -7.03378e-05 -6.99314e-05 -1.99004e-05
0.000351556 -0.000105726 -0.000105356 -1.76906e-05
0.000235118 -7.08239e-05 -7.04117e-05 -1.99004e-05
0.000234314 -7.05808e-05 -7.01715e-05 -1.99004e-05
0.000116682 -3.53037e-05 -3.48763e-05 -2.12254e-05
0.000115881 -3.50592e-05 -3.46378e-05 -2.12254e-05
0.000347937 -0.000104635 -0.000104272 -1.76905e-05
0.00035035 -0.000105362 -0.000104995 -1.76906e-05
0.000116281 -3.51814e-05 -3.47571e-05 -2.12254e-05
0.000231904 -6.98518e-05 -6.9451e-05 -1.99003e-05
0.000349143 -0.000104999 -0.000104633 -1.76906e-05
0.000233511 -7.03378e-05 -6.99314e-05 -1.99004e-05
0.000232708 -7.00948e-05 -6.96912e-05 -1.99003e-05
0.000115881 -3.50592e-05 -3.46378e-05 -2.12254e-05
0.00011508 -3.48147e-05 -3.43993e-05 -2.12253e-05
0.000345524 -0.000103908 -0.00010355 -1.76905e-05
0.000347937 -0.000104635 -0.000104272 -1.76905e-05
0.00011548 -3.49369e-05 -3.45186e-05 -2.12253e-05
0.000230297 -6.93658e-05 -6.89707e-05 -1.99003e-05
0.000346731 -0.000104271 -0.000103911 -1.76905e-05
0.000231904 -6.98518e-05 -6.9451e-05 -1.99003e-05
0.000231101 -6.96088e-05 -6.92108e-05 -1.99003e-05
0.00011508 -3.48147e-05 -3.43993e-05 -2.12253e-05
0.000114279 -3.45702e-05 -3.41608e-05 -2.12253e-05
0.000343111 -0.00010318 -0.000102828 -1.76904e-05
0.000345524 -0.000103908 -0.00010355 -1.76905e-05
0.000114679 -3.46925e-05 -3.42801e-05 -2.12253e-05
0.00022869 -6.88798e-05 -6.84903e-05 -1.99002e-05
0.000344318 -0.000103544 -0.000103189 -1.76905e-05
0.000230297 -6.93658e-05 -6.89707e-05 -1.99003e-05
0.000229494 -6.91228e-05 -6.87305e-05 -1.99003e-05
0.000114279 -3.45702e-05 -3.41608e-05 -2.12253e-05
0.000113478 -3.43258e-05 -3.39223e-05 -2.12253e-05
0.000340698 -0.000102453 -0.000102105 -1.76904e-05
0.000343111 -0.00010318 -0.000102828 -1.76904e-05
0.000113878 -3.4448e-05 -3.40416e-05 -2.12253e-05
0.000227084 -6.83938e-05 -6.80099e-05 -1.99002e-05
0.000341905 -0.000102816 -0.000102466 -1.76904e-05
0.00022869 -6.88798e-05 -6.84903e-05 -1.99002e-05
0.000227887 -6.86368e-05 -6.82501e-05 -1.99002e-05
0.000113478 -3.43258e-05 -3.39223e-05 -2.12253e-05
0.000112677 -3.40814e-05 -3.36837e-05 -2.12252e-05
0.000338285 -0.000101725 -0.000101383 -1.76903e-05
0.000340698 -0.000102453 -0.000102105 -1.76904e-05
0.000113077 -3.42036e-05 -3.3803e-05 -2.12252e-05
0.000225477 -6.79078e-05 -6.75295e-05 -1.99001e-05
0.000339492 -0.000102089 -0.000101744 -1.76904e-05
0.000227084 -6.83938e-05 -6.80099e-05 -1.99002e-05
0.00022628 -6.81508e-05 -6.77697e-05 -1.99002e-05
0.000112677 -3.40814e-05 -3.36837e-05 -2.12252e-05
0.000111876 -3.3837e-05 -3.34452e-05 -2.12252e-05
0.000335872 -0.000100998 -0.00010066 -1.76903e-05
0.000338285 -0.000101725 -0.000101383 -1.76903e-05
0.000112276 -3.39592e-05 -3.35644e-05 -2.12252e-05
0.00022387 -6.74219e-05 -6.7049e-05 -1.99001e-05
0.000337079 -0.000101362 -0.000101022 -1.76903e-05
0.000225477 -6.79078e-05 -6.75295e-05 -1.99001e-05
0.000224673 -6.76648e-05 -6.72893e-05 -1.99001e-05
0.000111876 -3.3837e-05 -3.34452e-05 -2.12252e-05
0.000111075 -3.35926e-05 -3.32066e-05 -2.12251e-05
0.000333459 -0.000100271 -9.99381e-05 -1.76902e-05
0.000335872 -0.000100998 -0.00010066 -1.76903e-05
0.000111475 -3.37148e-05 -3.33259e-05 -2.12252e-05
0.000222263 -6.69359e-05 -6.65686e-05 -1.99e-05
0.000334666 -0.000100634 -0.000100299 -1.76903e-05
0.00022387 -6.74219e-05 -6.7049e-05 -1.99001e-05
0.000223066 -6.71789e-05 -6.68088e-05 -1.99001e-05
0.000111075 -3.35926e-05 -3.32066e-05 -2.12251e-05
0.000110273 -3.33482e-05 -3.29679e-05 -2.12251e-05
0.000331046 -9.95433e-05 -9.92156e-05 -1.76902e-05
0.000333459 -0.000100271 -9.99381e-05 -1.76902e-05
0.000110674 -3.34704e-05 -3.30872e-05 -2.12251e-05
0.000220656 -6.645e-05 -6.60881e-05 -1.99e-05
0.000332253 -9.9907e-05 -9.95768e-05 -1.76902e-05
0.000222263 -6.69359e-05 -6.65686e-05 -1.99e-05
0.000221459 -6.6693e-05 -6.63284e-05 -1.99e-05
0.000110273 -3.33482e-05 -3.29679e-05 -2.12251e-05
0.000109472 -3.31039e-05 -3.27293e-05 -2.12251e-05
0.000328633 -9.8816e-05 -9.84932e-05 -1.76901e-05
0.000331046 -9.95433e-05 -9.92156e-05 -1.76902e-05
0.000109873 -3.3226e-05 -3.28486e-05 -2.12251e-05
0.000219049 -6.59641e-05 -6.56076e-05 -1.99e-05
0.00032984 -9.91797e-05 -9.88544e-05 -1.76902e-05
0.000220656 -6.645e-05 -6.60881e-05 -1.99e-05
0.000219852 -6.62071e-05 -6.58479e-05 -1.99e-05
0.000109472 -3.31039e-05 -3.27293e-05 -2.12251e-05
0.000108671 -3.28595e-05 -3.24906e-05 -2.1225e-05
0.00032622 -9.80887e-05 -9.77707e-05 -1.76901e-05
0.000328633 -9.8816e-05 -9.84932e-05 -1.76901e-05
0.000109072 -3.29817e-05 -3.261e-05 -2.1225e-05
0.000217442 -6.54783e-05 -6.51271e-05 -1.98999e-05
0.000327427 -9.84524e-05 -9.81319e-05 -1.76901e-05
0.000219049 -6.59641e-05 -6.56076e-05 -1.99e-05
0.000218245 -6.57212e-05 -6.53674e-05 -1.98999e-05
0.000108671 -3.28595e-05 -3.24906e-05 -2.1225e-05
0.00010787 -3.26152e-05 -3.22519e-05 -2.1225e-05
0.000323807 -9.73614e-05 -9.70482e-05 -1.769e-05
0.00032622 -9.80887e-05 -9.77707e-05 -1.76901e-05
0.00010827 -3.27374e-05 -3.23713e-05 -2.1225e-05
0.000215834 -6.49924e-05 -6.46466e-05 -1.98999e-05
0.000325014 -9.77251e-05 -9.74095e-05 -1.76901e-05
0.000217442 -6.54783e-05 -6.51271e-05 -1.98999e-05
0.000216638 -6.52353e-05 -6.48868e-05 -1.98999e-05
0.00010787 -3.26152e-05 -3.22519e-05 -2.1225e-05
0.000107068 -3.23709e-05 -3.20132e-05 -2.12249e-05
0.000321394 -9.66342e-05 -9.63257e-05 -1.769e-05
0.000323807 -9.73614e-05 -9.70482e-05 -1.769e-05
0.000107469 -3.24931e-05 -3.21326e-05 -2.1225e-05
0.000214227 -6.45066e-05 -6.4166e-05 -1.98998e-05
0.000322601 -9.69978e-05 -9.6687e-05 -1.769e-05
0.000215834 -6.49924e-05 -6.46466e-05 -1.98999e-05
0.000215031 -6.47495e-05 -6.44063e-05 -1.98998e-05
0.000107068 -3.23709e-05 -3.20132e-05 -2.12249e-05
0.000106267 -3.21267e-05 -3.17745e-05 -2.12249e-05
0.000318981 -9.59069e-05 -9.56032e-05 -1.76899e-05
0.000321394 -9.66342e-05 -9.63257e-05 -1.769e-05
0.000106668 -3.22488e-05 -3.18939e-05 -2.12249e-05
0.00021262 -6.40207e-05 -6.36854e-05 -1.98998e-05
0.000320188 -9.62705e-05 -9.59644e-05 -1.769e-05
0.000214227 -6.45066e-05 -6.4166e-05 -1.98998e-05
0.000213424 -6.42636e-05 -6.39257e-05 -1.98998e-05
0.000106267 -3.21267e-05 -3.17745e-05 -2.12249e-05
0.000105466 -3.18824e-05 -3.15358e-05 -2.12249e-05
0.000316568 -9.51797e-05 -9.48806e-05 -1.76899e-05
0.000318981 -9.59069e-05 -9.56032e-05 -1.76899e-05
0.000105866 -3.20045e-05 -3.16551e-05 -2.12249e-05
0.000211013 -6.35349e-05 -6.32048e-05 -1.98997e-05
0.000317774 -9.55433e-05 -9.52419e-05 -1.76899e-05
0.00021262 -6.40207e-05 -6.36854e-05 -1.98998e-05
0.000211817 -6.37778e-05 -6.34451e-05 -1.98997e-05
0.000105466 -3.18824e-05 -3.15358e-05 -2.12249e-05
0.000104664 -3.16382e-05 -3.1297e-05 -2.12248e-05
0.000314155 -9.44524e-05 -9.41581e-05 -1.76898e-05
0.000316568 -9.51797e-05 -9.48806e-05 -1.76899e-05
0.000105065 -3.17603e-05 -3.14164e-05 -2.12249e-05
0.000209406 -6.30491e-05 -6.27242e-05 -1.98997e-05
0.000315361 -9.4816e-05 -9.45194e-05 -1.76899e-05
0.000211013 -6.35349e-05 -6.32048e-05 -1.98997e-05
0.000210209 -6.3292e-05 -6.29645e-05 -1.98997e-05
0.000104664 -3.16382e-05 -3.1297e-05 -2.12248e-05
0.000103863 -3.13939e-05 -3.10582e-05 -2.12248e-05
0.000311741 -9.37252e-05 -9.34355e-05 -1.76898e-05
0.000314155 -9.44524e-05 -9.41581e-05 -1.76898e-05
0.000104264 -3.15161e-05 -3.11776e-05 -2.12248e-05
0.000207798 -6.25634e-05 -6.22436e-05 -1.98996e-05
0.000312948 -9.40888e-05 -9.37968e-05 -1.76898e-05
0.000209406 -6.30491e-05 -6.27242e-05 -1.98997e-05
0.000208602 -6.28063e-05 -6.24839e-05 -1.98996e-05
0.000103863 -3.13939e-05 -3.10582e-05 -2.12248e-05
0.000103062 -3.11497e-05 -3.08194e-05 -2.12248e-05
0.000309328 -9.2998e-05 -9.27129e-05 -1.76897e-05
0.000311741 -9.37252e-05 -9.34355e-05 -1.76898e-05
0.000103462 -3.12718e-05 -3.09388e-05 -2.12248e-05
0.000206191 -6.20776e-05 -6.17629e-05 -1.98996e-05
0.000310535 -9.33616e-05 -9.30742e-05 -1.76898e-05
0.000207798 -6.25634e-05 -6.22436e-05 -1.98996e-05
0.000206995 -6.23205e-05 -6.20033e-05 -1.98996e-05
0.000103062 -3.11497e-05 -3.08194e-05 -2.12248e-05
0.00010226 -3.09056e-05 -3.05805e-05 -2.12247e-05
0.000306915 -9.22709e-05 -9.19903e-05 -1.76897e-05
0.000309328 -9.2998e-05 -9.27129e-05 -1.76897e-05
0.000102661 -3.10277e-05 -3.07e-05 -2.12247e-05
0.000204584 -6.15919e-05 -6.12823e-05 -1.98995e-05
0.000308122 -9.26345e-05 -9.23516e-05 -1.76897e-05
0.000206191 -6.20776e-05 -6.17629e-05 -1.98996e-05
0.000205388 -6.18347e-05 -6.15226e-05 -1.98995e-05
0.00010226 -3.09056e-05 -3.05805e-05 -2.12247e-05
0.000101459 -3.06614e-05 -3.03417e-05 -2.12247e-05
0.000304502 -9.15437e-05 -9.12677e-05 -1.76896e-05
0.000306915 -9.22709e-05 -9.19903e-05 -1.76897e-05
0.000101859 -3.07835e-05 -3.04611e-05 -2.12247e-05
0.000202977 -6.11062e-05 -6.08016e-05 -1.98995e-05
0.000305708 -9.19073e-05 -9.1629e-05 -1.76896e-05
0.000204584 -6.15919e-05 -6.12823e-05 -1.98995e-05
0.00020378 -6.1349e-05 -6.10419e-05 -1.98995e-05
0.000101459 -3.06614e-05 -3.03417e-05 -2.12247e-05
0.000100657 -3.04173e-05 -3.01028e-05 -2.12246e-05
0.000302088 -9.08166e-05 -9.0545e-05 -1.76896e-05
0.000304502 -9.15437e-05 -9.12677e-05 -1.76896e-05
0.000101058 -3.05393e-05 -3.02223e-05 -2.12247e-05
0.000201369 -6.06205e-05 -6.03209e-05 -1.98994e-05
0.000303295 -9.11801e-05 -9.09064e-05 -1.76896e-05
0.000202977 -6.11062e-05 -6.08016e-05 -1.98995e-05
0.000202173 -6.08633e-05 -6.05612e-05 -1.98995e-05
0.000100657 -3.04173e-05 -3.01028e-05 -2.12246e-05
9.98556e-05 -3.01731e-05 -2.98639e-05 -2.12246e-05
0.000299675 -9.00894e-05 -8.98224e-05 -1.76895e-05
0.000302088 -9.08166e-05 -9.0545e-05 -1.76896e-05
0.000100256 -3.02952e-05 -2.99834e-05 -2.12246e-05
0.000199762 -6.01348e-05 -5.98401e-05 -1.98994e-05
0.000300882 -9.0453e-05 -9.01837e-05 -1.76895e-05
0.000201369 -6.06205e-05 -6.03209e-05 -1.98994e-05
0.000200565 -6.03776e-05 -6.00805e-05 -1.98994e-05
9.98556e-05 -3.01731e-05 -2.98639e-05 -2.12246e-05
9.9054e-05 -2.9929e-05 -2.9625e-05 -2.12246e-05
0.000297262 -8.93623e-05 -8.90997e-05 -1.76895e-05
0.000299675 -9.00894e-05 -8.98224e-05 -1.76895e-05
9.94548e-05 -3.00511e-05 -2.97445e-05 -2.12246e-05
0.000198154 -5.96491e-05 -5.93594e-05 -1.98993e-05
0.000298468 -8.97259e-05 -8.9461e-05 -1.76895e-05
0.000199762 -6.01348e-05 -5.98401e-05 -1.98994e-05
0.000198958 -5.98919e-05 -5.95998e-05 -1.98994e-05
9.9054e-05 -2.9929e-05 -2.9625e-05 -2.12246e-05
9.82524e-05 -2.96849e-05 -2.93861e-05 -2.12245e-05
0.000294848 -8.86352e-05 -8.8377e-05 -1.76894e-05
0.000297262 -8.93623e-05 -8.90997e-05 -1.76895e-05
9.86532e-05 -2.9807e-05 -2.95055e-05 -2.12245e-05
0.000196547 -5.91635e-05 -5.88786e-05 -1.98993e-05
0.000296055 -8.89988e-05 -8.87383e-05 -1.76894e-05
0.000198154 -5.96491e-05 -5.93594e-05 -1.98993e-05
0.000197351 -5.94063e-05 -5.9119e-05 -1.98993e-05
9.82524e-05 -2.96849e-05 -2.93861e-05 -2.12245e-05
9.74507e-05 -2.94409e-05 -2.91471e-05 -2.12245e-05
0.000292435 -8.79081e-05 -8.76543e-05 -1.76894e-05
0.000294848 -8.86352e-05 -8.8377e-05 -1.76894e-05
9.78516e-05 -2.95629e-05 -2.92666e-05 -2.12245e-05
0.000194939 -5.86778e-05 -5.83978e-05 -1.98992e-05
0.000293641 -8.82717e-05 -8.80156e-05 -1.76894e-05
0.000196547 -5.91635e-05 -5.88786e-05 -1.98993e-05
0.000195743 -5.89206e-05 -5.86382e-05 -1.98993e-05
9.74507e-05 -2.94409e-05 -2.91471e-05 -2.12245e-05
9.66491e-05 -2.91968e-05 -2.89081e-05 -2.12244e-05
0.000290021 -8.71811e-05 -8.69315e-05 -1.76893e-05
0.000292435 -8.79081e-05 -8.76543e-05 -1.76894e-05
9.70499e-05 -2.93188e-05 -2.90276e-05 -2.12245e-05
0.000193332 -5.81922e-05 -5.7917e-05 -1.98992e-05
0.000291228 -8.75446e-05 -8.72929e-05 -1.76893e-05
0.000194939 -5.86778e-05 -5.83978e-05 -1.98992e-05
0.000194136 -5.8435e-05 -5.81574e-05 -1.98992e-05
9.66491e-05 -2.91968e-05 -2.89081e-05 -2.12244e-05
9.58474e-05 -2.89528e-05 -2.86691e-05 -2.12244e-05
0.000287608 -8.6454e-05 -8.62088e-05 -1.76893e-05
0.000290021 -8.71811e-05 -8.69315e-05 -1.76893e-05
9.62482e-05 -2.90748e-05 -2.87886e-05 -2.12244e-05
0.000191724 -5.77066e-05 -5.74362e-05 -1.98991e-05
0.000288815 -8.68176e-05 -8.65702e-05 -1.76893e-05
0.000193332 -5.81922e-05 -5.7917e-05 -1.98992e-05
0.000192528 -5.79494e-05 -5.76766e-05 -1.98992e-05
9.58474e-05 -2.89528e-05 -2.86691e-05 -2.12244e-05
9.50456e-05 -2.87088e-05 -2.84301e-05 -2.12244e-05
0.000285194 -8.5727e-05 -8.5486e-05 -1.76892e-05
0.000287608 -8.6454e-05 -8.62088e-05 -1.76893e-05
9.54465e-05 -2.88308e-05 -2.85496e-05 -2.12244e-05
0.000190117 -5.72211e-05 -5.69553e-05 -1.98991e-05
0.000286401 -8.60905e-05 -8.58474e-05 -1.76892e-05
0.000191724 -5.77066e-05 -5.74362e-05 -1.98991e-05
0.000190921 -5.74638e-05 -5.71958e-05 -1.98991e-05
9.50456e-05 -2.87088e-05 -2.84301e-05 -2.12244e-05
9.42438e-05 -2.84648e-05 -2.8191e-05 -2.12243e-05
0.000282781 -8.5e-05 -8.47632e-05 -1.76891e-05
0.000285194 -8.5727e-05 -8.5486e-05 -1.76892e-05
9.46447e-05 -2.85868e-05 -2.83106e-05 -2.12243e-05
0.000188509 -5.67355e-05 -5.64745e-05 -1.9899e-05
0.000283988 -8.53635e-05 -8.51246e-05 -1.76892e-05
0.000190117 -5.72211e-05 -5.69553e-05 -1.98991e-05
0.000189313 -5.69783e-05 -5.67149e-05 -1.98991e-05
9.42438e-05 -2.84648e-05 -2.8191e-05 -2.12243e-05
9.3442e-05 -2.82208e-05 -2.7952e-05 -2.12243e-05
0.000280367 -8.4273e-05 -8.40404e-05 -1.76891e-05
0.000282781 -8.5e-05 -8.47632e-05 -1.76891e-05
9.38429e-05 -2.83428e-05 -2.80715e-05 -2.12243e-05
0.000186902 -5.625e-05 -5.59936e-05 -1.9899e-05
0.000281574 -8.46365e-05 -8.44018e-05 -1.76891e-05
0.000188509 -5.67355e-05 -5.64745e-05 -1.9899e-05
0.000187705 -5.64927e-05 -5.6234e-05 -1.9899e-05
9.3442e-05 -2.82208e-05 -2.7952e-05 -2.12243e-05
9.26402e-05 -2.79769e-05 -2.77129e-05 -2.12242e-05
0.000277954 -8.3546e-05 -8.33176e-05 -1.7689e-05
0.000280367 -8.4273e-05 -8.40404e-05 -1.76891e-05
9.30411e-05 -2.80988e-05 -2.78324e-05 -2.12243e-05
0.000185294 -5.57644e-05 -5.55127e-05 -1.98989e-05
0.000279161 -8.39095e-05 -8.3679e-05 -1.76891e-05
0.000186902 -5.625e-05 -5.59936e-05 -1.9899e-05
0.000186098 -5.60072e-05 -5.57531e-05 -1.9899e-05
9.26402e-05 -2.79769e-05 -2.77129e-05 -2.12242e-05
9.18383e-05 -2.77329e-05 -2.74738e-05 -2.12242e-05
0.00027554 -8.2819e-05 -8.25948e-05 -1.7689e-05
0.000277954 -8.3546e-05 -8.33176e-05 -1.7689e-05
9.22393e-05 -2.78549e-05 -2.75933e-05 -2.12242e-05
0.000183686 -5.52789e-05 -5.50317e-05 -1.98989e-05
0.000276747 -8.31825e-05 -8.29562e-05 -1.7689e-05
0.000185294 -5.57644e-05 -5.55127e-05 -1.98989e-05
0.00018449 -5.55217e-05 -5.52722e-05 -1.98989e-05
9.18383e-05 -2.77329e-05 -2.74738e-05 -2.12242e-05
9.10364e-05 -2.7489e-05 -2.72346e-05 -2.12242e-05
0.000273127 -8.20921e-05 -8.18719e-05 -1.76889e-05
0.00027554 -8.2819e-05 -8.25948e-05 -1.7689e-05
9.14374e-05 -2.7611e-05 -2.73542e-05 -2.12242e-05
0.000182079 -5.47934e-05 -5.45508e-05 -1.98989e-05
0.000274333 -8.24556e-05 -8.22333e-05 -1.7689e-05
0.000183686 -5.52789e-05 -5.50317e-05 -1.98989e-05
0.000182882 -5.50362e-05 -5.47912e-05 -1.98989e-05
9.10364e-05 -2.7489e-05 -2.72346e-05 -2.12242e-05
9.02345e-05 -2.72451e-05 -2.69955e-05 -2.12241e-05
0.000270713 -8.13651e-05 -8.1149e-05 -1.76889e-05
0.000273127 -8.20921e-05 -8.18719e-05 -1.76889e-05
9.06355e-05 -2.7367e-05 -2.7115e-05 -2.12241e-05
0.000180471 -5.4308e-05 -5.40698e-05 -1.98988e-05
0.00027192 -8.17286e-05 -8.15105e-05 -1.76889e-05
0.000182079 -5.47934e-05 -5.45508e-05 -1.98989e-05
0.000181275 -5.45507e-05 -5.43103e-05 -1.98988e-05
9.02345e-05 -2.72451e-05 -2.69955e-05 -2.12241e-05
8.94326e-05 -2.70012e-05 -2.67563e-05 -2.12241e-05
0.000268299 -8.06382e-05 -8.04261e-05 -1.76888e-05
0.000270713 -8.13651e-05 -8.1149e-05 -1.76889e-05
8.98335e-05 -2.71232e-05 -2.68759e-05 -2.12241e-05
0.000178863 -5.38225e-05 -5.35888e-05 -1.98988e-05
0.000269506 -8.10017e-05 -8.07876e-05 -1.76889e-05
0.000180471 -5.4308e-05 -5.40698e-05 -1.98988e-05
0.000179667 -5.40652e-05 -5.38293e-05 -1.98988e-05
8.94326e-05 -2.70012e-05 -2.67563e-05 -2.12241e-05
8.86306e-05 -2.67574e-05 -2.65171e-05 -2.1224e-05
0.000265886 -7.99113e-05 -7.97032e-05 -1.76888e-05
0.000268299 -8.06382e-05 -8.04261e-05 -1.76888e-05
8.90316e-05 -2.68793e-05 -2.66367e-05 -2.12241e-05
0.000177255 -5.33371e-05 -5.31078e-05 -1.98987e-05
0.000267092 -8.02748e-05 -8.00647e-05 -1.76888e-05
0.000178863 -5.38225e-05 -5.35888e-05 -1.98988e-05
0.000178059 -5.35798e-05 -5.33483e-05 -1.98987e-05
8.86306e-05 -2.67574e-05 -2.65171e-05 -2.1224e-05
8.78285e-05 -2.65135e-05 -2.62779e-05 -2.1224e-05
0.000263472 -7.91844e-05 -7.89803e-05 -1.76887e-05
0.000265886 -7.99113e-05 -7.97032e-05 -1.76888e-05
8.82296e-05 -2.66354e-05 -2.63975e-05 -2.1224e-05
0.000175647 -5.28517e-05 -5.26268e-05 -1.98987e-05
0.000264679 -7.95479e-05 -7.93418e-05 -1.76888e-05
0.000177255 -5.33371e-05 -5.31078e-05 -1.98987e-05
0.000176451 -5.30944e-05 -5.28673e-05 -1.98987e-05
8.78285e-05 -2.65135e-05 -2.62779e-05 -2.1224e-05
8.70265e-05 -2.62697e-05 -2.60386e-05 -2.1224e-05
0.000261058 -7.84576e-05 -7.82573e-05 -1.76887e-05
0.000263472 -7.91844e-05 -7.89803e-05 -1.76887e-05
8.74275e-05 -2.63916e-05 -2.61582e-05 -2.1224e-05
0.00017404 -5.23663e-05 -5.21457e-05 -1.98986e-05
0.000262265 -7.8821e-05 -7.86188e-05 -1.76887e-05
0.000175647 -5.28517e-05 -5.26268e-05 -1.98987e-05
0.000174844 -5.2609e-05 -5.23862e-05 -1.98986e-05
8.70265e-05 -2.62697e-05 -2.60386e-05 -2.1224e-05
8.62244e-05 -2.60259e-05 -2.57994e-05 -2.12239e-05
0.000258644 -7.77307e-05 -7.75344e-05 -1.76886e-05
0.000261058 -7.84576e-05 -7.82573e-05 -1.76887e-05
8.66254e-05 -2.61478e-05 -2.5919e-05 -2.12239e-05
0.000172432 -5.18809e-05 -5.16646e-05 -1.98986e-05
0.000259851 -7.80941e-05 -7.78959e-05 -1.76887e-05
0.00017404 -5.23663e-05 -5.21457e-05 -1.98986e-05
0.000173236 -5.21236e-05 -5.19052e-05 -1.98986e-05
8.62244e-05 -2.60259e-05 -2.57994e-05 -2.12239e-05
8.54223e-05 -2.57821e-05 -2.55601e-05 -2.12239e-05
0.00025623 -7.70039e-05 -7.68114e-05 -1.76886e-05
0.000258644 -7.77307e-05 -7.75344e-05 -1.76886e-05
8.58233e-05 -2.5904e-05 -2.56797e-05 -2.12239e-05
0.000170824 -5.13955e-05 -5.11835e-05 -1.98985e-05
0.000257437 -7.73673e-05 -7.71729e-05 -1.76886e-05
0.000172432 -5.18809e-05 -5.16646e-05 -1.98986e-05
0.000171628 -5.16382e-05 -5.14241e-05 -1.98985e-05
8.54223e-05 -2.57821e-05 -2.55601e-05 -2.12239e-05
8.46201e-05 -2.55383e-05 -2.53208e-05 -2.12238e-05
0.000253817 -7.6277e-05 -7.60884e-05 -1.76885e-05
0.00025623 -7.70039e-05 -7.68114e-05 -1.76886e-05
8.50212e-05 -2.56602e-05 -2.54404e-05 -2.12239e-05
0.000169216 -5.09102e-05 -5.07024e-05 -1.98985e-05
0.000255024 -7.66404e-05 -7.64499e-05 -1.76885e-05
0.000170824 -5.13955e-05 -5.11835e-05 -1.98985e-05
0.00017002 -5.11529e-05 -5.0943e-05 -1.98985e-05
8.46201e-05 -2.55383e-05 -2.53208e-05 -2.12238e-05
8.3818e-05 -2.52946e-05 -2.50814e-05 -2.12238e-05
0.000251403 -7.55502e-05 -7.53654e-05 -1.76885e-05
0.000253817 -7.6277e-05 -7.60884e-05 -1.76885e-05
8.4219e-05 -2.54165e-05 -2.52011e-05 -2.12238e-05
0.000167608 -5.04249e-05 -5.02213e-05 -1.98984e-05
0.00025261 -7.59136e-05 -7.57269e-05 -1.76885e-05
0.000169216 -5.09102e-05 -5.07024e-05 -1.98985e-05
0.000168412 -5.06675e-05 -5.04619e-05 -1.98984e-05
8.3818e-05 -2.52946e-05 -2.50814e-05 -2.12238e-05
8.30157e-05 -2.50509e-05 -2.48421e-05 -2.12238e-05
0.000248989 -7.48234e-05 -7.46423e-05 -1.76884e-05
0.000251403 -7.55502e-05 -7.53654e-05 -1.76885e-05
8.34169e-05 -2.51727e-05 -2.49618e-05 -2.12238e-05
0.000166 -4.99396e-05 -4.97401e-05 -1.98984e-05
0.000250196 -7.51868e-05 -7.50039e-05 -1.76884e-05
0.000167608 -5.04249e-05 -5.02213e-05 -1.98984e-05
0.000166804 -5.01822e-05 -4.99807e-05 -1.98984e-05
8.30157e-05 -2.50509e-05 -2.48421e-05 -2.12238e-05
8.22135e-05 -2.48072e-05 -2.46027e-05 -2.12237e-05
0.000246575 -7.40967e-05 -7.39193e-05 -1.76884e-05
0.000248989 -7.48234e-05 -7.46423e-05 -1.76884e-05
8.26146e-05 -2.4929e-05 -2.47224e-05 -2.12237e-05
0.000164392 -4.94543e-05 -4.9259e-05 -1.98983e-05
0.000247782 -7.446e-05 -7.42808e-05 -1.76884e-05
0.000166 -4.99396e-05 -4.97401e-05 -1.98984e-05
0.000165196 -4.96969e-05 -4.94996e-05 -1.98983e-05
8.22135e-05 -2.48072e-05 -2.46027e-05 -2.12237e-05
8.14112e-05 -2.45635e-05 -2.43633e-05 -2.12237e-05
0.000244161 -7.33699e-05 -7.31962e-05 -1.76883e-05
0.000246575 -7.40967e-05 -7.39193e-05 -1.76884e-05
8.18124e-05 -2.46853e-05 -2.4483e-05 -2.12237e-05
0.000162784 -4.8969e-05 -4.87778e-05 -1.98983e-05
0.000245368 -7.37333e-05 -7.35578e-05 -1.76883e-05
0.000164392 -4.94543e-05 -4.9259e-05 -1.98983e-05
0.000163588 -4.92116e-05 -4.90184e-05 -1.98983e-05
8.14112e-05 -2.45635e-05 -2.43633e-05 -2.12237e-05
8.06089e-05 -2.43198e-05 -2.41239e-05 -2.12236e-05
0.000241747 -7.26432e-05 -7.24731e-05 -1.76883e-05
0.000244161 -7.33699e-05 -7.31962e-05 -1.76883e-05
8.10101e-05 -2.44416e-05 -2.42436e-05 -2.12237e-05
0.000161176 -4.84837e-05 -4.82966e-05 -1.98982e-05
0.000242954 -7.30065e-05 -7.28347e-05 -1.76883e-05
0.000162784 -4.8969e-05 -4.87778e-05 -1.98983e-05
0.00016198 -4.87264e-05 -4.85372e-05 -1.98982e-05
8.06089e-05 -2.43198e-05 -2.41239e-05 -2.12236e-05
7.98066e-05 -2.40762e-05 -2.38845e-05 -2.12236e-05
0.000239333 -7.19164e-05 -7.175e-05 -1.76882e-05
0.000241747 -7.26432e-05 -7.24731e-05 -1.76883e-05
8.02078e-05 -2.4198e-05 -2.40042e-05 -2.12236e-05
0.000159568 -4.79985e-05 -4.78153e-05 -1.98982e-05
0.00024054 -7.22798e-05 -7.21116e-05 -1.76882e-05
0.000161176 -4.84837e-05 -4.82966e-05 -1.98982e-05
0.000160372 -4.82411e-05 -4.8056e-05 -1.98982e-05
7.98066e-05 -2.40762e-05 -2.38845e-05 -2.12236e-05
7.90042e-05 -2.38325e-05 -2.3645e-05 -2.12236e-05
0.000236919 -7.11897e-05 -7.10269e-05 -1.76882e-05
0.000239333 -7.19164e-05 -7.175e-05 -1.76882e-05
7.94054e-05 -2.39543e-05 -2.37647e-05 -2.12236e-05
0.000157959 -4.75133e-05 -4.73341e-05 -1.98981e-05
0.000238126 -7.15531e-05 -7.13885e-05 -1.76882e-05
0.000159568 -4.79985e-05 -4.78153e-05 -1.98982e-05
0.000158764 -4.77559e-05 -4.75747e-05 -1.98982e-05
7.90042e-05 -2.38325e-05 -2.3645e-05 -2.12236e-05
7.82018e-05 -2.35889e-05 -2.34055e-05 -2.12235e-05
0.000234505 -7.0463e-05 -7.03038e-05 -1.76881e-05
0.000236919 -7.11897e-05 -7.10269e-05 -1.76882e-05
7.8603e-05 -2.37107e-05 -2.35253e-05 -2.12235e-05
0.000156351 -4.70281e-05 -4.68528e-05 -1.98981e-05
0.000235712 -7.08264e-05 -7.06653e-05 -1.76881e-05
0.000157959 -4.75133e-05 -4.73341e-05 -1.98981e-05
0.000157155 -4.72707e-05 -4.70934e-05 -1.98981e-05
7.82018e-05 -2.35889e-05 -2.34055e-05 -2.12235e-05
7.73994e-05 -2.33453e-05 -2.3166e-05 -2.12235e-05
0.000232091 -6.97363e-05 -6.95806e-05 -1.76881e-05
0.000234505 -7.0463e-05 -7.03038e-05 -1.76881e-05
7.78006e-05 -2.34671e-05 -2.32858e-05 -2.12235e-05
0.000154743 -4.65429e-05 -4.63715e-05 -1.9898e-05
0.000233298 -7.00997e-05 -6.99422e-05 -1.76881e-05
0.000156351 -4.70281e-05 -4.68528e-05 -1.98981e-05
0.000155547 -4.67855e-05 -4.66122e-05 -1.98981e-05
7.73994e-05 -2.33453e-05 -2.3166e-05 -2.12235e-05
7.65969e-05 -2.31017e-05 -2.29265e-05 -2.12234e-05
0.000229677 -6.90097e-05 -6.88574e-05 -1.7688e-05
0.000232091 -6.97363e-05 -6.95806e-05 -1.76881e-05
7.69981e-05 -2.32235e-05 -2.30463e-05 -2.12235e-05
0.000153135 -4.60578e-05 -4.58902e-05 -1.9898e-05
0.000230884 -6.9373e-05 -6.9219e-05 -1.7688e-05
0.000154743 -4.65429e-05 -4.63715e-05 -1.9898e-05
0.000153939 -4.63003e-05 -4.61309e-05 -1.9898e-05
7.65969e-05 -2.31017e-05 -2.29265e-05 -2.12234e-05
7.57944e-05 -2.28582e-05 -2.2687e-05 -2.12234e-05
0.000227263 -6.8283e-05 -6.81342e-05 -1.76879e-05
0.000229677 -6.90097e-05 -6.88574e-05 -1.7688e-05
7.61957e-05 -2.298e-05 -2.28067e-05 -2.12234e-05
0.000151527 -4.55726e-05 -4.54089e-05 -1.98979e-05
0.00022847 -6.86463e-05 -6.84958e-05 -1.7688e-05
0.000153135 -4.60578e-05 -4.58902e-05 -1.9898e-05
0.000152331 -4.58152e-05 -4.56495e-05 -1.9898e-05
7.57944e-05 -2.28582e-05 -2.2687e-05 -2.12234e-05
7.49919e-05 -2.26147e-05 -2.24474e-05 -2.12234e-05
0.000224849 -6.75564e-05 -6.7411e-05 -1.76879e-05
0.000227263 -6.8283e-05 -6.81342e-05 -1.76879e-05
7.53932e-05 -2.27364e-05 -2.25672e-05 -2.12234e-05
0.000149918 -4.50875e-05 -4.49275e-05 -1.98979e-05
0.000226056 -6.79197e-05 -6.77726e-05 -1.76879e-05
0.000151527 -4.55726e-05 -4.54089e-05 -1.98979e-05
0.000150722 -4.533e-05 -4.51682e-05 -1.98979e-05
7.49919e-05 -2.26147e-05 -2.24474e-05 -2.12234e-05
7.41893e-05 -2.23711e-05 -2.22078e-05 -2.12233e-05
0.000222435 -6.68298e-05 -6.66878e-05 -1.76878e-05
0.000224849 -6.75564e-05 -6.7411e-05 -1.76879e-05
7.45906e-05 -2.24929e-05 -2.23276e-05 -2.12233e-05
0.00014831 -4.46024e-05 -4.44461e-05 -1.98978e-05
0.000223642 -6.71931e-05 -6.70494e-05 -1.76879e-05
0.000149918 -4.50875e-05 -4.49275e-05 -1.98979e-05
0.000149114 -4.48449e-05 -4.46868e-05 -1.98979e-05
7.41893e-05 -2.23711e-05 -2.22078e-05 -2.12233e-05
7.33867e-05 -2.21276e-05 -2.19682e-05 -2.12233e-05
0.00022002 -6.61032e-05 -6.59645e-05 -1.76878e-05
0.000222435 -6.68298e-05 -6.66878e-05 -1.76878e-05
7.3788e-05 -2.22494e-05 -2.2088e-05 -2.12233e-05
0.000146702 -4.41173e-05 -4.39647e-05 -1.98978e-05
0.000221227 -6.64665e-05 -6.63261e-05 -1.76878e-05
0.00014831 -4.46024e-05 -4.44461e-05 -1.98978e-05
0.000147506 -4.43598e-05 -4.42054e-05 -1.98978e-05
7.33867e-05 -2.21276e-05 -2.19682e-05 -2.12233e-05
7.25841e-05 -2.18842e-05 -2.17286e-05 -2.12232e-05
0.000217606 -6.53766e-05 -6.52412e-05 -1.76877e-05
0.00022002 -6.61032e-05 -6.59645e-05 -1.76878e-05
7.29854e-05 -2.20059e-05 -2.18484e-05 -2.12233e-05
0.000145093 -4.36322e-05 -4.34833e-05 -1.98978e-05
0.000218813 -6.57399e-05 -6.56029e-05 -1.76878e-05
0.000146702 -4.41173e-05 -4.39647e-05 -1.98978e-05
0.000145897 -4.38748e-05 -4.3724e-05 -1.98978e-05
7.25841e-05 -2.18842e-05 -2.17286e-05 -2.12232e-05
7.17815e-05 -2.16407e-05 -2.14889e-05 -2.12232e-05
0.000215192 -6.465e-05 -6.4518e-05 -1.76877e-05
0.000217606 -6.53766e-05 -6.52412e-05 -1.76877e-05
7.21828e-05 -2.17624e-05 -2.16087e-05 -2.12232e-05
0.000143485 -4.31472e-05 -4.30019e-05 -1.98977e-05
0.000216399 -6.50133e-05 -6.48796e-05 -1.76877e-05
0.000145093 -4.36322e-05 -4.34833e-05 -1.98978e-05
0.000144289 -4.33897e-05 -4.32426e-05 -1.98977e-05
7.17815e-05 -2.16407e-05 -2.14889e-05 -2.12232e-05
7.09788e-05 -2.13973e-05 -2.12492e-05 -2.12232e-05
0.000212778 -6.39235e-05 -6.37946e-05 -1.76876e-05
0.000215192 -6.465e-05 -6.4518e-05 -1.76877e-05
7.13801e-05 -2.1519e-05 -2.13691e-05 -2.12232e-05
0.000141876 -4.26621e-05 -4.25204e-05 -1.98977e-05
0.000213985 -6.42868e-05 -6.41563e-05 -1.76877e-05
0.000143485 -4.31472e-05 -4.30019e-05 -1.98977e-05
0.000142681 -4.29047e-05 -4.27611e-05 -1.98977e-05
7.09788e-05 -2.13973e-05 -2.12492e-05 -2.12232e-05
7.01761e-05 -2.11538e-05 -2.10095e-05 -2.12231e-05
0.000210363 -6.3197e-05 -6.30713e-05 -1.76876e-05
0.000212778 -6.39235e-05 -6.37946e-05 -1.76876e-05
7.05774e-05 -2.12756e-05 -2.11294e-05 -2.12231e-05
0.000140268 -4.21771e-05 -4.20389e-05 -1.98976e-05
0.000211571 -6.35602e-05 -6.3433e-05 -1.76876e-05
0.000141876 -4.26621e-05 -4.25204e-05 -1.98977e-05
0.000141072 -4.24196e-05 -4.22797e-05 -1.98976e-05
7.01761e-05 -2.11538e-05 -2.10095e-05 -2.12231e-05
6.93733e-05 -2.09104e-05 -2.07698e-05 -2.12231e-05
0.000207949 -6.24704e-05 -6.2348e-05 -1.76875e-05
0.000210363 -6.3197e-05 -6.30713e-05 -1.76876e-05
6.97747e-05 -2.10321e-05 -2.08897e-05 -2.12231e-05
0.000138659 -4.16921e-05 -4.15574e-05 -1.98976e-05
0.000209156 -6.28337e-05 -6.27096e-05 -1.76876e-05
0.000140268 -4.21771e-05 -4.20389e-05 -1.98976e-05
0.000139464 -4.19346e-05 -4.17982e-05 -1.98976e-05
6.93733e-05 -2.09104e-05 -2.07698e-05 -2.12231e-05
6.85705e-05 -2.06671e-05 -2.05301e-05 -2.12231e-05
0.000205535 -6.17439e-05 -6.16246e-05 -1.76875e-05
0.000207949 -6.24704e-05 -6.2348e-05 -1.76875e-05
6.89719e-05 -2.07888e-05 -2.06499e-05 -2.12231e-05
0.000137051 -4.12071e-05 -4.10759e-05 -1.98975e-05
0.000206742 -6.21072e-05 -6.19863e-05 -1.76875e-05
0.000138659 -4.16921e-05 -4.15574e-05 -1.98976e-05
0.000137855 -4.14496e-05 -4.13167e-05 -1.98975e-05
6.85705e-05 -2.06671e-05 -2.05301e-05 -2.12231e-05
6.77677e-05 -2.04237e-05 -2.02903e-05 -2.1223e-05
0.00020312 -6.10175e-05 -6.09012e-05 -1.76874e-05
0.000205535 -6.17439e-05 -6.16246e-05 -1.76875e-05
6.81691e-05 -2.05454e-05 -2.04102e-05 -2.1223e-05
0.000135442 -4.07222e-05 -4.05944e-05 -1.98975e-05
0.000204328 -6.13807e-05 -6.12629e-05 -1.76875e-05
0.000137051 -4.12071e-05 -4.10759e-05 -1.98975e-05
0.000136247 -4.09647e-05 -4.08352e-05 -1.98975e-05
6.77677e-05 -2.04237e-05 -2.02903e-05 -2.1223e-05
6.69649e-05 -2.01804e-05 -2.00505e-05 -2.1223e-05
0.000200706 -6.0291e-05 -6.01778e-05 -1.76874e-05
0.00020312 -6.10175e-05 -6.09012e-05 -1.76874e-05
6.73663e-05 -2.0302e-05 -2.01704e-05 -2.1223e-05
0.000133834 -4.02372e-05 -4.01128e-05 -1.98974e-05
0.000201913 -6.06542e-05 -6.05395e-05 -1.76874e-05
0.000135442 -4.07222e-05 -4.05944e-05 -1.98975e-05
0.000134638 -4.04797e-05 -4.03536e-05 -1.98975e-05
6.69649e-05 -2.01804e-05 -2.00505e-05 -2.1223e-05
6.6162e-05 -1.9937e-05 -1.98107e-05 -2.12229e-05
0.000198292 -5.95645e-05 -5.94544e-05 -1.76873e-05
0.000200706 -6.0291e-05 -6.01778e-05 -1.76874e-05
6.65634e-05 -2.00587e-05 -1.99306e-05 -2.1223e-05
0.000132225 -3.97523e-05 -3.96312e-05 -1.98974e-05
0.000199499 -5.99278e-05 -5.98161e-05 -1.76874e-05
0.000133834 -4.02372e-05 -4.01128e-05 -1.98974e-05
0.00013303 -3.99948e-05 -3.9872e-05 -1.98974e-05
6.6162e-05 -1.9937e-05 -1.98107e-05 -2.12229e-05
6.53591e-05 -1.96937e-05 -1.95709e-05 -2.12229e-05
0.000195877 -5.88381e-05 -5.8731e-05 -1.76873e-05
0.000198292 -5.95645e-05 -5.94544e-05 -1.76873e-05
6.57605e-05 -1.98154e-05 -1.96908e-05 -2.12229e-05
0.000130617 -3.92674e-05 -3.91496e-05 -1.98973e-05
0.000197084 -5.92013e-05 -5.90927e-05 -1.76873e-05
0.000132225 -3.97523e-05 -3.96312e-05 -1.98974e-05
0.000131421 -3.95099e-05 -3.93904e-05 -1.98974e-05
6.53591e-05 -1.96937e-05 -1.95709e-05 -2.12229e-05
6.45561e-05 -1.94505e-05 -1.9331e-05 -2.12229e-05
0.000193463 -5.81117e-05 -5.80075e-05 -1.76872e-05
0.000195877 -5.88381e-05 -5.8731e-05 -1.76873e-05
6.49576e-05 -1.95721e-05 -1.94509e-05 -2.12229e-05
0.000129008 -3.87825e-05 -3.8668e-05 -1.98973e-05
0.00019467 -5.84749e-05 -5.83693e-05 -1.76873e-05
0.000130617 -3.92674e-05 -3.91496e-05 -1.98973e-05
0.000129812 -3.9025e-05 -3.89088e-05 -1.98973e-05
6.45561e-05 -1.94505e-05 -1.9331e-05 -2.12229e-05
6.37532e-05 -1.92072e-05 -1.90911e-05 -2.12228e-05
0.000191048 -5.73853e-05 -5.72841e-05 -1.76872e-05
0.000193463 -5.81117e-05 -5.80075e-05 -1.76872e-05
6.41547e-05 -1.93288e-05 -1.92111e-05 -2.12228e-05
0.000127399 -3.82977e-05 -3.81864e-05 -1.98972e-05
0.000192255 -5.77485e-05 -5.76458e-05 -1.76872e-05
0.000129008 -3.87825e-05 -3.8668e-05 -1.98973e-05
0.000128204 -3.85401e-05 -3.84272e-05 -1.98973e-05
6.37532e-05 -1.92072e-05 -1.90911e-05 -2.12228e-05
6.29502e-05 -1.8964e-05 -1.88512e-05 -2.12228e-05
0.000188634 -5.66589e-05 -5.65606e-05 -1.76871e-05
0.000191048 -5.73853e-05 -5.72841e-05 -1.76872e-05
6.33517e-05 -1.90856e-05 -1.89712e-05 -2.12228e-05
0.00012579 -3.78128e-05 -3.77047e-05 -1.98972e-05
0.000189841 -5.70221e-05 -5.69223e-05 -1.76872e-05
0.000127399 -3.82977e-05 -3.81864e-05 -1.98972e-05
0.000126595 -3.80552e-05 -3.79455e-05 -1.98972e-05
6.29502e-05 -1.8964e-05 -1.88512e-05 -2.12228e-05
6.21471e-05 -1.87207e-05 -1.86113e-05 -2.12228e-05
0.000186219 -5.59325e-05 -5.58371e-05 -1.76871e-05
0.000188634 -5.66589e-05 -5.65606e-05 -1.76871e-05
6.25486e-05 -1.88423e-05 -1.87313e-05 -2.12228e-05
0.000124182 -3.7328e-05 -3.7223e-05 -1.98972e-05
0.000187426 -5.62957e-05 -5.61988e-05 -1.76871e-05
0.00012579 -3.78128e-05 -3.77047e-05 -1.98972e-05
0.000124986 -3.75704e-05 -3.74639e-05 -1.98972e-05
6.21471e-05 -1.87207e-05 -1.86113e-05 -2.12228e-05
6.13441e-05 -1.84775e-05 -1.83714e-05 -2.12227e-05
0.000183804 -5.52062e-05 -5.51135e-05 -1.7687e-05
0.000186219 -5.59325e-05 -5.58371e-05 -1.76871e-05
6.17456e-05 -1.85991e-05 -1.84913e-05 -2.12227e-05
0.000122573 -3.68432e-05 -3.67413e-05 -1.98971e-05
0.000185012 -5.55694e-05 -5.54753e-05 -1.76871e-05
0.000124182 -3.7328e-05 -3.7223e-05 -1.98972e-05
0.000123377 -3.70856e-05 -3.69822e-05 -1.98971e-05
6.13441e-05 -1.84775e-05 -1.83714e-05 -2.12227e-05
6.0541e-05 -1.82343e-05 -1.81314e-05 -2.12227e-05
0.00018139 -5.44798e-05 -5.439e-05 -1.7687e-05
0.000183804 -5.52062e-05 -5.51135e-05 -1.7687e-05
6.09425e-05 -1.83559e-05 -1.82514e-05 -2.12227e-05
0.000120964 -3.63584e-05 -3.62596e-05 -1.98971e-05
0.000182597 -5.4843e-05 -5.47518e-05 -1.7687e-05
0.000122573 -3.68432e-05 -3.67413e-05 -1.98971e-05
0.000121769 -3.66008e-05 -3.65005e-05 -1.98971e-05
6.0541e-05 -1.82343e-05 -1.81314e-05 -2.12227e-05
5.97378e-05 -1.79912e-05 -1.78914e-05 -2.12227e-05
0.000178975 -5.37535e-05 -5.36664e-05 -1.76869e-05
0.00018139 -5.44798e-05 -5.439e-05 -1.7687e-05
6.01394e-05 -1.81127e-05 -1.80114e-05 -2.12227e-05
0.000119355 -3.58736e-05 -3.57779e-05 -1.9897e-05
0.000180183 -5.41167e-05 -5.40282e-05 -1.7687e-05
0.000120964 -3.63584e-05 -3.62596e-05 -1.98971e-05
0.00012016 -3.6116e-05 -3.60187e-05 -1.9897e-05
5.97378e-05 -1.79912e-05 -1.78914e-05 -2.12227e-05
5.89347e-05 -1.7748e-05 -1.76514e-05 -2.12226e-05
0.000176561 -5.30272e-05 -5.29428e-05 -1.76869e-05
0.000178975 -5.37535e-05 -5.36664e-05 -1.76869e-05
5.93362e-05 -1.78696e-05 -1.77714e-05 -2.12226e-05
0.000117746 -3.53888e-05 -3.52961e-05 -1.9897e-05
0.000177768 -5.33904e-05 -5.33046e-05 -1.76869e-05
0.000119355 -3.58736e-05 -3.57779e-05 -1.9897e-05
0.000118551 -3.56312e-05 -3.5537e-05 -1.9897e-05
5.89347e-05 -1.7748e-05 -1.76514e-05 -2.12226e-05
5.81315e-05 -1.75049e-05 -1.74114e-05 -2.12226e-05
0.000174146 -5.23009e-05 -5.22192e-05 -1.76869e-05
0.000176561 -5.30272e-05 -5.29428e-05 -1.76869e-05
5.85331e-05 -1.76265e-05 -1.75314e-05 -2.12226e-05
0.000116137 -3.49041e-05 -3.48143e-05 -1.98969e-05
0.000175353 -5.26641e-05 -5.25811e-05 -1.76869e-05
0.000117746 -3.53888e-05 -3.52961e-05 -1.9897e-05
0.000116942 -3.51465e-05 -3.50552e-05 -1.9897e-05
5.81315e-05 -1.75049e-05 -1.74114e-05 -2.12226e-05
5.73282e-05 -1.72618e-05 -1.71713e-05 -2.12225e-05
0.000171731 -5.15747e-05 -5.14956e-05 -1.76868e-05
0.000174146 -5.23009e-05 -5.22192e-05 -1.76869e-05
5.77298e-05 -1.73833e-05 -1.72914e-05 -2.12226e-05
0.000114529 -3.44194e-05 -3.43325e-05 -1.98969e-05
0.000172938 -5.19378e-05 -5.18574e-05 -1.76868e-05
0.000116137 -3.49041e-05 -3.48143e-05 -1.98969e-05
0.000115333 -3.46617e-05 -3.45734e-05 -1.98969e-05
5.73282e-05 -1.72618e-05 -1.71713e-05 -2.12225e-05
5.6525e-05 -1.70187e-05 -1.69313e-05 -2.12225e-05
0.000169316 -5.08484e-05 -5.0772e-05 -1.76868e-05
0.000171731 -5.15747e-05 -5.14956e-05 -1.76868e-05
5.69266e-05 -1.71402e-05 -1.70513e-05 -2.12225e-05
0.00011292 -3.39347e-05 -3.38507e-05 -1.98969e-05
0.000170524 -5.12115e-05 -5.11338e-05 -1.76868e-05
0.000114529 -3.44194e-05 -3.43325e-05 -1.98969e-05
0.000113724 -3.4177e-05 -3.40916e-05 -1.98969e-05
5.6525e-05 -1.70187e-05 -1.69313e-05 -2.12225e-05
5.57217e-05 -1.67756e-05 -1.66912e-05 -2.12225e-05
0.000166902 -5.01222e-05 -5.00483e-05 -1.76867e-05
0.000169316 -5.08484e-05 -5.0772e-05 -1.76868e-05
5.61233e-05 -1.68972e-05 -1.68112e-05 -2.12225e-05
0.000111311 -3.345e-05 -3.33688e-05 -1.98968e-05
0.000168109 -5.04853e-05 -5.04102e-05 -1.76867e-05
0.00011292 -3.39347e-05 -3.38507e-05 -1.98969e-05
0.000112115 -3.36923e-05 -3.36097e-05 -1.98968e-05
5.57217e-05 -1.67756e-05 -1.66912e-05 -2.12225e-05
5.49183e-05 -1.65326e-05 -1.6451e-05 -2.12224e-05
0.000164487 -4.9396e-05 -4.93247e-05 -1.76867e-05
0.000166902 -5.01222e-05 -5.00483e-05 -1.76867e-05
5.532e-05 -1.66541e-05 -1.65711e-05 -2.12225e-05
0.000109702 -3.29653e-05 -3.28869e-05 -1.98968e-05
0.000165694 -4.97591e-05 -4.96865e-05 -1.76867e-05
0.000111311 -3.345e-05 -3.33688e-05 -1.98968e-05
0.000110506 -3.32076e-05 -3.31279e-05 -1.98968e-05
5.49183e-05 -1.65326e-05 -1.6451e-05 -2.12224e-05
5.4115e-05 -1.62895e-05 -1.62109e-05 -2.12224e-05
0.000162072 -4.86698e-05 -4.8601e-05 -1.76866e-05
0.000164487 -4.9396e-05 -4.93247e-05 -1.76867e-05
5.45167e-05 -1.64111e-05 -1.6331e-05 -2.12224e-05
0.000108092 -3.24807e-05 -3.24051e-05 -1.98967e-05
0.000163279 -4.90329e-05 -4.89628e-05 -1.76866e-05
0.000109702 -3.29653e-05 -3.28869e-05 -1.98968e-05
0.000108897 -3.2723e-05 -3.2646e-05 -1.98967e-05
5.4115e-05 -1.62895e-05 -1.62109e-05 -2.12224e-05
5.33116e-05 -1.60465e-05 -1.59707e-05 -2.12224e-05
0.000159657 -4.79436e-05 -4.78773e-05 -1.76866e-05
0.000162072 -4.86698e-05 -4.8601e-05 -1.76866e-05
5.37133e-05 -1.6168e-05 -1.60908e-05 -2.12224e-05
0.000106483 -3.1996e-05 -3.19231e-05 -1.98967e-05
0.000160865 -4.83067e-05 -4.82391e-05 -1.76866e-05
0.000108092 -3.24807e-05 -3.24051e-05 -1.98967e-05
0.000107288 -3.22383e-05 -3.21641e-05 -1.98967e-05
5.33116e-05 -1.60465e-05 -1.59707e-05 -2.12224e-05
5.25082e-05 -1.58035e-05 -1.57306e-05 -2.12223e-05
0.000157242 -4.72174e-05 -4.71535e-05 -1.76865e-05
0.000159657 -4.79436e-05 -4.78773e-05 -1.76866e-05
5.29099e-05 -1.5925e-05 -1.58507e-05 -2.12224e-05
0.000104874 -3.15114e-05 -3.14412e-05 -1.98966e-05
0.00015845 -4.75805e-05 -4.75154e-05 -1.76865e-05
0.000106483 -3.1996e-05 -3.19231e-05 -1.98967e-05
0.000105679 -3.17537e-05 -3.16822e-05 -1.98967e-05
5.25082e-05 -1.58035e-05 -1.57306e-05 -2.12223e-05
5.17047e-05 -1.55606e-05 -1.54903e-05 -2.12223e-05
0.000154827 -4.64912e-05 -4.64298e-05 -1.76865e-05
0.000157242 -4.72174e-05 -4.71535e-05 -1.76865e-05
5.21065e-05 -1.56821e-05 -1.56105e-05 -2.12223e-05
0.000103265 -3.10268e-05 -3.09593e-05 -1.98966e-05
0.000156035 -4.68543e-05 -4.67917e-05 -1.76865e-05
0.000104874 -3.15114e-05 -3.14412e-05 -1.98966e-05
0.00010407 -3.12691e-05 -3.12002e-05 -1.98966e-05
5.17047e-05 -1.55606e-05 -1.54903e-05 -2.12223e-05
5.09012e-05 -1.53176e-05 -1.52501e-05 -2.12223e-05
0.000152412 -4.57651e-05 -4.5706e-05 -1.76864e-05
0.000154827 -4.64912e-05 -4.64298e-05 -1.76865e-05
5.1303e-05 -1.54391e-05 -1.53702e-05 -2.12223e-05
0.000101656 -3.05423e-05 -3.04773e-05 -1.98966e-05
0.00015362 -4.61282e-05 -4.60679e-05 -1.76864e-05
0.000103265 -3.10268e-05 -3.09593e-05 -1.98966e-05
0.000102461 -3.07845e-05 -3.07183e-05 -1.98966e-05
5.09012e-05 -1.53176e-05 -1.52501e-05 -2.12223e-05
5.00977e-05 -1.50747e-05 -1.50099e-05 -2.12222e-05
0.000149998 -4.5039e-05 -4.49822e-05 -1.76864e-05
0.000152412 -4.57651e-05 -4.5706e-05 -1.76864e-05
5.04995e-05 -1.51962e-05 -1.513e-05 -2.12223e-05
0.000100047 -3.00577e-05 -2.99953e-05 -1.98965e-05
0.000151205 -4.5402e-05 -4.53441e-05 -1.76864e-05
0.000101656 -3.05423e-05 -3.04773e-05 -1.98966e-05
0.000100851 -3.03e-05 -3.02363e-05 -1.98965e-05
5.00977e-05 -1.50747e-05 -1.50099e-05 -2.12222e-05
4.92942e-05 -1.48318e-05 -1.47696e-05 -2.12222e-05
0.000147583 -4.43129e-05 -4.42584e-05 -1.76863e-05
0.000149998 -4.5039e-05 -4.49822e-05 -1.76864e-05
4.96959e-05 -1.49532e-05 -1.48897e-05 -2.12222e-05
9.84375e-05 -2.95732e-05 -2.95133e-05 -1.98965e-05
0.00014879 -4.46759e-05 -4.46203e-05 -1.76864e-05
0.000100047 -3.00577e-05 -2.99953e-05 -1.98965e-05
9.92421e-05 -2.98154e-05 -2.97543e-05 -1.98965e-05
4.92942e-05 -1.48318e-05 -1.47696e-05 -2.12222e-05
4.84906e-05 -1.45889e-05 -1.45293e-05 -2.12222e-05
0.000145168 -4.35868e-05 -4.35346e-05 -1.76863e-05
0.000147583 -4.43129e-05 -4.42584e-05 -1.76863e-05
4.88924e-05 -1.47103e-05 -1.46494e-05 -2.12222e-05
9.68282e-05 -2.90886e-05 -2.90312e-05 -1.98964e-05
0.000146375 -4.39498e-05 -4.38965e-05 -1.76863e-05
9.84375e-05 -2.95732e-05 -2.95133e-05 -1.98965e-05
9.76329e-05 -2.93309e-05 -2.92723e-05 -1.98965e-05
4.84906e-05 -1.45889e-05 -1.45293e-05 -2.12222e-05
4.7687e-05 -1.4346e-05 -1.4289e-05 -2.12221e-05
0.000142752 -4.28607e-05 -4.28108e-05 -1.76862e-05
0.000145168 -4.35868e-05 -4.35346e-05 -1.76863e-05
4.80888e-05 -1.44674e-05 -1.44091e-05 -2.12222e-05
9.52189e-05 -2.86041e-05 -2.85492e-05 -1.98964e-05
0.00014396 -4.32237e-05 -4.31727e-05 -1.76863e-05
9.68282e-05 -2.90886e-05 -2.90312e-05 -1.98964e-05
9.60236e-05 -2.88464e-05 -2.87902e-05 -1.98964e-05
4.7687e-05 -1.4346e-05 -1.4289e-05 -2.12221e-05
4.68833e-05 -1.41032e-05 -1.40486e-05 -2.12221e-05
0.000140337 -4.21347e-05 -4.20869e-05 -1.76862e-05
0.000142752 -4.28607e-05 -4.28108e-05 -1.76862e-05
4.72851e-05 -1.42246e-05 -1.41688e-05 -2.12221e-05
9.36096e-05 -2.81197e-05 -2.80671e-05 -1.98964e-05
0.000141545 -4.24977e-05 -4.24488e-05 -1.76862e-05
9.52189e-05 -2.86041e-05 -2.85492e-05 -1.98964e-05
9.44143e-05 -2.83619e-05 -2.83081e-05 -1.98964e-05
4.68833e-05 -1.41032e-05 -1.40486e-05 -2.12221e-05
4.60796e-05 -1.38603e-05 -1.38083e-05 -2.12221e-05
0.000137922 -4.14086e-05 -4.1363e-05 -1.76862e-05
0.000140337 -4.21347e-05 -4.20869e-05 -1.76862e-05
4.64815e-05 -1.39817e-05 -1.39285e-05 -2.12221e-05
9.20002e-05 -2.76352e-05 -2.7585e-05 -1.98963e-05
0.00013913 -4.17716e-05 -4.1725e-05 -1.76862e-05
9.36096e-05 -2.81197e-05 -2.80671e-05 -1.98964e-05
9.28049e-05 -2.78774e-05 -2.78261e-05 -1.98963e-05
4.60796e-05 -1.38603e-05 -1.38083e-05 -2.12221e-05
4.52759e-05 -1.36175e-05 -1.35679e-05 -2.12221e-05
0.000135507 -4.06826e-05 -4.06391e-05 -1.76861e-05
0.000137922 -4.14086e-05 -4.1363e-05 -1.76862e-05
4.56778e-05 -1.37389e-05 -1.36881e-05 -2.12221e-05
9.03908e-05 -2.71508e-05 -2.71029e-05 -1.98963e-05
0.000136715 -4.10456e-05 -4.10011e-05 -1.76861e-05
9.20002e-05 -2.76352e-05 -2.7585e-05 -1.98963e-05
9.11955e-05 -2.7393e-05 -2.7344e-05 -1.98963e-05
4.52759e-05 -1.36175e-05 -1.35679e-05 -2.12221e-05
4.44722e-05 -1.33747e-05 -1.33275e-05 -2.1222e-05
0.000133092 -3.99566e-05 -3.99152e-05 -1.76861e-05
0.000135507 -4.06826e-05 -4.06391e-05 -1.76861e-05
4.4874e-05 -1.34961e-05 -1.34477e-05 -2.1222e-05
8.87814e-05 -2.66663e-05 -2.66207e-05 -1.98962e-05
0.0001343 -4.03196e-05 -4.02772e-05 -1.76861e-05
9.03908e-05 -2.71508e-05 -2.71029e-05 -1.98963e-05
8.95861e-05 -2.69085e-05 -2.68618e-05 -1.98963e-05
4.44722e-05 -1.33747e-05 -1.33275e-05 -2.1222e-05
4.36684e-05 -1.31319e-05 -1.3087e-05 -2.1222e-05
0.000130677 -3.92306e-05 -3.91913e-05 -1.7686e-05
0.000133092 -3.99566e-05 -3.99152e-05 -1.76861e-05
4.40703e-05 -1.32533e-05 -1.32073e-05 -2.1222e-05
8.7172e-05 -2.61819e-05 -2.61386e-05 -1.98962e-05
0.000131884 -3.95936e-05 -3.95532e-05 -1.7686e-05
8.87814e-05 -2.66663e-05 -2.66207e-05 -1.98962e-05
8.79767e-05 -2.64241e-05 -2.63797e-05 -1.98962e-05
4.36684e-05 -1.31319e-05 -1.3087e-05 -2.1222e-05
4.28646e-05 -1.28892e-05 -1.28466e-05 -2.1222e-05
0.000128262 -3.85046e-05 -3.84673e-05 -1.7686e-05
0.000130677 -3.92306e-05 -3.91913e-05 -1.7686e-05
4.32665e-05 -1.30106e-05 -1.29668e-05 -2.1222e-05
8.55625e-05 -2.56975e-05 -2.56564e-05 -1.98962e-05
0.000129469 -3.88676e-05 -3.88293e-05 -1.7686e-05
8.7172e-05 -2.61819e-05 -2.61386e-05 -1.98962e-05
8.63672e-05 -2.59397e-05 -2.58975e-05 -1.98962e-05
4.28646e-05 -1.28892e-05 -1.28466e-05 -2.1222e-05
4.20607e-05 -1.26465e-05 -1.26061e-05 -2.12219e-05
0.000125846 -3.77787e-05 -3.77433e-05 -1.76859e-05
0.000128262 -3.85046e-05 -3.84673e-05 -1.7686e-05
4.24627e-05 -1.27678e-05 -1.27264e-05 -2.12219e-05
8.3953e-05 -2.52132e-05 -2.51742e-05 -1.98961e-05
0.000127054 -3.81416e-05 -3.81053e-05 -1.7686e-05
8.55625e-05 -2.56975e-05 -2.56564e-05 -1.98962e-05
8.47577e-05 -2.54553e-05 -2.54153e-05 -1.98961e-05
4.20607e-05 -1.26465e-05 -1.26061e-05 -2.12219e-05
4.12569e-05 -1.24037e-05 -1.23656e-05 -2.12219e-05
0.000123431 -3.70527e-05 -3.70194e-05 -1.76859e-05
0.000125846 -3.77787e-05 -3.77433e-05 -1.76859e-05
4.16588e-05 -1.25251e-05 -1.24859e-05 -2.12219e-05
8.23434e-05 -2.47288e-05 -2.4692e-05 -1.98961e-05
0.000124639 -3.74157e-05 -3.73814e-05 -1.76859e-05
8.3953e-05 -2.52132e-05 -2.51742e-05 -1.98961e-05
8.31482e-05 -2.4971e-05 -2.49331e-05 -1.98961e-05
4.12569e-05 -1.24037e-05 -1.23656e-05 -2.12219e-05
4.04529e-05 -1.2161e-05 -1.21251e-05 -2.12219e-05
0.000121016 -3.63268e-05 -3.62953e-05 -1.76858e-05
0.000123431 -3.70527e-05 -3.70194e-05 -1.76859e-05
4.08549e-05 -1.22824e-05 -1.22454e-05 -2.12219e-05
8.07339e-05 -2.42445e-05 -2.42097e-05 -1.9896e-05
0.000122224 -3.66898e-05 -3.66574e-05 -1.76859e-05
8.23434e-05 -2.47288e-05 -2.4692e-05 -1.98961e-05
8.15386e-05 -2.44866e-05 -2.44509e-05 -1.98961e-05
4.04529e-05 -1.2161e-05 -1.21251e-05 -2.12219e-05
3.9649e-05 -1.19184e-05 -1.18846e-05 -2.12218e-05
0.000118601 -3.56009e-05 -3.55713e-05 -1.76858e-05
0.000121016 -3.63268e-05 -3.62953e-05 -1.76858e-05
4.0051e-05 -1.20397e-05 -1.20048e-05 -2.12219e-05
7.91243e-05 -2.37602e-05 -2.37275e-05 -1.9896e-05
0.000119808 -3.59638e-05 -3.59333e-05 -1.76858e-05
8.07339e-05 -2.42445e-05 -2.42097e-05 -1.9896e-05
7.99291e-05 -2.40023e-05 -2.39686e-05 -1.9896e-05
3.9649e-05 -1.19184e-05 -1.18846e-05 -2.12218e-05
3.8845e-05 -1.16757e-05 -1.1644e-05 -2.12218e-05
0.000116185 -3.4875e-05 -3.48473e-05 -1.76858e-05
0.000118601 -3.56009e-05 -3.55713e-05 -1.76858e-05
3.9247e-05 -1.1797e-05 -1.17643e-05 -2.12218e-05
7.75146e-05 -2.32759e-05 -2.32452e-05 -1.9896e-05
0.000117393 -3.52379e-05 -3.52093e-05 -1.76858e-05
7.91243e-05 -2.37602e-05 -2.37275e-05 -1.9896e-05
7.83194e-05 -2.3518e-05 -2.34863e-05 -1.9896e-05
3.8845e-05 -1.16757e-05 -1.1644e-05 -2.12218e-05
3.8041e-05 -1.14331e-05 -1.14034e-05 -2.12218e-05
0.00011377 -3.41491e-05 -3.41232e-05 -1.76857e-05
0.000116185 -3.4875e-05 -3.48473e-05 -1.76858e-05
3.8443e-05 -1.15544e-05 -1.15237e-05 -2.12218e-05
7.5905e-05 -2.27916e-05 -2.27629e-05 -1.98959e-05
0.000114978 -3.45121e-05 -3.44852e-05 -1.76857e-05
7.75146e-05 -2.32759e-05 -2.32452e-05 -1.9896e-05
7.67098e-05 -2.30337e-05 -2.3004e-05 -1.98959e-05
3.8041e-05 -1.14331e-05 -1.14034e-05 -2.12218e-05
3.7237e-05 -1.11905e-05 -1.11628e-05 -2.12218e-05
0.000111355 -3.34233e-05 -3.33991e-05 -1.76857e-05
0.00011377 -3.41491e-05 -3.41232e-05 -1.76857e-05
3.7639e-05 -1.13118e-05 -1.12831e-05 -2.12218e-05
7.42953e-05 -2.23073e-05 -2.22805e-05 -1.98959e-05
0.000112562 -3.37862e-05 -3.37612e-05 -1.76857e-05
7.5905e-05 -2.27916e-05 -2.27629e-05 -1.98959e-05
7.51001e-05 -2.25495e-05 -2.25217e-05 -1.98959e-05
3.7237e-05 -1.11905e-05 -1.11628e-05 -2.12218e-05
3.64329e-05 -1.09479e-05 -1.09222e-05 -2.12217e-05
0.000108939 -3.26974e-05 -3.2675e-05 -1.76856e-05
0.000111355 -3.34233e-05 -3.33991e-05 -1.76857e-05
3.6835e-05 -1.10692e-05 -1.10425e-05 -2.12217e-05
7.26855e-05 -2.18231e-05 -2.17982e-05 -1.98959e-05
0.000110147 -3.30603e-05 -3.30371e-05 -1.76857e-05
7.42953e-05 -2.23073e-05 -2.22805e-05 -1.98959e-05
7.34904e-05 -2.20652e-05 -2.20394e-05 -1.98959e-05
3.64329e-05 -1.09479e-05 -1.09222e-05 -2.12217e-05
3.56288e-05 -1.07053e-05 -1.06815e-05 -2.12217e-05
0.000106524 -3.19716e-05 -3.19509e-05 -1.76856e-05
0.000108939 -3.26974e-05 -3.2675e-05 -1.76856e-05
3.60309e-05 -1.08266e-05 -1.08018e-05 -2.12217e-05
7.10758e-05 -2.13389e-05 -2.13158e-05 -1.98958e-05
0.000107731 -3.23345e-05 -3.23129e-05 -1.76856e-05
7.26855e-05 -2.18231e-05 -2.17982e-05 -1.98959e-05
7.18807e-05 -2.1581e-05 -2.1557e-05 -1.98958e-05
3.56288e-05 -1.07053e-05 -1.06815e-05 -2.12217e-05
3.48247e-05 -1.04627e-05 -1.04408e-05 -2.12217e-05
0.000104108 -3.12458e-05 -3.12267e-05 -1.76855e-05
0.000106524 -3.19716e-05 -3.19509e-05 -1.76856e-05
3.52267e-05 -1.0584e-05 -1.05612e-05 -2.12217e-05
6.9466e-05 -2.08547e-05 -2.08334e-05 -1.98958e-05
0.000105316 -3.16087e-05 -3.15888e-05 -1.76856e-05
7.10758e-05 -2.13389e-05 -2.13158e-05 -1.98958e-05
7.02709e-05 -2.10968e-05 -2.10746e-05 -1.98958e-05
3.48247e-05 -1.04627e-05 -1.04408e-05 -2.12217e-05
3.40205e-05 -1.02202e-05 -1.02001e-05 -2.12216e-05
0.000101693 -3.052e-05 -3.05026e-05 -1.76855e-05
0.000104108 -3.12458e-05 -3.12267e-05 -1.76855e-05
3.44226e-05 -1.03414e-05 -1.03205e-05 -2.12217e-05
6.78562e-05 -2.03705e-05 -2.0351e-05 -1.98957e-05
0.0001029 -3.08829e-05 -3.08647e-05 -1.76855e-05
6.9466e-05 -2.08547e-05 -2.08334e-05 -1.98958e-05
6.86611e-05 -2.06126e-05 -2.05922e-05 -1.98958e-05
3.40205e-05 -1.02202e-05 -1.02001e-05 -2.12216e-05
3.32163e-05 -9.97766e-06 -9.95942e-06 -2.12216e-05
9.92771e-05 -2.97942e-05 -2.97784e-05 -1.76855e-05
0.000101693 -3.052e-05 -3.05026e-05 -1.76855e-05
3.36184e-05 -1.00989e-05 -1.00798e-05 -2.12216e-05
6.62463e-05 -1.98863e-05 -1.98686e-05 -1.98957e-05
0.000100485 -3.01571e-05 -3.01405e-05 -1.76855e-05
6.78562e-05 -2.03705e-05 -2.0351e-05 -1.98957e-05
6.70512e-05 -2.01284e-05 -2.01098e-05 -1.98957e-05
3.32163e-05 -9.97766e-06 -9.95942e-06 -2.12216e-05
3.24121e-05 -9.73516e-06 -9.71867e-06 -2.12216e-05
9.68616e-05 -2.90684e-05 -2.90542e-05 -1.76854e-05
9.92771e-05 -2.97942e-05 -2.97784e-05 -1.76855e-05
3.28142e-05 -9.85641e-06 -9.83905e-06 -2.12216e-05
6.46364e-05 -1.94022e-05 -1.93861e-05 -1.98957e-05
9.80694e-05 -2.94313e-05 -2.94163e-05 -1.76854e-05
6.62463e-05 -1.98863e-05 -1.98686e-05 -1.98957e-05
6.54414e-05 -1.96442e-05 -1.96273e-05 -1.98957e-05
3.24121e-05 -9.73516e-06 -9.71867e-06 -2.12216e-05
3.16078e-05 -9.49268e-06 -9.47791e-06 -2.12216e-05
9.4446e-05 -2.83427e-05 -2.833e-05 -1.76854e-05
9.68616e-05 -2.90684e-05 -2.90542e-05 -1.76854e-05
3.20099e-05 -9.61392e-06 -9.59829e-06 -2.12216e-05
6.30265e-05 -1.8918e-05 -1.89036e-05 -1.98956e-05
9.56538e-05 -2.87056e-05 -2.86921e-05 -1.76854e-05
6.46364e-05 -1.94022e-05 -1.93861e-05 -1.98957e-05
6.38315e-05 -1.91601e-05 -1.91449e-05 -1.98957e-05
3.16078e-05 -9.49268e-06 -9.47791e-06 -2.12216e-05
3.08035e-05 -9.25022e-06 -9.23712e-06 -2.12215e-05
9.20304e-05 -2.7617e-05 -2.76057e-05 -1.76853e-05
9.4446e-05 -2.83427e-05 -2.833e-05 -1.76854e-05
3.12056e-05 -9.37145e-06 -9.35751e-06 -2.12216e-05
6.14166e-05 -1.84339e-05 -1.84211e-05 -1.98956e-05
9.32382e-05 -2.79798e-05 -2.79679e-05 -1.76854e-05
6.30265e-05 -1.8918e-05 -1.89036e-05 -1.98956e-05
6.22216e-05 -1.8676e-05 -1.86624e-05 -1.98956e-05
3.08035e-05 -9.25022e-06 -9.23712e-06 -2.12215e-05
2.99992e-05 -9.00778e-06 -8.99631e-06 -2.12215e-05
8.96147e-05 -2.68913e-05 -2.68815e-05 -1.76853e-05
9.20304e-05 -2.7617e-05 -2.76057e-05 -1.76853e-05
3.04013e-05 -9.129e-06 -9.11671e-06 -2.12215e-05
5.98066e-05 -1.79498e-05 -1.79386e-05 -1.98956e-05
9.08226e-05 -2.72541e-05 -2.72436e-05 -1.76853e-05
6.14166e-05 -1.84339e-05 -1.84211e-05 -1.98956e-05
6.06116e-05 -1.81919e-05 -1.81799e-05 -1.98956e-05
2.99992e-05 -9.00778e-06 -8.99631e-06 -2.12215e-05
2.91948e-05 -8.76536e-06 -8.75547e-06 -2.12215e-05
8.71991e-05 -2.61656e-05 -2.61572e-05 -1.76853e-05
8.96147e-05 -2.68913e-05 -2.68815e-05 -1.76853e-05
2.9597e-05 -8.88657e-06 -8.87589e-06 -2.12215e-05
5.81966e-05 -1.74658e-05 -1.74561e-05 -1.98955e-05
8.84069e-05 -2.65284e-05 -2.65193e-05 -1.76853e-05
5.98066e-05 -1.79498e-05 -1.79386e-05 -1.98956e-05
5.90016e-05 -1.77078e-05 -1.76974e-05 -1.98956e-05
2.91948e-05 -8.76536e-06 -8.75547e-06 -2.12215e-05
2.83904e-05 -8.52296e-06 -8.51461e-06 -2.12215e-05
8.47834e-05 -2.54399e-05 -2.54329e-05 -1.76852e-05
8.71991e-05 -2.61656e-05 -2.61572e-05 -1.76853e-05
2.87926e-05 -8.64416e-06 -8.63505e-06 -2.12215e-05
5.65866e-05 -1.69817e-05 -1.69735e-05 -1.98955e-05
8.59912e-05 -2.58027e-05 -2.57951e-05 -1.76852e-05
5.81966e-05 -1.74658e-05 -1.74561e-05 -1.98955e-05
5.73916e-05 -1.72237e-05 -1.72148e-05 -1.98955e-05
2.83904e-05 -8.52296e-06 -8.51461e-06 -2.12215e-05
2.7586e-05 -8.28058e-06 -8.27373e-06 -2.12214e-05
8.23676e-05 -2.47142e-05 -2.47086e-05 -1.76852e-05
8.47834e-05 -2.54399e-05 -2.54329e-05 -1.76852e-05
2.79882e-05 -8.40177e-06 -8.39418e-06 -2.12215e-05
5.49765e-05 -1.64977e-05 -1.64909e-05 -1.98955e-05
8.35755e-05 -2.50771e-05 -2.50708e-05 -1.76852e-05
5.65866e-05 -1.69817e-05 -1.69735e-05 -1.98955e-05
5.57816e-05 -1.67397e-05 -1.67322e-05 -1.98955e-05
2.7586e-05 -8.28058e-06 -8.27373e-06 -2.12214e-05
2.67815e-05 -8.03822e-06 -8.03283e-06 -2.12214e-05
7.99519e-05 -2.39886e-05 -2.39843e-05 -1.76851e-05
8.23676e-05 -2.47142e-05 -2.47086e-05 -1.76852e-05
2.71837e-05 -8.1594e-06 -8.15329e-06 -2.12214e-05
5.33664e-05 -1.60136e-05 -1.60083e-05 -1.98954e-05
8.11597e-05 -2.43514e-05 -2.43464e-05 -1.76852e-05
5.49765e-05 -1.64977e-05 -1.64909e-05 -1.98955e-05
5.41715e-05 -1.62557e-05 -1.62496e-05 -1.98955e-05
2.67815e-05 -8.03822e-06 -8.03283e-06 -2.12214e-05
2.5977e-05 -7.79588e-06 -7.79191e-06 -2.12214e-05
7.75361e-05 -2.3263e-05 -2.32599e-05 -1.76851e-05
7.99519e-05 -2.39886e-05 -2.39843e-05 -1.76851e-05
2.63792e-05 -7.91705e-06 -7.91237e-06 -2.12214e-05
5.17563e-05 -1.55296e-05 -1.55257e-05 -1.98954e-05
7.8744e-05 -2.36258e-05 -2.36221e-05 -1.76851e-05
5.33664e-05 -1.60136e-05 -1.60083e-05 -1.98954e-05
5.25614e-05 -1.57716e-05 -1.5767e-05 -1.98954e-05
2.5977e-05 -7.79588e-06 -7.79191e-06 -2.12214e-05
2.51725e-05 -7.55356e-06 -7.55096e-06 -2.12214e-05
7.51203e-05 -2.25373e-05 -2.25355e-05 -1.76851e-05
7.75361e-05 -2.3263e-05 -2.32599e-05 -1.76851e-05
2.55747e-05 -7.67471e-06 -7.67144e-06 -2.12214e-05
5.01461e-05 -1.50457e-05 -1.50431e-05 -1.98954e-05
7.63282e-05 -2.29001e-05 -2.28977e-05 -1.76851e-05
5.17563e-05 -1.55296e-05 -1.55257e-05 -1.98954e-05
5.09512e-05 -1.52877e-05 -1.52844e-05 -1.98954e-05
2.51725e-05 -7.55356e-06 -7.55096e-06 -2.12214e-05
2.43679e-05 -7.31126e-06 -7.30999e-06 -2.12214e-05
7.27044e-05 -2.18117e-05 -2.18111e-05 -1.7685e-05
7.51203e-05 -2.25373e-05 -2.25355e-05 -1.76851e-05
2.47702e-05 -7.43241e-06 -7.43048e-06 -2.12214e-05
4.85359e-05 -1.45617e-05 -1.45604e-05 -1.98953e-05
7.39123e-05 -2.21745e-05 -2.21733e-05 -1.76851e-05
5.01461e-05 -1.50457e-05 -1.50431e-05 -1.98954e-05
4.9341e-05 -1.48037e-05 -1.48017e-05 -1.98954e-05
2.43679e-05 -7.31126e-06 -7.30999e-06 -2.12214e-05
2.35633e-05 -7.06898e-06 -7.069e-06 -2.12213e-05
7.02886e-05 -2.10862e-05 -2.10867e-05 -1.7685e-05
7.27044e-05 -2.18117e-05 -2.18111e-05 -1.7685e-05
2.39656e-05 -7.19012e-06 -7.1895e-06 -2.12213e-05
4.69257e-05 -1.40778e-05 -1.40777e-05 -1.98953e-05
7.14965e-05 -2.1449e-05 -2.14489e-05 -1.7685e-05
4.85359e-05 -1.45617e-05 -1.45604e-05 -1.98953e-05
4.77308e-05 -1.43197e-05 -1.4319e-05 -1.98953e-05
2.35633e-05 -7.06898e-06 -7.069e-06 -2.12213e-05
2.27587e-05 -6.82672e-06 -6.82798e-06 -2.12213e-05
6.78727e-05 -2.03606e-05 -2.03623e-05 -1.7685e-05
7.02886e-05 -2.10862e-05 -2.10867e-05 -1.7685e-05
2.3161e-05 -6.94785e-06 -6.94849e-06 -2.12213e-05
4.53155e-05 -1.35938e-05 -1.3595e-05 -1.98953e-05
6.90806e-05 -2.07234e-05 -2.07245e-05 -1.7685e-05
4.69257e-05 -1.40778e-05 -1.40777e-05 -1.98953e-05
4.61206e-05 -1.38358e-05 -1.38363e-05 -1.98953e-05
2.27587e-05 -6.82672e-06 -6.82798e-06 -2.12213e-05
2.1954e-05 -6.58449e-06 -6.58695e-06 -2.12213e-05
6.54567e-05 -1.96351e-05 -1.96379e-05 -1.76849e-05
6.78727e-05 -2.03606e-05 -2.03623e-05 -1.7685e-05
2.23564e-05 -6.7056e-06 -6.70747e-06 -2.12213e-05
4.37052e-05 -1.31099e-05 -1.31123e-05 -1.98953e-05
6.66647e-05 -1.99978e-05 -2.00001e-05 -1.7685e-05
4.53155e-05 -1.35938e-05 -1.3595e-05 -1.98953e-05
4.45103e-05 -1.33519e-05 -1.33536e-05 -1.98953e-05
2.1954e-05 -6.58449e-06 -6.58695e-06 -2.12213e-05
2.11493e-05 -6.34228e-06 -6.34589e-06 -2.12213e-05
6.30408e-05 -1.89095e-05 -1.89134e-05 -1.76849e-05
6.54567e-05 -1.96351e-05 -1.96379e-05 -1.76849e-05
2.15517e-05 -6.46338e-06 -6.46642e-06 -2.12213e-05
4.20949e-05 -1.26261e-05 -1.26295e-05 -1.98952e-05
6.42488e-05 -1.92723e-05 -1.92756e-05 -1.76849e-05
4.37052e-05 -1.31099e-05 -1.31123e-05 -1.98953e-05
4.29001e-05 -1.2868e-05 -1.28709e-05 -1.98952e-05
2.11493e-05 -6.34228e-06 -6.34589e-06 -2.12213e-05
2.03446e-05 -6.10009e-06 -6.1048e-06 -2.12213e-05
6.06248e-05 -1.8184e-05 -1.81889e-05 -1.76849e-05
6.30408e-05 -1.89095e-05 -1.89134e-05 -1.76849e-05
2.0747e-05 -6.22118e-06 -6.22535e-06 -2.12213e-05
4.04846e-05 -1.21422e-05 -1.21467e-05 -1.98952e-05
6.18328e-05 -1.85468e-05 -1.85511e-05 -1.76849e-05
4.20949e-05 -1.26261e-05 -1.26295e-05 -1.98952e-05
4.12897e-05 -1.23841e-05 -1.23881e-05 -1.98952e-05
2.03446e-05 -6.10009e-06 -6.1048e-06 -2.12213e-05
1.95399e-05 -5.85793e-06 -5.8637e-06 -2.12212e-05
5.82088e-05 -1.74586e-05 -1.74644e-05 -1.76849e-05
6.06248e-05 -1.8184e-05 -1.81889e-05 -1.76849e-05
1.99423e-05 -5.979e-06 -5.98425e-06 -2.12212e-05
3.88742e-05 -1.16584e-05 -1.16639e-05 -1.98952e-05
5.94168e-05 -1.78213e-05 -1.78266e-05 -1.76849e-05
4.04846e-05 -1.21422e-05 -1.21467e-05 -1.98952e-05
3.96794e-05 -1.19003e-05 -1.19053e-05 -1.98952e-05
1.95399e-05 -5.85793e-06 -5.8637e-06 -2.12212e-05
1.87351e-05 -5.61579e-06 -5.62258e-06 -2.12212e-05
5.57928e-05 -1.67331e-05 -1.67399e-05 -1.76848e-05
5.82088e-05 -1.74586e-05 -1.74644e-05 -1.76849e-05
1.91375e-05 -5.73685e-06 -5.74314e-06 -2.12212e-05
3.72638e-05 -1.11746e-05 -1.11811e-05 -1.98952e-05
5.70008e-05 -1.70958e-05 -1.71021e-05 -1.76849e-05
3.88742e-05 -1.16584e-05 -1.16639e-05 -1.98952e-05
3.8069e-05 -1.14165e-05 -1.14225e-05 -1.98952e-05
1.87351e-05 -5.61579e-06 -5.62258e-06 -2.12212e-05
1.79303e-05 -5.37367e-06 -5.38143e-06 -2.12212e-05
5.33768e-05 -1.60077e-05 -1.60153e-05 -1.76848e-05
5.57928e-05 -1.67331e-05 -1.67399e-05 -1.76848e-05
1.83327e-05 -5.49473e-06 -5.50201e-06 -2.12212e-05
3.56534e-05 -1.06908e-05 -1.06983e-05 -1.98951e-05
5.45848e-05 -1.63704e-05 -1.63776e-05 -1.76848e-05
3.72638e-05 -1.11746e-05 -1.11811e-05 -1.98952e-05
3.64586e-05 -1.09327e-05 -1.09397e-05 -1.98952e-05
1.79303e-05 -5.37367e-06 -5.38143e-06 -2.12212e-05
1.71255e-05 -5.13158e-06 -5.14027e-06 -2.12211e-05
5.09607e-05 -1.52823e-05 -1.52908e-05 -1.76848e-05
5.33768e-05 -1.60077e-05 -1.60153e-05 -1.76848e-05
1.75279e-05 -5.25262e-06 -5.26085e-06 -2.12212e-05
3.4043e-05 -1.0207e-05 -1.02154e-05 -1.98951e-05
5.21687e-05 -1.5645e-05 -1.5653e-05 -1.76848e-05
3.56534e-05 -1.06908e-05 -1.06983e-05 -1.98951e-05
3.48482e-05 -1.04489e-05 -1.04569e-05 -1.98951e-05
1.71255e-05 -5.13158e-06 -5.14027e-06 -2.12211e-05
1.63207e-05 -4.8895e-06 -4.8991e-06 -2.12211e-05
4.85447e-05 -1.45569e-05 -1.45662e-05 -1.76848e-05
5.09607e-05 -1.52823e-05 -1.52908e-05 -1.76848e-05
1.67231e-05 -5.01054e-06 -5.01969e-06 -2.12211e-05
3.24326e-05 -9.7233e-06 -9.73257e-06 -1.98951e-05
4.97527e-05 -1.49196e-05 -1.49285e-05 -1.76848e-05
3.4043e-05 -1.0207e-05 -1.02154e-05 -1.98951e-05
3.32378e-05 -9.96517e-06 -9.974e-06 -1.98951e-05
1.63207e-05 -4.8895e-06 -4.8991e-06 -2.12211e-05
1.55159e-05 -4.64741e-06 -4.65792e-06 -2.12209e-05
4.61287e-05 -1.38315e-05 -1.38416e-05 -1.76848e-05
4.85447e-05 -1.45569e-05 -1.45662e-05 -1.76848e-05
1.59183e-05 -4.76846e-06 -4.77851e-06 -2.1221e-05
3.08222e-05 -9.23958e-06 -9.24971e-06 -1.9895e-05
4.73367e-05 -1.41942e-05 -1.42039e-05 -1.76848e-05
3.24326e-05 -9.7233e-06 -9.73257e-06 -1.98951e-05
3.16274e-05 -9.48144e-06 -9.49114e-06 -1.9895e-05
1.55159e-05 -4.64741e-06 -4.65792e-06 -2.12209e-05
1.4711e-05 -4.4053e-06 -4.41674e-06 -2.12208e-05
4.37127e-05 -1.31062e-05 -1.31171e-05 -1.76847e-05
4.61287e-05 -1.38315e-05 -1.38416e-05 -1.76848e-05
1.51135e-05 -4.52636e-06 -4.53733e-06 -2.12209e-05
2.92118e-05 -8.75583e-06 -8.76685e-06 -1.98948e-05
4.49206e-05 -1.34688e-05 -1.34793e-05 -1.76847e-05
3.08222e-05 -9.23958e-06 -9.24971e-06 -1.9895e-05
3.0017e-05 -8.99772e-06 -9.00828e-06 -1.98949e-05
1.4711e-05 -4.4053e-06 -4.41674e-06 -2.12208e-05
1.39061e-05 -4.16306e-06 -4.17557e-06 -2.12206e-05
4.12966e-05 -1.23807e-05 -1.23925e-05 -1.76845e-05
4.37127e-05 -1.31062e-05 -1.31171e-05 -1.76847e-05
1.43085e-05 -4.2842e-06 -4.29615e-06 -2.12207e-05
2.76014e-05 -8.27195e-06 -8.28403e-06 -1.98946e-05
4.25047e-05 -1.27435e-05 -1.27548e-05 -1.76846e-05
2.92118e-05 -8.75583e-06 -8.76685e-06 -1.98948e-05
2.84066e-05 -8.51392e-06 -8.52544e-06 -1.98947e-05
1.39061e-05 -4.16306e-06 -4.17557e-06 -2.12206e-05
1.31009e-05 -3.92056e-06 -3.93444e-06 -2.12206e-05
3.88806e-05 -1.16549e-05 -1.16681e-05 -1.76842e-05
4.12966e-05 -1.23807e-05 -1.23925e-05 -1.76845e-05
1.35035e-05 -4.04186e-06 -4.055e-06 -2.12206e-05
2.59907e-05 -7.78773e-06 -7.80129e-06 -1.98944e-05
4.00886e-05 -1.20179e-05 -1.20303e-05 -1.76844e-05
2.76014e-05 -8.27195e-06 -8.28403e-06 -1.98946e-05
2.67961e-05 -8.02991e-06 -8.04265e-06 -1.98945e-05
1.31009e-05 -3.92056e-06 -3.93444e-06 -2.12206e-05
1.22954e-05 -3.67747e-06 -3.69338e-06 -2.12209e-05
3.6464e-05 -1.09284e-05 -1.09438e-05 -1.76836e-05
3.88806e-05 -1.16549e-05 -1.16681e-05 -1.76842e-05
1.26982e-05 -3.79911e-06 -3.81389e-06 -2.12207e-05
2.43796e-05 -7.30267e-06 -7.31867e-06 -1.98943e-05
3.76724e-05 -1.12918e-05 -1.1306e-05 -1.7684e-05
2.59907e-05 -7.78773e-06 -7.80129e-06 -1.98944e-05
2.51852e-05 -7.54535e-06 -7.55995e-06 -1.98943e-05
1.22954e-05 -3.67747e-06 -3.69338e-06 -2.12209e-05
1.14887e-05 -3.43318e-06 -3.45238e-06 -2.12224e-05
3.40465e-05 -1.02002e-05 -1.02199e-05 -1.76825e-05
3.6464e-05 -1.09284e-05 -1.09438e-05 -1.76836e-05
1.18923e-05 -3.55553e-06 -3.57288e-06 -2.12214e-05
2.27671e-05 -6.81585e-06 -6.83625e-06 -1.98945e-05
3.52554e-05 -1.05646e-05 -1.05818e-05 -1.76832e-05
2.43796e-05 -7.30267e-06 -7.31867e-06 -1.98943e-05
2.35736e-05 -7.05958e-06 -7.07742e-06 -1.98943e-05
1.14887e-05 -3.43318e-06 -3.45238e-06 -2.12224e-05
1.06802e-05 -3.18652e-06 -3.21158e-06 -2.12265e-05
3.16261e-05 -9.46832e-06 -9.49619e-06 -1.76806e-05
3.40465e-05 -1.02002e-05 -1.02199e-05 -1.76825e-05
1.10847e-05 -3.31024e-06 -3.33192e-06 -2.1224e-05
2.11517e-05 -6.32538e-06 -6.35414e-06 -1.98957e-05
3.28369e-05 -9.83488e-06 -9.85799e-06 -1.76817e-05
2.27671e-05 -6.81585e-06 -6.83625e-06 -1.98945e-05
2.19599e-05 -6.57123e-06 -6.59515e-06 -1.98948e-05
1.06802e-05 -3.18652e-06 -3.21158e-06 -2.12265e-05
9.86709e-06 -2.93549e-06 -2.97069e-06 -2.12363e-05
2.92002e-05 -8.72922e-06 -8.77328e-06 -1.76773e-05
3.16261e-05 -9.46832e-06 -9.49619e-06 -1.76806e-05
1.02745e-05 -3.06177e-06 -3.09119e-06 -2.12304e-05
1.95301e-05 -5.82794e-06 -5.87237e-06 -1.98994e-05
3.0414e-05 -9.09998e-06 -9.13457e-06 -1.76792e-05
2.11517e-05 -6.32538e-06 -6.35414e-06 -1.98957e-05
2.0342e-05 -6.07787e-06 -6.11319e-06 -1.98972e-05
9.86709e-06 -2.93549e-06 -2.97069e-06 -2.12363e-05
9.04669e-06 -2.67635e-06 -2.73015e-06 -2.12575e-05
2.67613e-05 -7.9766e-06 -8.05059e-06 -1.76723e-05
2.92002e-05 -8.72922e-06 -8.77328e-06 -1.76773e-05
9.45782e-06 -2.80718e-06 -2.85028e-06 -2.1245e-05
1.78961e-05 -5.31734e-06 -5.39091e-06 -1.99087e-05
2.79832e-05 -8.35523e-06 -8.41198e-06 -1.7675e-05
1.95301e-05 -5.82794e-06 -5.87237e-06 -1.98994e-05
1.87152e-05 -5.57473e-06 -5.63162e-06 -1.9903e-05
9.04669e-06 -2.67635e-06 -2.73015e-06 -2.12575e-05
8.20982e-06 -2.40378e-06 -2.4883e-06 -2.13008e-05
2.43001e-05 -7.19921e-06 -7.32893e-06 -1.76641e-05
2.67613e-05 -7.9766e-06 -8.05059e-06 -1.76723e-05
8.63145e-06 -2.54236e-06 -2.60961e-06 -2.12755e-05
1.62387e-05 -4.78423e-06 -4.90905e-06 -1.99291e-05
2.55338e-05 -7.59179e-06 -7.68945e-06 -1.76688e-05
1.78961e-05 -5.31734e-06 -5.39091e-06 -1.99087e-05
1.70712e-05 -5.05456e-06 -5.14999e-06 -1.99173e-05
8.20982e-06 -2.40378e-06 -2.4883e-06 -2.13008e-05
7.34999e-06 -2.10837e-06 -2.24641e-06 -2.13825e-05
2.17913e-05 -6.38093e-06 -6.60444e-06 -1.76541e-05
2.43001e-05 -7.19921e-06 -7.32893e-06 -1.76641e-05
7.78246e-06 -2.25926e-06 -2.36708e-06 -2.13356e-05
1.45387e-05 -4.21282e-06 -4.42538e-06 -1.99707e-05
2.30544e-05 -6.79686e-06 -6.96752e-06 -1.7659e-05
1.62387e-05 -4.78423e-06 -4.90905e-06 -1.99291e-05
1.53955e-05 -4.50414e-06 -4.66773e-06 -1.99457e-05
7.34999e-06 -2.10837e-06 -2.24641e-06 -2.13825e-05
6.44198e-06 -1.78192e-06 -1.99717e-06 -2.15298e-05
1.92108e-05 -5.49581e-06 -5.87784e-06 -1.76411e-05
2.17913e-05 -6.38093e-06 -6.60444e-06 -1.76541e-05
6.90548e-06 -1.95032e-06 -2.12364e-06 -2.14457e-05
1.27681e-05 -3.58637e-06 -3.93503e-06 -2.00501e-05
2.05102e-05 -5.94774e-06 -6.24107e-06 -1.76484e-05
1.45387e-05 -4.21282e-06 -4.42538e-06 -1.99707e-05
1.36642e-05 -3.90837e-06 -4.18108e-06 -2.00056e-05
6.44198e-06 -1.78192e-06 -1.99717e-06 -2.15298e-05
5.48153e-06 -1.41145e-06 -1.74432e-06 -2.17738e-05
1.64916e-05 -4.52216e-06 -5.12975e-06 -1.76401e-05
1.92108e-05 -5.49581e-06 -5.87784e-06 -1.76411e-05
5.96537e-06 -1.60093e-06 -1.87047e-06 -2.16377e-05
1.08851e-05 -2.88296e-06 -3.4295e-06 -2.0193e-05
1.78766e-05 -5.02298e-06 -5.50871e-06 -1.76369e-05
1.27681e-05 -3.58637e-06 -3.93503e-06 -2.00501e-05
1.18439e-05 -3.24346e-06 -3.6859e-06 -2.01088e-05
5.48153e-06 -1.41145e-06 -1.74432e-06 -2.17738e-05
4.42317e-06 -1.01555e-06 -1.46041e-06 -2.21496e-05
1.36046e-05 -3.43674e-06 -4.35765e-06 -1.76612e-05
1.64916e-05 -4.52216e-06 -5.12975e-06 -1.76401e-05
4.97322e-06 -1.21739e-06 -1.60964e-06 -2.19428e-05
8.85623e-06 -2.11952e-06 -2.88716e-06 -2.04329e-05
1.50646e-05 -3.98921e-06 -4.74658e-06 -1.7648e-05
1.08851e-05 -2.88296e-06 -3.4295e-06 -2.0193e-05
9.88989e-06 -2.50865e-06 -3.16339e-06 -2.03035e-05
4.42317e-06 -1.01555e-06 -1.46041e-06 -2.21496e-05
3.331e-06 -6.28735e-07 -1.15811e-06 -2.26396e-05
1.04441e-05 -2.31561e-06 -3.48365e-06 -1.77884e-05
1.36046e-05 -3.43674e-06 -4.35765e-06 -1.76612e-05
3.86467e-06 -8.08462e-07 -1.3098e-06 -2.23849e-05
6.6634e-06 -1.35696e-06 -2.27419e-06 -2.08026e-05
1.20763e-05 -2.87843e-06 -3.94193e-06 -1.77014e-05
8.85623e-06 -2.11952e-06 -2.88716e-06 -2.04329e-05
7.78159e-06 -1.72197e-06 -2.59698e-06 -2.05896e-05
3.331e-06 -6.28735e-07 -1.15811e-06 -2.26396e-05
2.21299e-06 -4.61576e-07 -7.50605e-07 -2.31252e-05
7.16551e-06 -1.34374e-06 -2.49504e-06 -1.80808e-05
1.04441e-05 -2.31561e-06 -3.48365e-06 -1.77884e-05
2.79087e-06 -5.10195e-07 -9.77432e-07 -2.28956e-05
4.45935e-06 -9.03298e-07 -1.52402e-06 -2.12827e-05
8.78246e-06 -1.76833e-06 -3.00606e-06 -1.79113e-05
6.6634e-06 -1.35696e-06 -2.27419e-06 -2.08026e-05
5.54242e-06 -1.07163e-06 -1.91605e-06 -2.10517e-05
2.21299e-06 -4.61576e-07 -7.50605e-07 -2.31252e-05
1.4307e-06 -7.55657e-07 -2.89306e-07 -2.31504e-05
3.98071e-06 -1.32336e-06 -1.13886e-06 -1.87375e-05
7.16551e-06 -1.34374e-06 -2.49504e-06 -1.80808e-05
1.71904e-06 -5.068e-07 -5.19529e-07 -2.32417e-05
2.58348e-06 -1.25852e-06 -5.67842e-07 -2.1645e-05
5.57202e-06 -1.16393e-06 -1.88918e-06 -1.83457e-05
4.45935e-06 -9.03298e-07 -1.52402e-06 -2.12827e-05
3.45834e-06 -9.12006e-07 -1.09128e-06 -2.1472e-05
1.4307e-06 -7.55657e-07 -2.89306e-07 -2.31504e-05
1.01874e-06 -1.99533e-06 4.18538e-07 -2.18698e-05
2.29135e-06 -3.68153e-06 5.95788e-07 -1.92477e-05
3.98071e-06 -1.32336e-06 -1.13886e-06 -1.87375e-05
1.23495e-06 -1.29016e-06 2.36597e-08 -2.27421e-05
1.91536e-06 -3.3839e-06 6.29374e-07 -2.09752e-05
2.76327e-06 -1.99352e-06 -3.29891e-07 -1.90837e-05
2.58348e-06 -1.25852e-06 -5.67842e-07 -2.1645e-05
2.01057e-06 -2.08818e-06 3.32614e-08 -2.15957e-05
1.01874e-06 -1.99533e-06 4.18538e-07 -2.18698e-05
1.39917e-06 -3.62371e-06 9.53372e-07 -1.78814e-05
3.12886e-06 -1.10835e-05 3.40915e-06 -1.76977e-05
2.29135e-06 -3.68153e-06 5.95788e-07 -1.92477e-05
1.00062e-06 -2.75231e-06 7.50721e-07 -2.03071e-05
2.39566e-06 -7.24732e-06 2.07928e-06 -1.74625e-05
2.45115e-06 -6.80444e-06 1.86569e-06 -1.89791e-05
1.91536e-06 -3.3839e-06 6.29374e-07 -2.09752e-05
2.10726e-06 -5.10106e-06 1.28306e-06 -1.96021e-05
1.39917e-06 -3.62371e-06 9.53372e-07 -1.78814e-05
2.43863e-06 -5.92895e-06 1.49585e-06 -1.02141e-05
5.63739e-06 -2.00903e-05 6.19409e-06 -9.36673e-06
3.12886e-06 -1.10835e-05 3.40915e-06 -1.76977e-05
1.96248e-06 -4.69092e-06 1.16933e-06 -1.45432e-05
3.52588e-06 -1.23712e-05 3.79084e-06 -1.03448e-05
4.22431e-06 -1.5915e-05 5.01028e-06 -1.46327e-05
2.39566e-06 -7.24732e-06 2.07928e-06 -1.74625e-05
2.84655e-06 -9.77605e-06 2.96979e-06 -1.44531e-05
0.000389155 0 -0.000166781 5.08765e-05
0.000440247 -5.83643e-05 -0.000163664 -1.88991e-06
0.00076102 -0.000150953 -0.000261457 -5.68668e-05
0.000676063 2.22045e-16 -0.000289741 -3.90673e-05
0.000421804 -3.28273e-05 -0.000166704 1.89998e-05
0.000587509 -9.11659e-05 -0.000212718 -2.36461e-05
0.00072369 -7.12415e-05 -0.000279621 -6.59572e-05
0.000553107 0 -0.000237046 7.64853e-06
0.000562508 -5.05577e-05 -0.000219407 -7.72485e-06
0.000440247 -5.83643e-05 -0.000163664 -1.88991e-06
0.000462824 -0.000106736 -0.000152609 -1.82967e-05
0.000790797 -0.000214317 -0.000247063 -2.71709e-05
0.00076102 -0.000150953 -0.000261457 -5.68668e-05
0.00045156 -8.40813e-05 -0.000157491 -1.24626e-05
0.000626668 -0.00015483 -0.000202216 -2.75651e-05
0.000784553 -0.00019563 -0.000252396 -4.10741e-05
0.000587509 -9.11659e-05 -0.000212718 -2.36461e-05
0.0006137 -0.00012692 -0.00020862 -3.09542e-05
0.000462824 -0.000106736 -0.000152609 -1.82967e-05
0.000474313 -0.000131209 -0.000147044 -2.14445e-05
0.000787031 -0.000232147 -0.000237808 -1.01714e-05
0.000790797 -0.000214317 -0.000247063 -2.71709e-05
0.000471315 -0.000121913 -0.000149744 -2.11632e-05
0.000633048 -0.000180488 -0.000193954 -1.85356e-05
0.000788655 -0.000225405 -0.000241393 -1.60229e-05
0.000626668 -0.00015483 -0.000202216 -2.75651e-05
0.000631439 -0.000171566 -0.000197088 -2.18179e-05
0.000474313 -0.000131209 -0.000147044 -2.14445e-05
0.000473942 -0.000140862 -0.000142749 -1.98134e-05
0.000781498 -0.000234633 -0.000234371 -6.34421e-06
0.000787031 -0.000232147 -0.000237808 -1.01714e-05
0.000474345 -0.000137263 -0.000144464 -2.0534e-05
0.000630029 -0.000188717 -0.000189134 -1.40776e-05
0.000784966 -0.000234533 -0.0002359 -7.60464e-06
0.000633048 -0.000180488 -0.000193954 -1.85356e-05
0.000632307 -0.000185843 -0.000191342 -1.61392e-05
0.000473942 -0.000140862 -0.000142749 -1.98134e-05
0.000470653 -0.00014274 -0.000140534 -1.86972e-05
0.0007751 -0.000234263 -0.000231787 -6.14531e-06
0.000781498 -0.000234633 -0.000234371 -6.34421e-06
0.00047281 -0.000142425 -0.000141593 -1.92588e-05
0.000624266 -0.000189226 -0.000186446 -1.26641e-05
0.000777814 -0.000234528 -0.000232837 -5.8681e-06
0.000630029 -0.000188717 -0.000189134 -1.40776e-05
0.000627065 -0.000189535 -0.000187513 -1.29082e-05
0.000470653 -0.00014274 -0.000140534 -1.86972e-05
0.000465986 -0.000142047 -0.000138831 -1.79487e-05
0.000770241 -0.000232558 -0.000230436 -7.41141e-06
0.0007751 -0.000234263 -0.000231787 -6.14531e-06
0.000468152 -0.000142548 -0.000139544 -1.82082e-05
0.000618948 -0.000187928 -0.000184723 -1.27487e-05
0.00077277 -0.00023352 -0.000231107 -6.80961e-06
0.000624266 -0.000189226 -0.000186446 -1.26641e-05
0.000621579 -0.000188655 -0.000185539 -1.27006e-05
0.000465986 -0.000142047 -0.000138831 -1.79487e-05
0.000461915 -0.000140485 -0.000137756 -1.77142e-05
0.000765544 -0.000230886 -0.000229139 -8.48306e-06
0.000770241 -0.000232558 -0.000230436 -7.41141e-06
0.000463969 -0.000141313 -0.000138281 -1.78199e-05
0.000614158 -0.000186031 -0.000183483 -1.32211e-05
0.000767752 -0.000231688 -0.000229742 -7.94775e-06
0.000618948 -0.000187928 -0.000184723 -1.27487e-05
0.00061645 -0.000187008 -0.000184047 -1.29291e-05
0.000461915 -0.000140485 -0.000137756 -1.77142e-05
0.000458205 -0.000138949 -0.000136824 -1.76128e-05
0.000761328 -0.000229256 -0.000228031 -9.36078e-06
0.000765544 -0.000230886 -0.000229139 -8.48306e-06
0.000459951 -0.000139692 -0.000137254 -1.76372e-05
0.00060999 -0.000184323 -0.000182429 -1.36988e-05
0.000763456 -0.000230066 -0.000228596 -8.97926e-06
0.000614158 -0.000186031 -0.000183483 -1.32211e-05
0.000612022 -0.00018514 -0.000182949 -1.34919e-05
0.000458205 -0.000138949 -0.000136824 -1.76128e-05
0.000455041 -0.000137596 -0.000136048 -1.76158e-05
0.000757163 -0.000227781 -0.000226878 -9.8968e-06
0.000761328 -0.000229256 -0.000228031 -9.36078e-06
0.000456596 -0.000138247 -0.000136435 -1.76149e-05
0.000606202 -0.000182803 -0.000181456 -1.40569e-05
0.000759213 -0.000228499 -0.000227449 -9.65485e-06
0.00060999 -0.000184323 -0.000182429 -1.36988e-05
0.000608052 -0.00018354 -0.000181934 -1.38862e-05
0.000455041 -0.000137596 -0.000136048 -1.76158e-05
0.000452157 -0.000136462 -0.000135298 -1.76283e-05
0.000753111 -0.000226402 -0.000225732 -1.02368e-05
0.000757163 -0.000227781 -0.000226878 -9.8968e-06
0.000453556 -0.000137004 -0.000135665 -1.76185e-05
0.000602676 -0.000181498 -0.000180505 -1.42905e-05
0.000755142 -0.000227083 -0.000226311 -1.00932e-05
0.000606202 -0.000182803 -0.000181456 -1.40569e-05
0.000604417 -0.000182127 -0.000180981 -1.41918e-05
0.000452157 -0.000136462 -0.000135298 -1.76283e-05
0.000449501 -0.000135486 -0.000134578 -1.76497e-05
0.000749066 -0.000225096 -0.000224558 -1.04208e-05
0.000753111 -0.000226402 -0.000225732 -1.02368e-05
0.000450815 -0.000135958 -0.000134939 -1.76406e-05
0.000599295 -0.000180326 -0.000179558 -1.44323e-05
0.000751082 -0.000225741 -0.000225146 -1.03414e-05
0.000602676 -0.000181498 -0.000180505 -1.42905e-05
0.000600972 -0.000180899 -0.000180031 -1.43692e-05
0.000449501 -0.000135486 -0.000134578 -1.76497e-05
0.000446954 -0.000134618 -0.000133858 -1.76642e-05
0.000745043 -0.000223833 -0.000223376 -1.05235e-05
0.000749066 -0.000225096 -0.000224558 -1.04208e-05
0.000448214 -0.000135042 -0.000134217 -1.7657e-05
0.000595998 -0.000179246 -0.000178608 -1.45122e-05
0.000747056 -0.000224461 -0.000223969 -1.04811e-05
0.000599295 -0.000180326 -0.000179558 -1.44323e-05
0.00059764 -0.000179777 -0.000179084 -1.44791e-05
0.000446954 -0.000134618 -0.000133858 -1.76642e-05
0.000444479 -0.000133815 -0.000133142 -1.76753e-05
0.000741019 -0.000222596 -0.000222181 -1.0574e-05
0.000745043 -0.000223833 -0.000223376 -1.05235e-05
0.000445712 -0.000134211 -0.000133501 -1.76705e-05
0.000592743 -0.000178218 -0.000177653 -1.45556e-05
0.00074303 -0.000223212 -0.000222779 -1.05529e-05
0.000595998 -0.000179246 -0.000178608 -1.45122e-05
0.000594367 -0.000178728 -0.000178131 -1.4537e-05
0.000444479 -0.000133815 -0.000133142 -1.76753e-05
0.000442036 -0.000133048 -0.000132423 -1.7682e-05
0.000736998 -0.000221373 -0.000220982 -1.05994e-05
0.000741019 -0.000222596 -0.000222181 -1.0574e-05
0.000443254 -0.000133428 -0.000132783 -1.76789e-05
0.000589509 -0.00017722 -0.000176695 -1.45778e-05
0.000739009 -0.000221983 -0.000221582 -1.05892e-05
0.000592743 -0.000178218 -0.000177653 -1.45556e-05
0.000591124 -0.000177716 -0.000177175 -1.45688e-05
0.000442036 -0.000133048 -0.000132423 -1.7682e-05
0.000439612 -0.000132302 -0.000131704 -1.76863e-05
0.000732975 -0.000220157 -0.000219779 -1.06105e-05
0.000736998 -0.000221373 -0.000220982 -1.05994e-05
0.000440823 -0.000132673 -0.000132064 -1.76845e-05
0.000586285 -0.000176237 -0.000175735 -1.45887e-05
0.000734987 -0.000220764 -0.000220381 -1.0606e-05
0.000589509 -0.00017722 -0.000176695 -1.45778e-05
0.000587896 -0.000176727 -0.000176215 -1.45842e-05
0.000439612 -0.000132302 -0.000131704 -1.76863e-05
0.000437195 -0.000131565 -0.000130984 -1.76888e-05
0.000728952 -0.000218944 -0.000218575 -1.06154e-05
0.000732975 -0.000220157 -0.000219779 -1.06105e-05
0.000438403 -0.000131933 -0.000131344 -1.76877e-05
0.000583066 -0.000175262 -0.000174773 -1.45938e-05
0.000730964 -0.00021955 -0.000219177 -1.06135e-05
0.000586285 -0.000176237 -0.000175735 -1.45887e-05
0.000584675 -0.000175749 -0.000175254 -1.45918e-05
0.000437195 -0.000131565 -0.000130984 -1.76888e-05
0.000434782 -0.000130834 -0.000130264 -1.76903e-05
0.000724929 -0.000217733 -0.00021737 -1.06171e-05
0.000728952 -0.000218944 -0.000218575 -1.06154e-05
0.000435988 -0.000131199 -0.000130624 -1.76897e-05
0.000579847 -0.00017429 -0.00017381 -1.45961e-05
0.000726941 -0.000218338 -0.000217972 -1.06165e-05
0.000583066 -0.000175262 -0.000174773 -1.45938e-05
0.000581456 -0.000174776 -0.000174292 -1.45952e-05
0.000434782 -0.000130834 -0.000130264 -1.76903e-05
0.00043237 -0.000130104 -0.000129542 -1.76911e-05
0.000720905 -0.000216522 -0.000216164 -1.06177e-05
0.000724929 -0.000217733 -0.00021737 -1.06171e-05
0.000433576 -0.000130469 -0.000129903 -1.76908e-05
0.00057663 -0.00017332 -0.000172847 -1.4597e-05
0.000722917 -0.000217128 -0.000216767 -1.06175e-05
0.000579847 -0.00017429 -0.00017381 -1.45961e-05
0.000578239 -0.000173805 -0.000173329 -1.45967e-05
0.00043237 -0.000130104 -0.000129542 -1.76911e-05
0.000429958 -0.000129376 -0.000128821 -1.76916e-05
0.00071688 -0.000215312 -0.000214958 -1.06177e-05
0.000720905 -0.000216522 -0.000216164 -1.06177e-05
0.000431164 -0.00012974 -0.000129182 -1.76914e-05
0.000573412 -0.000172351 -0.000171883 -1.45974e-05
0.000718893 -0.000215917 -0.000215561 -1.06177e-05
0.00057663 -0.00017332 -0.000172847 -1.4597e-05
0.000575021 -0.000172836 -0.000172365 -1.45972e-05
0.000429958 -0.000129376 -0.000128821 -1.76916e-05
0.000427547 -0.000128648 -0.000128099 -1.76918e-05
0.000712856 -0.000214102 -0.000213752 -1.06176e-05
0.00071688 -0.000215312 -0.000214958 -1.06177e-05
0.000428752 -0.000129012 -0.00012846 -1.76917e-05
0.000570194 -0.000171382 -0.000170919 -1.45974e-05
0.000714868 -0.000214707 -0.000214355 -1.06177e-05
0.000573412 -0.000172351 -0.000171883 -1.45974e-05
0.000571803 -0.000171867 -0.000171401 -1.45974e-05
0.000427547 -0.000128648 -0.000128099 -1.76918e-05
0.000425135 -0.00012792 -0.000127378 -1.76919e-05
0.000708831 -0.000212892 -0.000212545 -1.06175e-05
0.000712856 -0.000214102 -0.000213752 -1.06176e-05
0.000426341 -0.000128284 -0.000127739 -1.76919e-05
0.000566976 -0.000170413 -0.000169955 -1.45974e-05
0.000710844 -0.000213497 -0.000213148 -1.06175e-05
0.000570194 -0.000171382 -0.000170919 -1.45974e-05
0.000568585 -0.000170898 -0.000170437 -1.45974e-05
0.000425135 -0.00012792 -0.000127378 -1.76919e-05
0.000422723 -0.000127192 -0.000126656 -1.76919e-05
0.000704807 -0.000211682 -0.000211339 -1.06174e-05
0.000708831 -0.000212892 -0.000212545 -1.06175e-05
0.000423929 -0.000127556 -0.000127017 -1.76919e-05
0.000563758 -0.000169444 -0.000168992 -1.45974e-05
0.000706819 -0.000212287 -0.000211942 -1.06174e-05
0.000566976 -0.000170413 -0.000169955 -1.45974e-05
0.000565367 -0.000169929 -0.000169474 -1.45974e-05
0.000422723 -0.000127192 -0.000126656 -1.76919e-05
0.000420311 -0.000126464 -0.000125934 -1.76919e-05
0.000700782 -0.000210472 -0.000210133 -1.06173e-05
0.000704807 -0.000211682 -0.000211339 -1.06174e-05
0.000421517 -0.000126828 -0.000126295 -1.7692e-05
0.00056054 -0.000168475 -0.000168028 -1.45973e-05
0.000702794 -0.000211077 -0.000210736 -1.06173e-05
0.000563758 -0.000169444 -0.000168992 -1.45974e-05
0.000562149 -0.00016896 -0.00016851 -1.45973e-05
0.000420311 -0.000126464 -0.000125934 -1.76919e-05
0.000417899 -0.000125737 -0.000125212 -1.76919e-05
0.000696757 -0.000209262 -0.000208926 -1.06172e-05
0.000700782 -0.000210472 -0.000210133 -1.06173e-05
0.000419105 -0.000126101 -0.000125573 -1.76919e-05
0.000557321 -0.000167506 -0.000167064 -1.45972e-05
0.000698769 -0.000209867 -0.00020953 -1.06172e-05
0.00056054 -0.000168475 -0.000168028 -1.45973e-05
0.00055893 -0.000167991 -0.000167546 -1.45973e-05
0.000417899 -0.000125737 -0.000125212 -1.76919e-05
0.000415487 -0.000125009 -0.000124491 -1.76919e-05
0.000692732 -0.000208052 -0.00020772 -1.06171e-05
0.000696757 -0.000209262 -0.000208926 -1.06172e-05
0.000416693 -0.000125373 -0.000124851 -1.76919e-05
0.000554103 -0.000166537 -0.0001661 -1.45972e-05
0.000694745 -0.000208657 -0.000208323 -1.06172e-05
0.000557321 -0.000167506 -0.000167064 -1.45972e-05
0.000555712 -0.000167022 -0.000166582 -1.45972e-05
0.000415487 -0.000125009 -0.000124491 -1.76919e-05
0.000413075 -0.000124281 -0.000123769 -1.76918e-05
0.000688707 -0.000206842 -0.000206514 -1.06171e-05
0.000692732 -0.000208052 -0.00020772 -1.06171e-05
0.000414281 -0.000124645 -0.00012413 -1.76919e-05
0.000550884 -0.000165568 -0.000165136 -1.45971e-05
0.00069072 -0.000207447 -0.000207117 -1.06171e-05
0.000554103 -0.000166537 -0.0001661 -1.45972e-05
0.000552494 -0.000166053 -0.000165618 -1.45971e-05
0.000413075 -0.000124281 -0.000123769 -1.76918e-05
0.000410663 -0.000123553 -0.000123047 -1.76918e-05
0.000684683 -0.000205632 -0.000205307 -1.0617e-05
0.000688707 -0.000206842 -0.000206514 -1.06171e-05
0.000411869 -0.000123917 -0.000123408 -1.76918e-05
0.000547666 -0.000164599 -0.000164172 -1.45971e-05
0.000686695 -0.000206237 -0.000205911 -1.0617e-05
0.000550884 -0.000165568 -0.000165136 -1.45971e-05
0.000549275 -0.000165084 -0.000164654 -1.45971e-05
0.000410663 -0.000123553 -0.000123047 -1.76918e-05
0.00040825 -0.000122825 -0.000122325 -1.76917e-05
0.000680658 -0.000204422 -0.000204101 -1.0617e-05
0.000684683 -0.000205632 -0.000205307 -1.0617e-05
0.000409456 -0.000123189 -0.000122686 -1.76918e-05
0.000544448 -0.00016363 -0.000163207 -1.4597e-05
0.00068267 -0.000205027 -0.000204704 -1.0617e-05
0.000547666 -0.000164599 -0.000164172 -1.45971e-05
0.000546057 -0.000164115 -0.00016369 -1.4597e-05
0.00040825 -0.000122825 -0.000122325 -1.76917e-05
0.000405838 -0.000122098 -0.000121603 -1.76917e-05
0.000676633 -0.000203212 -0.000202895 -1.06169e-05
0.000680658 -0.000204422 -0.000204101 -1.0617e-05
0.000407044 -0.000122461 -0.000121964 -1.76917e-05
0.000541229 -0.000162661 -0.000162243 -1.4597e-05
0.000678645 -0.000203817 -0.000203498 -1.0617e-05
0.000544448 -0.00016363 -0.000163207 -1.4597e-05
0.000542838 -0.000163146 -0.000162725 -1.4597e-05
0.000405838 -0.000122098 -0.000121603 -1.76917e-05
0.000403426 -0.00012137 -0.000120881 -1.76916e-05
0.000672608 -0.000202002 -0.000201688 -1.06169e-05
0.000676633 -0.000203212 -0.000202895 -1.06169e-05
0.000404632 -0.000121734 -0.000121242 -1.76917e-05
0.000538011 -0.000161692 -0.000161279 -1.45969e-05
0.00067462 -0.000202607 -0.000202292 -1.06169e-05
0.000541229 -0.000162661 -0.000162243 -1.4597e-05
0.00053962 -0.000162177 -0.000161761 -1.45969e-05
0.000403426 -0.00012137 -0.000120881 -1.76916e-05
0.000401014 -0.000120642 -0.000120159 -1.76916e-05
0.000668583 -0.000200792 -0.000200482 -1.06168e-05
0.000672608 -0.000202002 -0.000201688 -1.06169e-05
0.00040222 -0.000121006 -0.00012052 -1.76916e-05
0.000534792 -0.000160723 -0.000160315 -1.45969e-05
0.000670596 -0.000201397 -0.000201085 -1.06169e-05
0.000538011 -0.000161692 -0.000161279 -1.45969e-05
0.000536401 -0.000161208 -0.000160797 -1.45969e-05
0.000401014 -0.000120642 -0.000120159 -1.76916e-05
0.000398601 -0.000119914 -0.000119437 -1.76915e-05
0.000664558 -0.000199582 -0.000199276 -1.06168e-05
0.000668583 -0.000200792 -0.000200482 -1.06168e-05
0.000399807 -0.000120278 -0.000119798 -1.76916e-05
0.000531574 -0.000159754 -0.000159351 -1.45968e-05
0.000666571 -0.000200187 -0.000199879 -1.06168e-05
0.000534792 -0.000160723 -0.000160315 -1.45969e-05
0.000533183 -0.000160239 -0.000159833 -1.45968e-05
0.000398601 -0.000119914 -0.000119437 -1.76915e-05
0.000396189 -0.000119187 -0.000118715 -1.76915e-05
0.000660533 -0.000198372 -0.000198069 -1.06168e-05
0.000664558 -0.000199582 -0.000199276 -1.06168e-05
0.000397395 -0.00011955 -0.000119076 -1.76915e-05
0.000528355 -0.000158785 -0.000158387 -1.45968e-05
0.000662546 -0.000198977 -0.000198672 -1.06168e-05
0.000531574 -0.000159754 -0.000159351 -1.45968e-05
0.000529964 -0.00015927 -0.000158869 -1.45968e-05
0.000396189 -0.000119187 -0.000118715 -1.76915e-05
0.000393777 -0.000118459 -0.000117993 -1.76914e-05
0.000656508 -0.000197162 -0.000196863 -1.06167e-05
0.000660533 -0.000198372 -0.000198069 -1.06168e-05
0.000394983 -0.000118823 -0.000118354 -1.76915e-05
0.000525136 -0.000157816 -0.000157423 -1.45967e-05
0.000658521 -0.000197767 -0.000197466 -1.06167e-05
0.000528355 -0.000158785 -0.000158387 -1.45968e-05
0.000526746 -0.000158301 -0.000157905 -1.45967e-05
0.000393777 -0.000118459 -0.000117993 -1.76914e-05
0.000391364 -0.000117731 -0.000117271 -1.76914e-05
0.000652483 -0.000195952 -0.000195656 -1.06167e-05
0.000656508 -0.000197162 -0.000196863 -1.06167e-05
0.00039257 -0.000118095 -0.000117632 -1.76914e-05
0.000521918 -0.000156847 -0.000156459 -1.45967e-05
0.000654496 -0.000196557 -0.00019626 -1.06167e-05
0.000525136 -0.000157816 -0.000157423 -1.45967e-05
0.000523527 -0.000157332 -0.000156941 -1.45967e-05
0.000391364 -0.000117731 -0.000117271 -1.76914e-05
0.000388952 -0.000117003 -0.000116549 -1.76914e-05
0.000648458 -0.000194742 -0.00019445 -1.06166e-05
0.000652483 -0.000195952 -0.000195656 -1.06167e-05
0.000390158 -0.000117367 -0.00011691 -1.76914e-05
0.000518699 -0.000155878 -0.000155495 -1.45966e-05
0.000650471 -0.000195347 -0.000195053 -1.06167e-05
0.000521918 -0.000156847 -0.000156459 -1.45967e-05
0.000520308 -0.000156363 -0.000155977 -1.45967e-05
0.000388952 -0.000117003 -0.000116549 -1.76914e-05
0.000386539 -0.000116276 -0.000115827 -1.76913e-05
0.000644433 -0.000193532 -0.000193244 -1.06166e-05
0.000648458 -0.000194742 -0.00019445 -1.06166e-05
0.000387746 -0.00011664 -0.000116188 -1.76913e-05
0.00051548 -0.00015491 -0.00015453 -1.45966e-05
0.000646446 -0.000194137 -0.000193847 -1.06166e-05
0.000518699 -0.000155878 -0.000155495 -1.45966e-05
0.00051709 -0.000155394 -0.000155012 -1.45966e-05
0.000386539 -0.000116276 -0.000115827 -1.76913e-05
0.000384127 -0.000115548 -0.000115105 -1.76913e-05
0.000640408 -0.000192322 -0.000192037 -1.06166e-05
0.000644433 -0.000193532 -0.000193244 -1.06166e-05
0.000385333 -0.000115912 -0.000115466 -1.76913e-05
0.000512262 -0.000153941 -0.000153566 -1.45965e-05
0.000642421 -0.000192927 -0.00019264 -1.06166e-05
0.00051548 -0.00015491 -0.00015453 -1.45966e-05
0.000513871 -0.000154425 -0.000154048 -1.45966e-05
0.000384127 -0.000115548 -0.000115105 -1.76913e-05
0.000381714 -0.00011482 -0.000114383 -1.76912e-05
0.000636383 -0.000191112 -0.000190831 -1.06165e-05
0.000640408 -0.000192322 -0.000192037 -1.06166e-05
0.000382921 -0.000115184 -0.000114744 -1.76912e-05
0.000509043 -0.000152972 -0.000152602 -1.45965e-05
0.000638396 -0.000191717 -0.000191434 -1.06165e-05
0.000512262 -0.000153941 -0.000153566 -1.45965e-05
0.000510652 -0.000153456 -0.000153084 -1.45965e-05
0.000381714 -0.00011482 -0.000114383 -1.76912e-05
0.000379302 -0.000114093 -0.000113661 -1.76912e-05
0.000632358 -0.000189902 -0.000189624 -1.06165e-05
0.000636383 -0.000191112 -0.000190831 -1.06165e-05
0.000380508 -0.000114457 -0.000114022 -1.76912e-05
0.000505824 -0.000152003 -0.000151638 -1.45964e-05
0.000634371 -0.000190507 -0.000190227 -1.06165e-05
0.000509043 -0.000152972 -0.000152602 -1.45965e-05
0.000507434 -0.000152487 -0.00015212 -1.45965e-05
0.000379302 -0.000114093 -0.000113661 -1.76912e-05
0.000376889 -0.000113365 -0.000112939 -1.76911e-05
0.000628333 -0.000188692 -0.000188418 -1.06164e-05
0.000632358 -0.000189902 -0.000189624 -1.06165e-05
0.000378096 -0.000113729 -0.0001133 -1.76911e-05
0.000502606 -0.000151034 -0.000150674 -1.45964e-05
0.000630346 -0.000189297 -0.000189021 -1.06165e-05
0.000505824 -0.000152003 -0.000151638 -1.45964e-05
0.000504215 -0.000151518 -0.000151156 -1.45964e-05
0.000376889 -0.000113365 -0.000112939 -1.76911e-05
0.000374477 -0.000112638 -0.000112217 -1.76911e-05
0.000624308 -0.000187482 -0.000187211 -1.06164e-05
0.000628333 -0.000188692 -0.000188418 -1.06164e-05
0.000375683 -0.000113001 -0.000112578 -1.76911e-05
0.000499387 -0.000150065 -0.000149709 -1.45964e-05
0.000626321 -0.000188087 -0.000187814 -1.06164e-05
0.000502606 -0.000151034 -0.000150674 -1.45964e-05
0.000500996 -0.00015055 -0.000150191 -1.45964e-05
0.000374477 -0.000112638 -0.000112217 -1.76911e-05
0.000372064 -0.00011191 -0.000111495 -1.7691e-05
0.000620283 -0.000186272 -0.000186005 -1.06164e-05
0.000624308 -0.000187482 -0.000187211 -1.06164e-05
0.000373271 -0.000112274 -0.000111856 -1.76911e-05
0.000496168 -0.000149096 -0.000148745 -1.45963e-05
0.000622295 -0.000186877 -0.000186608 -1.06164e-05
0.000499387 -0.000150065 -0.000149709 -1.45964e-05
0.000497778 -0.000149581 -0.000149227 -1.45963e-05
0.000372064 -0.00011191 -0.000111495 -1.7691e-05
0.000369652 -0.000111182 -0.000110773 -1.7691e-05
0.000616258 -0.000185062 -0.000184798 -1.06163e-05
0.000620283 -0.000186272 -0.000186005 -1.06164e-05
0.000370858 -0.000111546 -0.000111134 -1.7691e-05
0.000492949 -0.000148128 -0.000147781 -1.45963e-05
0.00061827 -0.000185667 -0.000185401 -1.06163e-05
0.000496168 -0.000149096 -0.000148745 -1.45963e-05
0.000494559 -0.000148612 -0.000148263 -1.45963e-05
0.000369652 -0.000111182 -0.000110773 -1.7691e-05
0.000367239 -0.000110455 -0.00011005 -1.76909e-05
0.000612233 -0.000183852 -0.000183592 -1.06163e-05
0.000616258 -0.000185062 -0.000184798 -1.06163e-05
0.000368445 -0.000110819 -0.000110411 -1.7691e-05
0.000489731 -0.000147159 -0.000146816 -1.45962e-05
0.000614245 -0.000184457 -0.000184195 -1.06163e-05
0.000492949 -0.000148128 -0.000147781 -1.45963e-05
0.00049134 -0.000147643 -0.000147299 -1.45962e-05
0.000367239 -0.000110455 -0.00011005 -1.76909e-05
0.000364826 -0.000109727 -0.000109328 -1.76909e-05
0.000608207 -0.000182642 -0.000182385 -1.06162e-05
0.000612233 -0.000183852 -0.000183592 -1.06163e-05
0.000366033 -0.000110091 -0.000109689 -1.76909e-05
0.000486512 -0.00014619 -0.000145852 -1.45962e-05
0.00061022 -0.000183247 -0.000182988 -1.06163e-05
0.000489731 -0.000147159 -0.000146816 -1.45962e-05
0.000488121 -0.000146674 -0.000146334 -1.45962e-05
0.000364826 -0.000109727 -0.000109328 -1.76909e-05
0.000362414 -0.000109 -0.000108606 -1.76908e-05
0.000604182 -0.000181432 -0.000181179 -1.06162e-05
0.000608207 -0.000182642 -0.000182385 -1.06162e-05
0.00036362 -0.000109364 -0.000108967 -1.76909e-05
0.000483293 -0.000145221 -0.000144888 -1.45961e-05
0.000606195 -0.000182037 -0.000181782 -1.06162e-05
0.000486512 -0.00014619 -0.000145852 -1.45962e-05
0.000484902 -0.000145706 -0.00014537 -1.45961e-05
0.000362414 -0.000109 -0.000108606 -1.76908e-05
0.000360001 -0.000108272 -0.000107884 -1.76908e-05
0.000600157 -0.000180222 -0.000179972 -1.06162e-05
0.000604182 -0.000181432 -0.000181179 -1.06162e-05
0.000361207 -0.000108636 -0.000108245 -1.76908e-05
0.000480074 -0.000144252 -0.000143924 -1.45961e-05
0.00060217 -0.000180827 -0.000180575 -1.06162e-05
0.000483293 -0.000145221 -0.000144888 -1.45961e-05
0.000481683 -0.000144737 -0.000144406 -1.45961e-05
0.000360001 -0.000108272 -0.000107884 -1.76908e-05
0.000357588 -0.000107545 -0.000107161 -1.76907e-05
0.000596132 -0.000179012 -0.000178765 -1.06161e-05
0.000600157 -0.000180222 -0.000179972 -1.06162e-05
0.000358795 -0.000107909 -0.000107523 -1.76908e-05
0.000476855 -0.000143284 -0.000142959 -1.4596e-05
0.000598145 -0.000179617 -0.000179369 -1.06161e-05
0.000480074 -0.000144252 -0.000143924 -1.45961e-05
0.000478465 -0.000143768 -0.000143441 -1.4596e-05
0.000357588 -0.000107545 -0.000107161 -1.76907e-05
0.000355175 -0.000106817 -0.000106439 -1.76907e-05
0.000592107 -0.000177803 -0.000177559 -1.06161e-05
0.000596132 -0.000179012 -0.000178765 -1.06161e-05
0.000356382 -0.000107181 -0.0001068 -1.76907e-05
0.000473636 -0.000142315 -0.000141995 -1.4596e-05
0.000594119 -0.000178408 -0.000178162 -1.06161e-05
0.000476855 -0.000143284 -0.000142959 -1.4596e-05
0.000475246 -0.000142799 -0.000142477 -1.4596e-05
0.000355175 -0.000106817 -0.000106439 -1.76907e-05
0.000352763 -0.00010609 -0.000105717 -1.76906e-05
0.000588081 -0.000176593 -0.000176352 -1.0616e-05
0.000592107 -0.000177803 -0.000177559 -1.06161e-05
0.000353969 -0.000106454 -0.000106078 -1.76907e-05
0.000470417 -0.000141346 -0.00014103 -1.45959e-05
0.000590094 -0.000177198 -0.000176956 -1.06161e-05
0.000473636 -0.000142315 -0.000141995 -1.4596e-05
0.000472027 -0.000141831 -0.000141513 -1.45959e-05
0.000352763 -0.00010609 -0.000105717 -1.76906e-05
0.00035035 -0.000105362 -0.000104995 -1.76906e-05
0.000584056 -0.000175383 -0.000175146 -1.0616e-05
0.000588081 -0.000176593 -0.000176352 -1.0616e-05
0.000351556 -0.000105726 -0.000105356 -1.76906e-05
0.000467198 -0.000140377 -0.000140066 -1.45959e-05
0.000586069 -0.000175988 -0.000175749 -1.0616e-05
0.000470417 -0.000141346 -0.00014103 -1.45959e-05
0.000468808 -0.000140862 -0.000140548 -1.45959e-05
0.00035035 -0.000105362 -0.000104995 -1.76906e-05
0.000347937 -0.000104635 -0.000104272 -1.76905e-05
0.000580031 -0.000174173 -0.000173939 -1.0616e-05
0.000584056 -0.000175383 -0.000175146 -1.0616e-05
0.000349143 -0.000104999 -0.000104633 -1.76906e-05
0.000463979 -0.000139409 -0.000139102 -1.45958e-05
0.000582044 -0.000174778 -0.000174542 -1.0616e-05
0.000467198 -0.000140377 -0.000140066 -1.45959e-05
0.000465589 -0.000139893 -0.000139584 -1.45958e-05
0.000347937 -0.000104635 -0.000104272 -1.76905e-05
0.000345524 -0.000103908 -0.00010355 -1.76905e-05
0.000576006 -0.000172963 -0.000172733 -1.06159e-05
0.000580031 -0.000174173 -0.000173939 -1.0616e-05
0.000346731 -0.000104271 -0.000103911 -1.76905e-05
0.00046076 -0.00013844 -0.000138137 -1.45958e-05
0.000578018 -0.000173568 -0.000173336 -1.06159e-05
0.000463979 -0.000139409 -0.000139102 -1.45958e-05
0.00046237 -0.000138924 -0.000138619 -1.45958e-05
0.000345524 -0.000103908 -0.00010355 -1.76905e-05
0.000343111 -0.00010318 -0.000102828 -1.76904e-05
0.00057198 -0.000171753 -0.000171526 -1.06159e-05
0.000576006 -0.000172963 -0.000172733 -1.06159e-05
0.000344318 -0.000103544 -0.000103189 -1.76905e-05
0.000457541 -0.000137471 -0.000137173 -1.45957e-05
0.000573993 -0.000172358 -0.000172129 -1.06159e-05
0.00046076 -0.00013844 -0.000138137 -1.45958e-05
0.000459151 -0.000137956 -0.000137655 -1.45957e-05
0.000343111 -0.00010318 -0.000102828 -1.76904e-05
0.000340698 -0.000102453 -0.000102105 -1.76904e-05
0.000567955 -0.000170544 -0.000170319 -1.06158e-05
0.00057198 -0.000171753 -0.000171526 -1.06159e-05
0.000341905 -0.000102816 -0.000102466 -1.76904e-05
0.000454322 -0.000136503 -0.000136208 -1.45957e-05
0.000569968 -0.000171148 -0.000170923 -1.06159e-05
0.000457541 -0.000137471 -0.000137173 -1.45957e-05
0.000455932 -0.000136987 -0.000136691 -1.45957e-05
0.000340698 -0.000102453 -0.000102105 -1.76904e-05
0.000338285 -0.000101725 -0.000101383 -1.76903e-05
0.00056393 -0.000169334 -0.000169113 -1.06158e-05
0.000567955 -0.000170544 -0.000170319 -1.06158e-05
0.000339492 -0.000102089 -0.000101744 -1.76904e-05
0.000451103 -0.000135534 -0.000135244 -1.45956e-05
0.000565942 -0.000169939 -0.000169716 -1.06158e-05
0.000454322 -0.000136503 -0.000136208 -1.45957e-05
0.000452713 -0.000136018 -0.000135726 -1.45957e-05
0.000338285 -0.000101725 -0.000101383 -1.76903e-05
0.000335872 -0.000100998 -0.00010066 -1.76903e-05
0.000559904 -0.000168124 -0.000167906 -1.06158e-05
0.00056393 -0.000169334 -0.000169113 -1.06158e-05
0.000337079 -0.000101362 -0.000101022 -1.76903e-05
0.000447884 -0.000134565 -0.000134279 -1.45956e-05
0.000561917 -0.000168729 -0.000168509 -1.06158e-05
0.000451103 -0.000135534 -0.000135244 -1.45956e-05
0.000449494 -0.00013505 -0.000134762 -1.45956e-05
0.000335872 -0.000100998 -0.00010066 -1.76903e-05
0.000333459 -0.000100271 -9.99381e-05 -1.76902e-05
0.000555879 -0.000166914 -0.000166699 -1.06157e-05
0.000559904 -0.000168124 -0.000167906 -1.06158e-05
0.000334666 -0.000100634 -0.000100299 -1.76903e-05
0.000444665 -0.000133597 -0.000133315 -1.45955e-05
0.000557892 -0.000167519 -0.000167303 -1.06157e-05
0.000447884 -0.000134565 -0.000134279 -1.45956e-05
0.000446274 -0.000134081 -0.000133797 -1.45956e-05
0.000333459 -0.000100271 -9.99381e-05 -1.76902e-05
0.000331046 -9.95433e-05 -9.92156e-05 -1.76902e-05
0.000551854 -0.000165704 -0.000165493 -1.06157e-05
0.000555879 -0.000166914 -0.000166699 -1.06157e-05
0.000332253 -9.9907e-05 -9.95768e-05 -1.76902e-05
0.000441446 -0.000132628 -0.00013235 -1.45955e-05
0.000553866 -0.000166309 -0.000166096 -1.06157e-05
0.000444665 -0.000133597 -0.000133315 -1.45955e-05
0.000443055 -0.000133112 -0.000132833 -1.45955e-05
0.000331046 -9.95433e-05 -9.92156e-05 -1.76902e-05
0.000328633 -9.8816e-05 -9.84932e-05 -1.76901e-05
0.000547828 -0.000164494 -0.000164286 -1.06156e-05
0.000551854 -0.000165704 -0.000165493 -1.06157e-05
0.00032984 -9.91797e-05 -9.88544e-05 -1.76902e-05
0.000438227 -0.000131659 -0.000131386 -1.45954e-05
0.000549841 -0.000165099 -0.000164889 -1.06157e-05
0.000441446 -0.000132628 -0.00013235 -1.45955e-05
0.000439836 -0.000132144 -0.000131868 -1.45955e-05
0.000328633 -9.8816e-05 -9.84932e-05 -1.76901e-05
0.00032622 -9.80887e-05 -9.77707e-05 -1.76901e-05
0.000543803 -0.000163285 -0.000163079 -1.06156e-05
0.000547828 -0.000164494 -0.000164286 -1.06156e-05
0.000327427 -9.84524e-05 -9.81319e-05 -1.76901e-05
0.000435007 -0.000130691 -0.000130421 -1.45954e-05
0.000545816 -0.00016389 -0.000163683 -1.06156e-05
0.000438227 -0.000131659 -0.000131386 -1.45954e-05
0.000436617 -0.000131175 -0.000130904 -1.45954e-05
0.00032622 -9.80887e-05 -9.77707e-05 -1.76901e-05
0.000323807 -9.73614e-05 -9.70482e-05 -1.769e-05
0.000539777 -0.000162075 -0.000161872 -1.06155e-05
0.000543803 -0.000163285 -0.000163079 -1.06156e-05
0.000325014 -9.77251e-05 -9.74095e-05 -1.76901e-05
0.000431788 -0.000129722 -0.000129457 -1.45953e-05
0.00054179 -0.00016268 -0.000162476 -1.06156e-05
0.000435007 -0.000130691 -0.000130421 -1.45954e-05
0.000433398 -0.000130207 -0.000129939 -1.45954e-05
0.000323807 -9.73614e-05 -9.70482e-05 -1.769e-05
0.000321394 -9.66342e-05 -9.63257e-05 -1.769e-05
0.000535752 -0.000160865 -0.000160666 -1.06155e-05
0.000539777 -0.000162075 -0.000161872 -1.06155e-05
0.000322601 -9.69978e-05 -9.6687e-05 -1.769e-05
0.000428569 -0.000128754 -0.000128492 -1.45953e-05
0.000537765 -0.00016147 -0.000161269 -1.06155e-05
0.000431788 -0.000129722 -0.000129457 -1.45953e-05
0.000430179 -0.000129238 -0.000128975 -1.45953e-05
0.000321394 -9.66342e-05 -9.63257e-05 -1.769e-05
0.000318981 -9.59069e-05 -9.56032e-05 -1.76899e-05
0.000531727 -0.000159655 -0.000159459 -1.06155e-05
0.000535752 -0.000160865 -0.000160666 -1.06155e-05
0.000320188 -9.62705e-05 -9.59644e-05 -1.769e-05
0.00042535 -0.000127785 -0.000127528 -1.45952e-05
0.000533739 -0.00016026 -0.000160062 -1.06155e-05
0.000428569 -0.000128754 -0.000128492 -1.45953e-05
0.000426959 -0.000128269 -0.00012801 -1.45953e-05
0.000318981 -9.59069e-05 -9.56032e-05 -1.76899e-05
0.000316568 -9.51797e-05 -9.48806e-05 -1.76899e-05
0.000527701 -0.000158446 -0.000158252 -1.06154e-05
0.000531727 -0.000159655 -0.000159459 -1.06155e-05
0.000317774 -9.55433e-05 -9.52419e-05 -1.76899e-05
0.000422131 -0.000126817 -0.000126563 -1.45952e-05
0.000529714 -0.000159051 -0.000158856 -1.06154e-05
0.00042535 -0.000127785 -0.000127528 -1.45952e-05
0.00042374 -0.000127301 -0.000127045 -1.45952e-05
0.000316568 -9.51797e-05 -9.48806e-05 -1.76899e-05
0.000314155 -9.44524e-05 -9.41581e-05 -1.76898e-05
0.000523676 -0.000157236 -0.000157046 -1.06154e-05
0.000527701 -0.000158446 -0.000158252 -1.06154e-05
0.000315361 -9.4816e-05 -9.45194e-05 -1.76899e-05
0.000418911 -0.000125848 -0.000125599 -1.45951e-05
0.000525688 -0.000157841 -0.000157649 -1.06154e-05
0.000422131 -0.000126817 -0.000126563 -1.45952e-05
0.000420521 -0.000126332 -0.000126081 -1.45952e-05
0.000314155 -9.44524e-05 -9.41581e-05 -1.76898e-05
0.000311741 -9.37252e-05 -9.34355e-05 -1.76898e-05
0.00051965 -0.000156026 -0.000155839 -1.06153e-05
0.000523676 -0.000157236 -0.000157046 -1.06154e-05
0.000312948 -9.40888e-05 -9.37968e-05 -1.76898e-05
0.000415692 -0.00012488 -0.000124634 -1.45951e-05
0.000521663 -0.000156631 -0.000156442 -1.06154e-05
0.000418911 -0.000125848 -0.000125599 -1.45951e-05
0.000417302 -0.000125364 -0.000125116 -1.45951e-05
0.000311741 -9.37252e-05 -9.34355e-05 -1.76898e-05
0.000309328 -9.2998e-05 -9.27129e-05 -1.76897e-05
0.000515625 -0.000154817 -0.000154632 -1.06153e-05
0.00051965 -0.000156026 -0.000155839 -1.06153e-05
0.000310535 -9.33616e-05 -9.30742e-05 -1.76898e-05
0.000412473 -0.000123911 -0.000123669 -1.4595e-05
0.000517637 -0.000155421 -0.000155235 -1.06153e-05
0.000415692 -0.00012488 -0.000124634 -1.45951e-05
0.000414082 -0.000124395 -0.000124152 -1.4595e-05
0.000309328 -9.2998e-05 -9.27129e-05 -1.76897e-05
0.000306915 -9.22709e-05 -9.19903e-05 -1.76897e-05
0.000511599 -0.000153607 -0.000153425 -1.06152e-05
0.000515625 -0.000154817 -0.000154632 -1.06153e-05
0.000308122 -9.26345e-05 -9.23516e-05 -1.76897e-05
0.000409253 -0.000122943 -0.000122705 -1.4595e-05
0.000513612 -0.000154212 -0.000154029 -1.06153e-05
0.000412473 -0.000123911 -0.000123669 -1.4595e-05
0.000410863 -0.000123427 -0.000123187 -1.4595e-05
0.000306915 -9.22709e-05 -9.19903e-05 -1.76897e-05
0.000304502 -9.15437e-05 -9.12677e-05 -1.76896e-05
0.000507573 -0.000152397 -0.000152218 -1.06152e-05
0.000511599 -0.000153607 -0.000153425 -1.06152e-05
0.000305708 -9.19073e-05 -9.1629e-05 -1.76896e-05
0.000406034 -0.000121974 -0.00012174 -1.45949e-05
0.000509586 -0.000153002 -0.000152822 -1.06152e-05
0.000409253 -0.000122943 -0.000122705 -1.4595e-05
0.000407644 -0.000122458 -0.000122222 -1.45949e-05
0.000304502 -9.15437e-05 -9.12677e-05 -1.76896e-05
0.000302088 -9.08166e-05 -9.0545e-05 -1.76896e-05
0.000503548 -0.000151187 -0.000151012 -1.06152e-05
0.000507573 -0.000152397 -0.000152218 -1.06152e-05
0.000303295 -9.11801e-05 -9.09064e-05 -1.76896e-05
0.000402815 -0.000121006 -0.000120775 -1.45949e-05
0.000505561 -0.000151792 -0.000151615 -1.06152e-05
0.000406034 -0.000121974 -0.00012174 -1.45949e-05
0.000404424 -0.00012149 -0.000121258 -1.45949e-05
0.000302088 -9.08166e-05 -9.0545e-05 -1.76896e-05
0.000299675 -9.00894e-05 -8.98224e-05 -1.76895e-05
0.000499522 -0.000149978 -0.000149805 -1.06151e-05
0.000503548 -0.000151187 -0.000151012 -1.06152e-05
0.000300882 -9.0453e-05 -9.01837e-05 -1.76895e-05
0.000399595 -0.000120037 -0.000119811 -1.45948e-05
0.000501535 -0.000150583 -0.000150408 -1.06151e-05
0.000402815 -0.000121006 -0.000120775 -1.45949e-05
0.000401205 -0.000120521 -0.000120293 -1.45948e-05
0.000299675 -9.00894e-05 -8.98224e-05 -1.76895e-05
0.000297262 -8.93623e-05 -8.90997e-05 -1.76895e-05
0.000495497 -0.000148768 -0.000148598 -1.06151e-05
0.000499522 -0.000149978 -0.000149805 -1.06151e-05
0.000298468 -8.97259e-05 -8.9461e-05 -1.76895e-05
0.000396376 -0.000119069 -0.000118846 -1.45948e-05
0.00049751 -0.000149373 -0.000149201 -1.06151e-05
0.000399595 -0.000120037 -0.000119811 -1.45948e-05
0.000397985 -0.000119553 -0.000119328 -1.45948e-05
0.000297262 -8.93623e-05 -8.90997e-05 -1.76895e-05
0.000294848 -8.86352e-05 -8.8377e-05 -1.76894e-05
0.000491471 -0.000147558 -0.000147391 -1.0615e-05
0.000495497 -0.000148768 -0.000148598 -1.06151e-05
0.000296055 -8.89988e-05 -8.87383e-05 -1.76894e-05
0.000393156 -0.0001181 -0.000117881 -1.45947e-05
0.000493484 -0.000148163 -0.000147995 -1.06151e-05
0.000396376 -0.000119069 -0.000118846 -1.45948e-05
0.000394766 -0.000118584 -0.000118364 -1.45947e-05
0.000294848 -8.86352e-05 -8.8377e-05 -1.76894e-05
0.000292435 -8.79081e-05 -8.76543e-05 -1.76894e-05
0.000487445 -0.000146349 -0.000146184 -1.0615e-05
0.000491471 -0.000147558 -0.000147391 -1.0615e-05
0.000293641 -8.82717e-05 -8.80156e-05 -1.76894e-05
0.000389937 -0.000117132 -0.000116916 -1.45947e-05
0.000489458 -0.000146954 -0.000146788 -1.0615e-05
0.000393156 -0.0001181 -0.000117881 -1.45947e-05
0.000391547 -0.000117616 -0.000117399 -1.45947e-05
0.000292435 -8.79081e-05 -8.76543e-05 -1.76894e-05
0.000290021 -8.71811e-05 -8.69315e-05 -1.76893e-05
0.00048342 -0.000145139 -0.000144977 -1.06149e-05
0.000487445 -0.000146349 -0.000146184 -1.0615e-05
0.000291228 -8.75446e-05 -8.72929e-05 -1.76893e-05
0.000386717 -0.000116163 -0.000115952 -1.45946e-05
0.000485433 -0.000145744 -0.000145581 -1.0615e-05
0.000389937 -0.000117132 -0.000116916 -1.45947e-05
0.000388327 -0.000116648 -0.000116434 -1.45946e-05
0.000290021 -8.71811e-05 -8.69315e-05 -1.76893e-05
0.000287608 -8.6454e-05 -8.62088e-05 -1.76893e-05
0.000479394 -0.00014393 -0.000143771 -1.06149e-05
0.00048342 -0.000145139 -0.000144977 -1.06149e-05
0.000288815 -8.68176e-05 -8.65702e-05 -1.76893e-05
0.000383498 -0.000115195 -0.000114987 -1.45946e-05
0.000481407 -0.000144534 -0.000144374 -1.06149e-05
0.000386717 -0.000116163 -0.000115952 -1.45946e-05
0.000385108 -0.000115679 -0.000115469 -1.45946e-05
0.000287608 -8.6454e-05 -8.62088e-05 -1.76893e-05
0.000285194 -8.5727e-05 -8.5486e-05 -1.76892e-05
0.000475369 -0.00014272 -0.000142564 -1.06149e-05
0.000479394 -0.00014393 -0.000143771 -1.06149e-05
0.000286401 -8.60905e-05 -8.58474e-05 -1.76892e-05
0.000380278 -0.000114227 -0.000114022 -1.45945e-05
0.000477381 -0.000143325 -0.000143167 -1.06149e-05
0.000383498 -0.000115195 -0.000114987 -1.45946e-05
0.000381888 -0.000114711 -0.000114505 -1.45945e-05
0.000285194 -8.5727e-05 -8.5486e-05 -1.76892e-05
0.000282781 -8.5e-05 -8.47632e-05 -1.76891e-05
0.000471343 -0.00014151 -0.000141357 -1.06148e-05
0.000475369 -0.00014272 -0.000142564 -1.06149e-05
0.000283988 -8.53635e-05 -8.51246e-05 -1.76892e-05
0.000377059 -0.000113258 -0.000113057 -1.45945e-05
0.000473356 -0.000142115 -0.00014196 -1.06148e-05
0.000380278 -0.000114227 -0.000114022 -1.45945e-05
0.000378668 -0.000113742 -0.00011354 -1.45945e-05
0.000282781 -8.5e-05 -8.47632e-05 -1.76891e-05
0.000280367 -8.4273e-05 -8.40404e-05 -1.76891e-05
0.000467317 -0.000140301 -0.00014015 -1.06148e-05
0.000471343 -0.00014151 -0.000141357 -1.06148e-05
0.000281574 -8.46365e-05 -8.44018e-05 -1.76891e-05
0.000373839 -0.00011229 -0.000112093 -1.45944e-05
0.00046933 -0.000140905 -0.000140753 -1.06148e-05
0.000377059 -0.000113258 -0.000113057 -1.45945e-05
0.000375449 -0.000112774 -0.000112575 -1.45944e-05
0.000280367 -8.4273e-05 -8.40404e-05 -1.76891e-05
0.000277954 -8.3546e-05 -8.33176e-05 -1.7689e-05
0.000463291 -0.000139091 -0.000138943 -1.06147e-05
0.000467317 -0.000140301 -0.00014015 -1.06148e-05
0.000279161 -8.39095e-05 -8.3679e-05 -1.76891e-05
0.00037062 -0.000111322 -0.000111128 -1.45944e-05
0.000465304 -0.000139696 -0.000139546 -1.06148e-05
0.000373839 -0.00011229 -0.000112093 -1.45944e-05
0.000372229 -0.000111806 -0.00011161 -1.45944e-05
0.000277954 -8.3546e-05 -8.33176e-05 -1.7689e-05
0.00027554 -8.2819e-05 -8.25948e-05 -1.7689e-05
0.000459266 -0.000137882 -0.000137736 -1.06147e-05
0.000463291 -0.000139091 -0.000138943 -1.06147e-05
0.000276747 -8.31825e-05 -8.29562e-05 -1.7689e-05
0.0003674 -0.000110353 -0.000110163 -1.45943e-05
0.000461279 -0.000138486 -0.00013834 -1.06147e-05
0.00037062 -0.000111322 -0.000111128 -1.45944e-05
0.00036901 -0.000110837 -0.000110645 -1.45943e-05
0.00027554 -8.2819e-05 -8.25948e-05 -1.7689e-05
0.000273127 -8.20921e-05 -8.18719e-05 -1.76889e-05
0.00045524 -0.000136672 -0.000136529 -1.06146e-05
0.000459266 -0.000137882 -0.000137736 -1.06147e-05
0.000274333 -8.24556e-05 -8.22333e-05 -1.7689e-05
0.00036418 -0.000109385 -0.000109198 -1.45943e-05
0.000457253 -0.000137277 -0.000137133 -1.06147e-05
0.0003674 -0.000110353 -0.000110163 -1.45943e-05
0.00036579 -0.000109869 -0.00010968 -1.45943e-05
0.000273127 -8.20921e-05 -8.18719e-05 -1.76889e-05
0.000270713 -8.13651e-05 -8.1149e-05 -1.76889e-05
0.000451214 -0.000135462 -0.000135322 -1.06146e-05
0.00045524 -0.000136672 -0.000136529 -1.06146e-05
0.00027192 -8.17286e-05 -8.15105e-05 -1.76889e-05
0.000360961 -0.000108417 -0.000108233 -1.45942e-05
0.000453227 -0.000136067 -0.000135926 -1.06146e-05
0.00036418 -0.000109385 -0.000109198 -1.45943e-05
0.00036257 -0.000108901 -0.000108716 -1.45942e-05
0.000270713 -8.13651e-05 -8.1149e-05 -1.76889e-05
0.000268299 -8.06382e-05 -8.04261e-05 -1.76888e-05
0.000447188 -0.000134253 -0.000134115 -1.06146e-05
0.000451214 -0.000135462 -0.000135322 -1.06146e-05
0.000269506 -8.10017e-05 -8.07876e-05 -1.76889e-05
0.000357741 -0.000107448 -0.000107268 -1.45942e-05
0.000449201 -0.000134858 -0.000134719 -1.06146e-05
0.000360961 -0.000108417 -0.000108233 -1.45942e-05
0.000359351 -0.000107932 -0.000107751 -1.45942e-05
0.000268299 -8.06382e-05 -8.04261e-05 -1.76888e-05
0.000265886 -7.99113e-05 -7.97032e-05 -1.76888e-05
0.000443163 -0.000133043 -0.000132908 -1.06145e-05
0.000447188 -0.000134253 -0.000134115 -1.06146e-05
0.000267092 -8.02748e-05 -8.00647e-05 -1.76888e-05
0.000354521 -0.00010648 -0.000106303 -1.45941e-05
0.000445175 -0.000133648 -0.000133512 -1.06145e-05
0.000357741 -0.000107448 -0.000107268 -1.45942e-05
0.000356131 -0.000106964 -0.000106786 -1.45941e-05
0.000265886 -7.99113e-05 -7.97032e-05 -1.76888e-05
0.000263472 -7.91844e-05 -7.89803e-05 -1.76887e-05
0.000439137 -0.000131834 -0.000131701 -1.06145e-05
0.000443163 -0.000133043 -0.000132908 -1.06145e-05
0.000264679 -7.95479e-05 -7.93418e-05 -1.76888e-05
0.000351302 -0.000105512 -0.000105338 -1.45941e-05
0.00044115 -0.000132439 -0.000132305 -1.06145e-05
0.000354521 -0.00010648 -0.000106303 -1.45941e-05
0.000352911 -0.000105996 -0.000105821 -1.45941e-05
0.000263472 -7.91844e-05 -7.89803e-05 -1.76887e-05
0.000261058 -7.84576e-05 -7.82573e-05 -1.76887e-05
0.000435111 -0.000130624 -0.000130494 -1.06144e-05
0.000439137 -0.000131834 -0.000131701 -1.06145e-05
0.000262265 -7.8821e-05 -7.86188e-05 -1.76887e-05
0.000348082 -0.000104544 -0.000104374 -1.4594e-05
0.000437124 -0.000131229 -0.000131098 -1.06145e-05
0.000351302 -0.000105512 -0.000105338 -1.45941e-05
0.000349692 -0.000105028 -0.000104856 -1.4594e-05
0.000261058 -7.84576e-05 -7.82573e-05 -1.76887e-05
0.000258644 -7.77307e-05 -7.75344e-05 -1.76886e-05
0.000431085 -0.000129415 -0.000129287 -1.06144e-05
0.000435111 -0.000130624 -0.000130494 -1.06144e-05
0.000259851 -7.80941e-05 -7.78959e-05 -1.76887e-05
0.000344862 -0.000103575 -0.000103409 -1.4594e-05
0.000433098 -0.000130019 -0.000129891 -1.06144e-05
0.000348082 -0.000104544 -0.000104374 -1.4594e-05
0.000346472 -0.000104059 -0.000103891 -1.4594e-05
0.000258644 -7.77307e-05 -7.75344e-05 -1.76886e-05
0.00025623 -7.70039e-05 -7.68114e-05 -1.76886e-05
0.000427059 -0.000128205 -0.00012808 -1.06143e-05
0.000431085 -0.000129415 -0.000129287 -1.06144e-05
0.000257437 -7.73673e-05 -7.71729e-05 -1.76886e-05
0.000341642 -0.000102607 -0.000102444 -1.45939e-05
0.000429072 -0.00012881 -0.000128684 -1.06144e-05
0.000344862 -0.000103575 -0.000103409 -1.4594e-05
0.000343252 -0.000103091 -0.000102926 -1.45939e-05
0.00025623 -7.70039e-05 -7.68114e-05 -1.76886e-05
0.000253817 -7.6277e-05 -7.60884e-05 -1.76885e-05
0.000423033 -0.000126996 -0.000126873 -1.06143e-05
0.000427059 -0.000128205 -0.00012808 -1.06143e-05
0.000255024 -7.66404e-05 -7.64499e-05 -1.76885e-05
0.000338422 -0.000101639 -0.000101479 -1.45939e-05
0.000425046 -0.0001276 -0.000127477 -1.06143e-05
0.000341642 -0.000102607 -0.000102444 -1.45939e-05
0.000340032 -0.000102123 -0.000101961 -1.45939e-05
0.000253817 -7.6277e-05 -7.60884e-05 -1.76885e-05
0.000251403 -7.55502e-05 -7.53654e-05 -1.76885e-05
0.000419007 -0.000125786 -0.000125666 -1.06143e-05
0.000423033 -0.000126996 -0.000126873 -1.06143e-05
0.00025261 -7.59136e-05 -7.57269e-05 -1.76885e-05
0.000335203 -0.000100671 -0.000100514 -1.45938e-05
0.00042102 -0.000126391 -0.00012627 -1.06143e-05
0.000338422 -0.000101639 -0.000101479 -1.45939e-05
0.000336813 -0.000101155 -0.000100996 -1.45938e-05
0.000251403 -7.55502e-05 -7.53654e-05 -1.76885e-05
0.000248989 -7.48234e-05 -7.46423e-05 -1.76884e-05
0.000414981 -0.000124577 -0.000124459 -1.06142e-05
0.000419007 -0.000125786 -0.000125666 -1.06143e-05
0.000250196 -7.51868e-05 -7.50039e-05 -1.76884e-05
0.000331983 -9.97025e-05 -9.95487e-05 -1.45937e-05
0.000416994 -0.000125181 -0.000125063 -1.06142e-05
0.000335203 -0.000100671 -0.000100514 -1.45938e-05
0.000333593 -0.000100187 -0.000100031 -1.45938e-05
0.000248989 -7.48234e-05 -7.46423e-05 -1.76884e-05
0.000246575 -7.40967e-05 -7.39193e-05 -1.76884e-05
0.000410956 -0.000123367 -0.000123252 -1.06142e-05
0.000414981 -0.000124577 -0.000124459 -1.06142e-05
0.000247782 -7.446e-05 -7.42808e-05 -1.76884e-05
0.000328763 -9.87343e-05 -9.85837e-05 -1.45937e-05
0.000412968 -0.000123972 -0.000123856 -1.06142e-05
0.000331983 -9.97025e-05 -9.95487e-05 -1.45937e-05
0.000330373 -9.92184e-05 -9.90662e-05 -1.45937e-05
0.000246575 -7.40967e-05 -7.39193e-05 -1.76884e-05
0.000244161 -7.33699e-05 -7.31962e-05 -1.76883e-05
0.00040693 -0.000122158 -0.000122045 -1.06141e-05
0.000410956 -0.000123367 -0.000123252 -1.06142e-05
0.000245368 -7.37333e-05 -7.35578e-05 -1.76883e-05
0.000325543 -9.77662e-05 -9.76186e-05 -1.45936e-05
0.000408943 -0.000122763 -0.000122649 -1.06142e-05
0.000328763 -9.87343e-05 -9.85837e-05 -1.45937e-05
0.000327153 -9.82502e-05 -9.81012e-05 -1.45937e-05
0.000244161 -7.33699e-05 -7.31962e-05 -1.76883e-05
0.000241747 -7.26432e-05 -7.24731e-05 -1.76883e-05
0.000402904 -0.000120948 -0.000120838 -1.06141e-05
0.00040693 -0.000122158 -0.000122045 -1.06141e-05
0.000242954 -7.30065e-05 -7.28347e-05 -1.76883e-05
0.000322323 -9.6798e-05 -9.66536e-05 -1.45936e-05
0.000404917 -0.000121553 -0.000121442 -1.06141e-05
0.000325543 -9.77662e-05 -9.76186e-05 -1.45936e-05
0.000323933 -9.72821e-05 -9.71361e-05 -1.45936e-05
0.000241747 -7.26432e-05 -7.24731e-05 -1.76883e-05
0.000239333 -7.19164e-05 -7.175e-05 -1.76882e-05
0.000398878 -0.000119739 -0.000119631 -1.06141e-05
0.000402904 -0.000120948 -0.000120838 -1.06141e-05
0.00024054 -7.22798e-05 -7.21116e-05 -1.76882e-05
0.000319103 -9.58299e-05 -9.56885e-05 -1.45935e-05
0.000400891 -0.000120344 -0.000120234 -1.06141e-05
0.000322323 -9.6798e-05 -9.66536e-05 -1.45936e-05
0.000320713 -9.63139e-05 -9.61711e-05 -1.45936e-05
0.000239333 -7.19164e-05 -7.175e-05 -1.76882e-05
0.000236919 -7.11897e-05 -7.10269e-05 -1.76882e-05
0.000394852 -0.000118529 -0.000118424 -1.0614e-05
0.000398878 -0.000119739 -0.000119631 -1.06141e-05
0.000238126 -7.15531e-05 -7.13885e-05 -1.76882e-05
0.000315883 -9.48618e-05 -9.47235e-05 -1.45935e-05
0.000396865 -0.000119134 -0.000119027 -1.0614e-05
0.000319103 -9.58299e-05 -9.56885e-05 -1.45935e-05
0.000317493 -9.53458e-05 -9.5206e-05 -1.45935e-05
0.000236919 -7.11897e-05 -7.10269e-05 -1.76882e-05
0.000234505 -7.0463e-05 -7.03038e-05 -1.76881e-05
0.000390826 -0.00011732 -0.000117217 -1.0614e-05
0.000394852 -0.000118529 -0.000118424 -1.0614e-05
0.000235712 -7.08264e-05 -7.06653e-05 -1.76881e-05
0.000312663 -9.38937e-05 -9.37584e-05 -1.45934e-05
0.000392839 -0.000117925 -0.00011782 -1.0614e-05
0.000315883 -9.48618e-05 -9.47235e-05 -1.45935e-05
0.000314273 -9.43777e-05 -9.42409e-05 -1.45935e-05
0.000234505 -7.0463e-05 -7.03038e-05 -1.76881e-05
0.000232091 -6.97363e-05 -6.95806e-05 -1.76881e-05
0.0003868 -0.000116111 -0.00011601 -1.06139e-05
0.000390826 -0.00011732 -0.000117217 -1.0614e-05
0.000233298 -7.00997e-05 -6.99422e-05 -1.76881e-05
0.000309443 -9.29256e-05 -9.27933e-05 -1.45934e-05
0.000388813 -0.000116715 -0.000116613 -1.06139e-05
0.000312663 -9.38937e-05 -9.37584e-05 -1.45934e-05
0.000311053 -9.34096e-05 -9.32758e-05 -1.45934e-05
0.000232091 -6.97363e-05 -6.95806e-05 -1.76881e-05
0.000229677 -6.90097e-05 -6.88574e-05 -1.7688e-05
0.000382774 -0.000114901 -0.000114802 -1.06139e-05
0.0003868 -0.000116111 -0.00011601 -1.06139e-05
0.000230884 -6.9373e-05 -6.9219e-05 -1.7688e-05
0.000306223 -9.19575e-05 -9.18282e-05 -1.45933e-05
0.000384787 -0.000115506 -0.000115406 -1.06139e-05
0.000309443 -9.29256e-05 -9.27933e-05 -1.45934e-05
0.000307833 -9.24415e-05 -9.23107e-05 -1.45934e-05
0.000229677 -6.90097e-05 -6.88574e-05 -1.7688e-05
0.000227263 -6.8283e-05 -6.81342e-05 -1.76879e-05
0.000378747 -0.000113692 -0.000113595 -1.06138e-05
0.000382774 -0.000114901 -0.000114802 -1.06139e-05
0.00022847 -6.86463e-05 -6.84958e-05 -1.7688e-05
0.000303003 -9.09894e-05 -9.0863e-05 -1.45933e-05
0.00038076 -0.000114297 -0.000114199 -1.06139e-05
0.000306223 -9.19575e-05 -9.18282e-05 -1.45933e-05
0.000304613 -9.14735e-05 -9.13456e-05 -1.45933e-05
0.000227263 -6.8283e-05 -6.81342e-05 -1.76879e-05
0.000224849 -6.75564e-05 -6.7411e-05 -1.76879e-05
0.000374721 -0.000112482 -0.000112388 -1.06138e-05
0.000378747 -0.000113692 -0.000113595 -1.06138e-05
0.000226056 -6.79197e-05 -6.77726e-05 -1.76879e-05
0.000299783 -9.00214e-05 -8.98979e-05 -1.45932e-05
0.000376734 -0.000113087 -0.000112992 -1.06138e-05
0.000303003 -9.09894e-05 -9.0863e-05 -1.45933e-05
0.000301393 -9.05054e-05 -9.03804e-05 -1.45933e-05
0.000224849 -6.75564e-05 -6.7411e-05 -1.76879e-05
0.000222435 -6.68298e-05 -6.66878e-05 -1.76878e-05
0.000370695 -0.000111273 -0.000111181 -1.06138e-05
0.000374721 -0.000112482 -0.000112388 -1.06138e-05
0.000223642 -6.71931e-05 -6.70494e-05 -1.76879e-05
0.000296563 -8.90533e-05 -8.89327e-05 -1.45932e-05
0.000372708 -0.000111878 -0.000111785 -1.06138e-05
0.000299783 -9.00214e-05 -8.98979e-05 -1.45932e-05
0.000298173 -8.95374e-05 -8.94153e-05 -1.45932e-05
0.000222435 -6.68298e-05 -6.66878e-05 -1.76878e-05
0.00022002 -6.61032e-05 -6.59645e-05 -1.76878e-05
0.000366669 -0.000110064 -0.000109974 -1.06137e-05
0.000370695 -0.000111273 -0.000111181 -1.06138e-05
0.000221227 -6.64665e-05 -6.63261e-05 -1.76878e-05
0.000293343 -8.80853e-05 -8.79675e-05 -1.45931e-05
0.000368682 -0.000110668 -0.000110577 -1.06137e-05
0.000296563 -8.90533e-05 -8.89327e-05 -1.45932e-05
0.000294953 -8.85693e-05 -8.84501e-05 -1.45932e-05
0.00022002 -6.61032e-05 -6.59645e-05 -1.76878e-05
0.000217606 -6.53766e-05 -6.52412e-05 -1.76877e-05
0.000362643 -0.000108854 -0.000108767 -1.06137e-05
0.000366669 -0.000110064 -0.000109974 -1.06137e-05
0.000218813 -6.57399e-05 -6.56029e-05 -1.76878e-05
0.000290123 -8.71173e-05 -8.70023e-05 -1.45931e-05
0.000364656 -0.000109459 -0.00010937 -1.06137e-05
0.000293343 -8.80853e-05 -8.79675e-05 -1.45931e-05
0.000291733 -8.76013e-05 -8.74849e-05 -1.45931e-05
0.000217606 -6.53766e-05 -6.52412e-05 -1.76877e-05
0.000215192 -6.465e-05 -6.4518e-05 -1.76877e-05
0.000358617 -0.000107645 -0.000107559 -1.06136e-05
0.000362643 -0.000108854 -0.000108767 -1.06137e-05
0.000216399 -6.50133e-05 -6.48796e-05 -1.76877e-05
0.000286903 -8.61493e-05 -8.60371e-05 -1.4593e-05
0.00036063 -0.00010825 -0.000108163 -1.06137e-05
0.000290123 -8.71173e-05 -8.70023e-05 -1.45931e-05
0.000288513 -8.66333e-05 -8.65197e-05 -1.45931e-05
0.000215192 -6.465e-05 -6.4518e-05 -1.76877e-05
0.000212778 -6.39235e-05 -6.37946e-05 -1.76876e-05
0.000354591 -0.000106436 -0.000106352 -1.06136e-05
0.000358617 -0.000107645 -0.000107559 -1.06136e-05
0.000213985 -6.42868e-05 -6.41563e-05 -1.76877e-05
0.000283682 -8.51813e-05 -8.50719e-05 -1.4593e-05
0.000356604 -0.00010704 -0.000106956 -1.06136e-05
0.000286903 -8.61493e-05 -8.60371e-05 -1.4593e-05
0.000285293 -8.56653e-05 -8.55545e-05 -1.4593e-05
0.000212778 -6.39235e-05 -6.37946e-05 -1.76876e-05
0.000210363 -6.3197e-05 -6.30713e-05 -1.76876e-05
0.000350565 -0.000105226 -0.000105145 -1.06135e-05
0.000354591 -0.000106436 -0.000106352 -1.06136e-05
0.000211571 -6.35602e-05 -6.3433e-05 -1.76876e-05
0.000280462 -8.42134e-05 -8.41067e-05 -1.45929e-05
0.000352578 -0.000105831 -0.000105749 -1.06136e-05
0.000283682 -8.51813e-05 -8.50719e-05 -1.4593e-05
0.000282072 -8.46973e-05 -8.45893e-05 -1.4593e-05
0.000210363 -6.3197e-05 -6.30713e-05 -1.76876e-05
0.000207949 -6.24704e-05 -6.2348e-05 -1.76875e-05
0.000346538 -0.000104017 -0.000103938 -1.06135e-05
0.000350565 -0.000105226 -0.000105145 -1.06135e-05
0.000209156 -6.28337e-05 -6.27096e-05 -1.76876e-05
0.000277242 -8.32454e-05 -8.31414e-05 -1.45929e-05
0.000348551 -0.000104622 -0.000104541 -1.06135e-05
0.000280462 -8.42134e-05 -8.41067e-05 -1.45929e-05
0.000278852 -8.37294e-05 -8.3624e-05 -1.45929e-05
0.000207949 -6.24704e-05 -6.2348e-05 -1.76875e-05
0.000205535 -6.17439e-05 -6.16246e-05 -1.76875e-05
0.000342512 -0.000102808 -0.00010273 -1.06135e-05
0.000346538 -0.000104017 -0.000103938 -1.06135e-05
0.000206742 -6.21072e-05 -6.19863e-05 -1.76875e-05
0.000274022 -8.22775e-05 -8.21761e-05 -1.45928e-05
0.000344525 -0.000103412 -0.000103334 -1.06135e-05
0.000277242 -8.32454e-05 -8.31414e-05 -1.45929e-05
0.000275632 -8.27614e-05 -8.26588e-05 -1.45929e-05
0.000205535 -6.17439e-05 -6.16246e-05 -1.76875e-05
0.00020312 -6.10175e-05 -6.09012e-05 -1.76874e-05
0.000338486 -0.000101598 -0.000101523 -1.06134e-05
0.000342512 -0.000102808 -0.00010273 -1.06135e-05
0.000204328 -6.13807e-05 -6.12629e-05 -1.76875e-05
0.000270802 -8.13095e-05 -8.12108e-05 -1.45928e-05
0.000340499 -0.000102203 -0.000102127 -1.06134e-05
0.000274022 -8.22775e-05 -8.21761e-05 -1.45928e-05
0.000272412 -8.17935e-05 -8.16935e-05 -1.45928e-05
0.00020312 -6.10175e-05 -6.09012e-05 -1.76874e-05
0.000200706 -6.0291e-05 -6.01778e-05 -1.76874e-05
0.00033446 -0.000100389 -0.000100316 -1.06134e-05
0.000338486 -0.000101598 -0.000101523 -1.06134e-05
0.000201913 -6.06542e-05 -6.05395e-05 -1.76874e-05
0.000267581 -8.03416e-05 -8.02455e-05 -1.45927e-05
0.000336473 -0.000100994 -0.00010092 -1.06134e-05
0.000270802 -8.13095e-05 -8.12108e-05 -1.45928e-05
0.000269191 -8.08256e-05 -8.07282e-05 -1.45928e-05
0.000200706 -6.0291e-05 -6.01778e-05 -1.76874e-05
0.000198292 -5.95645e-05 -5.94544e-05 -1.76873e-05
0.000330433 -9.91798e-05 -9.91087e-05 -1.06133e-05
0.00033446 -0.000100389 -0.000100316 -1.06134e-05
0.000199499 -5.99278e-05 -5.98161e-05 -1.76874e-05
0.000264361 -7.93737e-05 -7.92802e-05 -1.45927e-05
0.000332447 -9.97845e-05 -9.97123e-05 -1.06134e-05
0.000267581 -8.03416e-05 -8.02455e-05 -1.45927e-05
0.000265971 -7.98577e-05 -7.97629e-05 -1.45927e-05
0.000198292 -5.95645e-05 -5.94544e-05 -1.76873e-05
0.000195877 -5.88381e-05 -5.8731e-05 -1.76873e-05
0.000326407 -9.79706e-05 -9.79014e-05 -1.06133e-05
0.000330433 -9.91798e-05 -9.91087e-05 -1.06133e-05
0.000197084 -5.92013e-05 -5.90927e-05 -1.76873e-05
0.000261141 -7.84058e-05 -7.83149e-05 -1.45926e-05
0.00032842 -9.85752e-05 -9.8505e-05 -1.06133e-05
0.000264361 -7.93737e-05 -7.92802e-05 -1.45927e-05
0.000262751 -7.88898e-05 -7.87976e-05 -1.45927e-05
0.000195877 -5.88381e-05 -5.8731e-05 -1.76873e-05
0.000193463 -5.81117e-05 -5.80075e-05 -1.76872e-05
0.000322381 -9.67613e-05 -9.66941e-05 -1.06133e-05
0.000326407 -9.79706e-05 -9.79014e-05 -1.06133e-05
0.00019467 -5.84749e-05 -5.83693e-05 -1.76873e-05
0.00025792 -7.7438e-05 -7.73495e-05 -1.45926e-05
0.000324394 -9.73659e-05 -9.72977e-05 -1.06133e-05
0.000261141 -7.84058e-05 -7.83149e-05 -1.45926e-05
0.00025953 -7.79219e-05 -7.78322e-05 -1.45926e-05
0.000193463 -5.81117e-05 -5.80075e-05 -1.76872e-05
0.000191048 -5.73853e-05 -5.72841e-05 -1.76872e-05
0.000318354 -9.55521e-05 -9.54867e-05 -1.06132e-05
0.000322381 -9.67613e-05 -9.66941e-05 -1.06133e-05
0.000192255 -5.77485e-05 -5.76458e-05 -1.76872e-05
0.0002547 -7.64701e-05 -7.63842e-05 -1.45926e-05
0.000320368 -9.61567e-05 -9.60904e-05 -1.06132e-05
0.00025792 -7.7438e-05 -7.73495e-05 -1.45926e-05
0.00025631 -7.6954e-05 -7.68669e-05 -1.45926e-05
0.000191048 -5.73853e-05 -5.72841e-05 -1.76872e-05
0.000188634 -5.66589e-05 -5.65606e-05 -1.76871e-05
0.000314328 -9.43428e-05 -9.42794e-05 -1.06132e-05
0.000318354 -9.55521e-05 -9.54867e-05 -1.06132e-05
0.000189841 -5.70221e-05 -5.69223e-05 -1.76872e-05
0.000251479 -7.55022e-05 -7.54188e-05 -1.45925e-05
0.000316341 -9.49474e-05 -9.48831e-05 -1.06132e-05
0.0002547 -7.64701e-05 -7.63842e-05 -1.45926e-05
0.00025309 -7.59862e-05 -7.59015e-05 -1.45925e-05
0.000188634 -5.66589e-05 -5.65606e-05 -1.76871e-05
0.000186219 -5.59325e-05 -5.58371e-05 -1.76871e-05
0.000310302 -9.31336e-05 -9.30721e-05 -1.06131e-05
0.000314328 -9.43428e-05 -9.42794e-05 -1.06132e-05
0.000187426 -5.62957e-05 -5.61988e-05 -1.76871e-05
0.000248259 -7.45344e-05 -7.44534e-05 -1.45925e-05
0.000312315 -9.37382e-05 -9.36758e-05 -1.06132e-05
0.000251479 -7.55022e-05 -7.54188e-05 -1.45925e-05
0.000249869 -7.50183e-05 -7.49361e-05 -1.45925e-05
0.000186219 -5.59325e-05 -5.58371e-05 -1.76871e-05
0.000183804 -5.52062e-05 -5.51135e-05 -1.7687e-05
0.000306275 -9.19244e-05 -9.18647e-05 -1.06131e-05
0.000310302 -9.31336e-05 -9.30721e-05 -1.06131e-05
0.000185012 -5.55694e-05 -5.54753e-05 -1.76871e-05
0.000245039 -7.35666e-05 -7.3488e-05 -1.45924e-05
0.000308289 -9.2529e-05 -9.24684e-05 -1.06131e-05
0.000248259 -7.45344e-05 -7.44534e-05 -1.45925e-05
0.000246649 -7.40505e-05 -7.39707e-05 -1.45924e-05
0.000183804 -5.52062e-05 -5.51135e-05 -1.7687e-05
0.00018139 -5.44798e-05 -5.439e-05 -1.7687e-05
0.000302249 -9.07152e-05 -9.06574e-05 -1.06131e-05
0.000306275 -9.19244e-05 -9.18647e-05 -1.06131e-05
0.000182597 -5.4843e-05 -5.47518e-05 -1.7687e-05
0.000241818 -7.25988e-05 -7.25226e-05 -1.45924e-05
0.000304262 -9.13198e-05 -9.12611e-05 -1.06131e-05
0.000245039 -7.35666e-05 -7.3488e-05 -1.45924e-05
0.000243428 -7.30827e-05 -7.30053e-05 -1.45924e-05
0.00018139 -5.44798e-05 -5.439e-05 -1.7687e-05
0.000178975 -5.37535e-05 -5.36664e-05 -1.76869e-05
0.000298223 -8.9506e-05 -8.945e-05 -1.0613e-05
0.000302249 -9.07152e-05 -9.06574e-05 -1.06131e-05
0.000180183 -5.41167e-05 -5.40282e-05 -1.7687e-05
0.000238598 -7.1631e-05 -7.15571e-05 -1.45923e-05
0.000300236 -9.01106e-05 -9.00537e-05 -1.0613e-05
0.000241818 -7.25988e-05 -7.25226e-05 -1.45924e-05
0.000240208 -7.21149e-05 -7.20399e-05 -1.45923e-05
0.000178975 -5.37535e-05 -5.36664e-05 -1.76869e-05
0.000176561 -5.30272e-05 -5.29428e-05 -1.76869e-05
0.000294196 -8.82968e-05 -8.82426e-05 -1.0613e-05
0.000298223 -8.9506e-05 -8.945e-05 -1.0613e-05
0.000177768 -5.33904e-05 -5.33046e-05 -1.76869e-05
0.000235377 -7.06632e-05 -7.05917e-05 -1.45923e-05
0.000296209 -8.89014e-05 -8.88463e-05 -1.0613e-05
0.000238598 -7.1631e-05 -7.15571e-05 -1.45923e-05
0.000236987 -7.11471e-05 -7.10744e-05 -1.45923e-05
0.000176561 -5.30272e-05 -5.29428e-05 -1.76869e-05
0.000174146 -5.23009e-05 -5.22192e-05 -1.76869e-05
0.00029017 -8.70876e-05 -8.70352e-05 -1.06129e-05
0.000294196 -8.82968e-05 -8.82426e-05 -1.0613e-05
0.000175353 -5.26641e-05 -5.25811e-05 -1.76869e-05
0.000232157 -6.96954e-05 -6.96262e-05 -1.45922e-05
0.000292183 -8.76922e-05 -8.76389e-05 -1.06129e-05
0.000235377 -7.06632e-05 -7.05917e-05 -1.45923e-05
0.000233767 -7.01793e-05 -7.0109e-05 -1.45922e-05
0.000174146 -5.23009e-05 -5.22192e-05 -1.76869e-05
0.000171731 -5.15747e-05 -5.14956e-05 -1.76868e-05
0.000286143 -8.58784e-05 -8.58278e-05 -1.06129e-05
0.00029017 -8.70876e-05 -8.70352e-05 -1.06129e-05
0.000172938 -5.19378e-05 -5.18574e-05 -1.76868e-05
0.000228936 -6.87277e-05 -6.86607e-05 -1.45922e-05
0.000288157 -8.6483e-05 -8.64315e-05 -1.06129e-05
0.000232157 -6.96954e-05 -6.96262e-05 -1.45922e-05
0.000230546 -6.92116e-05 -6.91435e-05 -1.45922e-05
0.000171731 -5.15747e-05 -5.14956e-05 -1.76868e-05
0.000169316 -5.08484e-05 -5.0772e-05 -1.76868e-05
0.000282117 -8.46692e-05 -8.46204e-05 -1.06128e-05
0.000286143 -8.58784e-05 -8.58278e-05 -1.06129e-05
0.000170524 -5.12115e-05 -5.11338e-05 -1.76868e-05
0.000225715 -6.77599e-05 -6.76952e-05 -1.45921e-05
0.00028413 -8.52738e-05 -8.52241e-05 -1.06129e-05
0.000228936 -6.87277e-05 -6.86607e-05 -1.45922e-05
0.000227326 -6.82438e-05 -6.8178e-05 -1.45921e-05
0.000169316 -5.08484e-05 -5.0772e-05 -1.76868e-05
0.000166902 -5.01222e-05 -5.00483e-05 -1.76867e-05
0.00027809 -8.34601e-05 -8.3413e-05 -1.06128e-05
0.000282117 -8.46692e-05 -8.46204e-05 -1.06128e-05
0.000168109 -5.04853e-05 -5.04102e-05 -1.76867e-05
0.000222495 -6.67922e-05 -6.67297e-05 -1.45921e-05
0.000280104 -8.40647e-05 -8.40167e-05 -1.06128e-05
0.000225715 -6.77599e-05 -6.76952e-05 -1.45921e-05
0.000224105 -6.72761e-05 -6.72125e-05 -1.45921e-05
0.000166902 -5.01222e-05 -5.00483e-05 -1.76867e-05
0.000164487 -4.9396e-05 -4.93247e-05 -1.76867e-05
0.000274064 -8.22509e-05 -8.22055e-05 -1.06128e-05
0.00027809 -8.34601e-05 -8.3413e-05 -1.06128e-05
0.000165694 -4.97591e-05 -4.96865e-05 -1.76867e-05
0.000219274 -6.58245e-05 -6.57642e-05 -1.4592e-05
0.000276077 -8.28555e-05 -8.28092e-05 -1.06128e-05
0.000222495 -6.67922e-05 -6.67297e-05 -1.45921e-05
0.000220885 -6.63084e-05 -6.6247e-05 -1.45921e-05
0.000164487 -4.9396e-05 -4.93247e-05 -1.76867e-05
0.000162072 -4.86698e-05 -4.8601e-05 -1.76866e-05
0.000270037 -8.10418e-05 -8.09981e-05 -1.06127e-05
0.000274064 -8.22509e-05 -8.22055e-05 -1.06128e-05
0.000163279 -4.90329e-05 -4.89628e-05 -1.76866e-05
0.000216054 -6.48568e-05 -6.47986e-05 -1.4592e-05
0.000272051 -8.16464e-05 -8.16018e-05 -1.06127e-05
0.000219274 -6.58245e-05 -6.57642e-05 -1.4592e-05
0.000217664 -6.53407e-05 -6.52814e-05 -1.4592e-05
0.000162072 -4.86698e-05 -4.8601e-05 -1.76866e-05
0.000159657 -4.79436e-05 -4.78773e-05 -1.76866e-05
0.000266011 -7.98327e-05 -7.97906e-05 -1.06127e-05
0.000270037 -8.10418e-05 -8.09981e-05 -1.06127e-05
0.000160865 -4.83067e-05 -4.82391e-05 -1.76866e-05
0.000212833 -6.38891e-05 -6.38331e-05 -1.45919e-05
0.000268024 -8.04373e-05 -8.03943e-05 -1.06127e-05
0.000216054 -6.48568e-05 -6.47986e-05 -1.4592e-05
0.000214443 -6.4373e-05 -6.43159e-05 -1.4592e-05
0.000159657 -4.79436e-05 -4.78773e-05 -1.76866e-05
0.000157242 -4.72174e-05 -4.71535e-05 -1.76865e-05
0.000261984 -7.86236e-05 -7.85831e-05 -1.06127e-05
0.000266011 -7.98327e-05 -7.97906e-05 -1.06127e-05
0.00015845 -4.75805e-05 -4.75154e-05 -1.76865e-05
0.000209612 -6.29214e-05 -6.28675e-05 -1.45919e-05
0.000263997 -7.92281e-05 -7.91869e-05 -1.06127e-05
0.000212833 -6.38891e-05 -6.38331e-05 -1.45919e-05
0.000211223 -6.34053e-05 -6.33503e-05 -1.45919e-05
0.000157242 -4.72174e-05 -4.71535e-05 -1.76865e-05
0.000154827 -4.64912e-05 -4.64298e-05 -1.76865e-05
0.000257958 -7.74145e-05 -7.73756e-05 -1.06126e-05
0.000261984 -7.86236e-05 -7.85831e-05 -1.06127e-05
0.000156035 -4.68543e-05 -4.67917e-05 -1.76865e-05
0.000206392 -6.19538e-05 -6.19019e-05 -1.45918e-05
0.000259971 -7.8019e-05 -7.79794e-05 -1.06126e-05
0.000209612 -6.29214e-05 -6.28675e-05 -1.45919e-05
0.000208002 -6.24376e-05 -6.23847e-05 -1.45919e-05
0.000154827 -4.64912e-05 -4.64298e-05 -1.76865e-05
0.000152412 -4.57651e-05 -4.5706e-05 -1.76864e-05
0.000253931 -7.62054e-05 -7.61681e-05 -1.06126e-05
0.000257958 -7.74145e-05 -7.73756e-05 -1.06126e-05
0.00015362 -4.61282e-05 -4.60679e-05 -1.76864e-05
0.000203171 -6.09861e-05 -6.09363e-05 -1.45918e-05
0.000255944 -7.68099e-05 -7.67719e-05 -1.06126e-05
0.000206392 -6.19538e-05 -6.19019e-05 -1.45918e-05
0.000204781 -6.147e-05 -6.14191e-05 -1.45918e-05
0.000152412 -4.57651e-05 -4.5706e-05 -1.76864e-05
0.000149998 -4.5039e-05 -4.49822e-05 -1.76864e-05
0.000249904 -7.49963e-05 -7.49606e-05 -1.06125e-05
0.000253931 -7.62054e-05 -7.61681e-05 -1.06126e-05
0.000151205 -4.5402e-05 -4.53441e-05 -1.76864e-05
0.00019995 -6.00185e-05 -5.99707e-05 -1.45917e-05
0.000251918 -7.56008e-05 -7.55644e-05 -1.06126e-05
0.000203171 -6.09861e-05 -6.09363e-05 -1.45918e-05
0.00020156 -6.05023e-05 -6.04535e-05 -1.45918e-05
0.000149998 -4.5039e-05 -4.49822e-05 -1.76864e-05
0.000147583 -4.43129e-05 -4.42584e-05 -1.76863e-05
0.000245878 -7.37872e-05 -7.37531e-05 -1.06125e-05
0.000249904 -7.49963e-05 -7.49606e-05 -1.06125e-05
0.00014879 -4.46759e-05 -4.46203e-05 -1.76864e-05
0.000196729 -5.90509e-05 -5.9005e-05 -1.45917e-05
0.000247891 -7.43918e-05 -7.43569e-05 -1.06125e-05
0.00019995 -6.00185e-05 -5.99707e-05 -1.45917e-05
0.00019834 -5.95347e-05 -5.94879e-05 -1.45917e-05
0.000147583 -4.43129e-05 -4.42584e-05 -1.76863e-05
0.000145168 -4.35868e-05 -4.35346e-05 -1.76863e-05
0.000241851 -7.25782e-05 -7.25456e-05 -1.06125e-05
0.000245878 -7.37872e-05 -7.37531e-05 -1.06125e-05
0.000146375 -4.39498e-05 -4.38965e-05 -1.76863e-05
0.000193508 -5.80833e-05 -5.80394e-05 -1.45917e-05
0.000243864 -7.31827e-05 -7.31493e-05 -1.06125e-05
0.000196729 -5.90509e-05 -5.9005e-05 -1.45917e-05
0.000195119 -5.85671e-05 -5.85222e-05 -1.45917e-05
0.000145168 -4.35868e-05 -4.35346e-05 -1.76863e-05
0.000142752 -4.28607e-05 -4.28108e-05 -1.76862e-05
0.000237824 -7.13691e-05 -7.1338e-05 -1.06124e-05
0.000241851 -7.25782e-05 -7.25456e-05 -1.06125e-05
0.00014396 -4.32237e-05 -4.31727e-05 -1.76863e-05
0.000190288 -5.71157e-05 -5.70737e-05 -1.45916e-05
0.000239838 -7.19736e-05 -7.19418e-05 -1.06124e-05
0.000193508 -5.80833e-05 -5.80394e-05 -1.45917e-05
0.000191898 -5.75995e-05 -5.75565e-05 -1.45916e-05
0.000142752 -4.28607e-05 -4.28108e-05 -1.76862e-05
0.000140337 -4.21347e-05 -4.20869e-05 -1.76862e-05
0.000233798 -7.016e-05 -7.01304e-05 -1.06124e-05
0.000237824 -7.13691e-05 -7.1338e-05 -1.06124e-05
0.000141545 -4.24977e-05 -4.24488e-05 -1.76862e-05
0.000187067 -5.61481e-05 -5.6108e-05 -1.45916e-05
0.000235811 -7.07646e-05 -7.07342e-05 -1.06124e-05
0.000190288 -5.71157e-05 -5.70737e-05 -1.45916e-05
0.000188677 -5.66319e-05 -5.65909e-05 -1.45916e-05
0.000140337 -4.21347e-05 -4.20869e-05 -1.76862e-05
0.000137922 -4.14086e-05 -4.1363e-05 -1.76862e-05
0.000229771 -6.8951e-05 -6.89229e-05 -1.06123e-05
0.000233798 -7.016e-05 -7.01304e-05 -1.06124e-05
0.00013913 -4.17716e-05 -4.1725e-05 -1.76862e-05
0.000183846 -5.51805e-05 -5.51423e-05 -1.45915e-05
0.000231784 -6.95555e-05 -6.95267e-05 -1.06124e-05
0.000187067 -5.61481e-05 -5.6108e-05 -1.45916e-05
0.000185456 -5.56643e-05 -5.56252e-05 -1.45915e-05
0.000137922 -4.14086e-05 -4.1363e-05 -1.76862e-05
0.000135507 -4.06826e-05 -4.06391e-05 -1.76861e-05
0.000225744 -6.7742e-05 -6.77153e-05 -1.06123e-05
0.000229771 -6.8951e-05 -6.89229e-05 -1.06123e-05
0.000136715 -4.10456e-05 -4.10011e-05 -1.76861e-05
0.000180625 -5.4213e-05 -5.41766e-05 -1.45915e-05
0.000227758 -6.83465e-05 -6.83191e-05 -1.06123e-05
0.000183846 -5.51805e-05 -5.51423e-05 -1.45915e-05
0.000182235 -5.46968e-05 -5.46595e-05 -1.45915e-05
0.000135507 -4.06826e-05 -4.06391e-05 -1.76861e-05
0.000133092 -3.99566e-05 -3.99152e-05 -1.76861e-05
0.000221718 -6.6533e-05 -6.65077e-05 -1.06123e-05
0.000225744 -6.7742e-05 -6.77153e-05 -1.06123e-05
0.0001343 -4.03196e-05 -4.02772e-05 -1.76861e-05
0.000177404 -5.32455e-05 -5.32109e-05 -1.45914e-05
0.000223731 -6.71375e-05 -6.71115e-05 -1.06123e-05
0.000180625 -5.4213e-05 -5.41766e-05 -1.45915e-05
0.000179015 -5.37292e-05 -5.36937e-05 -1.45915e-05
0.000133092 -3.99566e-05 -3.99152e-05 -1.76861e-05
0.000130677 -3.92306e-05 -3.91913e-05 -1.7686e-05
0.000217691 -6.5324e-05 -6.53001e-05 -1.06122e-05
0.000221718 -6.6533e-05 -6.65077e-05 -1.06123e-05
0.000131884 -3.95936e-05 -3.95532e-05 -1.7686e-05
0.000174183 -5.22779e-05 -5.22451e-05 -1.45914e-05
0.000219704 -6.59285e-05 -6.59039e-05 -1.06122e-05
0.000177404 -5.32455e-05 -5.32109e-05 -1.45914e-05
0.000175794 -5.27617e-05 -5.2728e-05 -1.45914e-05
0.000130677 -3.92306e-05 -3.91913e-05 -1.7686e-05
0.000128262 -3.85046e-05 -3.84673e-05 -1.7686e-05
0.000213664 -6.4115e-05 -6.40925e-05 -1.06122e-05
0.000217691 -6.5324e-05 -6.53001e-05 -1.06122e-05
0.000129469 -3.88676e-05 -3.88293e-05 -1.7686e-05
0.000170962 -5.13104e-05 -5.12793e-05 -1.45913e-05
0.000215677 -6.47195e-05 -6.46963e-05 -1.06122e-05
0.000174183 -5.22779e-05 -5.22451e-05 -1.45914e-05
0.000172573 -5.17942e-05 -5.17622e-05 -1.45914e-05
0.000128262 -3.85046e-05 -3.84673e-05 -1.7686e-05
0.000125846 -3.77787e-05 -3.77433e-05 -1.76859e-05
0.000209637 -6.2906e-05 -6.28848e-05 -1.06121e-05
0.000213664 -6.4115e-05 -6.40925e-05 -1.06122e-05
0.000127054 -3.81416e-05 -3.81053e-05 -1.7686e-05
0.000167741 -5.03429e-05 -5.03136e-05 -1.45913e-05
0.000211651 -6.35105e-05 -6.34886e-05 -1.06122e-05
0.000170962 -5.13104e-05 -5.12793e-05 -1.45913e-05
0.000169352 -5.08267e-05 -5.07964e-05 -1.45913e-05
0.000125846 -3.77787e-05 -3.77433e-05 -1.76859e-05
0.000123431 -3.70527e-05 -3.70194e-05 -1.76859e-05
0.00020561 -6.1697e-05 -6.16772e-05 -1.06121e-05
0.000209637 -6.2906e-05 -6.28848e-05 -1.06121e-05
0.000124639 -3.74157e-05 -3.73814e-05 -1.76859e-05
0.00016452 -4.93754e-05 -4.93478e-05 -1.45913e-05
0.000207624 -6.23015e-05 -6.2281e-05 -1.06121e-05
0.000167741 -5.03429e-05 -5.03136e-05 -1.45913e-05
0.000166131 -4.98592e-05 -4.98307e-05 -1.45913e-05
0.000123431 -3.70527e-05 -3.70194e-05 -1.76859e-05
0.000121016 -3.63268e-05 -3.62953e-05 -1.76858e-05
0.000201584 -6.0488e-05 -6.04695e-05 -1.06121e-05
0.00020561 -6.1697e-05 -6.16772e-05 -1.06121e-05
0.000122224 -3.66898e-05 -3.66574e-05 -1.76859e-05
0.000161299 -4.8408e-05 -4.83819e-05 -1.45912e-05
0.000203597 -6.10925e-05 -6.10733e-05 -1.06121e-05
0.00016452 -4.93754e-05 -4.93478e-05 -1.45913e-05
0.00016291 -4.88917e-05 -4.88648e-05 -1.45912e-05
0.000121016 -3.63268e-05 -3.62953e-05 -1.76858e-05
0.000118601 -3.56009e-05 -3.55713e-05 -1.76858e-05
0.000197557 -5.92791e-05 -5.92618e-05 -1.0612e-05
0.000201584 -6.0488e-05 -6.04695e-05 -1.06121e-05
0.000119808 -3.59638e-05 -3.59333e-05 -1.76858e-05
0.000158078 -4.74405e-05 -4.74161e-05 -1.45912e-05
0.00019957 -5.98835e-05 -5.98657e-05 -1.06121e-05
0.000161299 -4.8408e-05 -4.83819e-05 -1.45912e-05
0.000159689 -4.79242e-05 -4.7899e-05 -1.45912e-05
0.000118601 -3.56009e-05 -3.55713e-05 -1.76858e-05
0.000116185 -3.4875e-05 -3.48473e-05 -1.76858e-05
0.00019353 -5.80701e-05 -5.80542e-05 -1.0612e-05
0.000197557 -5.92791e-05 -5.92618e-05 -1.0612e-05
0.000117393 -3.52379e-05 -3.52093e-05 -1.76858e-05
0.000154857 -4.64731e-05 -4.64503e-05 -1.45911e-05
0.000195543 -5.86746e-05 -5.8658e-05 -1.0612e-05
0.000158078 -4.74405e-05 -4.74161e-05 -1.45912e-05
0.000156468 -4.69568e-05 -4.69332e-05 -1.45911e-05
0.000116185 -3.4875e-05 -3.48473e-05 -1.76858e-05
0.00011377 -3.41491e-05 -3.41232e-05 -1.76857e-05
0.000189503 -5.68612e-05 -5.68465e-05 -1.0612e-05
0.00019353 -5.80701e-05 -5.80542e-05 -1.0612e-05
0.000114978 -3.45121e-05 -3.44852e-05 -1.76857e-05
0.000151636 -4.55056e-05 -4.54844e-05 -1.45911e-05
0.000191516 -5.74656e-05 -5.74503e-05 -1.0612e-05
0.000154857 -4.64731e-05 -4.64503e-05 -1.45911e-05
0.000153246 -4.59894e-05 -4.59673e-05 -1.45911e-05
0.00011377 -3.41491e-05 -3.41232e-05 -1.76857e-05
0.000111355 -3.34233e-05 -3.33991e-05 -1.76857e-05
0.000185476 -5.56522e-05 -5.56388e-05 -1.06119e-05
0.000189503 -5.68612e-05 -5.68465e-05 -1.0612e-05
0.000112562 -3.37862e-05 -3.37612e-05 -1.76857e-05
0.000148415 -4.45382e-05 -4.45185e-05 -1.4591e-05
0.000187489 -5.62567e-05 -5.62426e-05 -1.06119e-05
0.000151636 -4.55056e-05 -4.54844e-05 -1.45911e-05
0.000150025 -4.50219e-05 -4.50015e-05 -1.45911e-05
0.000111355 -3.34233e-05 -3.33991e-05 -1.76857e-05
0.000108939 -3.26974e-05 -3.2675e-05 -1.76856e-05
0.000181449 -5.44433e-05 -5.4431e-05 -1.06119e-05
0.000185476 -5.56522e-05 -5.56388e-05 -1.06119e-05
0.000110147 -3.30603e-05 -3.30371e-05 -1.76857e-05
0.000145194 -4.35708e-05 -4.35526e-05 -1.4591e-05
0.000183463 -5.50478e-05 -5.50349e-05 -1.06119e-05
0.000148415 -4.45382e-05 -4.45185e-05 -1.4591e-05
0.000146804 -4.40545e-05 -4.40356e-05 -1.4591e-05
0.000108939 -3.26974e-05 -3.2675e-05 -1.76856e-05
0.000106524 -3.19716e-05 -3.19509e-05 -1.76856e-05
0.000177422 -5.32344e-05 -5.32233e-05 -1.06119e-05
0.000181449 -5.44433e-05 -5.4431e-05 -1.06119e-05
0.000107731 -3.23345e-05 -3.23129e-05 -1.76856e-05
0.000141972 -4.26034e-05 -4.25867e-05 -1.4591e-05
0.000179436 -5.38389e-05 -5.38272e-05 -1.06119e-05
0.000145194 -4.35708e-05 -4.35526e-05 -1.4591e-05
0.000143583 -4.30871e-05 -4.30697e-05 -1.4591e-05
0.000106524 -3.19716e-05 -3.19509e-05 -1.76856e-05
0.000104108 -3.12458e-05 -3.12267e-05 -1.76855e-05
0.000173395 -5.20255e-05 -5.20156e-05 -1.06118e-05
0.000177422 -5.32344e-05 -5.32233e-05 -1.06119e-05
0.000105316 -3.16087e-05 -3.15888e-05 -1.76856e-05
0.000138751 -4.16361e-05 -4.16208e-05 -1.45909e-05
0.000175409 -5.263e-05 -5.26194e-05 -1.06118e-05
0.000141972 -4.26034e-05 -4.25867e-05 -1.4591e-05
0.000140362 -4.21197e-05 -4.21038e-05 -1.45909e-05
0.000104108 -3.12458e-05 -3.12267e-05 -1.76855e-05
0.000101693 -3.052e-05 -3.05026e-05 -1.76855e-05
0.000169368 -5.08166e-05 -5.08078e-05 -1.06118e-05
0.000173395 -5.20255e-05 -5.20156e-05 -1.06118e-05
0.0001029 -3.08829e-05 -3.08647e-05 -1.76855e-05
0.00013553 -4.06687e-05 -4.06548e-05 -1.45909e-05
0.000171382 -5.14211e-05 -5.14117e-05 -1.06118e-05
0.000138751 -4.16361e-05 -4.16208e-05 -1.45909e-05
0.000137141 -4.11524e-05 -4.11378e-05 -1.45909e-05
0.000101693 -3.052e-05 -3.05026e-05 -1.76855e-05
9.92771e-05 -2.97942e-05 -2.97784e-05 -1.76855e-05
0.000165341 -4.96077e-05 -4.96e-05 -1.06117e-05
0.000169368 -5.08166e-05 -5.08078e-05 -1.06118e-05
0.000100485 -3.01571e-05 -3.01405e-05 -1.76855e-05
0.000132309 -3.97013e-05 -3.96889e-05 -1.45908e-05
0.000167355 -5.02122e-05 -5.02039e-05 -1.06118e-05
0.00013553 -4.06687e-05 -4.06548e-05 -1.45909e-05
0.000133919 -4.0185e-05 -4.01719e-05 -1.45908e-05
9.92771e-05 -2.97942e-05 -2.97784e-05 -1.76855e-05
9.68616e-05 -2.90684e-05 -2.90542e-05 -1.76854e-05
0.000161314 -4.83989e-05 -4.83923e-05 -1.06117e-05
0.000165341 -4.96077e-05 -4.96e-05 -1.06117e-05
9.80694e-05 -2.94313e-05 -2.94163e-05 -1.76854e-05
0.000129087 -3.8734e-05 -3.87229e-05 -1.45908e-05
0.000163328 -4.90033e-05 -4.89961e-05 -1.06117e-05
0.000132309 -3.97013e-05 -3.96889e-05 -1.45908e-05
0.000130698 -3.92177e-05 -3.92059e-05 -1.45908e-05
9.68616e-05 -2.90684e-05 -2.90542e-05 -1.76854e-05
9.4446e-05 -2.83427e-05 -2.833e-05 -1.76854e-05
0.000157287 -4.719e-05 -4.71845e-05 -1.06117e-05
0.000161314 -4.83989e-05 -4.83923e-05 -1.06117e-05
9.56538e-05 -2.87056e-05 -2.86921e-05 -1.76854e-05
0.000125866 -3.77667e-05 -3.77569e-05 -1.45907e-05
0.000159301 -4.77944e-05 -4.77884e-05 -1.06117e-05
0.000129087 -3.8734e-05 -3.87229e-05 -1.45908e-05
0.000127477 -3.82503e-05 -3.82399e-05 -1.45908e-05
9.4446e-05 -2.83427e-05 -2.833e-05 -1.76854e-05
9.20304e-05 -2.7617e-05 -2.76057e-05 -1.76853e-05
0.00015326 -4.59811e-05 -4.59767e-05 -1.06116e-05
0.000157287 -4.719e-05 -4.71845e-05 -1.06117e-05
9.32382e-05 -2.79798e-05 -2.79679e-05 -1.76854e-05
0.000122645 -3.67994e-05 -3.67909e-05 -1.45907e-05
0.000155274 -4.65856e-05 -4.65806e-05 -1.06117e-05
0.000125866 -3.77667e-05 -3.77569e-05 -1.45907e-05
0.000124256 -3.7283e-05 -3.72739e-05 -1.45907e-05
9.20304e-05 -2.7617e-05 -2.76057e-05 -1.76853e-05
8.96147e-05 -2.68913e-05 -2.68815e-05 -1.76853e-05
0.000149233 -4.47723e-05 -4.47688e-05 -1.06116e-05
0.00015326 -4.59811e-05 -4.59767e-05 -1.06116e-05
9.08226e-05 -2.72541e-05 -2.72436e-05 -1.76853e-05
0.000119423 -3.58321e-05 -3.58249e-05 -1.45907e-05
0.000151246 -4.53767e-05 -4.53727e-05 -1.06116e-05
0.000122645 -3.67994e-05 -3.67909e-05 -1.45907e-05
0.000121034 -3.63157e-05 -3.63079e-05 -1.45907e-05
8.96147e-05 -2.68913e-05 -2.68815e-05 -1.76853e-05
8.71991e-05 -2.61656e-05 -2.61572e-05 -1.76853e-05
0.000145206 -4.35634e-05 -4.3561e-05 -1.06116e-05
0.000149233 -4.47723e-05 -4.47688e-05 -1.06116e-05
8.84069e-05 -2.65284e-05 -2.65193e-05 -1.76853e-05
0.000116202 -3.48648e-05 -3.48588e-05 -1.45906e-05
0.000147219 -4.41679e-05 -4.41649e-05 -1.06116e-05
0.000119423 -3.58321e-05 -3.58249e-05 -1.45907e-05
0.000117813 -3.53484e-05 -3.53419e-05 -1.45906e-05
8.71991e-05 -2.61656e-05 -2.61572e-05 -1.76853e-05
8.47834e-05 -2.54399e-05 -2.54329e-05 -1.76852e-05
0.000141179 -4.23546e-05 -4.23532e-05 -1.06115e-05
0.000145206 -4.35634e-05 -4.3561e-05 -1.06116e-05
8.59912e-05 -2.58027e-05 -2.57951e-05 -1.76852e-05
0.000112981 -3.38975e-05 -3.38928e-05 -1.45906e-05
0.000143192 -4.2959e-05 -4.29571e-05 -1.06115e-05
0.000116202 -3.48648e-05 -3.48588e-05 -1.45906e-05
0.000114591 -3.43812e-05 -3.43758e-05 -1.45906e-05
8.47834e-05 -2.54399e-05 -2.54329e-05 -1.76852e-05
8.23676e-05 -2.47142e-05 -2.47086e-05 -1.76852e-05
0.000137152 -4.11458e-05 -4.11453e-05 -1.06115e-05
0.000141179 -4.23546e-05 -4.23532e-05 -1.06115e-05
8.35755e-05 -2.50771e-05 -2.50708e-05 -1.76852e-05
0.000109759 -3.29303e-05 -3.29267e-05 -1.45905e-05
0.000139165 -4.17502e-05 -4.17492e-05 -1.06115e-05
0.000112981 -3.38975e-05 -3.38928e-05 -1.45906e-05
0.00011137 -3.34139e-05 -3.34098e-05 -1.45906e-05
8.23676e-05 -2.47142e-05 -2.47086e-05 -1.76852e-05
7.99519e-05 -2.39886e-05 -2.39843e-05 -1.76851e-05
0.000133124 -3.9937e-05 -3.99374e-05 -1.06115e-05
0.000137152 -4.11458e-05 -4.11453e-05 -1.06115e-05
8.11597e-05 -2.43514e-05 -2.43464e-05 -1.76852e-05
0.000106538 -3.1963e-05 -3.19606e-05 -1.45905e-05
0.000135138 -4.05414e-05 -4.05414e-05 -1.06115e-05
0.000109759 -3.29303e-05 -3.29267e-05 -1.45905e-05
0.000108149 -3.24467e-05 -3.24437e-05 -1.45905e-05
7.99519e-05 -2.39886e-05 -2.39843e-05 -1.76851e-05
7.75361e-05 -2.3263e-05 -2.32599e-05 -1.76851e-05
0.000129097 -3.87282e-05 -3.87295e-05 -1.06114e-05
0.000133124 -3.9937e-05 -3.99374e-05 -1.06115e-05
7.8744e-05 -2.36258e-05 -2.36221e-05 -1.76851e-05
0.000103316 -3.09958e-05 -3.09945e-05 -1.45905e-05
0.000131111 -3.93326e-05 -3.93335e-05 -1.06114e-05
0.000106538 -3.1963e-05 -3.19606e-05 -1.45905e-05
0.000104927 -3.14794e-05 -3.14776e-05 -1.45905e-05
7.75361e-05 -2.3263e-05 -2.32599e-05 -1.76851e-05
7.51203e-05 -2.25373e-05 -2.25355e-05 -1.76851e-05
0.00012507 -3.75194e-05 -3.75217e-05 -1.06114e-05
0.000129097 -3.87282e-05 -3.87295e-05 -1.06114e-05
7.63282e-05 -2.29001e-05 -2.28977e-05 -1.76851e-05
0.000100095 -3.00286e-05 -3.00284e-05 -1.45904e-05
0.000127084 -3.81238e-05 -3.81256e-05 -1.06114e-05
0.000103316 -3.09958e-05 -3.09945e-05 -1.45905e-05
0.000101706 -3.05122e-05 -3.05115e-05 -1.45904e-05
7.51203e-05 -2.25373e-05 -2.25355e-05 -1.76851e-05
7.27044e-05 -2.18117e-05 -2.18111e-05 -1.7685e-05
0.000121043 -3.63106e-05 -3.63137e-05 -1.06114e-05
0.00012507 -3.75194e-05 -3.75217e-05 -1.06114e-05
7.39123e-05 -2.21745e-05 -2.21733e-05 -1.76851e-05
9.68733e-05 -2.90614e-05 -2.90623e-05 -1.45904e-05
0.000123056 -3.6915e-05 -3.69177e-05 -1.06114e-05
0.000100095 -3.00286e-05 -3.00284e-05 -1.45904e-05
9.84841e-05 -2.9545e-05 -2.95453e-05 -1.45904e-05
7.27044e-05 -2.18117e-05 -2.18111e-05 -1.7685e-05
7.02886e-05 -2.10862e-05 -2.10867e-05 -1.7685e-05
0.000117015 -3.51019e-05 -3.51058e-05 -1.06113e-05
0.000121043 -3.63106e-05 -3.63137e-05 -1.06114e-05
7.14965e-05 -2.1449e-05 -2.14489e-05 -1.7685e-05
9.36518e-05 -2.80942e-05 -2.80961e-05 -1.45904e-05
0.000119029 -3.57062e-05 -3.57098e-05 -1.06113e-05
9.68733e-05 -2.90614e-05 -2.90623e-05 -1.45904e-05
9.52626e-05 -2.85778e-05 -2.85792e-05 -1.45904e-05
7.02886e-05 -2.10862e-05 -2.10867e-05 -1.7685e-05
6.78727e-05 -2.03606e-05 -2.03623e-05 -1.7685e-05
0.000112988 -3.38931e-05 -3.38979e-05 -1.06113e-05
0.000117015 -3.51019e-05 -3.51058e-05 -1.06113e-05
6.90806e-05 -2.07234e-05 -2.07245e-05 -1.7685e-05
9.04302e-05 -2.7127e-05 -2.71299e-05 -1.45903e-05
0.000115002 -3.44975e-05 -3.45019e-05 -1.06113e-05
9.36518e-05 -2.80942e-05 -2.80961e-05 -1.45904e-05
9.2041e-05 -2.76106e-05 -2.7613e-05 -1.45903e-05
6.78727e-05 -2.03606e-05 -2.03623e-05 -1.7685e-05
6.54567e-05 -1.96351e-05 -1.96379e-05 -1.76849e-05
0.000108961 -3.26843e-05 -3.26899e-05 -1.06113e-05
0.000112988 -3.38931e-05 -3.38979e-05 -1.06113e-05
6.66647e-05 -1.99978e-05 -2.00001e-05 -1.7685e-05
8.72086e-05 -2.61599e-05 -2.61638e-05 -1.45903e-05
0.000110975 -3.32887e-05 -3.32939e-05 -1.06113e-05
9.04302e-05 -2.7127e-05 -2.71299e-05 -1.45903e-05
8.88194e-05 -2.66434e-05 -2.66468e-05 -1.45903e-05
6.54567e-05 -1.96351e-05 -1.96379e-05 -1.76849e-05
6.30408e-05 -1.89095e-05 -1.89134e-05 -1.76849e-05
0.000104934 -3.14756e-05 -3.1482e-05 -1.06112e-05
0.000108961 -3.26843e-05 -3.26899e-05 -1.06113e-05
6.42488e-05 -1.92723e-05 -1.92756e-05 -1.76849e-05
8.3987e-05 -2.51927e-05 -2.51975e-05 -1.45903e-05
0.000106947 -3.208e-05 -3.2086e-05 -1.06113e-05
8.72086e-05 -2.61599e-05 -2.61638e-05 -1.45903e-05
8.55978e-05 -2.56763e-05 -2.56807e-05 -1.45903e-05
6.30408e-05 -1.89095e-05 -1.89134e-05 -1.76849e-05
6.06248e-05 -1.8184e-05 -1.81889e-05 -1.76849e-05
0.000100906 -3.02669e-05 -3.0274e-05 -1.06112e-05
0.000104934 -3.14756e-05 -3.1482e-05 -1.06112e-05
6.18328e-05 -1.85468e-05 -1.85511e-05 -1.76849e-05
8.07654e-05 -2.42256e-05 -2.42313e-05 -1.45902e-05
0.00010292 -3.08712e-05 -3.0878e-05 -1.06112e-05
8.3987e-05 -2.51927e-05 -2.51975e-05 -1.45903e-05
8.23762e-05 -2.47092e-05 -2.47144e-05 -1.45902e-05
6.06248e-05 -1.8184e-05 -1.81889e-05 -1.76849e-05
5.82088e-05 -1.74586e-05 -1.74644e-05 -1.76849e-05
9.68788e-05 -2.90581e-05 -2.9066e-05 -1.06112e-05
0.000100906 -3.02669e-05 -3.0274e-05 -1.06112e-05
5.94168e-05 -1.78213e-05 -1.78266e-05 -1.76849e-05
7.75437e-05 -2.32585e-05 -2.32651e-05 -1.45902e-05
9.88925e-05 -2.96625e-05 -2.967e-05 -1.06112e-05
8.07654e-05 -2.42256e-05 -2.42313e-05 -1.45902e-05
7.91545e-05 -2.3742e-05 -2.37482e-05 -1.45902e-05
5.82088e-05 -1.74586e-05 -1.74644e-05 -1.76849e-05
5.57928e-05 -1.67331e-05 -1.67399e-05 -1.76848e-05
9.28515e-05 -2.78494e-05 -2.7858e-05 -1.06112e-05
9.68788e-05 -2.90581e-05 -2.9066e-05 -1.06112e-05
5.70008e-05 -1.70958e-05 -1.71021e-05 -1.76849e-05
7.4322e-05 -2.22914e-05 -2.22988e-05 -1.45902e-05
9.48652e-05 -2.84538e-05 -2.8462e-05 -1.06112e-05
7.75437e-05 -2.32585e-05 -2.32651e-05 -1.45902e-05
7.59328e-05 -2.27749e-05 -2.2782e-05 -1.45902e-05
5.57928e-05 -1.67331e-05 -1.67399e-05 -1.76848e-05
5.33768e-05 -1.60077e-05 -1.60153e-05 -1.76848e-05
8.8824e-05 -2.66407e-05 -2.665e-05 -1.06112e-05
9.28515e-05 -2.78494e-05 -2.7858e-05 -1.06112e-05
5.45848e-05 -1.63704e-05 -1.63776e-05 -1.76848e-05
7.11003e-05 -2.13243e-05 -2.13326e-05 -1.45902e-05
9.08378e-05 -2.72451e-05 -2.7254e-05 -1.06112e-05
7.4322e-05 -2.22914e-05 -2.22988e-05 -1.45902e-05
7.27111e-05 -2.18078e-05 -2.18157e-05 -1.45902e-05
5.33768e-05 -1.60077e-05 -1.60153e-05 -1.76848e-05
5.09607e-05 -1.52823e-05 -1.52908e-05 -1.76848e-05
8.47966e-05 -2.5432e-05 -2.5442e-05 -1.06112e-05
8.8824e-05 -2.66407e-05 -2.665e-05 -1.06112e-05
5.21687e-05 -1.5645e-05 -1.5653e-05 -1.76848e-05
6.78786e-05 -2.03573e-05 -2.03663e-05 -1.45902e-05
8.68103e-05 -2.60364e-05 -2.6046e-05 -1.06112e-05
7.11003e-05 -2.13243e-05 -2.13326e-05 -1.45902e-05
6.94894e-05 -2.08408e-05 -2.08494e-05 -1.45902e-05
5.09607e-05 -1.52823e-05 -1.52908e-05 -1.76848e-05
4.85447e-05 -1.45569e-05 -1.45662e-05 -1.76848e-05
8.07692e-05 -2.42234e-05 -2.42339e-05 -1.06113e-05
8.47966e-05 -2.5432e-05 -2.5442e-05 -1.06112e-05
4.97527e-05 -1.49196e-05 -1.49285e-05 -1.76848e-05
6.46568e-05 -1.93902e-05 -1.94e-05 -1.45902e-05
8.27829e-05 -2.48277e-05 -2.48379e-05 -1.06113e-05
6.78786e-05 -2.03573e-05 -2.03663e-05 -1.45902e-05
6.62677e-05 -1.98737e-05 -1.98831e-05 -1.45902e-05
4.85447e-05 -1.45569e-05 -1.45662e-05 -1.76848e-05
4.61287e-05 -1.38315e-05 -1.38416e-05 -1.76848e-05
7.67417e-05 -2.30147e-05 -2.30258e-05 -1.06113e-05
8.07692e-05 -2.42234e-05 -2.42339e-05 -1.06113e-05
4.73367e-05 -1.41942e-05 -1.42039e-05 -1.76848e-05
6.14351e-05 -1.84232e-05 -1.84337e-05 -1.45903e-05
7.87554e-05 -2.3619e-05 -2.36299e-05 -1.06113e-05
6.46568e-05 -1.93902e-05 -1.94e-05 -1.45902e-05
6.3046e-05 -1.89067e-05 -1.89168e-05 -1.45903e-05
4.61287e-05 -1.38315e-05 -1.38416e-05 -1.76848e-05
4.37127e-05 -1.31062e-05 -1.31171e-05 -1.76847e-05
7.27142e-05 -2.18061e-05 -2.18178e-05 -1.06114e-05
7.67417e-05 -2.30147e-05 -2.30258e-05 -1.06113e-05
4.49206e-05 -1.34688e-05 -1.34793e-05 -1.76847e-05
5.82135e-05 -1.74563e-05 -1.74674e-05 -1.45903e-05
7.4728e-05 -2.24104e-05 -2.24218e-05 -1.06114e-05
6.14351e-05 -1.84232e-05 -1.84337e-05 -1.45903e-05
5.98243e-05 -1.79397e-05 -1.79505e-05 -1.45903e-05
4.37127e-05 -1.31062e-05 -1.31171e-05 -1.76847e-05
4.12966e-05 -1.23807e-05 -1.23925e-05 -1.76845e-05
6.86868e-05 -2.05974e-05 -2.06097e-05 -1.06115e-05
7.27142e-05 -2.18061e-05 -2.18178e-05 -1.06114e-05
4.25047e-05 -1.27435e-05 -1.27548e-05 -1.76846e-05
5.49918e-05 -1.64892e-05 -1.65011e-05 -1.45902e-05
7.07005e-05 -2.12017e-05 -2.12138e-05 -1.06115e-05
5.82135e-05 -1.74563e-05 -1.74674e-05 -1.45903e-05
5.66026e-05 -1.69727e-05 -1.69842e-05 -1.45902e-05
4.12966e-05 -1.23807e-05 -1.23925e-05 -1.76845e-05
3.88806e-05 -1.16549e-05 -1.16681e-05 -1.76842e-05
6.46595e-05 -1.93887e-05 -1.94018e-05 -1.06114e-05
6.86868e-05 -2.05974e-05 -2.06097e-05 -1.06115e-05
4.00886e-05 -1.20179e-05 -1.20303e-05 -1.76844e-05
5.17702e-05 -1.5522e-05 -1.55349e-05 -1.45899e-05
6.66731e-05 -1.99931e-05 -2.00057e-05 -1.06115e-05
5.49918e-05 -1.64892e-05 -1.65011e-05 -1.45902e-05
5.3381e-05 -1.60056e-05 -1.6018e-05 -1.45901e-05
3.88806e-05 -1.16549e-05 -1.16681e-05 -1.76842e-05
3.6464e-05 -1.09284e-05 -1.09438e-05 -1.76836e-05
6.06323e-05 -1.81798e-05 -1.81939e-05 -1.06109e-05
6.46595e-05 -1.93887e-05 -1.94018e-05 -1.06114e-05
3.76724e-05 -1.12918e-05 -1.1306e-05 -1.7684e-05
4.85485e-05 -1.45543e-05 -1.4569e-05 -1.45892e-05
6.26458e-05 -1.87843e-05 -1.87978e-05 -1.06112e-05
5.17702e-05 -1.5522e-05 -1.55349e-05 -1.45899e-05
5.01594e-05 -1.50382e-05 -1.50519e-05 -1.45896e-05
3.6464e-05 -1.09284e-05 -1.09438e-05 -1.76836e-05
3.40465e-05 -1.02002e-05 -1.02199e-05 -1.76825e-05
5.66053e-05 -1.69703e-05 -1.69864e-05 -1.06094e-05
6.06323e-05 -1.81798e-05 -1.81939e-05 -1.06109e-05
3.52554e-05 -1.05646e-05 -1.05818e-05 -1.76832e-05
4.53263e-05 -1.35853e-05 -1.36033e-05 -1.45874e-05
5.86188e-05 -1.75751e-05 -1.75901e-05 -1.06103e-05
4.85485e-05 -1.45543e-05 -1.4569e-05 -1.45892e-05
4.69375e-05 -1.407e-05 -1.40861e-05 -1.45884e-05
3.40465e-05 -1.02002e-05 -1.02199e-05 -1.76825e-05
3.16261e-05 -9.46832e-06 -9.49619e-06 -1.76806e-05
5.25788e-05 -1.57596e-05 -1.57796e-05 -1.06055e-05
5.66053e-05 -1.69703e-05 -1.69864e-05 -1.06094e-05
3.28369e-05 -9.83488e-06 -9.85799e-06 -1.76817e-05
4.21029e-05 -1.26136e-05 -1.26382e-05 -1.45834e-05
5.45919e-05 -1.63652e-05 -1.63829e-05 -1.06078e-05
4.53263e-05 -1.35853e-05 -1.36033e-05 -1.45874e-05
4.37148e-05 -1.30999e-05 -1.31207e-05 -1.45858e-05
3.16261e-05 -9.46832e-06 -9.49619e-06 -1.76806e-05
2.92002e-05 -8.72922e-06 -8.77328e-06 -1.76773e-05
4.85523e-05 -1.45464e-05 -1.45739e-05 -1.05969e-05
5.25788e-05 -1.57596e-05 -1.57796e-05 -1.06055e-05
3.0414e-05 -9.09998e-06 -9.13457e-06 -1.76792e-05
3.88762e-05 -1.16364e-05 -1.16742e-05 -1.45752e-05
5.05656e-05 -1.51535e-05 -1.51766e-05 -1.0602e-05
4.21029e-05 -1.26136e-05 -1.26382e-05 -1.45834e-05
4.04901e-05 -1.21259e-05 -1.21561e-05 -1.45799e-05
2.92002e-05 -8.72922e-06 -8.77328e-06 -1.76773e-05
2.67613e-05 -7.9766e-06 -8.05059e-06 -1.76723e-05
4.45268e-05 -1.33283e-05 -1.33708e-05 -1.05782e-05
4.85523e-05 -1.45464e-05 -1.45739e-05 -1.05969e-05
2.79832e-05 -8.35523e-06 -8.41198e-06 -1.7675e-05
3.56425e-05 -1.06487e-05 -1.07116e-05 -1.4559e-05
4.65392e-05 -1.39382e-05 -1.39719e-05 -1.05894e-05
3.88762e-05 -1.16364e-05 -1.16742e-05 -1.45752e-05
3.72605e-05 -1.11444e-05 -1.11926e-05 -1.45685e-05
2.67613e-05 -7.9766e-06 -8.05059e-06 -1.76723e-05
2.43001e-05 -7.19921e-06 -7.32893e-06 -1.76641e-05
4.0499e-05 -1.2101e-05 -1.21706e-05 -1.05421e-05
4.45268e-05 -1.33283e-05 -1.33708e-05 -1.05782e-05
2.55338e-05 -7.59179e-06 -7.68945e-06 -1.76688e-05
3.23936e-05 -9.64078e-06 -9.75119e-06 -1.45285e-05
4.25138e-05 -1.27163e-05 -1.27703e-05 -1.05629e-05
3.56425e-05 -1.06487e-05 -1.07116e-05 -1.4559e-05
3.40206e-05 -1.01478e-05 -1.02312e-05 -1.45458e-05
2.43001e-05 -7.19921e-06 -7.32893e-06 -1.76641e-05
2.17913e-05 -6.38093e-06 -6.60444e-06 -1.76541e-05
3.64714e-05 -1.08563e-05 -1.09779e-05 -1.04711e-05
4.0499e-05 -1.2101e-05 -1.21706e-05 -1.05421e-05
2.30544e-05 -6.79686e-06 -6.96752e-06 -1.7659e-05
2.91161e-05 -8.59976e-06 -8.7927e-06 -1.44738e-05
3.84842e-05 -1.1481e-05 -1.15728e-05 -1.05127e-05
3.23936e-05 -9.64078e-06 -9.75119e-06 -1.45285e-05
3.07594e-05 -9.12622e-06 -9.27134e-06 -1.45057e-05
2.17913e-05 -6.38093e-06 -6.60444e-06 -1.76541e-05
1.92108e-05 -5.49581e-06 -5.87784e-06 -1.76411e-05
3.24273e-05 -9.58485e-06 -9.78961e-06 -1.03472e-05
3.64714e-05 -1.08563e-05 -1.09779e-05 -1.04711e-05
2.05102e-05 -5.94774e-06 -6.24107e-06 -1.76484e-05
2.57815e-05 -7.49903e-06 -7.83533e-06 -1.43817e-05
3.44544e-05 -1.0226e-05 -1.03836e-05 -1.04169e-05
2.91161e-05 -8.59976e-06 -8.7927e-06 -1.44738e-05
2.74585e-05 -8.05732e-06 -8.31478e-06 -1.44321e-05
1.92108e-05 -5.49581e-06 -5.87784e-06 -1.76411e-05
1.64916e-05 -4.52216e-06 -5.12975e-06 -1.76401e-05
2.83724e-05 -8.26297e-06 -8.61831e-06 -1.01256e-05
3.24273e-05 -9.58485e-06 -9.78961e-06 -1.03472e-05
1.78766e-05 -5.02298e-06 -5.50871e-06 -1.76369e-05
2.23536e-05 -6.31888e-06 -6.872e-06 -1.42371e-05
3.03974e-05 -8.92892e-06 -9.2008e-06 -1.0253e-05
2.57815e-05 -7.49903e-06 -7.83533e-06 -1.43817e-05
2.40811e-05 -6.92346e-06 -7.35329e-06 -1.432e-05
1.64916e-05 -4.52216e-06 -5.12975e-06 -1.76401e-05
1.36046e-05 -3.43674e-06 -4.35765e-06 -1.76612e-05
2.42304e-05 -6.88479e-06 -7.43384e-06 -9.78881e-06
2.83724e-05 -8.26297e-06 -8.61831e-06 -1.01256e-05
1.50646e-05 -3.98921e-06 -4.74658e-06 -1.7648e-05
1.8748e-05 -5.01068e-06 -5.88743e-06 -1.40395e-05
2.63255e-05 -7.58847e-06 -8.03016e-06 -9.97173e-06
2.23536e-05 -6.31888e-06 -6.872e-06 -1.42371e-05
2.05816e-05 -5.67663e-06 -6.38783e-06 -1.41379e-05
1.36046e-05 -3.43674e-06 -4.35765e-06 -1.76612e-05
1.04441e-05 -2.31561e-06 -3.48365e-06 -1.77884e-05
2.00064e-05 -5.3926e-06 -6.26308e-06 -9.26938e-06
2.42304e-05 -6.88479e-06 -7.43384e-06 -9.78881e-06
1.20763e-05 -2.87843e-06 -3.94193e-06 -1.77014e-05
1.4909e-05 -3.6218e-06 -4.83739e-06 -1.38245e-05
2.21148e-05 -6.13917e-06 -6.8467e-06 -9.55787e-06
1.8748e-05 -5.01068e-06 -5.88743e-06 -1.40395e-05
1.68561e-05 -4.33259e-06 -5.36721e-06 -1.39418e-05
1.04441e-05 -2.31561e-06 -3.48365e-06 -1.77884e-05
7.16551e-06 -1.34374e-06 -2.49504e-06 -1.80808e-05
1.53996e-05 -3.90687e-06 -4.92544e-06 -8.70953e-06
2.00064e-05 -5.3926e-06 -6.26308e-06 -9.26938e-06
8.78246e-06 -1.76833e-06 -3.00606e-06 -1.79113e-05
1.06553e-05 -2.20443e-06 -3.62179e-06 -1.37725e-05
1.78024e-05 -4.67354e-06 -5.62663e-06 -8.97901e-06
1.4909e-05 -3.6218e-06 -4.83739e-06 -1.38245e-05
1.28583e-05 -2.8768e-06 -4.27778e-06 -1.3734e-05
7.16551e-06 -1.34374e-06 -2.49504e-06 -1.80808e-05
3.98071e-06 -1.32336e-06 -1.13886e-06 -1.87375e-05
1.04368e-05 -2.43225e-06 -3.43054e-06 -8.34405e-06
1.53996e-05 -3.90687e-06 -4.92544e-06 -8.70953e-06
5.57202e-06 -1.16393e-06 -1.88918e-06 -1.83457e-05
6.23309e-06 -1.5235e-06 -2.0184e-06 -1.42735e-05
1.29078e-05 -3.06725e-06 -4.21739e-06 -8.46706e-06
1.06553e-05 -2.20443e-06 -3.62179e-06 -1.37725e-05
8.41015e-06 -1.7274e-06 -2.86403e-06 -1.39632e-05
3.98071e-06 -1.32336e-06 -1.13886e-06 -1.87375e-05
2.29135e-06 -3.68153e-06 5.95788e-07 -1.92477e-05
4.66028e-06 -2.56121e-06 -8.99601e-07 -9.75776e-06
1.04368e-05 -2.43225e-06 -3.43054e-06 -8.34405e-06
2.76327e-06 -1.99352e-06 -3.29891e-07 -1.90837e-05
2.18978e-06 -3.27754e-06 4.66185e-07 -1.60868e-05
7.76241e-06 -2.27663e-06 -2.35105e-06 -8.67552e-06
6.23309e-06 -1.5235e-06 -2.0184e-06 -1.42735e-05
4.15075e-06 -1.79381e-06 -1.01012e-06 -1.48676e-05
2.29135e-06 -3.68153e-06 5.95788e-07 -1.92477e-05
3.12886e-06 -1.10835e-05 3.40915e-06 -1.76977e-05
1.94444e-06 -9.22886e-06 3.1219e-06 -1.49984e-05
4.66028e-06 -2.56121e-06 -8.99601e-07 -9.75776e-06
2.45115e-06 -6.80444e-06 1.86569e-06 -1.89791e-05
3.37021e-06 -1.25912e-05 3.95184e-06 -1.75461e-05
2.32333e-06 -3.82436e-06 6.433e-07 -1.16245e-05
2.18978e-06 -3.27754e-06 4.66185e-07 -1.60868e-05
1.53474e-06 -6.74981e-06 2.23503e-06 -1.73366e-05
3.12886e-06 -1.10835e-05 3.40915e-06 -1.76977e-05
5.63739e-06 -2.00903e-05 6.19409e-06 -9.36673e-06
1.28456e-05 -4.06375e-05 1.19108e-05 -1.52403e-05
1.94444e-06 -9.22886e-06 3.1219e-06 -1.49984e-05
4.22431e-06 -1.5915e-05 5.01028e-06 -1.46327e-05
1.02587e-05 -2.94058e-05 8.2059e-06 -8.84621e-06
4.9698e-06 -2.1706e-05 7.17268e-06 -1.77199e-05
3.37021e-06 -1.25912e-05 3.95184e-06 -1.75461e-05
6.63267e-06 -2.06956e-05 6.02699e-06 -1.52029e-05
0.000676063 2.22045e-16 -0.000289741 -3.90673e-05
0.00076102 -0.000150953 -0.000261457 -5.68668e-05
0.00106136 -0.000336378 -0.000310706 1.92864e-05
0.00148828 -1.11022e-16 -0.000637833 -0.000505753
0.00072369 -7.12415e-05 -0.000279621 -6.59572e-05
0.00096306 -0.000233955 -0.000312474 -7.36374e-05
0.00118065 -0.000374763 -0.00034538 -7.1402e-05
0.000794962 0 -0.000340698 -0.000122869
0.000929064 -0.000158221 -0.000330361 -0.00011531
0.00076102 -0.000150953 -0.000261457 -5.68668e-05
0.000790797 -0.000214317 -0.000247063 -2.71709e-05
0.0010485 -0.000324873 -0.000310127 6.04138e-06
0.00106136 -0.000336378 -0.000310706 1.92864e-05
0.000784553 -0.00019563 -0.000252396 -4.10741e-05
0.000941654 -0.000274547 -0.000285903 -1.24904e-05
0.00104553 -0.000310411 -0.000315052 8.50526e-06
0.00096306 -0.000233955 -0.000312474 -7.36374e-05
0.000949674 -0.000265148 -0.000293368 -2.99546e-05
0.000790797 -0.000214317 -0.000247063 -2.71709e-05
0.000787031 -0.000232147 -0.000237808 -1.01714e-05
0.0010632 -0.000315643 -0.000320382 2.80703e-06
0.0010485 -0.000324873 -0.000310127 6.04138e-06
0.000788655 -0.000225405 -0.000241393 -1.60229e-05
0.000931754 -0.000279444 -0.000279562 -1.3582e-06
0.00105836 -0.00032416 -0.000314658 6.10901e-06
0.000941654 -0.000274547 -0.000285903 -1.24904e-05
0.000936512 -0.000278059 -0.000282194 -6.10079e-06
0.000787031 -0.000232147 -0.000237808 -1.01714e-05
0.000781498 -0.000234633 -0.000234371 -6.34421e-06
0.00106923 -0.000321755 -0.000320347 -3.15875e-07
0.0010632 -0.000315643 -0.000320382 2.80703e-06
0.000784966 -0.000234533 -0.0002359 -7.60464e-06
0.000926301 -0.000278888 -0.000277463 2.88493e-07
0.00106587 -0.000316699 -0.000321075 -5.45468e-07
0.000931754 -0.000279444 -0.000279562 -1.3582e-06
0.000928108 -0.000279447 -0.000277998 7.48101e-07
0.000781498 -0.000234633 -0.000234371 -6.34421e-06
0.0007751 -0.000234263 -0.000231787 -6.14531e-06
0.00107233 -0.0003206 -0.000322171 2.1692e-07
0.00106923 -0.000321755 -0.000320347 -3.15875e-07
0.000777814 -0.000234528 -0.000232837 -5.8681e-06
0.000923579 -0.000278003 -0.000276676 -1.32323e-06
0.00107186 -0.000322249 -0.000321262 5.40103e-07
0.000926301 -0.000278888 -0.000277463 2.88493e-07
0.000925176 -0.000278425 -0.000277179 -7.51623e-07
0.0007751 -0.000234263 -0.000231787 -6.14531e-06
0.000770241 -0.000232558 -0.000230436 -7.41141e-06
0.00107116 -0.000321517 -0.000321278 -1.97313e-07
0.00107233 -0.0003206 -0.000322171 2.1692e-07
0.00077277 -0.00023352 -0.000231107 -6.80961e-06
0.00092022 -0.000276799 -0.000275752 -2.81792e-06
0.00107174 -0.000320724 -0.000321864 -3.38689e-07
0.000923579 -0.000278003 -0.000276676 -1.32323e-06
0.000921822 -0.000277444 -0.000276162 -1.985e-06
0.000770241 -0.000232558 -0.000230436 -7.41141e-06
0.000765544 -0.000230886 -0.000229139 -8.48306e-06
0.00106856 -0.000320341 -0.000320667 1.06218e-08
0.00107116 -0.000321517 -0.000321278 -1.97313e-07
0.000767752 -0.000231688 -0.000229742 -7.94775e-06
0.000916659 -0.000275504 -0.000274781 -4.00045e-06
0.00107023 -0.000321204 -0.000321011 6.21707e-08
0.00092022 -0.000276799 -0.000275752 -2.81792e-06
0.000918567 -0.000276154 -0.00027532 -3.52214e-06
0.000765544 -0.000230886 -0.000229139 -8.48306e-06
0.000761328 -0.000229256 -0.000228031 -9.36078e-06
0.00106435 -0.00031936 -0.00031928 -6.41472e-08
0.00106856 -0.000320341 -0.000320667 1.06218e-08
0.000763456 -0.000230066 -0.000228596 -8.97926e-06
0.000912541 -0.000274139 -0.000273601 -4.76437e-06
0.00106649 -0.000319796 -0.000320013 -1.08329e-07
0.000916659 -0.000275504 -0.000274781 -4.00045e-06
0.000914612 -0.000274831 -0.000274192 -4.40875e-06
0.000761328 -0.000229256 -0.000228031 -9.36078e-06
0.000757163 -0.000227781 -0.000226878 -9.8968e-06
0.00105956 -0.00031785 -0.000317877 -7.71956e-09
0.00106435 -0.00031936 -0.00031928 -6.41472e-08
0.000759213 -0.000228499 -0.000227449 -9.65485e-06
0.00090818 -0.00027273 -0.000272336 -5.21948e-06
0.00106206 -0.000318671 -0.000318594 2.49376e-09
0.000912541 -0.000274139 -0.000273601 -4.76437e-06
0.000910409 -0.000273437 -0.000272988 -5.03202e-06
0.000757163 -0.000227781 -0.000226878 -9.8968e-06
0.000753111 -0.000226402 -0.000225732 -1.02368e-05
0.00105429 -0.000316328 -0.000316271 -1.79567e-08
0.00105956 -0.00031785 -0.000317877 -7.71956e-09
0.000755142 -0.000227083 -0.000226311 -1.00932e-05
0.000903587 -0.000271302 -0.000270979 -5.48257e-06
0.00105695 -0.000317082 -0.000317085 -3.15725e-08
0.00090818 -0.00027273 -0.000272336 -5.21948e-06
0.000905893 -0.000272018 -0.000271661 -5.36782e-06
0.000753111 -0.000226402 -0.000225732 -1.02368e-05
0.000749066 -0.000225096 -0.000224558 -1.04208e-05
0.00104885 -0.000314682 -0.000314645 -4.1428e-09
0.00105429 -0.000316328 -0.000316271 -1.79567e-08
0.000751082 -0.000225741 -0.000225146 -1.03414e-05
0.000898894 -0.000269861 -0.000269586 -5.62012e-06
0.0010516 -0.000315519 -0.000315462 -1.86772e-09
0.000903587 -0.000271302 -0.000270979 -5.48257e-06
0.000901256 -0.000270582 -0.000270289 -5.5638e-06
0.000749066 -0.000225096 -0.000224558 -1.04208e-05
0.000745043 -0.000223833 -0.000223376 -1.05235e-05
0.00104329 -0.000313023 -0.000312971 -4.40302e-09
0.00104885 -0.000314682 -0.000314645 -4.1428e-09
0.000747056 -0.000224461 -0.000223969 -1.04811e-05
0.000894127 -0.000268414 -0.000268163 -5.69273e-06
0.00104608 -0.000313851 -0.000313811 -8.31319e-09
0.000898894 -0.000269861 -0.000269586 -5.62012e-06
0.000896514 -0.000269138 -0.000268875 -5.66232e-06
0.000745043 -0.000223833 -0.000223376 -1.05235e-05
0.000741019 -0.000222596 -0.000222181 -1.0574e-05
0.00103768 -0.000311339 -0.000311291 -1.3324e-09
0.00104329 -0.000313023 -0.000312971 -4.40302e-09
0.00074303 -0.000223212 -0.000222779 -1.05529e-05
0.000889329 -0.000266965 -0.000266728 -5.72666e-06
0.00104049 -0.000312184 -0.000312132 -7.84986e-10
0.000894127 -0.000268414 -0.000268163 -5.69273e-06
0.000891732 -0.00026769 -0.000267447 -5.71306e-06
0.000741019 -0.000222596 -0.000222181 -1.0574e-05
0.000736998 -0.000221373 -0.000220982 -1.05994e-05
0.00103206 -0.000309652 -0.000309602 -9.07328e-10
0.00103768 -0.000311339 -0.000311291 -1.3324e-09
0.000739009 -0.000221983 -0.000221582 -1.05892e-05
0.000884511 -0.000265514 -0.000265285 -5.74273e-06
0.00103487 -0.000310495 -0.000310447 -1.91114e-09
0.000889329 -0.000266965 -0.000266728 -5.72666e-06
0.000886921 -0.00026624 -0.000266006 -5.73626e-06
0.000736998 -0.000221373 -0.000220982 -1.05994e-05
0.000732975 -0.000220157 -0.000219779 -1.06105e-05
0.00102642 -0.00030796 -0.000307911 -3.13645e-10
0.00103206 -0.000309652 -0.000309602 -9.07328e-10
0.000734987 -0.000220764 -0.000220381 -1.0606e-05
0.000879687 -0.000264063 -0.000263839 -5.74915e-06
0.00102924 -0.000308806 -0.000308756 -1.71649e-10
0.000884511 -0.000265514 -0.000265285 -5.74273e-06
0.0008821 -0.000264789 -0.000264562 -5.7467e-06
0.000732975 -0.000220157 -0.000219779 -1.06105e-05
0.000728952 -0.000218944 -0.000218575 -1.06154e-05
0.00102078 -0.000306268 -0.000306219 -1.37474e-10
0.00102642 -0.00030796 -0.000307911 -3.13645e-10
0.000730964 -0.00021955 -0.000219177 -1.06135e-05
0.000874857 -0.000262612 -0.000262391 -5.75163e-06
0.0010236 -0.000307114 -0.000307065 -3.60026e-10
0.000879687 -0.000264063 -0.000263839 -5.74915e-06
0.000877272 -0.000263338 -0.000263115 -5.75071e-06
0.000728952 -0.000218944 -0.000218575 -1.06154e-05
0.000724929 -0.000217733 -0.00021737 -1.06171e-05
0.00101514 -0.000304576 -0.000304528 -5.14312e-11
0.00102078 -0.000306268 -0.000306219 -1.37474e-10
0.000726941 -0.000218338 -0.000217972 -1.06165e-05
0.000870027 -0.000261161 -0.000260942 -5.75225e-06
0.00101796 -0.000305422 -0.000305373 -1.13252e-11
0.000874857 -0.000262612 -0.000262391 -5.75163e-06
0.000872442 -0.000261887 -0.000261667 -5.75207e-06
0.000724929 -0.000217733 -0.00021737 -1.06171e-05
0.000720905 -0.000216522 -0.000216164 -1.06177e-05
0.0010095 -0.000302884 -0.000302836 -7.36247e-12
0.00101514 -0.000304576 -0.000304528 -5.14312e-11
0.000722917 -0.000217128 -0.000216767 -1.06175e-05
0.000865195 -0.00025971 -0.000259494 -5.75228e-06
0.00101232 -0.00030373 -0.000303682 -4.72294e-11
0.000870027 -0.000261161 -0.000260942 -5.75225e-06
0.000867611 -0.000260436 -0.000260218 -5.7523e-06
0.000720905 -0.000216522 -0.000216164 -1.06177e-05
0.00071688 -0.000215312 -0.000214958 -1.06177e-05
0.00100386 -0.000301192 -0.000301144 -5.17461e-12
0.0010095 -0.000302884 -0.000302836 -7.36247e-12
0.000718893 -0.000215917 -0.000215561 -1.06177e-05
0.000860364 -0.000258259 -0.000258045 -5.7521e-06
0.00100668 -0.000302038 -0.00030199 6.89102e-12
0.000865195 -0.00025971 -0.000259494 -5.75228e-06
0.00086278 -0.000258985 -0.000258769 -5.75219e-06
0.00071688 -0.000215312 -0.000214958 -1.06177e-05
0.000712856 -0.000214102 -0.000213752 -1.06176e-05
0.000998223 -0.0002995 -0.000299453 1.70411e-12
0.00100386 -0.000301192 -0.000301144 -5.17461e-12
0.000714868 -0.000214707 -0.000214355 -1.06177e-05
0.000855532 -0.000256808 -0.000256596 -5.75192e-06
0.00100104 -0.000300346 -0.000300298 -2.81311e-12
0.000860364 -0.000258259 -0.000258045 -5.7521e-06
0.000857948 -0.000257534 -0.00025732 -5.752e-06
0.000712856 -0.000214102 -0.000213752 -1.06176e-05
0.000708831 -0.000212892 -0.000212545 -1.06175e-05
0.000992584 -0.000297808 -0.000297761 -2.95718e-12
0.000998223 -0.0002995 -0.000299453 1.70411e-12
0.000710844 -0.000213497 -0.000213148 -1.06175e-05
0.000850701 -0.000255357 -0.000255147 -5.75177e-06
0.000995404 -0.000298654 -0.000298607 6.93484e-13
0.000855532 -0.000256808 -0.000256596 -5.75192e-06
0.000853117 -0.000256083 -0.000255872 -5.75184e-06
0.000708831 -0.000212892 -0.000212545 -1.06175e-05
0.000704807 -0.000211682 -0.000211339 -1.06174e-05
0.000986946 -0.000296116 -0.00029607 -2.91995e-12
0.000992584 -0.000297808 -0.000297761 -2.95718e-12
0.000706819 -0.000212287 -0.000211942 -1.06174e-05
0.000845869 -0.000253906 -0.000253698 -5.75166e-06
0.000989765 -0.000296962 -0.000296916 -2.58308e-12
0.000850701 -0.000255357 -0.000255147 -5.75177e-06
0.000848285 -0.000254632 -0.000254423 -5.75171e-06
0.000704807 -0.000211682 -0.000211339 -1.06174e-05
0.000700782 -0.000210472 -0.000210133 -1.06173e-05
0.000981308 -0.000294425 -0.000294379 -5.26686e-12
0.000986946 -0.000296116 -0.00029607 -2.91995e-12
0.000702794 -0.000211077 -0.000210736 -1.06173e-05
0.000841038 -0.000252455 -0.00025225 -5.75158e-06
0.000984127 -0.000295271 -0.000295224 -4.2213e-12
0.000845869 -0.000253906 -0.000253698 -5.75166e-06
0.000843454 -0.000253181 -0.000252974 -5.75162e-06
0.000700782 -0.000210472 -0.000210133 -1.06173e-05
0.000696757 -0.000209262 -0.000208926 -1.06172e-05
0.00097567 -0.000292733 -0.000292687 -5.66632e-12
0.000981308 -0.000294425 -0.000294379 -5.26686e-12
0.000698769 -0.000209867 -0.00020953 -1.06172e-05
0.000836207 -0.000251004 -0.000250801 -5.75153e-06
0.000978489 -0.000293579 -0.000293533 -5.28161e-12
0.000841038 -0.000252455 -0.00025225 -5.75158e-06
0.000838622 -0.00025173 -0.000251525 -5.75155e-06
0.000696757 -0.000209262 -0.000208926 -1.06172e-05
0.000692732 -0.000208052 -0.00020772 -1.06171e-05
0.000970032 -0.000291041 -0.000290996 -6.45166e-12
0.00097567 -0.000292733 -0.000292687 -5.66889e-12
0.000694745 -0.000208657 -0.000208323 -1.06172e-05
0.000831375 -0.000249553 -0.000249352 -5.75148e-06
0.000972851 -0.000291887 -0.000291841 -6.18896e-12
0.000836207 -0.000251004 -0.000250801 -5.75153e-06
0.000833791 -0.000250279 -0.000250077 -5.7515e-06
0.000692732 -0.000208052 -0.00020772 -1.06171e-05
0.000688707 -0.000206842 -0.000206514 -1.06171e-05
0.000964393 -0.00028935 -0.000289304 -6.60917e-12
0.000970032 -0.000291041 -0.000290996 -6.45166e-12
0.00069072 -0.000207447 -0.000207117 -1.06171e-05
0.000826544 -0.000248102 -0.000247903 -5.75145e-06
0.000967212 -0.000290195 -0.00029015 -6.47216e-12
0.000831375 -0.000249553 -0.000249352 -5.75148e-06
0.000828959 -0.000248828 -0.000248628 -5.75146e-06
0.000688707 -0.000206842 -0.000206514 -1.06171e-05
0.000684683 -0.000205632 -0.000205307 -1.0617e-05
0.000958755 -0.000287658 -0.000287613 -6.8074e-12
0.000964393 -0.00028935 -0.000289304 -6.60868e-12
0.000686695 -0.000206237 -0.000205911 -1.0617e-05
0.000821712 -0.000246651 -0.000246455 -5.75141e-06
0.000961574 -0.000288504 -0.000288459 -6.75255e-12
0.000826544 -0.000248102 -0.000247903 -5.75145e-06
0.000824128 -0.000247377 -0.000247179 -5.75143e-06
0.000684683 -0.000205632 -0.000205307 -1.0617e-05
0.000680658 -0.000204422 -0.000204101 -1.0617e-05
0.000953117 -0.000285966 -0.000285922 -6.83333e-12
0.000958755 -0.000287658 -0.000287613 -6.8074e-12
0.00068267 -0.000205027 -0.000204704 -1.0617e-05
0.000816881 -0.000245201 -0.000245006 -5.75138e-06
0.000955936 -0.000286812 -0.000286767 -6.80825e-12
0.000821712 -0.000246651 -0.000246455 -5.75141e-06
0.000819297 -0.000245926 -0.00024573 -5.7514e-06
0.000680658 -0.000204422 -0.000204101 -1.0617e-05
0.000676633 -0.000203212 -0.000202895 -1.06169e-05
0.000947479 -0.000284275 -0.00028423 -6.86214e-12
0.000953117 -0.000285966 -0.000285922 -6.84327e-12
0.000678645 -0.000203817 -0.000203498 -1.0617e-05
0.000812049 -0.00024375 -0.000243557 -5.75136e-06
0.000950298 -0.00028512 -0.000285076 -6.86229e-12
0.000816881 -0.000245201 -0.000245006 -5.75138e-06
0.000814465 -0.000244475 -0.000244281 -5.75137e-06
0.000676633 -0.000203212 -0.000202895 -1.06169e-05
0.000672608 -0.000202002 -0.000201688 -1.06169e-05
0.000941841 -0.000282583 -0.000282539 -6.84259e-12
0.000947479 -0.000284275 -0.00028423 -6.86214e-12
0.00067462 -0.000202607 -0.000202292 -1.06169e-05
0.000807218 -0.000242299 -0.000242108 -5.75133e-06
0.00094466 -0.000283429 -0.000283385 -6.84786e-12
0.000812049 -0.00024375 -0.000243557 -5.75136e-06
0.000809634 -0.000243024 -0.000242833 -5.75134e-06
0.000672608 -0.000202002 -0.000201688 -1.06169e-05
0.000668583 -0.000200792 -0.000200482 -1.06168e-05
0.000936203 -0.000280891 -0.000280848 -6.82822e-12
0.000941841 -0.000282583 -0.000282539 -6.84224e-12
0.000670596 -0.000201397 -0.000201085 -1.06169e-05
0.000802387 -0.000240848 -0.00024066 -5.7513e-06
0.000939022 -0.000281737 -0.000281693 -6.83767e-12
0.000807218 -0.000242299 -0.000242108 -5.75133e-06
0.000804802 -0.000241573 -0.000241384 -5.75132e-06
0.000668583 -0.000200792 -0.000200482 -1.06168e-05
0.000664558 -0.000199582 -0.000199276 -1.06168e-05
0.000930565 -0.000279199 -0.000279156 -6.79952e-12
0.000936203 -0.000280891 -0.000280848 -6.82822e-12
0.000666571 -0.000200187 -0.000199879 -1.06168e-05
0.000797555 -0.000239397 -0.000239211 -5.75128e-06
0.000933384 -0.000280045 -0.000280002 -6.80734e-12
0.000802387 -0.000240848 -0.00024066 -5.7513e-06
0.000799971 -0.000240122 -0.000239935 -5.75129e-06
0.000664558 -0.000199582 -0.000199276 -1.06168e-05
0.000660533 -0.000198372 -0.000198069 -1.06168e-05
0.000924926 -0.000277508 -0.000277465 -6.77658e-12
0.000930565 -0.000279199 -0.000279156 -6.80214e-12
0.000662546 -0.000198977 -0.000198672 -1.06168e-05
0.000792724 -0.000237946 -0.000237762 -5.75125e-06
0.000927745 -0.000278354 -0.000278311 -6.78968e-12
0.000797555 -0.000239397 -0.000239211 -5.75128e-06
0.000795139 -0.000238671 -0.000238486 -5.75126e-06
0.000660533 -0.000198372 -0.000198069 -1.06168e-05
0.000656508 -0.000197162 -0.000196863 -1.06167e-05
0.000919288 -0.000275816 -0.000275774 -6.73537e-12
0.000924926 -0.000277508 -0.000277465 -6.77658e-12
0.000658521 -0.000197767 -0.000197466 -1.06167e-05
0.000787892 -0.000236495 -0.000236313 -5.75123e-06
0.000922107 -0.000276662 -0.000276619 -6.75819e-12
0.000792724 -0.000237946 -0.000237762 -5.75125e-06
0.000790308 -0.00023722 -0.000237038 -5.75124e-06
0.000656508 -0.000197162 -0.000196863 -1.06167e-05
0.000652483 -0.000195952 -0.000195656 -1.06167e-05
0.00091365 -0.000274124 -0.000274082 -6.69504e-12
0.000919288 -0.000275816 -0.000275774 -6.73489e-12
0.000654496 -0.000196557 -0.00019626 -1.06167e-05
0.000783061 -0.000235044 -0.000234864 -5.7512e-06
0.000916469 -0.00027497 -0.000274928 -6.7176e-12
0.000787892 -0.000236495 -0.000236313 -5.75123e-06
0.000785476 -0.000235769 -0.000235589 -5.75122e-06
0.000652483 -0.000195952 -0.000195656 -1.06167e-05
0.000648458 -0.000194742 -0.00019445 -1.06166e-05
0.000908012 -0.000272433 -0.000272391 -6.67194e-12
0.00091365 -0.000274124 -0.000274082 -6.69504e-12
0.000650471 -0.000195347 -0.000195053 -1.06167e-05
0.000778229 -0.000233593 -0.000233415 -5.75118e-06
0.000910831 -0.000273278 -0.000273237 -6.68509e-12
0.000783061 -0.000235044 -0.000234864 -5.7512e-06
0.000780645 -0.000234319 -0.00023414 -5.75119e-06
0.000648458 -0.000194742 -0.00019445 -1.06166e-05
0.000644433 -0.000193532 -0.000193244 -1.06166e-05
0.000902374 -0.000270741 -0.0002707 -6.62611e-12
0.000908012 -0.000272433 -0.000272391 -6.66826e-12
0.000646446 -0.000194137 -0.000193847 -1.06166e-05
0.000773398 -0.000232142 -0.000231967 -5.75115e-06
0.000905193 -0.000271587 -0.000271545 -6.64369e-12
0.000778229 -0.000233593 -0.000233415 -5.75118e-06
0.000775813 -0.000232868 -0.000232691 -5.75117e-06
0.000644433 -0.000193532 -0.000193244 -1.06166e-05
0.000640408 -0.000192322 -0.000192037 -1.06166e-05
0.000896736 -0.000269049 -0.000269008 -6.58097e-12
0.000902374 -0.000270741 -0.0002707 -6.62611e-12
0.000642421 -0.000192927 -0.00019264 -1.06166e-05
0.000768566 -0.000230691 -0.000230518 -5.75113e-06
0.000899555 -0.000269895 -0.000269854 -6.61539e-12
0.000773398 -0.000232142 -0.000231967 -5.75115e-06
0.000770982 -0.000231417 -0.000231242 -5.75114e-06
0.000640408 -0.000192322 -0.000192037 -1.06166e-05
0.000636383 -0.000191112 -0.000190831 -1.06165e-05
0.000891097 -0.000267358 -0.000267317 -6.56043e-12
0.000896736 -0.000269049 -0.000269008 -6.58463e-12
0.000638396 -0.000191717 -0.000191434 -1.06165e-05
0.000763735 -0.00022924 -0.000229069 -5.75111e-06
0.000893916 -0.000268203 -0.000268163 -6.56157e-12
0.000768566 -0.000230691 -0.000230518 -5.75113e-06
0.00076615 -0.000229966 -0.000229793 -5.75112e-06
0.000636383 -0.000191112 -0.000190831 -1.06165e-05
0.000632358 -0.000189902 -0.000189624 -1.06165e-05
0.000885459 -0.000265666 -0.000265626 -6.49877e-12
0.000891097 -0.000267358 -0.000267317 -6.56043e-12
0.000634371 -0.000190507 -0.000190227 -1.06165e-05
0.000758903 -0.000227789 -0.00022762 -5.75108e-06
0.000888278 -0.000266512 -0.000266471 -6.53478e-12
0.000763735 -0.00022924 -0.000229069 -5.75111e-06
0.000761319 -0.000228515 -0.000228345 -5.75109e-06
0.000632358 -0.000189902 -0.000189624 -1.06165e-05
0.000628333 -0.000188692 -0.000188418 -1.06164e-05
0.000879821 -0.000263974 -0.000263934 -6.46394e-12
0.000885459 -0.000265666 -0.000265626 -6.49877e-12
0.000630346 -0.000189297 -0.000189021 -1.06165e-05
0.000754072 -0.000226338 -0.000226171 -5.75106e-06
0.00088264 -0.00026482 -0.00026478 -6.48741e-12
0.000758903 -0.000227789 -0.00022762 -5.75108e-06
0.000756487 -0.000227064 -0.000226896 -5.75107e-06
0.000628333 -0.000188692 -0.000188418 -1.06164e-05
0.000624308 -0.000187482 -0.000187211 -1.06164e-05
0.000874183 -0.000262282 -0.000262243 -6.41614e-12
0.000879821 -0.000263974 -0.000263934 -6.4772e-12
0.000626321 -0.000188087 -0.000187814 -1.06164e-05
0.00074924 -0.000224888 -0.000224722 -5.75103e-06
0.000877002 -0.000263128 -0.000263089 -6.45175e-12
0.000754072 -0.000226338 -0.000226171 -5.75106e-06
0.000751656 -0.000225613 -0.000225447 -5.75104e-06
0.000624308 -0.000187482 -0.000187211 -1.06164e-05
0.000620283 -0.000186272 -0.000186005 -1.06164e-05
0.000868545 -0.000260591 -0.000260552 -6.38867e-12
0.000874183 -0.000262282 -0.000262243 -6.41614e-12
0.000622295 -0.000186877 -0.000186608 -1.06164e-05
0.000744408 -0.000223437 -0.000223274 -5.75101e-06
0.000871364 -0.000261436 -0.000261397 -6.39644e-12
0.00074924 -0.000224888 -0.000224722 -5.75103e-06
0.000746824 -0.000224162 -0.000223998 -5.75102e-06
0.000620283 -0.000186272 -0.000186005 -1.06164e-05
0.000616258 -0.000185062 -0.000184798 -1.06163e-05
0.000862907 -0.000258899 -0.00025886 -6.33165e-12
0.000868545 -0.000260591 -0.000260552 -6.38879e-12
0.00061827 -0.000185667 -0.000185401 -1.06163e-05
0.000739577 -0.000221986 -0.000221825 -5.75098e-06
0.000865726 -0.000259745 -0.000259706 -6.34562e-12
0.000744408 -0.000223437 -0.000223274 -5.75101e-06
0.000741993 -0.000222711 -0.000222549 -5.751e-06
0.000616258 -0.000185062 -0.000184798 -1.06163e-05
0.000612233 -0.000183852 -0.000183592 -1.06163e-05
0.000857268 -0.000257207 -0.000257169 -6.30207e-12
0.000862907 -0.000258899 -0.00025886 -6.33165e-12
0.000614245 -0.000184457 -0.000184195 -1.06163e-05
0.000734745 -0.000220535 -0.000220376 -5.75096e-06
0.000860087 -0.000258053 -0.000258015 -6.30322e-12
0.000739577 -0.000221986 -0.000221825 -5.75098e-06
0.000737161 -0.00022126 -0.0002211 -5.75097e-06
0.000612233 -0.000183852 -0.000183592 -1.06163e-05
0.000608207 -0.000182642 -0.000182385 -1.06162e-05
0.00085163 -0.000255515 -0.000255478 -6.24963e-12
0.000857268 -0.000257207 -0.000257169 -6.28959e-12
0.00061022 -0.000183247 -0.000182988 -1.06163e-05
0.000729914 -0.000219084 -0.000218927 -5.75093e-06
0.000854449 -0.000256361 -0.000256323 -6.26768e-12
0.000734745 -0.000220535 -0.000220376 -5.75096e-06
0.000732329 -0.000219809 -0.000219651 -5.75095e-06
0.000608207 -0.000182642 -0.000182385 -1.06162e-05
0.000604182 -0.000181432 -0.000181179 -1.06162e-05
0.000845992 -0.000253824 -0.000253786 -6.21344e-12
0.00085163 -0.000255515 -0.000255478 -6.24963e-12
0.000606195 -0.000182037 -0.000181782 -1.06162e-05
0.000725082 -0.000217633 -0.000217478 -5.75091e-06
0.000848811 -0.00025467 -0.000254632 -6.21216e-12
0.000729914 -0.000219084 -0.000218927 -5.75093e-06
0.000727498 -0.000218359 -0.000218203 -5.75092e-06
0.000604182 -0.000181432 -0.000181179 -1.06162e-05
0.000600157 -0.000180222 -0.000179972 -1.06162e-05
0.000840354 -0.000252132 -0.000252095 -6.16906e-12
0.000845992 -0.000253824 -0.000253786 -6.2068e-12
0.00060217 -0.000180827 -0.000180575 -1.06162e-05
0.00072025 -0.000216182 -0.000216029 -5.75088e-06
0.000843173 -0.000252978 -0.000252941 -6.20166e-12
0.000725082 -0.000217633 -0.000217478 -5.75091e-06
0.000722666 -0.000216908 -0.000216754 -5.7509e-06
0.000600157 -0.000180222 -0.000179972 -1.06162e-05
0.000596132 -0.000179012 -0.000178765 -1.06161e-05
0.000834716 -0.00025044 -0.000250404 -6.11689e-12
0.000840354 -0.000252132 -0.000252095 -6.16906e-12
0.000598145 -0.000179617 -0.000179369 -1.06161e-05
0.000715419 -0.000214731 -0.00021458 -5.75086e-06
0.000837535 -0.000251286 -0.000251249 -6.1332e-12
0.00072025 -0.000216182 -0.000216029 -5.75088e-06
0.000717835 -0.000215457 -0.000215305 -5.75087e-06
0.000596132 -0.000179012 -0.000178765 -1.06161e-05
0.000592107 -0.000177803 -0.000177559 -1.06161e-05
0.000829077 -0.000248749 -0.000248712 -6.10052e-12
0.000834716 -0.00025044 -0.000250404 -6.11026e-12
0.000594119 -0.000178408 -0.000178162 -1.06161e-05
0.000710587 -0.00021328 -0.000213131 -5.75083e-06
0.000831896 -0.000249594 -0.000249558 -6.11146e-12
0.000715419 -0.000214731 -0.00021458 -5.75086e-06
0.000713003 -0.000214006 -0.000213856 -5.75085e-06
0.000592107 -0.000177803 -0.000177559 -1.06161e-05
0.000588081 -0.000176593 -0.000176352 -1.0616e-05
0.000823439 -0.000247057 -0.000247021 -6.03815e-12
0.000829077 -0.000248749 -0.000248712 -6.10052e-12
0.000590094 -0.000177198 -0.000176956 -1.06161e-05
0.000705755 -0.00021183 -0.000211682 -5.75081e-06
0.000826258 -0.000247903 -0.000247867 -6.07452e-12
0.000710587 -0.00021328 -0.000213131 -5.75083e-06
0.000708171 -0.000212555 -0.000212407 -5.75082e-06
0.000588081 -0.000176593 -0.000176352 -1.0616e-05
0.000584056 -0.000175383 -0.000175146 -1.0616e-05
0.000817801 -0.000245365 -0.00024533 -5.99571e-12
0.000823439 -0.000247057 -0.000247021 -6.03815e-12
0.000586069 -0.000175988 -0.000175749 -1.0616e-05
0.000700924 -0.000210379 -0.000210234 -5.75078e-06
0.00082062 -0.000246211 -0.000246175 -6.01598e-12
0.000705755 -0.00021183 -0.000211682 -5.75081e-06
0.00070334 -0.000211104 -0.000210958 -5.7508e-06
0.000584056 -0.000175383 -0.000175146 -1.0616e-05
0.000580031 -0.000174173 -0.000173939 -1.0616e-05
0.000812163 -0.000243673 -0.000243638 -5.95722e-12
0.000817801 -0.000245365 -0.00024533 -5.99604e-12
0.000582044 -0.000174778 -0.000174542 -1.0616e-05
0.000696092 -0.000208928 -0.000208785 -5.75076e-06
0.000814982 -0.000244519 -0.000244484 -5.98307e-12
0.000700924 -0.000210379 -0.000210234 -5.75078e-06
0.000698508 -0.000209653 -0.000209509 -5.75077e-06
0.000580031 -0.000174173 -0.000173939 -1.0616e-05
0.000576006 -0.000172963 -0.000172733 -1.06159e-05
0.000806524 -0.000241982 -0.000241947 -5.91356e-12
0.000812163 -0.000243673 -0.000243638 -5.95225e-12
0.000578018 -0.000173568 -0.000173336 -1.06159e-05
0.00069126 -0.000207477 -0.000207336 -5.75073e-06
0.000809344 -0.000242827 -0.000242793 -5.93064e-12
0.000696092 -0.000208928 -0.000208785 -5.75076e-06
0.000693676 -0.000208202 -0.00020806 -5.75074e-06
0.000576006 -0.000172963 -0.000172733 -1.06159e-05
0.00057198 -0.000171753 -0.000171526 -1.06159e-05
0.000800886 -0.00024029 -0.000240256 -5.86843e-12
0.000806524 -0.000241982 -0.000241947 -5.91356e-12
0.000573993 -0.000172358 -0.000172129 -1.06159e-05
0.000686429 -0.000206026 -0.000205887 -5.75071e-06
0.000803705 -0.000241136 -0.000241101 -5.89266e-12
0.00069126 -0.000207477 -0.000207336 -5.75073e-06
0.000688845 -0.000206752 -0.000206611 -5.75072e-06
0.00057198 -0.000171753 -0.000171526 -1.06159e-05
0.000567955 -0.000170544 -0.000170319 -1.06158e-05
0.000795248 -0.000238598 -0.000238564 -5.82311e-12
0.000800886 -0.00024029 -0.000240256 -5.86843e-12
0.000569968 -0.000171148 -0.000170923 -1.06159e-05
0.000681597 -0.000204575 -0.000204438 -5.75068e-06
0.000798067 -0.000239444 -0.00023941 -5.84035e-12
0.000686429 -0.000206026 -0.000205887 -5.75071e-06
0.000684013 -0.000205301 -0.000205162 -5.75069e-06
0.000567955 -0.000170544 -0.000170319 -1.06158e-05
0.00056393 -0.000169334 -0.000169113 -1.06158e-05
0.00078961 -0.000236906 -0.000236873 -5.78026e-12
0.000795248 -0.000238598 -0.000238564 -5.82978e-12
0.000565942 -0.000169939 -0.000169716 -1.06158e-05
0.000676765 -0.000203124 -0.000202989 -5.75065e-06
0.000792429 -0.000237752 -0.000237719 -5.80334e-12
0.000681597 -0.000204575 -0.000204438 -5.75068e-06
0.000679181 -0.00020385 -0.000203713 -5.75067e-06
0.00056393 -0.000169334 -0.000169113 -1.06158e-05
0.000559904 -0.000168124 -0.000167906 -1.06158e-05
0.000783972 -0.000235215 -0.000235182 -5.74581e-12
0.00078961 -0.000236906 -0.000236873 -5.78689e-12
0.000561917 -0.000168729 -0.000168509 -1.06158e-05
0.000671934 -0.000201674 -0.00020154 -5.75063e-06
0.000786791 -0.00023606 -0.000236027 -5.75971e-12
0.000676765 -0.000203124 -0.000202989 -5.75065e-06
0.000674349 -0.000202399 -0.000202264 -5.75064e-06
0.000559904 -0.000168124 -0.000167906 -1.06158e-05
0.000555879 -0.000166914 -0.000166699 -1.06157e-05
0.000778333 -0.000233523 -0.00023349 -5.69644e-12
0.000783972 -0.000235215 -0.000235182 -5.74581e-12
0.000557892 -0.000167519 -0.000167303 -1.06157e-05
0.000667102 -0.000200223 -0.000200091 -5.7506e-06
0.000781152 -0.000234369 -0.000234336 -5.72705e-12
0.000671934 -0.000201674 -0.00020154 -5.75063e-06
0.000669518 -0.000200948 -0.000200816 -5.75062e-06
0.000555879 -0.000166914 -0.000166699 -1.06157e-05
0.000551854 -0.000165704 -0.000165493 -1.06157e-05
0.000772695 -0.000231831 -0.000231799 -5.66164e-12
0.000778333 -0.000233523 -0.00023349 -5.69644e-12
0.000553866 -0.000166309 -0.000166096 -1.06157e-05
0.00066227 -0.000198772 -0.000198642 -5.75058e-06
0.000775514 -0.000232677 -0.000232645 -5.68915e-12
0.000667102 -0.000200223 -0.000200091 -5.7506e-06
0.000664686 -0.000199497 -0.000199367 -5.75059e-06
0.000551854 -0.000165704 -0.000165493 -1.06157e-05
0.000547828 -0.000164494 -0.000164286 -1.06156e-05
0.000767057 -0.000230139 -0.000230108 -5.6258e-12
0.000772695 -0.000231831 -0.000231799 -5.65332e-12
0.000549841 -0.000165099 -0.000164889 -1.06157e-05
0.000657438 -0.000197321 -0.000197193 -5.75055e-06
0.000769876 -0.000230985 -0.000230953 -5.63727e-12
0.00066227 -0.000198772 -0.000198642 -5.75058e-06
0.000659854 -0.000198047 -0.000197918 -5.75056e-06
0.000547828 -0.000164494 -0.000164286 -1.06156e-05
0.000543803 -0.000163285 -0.000163079 -1.06156e-05
0.000761419 -0.000228448 -0.000228416 -5.58852e-12
0.000767057 -0.000230139 -0.000230108 -5.62743e-12
0.000545816 -0.00016389 -0.000163683 -1.06156e-05
0.000652607 -0.00019587 -0.000195744 -5.75053e-06
0.000764238 -0.000229293 -0.000229262 -5.61453e-12
0.000657438 -0.000197321 -0.000197193 -5.75055e-06
0.000655022 -0.000196596 -0.000196469 -5.75054e-06
0.000543803 -0.000163285 -0.000163079 -1.06156e-05
0.000539777 -0.000162075 -0.000161872 -1.06155e-05
0.00075578 -0.000226756 -0.000226725 -5.53575e-12
0.000761419 -0.000228448 -0.000228416 -5.58852e-12
0.00054179 -0.00016268 -0.000162476 -1.06156e-05
0.000647775 -0.000194419 -0.000194295 -5.7505e-06
0.000758599 -0.000227602 -0.00022757 -5.56075e-12
0.000652607 -0.00019587 -0.000195744 -5.75053e-06
0.000650191 -0.000195145 -0.00019502 -5.75051e-06
0.000539777 -0.000162075 -0.000161872 -1.06155e-05
0.000535752 -0.000160865 -0.000160666 -1.06155e-05
0.000750142 -0.000225064 -0.000225033 -5.50246e-12
0.00075578 -0.000226756 -0.000226725 -5.53575e-12
0.000537765 -0.00016147 -0.000161269 -1.06155e-05
0.000642943 -0.000192969 -0.000192846 -5.75047e-06
0.000752961 -0.00022591 -0.000225879 -5.51146e-12
0.000647775 -0.000194419 -0.000194295 -5.7505e-06
0.000645359 -0.000193694 -0.000193571 -5.75049e-06
0.000535752 -0.000160865 -0.000160666 -1.06155e-05
0.000531727 -0.000159655 -0.000159459 -1.06155e-05
0.000744504 -0.000223372 -0.000223342 -5.46139e-12
0.000750142 -0.000225064 -0.000225033 -5.50446e-12
0.000533739 -0.00016026 -0.000160062 -1.06155e-05
0.000638111 -0.000191518 -0.000191397 -5.75045e-06
0.000747323 -0.000224218 -0.000224188 -5.47438e-12
0.000642943 -0.000192969 -0.000192846 -5.75047e-06
0.000640527 -0.000192243 -0.000192122 -5.75046e-06
0.000531727 -0.000159655 -0.000159459 -1.06155e-05
0.000527701 -0.000158446 -0.000158252 -1.06154e-05
0.000738866 -0.00022168 -0.000221651 -5.40876e-12
0.000744504 -0.000223372 -0.000223342 -5.45442e-12
0.000529714 -0.000159051 -0.000158856 -1.06154e-05
0.000633279 -0.000190067 -0.000189948 -5.75042e-06
0.000741685 -0.000222526 -0.000222496 -5.42927e-12
0.000638111 -0.000191518 -0.000191397 -5.75045e-06
0.000635695 -0.000190792 -0.000190673 -5.75044e-06
0.000527701 -0.000158446 -0.000158252 -1.06154e-05
0.000523676 -0.000157236 -0.000157046 -1.06154e-05
0.000733227 -0.000219989 -0.000219959 -5.36818e-12
0.000738866 -0.00022168 -0.000221651 -5.40876e-12
0.000525688 -0.000157841 -0.000157649 -1.06154e-05
0.000628448 -0.000188616 -0.000188499 -5.7504e-06
0.000736046 -0.000220835 -0.000220805 -5.38424e-12
0.000633279 -0.000190067 -0.000189948 -5.75042e-06
0.000630864 -0.000189342 -0.000189224 -5.75041e-06
0.000523676 -0.000157236 -0.000157046 -1.06154e-05
0.00051965 -0.000156026 -0.000155839 -1.06153e-05
0.000727589 -0.000218297 -0.000218268 -5.31683e-12
0.000733227 -0.000219989 -0.000219959 -5.36818e-12
0.000521663 -0.000156631 -0.000156442 -1.06154e-05
0.000623616 -0.000187165 -0.00018705 -5.75037e-06
0.000730408 -0.000219143 -0.000219114 -5.35014e-12
0.000628448 -0.000188616 -0.000188499 -5.7504e-06
0.000626032 -0.000187891 -0.000187775 -5.75038e-06
0.00051965 -0.000156026 -0.000155839 -1.06153e-05
0.000515625 -0.000154817 -0.000154632 -1.06153e-05
0.000721951 -0.000216605 -0.000216577 -5.28673e-12
0.000727589 -0.000218297 -0.000218268 -5.31557e-12
0.000517637 -0.000155421 -0.000155235 -1.06153e-05
0.000618784 -0.000185715 -0.000185601 -5.75034e-06
0.00072477 -0.000217451 -0.000217422 -5.31763e-12
0.000623616 -0.000187165 -0.00018705 -5.75037e-06
0.0006212 -0.00018644 -0.000186326 -5.75036e-06
0.000515625 -0.000154817 -0.000154632 -1.06153e-05
0.000511599 -0.000153607 -0.000153425 -1.06152e-05
0.000716313 -0.000214913 -0.000214885 -5.25648e-12
0.000721951 -0.000216605 -0.000216577 -5.28676e-12
0.000513612 -0.000154212 -0.000154029 -1.06153e-05
0.000613952 -0.000184264 -0.000184152 -5.75032e-06
0.000719132 -0.000215759 -0.000215731 -5.26507e-12
0.000618784 -0.000185715 -0.000185601 -5.75034e-06
0.000616368 -0.000184989 -0.000184877 -5.75033e-06
0.000511599 -0.000153607 -0.000153425 -1.06152e-05
0.000507573 -0.000152397 -0.000152218 -1.06152e-05
0.000710674 -0.000213222 -0.000213194 -5.20053e-12
0.000716313 -0.000214913 -0.000214885 -5.25648e-12
0.000509586 -0.000153002 -0.000152822 -1.06152e-05
0.00060912 -0.000182813 -0.000182703 -5.75029e-06
0.000713493 -0.000214068 -0.00021404 -5.2165e-12
0.000613952 -0.000184264 -0.000184152 -5.75032e-06
0.000611536 -0.000183538 -0.000183428 -5.7503e-06
0.000507573 -0.000152397 -0.000152218 -1.06152e-05
0.000503548 -0.000151187 -0.000151012 -1.06152e-05
0.000705036 -0.00021153 -0.000211503 -5.14998e-12
0.000710674 -0.000213222 -0.000213194 -5.20053e-12
0.000505561 -0.000151792 -0.000151615 -1.06152e-05
0.000604288 -0.000181362 -0.000181254 -5.75027e-06
0.000707855 -0.000212376 -0.000212348 -5.17637e-12
0.00060912 -0.000182813 -0.000182703 -5.75029e-06
0.000606704 -0.000182088 -0.000181979 -5.75028e-06
0.000503548 -0.000151187 -0.000151012 -1.06152e-05
0.000499522 -0.000149978 -0.000149805 -1.06151e-05
0.000699398 -0.000209838 -0.000209811 -5.11689e-12
0.000705036 -0.00021153 -0.000211503 -5.15034e-12
0.000501535 -0.000150583 -0.000150408 -1.06151e-05
0.000599457 -0.000179911 -0.000179805 -5.75024e-06
0.000702217 -0.000210684 -0.000210657 -5.14625e-12
0.000604288 -0.000181362 -0.000181254 -5.75027e-06
0.000601872 -0.000180637 -0.00018053 -5.75025e-06
0.000499522 -0.000149978 -0.000149805 -1.06151e-05
0.000495497 -0.000148768 -0.000148598 -1.06151e-05
0.000693759 -0.000208146 -0.00020812 -5.08469e-12
0.000699398 -0.000209838 -0.000209811 -5.14472e-12
0.00049751 -0.000149373 -0.000149201 -1.06151e-05
0.000594625 -0.000178461 -0.000178356 -5.75021e-06
0.000696579 -0.000208992 -0.000208966 -5.09383e-12
0.000599457 -0.000179911 -0.000179805 -5.75024e-06
0.000597041 -0.000179186 -0.000179081 -5.75023e-06
0.000495497 -0.000148768 -0.000148598 -1.06151e-05
0.000491471 -0.000147558 -0.000147391 -1.0615e-05
0.000688121 -0.000206455 -0.000206429 -5.03881e-12
0.000693759 -0.000208146 -0.00020812 -5.08469e-12
0.000493484 -0.000148163 -0.000147995 -1.06151e-05
0.000589793 -0.00017701 -0.000176907 -5.75019e-06
0.00069094 -0.0002073 -0.000207274 -5.09073e-12
0.000594625 -0.000178461 -0.000178356 -5.75021e-06
0.000592209 -0.000177735 -0.000177631 -5.7502e-06
0.000491471 -0.000147558 -0.000147391 -1.0615e-05
0.000487445 -0.000146349 -0.000146184 -1.0615e-05
0.000682483 -0.000204763 -0.000204737 -4.99109e-12
0.000688121 -0.000206455 -0.000206429 -5.03881e-12
0.000489458 -0.000146954 -0.000146788 -1.0615e-05
0.000584961 -0.000175559 -0.000175458 -5.75016e-06
0.000685302 -0.000205609 -0.000205583 -5.02224e-12
0.000589793 -0.00017701 -0.000176907 -5.75019e-06
0.000587377 -0.000176285 -0.000176182 -5.75017e-06
0.000487445 -0.000146349 -0.000146184 -1.0615e-05
0.00048342 -0.000145139 -0.000144977 -1.06149e-05
0.000676845 -0.000203071 -0.000203046 -4.9516e-12
0.000682483 -0.000204763 -0.000204737 -4.99937e-12
0.000485433 -0.000145744 -0.000145581 -1.0615e-05
0.000580129 -0.000174108 -0.000174009 -5.75013e-06
0.000679664 -0.000203917 -0.000203891 -4.96788e-12
0.000584961 -0.000175559 -0.000175458 -5.75016e-06
0.000582545 -0.000174834 -0.000174733 -5.75015e-06
0.00048342 -0.000145139 -0.000144977 -1.06149e-05
0.000479394 -0.00014393 -0.000143771 -1.06149e-05
0.000671206 -0.000201379 -0.000201354 -4.89642e-12
0.000676845 -0.000203071 -0.000203046 -4.95133e-12
0.000481407 -0.000144534 -0.000144374 -1.06149e-05
0.000575297 -0.000172658 -0.00017256 -5.75011e-06
0.000674025 -0.000202225 -0.0002022 -4.91559e-12
0.000580129 -0.000174108 -0.000174009 -5.75013e-06
0.000577713 -0.000173383 -0.000173284 -5.75012e-06
0.000479394 -0.00014393 -0.000143771 -1.06149e-05
0.000475369 -0.00014272 -0.000142564 -1.06149e-05
0.000665568 -0.000199687 -0.000199663 -4.85375e-12
0.000671206 -0.000201379 -0.000201354 -4.89642e-12
0.000477381 -0.000143325 -0.000143167 -1.06149e-05
0.000570465 -0.000171207 -0.000171111 -5.75008e-06
0.000668387 -0.000200533 -0.000200509 -4.88644e-12
0.000575297 -0.000172658 -0.00017256 -5.75011e-06
0.000572881 -0.000171932 -0.000171835 -5.75009e-06
0.000475369 -0.00014272 -0.000142564 -1.06149e-05
0.000471343 -0.00014151 -0.000141357 -1.06148e-05
0.00065993 -0.000197996 -0.000197972 -4.81757e-12
0.000665568 -0.000199687 -0.000199663 -4.85375e-12
0.000473356 -0.000142115 -0.00014196 -1.06148e-05
0.000565633 -0.000169756 -0.000169662 -5.75006e-06
0.000662749 -0.000198842 -0.000198817 -4.84116e-12
0.000570465 -0.000171207 -0.000171111 -5.75008e-06
0.000568049 -0.000170481 -0.000170386 -5.75007e-06
0.000471343 -0.00014151 -0.000141357 -1.06148e-05
0.000467317 -0.000140301 -0.00014015 -1.06148e-05
0.000654291 -0.000196304 -0.00019628 -4.7811e-12
0.00065993 -0.000197996 -0.000197972 -4.82457e-12
0.00046933 -0.000140905 -0.000140753 -1.06148e-05
0.000560801 -0.000168305 -0.000168213 -5.75003e-06
0.000657111 -0.00019715 -0.000197126 -4.81685e-12
0.000565633 -0.000169756 -0.000169662 -5.75006e-06
0.000563217 -0.000169031 -0.000168937 -5.75004e-06
0.000467317 -0.000140301 -0.00014015 -1.06148e-05
0.000463291 -0.000139091 -0.000138943 -1.06147e-05
0.000648653 -0.000194612 -0.000194589 -4.7347e-12
0.000654291 -0.000196304 -0.00019628 -4.78904e-12
0.000465304 -0.000139696 -0.000139546 -1.06148e-05
0.000555969 -0.000166855 -0.000166763 -5.75e-06
0.000651472 -0.000195458 -0.000195435 -4.76535e-12
0.000560801 -0.000168305 -0.000168213 -5.75003e-06
0.000558385 -0.00016758 -0.000167488 -5.75002e-06
0.000463291 -0.000139091 -0.000138943 -1.06147e-05
0.000459266 -0.000137882 -0.000137736 -1.06147e-05
0.000643015 -0.00019292 -0.000192898 -4.70897e-12
0.000648653 -0.000194612 -0.000194589 -4.7347e-12
0.000461279 -0.000138486 -0.00013834 -1.06147e-05
0.000551137 -0.000165404 -0.000165314 -5.74998e-06
0.000645834 -0.000193766 -0.000193743 -4.71918e-12
0.000555969 -0.000166855 -0.000166763 -5.75e-06
0.000553553 -0.000166129 -0.000166039 -5.74999e-06
0.000459266 -0.000137882 -0.000137736 -1.06147e-05
0.00045524 -0.000136672 -0.000136529 -1.06146e-05
0.000637377 -0.000191229 -0.000191206 -4.66137e-12
0.000643015 -0.00019292 -0.000192898 -4.70897e-12
0.000457253 -0.000137277 -0.000137133 -1.06147e-05
0.000546305 -0.000163953 -0.000163865 -5.74995e-06
0.000640196 -0.000192074 -0.000192052 -4.68743e-12
0.000551137 -0.000165404 -0.000165314 -5.74998e-06
0.000548721 -0.000164679 -0.00016459 -5.74996e-06
0.00045524 -0.000136672 -0.000136529 -1.06146e-05
0.000451214 -0.000135462 -0.000135322 -1.06146e-05
0.000631738 -0.000189537 -0.000189515 -4.62994e-12
0.000637377 -0.000191229 -0.000191206 -4.66803e-12
0.000453227 -0.000136067 -0.000135926 -1.06146e-05
0.000541473 -0.000162502 -0.000162416 -5.74992e-06
0.000634557 -0.000190383 -0.000190361 -4.63111e-12
0.000546305 -0.000163953 -0.000163865 -5.74995e-06
0.000543889 -0.000163228 -0.000163141 -5.74994e-06
0.000451214 -0.000135462 -0.000135322 -1.06146e-05
0.000447188 -0.000134253 -0.000134115 -1.06146e-05
0.0006261 -0.000187845 -0.000187824 -4.5869e-12
0.000631738 -0.000189537 -0.000189515 -4.6179e-12
0.000449201 -0.000134858 -0.000134719 -1.06146e-05
0.000536641 -0.000161052 -0.000160967 -5.7499e-06
0.000628919 -0.000188691 -0.000188669 -4.59155e-12
0.000541473 -0.000162502 -0.000162416 -5.74992e-06
0.000539057 -0.000161777 -0.000161692 -5.74991e-06
0.000447188 -0.000134253 -0.000134115 -1.06146e-05
0.000443163 -0.000133043 -0.000132908 -1.06145e-05
0.000620462 -0.000186153 -0.000186132 -4.54881e-12
0.0006261 -0.000187845 -0.000187824 -4.5869e-12
0.000445175 -0.000133648 -0.000133512 -1.06145e-05
0.000531809 -0.000159601 -0.000159518 -5.74987e-06
0.000623281 -0.000186999 -0.000186978 -4.57061e-12
0.000536641 -0.000161052 -0.000160967 -5.7499e-06
0.000534225 -0.000160326 -0.000160242 -5.74988e-06
0.000443163 -0.000133043 -0.000132908 -1.06145e-05
0.000439137 -0.000131834 -0.000131701 -1.06145e-05
0.000614823 -0.000184461 -0.000184441 -4.50789e-12
0.000620462 -0.000186153 -0.000186132 -4.54881e-12
0.00044115 -0.000132439 -0.000132305 -1.06145e-05
0.000526977 -0.00015815 -0.000158069 -5.74985e-06
0.000617642 -0.000185307 -0.000185286 -4.53426e-12
0.000531809 -0.000159601 -0.000159518 -5.74987e-06
0.000529393 -0.000158876 -0.000158793 -5.74986e-06
0.000439137 -0.000131834 -0.000131701 -1.06145e-05
0.000435111 -0.000130624 -0.000130494 -1.06144e-05
0.000609185 -0.00018277 -0.000182749 -4.47027e-12
0.000614823 -0.000184461 -0.000184441 -4.50794e-12
0.000437124 -0.000131229 -0.000131098 -1.06145e-05
0.000522145 -0.0001567 -0.00015662 -5.74982e-06
0.000612004 -0.000183616 -0.000183595 -4.4876e-12
0.000526977 -0.00015815 -0.000158069 -5.74985e-06
0.000524561 -0.000157425 -0.000157344 -5.74983e-06
0.000435111 -0.000130624 -0.000130494 -1.06144e-05
0.000431085 -0.000129415 -0.000129287 -1.06144e-05
0.000603547 -0.000181078 -0.000181058 -4.43127e-12
0.000609185 -0.00018277 -0.000182749 -4.47691e-12
0.000433098 -0.000130019 -0.000129891 -1.06144e-05
0.000517313 -0.000155249 -0.00015517 -5.74979e-06
0.000606366 -0.000181924 -0.000181904 -4.43278e-12
0.000522145 -0.0001567 -0.00015662 -5.74982e-06
0.000519729 -0.000155974 -0.000155895 -5.74981e-06
0.000431085 -0.000129415 -0.000129287 -1.06144e-05
0.000427059 -0.000128205 -0.00012808 -1.06143e-05
0.000597908 -0.000179386 -0.000179367 -4.37894e-12
0.000603547 -0.000181078 -0.000181058 -4.43127e-12
0.000429072 -0.00012881 -0.000128684 -1.06144e-05
0.000512481 -0.000153798 -0.000153721 -5.74977e-06
0.000600727 -0.000180232 -0.000180212 -4.42021e-12
0.000517313 -0.000155249 -0.00015517 -5.74979e-06
0.000514897 -0.000154524 -0.000154446 -5.74978e-06
0.000427059 -0.000128205 -0.00012808 -1.06143e-05
0.000423033 -0.000126996 -0.000126873 -1.06143e-05
0.00059227 -0.000177694 -0.000177675 -4.34832e-12
0.000597908 -0.000179386 -0.000179367 -4.37894e-12
0.000425046 -0.0001276 -0.000127477 -1.06143e-05
0.000507649 -0.000152347 -0.000152272 -5.74974e-06
0.000595089 -0.00017854 -0.000178521 -4.37296e-12
0.000512481 -0.000153798 -0.000153721 -5.74977e-06
0.000510065 -0.000153073 -0.000152997 -5.74975e-06
0.000423033 -0.000126996 -0.000126873 -1.06143e-05
0.000419007 -0.000125786 -0.000125666 -1.06143e-05
0.000586632 -0.000176002 -0.000175984 -4.3068e-12
0.00059227 -0.000177694 -0.000177675 -4.32703e-12
0.00042102 -0.000126391 -0.00012627 -1.06143e-05
0.000502817 -0.000150897 -0.000150823 -5.74971e-06
0.000589451 -0.000176848 -0.00017683 -4.31962e-12
0.000507649 -0.000152347 -0.000152272 -5.74974e-06
0.000505233 -0.000151622 -0.000151548 -5.74973e-06
0.000419007 -0.000125786 -0.000125666 -1.06143e-05
0.000414981 -0.000124577 -0.000124459 -1.06142e-05
0.000580993 -0.000174311 -0.000174293 -4.262e-12
0.000586632 -0.000176002 -0.000175984 -4.30848e-12
0.000416994 -0.000125181 -0.000125063 -1.06142e-05
0.000497985 -0.000149446 -0.000149374 -5.74969e-06
0.000583812 -0.000175157 -0.000175138 -4.27535e-12
0.000502817 -0.000150897 -0.000150823 -5.74971e-06
0.000500401 -0.000150171 -0.000150098 -5.7497e-06
0.000414981 -0.000124577 -0.000124459 -1.06142e-05
0.000410956 -0.000123367 -0.000123252 -1.06142e-05
0.000575355 -0.000172619 -0.000172601 -4.21777e-12
0.000580993 -0.000174311 -0.000174293 -4.262e-12
0.000412968 -0.000123972 -0.000123856 -1.06142e-05
0.000493153 -0.000147995 -0.000147925 -5.74966e-06
0.000578174 -0.000173465 -0.000173447 -4.25182e-12
0.000497985 -0.000149446 -0.000149374 -5.74969e-06
0.000495569 -0.000148721 -0.000148649 -5.74967e-06
0.000410956 -0.000123367 -0.000123252 -1.06142e-05
0.00040693 -0.000122158 -0.000122045 -1.06141e-05
0.000569717 -0.000170927 -0.00017091 -4.19512e-12
0.000575355 -0.000172619 -0.000172601 -4.21777e-12
0.000408943 -0.000122763 -0.000122649 -1.06142e-05
0.000488321 -0.000146545 -0.000146475 -5.74964e-06
0.000572536 -0.000171773 -0.000171755 -4.19927e-12
0.000493153 -0.000147995 -0.000147925 -5.74966e-06
0.000490737 -0.00014727 -0.0001472 -5.74965e-06
0.00040693 -0.000122158 -0.000122045 -1.06141e-05
0.000402904 -0.000120948 -0.000120838 -1.06141e-05
0.000564078 -0.000169235 -0.000169218 -4.14376e-12
0.000569717 -0.000170927 -0.00017091 -4.16855e-12
0.000404917 -0.000121553 -0.000121442 -1.06141e-05
0.000483489 -0.000145094 -0.000145026 -5.74961e-06
0.000566897 -0.000170081 -0.000170064 -4.14767e-12
0.000488321 -0.000146545 -0.000146475 -5.74964e-06
0.000485905 -0.000145819 -0.000145751 -5.74962e-06
0.000402904 -0.000120948 -0.000120838 -1.06141e-05
0.000398878 -0.000119739 -0.000119631 -1.06141e-05
0.00055844 -0.000167543 -0.000167527 -4.10694e-12
0.000564078 -0.000169235 -0.000169218 -4.15075e-12
0.000400891 -0.000120344 -0.000120234 -1.06141e-05
0.000478657 -0.000143643 -0.000143577 -5.74958e-06
0.000561259 -0.000168389 -0.000168373 -4.11654e-12
0.000483489 -0.000145094 -0.000145026 -5.74961e-06
0.000481073 -0.000144369 -0.000144302 -5.7496e-06
0.000398878 -0.000119739 -0.000119631 -1.06141e-05
0.000394852 -0.000118529 -0.000118424 -1.0614e-05
0.000552802 -0.000165852 -0.000165836 -4.06152e-12
0.00055844 -0.000167543 -0.000167527 -4.10694e-12
0.000396865 -0.000119134 -0.000119027 -1.0614e-05
0.000473824 -0.000142193 -0.000142128 -5.74956e-06
0.000555621 -0.000166698 -0.000166681 -4.07611e-12
0.000478657 -0.000143643 -0.000143577 -5.74958e-06
0.00047624 -0.000142918 -0.000142852 -5.74957e-06
0.000394852 -0.000118529 -0.000118424 -1.0614e-05
0.000390826 -0.00011732 -0.000117217 -1.0614e-05
0.000547163 -0.00016416 -0.000164144 -4.01482e-12
0.000552802 -0.000165852 -0.000165836 -4.06152e-12
0.000392839 -0.000117925 -0.00011782 -1.0614e-05
0.000468992 -0.000140742 -0.000140679 -5.74953e-06
0.000549982 -0.000165006 -0.00016499 -4.03495e-12
0.000473824 -0.000142193 -0.000142128 -5.74956e-06
0.000471408 -0.000141467 -0.000141403 -5.74954e-06
0.000390826 -0.00011732 -0.000117217 -1.0614e-05
0.0003868 -0.000116111 -0.00011601 -1.06139e-05
0.000541525 -0.000162468 -0.000162453 -3.99069e-12
0.000547163 -0.00016416 -0.000164144 -4.02769e-12
0.000388813 -0.000116715 -0.000116613 -1.06139e-05
0.00046416 -0.000139291 -0.000139229 -5.7495e-06
0.000544344 -0.000163314 -0.000163299 -4.02047e-12
0.000468992 -0.000140742 -0.000140679 -5.74953e-06
0.000466576 -0.000140017 -0.000139954 -5.74952e-06
0.0003868 -0.000116111 -0.00011601 -1.06139e-05
0.000382774 -0.000114901 -0.000114802 -1.06139e-05
0.000535887 -0.000160776 -0.000160762 -3.95534e-12
0.000541525 -0.000162468 -0.000162453 -3.99072e-12
0.000384787 -0.000115506 -0.000115406 -1.06139e-05
0.000459328 -0.000137841 -0.00013778 -5.74948e-06
0.000538706 -0.000161622 -0.000161607 -3.95707e-12
0.00046416 -0.000139291 -0.000139229 -5.7495e-06
0.000461744 -0.000138566 -0.000138505 -5.74949e-06
0.000382774 -0.000114901 -0.000114802 -1.06139e-05
0.000378747 -0.000113692 -0.000113595 -1.06138e-05
0.000530248 -0.000159085 -0.00015907 -3.91095e-12
0.000535887 -0.000160776 -0.000160762 -3.95534e-12
0.00038076 -0.000114297 -0.000114199 -1.06139e-05
0.000454496 -0.00013639 -0.000136331 -5.74945e-06
0.000533067 -0.00015993 -0.000159916 -3.94515e-12
0.000459328 -0.000137841 -0.00013778 -5.74948e-06
0.000456912 -0.000137115 -0.000137056 -5.74947e-06
0.000378747 -0.000113692 -0.000113595 -1.06138e-05
0.000374721 -0.000112482 -0.000112388 -1.06138e-05
0.00052461 -0.000157393 -0.000157379 -3.87835e-12
0.000530248 -0.000159085 -0.00015907 -3.91095e-12
0.000376734 -0.000113087 -0.000112992 -1.06138e-05
0.000449664 -0.00013494 -0.000134882 -5.74943e-06
0.000527429 -0.000158239 -0.000158224 -3.88964e-12
0.000454496 -0.00013639 -0.000136331 -5.74945e-06
0.00045208 -0.000135665 -0.000135606 -5.74944e-06
0.000374721 -0.000112482 -0.000112388 -1.06138e-05
0.000370695 -0.000111273 -0.000111181 -1.06138e-05
0.000518971 -0.000155701 -0.000155687 -3.7782e-12
0.00052461 -0.000157393 -0.000157379 -3.87835e-12
0.000372708 -0.000111878 -0.000111785 -1.06138e-05
0.000444831 -0.000133489 -0.000133432 -5.7494e-06
0.000521791 -0.000156547 -0.000156533 -3.84616e-12
0.000449664 -0.00013494 -0.000134882 -5.74943e-06
0.000447248 -0.000134214 -0.000134157 -5.74941e-06
0.000370695 -0.000111273 -0.000111181 -1.06138e-05
0.000366669 -0.000110064 -0.000109974 -1.06137e-05
0.000513333 -0.000154009 -0.000153996 -3.75384e-12
0.000518971 -0.000155701 -0.000155687 -3.80436e-12
0.000368682 -0.000110668 -0.000110577 -1.06137e-05
0.000439999 -0.000132038 -0.000131983 -5.74938e-06
0.000516152 -0.000154855 -0.000154842 -3.78747e-12
0.000444831 -0.000133489 -0.000133432 -5.7494e-06
0.000442415 -0.000132764 -0.000132708 -5.74939e-06
0.000366669 -0.000110064 -0.000109974 -1.06137e-05
0.000362643 -0.000108854 -0.000108767 -1.06137e-05
0.000507695 -0.000152317 -0.000152305 -3.7114e-12
0.000513333 -0.000154009 -0.000153996 -3.75384e-12
0.000364656 -0.000109459 -0.00010937 -1.06137e-05
0.000435167 -0.000130588 -0.000130534 -5.74935e-06
0.000510514 -0.000153163 -0.00015315 -3.7564e-12
0.000439999 -0.000132038 -0.000131983 -5.74938e-06
0.000437583 -0.000131313 -0.000131259 -5.74936e-06
0.000362643 -0.000108854 -0.000108767 -1.06137e-05
0.000358617 -0.000107645 -0.000107559 -1.06136e-05
0.000502056 -0.000150626 -0.000150613 -3.68037e-12
0.000507695 -0.000152317 -0.000152305 -3.7114e-12
0.00036063 -0.00010825 -0.000108163 -1.06137e-05
0.000430335 -0.000129137 -0.000129085 -5.74932e-06
0.000504875 -0.000151471 -0.000151459 -3.69705e-12
0.000435167 -0.000130588 -0.000130534 -5.74935e-06
0.000432751 -0.000129862 -0.000129809 -5.74934e-06
0.000358617 -0.000107645 -0.000107559 -1.06136e-05
0.000354591 -0.000106436 -0.000106352 -1.06136e-05
0.000496418 -0.000148934 -0.000148922 -3.63561e-12
0.000502056 -0.000150626 -0.000150613 -3.67969e-12
0.000356604 -0.00010704 -0.000106956 -1.06136e-05
0.000425503 -0.000127686 -0.000127635 -5.7493e-06
0.000499237 -0.00014978 -0.000149767 -3.6583e-12
0.000430335 -0.000129137 -0.000129085 -5.74932e-06
0.000427919 -0.000128412 -0.00012836 -5.74931e-06
0.000354591 -0.000106436 -0.000106352 -1.06136e-05
0.000350565 -0.000105226 -0.000105145 -1.06135e-05
0.00049078 -0.000147242 -0.00014723 -3.60857e-12
0.000496418 -0.000148934 -0.000148922 -3.63588e-12
0.000352578 -0.000105831 -0.000105749 -1.06136e-05
0.00042067 -0.000126236 -0.000126186 -5.74927e-06
0.000493599 -0.000148088 -0.000148076 -3.63396e-12
0.000425503 -0.000127686 -0.000127635 -5.7493e-06
0.000423086 -0.000126961 -0.000126911 -5.74929e-06
0.000350565 -0.000105226 -0.000105145 -1.06135e-05
0.000346538 -0.000104017 -0.000103938 -1.06135e-05
0.000485141 -0.00014555 -0.000145539 -3.56581e-12
0.00049078 -0.000147242 -0.00014723 -3.60857e-12
0.000348551 -0.000104622 -0.000104541 -1.06135e-05
0.000415838 -0.000124785 -0.000124737 -5.74925e-06
0.00048796 -0.000146396 -0.000146385 -3.59137e-12
0.00042067 -0.000126236 -0.000126186 -5.74927e-06
0.000418254 -0.000125511 -0.000125462 -5.74926e-06
0.000346538 -0.000104017 -0.000103938 -1.06135e-05
0.000342512 -0.000102808 -0.00010273 -1.06135e-05
0.000479503 -0.000143858 -0.000143848 -3.51098e-12
0.000485141 -0.00014555 -0.000145539 -3.56581e-12
0.000344525 -0.000103412 -0.000103334 -1.06135e-05
0.000411006 -0.000123335 -0.000123288 -5.74922e-06
0.000482322 -0.000144704 -0.000144693 -3.52969e-12
0.000415838 -0.000124785 -0.000124737 -5.74925e-06
0.000413422 -0.00012406 -0.000124012 -5.74923e-06
0.000342512 -0.000102808 -0.00010273 -1.06135e-05
0.000338486 -0.000101598 -0.000101523 -1.06134e-05
0.000473864 -0.000142166 -0.000142156 -3.49836e-12
0.000479503 -0.000143858 -0.000143848 -3.5109e-12
0.000340499 -0.000102203 -0.000102127 -1.06134e-05
0.000406173 -0.000121884 -0.000121838 -5.7492e-06
0.000476684 -0.000143012 -0.000143002 -3.50732e-12
0.000411006 -0.000123335 -0.000123288 -5.74922e-06
0.00040859 -0.000122609 -0.000122563 -5.74921e-06
0.000338486 -0.000101598 -0.000101523 -1.06134e-05
0.00033446 -0.000100389 -0.000100316 -1.06134e-05
0.000468226 -0.000140475 -0.000140465 -3.46867e-12
0.000473864 -0.000142166 -0.000142156 -3.48509e-12
0.000336473 -0.000100994 -0.00010092 -1.06134e-05
0.000401341 -0.000120433 -0.000120389 -5.74917e-06
0.000471045 -0.000141321 -0.000141311 -3.47202e-12
0.000406173 -0.000121884 -0.000121838 -5.7492e-06
0.000403757 -0.000121159 -0.000121114 -5.74918e-06
0.00033446 -0.000100389 -0.000100316 -1.06134e-05
0.000330433 -9.91798e-05 -9.91087e-05 -1.06133e-05
0.000462587 -0.000138783 -0.000138773 -3.39796e-12
0.000468226 -0.000140475 -0.000140465 -3.46867e-12
0.000332447 -9.97845e-05 -9.97123e-05 -1.06134e-05
0.000396509 -0.000118983 -0.00011894 -5.74914e-06
0.000465407 -0.000139629 -0.000139619 -3.41845e-12
0.000401341 -0.000120433 -0.000120389 -5.74917e-06
0.000398925 -0.000119708 -0.000119664 -5.74916e-06
0.000330433 -9.91798e-05 -9.91087e-05 -1.06133e-05
0.000326407 -9.79706e-05 -9.79014e-05 -1.06133e-05
0.000456949 -0.000137091 -0.000137082 -3.35971e-12
0.000462587 -0.000138783 -0.000138773 -3.39796e-12
0.00032842 -9.85752e-05 -9.8505e-05 -1.06133e-05
0.000391677 -0.000117532 -0.00011749 -5.74912e-06
0.000459768 -0.000137937 -0.000137928 -3.37436e-12
0.000396509 -0.000118983 -0.00011894 -5.74914e-06
0.000394093 -0.000118258 -0.000118215 -5.74913e-06
0.000326407 -9.79706e-05 -9.79014e-05 -1.06133e-05
0.000322381 -9.67613e-05 -9.66941e-05 -1.06133e-05
0.000451311 -0.000135399 -0.000135391 -3.33167e-12
0.000456949 -0.000137091 -0.000137082 -3.35612e-12
0.000324394 -9.73659e-05 -9.72977e-05 -1.06133e-05
0.000386844 -0.000116082 -0.000116041 -5.74909e-06
0.00045413 -0.000136245 -0.000136236 -3.34992e-12
0.000391677 -0.000117532 -0.00011749 -5.74912e-06
0.00038926 -0.000116807 -0.000116766 -5.74911e-06
0.000322381 -9.67613e-05 -9.66941e-05 -1.06133e-05
0.000318354 -9.55521e-05 -9.54867e-05 -1.06132e-05
0.000445672 -0.000133707 -0.000133699 -3.30389e-12
0.000451311 -0.000135399 -0.000135391 -3.33176e-12
0.000320368 -9.61567e-05 -9.60904e-05 -1.06132e-05
0.000382012 -0.000114631 -0.000114592 -5.74907e-06
0.000448491 -0.000134553 -0.000134545 -3.30234e-12
0.000386844 -0.000116082 -0.000116041 -5.74909e-06
0.000384428 -0.000115356 -0.000115316 -5.74908e-06
0.000318354 -9.55521e-05 -9.54867e-05 -1.06132e-05
0.000314328 -9.43428e-05 -9.42794e-05 -1.06132e-05
0.000440034 -0.000132016 -0.000132008 -3.24917e-12
0.000445672 -0.000133707 -0.000133699 -3.30389e-12
0.000316341 -9.49474e-05 -9.48831e-05 -1.06132e-05
0.00037718 -0.000113181 -0.000113142 -5.74904e-06
0.000442853 -0.000132862 -0.000132853 -3.28386e-12
0.000382012 -0.000114631 -0.000114592 -5.74907e-06
0.000379596 -0.000113906 -0.000113867 -5.74906e-06
0.000314328 -9.43428e-05 -9.42794e-05 -1.06132e-05
0.000310302 -9.31336e-05 -9.30721e-05 -1.06131e-05
0.000434395 -0.000130324 -0.000130316 -3.19467e-12
0.000440034 -0.000132016 -0.000132008 -3.24917e-12
0.000312315 -9.37382e-05 -9.36758e-05 -1.06132e-05
0.000372347 -0.00011173 -0.000111693 -5.74902e-06
0.000437215 -0.00013117 -0.000131162 -3.23299e-12
0.00037718 -0.000113181 -0.000113142 -5.74904e-06
0.000374763 -0.000112455 -0.000112418 -5.74903e-06
0.000310302 -9.31336e-05 -9.30721e-05 -1.06131e-05
0.000306275 -9.19244e-05 -9.18647e-05 -1.06131e-05
0.000428757 -0.000128632 -0.000128625 -3.17613e-12
0.000434395 -0.000130324 -0.000130316 -3.19511e-12
0.000308289 -9.2529e-05 -9.24684e-05 -1.06131e-05
0.000367515 -0.00011028 -0.000110244 -5.74899e-06
0.000431576 -0.000129478 -0.000129471 -3.19667e-12
0.000372347 -0.00011173 -0.000111693 -5.74902e-06
0.000369931 -0.000111005 -0.000110968 -5.74901e-06
0.000306275 -9.19244e-05 -9.18647e-05 -1.06131e-05
0.000302249 -9.07152e-05 -9.06574e-05 -1.06131e-05
0.000423119 -0.00012694 -0.000126934 -3.11005e-12
0.000428757 -0.000128632 -0.000128625 -3.13889e-12
0.000304262 -9.13198e-05 -9.12611e-05 -1.06131e-05
0.000362682 -0.000108829 -0.000108794 -5.74897e-06
0.000425938 -0.000127786 -0.000127779 -3.1338e-12
0.000367515 -0.00011028 -0.000110244 -5.74899e-06
0.000365099 -0.000109554 -0.000109519 -5.74898e-06
0.000302249 -9.07152e-05 -9.06574e-05 -1.06131e-05
0.000298223 -8.9506e-05 -8.945e-05 -1.0613e-05
0.00041748 -0.000125248 -0.000125242 -3.0809e-12
0.000423119 -0.00012694 -0.000126934 -3.11005e-12
0.000300236 -9.01106e-05 -9.00537e-05 -1.0613e-05
0.00035785 -0.000107378 -0.000107345 -5.74894e-06
0.000420299 -0.000126094 -0.000126088 -3.10875e-12
0.000362682 -0.000108829 -0.000108794 -5.74897e-06
0.000360266 -0.000108104 -0.00010807 -5.74895e-06
0.000298223 -8.9506e-05 -8.945e-05 -1.0613e-05
0.000294196 -8.82968e-05 -8.82426e-05 -1.0613e-05
0.000411842 -0.000123557 -0.000123551 -3.05487e-12
0.00041748 -0.000125248 -0.000125242 -3.0809e-12
0.000296209 -8.89014e-05 -8.88463e-05 -1.0613e-05
0.000353018 -0.000105928 -0.000105896 -5.74892e-06
0.000414661 -0.000124403 -0.000124396 -3.09044e-12
0.00035785 -0.000107378 -0.000107345 -5.74894e-06
0.000355434 -0.000106653 -0.00010662 -5.74893e-06
0.000294196 -8.82968e-05 -8.82426e-05 -1.0613e-05
0.00029017 -8.70876e-05 -8.70352e-05 -1.06129e-05
0.000406203 -0.000121865 -0.000121859 -3.01842e-12
0.000411842 -0.000123557 -0.000123551 -3.05463e-12
0.000292183 -8.76922e-05 -8.76389e-05 -1.06129e-05
0.000348185 -0.000104477 -0.000104446 -5.74889e-06
0.000409022 -0.000122711 -0.000122705 -3.02193e-12
0.000353018 -0.000105928 -0.000105896 -5.74892e-06
0.000350601 -0.000105203 -0.000105171 -5.7489e-06
0.00029017 -8.70876e-05 -8.70352e-05 -1.06129e-05
0.000286143 -8.58784e-05 -8.58278e-05 -1.06129e-05
0.000400565 -0.000120173 -0.000120168 -2.9949e-12
0.000406203 -0.000121865 -0.000121859 -3.01842e-12
0.000288157 -8.6483e-05 -8.64315e-05 -1.06129e-05
0.000343353 -0.000103027 -0.000102997 -5.74887e-06
0.000403384 -0.000121019 -0.000121014 -3.0016e-12
0.000348185 -0.000104477 -0.000104446 -5.74889e-06
0.000345769 -0.000103752 -0.000103722 -5.74888e-06
0.000286143 -8.58784e-05 -8.58278e-05 -1.06129e-05
0.000282117 -8.46692e-05 -8.46204e-05 -1.06128e-05
0.000394926 -0.000118481 -0.000118476 -2.93582e-12
0.000400565 -0.000120173 -0.000120168 -2.9949e-12
0.00028413 -8.52738e-05 -8.52241e-05 -1.06129e-05
0.00033852 -0.000101576 -0.000101547 -5.74884e-06
0.000397745 -0.000119327 -0.000119322 -2.93897e-12
0.000343353 -0.000103027 -0.000102997 -5.74887e-06
0.000340937 -0.000102302 -0.000102272 -5.74886e-06
0.000282117 -8.46692e-05 -8.46204e-05 -1.06128e-05
0.00027809 -8.34601e-05 -8.3413e-05 -1.06128e-05
0.000389288 -0.000116789 -0.000116785 -2.89597e-12
0.000394926 -0.000118481 -0.000118476 -2.93582e-12
0.000280104 -8.40647e-05 -8.40167e-05 -1.06128e-05
0.000333688 -0.000100126 -0.000100098 -5.74882e-06
0.000392107 -0.000117635 -0.000117631 -2.89581e-12
0.00033852 -0.000101576 -0.000101547 -5.74884e-06
0.000336104 -0.000100851 -0.000100823 -5.74883e-06
0.00027809 -8.34601e-05 -8.3413e-05 -1.06128e-05
0.000274064 -8.22509e-05 -8.22055e-05 -1.06128e-05
0.000383649 -0.000115098 -0.000115094 -2.83437e-12
0.000389288 -0.000116789 -0.000116785 -2.89632e-12
0.000276077 -8.28555e-05 -8.28092e-05 -1.06128e-05
0.000328856 -9.86753e-05 -9.86487e-05 -5.74879e-06
0.000386469 -0.000115943 -0.000115939 -2.86231e-12
0.000333688 -0.000100126 -0.000100098 -5.74882e-06
0.000331272 -9.94005e-05 -9.93734e-05 -5.74881e-06
0.000274064 -8.22509e-05 -8.22055e-05 -1.06128e-05
0.000270037 -8.10418e-05 -8.09981e-05 -1.06127e-05
0.000378011 -0.000113406 -0.000113402 -2.79932e-12
0.000383649 -0.000115098 -0.000115094 -2.81759e-12
0.000272051 -8.16464e-05 -8.16018e-05 -1.06127e-05
0.000324023 -9.72248e-05 -9.71992e-05 -5.74877e-06
0.00038083 -0.000114252 -0.000114248 -2.83512e-12
0.000328856 -9.86753e-05 -9.86487e-05 -5.74879e-06
0.000326439 -9.795e-05 -9.7924e-05 -5.74878e-06
0.000270037 -8.10418e-05 -8.09981e-05 -1.06127e-05
0.000266011 -7.98327e-05 -7.97906e-05 -1.06127e-05
0.000372372 -0.000111714 -0.000111711 -2.77131e-12
0.000378011 -0.000113406 -0.000113402 -2.79932e-12
0.000268024 -8.04373e-05 -8.03943e-05 -1.06127e-05
0.000319191 -9.57743e-05 -9.57498e-05 -5.74874e-06
0.000375192 -0.00011256 -0.000112556 -2.7775e-12
0.000324023 -9.72248e-05 -9.71992e-05 -5.74877e-06
0.000321607 -9.64995e-05 -9.64745e-05 -5.74876e-06
0.000266011 -7.98327e-05 -7.97906e-05 -1.06127e-05
0.000261984 -7.86236e-05 -7.85831e-05 -1.06127e-05
0.000366734 -0.000110022 -0.000110019 -2.72578e-12
0.000372372 -0.000111714 -0.000111711 -2.77131e-12
0.000263997 -7.92281e-05 -7.91869e-05 -1.06127e-05
0.000314358 -9.43238e-05 -9.43004e-05 -5.74872e-06
0.000369553 -0.000110868 -0.000110865 -2.74759e-12
0.000319191 -9.57743e-05 -9.57498e-05 -5.74874e-06
0.000316774 -9.5049e-05 -9.50251e-05 -5.74873e-06
0.000261984 -7.86236e-05 -7.85831e-05 -1.06127e-05
0.000257958 -7.74145e-05 -7.73756e-05 -1.06126e-05
0.000361095 -0.00010833 -0.000108328 -2.68063e-12
0.000366734 -0.000110022 -0.000110019 -2.73531e-12
0.000259971 -7.8019e-05 -7.79794e-05 -1.06126e-05
0.000309526 -9.28733e-05 -9.2851e-05 -5.7487e-06
0.000363915 -0.000109176 -0.000109174 -2.71678e-12
0.000314358 -9.43238e-05 -9.43004e-05 -5.74872e-06
0.000311942 -9.35985e-05 -9.35757e-05 -5.74871e-06
0.000257958 -7.74145e-05 -7.73756e-05 -1.06126e-05
0.000253931 -7.62054e-05 -7.61681e-05 -1.06126e-05
0.000355457 -0.000106638 -0.000106636 -2.64174e-12
0.000361095 -0.00010833 -0.000108328 -2.68072e-12
0.000255944 -7.68099e-05 -7.67719e-05 -1.06126e-05
0.000304693 -9.14228e-05 -9.14015e-05 -5.74867e-06
0.000358276 -0.000107484 -0.000107482 -2.65836e-12
0.000309526 -9.28733e-05 -9.2851e-05 -5.7487e-06
0.000307109 -9.21481e-05 -9.21262e-05 -5.74868e-06
0.000253931 -7.62054e-05 -7.61681e-05 -1.06126e-05
0.000249904 -7.49963e-05 -7.49606e-05 -1.06125e-05
0.000349818 -0.000104947 -0.000104945 -2.6325e-12
0.000355457 -0.000106638 -0.000106636 -2.64174e-12
0.000251918 -7.56008e-05 -7.55644e-05 -1.06126e-05
0.00029986 -8.99723e-05 -8.99521e-05 -5.74865e-06
0.000352638 -0.000105793 -0.000105791 -2.61847e-12
0.000304693 -9.14228e-05 -9.14015e-05 -5.74867e-06
0.000302277 -9.06976e-05 -9.06768e-05 -5.74866e-06
0.000249904 -7.49963e-05 -7.49606e-05 -1.06125e-05
0.000245878 -7.37872e-05 -7.37531e-05 -1.06125e-05
0.00034418 -0.000103255 -0.000103254 -2.5803e-12
0.000349818 -0.000104947 -0.000104945 -2.6325e-12
0.000247891 -7.43918e-05 -7.43569e-05 -1.06125e-05
0.000295028 -8.85219e-05 -8.85026e-05 -5.74862e-06
0.000346999 -0.000104101 -0.000104099 -2.58463e-12
0.00029986 -8.99723e-05 -8.99521e-05 -5.74865e-06
0.000297444 -8.92471e-05 -8.92273e-05 -5.74863e-06
0.000245878 -7.37872e-05 -7.37531e-05 -1.06125e-05
0.000241851 -7.25782e-05 -7.25456e-05 -1.06125e-05
0.000338541 -0.000101563 -0.000101562 -2.53003e-12
0.00034418 -0.000103255 -0.000103254 -2.58075e-12
0.000243864 -7.31827e-05 -7.31493e-05 -1.06125e-05
0.000290195 -8.70714e-05 -8.70531e-05 -5.7486e-06
0.000341361 -0.000102409 -0.000102408 -2.54716e-12
0.000295028 -8.85219e-05 -8.85026e-05 -5.74862e-06
0.000292612 -8.77966e-05 -8.77779e-05 -5.74861e-06
0.000241851 -7.25782e-05 -7.25456e-05 -1.06125e-05
0.000237824 -7.13691e-05 -7.1338e-05 -1.06124e-05
0.000332903 -9.98712e-05 -9.98707e-05 -2.47829e-12
0.000338541 -0.000101563 -0.000101562 -2.56553e-12
0.000239838 -7.19736e-05 -7.19418e-05 -1.06124e-05
0.000285363 -8.56209e-05 -8.56037e-05 -5.74857e-06
0.000335722 -0.000100717 -0.000100716 -2.52131e-12
0.000290195 -8.70714e-05 -8.70531e-05 -5.7486e-06
0.000287779 -8.63462e-05 -8.63284e-05 -5.74859e-06
0.000237824 -7.13691e-05 -7.1338e-05 -1.06124e-05
0.000233798 -7.016e-05 -7.01304e-05 -1.06124e-05
0.000327264 -9.81793e-05 -9.81793e-05 -2.43317e-12
0.000332903 -9.98712e-05 -9.98707e-05 -2.47829e-12
0.000235811 -7.07646e-05 -7.07342e-05 -1.06124e-05
0.00028053 -8.41705e-05 -8.41542e-05 -5.74855e-06
0.000330084 -9.90252e-05 -9.9025e-05 -2.4609e-12
0.000285363 -8.56209e-05 -8.56037e-05 -5.74857e-06
0.000282947 -8.48957e-05 -8.48789e-05 -5.74856e-06
0.000233798 -7.016e-05 -7.01304e-05 -1.06124e-05
0.000229771 -6.8951e-05 -6.89229e-05 -1.06123e-05
0.000321626 -9.64875e-05 -9.64878e-05 -2.41575e-12
0.000327264 -9.81793e-05 -9.81793e-05 -2.43317e-12
0.000231784 -6.95555e-05 -6.95267e-05 -1.06124e-05
0.000275698 -8.272e-05 -8.27047e-05 -5.74853e-06
0.000324445 -9.73334e-05 -9.73335e-05 -2.37396e-12
0.00028053 -8.41705e-05 -8.41542e-05 -5.74855e-06
0.000278114 -8.34452e-05 -8.34294e-05 -5.74854e-06
0.000229771 -6.8951e-05 -6.89229e-05 -1.06123e-05
0.000225744 -6.7742e-05 -6.77153e-05 -1.06123e-05
0.000315987 -9.47957e-05 -9.47964e-05 -2.3427e-12
0.000321626 -9.64875e-05 -9.64878e-05 -2.41517e-12
0.000227758 -6.83465e-05 -6.83191e-05 -1.06123e-05
0.000270865 -8.12695e-05 -8.12552e-05 -5.7485e-06
0.000318806 -9.56416e-05 -9.56421e-05 -2.39313e-12
0.000275698 -8.272e-05 -8.27047e-05 -5.74853e-06
0.000273281 -8.19948e-05 -8.198e-05 -5.74851e-06
0.000225744 -6.7742e-05 -6.77153e-05 -1.06123e-05
0.000221718 -6.6533e-05 -6.65077e-05 -1.06123e-05
0.000310349 -9.31039e-05 -9.31049e-05 -2.34387e-12
0.000315987 -9.47957e-05 -9.47964e-05 -2.34295e-12
0.000223731 -6.71375e-05 -6.71115e-05 -1.06123e-05
0.000266032 -7.98191e-05 -7.98057e-05 -5.74848e-06
0.000313168 -9.39498e-05 -9.39506e-05 -2.35309e-12
0.000270865 -8.12695e-05 -8.12552e-05 -5.7485e-06
0.000268449 -8.05443e-05 -8.05305e-05 -5.74849e-06
0.000221718 -6.6533e-05 -6.65077e-05 -1.06123e-05
0.000217691 -6.5324e-05 -6.53001e-05 -1.06122e-05
0.00030471 -9.1412e-05 -9.14134e-05 -2.28703e-12
0.000310349 -9.31039e-05 -9.31049e-05 -2.34387e-12
0.000219704 -6.59285e-05 -6.59039e-05 -1.06122e-05
0.0002612 -7.83687e-05 -7.83562e-05 -5.74846e-06
0.000307529 -9.22579e-05 -9.22592e-05 -2.30647e-12
0.000266032 -7.98191e-05 -7.98057e-05 -5.74848e-06
0.000263616 -7.90939e-05 -7.90809e-05 -5.74847e-06
0.000217691 -6.5324e-05 -6.53001e-05 -1.06122e-05
0.000213664 -6.4115e-05 -6.40925e-05 -1.06122e-05
0.000299072 -8.97202e-05 -8.9722e-05 -2.23978e-12
0.00030471 -9.1412e-05 -9.14134e-05 -2.28703e-12
0.000215677 -6.47195e-05 -6.46963e-05 -1.06122e-05
0.000256367 -7.69182e-05 -7.69067e-05 -5.74843e-06
0.000301891 -9.05661e-05 -9.05677e-05 -2.25843e-12
0.0002612 -7.83687e-05 -7.83562e-05 -5.74846e-06
0.000258783 -7.76434e-05 -7.76314e-05 -5.74844e-06
0.000213664 -6.4115e-05 -6.40925e-05 -1.06122e-05
0.000209637 -6.2906e-05 -6.28848e-05 -1.06121e-05
0.000293433 -8.80284e-05 -8.80305e-05 -2.20551e-12
0.000299072 -8.97202e-05 -8.9722e-05 -2.24003e-12
0.000211651 -6.35105e-05 -6.34886e-05 -1.06122e-05
0.000251534 -7.54678e-05 -7.54571e-05 -5.74841e-06
0.000296252 -8.88743e-05 -8.88763e-05 -2.24927e-12
0.000256367 -7.69182e-05 -7.69067e-05 -5.74843e-06
0.000253951 -7.6193e-05 -7.61819e-05 -5.74842e-06
0.000209637 -6.2906e-05 -6.28848e-05 -1.06121e-05
0.00020561 -6.1697e-05 -6.16772e-05 -1.06121e-05
0.000287794 -8.63365e-05 -8.63391e-05 -2.1367e-12
0.000293433 -8.80284e-05 -8.80305e-05 -2.22205e-12
0.000207624 -6.23015e-05 -6.2281e-05 -1.06121e-05
0.000246702 -7.40174e-05 -7.40076e-05 -5.74838e-06
0.000290614 -8.71825e-05 -8.71848e-05 -2.1629e-12
0.000251534 -7.54678e-05 -7.54571e-05 -5.74841e-06
0.000249118 -7.47426e-05 -7.47324e-05 -5.7484e-06
0.00020561 -6.1697e-05 -6.16772e-05 -1.06121e-05
0.000201584 -6.0488e-05 -6.04695e-05 -1.06121e-05
0.000282156 -8.46447e-05 -8.46476e-05 -2.1145e-12
0.000287794 -8.63365e-05 -8.63391e-05 -2.1367e-12
0.000203597 -6.10925e-05 -6.10733e-05 -1.06121e-05
0.000241869 -7.25669e-05 -7.25581e-05 -5.74836e-06
0.000284975 -8.54906e-05 -8.54933e-05 -2.13831e-12
0.000246702 -7.40174e-05 -7.40076e-05 -5.74838e-06
0.000244285 -7.32921e-05 -7.32828e-05 -5.74837e-06
0.000201584 -6.0488e-05 -6.04695e-05 -1.06121e-05
0.000197557 -5.92791e-05 -5.92618e-05 -1.0612e-05
0.000276517 -8.29529e-05 -8.29561e-05 -2.10525e-12
0.000282156 -8.46447e-05 -8.46476e-05 -2.11095e-12
0.00019957 -5.98835e-05 -5.98657e-05 -1.06121e-05
0.000237036 -7.11165e-05 -7.11085e-05 -5.74834e-06
0.000279337 -8.37988e-05 -8.38019e-05 -2.08897e-12
0.000241869 -7.25669e-05 -7.25581e-05 -5.74836e-06
0.000239453 -7.18417e-05 -7.18333e-05 -5.74835e-06
0.000197557 -5.92791e-05 -5.92618e-05 -1.0612e-05
0.00019353 -5.80701e-05 -5.80542e-05 -1.0612e-05
0.000270879 -8.1261e-05 -8.12647e-05 -2.02699e-12
0.000276517 -8.29529e-05 -8.29561e-05 -2.10525e-12
0.000195543 -5.86746e-05 -5.8658e-05 -1.0612e-05
0.000232204 -6.96661e-05 -6.9659e-05 -5.74831e-06
0.000273698 -8.2107e-05 -8.21104e-05 -2.04434e-12
0.000237036 -7.11165e-05 -7.11085e-05 -5.74834e-06
0.00023462 -7.03913e-05 -7.03837e-05 -5.74833e-06
0.00019353 -5.80701e-05 -5.80542e-05 -1.0612e-05
0.000189503 -5.68612e-05 -5.68465e-05 -1.0612e-05
0.00026524 -7.95692e-05 -7.95732e-05 -2.0091e-12
0.000270879 -8.1261e-05 -8.12647e-05 -2.02699e-12
0.000191516 -5.74656e-05 -5.74503e-05 -1.0612e-05
0.000227371 -6.82157e-05 -6.82094e-05 -5.74829e-06
0.000268059 -8.04151e-05 -8.04189e-05 -2.02221e-12
0.000232204 -6.96661e-05 -6.9659e-05 -5.74831e-06
0.000229787 -6.89409e-05 -6.89342e-05 -5.7483e-06
0.000189503 -5.68612e-05 -5.68465e-05 -1.0612e-05
0.000185476 -5.56522e-05 -5.56388e-05 -1.06119e-05
0.000259601 -7.78774e-05 -7.78817e-05 -1.95383e-12
0.00026524 -7.95692e-05 -7.95732e-05 -2.0091e-12
0.000187489 -5.62567e-05 -5.62426e-05 -1.06119e-05
0.000222538 -6.67653e-05 -6.67598e-05 -5.74827e-06
0.000262421 -7.87233e-05 -7.87275e-05 -2.02258e-12
0.000227371 -6.82157e-05 -6.82094e-05 -5.74829e-06
0.000224955 -6.74905e-05 -6.74846e-05 -5.74828e-06
0.000185476 -5.56522e-05 -5.56388e-05 -1.06119e-05
0.000181449 -5.44433e-05 -5.4431e-05 -1.06119e-05
0.000253963 -7.61855e-05 -7.61903e-05 -1.90673e-12
0.000259601 -7.78774e-05 -7.78817e-05 -1.95345e-12
0.000183463 -5.50478e-05 -5.50349e-05 -1.06119e-05
0.000217705 -6.53149e-05 -6.53102e-05 -5.74825e-06
0.000256782 -7.70315e-05 -7.7036e-05 -1.95131e-12
0.000222538 -6.67653e-05 -6.67598e-05 -5.74827e-06
0.000220122 -6.60401e-05 -6.6035e-05 -5.74826e-06
0.000181449 -5.44433e-05 -5.4431e-05 -1.06119e-05
0.000177422 -5.32344e-05 -5.32233e-05 -1.06119e-05
0.000248324 -7.44937e-05 -7.44988e-05 -1.88607e-12
0.000253963 -7.61855e-05 -7.61903e-05 -1.90673e-12
0.000179436 -5.38389e-05 -5.38272e-05 -1.06119e-05
0.000212873 -6.38645e-05 -6.38607e-05 -5.74822e-06
0.000251143 -7.53396e-05 -7.53445e-05 -1.88594e-12
0.000217705 -6.53149e-05 -6.53102e-05 -5.74825e-06
0.000215289 -6.45897e-05 -6.45855e-05 -5.74823e-06
0.000177422 -5.32344e-05 -5.32233e-05 -1.06119e-05
0.000173395 -5.20255e-05 -5.20156e-05 -1.06118e-05
0.000242686 -7.28019e-05 -7.28073e-05 -1.84163e-12
0.000248324 -7.44937e-05 -7.44988e-05 -1.88607e-12
0.000175409 -5.263e-05 -5.26194e-05 -1.06118e-05
0.00020804 -6.24141e-05 -6.24111e-05 -5.7482e-06
0.000245505 -7.36478e-05 -7.3653e-05 -1.85807e-12
0.000212873 -6.38645e-05 -6.38607e-05 -5.74822e-06
0.000210456 -6.31393e-05 -6.31359e-05 -5.74821e-06
0.000173395 -5.20255e-05 -5.20156e-05 -1.06118e-05
0.000169368 -5.08166e-05 -5.08078e-05 -1.06118e-05
0.000237047 -7.111e-05 -7.11158e-05 -1.8213e-12
0.000242686 -7.28019e-05 -7.28073e-05 -1.86795e-12
0.000171382 -5.14211e-05 -5.14117e-05 -1.06118e-05
0.000203207 -6.09637e-05 -6.09615e-05 -5.74818e-06
0.000239866 -7.1956e-05 -7.19615e-05 -1.85275e-12
0.00020804 -6.24141e-05 -6.24111e-05 -5.7482e-06
0.000205624 -6.16889e-05 -6.16863e-05 -5.74819e-06
0.000169368 -5.08166e-05 -5.08078e-05 -1.06118e-05
0.000165341 -4.96077e-05 -4.96e-05 -1.06117e-05
0.000231408 -6.94182e-05 -6.94243e-05 -1.74405e-12
0.000237047 -7.111e-05 -7.11158e-05 -1.8213e-12
0.000167355 -5.02122e-05 -5.02039e-05 -1.06118e-05
0.000198374 -5.95133e-05 -5.95118e-05 -5.74815e-06
0.000234228 -7.02641e-05 -7.02701e-05 -1.80577e-12
0.000203207 -6.09637e-05 -6.09615e-05 -5.74818e-06
0.000200791 -6.02385e-05 -6.02367e-05 -5.74817e-06
0.000165341 -4.96077e-05 -4.96e-05 -1.06117e-05
0.000161314 -4.83989e-05 -4.83923e-05 -1.06117e-05
0.00022577 -6.77264e-05 -6.77328e-05 -1.67878e-12
0.000231408 -6.94182e-05 -6.94243e-05 -1.74405e-12
0.000163328 -4.90033e-05 -4.89961e-05 -1.06117e-05
0.000193541 -5.8063e-05 -5.80622e-05 -5.74813e-06
0.000228589 -6.85723e-05 -6.85786e-05 -1.69212e-12
0.000198374 -5.95133e-05 -5.95118e-05 -5.74815e-06
0.000195958 -5.87882e-05 -5.8787e-05 -5.74814e-06
0.000161314 -4.83989e-05 -4.83923e-05 -1.06117e-05
0.000157287 -4.719e-05 -4.71845e-05 -1.06117e-05
0.000220131 -6.60345e-05 -6.60413e-05 -1.65869e-12
0.00022577 -6.77264e-05 -6.77328e-05 -1.67878e-12
0.000159301 -4.77944e-05 -4.77884e-05 -1.06117e-05
0.000188709 -5.66126e-05 -5.66126e-05 -5.74811e-06
0.00022295 -6.68804e-05 -6.68871e-05 -1.69272e-12
0.000193541 -5.8063e-05 -5.80622e-05 -5.74813e-06
0.000191125 -5.73378e-05 -5.73374e-05 -5.74812e-06
0.000157287 -4.719e-05 -4.71845e-05 -1.06117e-05
0.00015326 -4.59811e-05 -4.59767e-05 -1.06116e-05
0.000214492 -6.43427e-05 -6.43498e-05 -1.63293e-12
0.000220131 -6.60345e-05 -6.60413e-05 -1.65834e-12
0.000155274 -4.65856e-05 -4.65806e-05 -1.06117e-05
0.000183876 -5.51622e-05 -5.5163e-05 -5.74809e-06
0.000217312 -6.51886e-05 -6.51956e-05 -1.70452e-12
0.000188709 -5.66126e-05 -5.66126e-05 -5.74811e-06
0.000186292 -5.58874e-05 -5.58878e-05 -5.7481e-06
0.00015326 -4.59811e-05 -4.59767e-05 -1.06116e-05
0.000149233 -4.47723e-05 -4.47688e-05 -1.06116e-05
0.000208854 -6.26508e-05 -6.26583e-05 -1.58237e-12
0.000214492 -6.43427e-05 -6.43498e-05 -1.62958e-12
0.000151246 -4.53767e-05 -4.53727e-05 -1.06116e-05
0.000179043 -5.37119e-05 -5.37133e-05 -5.74807e-06
0.000211673 -6.34967e-05 -6.35041e-05 -1.6121e-12
0.000183876 -5.51622e-05 -5.5163e-05 -5.74809e-06
0.000181459 -5.4437e-05 -5.44381e-05 -5.74808e-06
0.000149233 -4.47723e-05 -4.47688e-05 -1.06116e-05
0.000145206 -4.35634e-05 -4.3561e-05 -1.06116e-05
0.000203215 -6.0959e-05 -6.09668e-05 -1.56181e-12
0.000208854 -6.26508e-05 -6.26583e-05 -1.58237e-12
0.000147219 -4.41679e-05 -4.41649e-05 -1.06116e-05
0.00017421 -5.22615e-05 -5.22637e-05 -5.74804e-06
0.000206034 -6.18049e-05 -6.18126e-05 -1.59836e-12
0.000179043 -5.37119e-05 -5.37133e-05 -5.74807e-06
0.000176627 -5.29867e-05 -5.29885e-05 -5.74805e-06
0.000145206 -4.35634e-05 -4.3561e-05 -1.06116e-05
0.000141179 -4.23546e-05 -4.23532e-05 -1.06115e-05
0.000197576 -5.92671e-05 -5.92753e-05 -1.53187e-12
0.000203215 -6.0959e-05 -6.09668e-05 -1.56181e-12
0.000143192 -4.2959e-05 -4.29571e-05 -1.06115e-05
0.000169377 -5.08112e-05 -5.0814e-05 -5.74802e-06
0.000200396 -6.01131e-05 -6.01211e-05 -1.52025e-12
0.00017421 -5.22615e-05 -5.22637e-05 -5.74804e-06
0.000171794 -5.15363e-05 -5.15388e-05 -5.74803e-06
0.000141179 -4.23546e-05 -4.23532e-05 -1.06115e-05
0.000137152 -4.11458e-05 -4.11453e-05 -1.06115e-05
0.000191938 -5.75753e-05 -5.75838e-05 -1.4817e-12
0.000197576 -5.92671e-05 -5.92753e-05 -1.54478e-12
0.000139165 -4.17502e-05 -4.17492e-05 -1.06115e-05
0.000164544 -4.93608e-05 -4.93643e-05 -5.748e-06
0.000194757 -5.84212e-05 -5.84296e-05 -1.51287e-12
0.000169377 -5.08112e-05 -5.0814e-05 -5.74802e-06
0.000166961 -5.0086e-05 -5.00892e-05 -5.74801e-06
0.000137152 -4.11458e-05 -4.11453e-05 -1.06115e-05
0.000133124 -3.9937e-05 -3.99374e-05 -1.06115e-05
0.000186299 -5.58834e-05 -5.58923e-05 -1.44158e-12
0.000191938 -5.75753e-05 -5.75838e-05 -1.4817e-12
0.000135138 -4.05414e-05 -4.05414e-05 -1.06115e-05
0.000159711 -4.79105e-05 -4.79147e-05 -5.74798e-06
0.000189118 -5.67294e-05 -5.67381e-05 -1.46782e-12
0.000164544 -4.93608e-05 -4.93643e-05 -5.748e-06
0.000162128 -4.86356e-05 -4.86395e-05 -5.74799e-06
0.000133124 -3.9937e-05 -3.99374e-05 -1.06115e-05
0.000129097 -3.87282e-05 -3.87295e-05 -1.06114e-05
0.00018066 -5.41916e-05 -5.42008e-05 -1.36564e-12
0.000186299 -5.58834e-05 -5.58923e-05 -1.44158e-12
0.000131111 -3.93326e-05 -3.93335e-05 -1.06114e-05
0.000154878 -4.64601e-05 -4.6465e-05 -5.74796e-06
0.000183479 -5.50375e-05 -5.50466e-05 -1.42403e-12
0.000159711 -4.79105e-05 -4.79147e-05 -5.74798e-06
0.000157295 -4.71853e-05 -4.71898e-05 -5.74797e-06
0.000129097 -3.87282e-05 -3.87295e-05 -1.06114e-05
0.00012507 -3.75194e-05 -3.75217e-05 -1.06114e-05
0.000175021 -5.24997e-05 -5.25093e-05 -1.32914e-12
0.00018066 -5.41916e-05 -5.42008e-05 -1.36564e-12
0.000127084 -3.81238e-05 -3.81256e-05 -1.06114e-05
0.000150045 -4.50098e-05 -4.50153e-05 -5.74793e-06
0.000177841 -5.33457e-05 -5.33551e-05 -1.35628e-12
0.000154878 -4.64601e-05 -4.6465e-05 -5.74796e-06
0.000152462 -4.5735e-05 -4.57401e-05 -5.74795e-06
0.00012507 -3.75194e-05 -3.75217e-05 -1.06114e-05
0.000121043 -3.63106e-05 -3.63137e-05 -1.06114e-05
0.000169383 -5.08079e-05 -5.08178e-05 -1.2702e-12
0.000175021 -5.24997e-05 -5.25093e-05 -1.32914e-12
0.000123056 -3.6915e-05 -3.69177e-05 -1.06114e-05
0.000145212 -4.35595e-05 -4.35656e-05 -5.74791e-06
0.000172202 -5.16538e-05 -5.16635e-05 -1.30916e-12
0.000150045 -4.50098e-05 -4.50153e-05 -5.74793e-06
0.000147629 -4.42846e-05 -4.42904e-05 -5.74792e-06
0.000121043 -3.63106e-05 -3.63137e-05 -1.06114e-05
0.000117015 -3.51019e-05 -3.51058e-05 -1.06113e-05
0.000163744 -4.9116e-05 -4.91263e-05 -1.17185e-12
0.000169383 -5.08079e-05 -5.08178e-05 -1.26938e-12
0.000119029 -3.57062e-05 -3.57098e-05 -1.06113e-05
0.000140379 -4.21091e-05 -4.21159e-05 -5.74789e-06
0.000166563 -4.9962e-05 -4.9972e-05 -1.27344e-12
0.000145212 -4.35595e-05 -4.35656e-05 -5.74791e-06
0.000142796 -4.28343e-05 -4.28407e-05 -5.7479e-06
0.000117015 -3.51019e-05 -3.51058e-05 -1.06113e-05
0.000112988 -3.38931e-05 -3.38979e-05 -1.06113e-05
0.000158105 -4.74242e-05 -4.74347e-05 -1.15681e-12
0.000163744 -4.9116e-05 -4.91263e-05 -1.17185e-12
0.000115002 -3.44975e-05 -3.45019e-05 -1.06113e-05
0.000135546 -4.06588e-05 -4.06661e-05 -5.74787e-06
0.000160925 -4.82701e-05 -4.82805e-05 -1.14796e-12
0.000140379 -4.21091e-05 -4.21159e-05 -5.74789e-06
0.000137963 -4.1384e-05 -4.1391e-05 -5.74788e-06
0.000112988 -3.38931e-05 -3.38979e-05 -1.06113e-05
0.000108961 -3.26843e-05 -3.26899e-05 -1.06113e-05
0.000152466 -4.57323e-05 -4.57432e-05 -1.07679e-12
0.000158105 -4.74242e-05 -4.74347e-05 -1.15681e-12
0.000110975 -3.32887e-05 -3.32939e-05 -1.06113e-05
0.000130713 -3.92085e-05 -3.92164e-05 -5.74786e-06
0.000155286 -4.65782e-05 -4.6589e-05 -1.10449e-12
0.000135546 -4.06588e-05 -4.06661e-05 -5.74787e-06
0.00013313 -3.99336e-05 -3.99413e-05 -5.74787e-06
0.000108961 -3.26843e-05 -3.26899e-05 -1.06113e-05
0.000104934 -3.14756e-05 -3.1482e-05 -1.06112e-05
0.000146828 -4.40404e-05 -4.40517e-05 -9.14417e-13
0.000152466 -4.57323e-05 -4.57432e-05 -1.04984e-12
0.000106947 -3.208e-05 -3.2086e-05 -1.06113e-05
0.00012588 -3.77582e-05 -3.77667e-05 -5.74784e-06
0.000149647 -4.48864e-05 -4.48974e-05 -9.60529e-13
0.000130713 -3.92085e-05 -3.92164e-05 -5.74786e-06
0.000128297 -3.84833e-05 -3.84916e-05 -5.74785e-06
0.000104934 -3.14756e-05 -3.1482e-05 -1.06112e-05
0.000100906 -3.02669e-05 -3.0274e-05 -1.06112e-05
0.000141189 -4.23486e-05 -4.23601e-05 -7.77681e-13
0.000146828 -4.40404e-05 -4.40517e-05 -9.14766e-13
0.00010292 -3.08712e-05 -3.0878e-05 -1.06112e-05
0.000121047 -3.63079e-05 -3.63169e-05 -5.74783e-06
0.000144008 -4.31945e-05 -4.32059e-05 -8.16231e-13
0.00012588 -3.77582e-05 -3.77667e-05 -5.74784e-06
0.000123464 -3.7033e-05 -3.70418e-05 -5.74783e-06
0.000100906 -3.02669e-05 -3.0274e-05 -1.06112e-05
9.68788e-05 -2.90581e-05 -2.9066e-05 -1.06112e-05
0.00013555 -4.06567e-05 -4.06686e-05 -4.58535e-13
0.000141189 -4.23486e-05 -4.23601e-05 -7.77681e-13
9.88925e-05 -2.96625e-05 -2.967e-05 -1.06112e-05
0.000116214 -3.48576e-05 -3.48672e-05 -5.74782e-06
0.000138369 -4.15026e-05 -4.15143e-05 -6.52316e-13
0.000121047 -3.63079e-05 -3.63169e-05 -5.74783e-06
0.000118631 -3.55827e-05 -3.55921e-05 -5.74782e-06
9.68788e-05 -2.90581e-05 -2.9066e-05 -1.06112e-05
9.28515e-05 -2.78494e-05 -2.7858e-05 -1.06112e-05
0.000129911 -3.89648e-05 -3.8977e-05 -1.94272e-13
0.00013555 -4.06567e-05 -4.06686e-05 -4.58535e-13
9.48652e-05 -2.84538e-05 -2.8462e-05 -1.06112e-05
0.000111381 -3.34072e-05 -3.34174e-05 -5.74782e-06
0.000132731 -3.98108e-05 -3.98228e-05 -3.23497e-13
0.000116214 -3.48576e-05 -3.48672e-05 -5.74782e-06
0.000113798 -3.41324e-05 -3.41423e-05 -5.74782e-06
9.28515e-05 -2.78494e-05 -2.7858e-05 -1.06112e-05
8.8824e-05 -2.66407e-05 -2.665e-05 -1.06112e-05
0.000124272 -3.7273e-05 -3.72855e-05 4.85081e-13
0.000129911 -3.89648e-05 -3.8977e-05 -1.94273e-13
9.08378e-05 -2.72451e-05 -2.7254e-05 -1.06112e-05
0.000106548 -3.19569e-05 -3.19676e-05 -5.74782e-06
0.000127092 -3.81189e-05 -3.81312e-05 6.54275e-14
0.000111381 -3.34072e-05 -3.34174e-05 -5.74782e-06
0.000108965 -3.26821e-05 -3.26925e-05 -5.74782e-06
8.8824e-05 -2.66407e-05 -2.665e-05 -1.06112e-05
8.47966e-05 -2.5432e-05 -2.5442e-05 -1.06112e-05
0.000118633 -3.55811e-05 -3.55939e-05 9.34941e-13
0.000124272 -3.7273e-05 -3.72855e-05 4.62353e-13
8.68103e-05 -2.60364e-05 -2.6046e-05 -1.06112e-05
0.000101715 -3.05066e-05 -3.05178e-05 -5.74784e-06
0.000121453 -3.6427e-05 -3.64397e-05 7.52476e-13
0.000106548 -3.19569e-05 -3.19676e-05 -5.74782e-06
0.000104131 -3.12318e-05 -3.12427e-05 -5.74783e-06
8.47966e-05 -2.5432e-05 -2.5442e-05 -1.06112e-05
8.07692e-05 -2.42234e-05 -2.42339e-05 -1.06113e-05
0.000112994 -3.38891e-05 -3.39023e-05 2.34394e-12
0.000118633 -3.55811e-05 -3.55939e-05 9.34941e-13
8.27829e-05 -2.48277e-05 -2.48379e-05 -1.06113e-05
9.68817e-05 -2.90563e-05 -2.9068e-05 -5.74788e-06
0.000115814 -3.47351e-05 -3.47481e-05 1.93691e-12
0.000101715 -3.05066e-05 -3.05178e-05 -5.74784e-06
9.92983e-05 -2.97815e-05 -2.97929e-05 -5.74786e-06
8.07692e-05 -2.42234e-05 -2.42339e-05 -1.06113e-05
7.67417e-05 -2.30147e-05 -2.30258e-05 -1.06113e-05
0.000107355 -3.21972e-05 -3.22106e-05 2.7607e-12
0.000112994 -3.38891e-05 -3.39023e-05 2.34394e-12
7.87554e-05 -2.3619e-05 -2.36299e-05 -1.06113e-05
9.20484e-05 -2.7606e-05 -2.76182e-05 -5.74795e-06
0.000110175 -3.30432e-05 -3.30565e-05 2.28524e-12
9.68817e-05 -2.90563e-05 -2.9068e-05 -5.74788e-06
9.4465e-05 -2.83312e-05 -2.83431e-05 -5.74791e-06
7.67417e-05 -2.30147e-05 -2.30258e-05 -1.06113e-05
7.27142e-05 -2.18061e-05 -2.18178e-05 -1.06114e-05
0.000101716 -3.05052e-05 -3.0519e-05 3.56775e-12
0.000107355 -3.21972e-05 -3.22106e-05 2.7375e-12
7.4728e-05 -2.24104e-05 -2.24218e-05 -1.06114e-05
8.72151e-05 -2.61557e-05 -2.61683e-05 -5.74804e-06
0.000104536 -3.13512e-05 -3.13648e-05 5.31493e-12
9.20484e-05 -2.7606e-05 -2.76182e-05 -5.74795e-06
8.96317e-05 -2.68809e-05 -2.68932e-05 -5.74799e-06
7.27142e-05 -2.18061e-05 -2.18178e-05 -1.06114e-05
6.86868e-05 -2.05974e-05 -2.06097e-05 -1.06115e-05
9.60767e-05 -2.88131e-05 -2.88272e-05 1.01854e-12
0.000101716 -3.05052e-05 -3.0519e-05 3.5682e-12
7.07005e-05 -2.12017e-05 -2.12138e-05 -1.06115e-05
8.23817e-05 -2.47054e-05 -2.47184e-05 -5.74815e-06
9.88964e-05 -2.96592e-05 -2.96731e-05 -1.98071e-13
8.72151e-05 -2.61557e-05 -2.61683e-05 -5.74804e-06
8.47984e-05 -2.54305e-05 -2.54434e-05 -5.7481e-06
6.86868e-05 -2.05974e-05 -2.06097e-05 -1.06115e-05
6.46595e-05 -1.93887e-05 -1.94018e-05 -1.06114e-05
9.0437e-05 -2.7121e-05 -2.71354e-05 -1.20606e-11
9.60767e-05 -2.88131e-05 -2.88272e-05 1.01854e-12
6.66731e-05 -1.99931e-05 -2.00057e-05 -1.06115e-05
7.75483e-05 -2.3255e-05 -2.32685e-05 -5.74823e-06
9.32569e-05 -2.79671e-05 -2.79814e-05 6.84514e-12
8.23817e-05 -2.47054e-05 -2.47184e-05 -5.74815e-06
7.9965e-05 -2.39802e-05 -2.39935e-05 -5.7482e-06
6.46595e-05 -1.93887e-05 -1.94018e-05 -1.06114e-05
6.06323e-05 -1.81798e-05 -1.81939e-05 -1.06109e-05
8.4797e-05 -2.54288e-05 -2.54435e-05 -2.97818e-11
9.0437e-05 -2.7121e-05 -2.71354e-05 -1.20606e-11
6.26458e-05 -1.87843e-05 -1.87978e-05 -1.06112e-05
7.2715e-05 -2.18047e-05 -2.18187e-05 -5.74811e-06
8.7617e-05 -2.62749e-05 -2.62895e-05 -3.71196e-11
7.75483e-05 -2.3255e-05 -2.32685e-05 -5.74823e-06
7.51316e-05 -2.25299e-05 -2.25436e-05 -5.74821e-06
6.06323e-05 -1.81798e-05 -1.81939e-05 -1.06109e-05
5.66053e-05 -1.69703e-05 -1.69864e-05 -1.06094e-05
7.9157e-05 -2.37364e-05 -2.37517e-05 -1.33495e-10
8.4797e-05 -2.54288e-05 -2.54435e-05 -2.97818e-11
5.86188e-05 -1.75751e-05 -1.75901e-05 -1.06103e-05
6.78822e-05 -2.03543e-05 -2.03691e-05 -5.74746e-06
8.1977e-05 -2.45826e-05 -2.45976e-05 -2.08054e-11
7.2715e-05 -2.18047e-05 -2.18187e-05 -5.74811e-06
7.02985e-05 -2.10795e-05 -2.10939e-05 -5.74789e-06
5.66053e-05 -1.69703e-05 -1.69864e-05 -1.06094e-05
5.25788e-05 -1.57596e-05 -1.57796e-05 -1.06055e-05
7.35174e-05 -2.20445e-05 -2.20598e-05 -1.95959e-10
7.9157e-05 -2.37364e-05 -2.37517e-05 -1.33534e-10
5.45919e-05 -1.63652e-05 -1.63829e-05 -1.06078e-05
6.30505e-05 -1.8904e-05 -1.89199e-05 -5.74534e-06
7.63372e-05 -2.28905e-05 -2.29057e-05 -2.54808e-10
6.78822e-05 -2.03543e-05 -2.03691e-05 -5.74746e-06
6.54662e-05 -1.96291e-05 -1.96445e-05 -5.74665e-06
5.25788e-05 -1.57596e-05 -1.57796e-05 -1.06055e-05
4.85523e-05 -1.45464e-05 -1.45739e-05 -1.05969e-05
6.78807e-05 -2.03529e-05 -2.03691e-05 -7.41284e-10
7.35174e-05 -2.20445e-05 -2.20598e-05 -1.95959e-10
5.05656e-05 -1.51535e-05 -1.51766e-05 -1.0602e-05
5.82221e-05 -1.74538e-05 -1.74721e-05 -5.74019e-06
7.06984e-05 -2.11983e-05 -2.12143e-05 -1.9595e-10
6.30505e-05 -1.8904e-05 -1.89199e-05 -5.74534e-06
6.06357e-05 -1.81789e-05 -1.81958e-05 -5.74334e-06
4.85523e-05 -1.45464e-05 -1.45739e-05 -1.05969e-05
4.45268e-05 -1.33283e-05 -1.33708e-05 -1.05782e-05
6.22496e-05 -1.86648e-05 -1.86792e-05 -8.404e-10
6.78807e-05 -2.03529e-05 -2.03691e-05 -7.41284e-10
4.65392e-05 -1.39382e-05 -1.39719e-05 -1.05894e-05
5.33992e-05 -1.6004e-05 -1.60265e-05 -5.72815e-06
6.50645e-05 -1.95089e-05 -1.95238e-05 -1.2458e-09
5.82221e-05 -1.74538e-05 -1.74721e-05 -5.74019e-06
5.58099e-05 -1.67288e-05 -1.6749e-05 -5.73526e-06
4.45268e-05 -1.33283e-05 -1.33708e-05 -1.05782e-05
4.0499e-05 -1.2101e-05 -1.21706e-05 -1.05421e-05
5.66377e-05 -1.6979e-05 -1.69966e-05 -3.21731e-09
6.22496e-05 -1.86648e-05 -1.86792e-05 -8.40426e-10
4.25138e-05 -1.27163e-05 -1.27703e-05 -1.05629e-05
4.85902e-05 -1.45552e-05 -1.45864e-05 -5.70313e-06
5.94395e-05 -1.78196e-05 -1.78371e-05 -8.634e-10
5.33992e-05 -1.6004e-05 -1.60265e-05 -5.72815e-06
5.0992e-05 -1.52795e-05 -1.53054e-05 -5.71814e-06
4.0499e-05 -1.2101e-05 -1.21706e-05 -1.05421e-05
3.64714e-05 -1.08563e-05 -1.09779e-05 -1.04711e-05
5.10561e-05 -1.53128e-05 -1.53186e-05 -2.8095e-09
5.66377e-05 -1.6979e-05 -1.69966e-05 -3.21731e-09
3.84842e-05 -1.1481e-05 -1.15728e-05 -1.05127e-05
4.3803e-05 -1.31082e-05 -1.31549e-05 -5.6524e-06
5.38434e-05 -1.61466e-05 -1.61558e-05 -5.18446e-09
4.85902e-05 -1.45552e-05 -1.45864e-05 -5.70313e-06
4.61939e-05 -1.38312e-05 -1.38697e-05 -5.68142e-06
3.64714e-05 -1.08563e-05 -1.09779e-05 -1.04711e-05
3.24273e-05 -9.58485e-06 -9.78961e-06 -1.03472e-05
4.55612e-05 -1.36544e-05 -1.36743e-05 -1.19816e-08
5.10561e-05 -1.53128e-05 -1.53186e-05 -2.8095e-09
3.44544e-05 -1.0226e-05 -1.03836e-05 -1.04169e-05
3.90658e-05 -1.16658e-05 -1.17428e-05 -5.55558e-06
4.82905e-05 -1.44729e-05 -1.44933e-05 -2.4505e-09
4.3803e-05 -1.31082e-05 -1.31549e-05 -5.6524e-06
4.14246e-05 -1.23868e-05 -1.24448e-05 -5.61332e-06
3.24273e-05 -9.58485e-06 -9.78961e-06 -1.03472e-05
2.83724e-05 -8.26297e-06 -8.61831e-06 -1.01256e-05
4.01926e-05 -1.20871e-05 -1.20452e-05 -7.49511e-09
4.55612e-05 -1.36544e-05 -1.36743e-05 -1.19816e-08
3.03974e-05 -8.92892e-06 -9.2008e-06 -1.0253e-05
3.43937e-05 -1.02279e-05 -1.03568e-05 -5.38027e-06
4.28635e-05 -1.2876e-05 -1.28518e-05 -1.98456e-08
3.90658e-05 -1.16658e-05 -1.17428e-05 -5.55558e-06
3.67232e-05 -1.09446e-05 -1.1048e-05 -5.4769e-06
2.83724e-05 -8.26297e-06 -8.61831e-06 -1.01256e-05
2.42304e-05 -6.88479e-06 -7.43384e-06 -9.78881e-06
3.51425e-05 -1.05263e-05 -1.05498e-05 -3.97723e-08
4.01926e-05 -1.20871e-05 -1.20452e-05 -7.49511e-09
2.63255e-05 -7.58847e-06 -8.03016e-06 -9.97173e-06
2.98731e-05 -8.80727e-06 -9.02822e-06 -5.06675e-06
3.76013e-05 -1.12601e-05 -1.12891e-05 -2.15159e-09
3.43937e-05 -1.02279e-05 -1.03568e-05 -5.38027e-06
3.21021e-05 -9.51841e-06 -9.67874e-06 -5.2549e-06
2.42304e-05 -6.88479e-06 -7.43384e-06 -9.78881e-06
2.00064e-05 -5.3926e-06 -6.26308e-06 -9.26938e-06
3.0543e-05 -9.35149e-06 -9.08209e-06 -1.40861e-08
3.51425e-05 -1.05263e-05 -1.05498e-05 -3.97723e-08
2.21148e-05 -6.13917e-06 -6.8467e-06 -9.55787e-06
2.54801e-05 -7.38387e-06 -7.75553e-06 -4.57165e-06
3.27963e-05 -9.97291e-06 -9.78146e-06 -7.42406e-08
2.98731e-05 -8.80727e-06 -9.02822e-06 -5.06675e-06
2.7676e-05 -8.08901e-06 -8.39444e-06 -4.82744e-06
2.00064e-05 -5.3926e-06 -6.26308e-06 -9.26938e-06
1.53996e-05 -3.90687e-06 -4.92544e-06 -8.70953e-06
2.69261e-05 -8.05915e-06 -8.08584e-06 -1.09353e-07
3.0543e-05 -9.35149e-06 -9.08209e-06 -1.40861e-08
1.78024e-05 -4.67354e-06 -5.62663e-06 -8.97901e-06
2.14366e-05 -6.00659e-06 -6.61285e-06 -3.75713e-06
2.85354e-05 -8.51527e-06 -8.58005e-06 3.18087e-08
2.54801e-05 -7.38387e-06 -7.75553e-06 -4.57165e-06
2.33716e-05 -6.70441e-06 -7.14306e-06 -4.25687e-06
1.53996e-05 -3.90687e-06 -4.92544e-06 -8.70953e-06
1.04368e-05 -2.43225e-06 -3.43054e-06 -8.34405e-06
2.48809e-05 -8.25974e-06 -7.12335e-06 1.73847e-07
2.69261e-05 -8.05915e-06 -8.08584e-06 -1.09353e-07
1.29078e-05 -3.06725e-06 -4.21739e-06 -8.46706e-06
1.72236e-05 -4.52061e-06 -5.44413e-06 -2.86894e-06
2.57098e-05 -8.36987e-06 -7.43138e-06 -2.40142e-07
2.14366e-05 -6.00659e-06 -6.61285e-06 -3.75713e-06
1.94592e-05 -5.25691e-06 -6.0867e-06 -3.21478e-06
1.04368e-05 -2.43225e-06 -3.43054e-06 -8.34405e-06
4.66028e-06 -2.56121e-06 -8.99601e-07 -9.75776e-06
2.63405e-05 -7.18339e-06 -8.21021e-06 1.0542e-06
2.48809e-05 -8.25974e-06 -7.12335e-06 1.73847e-07
7.76241e-06 -2.27663e-06 -2.35105e-06 -8.67552e-06
1.27314e-05 -3.28042e-06 -4.05041e-06 -2.31289e-06
2.49282e-05 -6.98893e-06 -7.68827e-06 7.49632e-07
1.72236e-05 -4.52061e-06 -5.44413e-06 -2.86894e-06
1.49182e-05 -3.86671e-06 -4.73633e-06 -2.65962e-06
4.66028e-06 -2.56121e-06 -8.99601e-07 -9.75776e-06
1.94444e-06 -9.22886e-06 3.1219e-06 -1.49984e-05
3.58994e-05 -7.28034e-06 -1.22653e-05 8.2407e-06
2.63405e-05 -7.18339e-06 -8.21021e-06 1.0542e-06
2.32333e-06 -3.82436e-06 6.433e-07 -1.16245e-05
3.37149e-06 -5.8431e-06 1.05926e-06 -8.62465e-06
2.97776e-05 -9.99087e-06 -8.48005e-06 2.21445e-06
1.27314e-05 -3.28042e-06 -4.05041e-06 -2.31289e-06
9.32763e-06 -3.18546e-06 -2.63236e-06 -3.50649e-06
1.94444e-06 -9.22886e-06 3.1219e-06 -1.49984e-05
1.28456e-05 -4.06375e-05 1.19108e-05 -1.52403e-05
2.16609e-05 -5.3634e-05 1.37028e-05 -4.10207e-05
3.58994e-05 -7.28034e-06 -1.22653e-05 8.2407e-06
4.9698e-06 -2.1706e-05 7.17268e-06 -1.77199e-05
1.15902e-05 -4.99829e-05 1.6454e-05 -2.45051e-05
3.60695e-05 -2.36703e-06 -1.44439e-05 3.71906e-06
3.37149e-06 -5.8431e-06 1.05926e-06 -8.62465e-06
1.81006e-06 -1.64346e-05 6.26766e-06 -1.61306e-05
      </DataArray> 
    </PointData>
    <CellData>
      <DataArray type="Float64" NumberOfComponents="1" Name="Process" format="ascii">
3
3
3
3
3
3
3
3
3
3
3
3
3
3
3
3
3
3
3
3
3
3
3
3
3
2
2
2
2
2
2
2
2
2
2
2
2
2
2
2
2
2
2
2
2
2
2
2
2
1
1
1
1
1
1
1
1
1
1
1
1
1
1
1
1
1
1
1
1
1
1
1
1
1
0
0
0
0
0
0
0
0
0
0
0
0
0
0
0
0
0
0
0
0
0
0
0
0
0
5
5
5
5
5
5
5
5
5
5
5
5
5
5
5
5
5
5
5
5
5
5
5
5
5
4
4
4
4
4
4
4
4
4
4
4
4
4
4
4
4
4
4
4
4
4
4
4
4
7
7
7
7
7
7
7
7
7
7
7
7
7
7
7
7
7
7
7
7
7
7
7
7
7
6
6
6
6
6
6
6
6
6
6
6
6
6
6
6
6
6
6
6
6
6
6
6
6
3
3
3
3
3
3
3
3
3
3
3
3
3
3
3
3
3
3
3
3
3
3
3
3
3
2
2
2
2
2
2
2
2
2
2
2
2
2
2
2
2
2
2
2
2
2
2
2
2
1
1
1
1
1
1
1
1
1
1
1
1
1
1
1
1
1
1
1
1
1
1
1
1
1
0
0
0
0
0
0
0
0
0
0
0
0
0
0
0
0
0
0
0
0
0
0
0
0
0
5
5
5
5
5
5
5
5
5
5
5
5
5
5
5
5
5
5
5
5
5
5
5
5
5
4
4
4
4
4
4
4
4
4
4
4
4
4
4
4
4
4
4
4
4
4
4
4
4
7
7
7
7
7
7
7
7
7
7
7
7
7
7
7
7
7
7
7
7
7
7
7
7
7
6
6
6
6
6
6
6
6
6
6
6
6
6
6
6
6
6
6
6
6
6
6
6
6
3
3
3
3
3
3
3
3
3
3
3
3
3
3
3
3
3
3
3
3
3
3
3
3
3
2
2
2
2
2
2
2
2
2
2
2
2
2
2
2
2
2
2
2
2
2
2
2
2
1
1
1
1
1
1
1
1
1
1
1
1
1
1
1
1
1
1
1
1
1
1
1
1
1
0
0
0
0
0
0
0
0
0
0
0
0
0
0
0
0
0
0
0
0
0
0
0
0
0
5
5
5
5
5
5
5
5
5
5
5
5
5
5
5
5
5
5
5
5
5
5
5
5
5
4
4
4
4
4
4
4
4
4
4
4
4
4
4
4
4
4
4
4
4
4
4
4
4
7
7
7
7
7
7
7
7
7
7
7
7
7
7
7
7
7
7
7
7
7
7
7
7
7
6
6
6
6
6
6
6
6
6
6
6
6
6
6
6
6
6
6
6
6
6
6
6
6
3
3
3
3
3
3
3
3
3
3
3
3
3
3
3
3
3
3
3
3
3
3
3
3
3
2
2
2
2
2
2
2
2
2
2
2
2
2
2
2
2
2
2
2
2
2
2
2
2
1
1
1
1
1
1
1
1
1
1
1
1
1
1
1
1
1
1
1
1
1
1
1
1
1
0
0
0
0
0
0
0
0
0
0
0
0
0
0
0
0
0
0
0
0
0
0
0
0
0
5
5
5
5
5
5
5
5
5
5
5
5
5
5
5
5
5
5
5
5
5
5
5
5
5
4
4
4
4
4
4
4
4
4
4
4
4
4
4
4
4
4
4
4
4
4
4
4
4
7
7
7
7
7
7
7
7
7
7
7
7
7
7
7
7
7
7
7
7
7
7
7
7
7
6
6
6
6
6
6
6
6
6
6
6
6
6
6
6
6
6
6
6
6
6
6
6
6
3
3
3
3
3
3
3
3
3
3
3
3
3
3
3
3
3
3
3
3
3
3
3
3
3
2
2
2
2
2
2
2
2
2
2
2
2
2
2
2
2
2
2
2
2
2
2
2
2
1
1
1
1
1
1
1
1
1
1
1
1
1
1
1
1
1
1
1
1
1
1
1
1
1
0
0
0
0
0
0
0
0
0
0
0
0
0
0
0
0
0
0
0
0
0
0
0
0
0
5
5
5
5
5
5
5
5
5
5
5
5
5
5
5
5
5
5
5
5
5
5
5
5
5
4
4
4
4
4
4
4
4
4
4
4
4
4
4
4
4
4
4
4
4
4
4
4
4
7
7
7
7
7
7
7
7
7
7
7
7
7
7
7
7
7
7
7
7
7
7
7
7
7
6
6
6
6
6
6
6
6
6
6
6
6
6
6
6
6
6
6
6
6
6
6
6
6
3
3
3
3
3
3
3
3
3
3
3
3
3
3
3
3
3
3
3
3
3
3
3
3
3
2
2
2
2
2
2
2
2
2
2
2
2
2
2
2
2
2
2
2
2
2
2
2
2
1
1
1
1
1
1
1
1
1
1
1
1
1
1
1
1
1
1
1
1
1
1
1
1
1
0
0
0
0
0
0
0
0
0
0
0
0
0
0
0
0
0
0
0
0
0
0
0
0
0
5
5
5
5
5
5
5
5
5
5
5
5
5
5
5
5
5
5
5
5
5
5
5
5
5
4
4
4
4
4
4
4
4
4
4
4
4
4
4
4
4
4
4
4
4
4
4
4
4
7
7
7
7
7
7
7
7
7
7
7
7
7
7
7
7
7
7
7
7
7
7
7
7
7
6
6
6
6
6
6
6
6
6
6
6
6
6
6
6
6
6
6
6
6
6
6
6
6
3
3
3
3
3
3
3
3
3
3
3
3
3
3
3
3
3
3
3
3
3
3
3
3
3
2
2
2
2
2
2
2
2
2
2
2
2
2
2
2
2
2
2
2
2
2
2
2
2
1
1
1
1
1
1
1
1
1
1
1
1
1
1
1
1
1
1
1
1
1
1
1
1
1
0
0
0
0
0
0
0
0
0
0
0
0
0
0
0
0
0
0
0
0
0
0
0
0
0
5
5
5
5
5
5
5
5
5
5
5
5
5
5
5
5
5
5
5
5
5
5
5
5
5
4
4
4
4
4
4
4
4
4
4
4
4
4
4
4
4
4
4
4
4
4
4
4
4
7
7
7
7
7
7
7
7
7
7
7
7
7
7
7
7
7
7
7
7
7
7
7
7
7
6
6
6
6
6
6
6
6
6
6
6
6
6
6
6
6
6
6
6
6
6
6
6
6
      </DataArray> 
    </CellData>
  </Piece>
  </UnstructuredGrid>
</VTKFile>
