<?xml version="1.0"?>
<VTKFile type="UnstructuredGrid">
  <UnstructuredGrid>
  <Piece NumberOfPoints="400"  NumberOfCells="25">
    <Points>
      <DataArray type="Float64" NumberOfComponents="3" format="ascii">
0 15 0
7.59152 14.6251 0
8.36864 24.5885 0
0 25 0
2.52162 14.9272 0
5.05297 14.8042 0
7.8571 17.9754 0
8.10928 21.2964 0
2.80337 24.9182 0
5.59277 24.7831 0
0 18.3333 0
0 21.6667 0
2.62185 18.2884 0
5.2403 18.1659 0
2.70465 21.6186 0
5.40945 21.492 0
7.59152 14.6251 0
15.2329 13.7443 0
16.6134 23.6441 0
8.36864 24.5885 0
10.135 14.3858 0
12.6824 14.0903 0
15.7005 17.0663 0
16.1529 20.367 0
11.1312 24.3304 0
13.8797 24.0133 0
7.8571 17.9754 0
8.10928 21.2964 0
10.4735 17.7254 0
13.0884 17.421 0
10.8 21.0404 0
13.481 20.7291 0
15.2329 13.7443 0
22.8985 12.4526 0
24.7235 22.2811 0
16.6134 23.6441 0
17.7859 13.3535 0
20.3411 12.9217 0
23.5131 15.7437 0
24.1156 19.0208 0
19.3317 23.2292 0
22.0348 22.7734 0
15.7005 17.0663 0
16.1529 20.367 0
18.3085 16.6655 0
20.9125 16.2231 0
18.8161 19.9583 0
21.4704 19.5079 0
22.8985 12.4526 0
30.5832 10.8602 0
32.7095 20.6289 0
24.7235 22.2811 0
25.4578 11.95 0
28.0193 11.4178 0
31.2972 14.1259 0
32.0001 17.3834 0
27.3984 21.7567 0
30.0602 21.2045 0
23.5131 15.7437 0
24.1156 19.0208 0
26.1105 15.2317 0
28.7052 14.6911 0
26.7519 18.5016 0
29.3797 17.9545 0
30.5832 10.8602 0
38.2929 9.07203 0
40.5913 18.802 0
32.7095 20.6289 0
33.1498 10.281 0
35.7196 9.68378 0
39.0627 12.3197 0
39.8239 15.5642 0
35.3471 20.0342 0
37.974 19.424 0
31.2972 14.1259 0
32.0001 17.3834 0
33.8871 13.5398 0
36.4753 12.9365 0
34.6137 16.7921 0
37.2214 16.1845 0
38.2929 9.07203 0
46.0398 7.18324 0
48.3951 16.8999 0
40.5913 18.802 0
40.8704 8.44916 0
43.4525 7.81847 0
46.8272 10.422 0
47.6076 13.662 0
43.1999 18.1719 0
45.8008 17.5368 0
39.0627 12.3197 0
39.8239 15.5642 0
41.6501 11.6928 0
44.238 11.0592 0
42.4218 14.9349 0
45.0161 14.2997 0
46.0398 7.18324 0
53.8377 5.28162 0
56.1467 15.0094 0
48.3951 16.8999 0
48.6327 6.54669 0
51.2319 5.91184 0
54.6083 8.52012 0
55.374 11.7637 0
50.9835 16.2645 0
53.5671 15.6334 0
46.8272 10.422 0
47.6076 13.662 0
49.4182 9.78446 0
52.0117 9.14954 0
50.1973 13.0248 0
52.7858 12.3911 0
53.8377 5.28162 0
61.6993 3.44708 0
63.8702 13.2065 0
56.1467 15.0094 0
56.4507 4.65894 0
59.0711 4.04653 0
62.4229 6.69263 0
63.1429 9.94654 0
58.7233 14.3952 0
61.2976 13.7935 0
54.6083 8.52012 0
55.374 11.7637 0
57.2088 7.89907 0
59.8135 7.28904 0
57.9625 11.1454 0
60.5519 10.5388 0
61.6993 3.44708 0
69.6333 1.75194 0
71.5848 11.5574 0
63.8702 13.2065 0
64.3357 2.86321 0
66.9803 2.29736 0
70.283 5.00979 0
70.9304 8.27882 0
66.4419 12.6368 0
69.0133 12.0864 0
62.4229 6.69263 0
63.1429 9.94654 0
65.0374 6.11239 0
67.6574 5.55068 0
65.7361 9.37093 0
68.3318 8.81429 0
69.6333 1.75194 0
77.6429 0.260683 0
79.3043 10.1193 0
71.5848 11.5574 0
72.2948 1.22927 0
74.9647 0.731492 0
78.1955 3.53361 0
78.7467 6.82011 0
74.1569 11.0521 0
76.73 10.5721 0
70.283 5.00979 0
70.9304 8.27882 0
72.9145 4.49197 0
75.552 3.99925 0
73.5323 7.76668 0
76.1377 7.27982 0
77.6429 0.260683 0
85.7251 -0.970671 0
87.0368 8.94026 0
79.3043 10.1193 0
80.3292 -0.181136 0
83.0234 -0.592167 0
86.1611 2.31756 0
86.5962 5.6213 0
81.8801 9.69534 0
84.4576 9.30185 0
78.1955 3.53361 0
78.7467 6.82011 0
80.845 3.09699 0
83.5002 2.69109 0
81.3595 6.38938 0
83.9761 5.98926 0
85.7251 -0.970671 0
93.8705 -1.8953 0
94.7844 8.05999 0
87.0368 8.94026 0
88.4339 -1.31497 0
91.1492 -1.62363 0
94.1742 1.40604 0
94.4773 4.72439 0
89.6177 8.61197 0
92.2003 8.31818 0
86.1611 2.31756 0
86.5962 5.6213 0
88.8273 1.97798 0
91.4985 1.67372 0
89.22 5.287 0
91.8471 4.98763 0
93.8705 -1.8953 0
102.064 -2.47654 0
102.544 7.50889 0
94.7844 8.05999 0
96.5973 -2.12868 0
99.3287 -2.32274 0
102.224 0.833674 0
102.383 4.16196 0
97.37 7.8385 0
99.9568 7.65454 0
94.1742 1.40604 0
94.4773 4.72439 0
96.854 1.17617 0
99.5374 0.985085 0
97.1102 4.49844 0
99.7456 4.31069 0
102.064 -2.47654 0
110.286 -2.68875 0
110.31 7.30812 0
102.544 7.50889 0
104.803 -2.58919 0
107.543 -2.66011 0
110.294 0.624645 0
110.302 3.95667 0
105.133 7.4023 0
107.721 7.33523 0
102.224 0.833674 0
102.383 4.16196 0
104.912 0.722772 0
107.603 0.652933 0
105.022 4.05304 0
107.661 3.98446 0
110.286 -2.68875 0
118.513 -2.51794 0
118.072 7.46917 0
110.31 7.30812 0
113.029 -2.67469 0
115.771 -2.61777 0
118.367 0.79209 0
118.22 4.12088 0
112.898 7.32133 0
115.486 7.37499 0
110.294 0.624645 0
110.302 3.95667 0
112.986 0.638324 0
115.677 0.694115 0
112.942 3.97007 0
115.581 4.02479 0
118.513 -2.51794 0
126.721 -1.9623 0
125.819 7.99386 0
118.072 7.46917 0
121.252 -2.37521 0
123.989 -2.18987 0
126.422 1.33789 0
126.122 4.65639 0
120.656 7.60387 0
123.239 7.77887 0
118.367 0.79209 0
118.22 4.12088 0
121.055 0.93225 0
123.74 1.1143 0
120.856 4.25836 0
123.491 4.43697 0
126.721 -1.9623 0
134.888 -1.03193 0
133.543 8.87423 0
125.819 7.99386 0
129.449 -1.69294 0
132.172 -1.38254 0
134.442 2.25251 0
133.995 5.55456 0
128.397 8.24848 0
130.972 8.54216 0
126.422 1.33789 0
126.122 4.65639 0
129.1 1.60258 0
131.773 1.90769 0
128.75 4.91625 0
131.375 5.21588 0
134.888 -1.03193 0
142.993 0.251222 0
141.236 10.0929 0
133.543 8.87423 0
137.597 -0.641986 0
140.299 -0.213865 0
142.409 3.51573 0
141.826 6.7963 0
136.111 9.244 0
138.676 9.65054 0
134.442 2.25251 0
133.995 5.55456 0
137.104 2.63621 0
139.76 3.05768 0
136.61 5.9315 0
139.221 6.34575 0
142.993 0.251222 0
151.021 1.85443 0
148.895 11.6233 0
141.236 10.0929 0
145.678 0.751995 0
148.354 1.28693 0
150.314 5.09644 0
149.608 8.35332 0
143.793 10.57 0
146.346 11.0806 0
142.409 3.51573 0
141.826 6.7963 0
145.052 4.00913 0
147.687 4.53651 0
144.426 7.28205 0
147.02 7.80156 0
151.021 1.85443 0
158.962 3.73491 0
156.522 13.4301 0
148.895 11.6233 0
153.678 2.45285 0
156.325 3.08033 0
158.151 6.95503 0
157.34 10.1869 0
151.441 12.1969 0
153.983 12.7998 0
150.314 5.09644 0
149.608 8.35332 0
152.934 5.68743 0
155.546 6.30761 0
152.191 8.93579 0
154.768 9.54749 0
158.962 3.73491 0
166.815 5.84067 0
164.125 15.4699 0
156.522 13.4301 0
161.589 4.41463 0
164.207 5.11729 0
165.919 9.0412 0
165.026 12.2526 0
159.059 14.0864 0
161.593 14.7669 0
158.151 6.95503 0
157.34 10.1869 0
160.748 7.62774 0
163.337 8.32378 0
159.907 10.8525 0
162.469 11.5419 0
166.815 5.84067 0
174.583 8.11214 0
171.719 17.6913 0
164.125 15.4699 0
169.413 6.5825 0
172.003 7.34044 0
173.627 11.2995 0
172.676 14.4923 0
166.657 16.1935 0
169.188 16.935 0
165.919 9.0412 0
165.026 12.2526 0
168.495 9.77793 0
171.064 10.5315 0
167.579 12.9823 0
170.129 13.7294 0
174.583 8.11214 0
182.275 10.4819 0
179.321 20.0317 0
171.719 17.6913 0
177.154 8.89507 0
179.717 9.68608 0
181.291 13.6629 0
180.31 16.8495 0
174.25 18.4599 0
176.784 19.2402 0
173.627 11.2995 0
172.676 14.4923 0
176.186 12.0792 0
178.741 12.868 0
175.223 15.2691 0
177.768 16.0562 0
182.275 10.4819 0
189.906 12.8785 0
186.959 22.4198 0
179.321 20.0317 0
184.829 11.2796 0
187.375 12.0786 0
188.925 16.0649 0
187.948 19.2422 0
181.864 20.8322 0
184.411 21.6321 0
181.291 13.6629 0
180.31 16.8495 0
183.836 14.4614 0
186.379 15.2624 0
182.851 17.6457 0
185.395 18.4435 0
189.906 12.8785 0
197.459 15 0
194.499 25 0
186.959 22.4198 0
192.42 13.6688 0
194.933 14.3969 0
196.594 18.3333 0
195.6 21.6667 0
189.503 23.1987 0
192.023 24.0326 0
188.925 16.0649 0
187.948 19.2422 0
191.477 16.8629 0
194.033 17.6296 0
190.512 20.0423 0
193.069 20.8485 0
      </DataArray>
    </Points>
    <Cells>
      <DataArray type="Int32" Name="connectivity" format="ascii">
0 1 2 3 4 5 6 7 8 9 10 11 12 13 14 15 
16 17 18 19 20 21 22 23 24 25 26 27 28 29 30 31 
32 33 34 35 36 37 38 39 40 41 42 43 44 45 46 47 
48 49 50 51 52 53 54 55 56 57 58 59 60 61 62 63 
64 65 66 67 68 69 70 71 72 73 74 75 76 77 78 79 
80 81 82 83 84 85 86 87 88 89 90 91 92 93 94 95 
96 97 98 99 100 101 102 103 104 105 106 107 108 109 110 111 
112 113 114 115 116 117 118 119 120 121 122 123 124 125 126 127 
128 129 130 131 132 133 134 135 136 137 138 139 140 141 142 143 
144 145 146 147 148 149 150 151 152 153 154 155 156 157 158 159 
160 161 162 163 164 165 166 167 168 169 170 171 172 173 174 175 
176 177 178 179 180 181 182 183 184 185 186 187 188 189 190 191 
192 193 194 195 196 197 198 199 200 201 202 203 204 205 206 207 
208 209 210 211 212 213 214 215 216 217 218 219 220 221 222 223 
224 225 226 227 228 229 230 231 232 233 234 235 236 237 238 239 
240 241 242 243 244 245 246 247 248 249 250 251 252 253 254 255 
256 257 258 259 260 261 262 263 264 265 266 267 268 269 270 271 
272 273 274 275 276 277 278 279 280 281 282 283 284 285 286 287 
288 289 290 291 292 293 294 295 296 297 298 299 300 301 302 303 
304 305 306 307 308 309 310 311 312 313 314 315 316 317 318 319 
320 321 322 323 324 325 326 327 328 329 330 331 332 333 334 335 
336 337 338 339 340 341 342 343 344 345 346 347 348 349 350 351 
352 353 354 355 356 357 358 359 360 361 362 363 364 365 366 367 
368 369 370 371 372 373 374 375 376 377 378 379 380 381 382 383 
384 385 386 387 388 389 390 391 392 393 394 395 396 397 398 399 
      </DataArray>
      <DataArray type="Int32" Name="offsets" format="ascii">
16
32
48
64
80
96
112
128
144
160
176
192
208
224
240
256
272
288
304
320
336
352
368
384
400
      </DataArray>
      <DataArray type="UInt8" Name="types" format="ascii">
70
70
70
70
70
70
70
70
70
70
70
70
70
70
70
70
70
70
70
70
70
70
70
70
70
      </DataArray>
    </Cells>
    <PointData>
      <DataArray type="Float64" NumberOfComponents="2" Name="Displacement" format="ascii">
0 0
-0.408485 -0.374898
0.368643 -0.411466
0 0
-0.145046 -0.0727819
-0.28036 -0.195764
-0.142899 -0.35795
0.109281 -0.370238
0.136698 -0.0817597
0.259441 -0.216854
0 0
0 0
-0.0448119 -0.0449448
-0.0930304 -0.167422
0.0379803 -0.0480571
0.0761156 -0.17463
-0.408485 -0.374898
-0.767102 -1.25566
0.613418 -1.35586
0.368643 -0.411466
-0.531666 -0.614172
-0.650954 -0.909706
-0.299502 -1.26706
0.152927 -1.29969
0.464507 -0.669615
0.546385 -0.986675
-0.142899 -0.35795
0.109281 -0.370238
-0.193204 -0.607939
-0.244904 -0.912357
0.133286 -0.626261
0.147675 -0.93752
-0.767102 -1.25566
-1.10152 -2.54741
0.723533 -2.71892
0.613418 -1.35586
-0.880762 -1.64654
-0.992185 -2.07835
-0.486921 -2.58963
0.115649 -2.64587
0.664993 -1.77077
0.701489 -2.22659
-0.299502 -1.26706
0.152927 -1.29969
-0.358174 -1.66785
-0.420798 -2.11022
0.14941 -1.70836
0.137046 -2.15872
-1.10152 -2.54741
-1.41676 -4.13982
0.709504 -4.37109
0.723533 -2.71892
-1.20885 -3.05001
-1.31401 -3.58217
-0.702756 -4.20745
6.22008e-05 -4.28331
0.731762 -3.24335
0.726856 -3.79552
-0.486921 -2.58963
0.115649 -2.64587
-0.556131 -3.10162
-0.628155 -3.6422
0.0852023 -3.16505
0.0463884 -3.71218
-1.41676 -4.13982
-1.70707 -5.92797
0.59128 -6.19797
0.709504 -4.37109
-1.51683 -4.71903
-1.61376 -5.31622
-0.937286 -6.01363
-0.176129 -6.10246
0.680455 -4.96584
0.640698 -5.57601
-0.702756 -4.20745
6.22008e-05 -4.28331
-0.77961 -4.79353
-0.858041 -5.39679
-0.0529468 -4.87456
-0.111911 -5.48218
-1.70707 -5.92797
-1.96025 -7.81676
0.395074 -8.10008
0.59128 -6.19797
-1.79628 -6.55084
-1.88085 -7.18153
-1.17285 -7.91134
-0.392383 -8.00465
0.533231 -6.82814
0.467515 -7.46325
-0.937286 -6.01363
-0.176129 -6.10246
-1.0166 -6.64052
-1.09533 -7.27416
-0.244865 -6.7318
-0.317251 -7.36692
-1.96025 -7.81676
-2.16229 -9.71838
0.146735 -9.99062
0.395074 -8.10008
-2.03394 -8.45331
-2.10145 -9.08816
-1.39165 -9.81321
-0.626013 -9.90301
0.316851 -8.7355
0.233765 -9.36662
-1.17285 -7.91134
-0.392383 -8.00465
-1.2485 -8.54887
-1.32166 -9.1838
-0.469389 -8.64185
-0.547509 -9.2756
-2.16229 -9.71838
-2.30069 -11.5529
-0.129788 -11.7935
0.146735 -9.99062
-2.21602 -10.3411
-2.26226 -10.9535
-1.57711 -11.6407
-0.857075 -11.7201
0.0566429 -10.6048
-0.0357682 -11.2065
-1.39165 -9.81321
-0.626013 -9.90301
-1.45788 -10.4343
-1.51985 -11.0443
-0.704191 -10.5213
-0.781414 -11.1278
-2.30069 -11.5529
-2.36672 -13.2481
-0.415245 -13.4426
-0.129788 -11.7935
-2.33102 -12.1368
-2.35307 -12.7026
-1.71702 -13.3235
-1.06961 -13.3878
-0.224739 -12.3632
-0.320066 -12.9136
-1.57711 -11.6407
-0.857075 -11.7201
-1.62925 -12.2209
-1.67598 -12.7827
-0.9306 -12.2957
-1.00157 -12.8524
-2.36672 -13.2481
-2.35714 -14.7393
-0.695706 -14.8807
-0.415245 -13.4426
-2.3719 -13.7707
-2.36867 -14.2685
-1.80449 -14.7997
-1.25327 -14.8466
-0.509791 -13.9479
-0.603375 -14.4279
-1.71702 -13.3235
-1.06961 -13.3878
-1.75215 -13.8414
-1.78131 -14.3341
-1.13436 -13.9
-1.19564 -14.3869
-2.35714 -14.7393
-2.27492 -15.9707
-0.963229 -16.0597
-0.695706 -14.8807
-2.33746 -15.1811
-2.30993 -15.5922
-1.83891 -16.0158
-1.40375 -16.0454
-0.78653 -15.3047
-0.87573 -15.6981
-1.80449 -14.7997
-1.25327 -14.8466
-1.82169 -15.2363
-1.8331 -15.6422
-1.30715 -15.2773
-1.35728 -15.6774
-2.27492 -15.9707
-2.12946 -16.8953
-1.21558 -16.94
-0.963229 -16.0597
-2.23281 -16.315
-2.18414 -16.6236
-1.8258 -16.9273
-1.52271 -16.9423
-1.04898 -16.388
-1.13306 -16.6818
-1.83891 -16.0158
-1.40375 -16.0454
-1.83937 -16.3553
-1.83486 -16.6596
-1.44665 -16.3797
-1.48621 -16.679
-2.12946 -16.8953
-1.93593 -17.4765
-1.45557 -17.4911
-1.21558 -16.94
-2.06938 -17.1287
-2.00462 -17.3227
-1.77632 -17.4997
-1.61717 -17.5047
-1.29667 -17.1615
-1.37658 -17.3455
-1.8258 -16.9273
-1.52271 -16.9423
-1.81265 -17.1572
-1.79596 -17.3482
-1.55643 -17.1682
-1.58778 -17.356
-1.93593 -17.4765
-1.71422 -17.6888
-1.69005 -17.6919
-1.45557 -17.4911
-1.86407 -17.5892
-1.78988 -17.6601
-1.70603 -17.7087
-1.69838 -17.71
-1.53392 -17.5977
-1.61196 -17.6648
-1.77632 -17.4997
-1.61717 -17.5047
-1.75432 -17.6106
-1.73066 -17.6804
-1.64506 -17.6136
-1.67195 -17.6822
-1.71422 -17.6888
-1.48716 -17.5179
-1.92831 -17.5308
-1.69005 -17.6919
-1.63794 -17.6747
-1.56195 -17.6178
-1.63344 -17.5412
-1.78031 -17.5458
-1.76853 -17.6787
-1.84782 -17.625
-1.70603 -17.7087
-1.69838 -17.71
-1.68113 -17.695
-1.65669 -17.6392
-1.72487 -17.6966
-1.752 -17.6419
-1.48716 -17.5179
-1.27885 -16.9623
-2.18079 -17.0061
-1.92831 -17.5308
-1.41448 -17.3752
-1.34476 -17.1899
-1.57804 -16.9954
-1.87794 -17.0103
-2.0104 -17.3961
-2.09445 -17.2211
-1.63344 -17.5412
-1.78031 -17.5458
-1.6121 -17.4011
-1.5934 -17.219
-1.81038 -17.4083
-1.84274 -17.2297
-1.27885 -16.9623
-1.11213 -16.0319
-2.4568 -16.1258
-2.18079 -17.0061
-1.21759 -16.6929
-1.16175 -16.3825
-1.55849 -16.0808
-2.00542 -16.1121
-2.26975 -16.7515
-2.36165 -16.4578
-1.57804 -16.9954
-1.87794 -17.0103
-1.56669 -16.7308
-1.55998 -16.4256
-1.91648 -16.7504
-1.95883 -16.4508
-1.11213 -16.0319
-1.00727 -14.7488
-2.7638 -14.9071
-2.4568 -16.1258
-1.06946 -15.642
-1.03433 -15.2139
-1.59053 -14.8176
-2.17422 -14.8704
-2.55547 -15.756
-2.65778 -15.3495
-1.55849 -16.0808
-2.00542 -16.1121
-1.56278 -15.6971
-1.57332 -15.2757
-2.05665 -15.7352
-2.11283 -15.3209
-1.00727 -14.7488
-0.979269 -13.1456
-3.10453 -13.3767
-2.7638 -14.9071
-0.988815 -14.248
-0.979357 -13.7131
-1.68559 -13.2369
-2.39168 -13.3134
-2.87361 -14.43
-2.9872 -13.9194
-1.59053 -14.8176
-2.17422 -14.8704
-1.61481 -14.3242
-1.64642 -13.7968
-2.24107 -14.3846
-2.31352 -13.8651
-0.979269 -13.1456
-1.03784 -11.2651
-3.47757 -11.5699
-3.10453 -13.3767
-0.988881 -12.5471
-1.00836 -11.9197
-1.84932 -11.3783
-2.65977 -11.4797
-3.22554 -12.8031
-3.34998 -12.2002
-1.68559 -13.2369
-2.39168 -13.3134
-1.73251 -12.6459
-1.78713 -12.0257
-2.47559 -12.7309
-2.56505 -12.1192
-1.03784 -11.2651
-1.1854 -9.15933
-3.87475 -9.53006
-3.47757 -11.5699
-1.07737 -10.5854
-1.12667 -9.88271
-2.0805 -9.29213
-2.97362 -9.41408
-3.60795 -10.9136
-3.74056 -10.2331
-1.84932 -11.3783
-2.65977 -11.4797
-1.919 -10.7056
-1.99608 -10.0095
-2.75952 -10.8142
-2.86417 -10.1248
-1.1854 -9.15933
-1.41709 -6.88786
-4.28144 -7.30874
-3.87475 -9.53006
-1.2533 -8.4175
-1.33047 -7.65956
-2.37281 -7.03383
-3.32401 -7.17436
-4.00992 -8.80647
-4.14563 -8.06505
-2.0805 -9.29213
-2.97362 -9.41408
-2.17203 -8.5554
-2.2698 -7.80179
-3.08756 -8.68434
-3.20481 -7.93726
-1.41709 -6.88786
-1.72468 -4.51813
-4.67874 -4.96828
-4.28144 -7.30874
-1.51296 -6.10493
-1.61623 -5.31392
-2.70936 -4.67048
-3.68953 -4.81714
-4.41671 -6.54005
-4.54977 -5.75979
-2.37281 -7.03383
-3.32401 -7.17436
-2.48026 -6.25409
-2.59232 -5.46536
-3.44415 -6.39757
-3.5657 -5.61049
-1.72468 -4.51813
-2.09442 -2.12147
-5.04111 -2.58023
-4.67874 -4.96828
-1.8374 -3.72038
-1.95875 -2.92141
-3.07492 -2.26845
-4.05185 -2.42445
-4.80243 -4.16776
-4.92244 -3.36789
-2.70936 -4.67048
-3.68953 -4.81714
-2.83107 -3.87193
-2.95424 -3.07096
-3.81533 -4.02097
-3.93814 -3.22318
-2.09442 -2.12147
-2.54071 0
-5.50113 0
-5.04111 -2.58023
-2.24627 -1.33122
-2.40081 -0.603113
-3.40628 0
-4.40019 0
-5.16404 -1.80129
-5.31002 -0.967431
-3.07492 -2.26845
-4.05185 -2.42445
-3.19008 -1.47047
-3.3001 -0.703699
-4.15489 -1.62436
-4.26393 -0.818147
      </DataArray> 
      <DataArray type="Float64" NumberOfComponents="4" Name="CauchyStress" format="ascii">
-113.555 -37.75 0 -12.0851
-80.1189 -0.155619 0 7.10693
89.5866 -0.34444 0 -6.96476
128.822 35.5164 0 -19.1062
-95.0948 -3.14831 0 1.47833
-85.3503 4.15037 0 6.91057
-31.0851 -1.26561 0 -3.5939
28.0035 -0.450908 0 -8.56586
108.313 2.89716 0 -6.08548
96.8578 -4.01943 0 -3.91916
-34.2112 -10.5967 0 -0.831415
30.4456 8.89762 0 -1.69024
-33.9694 -2.02161 0 -4.16095
-33.3202 -0.397719 0 -4.63811
30.3953 -0.941038 0 -6.58678
30.2207 -2.1144 0 -8.58521
-80.1189 -0.155619 0 7.10693
-60.8146 -0.740937 0 9.07972
68.0562 0.572107 0 -9.53272
89.5866 -0.34444 0 -6.96476
-74.4883 -2.41716 0 6.93087
-67.6973 -1.86392 0 7.89742
-22.7987 0.26791 0 -2.24439
19.5448 0.590454 0 -8.47997
82.8758 2.05008 0 -9.59667
75.6724 1.73744 0 -10.0588
-31.0851 -1.26561 0 -3.5939
28.0035 -0.450908 0 -8.56586
-27.7713 -1.21212 0 -2.63782
-24.8764 -0.429592 0 -2.31493
24.4769 0.287592 0 -8.18979
21.6632 0.453961 0 -8.26208
-60.8146 -0.740937 0 9.07972
-43.4623 -1.68358 0 8.10428
47.3394 1.46061 0 -9.24864
68.0562 0.572107 0 -9.53272
-54.5946 -0.606606 0 9.44361
-48.8873 -1.13107 0 8.94375
-16.7778 0.526724 0 -1.80761
13.9582 1.76225 0 -7.69217
60.6003 0.285224 0 -9.2469
53.7522 0.837189 0 -9.32592
-22.7987 0.26791 0 -2.24439
19.5448 0.590454 0 -8.47997
-21.0463 0.493146 0 -2.12176
-19 0.507732 0 -1.94851
17.8419 1.01532 0 -8.48774
16.0632 1.48822 0 -8.1974
-43.4623 -1.68358 0 8.10428
-27.1165 -1.19588 0 6.15844
29.9138 0.919184 0 -6.50812
47.3394 1.46061 0 -9.24864
-37.9694 -1.76127 0 7.38902
-32.4322 -1.49987 0 6.79569
-10.8055 1.2288 0 -2.17687
8.15423 1.94197 0 -6.42745
41.3028 1.59555 0 -8.65092
35.5447 1.33267 0 -7.66183
-16.7778 0.526724 0 -1.80761
13.9582 1.76225 0 -7.69217
-14.5663 0.730061 0 -1.82447
-12.548 1.02097 0 -1.98949
11.769 1.84856 0 -7.19711
9.8498 1.90578 0 -6.81095
-27.1165 -1.19588 0 6.15844
-12.8008 -0.67312 0 3.03338
14.3682 0.394669 0 -3.54825
29.9138 0.919184 0 -6.50812
-22.1309 -0.995048 0 5.27711
-17.3791 -0.835313 0 4.17788
-5.80885 1.42127 0 -2.69723
3.48292 1.86651 0 -4.9404
24.4466 0.647293 0 -5.45808
19.2648 0.524128 0 -4.52518
-10.8055 1.2288 0 -2.17687
8.15423 1.94197 0 -6.42745
-9.17763 1.32102 0 -2.34158
-7.49866 1.37648 0 -2.51735
6.59732 1.97219 0 -5.98462
5.06021 1.96027 0 -5.48992
-12.8008 -0.67312 0 3.03338
0.33226 0.0820011 0 -0.0306704
1.03049 -0.413784 0 -0.222218
14.3682 0.394669 0 -3.54825
-8.31356 -0.449931 0 1.95957
-3.92145 -0.182429 0 0.944556
-1.21112 1.6227 0 -3.38981
-0.892509 1.48827 0 -3.46928
9.73736 0.176075 0 -2.46104
5.30525 -0.104636 0 -1.33622
-5.80885 1.42127 0 -2.69723
3.48292 1.86651 0 -4.9404
-4.17362 1.49723 0 -2.91242
-2.64294 1.58093 0 -3.16183
1.92185 1.73857 0 -4.40705
0.461366 1.62012 0 -3.93203
0.33226 0.0820011 0 -0.0306704
12.1414 0.779944 0 -2.91741
-10.865 -1.10067 0 2.57296
1.03049 -0.413784 0 -0.222218
4.41219 0.334083 0 -1.0151
8.33252 0.572458 0 -1.99983
2.81398 1.56576 0 -3.95663
-4.68531 0.992317 0 -2.1455
-3.10731 -0.685662 0 0.797237
-7.08586 -0.905929 0 1.70932
-1.21112 1.6227 0 -3.38981
-0.892509 1.48827 0 -3.46928
0.154905 1.62299 0 -3.59249
1.48845 1.60373 0 -3.78858
-2.18278 1.34046 0 -3.01371
-3.45431 1.17588 0 -2.57863
12.1414 0.779944 0 -2.91741
22.8844 1.21746 0 -5.12691
-21.2834 -1.54944 0 4.79169
-10.865 -1.10067 0 2.57296
15.8389 0.956049 0 -3.74216
19.4079 1.10214 0 -4.48359
6.45923 1.3746 0 -4.35242
-8.13245 0.486763 0 -1.05167
-14.4733 -1.27475 0 3.3918
-17.9553 -1.42436 0 4.13082
2.81398 1.56576 0 -3.95663
-4.68531 0.992317 0 -2.1455
4.09293 1.51928 0 -4.10908
5.29267 1.45866 0 -4.25162
-5.88234 0.812953 0 -1.74079
-7.04584 0.647458 0 -1.38537
22.8844 1.21746 0 -5.12691
32.5279 1.38715 0 -6.53647
-30.4893 -1.71405 0 6.12074
-21.2834 -1.54944 0 4.79169
26.2332 1.30661 0 -5.68856
29.4283 1.36473 0 -6.17064
9.67689 1.01786 0 -4.4565
-11.1723 0.0226809 0 -0.241984
-24.4846 -1.64041 0 5.34387
-27.5718 -1.69479 0 5.77623
6.45923 1.3746 0 -4.35242
-8.13245 0.486763 0 -1.05167
7.5774 1.27007 0 -4.41806
8.63196 1.15003 0 -4.4608
-9.17547 0.328254 0 -0.747659
-10.2065 0.172077 0 -0.485293
32.5279 1.38715 0 -6.53647
41.019 1.25009 0 -6.97391
-38.4157 -1.58789 0 6.54105
-30.4893 -1.71405 0 6.12074
35.5009 1.37237 0 -6.78989
38.3123 1.32363 0 -6.94375
12.4961 0.565939 0 -4.23938
-13.8318 -0.348469 0 0.265677
-33.2626 -1.6991 0 6.36825
-35.9218 -1.65585 0 6.50126
9.67689 1.01786 0 -4.4565
-11.1723 0.0226809 0 -0.241984
10.677 0.876389 0 -4.4175
11.5973 0.724455 0 -4.35444
-12.0962 -0.113442 0 -0.0333737
-13.0015 -0.237033 0 0.126842
41.019 1.25009 0 -6.97391
48.2074 0.924172 0 -6.44164
-45.0393 -1.28401 0 6.02107
-38.4157 -1.58789 0 6.54105
43.5814 1.15726 0 -6.89842
45.9589 1.04635 0 -6.73145
14.8598 0.0750854 0 -3.67991
-16.062 -0.630278 0 0.475033
-40.7659 -1.50113 0 6.47321
-42.9918 -1.40019 0 6.28922
12.4961 0.565939 0 -4.23938
-13.8318 -0.348469 0 0.265677
13.3453 0.403059 0 -4.08628
14.1148 0.23731 0 -3.90947
-14.6139 -0.450899 0 0.371023
-15.3756 -0.546328 0 0.431056
48.2074 0.924172 0 -6.44164
53.909 0.525205 0 -4.99708
-50.2152 -0.902497 0 4.66002
-45.0393 -1.28401 0 6.02107
50.2931 0.793917 0 -6.04946
52.1781 0.658285 0 -5.57774
16.7246 -0.374186 0 -2.80428
-17.8216 -0.823077 0 0.417468
-46.9236 -1.15717 0 5.65876
-48.6636 -1.0284 0 5.19329
14.8598 0.0750854 0 -3.67991
-16.062 -0.630278 0 0.475033
15.5513 -0.0820901 0 -3.4158
16.1572 -0.233872 0 -3.13455
-16.6942 -0.703271 0 0.488204
-17.2963 -0.76818 0 0.457711
53.909 0.525205 0 -4.99708
57.9193 0.190051 0 -2.82322
-53.8373 -0.606474 0 2.6277
-50.2152 -0.902497 0 4.66002
55.4542 0.397905 0 -4.33666
56.7789 0.282181 0 -3.62339
18.0285 -0.711731 0 -1.67153
-19.057 -0.951238 0 0.147622
-51.5926 -0.789592 0 4.05159
-52.8116 -0.692549 0 3.36144
16.7246 -0.374186 0 -2.80428
-17.8216 -0.823077 0 0.417468
17.2325 -0.501962 0 -2.44624
17.6555 -0.616335 0 -2.08041
-18.2861 -0.871296 0 0.353082
-18.7094 -0.915013 0 0.250921
57.9193 0.190051 0 -2.82322
60.1083 0.0684381 0 -0.158162
-55.7627 -0.459789 0 0.147036
-53.8373 -0.606474 0 2.6277
58.8625 0.126931 0 -1.96728
59.5867 0.0878531 0 -1.08933
18.7239 -0.876755 0 -0.368951
-19.7324 -1.02905 0 -0.261414
-54.67 -0.532696 0 1.84157
-55.3168 -0.480577 0 0.999152
18.0285 -0.711731 0 -1.67153
-19.057 -0.951238 0 0.147622
18.3375 -0.788035 0 -1.24359
18.5628 -0.844704 0 -0.8212
-19.3393 -0.982529 0 0.0277778
-19.5708 -1.00973 0 -0.122089
60.1083 0.0684381 0 -0.158162
60.3422 0.15083 0 2.66366
-55.9895 -0.603681 0 -2.46783
-55.7627 -0.459789 0 0.147036
60.4137 0.0620713 0 0.788318
60.4892 0.0817147 0 1.71639
18.7915 -0.835036 0 0.990482
-19.818 -1.06212 0 -0.719336
-56.0196 -0.482735 0 -0.716736
-56.0978 -0.538274 0 -1.60067
18.7239 -0.876755 0 -0.368951
-19.7324 -1.02905 0 -0.261414
18.8196 -0.884433 0 0.0885433
18.842 -0.870371 0 0.528739
-19.8242 -1.042 0 -0.405448
-19.8528 -1.05237 0 -0.570974
60.3422 0.15083 0 2.66366
58.7076 0.589288 0 5.34789
-54.4254 -0.880246 0 -4.96916
-55.9895 -0.603681 0 -2.46783
59.9972 0.280864 0 3.59898
59.4612 0.440879 0 4.48456
18.2176 -0.604685 0 2.2911
-19.3272 -1.06942 0 -1.13456
-55.6717 -0.664779 0 -3.32808
-55.1401 -0.744775 0 -4.17983
18.7915 -0.835036 0 0.990482
-19.818 -1.06212 0 -0.719336
18.6723 -0.782624 0 1.44755
18.4853 -0.709133 0 1.87013
-19.7167 -1.07493 0 -0.864074
-19.5487 -1.08207 0 -1.01636
58.7076 0.589288 0 5.34789
55.1727 0.999146 0 7.52153
-51.3167 -1.51541 0 -6.97844
-54.4254 -0.880246 0 -4.96916
57.7362 0.694982 0 6.15093
56.562 0.806254 0 6.86314
17.0627 -0.159198 0 3.42025
-18.2734 -0.974497 0 -1.42297
-53.5501 -1.09723 0 -5.69337
-52.5129 -1.33774 0 -6.37026
18.2176 -0.604685 0 2.2911
-19.3272 -1.06942 0 -1.13456
17.8927 -0.465702 0 2.69109
17.5212 -0.309502 0 3.05478
-19.0365 -1.03293 0 -1.23609
-18.6722 -0.99307 0 -1.34332
55.1727 0.999146 0 7.52153
50.0932 1.83778 0 8.9929
-46.5172 -1.81931 0 -8.39976
-51.3167 -1.51541 0 -6.97844
53.635 1.31575 0 8.10491
51.9702 1.64607 0 8.58618
15.3383 0.285418 0 4.28391
-16.702 -0.894797 0 -1.47789
-49.9026 -1.57559 0 -7.53347
-48.2698 -1.62478 0 -8.02643
17.0627 -0.159198 0 3.42025
-18.2734 -0.974497 0 -1.42297
16.5362 -0.0326798 0 3.76028
15.9715 0.0997612 0 4.03999
-17.8213 -0.984506 0 -1.47724
-17.287 -0.976235 0 -1.50674
50.0932 1.83778 0 8.9929
43.4323 1.85786 0 9.52626
-40.5937 -2.73375 0 -8.81851
-46.5172 -1.81931 0 -8.39976
48.0039 1.80102 0 9.30078
45.7761 1.72087 0 9.47547
13.1465 1.00758 0 4.8209
-14.7244 -0.518812 0 -1.34002
-44.6881 -2.24317 0 -8.64439
-42.7276 -2.65656 0 -8.78497
15.3383 0.285418 0 4.28391
-16.702 -0.894797 0 -1.47789
14.6701 0.552515 0 4.48883
13.9674 0.827904 0 4.65722
-16.0557 -0.729689 0 -1.42737
-15.3688 -0.572002 0 -1.392
43.4323 1.85786 0 9.52626
35.6993 2.8633 0 8.96871
-33.1333 -2.03192 0 -8.50308
-40.5937 -2.73375 0 -8.81851
41.0488 2.34831 0 9.42845
38.5435 2.84028 0 9.21205
10.5812 1.19841 0 5.01035
-12.1796 -0.339214 0 -0.712263
-38.2024 -2.31218 0 -8.78133
-35.6437 -1.86904 0 -8.6883
13.1465 1.00758 0 4.8209
-14.7244 -0.518812 0 -1.34002
12.2613 1.03094 0 4.94695
11.4119 1.03162 0 5.00117
-14.0427 -0.572557 0 -1.22525
-13.1922 -0.565706 0 -1.01766
35.6993 2.8633 0 8.96871
26.758 1.33255 0 7.70129
-24.8915 -3.54549 0 -6.84025
-33.1333 -2.03192 0 -8.50308
32.5652 2.18411 0 8.72909
29.4994 1.4091 0 8.35934
7.41852 2.15333 0 4.81088
-9.73984 0.440781 0 -0.18187
-30.6764 -3.06384 0 -8.17467
-27.9954 -3.97943 0 -7.63762
10.5812 1.19841 0 5.01035
-12.1796 -0.339214 0 -0.712263
9.71658 1.62589 0 4.98817
8.69924 2.0558 0 4.9246
-11.1327 0.0805927 0 -0.438431
-10.2713 0.413059 0 -0.28379
26.758 1.33255 0 7.70129
16.9067 3.00416 0 4.71371
-15.3404 0.0970151 0 -4.86397
-24.8915 -3.54549 0 -6.84025
24.2272 2.32284 0 6.64795
21.1707 3.32754 0 5.49976
4.59417 1.53025 0 4.38395
-5.82825 0.853759 0 1.48276
-21.4213 -1.32024 0 -5.94604
-18.088 0.699163 0 -5.24302
7.41852 2.15333 0 4.81088
-9.73984 0.440781 0 -0.18187
6.14674 1.78361 0 4.6252
5.21307 1.39462 0 4.43991
-9.11627 0.282282 0 0.091309
-7.83784 0.345358 0 0.669235
16.9067 3.00416 0 4.71371
7.07859 -1.40659 0 2.50688
-3.89573 -3.68515 0 -0.511787
-15.3404 0.0970151 0 -4.86397
12.0038 0.781786 0 4.48789
8.30728 -1.46542 0 4.07243
-0.5243 2.46844 0 3.43576
-4.49283 1.19013 0 1.89141
-12.7453 -3.76823 0 -4.41665
-9.13942 -6.64528 0 -3.11852
4.59417 1.53025 0 4.38395
-5.82825 0.853759 0 1.48276
3.70049 2.30054 0 4.40778
1.97921 2.89107 0 4.18604
-4.01364 1.42948 0 2.06941
-3.5061 1.53975 0 2.14037
7.07859 -1.40659 0 2.50688
-16.666 3.16164 0 -0.0358811
1.94616 -3.77318 0 -6.01222
-3.89573 -3.68515 0 -0.511787
5.81573 1.73698 0 -0.447306
-1.05132 4.58839 0 -2.32093
-0.618911 0.811349 0 6.46239
7.83341 -0.0871663 0 5.67657
1.24184 5.32165 0 1.80426
3.47617 9.28338 0 0.591586
-0.5243 2.46844 0 3.43576
-4.49283 1.19013 0 1.89141
-2.1474 1.22617 0 2.60352
-1.88606 0.413803 0 3.18061
-4.29414 1.31106 0 2.19617
-0.181547 1.52306 0 3.56964
-16.666 3.16164 0 -0.0358811
-24.0233 33.1476 0 -40.6796
7.32404 176.61 0 17.4766
1.94616 -3.77318 0 -6.01222
-35.2458 -6.80748 0 0.60819
-42.1261 -8.20543 0 -10.935
22.5439 71.4678 0 -33.8931
14.9611 106.508 0 -19.6271
-5.90327 -24.3423 0 -8.25346
-10.3253 6.20899 0 1.07168
-0.618911 0.811349 0 6.46239
7.83341 -0.0871663 0 5.67657
-0.572945 1.93444 0 7.8726
3.3135 16.8336 0 -2.66423
11.0707 -2.13933 0 6.83808
8.86562 19.8164 0 1.2461
      </DataArray> 
    </PointData>
    <CellData>
      <DataArray type="Float64" NumberOfComponents="1" Name="Process" format="ascii">
0
1
0
1
1
0
1
1
1
0
0
0
2
0
2
2
2
2
2
3
3
3
3
3
3
      </DataArray> 
    </CellData>
  </Piece>
  </UnstructuredGrid>
</VTKFile>
