<?xml version="1.0"?>
<VTKFile type="UnstructuredGrid">
  <UnstructuredGrid>
  <Piece NumberOfPoints="12411"  NumberOfCells="1379">
    <Points>
      <DataArray type="Float64" NumberOfComponents="3" format="ascii">
0 0 0
2.5373 -0.000384185 0
2.53761 4.28558 0
0 4.28571 0
1.26862 -0.000239408 0
2.53749 2.14262 0
1.26881 4.28567 0
0 2.14286 0
1.26876 2.14275 0
2.5373 -0.000384185 0
5.07471 -0.000667447 0
5.07519 4.28534 0
2.53761 4.28558 0
3.806 -0.000520472 0
5.07496 2.14235 0
3.8064 4.28547 0
2.53749 2.14262 0
3.80622 2.14249 0
5.07471 -0.000667447 0
7.61211 -0.00100914 0
7.61276 4.285 0
5.07519 4.28534 0
6.34341 -0.000828291 0
7.61244 2.14201 0
6.34397 4.28518 0
5.07496 2.14235 0
6.3437 2.14219 0
7.61211 -0.00100914 0
10.1495 -0.00144873 0
10.1503 4.28456 0
7.61276 4.285 0
8.88081 -0.00121566 0
10.1499 2.14157 0
8.88154 4.2848 0
7.61244 2.14201 0
8.88118 2.1418 0
10.1495 -0.00144873 0
12.6869 -0.00199531 0
12.6879 4.28402 0
10.1503 4.28456 0
11.4182 -0.00170827 0
12.6874 2.14102 0
11.4191 4.2843 0
10.1499 2.14157 0
11.4187 2.14131 0
12.6869 -0.00199531 0
15.2243 -0.00265503 0
15.2255 4.28336 0
12.6879 4.28402 0
13.9556 -0.00231089 0
15.2249 2.14036 0
13.9567 4.2837 0
12.6874 2.14102 0
13.9561 2.14071 0
15.2243 -0.00265503 0
17.7617 -0.00342874 0
17.7631 4.28258 0
15.2255 4.28336 0
16.493 -0.0030276 0
17.7624 2.13959 0
16.4943 4.28298 0
15.2249 2.14036 0
16.4936 2.13999 0
17.7617 -0.00342874 0
20.2991 -0.00431719 0
20.3007 4.28169 0
17.7631 4.28258 0
19.0304 -0.00385863 0
20.2999 2.1387 0
19.0319 4.28215 0
17.7624 2.13959 0
19.0311 2.13916 0
20.2991 -0.00431719 0
22.8365 -0.00531994 0
22.8382 4.28069 0
20.3007 4.28169 0
21.5678 -0.0048043 0
22.8374 2.1377 0
21.5695 4.2812 0
20.2999 2.1387 0
21.5686 2.13821 0
22.8365 -0.00531994 0
25.3739 -0.00643659 0
25.3758 4.27957 0
22.8382 4.28069 0
24.1052 -0.00586406 0
25.3749 2.13658 0
24.107 4.28014 0
22.8374 2.1377 0
24.1061 2.13715 0
25.3739 -0.00643659 0
27.9113 -0.00766651 0
27.9134 4.27834 0
25.3758 4.27957 0
26.6426 -0.00703743 0
27.9124 2.13535 0
26.6446 4.27897 0
25.3749 2.13658 0
26.6436 2.13598 0
27.9113 -0.00766651 0
30.4487 -0.0090091 0
30.451 4.27699 0
27.9134 4.27834 0
29.18 -0.00832376 0
30.4499 2.134 0
29.1822 4.27768 0
27.9124 2.13535 0
29.1811 2.13469 0
30.4487 -0.0090091 0
32.9861 -0.0104637 0
32.9886 4.27554 0
30.451 4.27699 0
31.7174 -0.00972244 0
32.9874 2.13255 0
31.7198 4.27628 0
30.4499 2.134 0
31.7186 2.13329 0
32.9861 -0.0104637 0
35.5235 -0.0120297 0
35.5262 4.27397 0
32.9886 4.27554 0
34.2548 -0.0112328 0
35.5249 2.13098 0
34.2574 4.27477 0
32.9874 2.13255 0
34.2561 2.13178 0
35.5235 -0.0120297 0
38.0609 -0.0137065 0
38.0638 4.27229 0
35.5262 4.27397 0
36.7922 -0.0128543 0
38.0624 2.1293 0
36.795 4.27314 0
35.5249 2.13098 0
36.7936 2.13016 0
38.0609 -0.0137065 0
40.5983 -0.0154935 0
40.6014 4.2705 0
38.0638 4.27229 0
39.3296 -0.0145863 0
40.5999 2.12752 0
39.3326 4.27141 0
38.0624 2.1293 0
39.3311 2.12842 0
40.5983 -0.0154935 0
43.1358 -0.0173901 0
43.139 4.2686 0
40.6014 4.2705 0
41.8671 -0.0164282 0
43.1374 2.12562 0
41.8702 4.26957 0
40.5999 2.12752 0
41.8687 2.12658 0
43.1358 -0.0173901 0
45.6732 -0.0193956 0
45.6767 4.2666 0
43.139 4.2686 0
44.4045 -0.0183793 0
45.6749 2.12361 0
44.4079 4.26761 0
43.1374 2.12562 0
44.4062 2.12463 0
45.6732 -0.0193956 0
48.2106 -0.0215095 0
48.2143 4.26448 0
45.6767 4.2666 0
46.9419 -0.0204391 0
48.2125 2.1215 0
46.9455 4.26555 0
45.6749 2.12361 0
46.9437 2.12257 0
48.2106 -0.0215095 0
50.7481 -0.0237312 0
50.7519 4.26226 0
48.2143 4.26448 0
49.4793 -0.0226069 0
50.75 2.11927 0
49.4831 4.26338 0
48.2125 2.1215 0
49.4812 2.1204 0
50.7481 -0.0237312 0
53.2855 -0.02606 0
53.2895 4.25993 0
50.7519 4.26226 0
52.0168 -0.0248822 0
53.2875 2.11694 0
52.0207 4.2611 0
50.75 2.11927 0
52.0187 2.11812 0
53.2855 -0.02606 0
55.8229 -0.0284953 0
55.8271 4.25749 0
53.2895 4.25993 0
54.5542 -0.0272643 0
55.825 2.11451 0
54.5583 4.25872 0
53.2875 2.11694 0
54.5563 2.11574 0
55.8229 -0.0284953 0
58.3604 -0.0310365 0
58.3648 4.25495 0
55.8271 4.25749 0
57.0917 -0.0297527 0
58.3626 2.11197 0
57.0959 4.25623 0
55.825 2.11451 0
57.0938 2.11325 0
58.3604 -0.0310365 0
60.8978 -0.0336831 0
60.9024 4.2523 0
58.3648 4.25495 0
59.6291 -0.0323467 0
60.9001 2.10932 0
59.6336 4.25363 0
58.3626 2.11197 0
59.6313 2.11066 0
60.8978 -0.0336831 0
63.4353 -0.0364345 0
63.44 4.24954 0
60.9024 4.2523 0
62.1666 -0.0350457 0
63.4376 2.10657 0
62.1712 4.25093 0
60.9001 2.10932 0
62.1689 2.10796 0
63.4353 -0.0364345 0
65.9727 -0.0392899 0
65.9776 4.24669 0
63.44 4.24954 0
64.704 -0.0378492 0
65.9752 2.10371 0
64.7088 4.24813 0
63.4376 2.10657 0
64.7064 2.10515 0
65.9727 -0.0392899 0
68.5102 -0.0422489 0
68.5153 4.24373 0
65.9776 4.24669 0
67.2415 -0.0407565 0
68.5127 2.10075 0
67.2465 4.24522 0
65.9752 2.10371 0
67.244 2.10224 0
68.5102 -0.0422489 0
71.0477 -0.0453107 0
71.0529 4.24066 0
68.5153 4.24373 0
69.7789 -0.043767 0
71.0503 2.09769 0
69.7841 4.24221 0
68.5127 2.10075 0
69.7815 2.09923 0
71.0477 -0.0453107 0
73.5851 -0.0484749 0
73.5905 4.2375 0
71.0529 4.24066 0
72.3164 -0.0468801 0
73.5878 2.09452 0
72.3217 4.23909 0
71.0503 2.09769 0
72.3191 2.09612 0
73.5851 -0.0484749 0
76.1226 -0.0517408 0
76.1282 4.23423 0
73.5905 4.2375 0
74.8539 -0.0500952 0
76.1254 2.09126 0
74.8594 4.23588 0
73.5878 2.09452 0
74.8566 2.0929 0
76.1226 -0.0517408 0
78.6601 -0.0551077 0
78.6658 4.23086 0
76.1282 4.23423 0
77.3913 -0.0534117 0
78.663 2.08789 0
77.397 4.23256 0
76.1254 2.09126 0
77.3942 2.08958 0
78.6601 -0.0551077 0
81.1975 -0.0585752 0
81.2035 4.22739 0
78.6658 4.23086 0
79.9288 -0.056829 0
81.2005 2.08442 0
79.9347 4.22914 0
78.663 2.08789 0
79.9317 2.08617 0
81.1975 -0.0585752 0
83.735 -0.0621426 0
83.7411 4.22382 0
81.2035 4.22739 0
82.4663 -0.0603464 0
83.7381 2.08085 0
82.4723 4.22562 0
81.2005 2.08442 0
82.4693 2.08265 0
83.735 -0.0621426 0
86.2725 -0.0658092 0
86.2788 4.22015 0
83.7411 4.22382 0
85.0038 -0.0639635 0
86.2756 2.07718 0
85.01 4.222 0
83.7381 2.08085 0
85.0069 2.07903 0
86.2725 -0.0658092 0
88.81 -0.0695745 0
88.8164 4.21639 0
86.2788 4.22015 0
87.5413 -0.0676795 0
88.8132 2.07342 0
87.5476 4.21828 0
86.2756 2.07718 0
87.5444 2.07531 0
88.81 -0.0695745 0
91.3475 -0.0734379 0
91.3541 4.21252 0
88.8164 4.21639 0
90.0787 -0.071494 0
91.3508 2.06955 0
90.0853 4.21447 0
88.8132 2.07342 0
90.082 2.0715 0
91.3475 -0.0734379 0
93.885 -0.0773987 0
93.8917 4.20856 0
91.3541 4.21252 0
92.6162 -0.0754061 0
93.8884 2.06559 0
92.6229 4.21055 0
91.3508 2.06955 0
92.6196 2.06758 0
93.885 -0.0773987 0
96.4225 -0.0814564 0
96.4294 4.2045 0
93.8917 4.20856 0
95.1537 -0.0794155 0
96.4259 2.06153 0
95.1606 4.20654 0
93.8884 2.06559 0
95.1572 2.06357 0
96.4225 -0.0814564 0
98.96 -0.0856104 0
98.9671 4.20034 0
96.4294 4.2045 0
97.6912 -0.0835214 0
98.9635 2.05738 0
97.6982 4.20243 0
96.4259 2.06153 0
97.6947 2.05947 0
98.96 -0.0856104 0
101.497 -0.08986 0
101.505 4.19609 0
98.9671 4.20034 0
100.229 -0.0877232 0
101.501 2.05313 0
100.236 4.19823 0
98.9635 2.05738 0
100.232 2.05526 0
101.497 -0.08986 0
104.035 -0.0942046 0
104.042 4.19175 0
101.505 4.19609 0
102.766 -0.0920205 0
104.039 2.04878 0
102.774 4.19393 0
101.501 2.05313 0
102.77 2.05097 0
104.035 -0.0942046 0
106.572 -0.0986437 0
106.58 4.1873 0
104.042 4.19175 0
105.304 -0.0964124 0
106.576 2.04434 0
105.311 4.18954 0
104.039 2.04878 0
105.307 2.04657 0
106.572 -0.0986437 0
109.11 -0.103177 0
109.118 4.18277 0
106.58 4.1873 0
107.841 -0.100898 0
109.114 2.03981 0
107.849 4.18505 0
106.576 2.04434 0
107.845 2.04209 0
109.11 -0.103177 0
111.648 -0.107803 0
111.655 4.17814 0
109.118 4.18277 0
110.379 -0.105478 0
111.651 2.03518 0
110.387 4.18047 0
109.114 2.03981 0
110.383 2.0375 0
111.648 -0.107803 0
114.185 -0.112522 0
114.193 4.17342 0
111.655 4.17814 0
112.916 -0.110151 0
114.189 2.03046 0
112.924 4.17579 0
111.651 2.03518 0
112.92 2.03283 0
114.185 -0.112522 0
116.723 -0.117332 0
116.731 4.16861 0
114.193 4.17342 0
115.454 -0.114916 0
116.727 2.02565 0
115.462 4.17103 0
114.189 2.03046 0
115.458 2.02807 0
116.723 -0.117332 0
119.26 -0.122235 0
119.268 4.1637 0
116.731 4.16861 0
117.991 -0.119772 0
119.264 2.02074 0
118 4.16617 0
116.727 2.02565 0
117.995 2.02321 0
119.26 -0.122235 0
121.798 -0.127228 0
121.806 4.15871 0
119.268 4.1637 0
120.529 -0.12472 0
121.802 2.01575 0
120.537 4.16122 0
119.264 2.02074 0
120.533 2.01826 0
121.798 -0.127228 0
124.335 -0.132311 0
124.344 4.15362 0
121.806 4.15871 0
123.066 -0.129758 0
124.339 2.01067 0
123.075 4.15618 0
121.802 2.01575 0
123.071 2.01322 0
124.335 -0.132311 0
126.873 -0.137484 0
126.882 4.14845 0
124.344 4.15362 0
125.604 -0.134886 0
126.877 2.00549 0
125.613 4.15105 0
124.339 2.01067 0
125.608 2.00809 0
126.873 -0.137484 0
129.41 -0.142746 0
129.419 4.14319 0
126.882 4.14845 0
128.141 -0.140104 0
129.415 2.00023 0
128.15 4.14583 0
126.877 2.00549 0
128.146 2.00287 0
129.41 -0.142746 0
131.948 -0.148096 0
131.957 4.13783 0
129.419 4.14319 0
130.679 -0.14541 0
131.952 1.99488 0
130.688 4.14052 0
129.415 2.00023 0
130.684 1.99757 0
131.948 -0.148096 0
134.485 -0.153534 0
134.495 4.13239 0
131.957 4.13783 0
133.217 -0.150804 0
134.49 1.98944 0
133.226 4.13513 0
131.952 1.99488 0
133.221 1.99217 0
134.485 -0.153534 0
137.023 -0.159059 0
137.032 4.12687 0
134.495 4.13239 0
135.754 -0.156285 0
137.028 1.98391 0
135.763 4.12964 0
134.49 1.98944 0
135.759 1.98669 0
137.023 -0.159059 0
139.56 -0.164671 0
139.57 4.12125 0
137.032 4.12687 0
138.292 -0.161854 0
139.565 1.9783 0
138.301 4.12407 0
137.028 1.98391 0
138.296 1.98112 0
139.56 -0.164671 0
142.098 -0.170368 0
142.108 4.11555 0
139.57 4.12125 0
140.829 -0.167509 0
142.103 1.9726 0
140.839 4.11841 0
139.565 1.9783 0
140.834 1.97546 0
142.098 -0.170368 0
144.636 -0.176151 0
144.645 4.10977 0
142.108 4.11555 0
143.367 -0.173249 0
144.64 1.96682 0
143.377 4.11267 0
142.103 1.9726 0
143.372 1.96972 0
144.636 -0.176151 0
147.173 -0.182019 0
147.183 4.1039 0
144.645 4.10977 0
145.904 -0.179075 0
147.178 1.96095 0
145.914 4.10684 0
144.64 1.96682 0
145.909 1.96389 0
147.173 -0.182019 0
149.711 -0.187971 0
149.721 4.09795 0
147.183 4.1039 0
148.442 -0.184985 0
149.716 1.955 0
148.452 4.10093 0
147.178 1.96095 0
148.447 1.95798 0
149.711 -0.187971 0
152.248 -0.194007 0
152.259 4.09191 0
149.721 4.09795 0
150.979 -0.190979 0
152.253 1.94896 0
150.99 4.09494 0
149.716 1.955 0
150.985 1.95199 0
152.248 -0.194007 0
154.786 -0.200125 0
154.796 4.08579 0
152.259 4.09191 0
153.517 -0.197056 0
154.791 1.94284 0
153.527 4.08886 0
152.253 1.94896 0
153.522 1.94591 0
154.786 -0.200125 0
157.323 -0.206326 0
157.334 4.07959 0
154.796 4.08579 0
156.055 -0.203215 0
157.329 1.93664 0
156.065 4.0827 0
154.791 1.94284 0
156.06 1.93975 0
157.323 -0.206326 0
159.861 -0.212609 0
159.872 4.0733 0
157.334 4.07959 0
158.592 -0.209457 0
159.866 1.93035 0
158.603 4.07645 0
157.329 1.93664 0
158.598 1.93351 0
159.861 -0.212609 0
162.399 -0.218972 0
162.409 4.06694 0
159.872 4.0733 0
161.13 -0.21578 0
162.404 1.92399 0
161.141 4.07013 0
159.866 1.93035 0
161.135 1.92718 0
162.399 -0.218972 0
164.936 -0.225417 0
164.947 4.06049 0
162.409 4.06694 0
163.667 -0.222184 0
164.942 1.91754 0
163.678 4.06372 0
162.404 1.92399 0
163.673 1.92078 0
164.936 -0.225417 0
167.474 -0.231941 0
167.485 4.05396 0
164.947 4.06049 0
166.205 -0.228669 0
167.479 1.91102 0
166.216 4.05724 0
164.942 1.91754 0
166.21 1.91429 0
167.474 -0.231941 0
170.011 -0.238544 0
170.023 4.04736 0
167.485 4.05396 0
168.743 -0.235233 0
170.017 1.90442 0
168.754 4.05067 0
167.479 1.91102 0
168.748 1.90773 0
170.011 -0.238544 0
172.549 -0.245226 0
172.56 4.04067 0
170.023 4.04736 0
171.28 -0.241875 0
172.555 1.89773 0
171.291 4.04403 0
170.017 1.90442 0
171.286 1.90108 0
172.549 -0.245226 0
175.087 -0.251986 0
175.098 4.03391 0
172.56 4.04067 0
173.818 -0.248597 0
175.092 1.89097 0
173.829 4.0373 0
172.555 1.89773 0
173.823 1.89436 0
175.087 -0.251986 0
177.624 -0.258824 0
177.636 4.02707 0
175.098 4.03391 0
176.355 -0.255396 0
177.63 1.88413 0
176.367 4.0305 0
175.092 1.89097 0
176.361 1.88756 0
177.624 -0.258824 0
180.162 -0.265739 0
180.174 4.02016 0
177.636 4.02707 0
178.893 -0.262272 0
180.168 1.87722 0
178.905 4.02362 0
177.63 1.88413 0
178.899 1.88068 0
180.162 -0.265739 0
182.699 -0.27273 0
182.711 4.01316 0
180.174 4.02016 0
181.431 -0.269225 0
182.705 1.87022 0
181.442 4.01667 0
180.168 1.87722 0
181.436 1.87373 0
182.699 -0.27273 0
185.237 -0.279796 0
185.249 4.00609 0
182.711 4.01316 0
183.968 -0.276254 0
185.243 1.86316 0
183.98 4.00964 0
182.705 1.87022 0
183.974 1.8667 0
185.237 -0.279796 0
187.775 -0.286938 0
187.787 3.99895 0
185.249 4.00609 0
186.506 -0.283358 0
187.781 1.85601 0
186.518 4.00253 0
185.243 1.86316 0
186.512 1.85959 0
187.775 -0.286938 0
190.312 -0.294154 0
190.324 3.99173 0
187.787 3.99895 0
189.043 -0.290537 0
190.318 1.8488 0
189.056 3.99535 0
187.781 1.85601 0
189.05 1.85241 0
190.312 -0.294154 0
192.85 -0.301444 0
192.862 3.98444 0
190.324 3.99173 0
191.581 -0.29779 0
192.856 1.84151 0
191.593 3.9881 0
190.318 1.8488 0
191.587 1.84516 0
192.85 -0.301444 0
195.388 -0.308807 0
195.4 3.97708 0
192.862 3.98444 0
194.119 -0.305117 0
195.394 1.83414 0
194.131 3.98077 0
192.856 1.84151 0
194.125 1.83783 0
195.388 -0.308807 0
197.925 -0.316243 0
197.938 3.96964 0
195.4 3.97708 0
196.656 -0.312516 0
197.931 1.8267 0
196.669 3.97337 0
195.394 1.83414 0
196.663 1.83043 0
197.925 -0.316243 0
200.463 -0.323751 0
200.476 3.96213 0
197.938 3.96964 0
199.194 -0.319988 0
200.469 1.8192 0
199.207 3.96589 0
197.931 1.8267 0
199.2 1.82296 0
200.463 -0.323751 0
203 -0.331331 0
203.013 3.95455 0
200.476 3.96213 0
201.732 -0.327532 0
203.007 1.81162 0
201.744 3.95835 0
200.469 1.8192 0
201.738 1.81541 0
203 -0.331331 0
205.538 -0.338981 0
205.551 3.94689 0
203.013 3.95455 0
204.269 -0.335147 0
205.545 1.80396 0
204.282 3.95073 0
203.007 1.81162 0
204.276 1.8078 0
205.538 -0.338981 0
208.076 -0.346702 0
208.089 3.93917 0
205.551 3.94689 0
206.807 -0.342833 0
208.082 1.79624 0
206.82 3.94304 0
205.545 1.80396 0
206.813 1.80011 0
208.076 -0.346702 0
210.613 -0.354492 0
210.627 3.93138 0
208.089 3.93917 0
209.345 -0.350588 0
210.62 1.78845 0
209.358 3.93528 0
208.082 1.79624 0
209.351 1.79236 0
210.613 -0.354492 0
213.151 -0.362351 0
213.164 3.92352 0
210.627 3.93138 0
211.882 -0.358413 0
213.158 1.78059 0
211.895 3.92746 0
210.62 1.78845 0
211.889 1.78453 0
213.151 -0.362351 0
215.689 -0.370278 0
215.702 3.91559 0
213.164 3.92352 0
214.42 -0.366306 0
215.695 1.77266 0
214.433 3.91956 0
213.158 1.78059 0
214.427 1.77664 0
215.689 -0.370278 0
218.226 -0.378274 0
218.24 3.90759 0
215.702 3.91559 0
216.957 -0.374268 0
218.233 1.76467 0
216.971 3.9116 0
215.695 1.77266 0
216.964 1.76867 0
218.226 -0.378274 0
220.764 -0.386336 0
220.778 3.89953 0
218.24 3.90759 0
219.495 -0.382297 0
220.771 1.7566 0
219.509 3.90357 0
218.233 1.76467 0
219.502 1.76064 0
220.764 -0.386336 0
223.302 -0.394466 0
223.315 3.8914 0
220.778 3.89953 0
222.033 -0.390393 0
223.309 1.74847 0
222.047 3.89547 0
220.771 1.7566 0
222.04 1.75255 0
223.302 -0.394466 0
225.839 -0.402661 0
225.853 3.8832 0
223.315 3.8914 0
224.57 -0.398555 0
225.846 1.74028 0
224.584 3.88731 0
223.309 1.74847 0
224.577 1.74438 0
225.839 -0.402661 0
228.377 -0.410921 0
228.391 3.87494 0
225.853 3.8832 0
227.108 -0.406783 0
228.384 1.73201 0
227.122 3.87908 0
225.846 1.74028 0
227.115 1.73615 0
228.377 -0.410921 0
230.915 -0.419247 0
230.929 3.86661 0
228.391 3.87494 0
229.646 -0.415076 0
230.922 1.72369 0
229.66 3.87078 0
228.384 1.73201 0
229.653 1.72786 0
230.915 -0.419247 0
233.452 -0.427636 0
233.467 3.85822 0
230.929 3.86661 0
232.184 -0.423433 0
233.459 1.7153 0
232.198 3.86242 0
230.922 1.72369 0
232.191 1.7195 0
233.452 -0.427636 0
235.99 -0.436089 0
236.004 3.84976 0
233.467 3.85822 0
234.721 -0.431855 0
235.997 1.70684 0
234.735 3.854 0
233.459 1.7153 0
234.728 1.71108 0
235.99 -0.436089 0
238.528 -0.444605 0
238.542 3.84124 0
236.004 3.84976 0
237.259 -0.44034 0
238.535 1.69833 0
237.273 3.84551 0
235.997 1.70684 0
237.266 1.70259 0
238.528 -0.444605 0
241.065 -0.453184 0
241.08 3.83266 0
238.542 3.84124 0
239.797 -0.448887 0
241.073 1.68975 0
239.811 3.83696 0
238.535 1.69833 0
239.804 1.69404 0
241.065 -0.453184 0
243.603 -0.461824 0
243.618 3.82402 0
241.08 3.83266 0
242.334 -0.457496 0
243.61 1.68111 0
242.349 3.82835 0
241.073 1.68975 0
242.342 1.68543 0
243.603 -0.461824 0
246.141 -0.470526 0
246.156 3.81532 0
243.618 3.82402 0
244.872 -0.466167 0
246.148 1.6724 0
244.887 3.81968 0
243.61 1.68111 0
244.879 1.67676 0
246.141 -0.470526 0
248.679 -0.479287 0
248.693 3.80656 0
246.156 3.81532 0
247.41 -0.474899 0
248.686 1.66364 0
247.424 3.81094 0
246.148 1.6724 0
247.417 1.66803 0
248.679 -0.479287 0
251.216 -0.488109 0
251.231 3.79773 0
248.693 3.80656 0
249.947 -0.483691 0
251.224 1.65482 0
249.962 3.80215 0
248.686 1.66364 0
249.955 1.65924 0
251.216 -0.488109 0
253.754 -0.496991 0
253.769 3.78885 0
251.231 3.79773 0
252.485 -0.492543 0
253.761 1.64594 0
252.5 3.7933 0
251.224 1.65482 0
252.493 1.65038 0
253.754 -0.496991 0
256.292 -0.505931 0
256.307 3.77991 0
253.769 3.78885 0
255.023 -0.501453 0
256.299 1.63699 0
255.038 3.78438 0
253.761 1.64594 0
255.03 1.64147 0
256.292 -0.505931 0
258.829 -0.514929 0
258.845 3.77091 0
256.307 3.77991 0
257.56 -0.510422 0
258.837 1.62799 0
257.576 3.77541 0
256.299 1.63699 0
257.568 1.6325 0
258.829 -0.514929 0
261.367 -0.523984 0
261.382 3.76185 0
258.845 3.77091 0
260.098 -0.519449 0
261.375 1.61894 0
260.113 3.76638 0
258.837 1.62799 0
260.106 1.62347 0
261.367 -0.523984 0
263.905 -0.533097 0
263.92 3.75273 0
261.382 3.76185 0
262.636 -0.528533 0
263.912 1.60982 0
262.651 3.7573 0
261.375 1.61894 0
262.644 1.61439 0
263.905 -0.533097 0
266.442 -0.542266 0
266.458 3.74356 0
263.92 3.75273 0
265.174 -0.537674 0
266.45 1.60065 0
265.189 3.74816 0
263.912 1.60982 0
265.181 1.60525 0
266.442 -0.542266 0
268.98 -0.55149 0
268.996 3.73434 0
266.458 3.74356 0
267.711 -0.546871 0
268.988 1.59143 0
267.727 3.73896 0
266.45 1.60065 0
267.719 1.59605 0
268.98 -0.55149 0
271.518 -0.56077 0
271.534 3.72506 0
268.996 3.73434 0
270.249 -0.556123 0
271.526 1.58215 0
270.265 3.7297 0
268.988 1.59143 0
270.257 1.5868 0
271.518 -0.56077 0
274.056 -0.570104 0
274.071 3.71572 0
271.534 3.72506 0
272.787 -0.56543 0
274.064 1.57281 0
272.803 3.72039 0
271.526 1.58215 0
272.795 1.57749 0
274.056 -0.570104 0
276.593 -0.579492 0
276.609 3.70633 0
274.071 3.71572 0
275.325 -0.574791 0
276.601 1.56342 0
275.34 3.71103 0
274.064 1.57281 0
275.332 1.56813 0
276.593 -0.579492 0
279.131 -0.588933 0
279.147 3.69689 0
276.609 3.70633 0
277.862 -0.584206 0
279.139 1.55398 0
277.878 3.70161 0
276.601 1.56342 0
277.87 1.55871 0
279.131 -0.588933 0
281.669 -0.598427 0
281.685 3.68739 0
279.147 3.69689 0
280.4 -0.593674 0
281.677 1.54449 0
280.416 3.69214 0
279.139 1.55398 0
280.408 1.54924 0
281.669 -0.598427 0
284.207 -0.607974 0
284.223 3.67784 0
281.685 3.68739 0
282.938 -0.603194 0
284.215 1.53494 0
282.954 3.68262 0
281.677 1.54449 0
282.946 1.53972 0
284.207 -0.607974 0
286.744 -0.617571 0
286.761 3.66824 0
284.223 3.67784 0
285.476 -0.612766 0
286.753 1.52534 0
285.492 3.67305 0
284.215 1.53494 0
285.484 1.53015 0
286.744 -0.617571 0
289.282 -0.62722 0
289.298 3.65859 0
286.761 3.66824 0
288.013 -0.622389 0
289.29 1.51569 0
288.03 3.66342 0
286.753 1.52534 0
288.021 1.52052 0
289.282 -0.62722 0
291.82 -0.636918 0
291.836 3.64889 0
289.298 3.65859 0
290.551 -0.632063 0
291.828 1.50599 0
290.567 3.65375 0
289.29 1.51569 0
290.559 1.51085 0
291.82 -0.636918 0
294.358 -0.646667 0
294.374 3.63914 0
291.836 3.64889 0
293.089 -0.641786 0
294.366 1.49624 0
293.105 3.64402 0
291.828 1.50599 0
293.097 1.50112 0
294.358 -0.646667 0
296.895 -0.656464 0
296.912 3.62934 0
294.374 3.63914 0
295.627 -0.651559 0
296.904 1.48644 0
295.643 3.63425 0
294.366 1.49624 0
295.635 1.49135 0
296.895 -0.656464 0
299.433 -0.66631 0
299.45 3.61949 0
296.912 3.62934 0
298.164 -0.661381 0
299.442 1.4766 0
298.181 3.62442 0
296.904 1.48644 0
298.173 1.48153 0
299.433 -0.66631 0
301.971 -0.676204 0
301.988 3.6096 0
299.45 3.61949 0
300.702 -0.671251 0
301.979 1.4667 0
300.719 3.61455 0
299.442 1.4766 0
300.71 1.47166 0
301.971 -0.676204 0
304.509 -0.686145 0
304.526 3.59966 0
301.988 3.6096 0
303.24 -0.681168 0
304.517 1.45676 0
303.257 3.60463 0
301.979 1.4667 0
303.248 1.46174 0
304.509 -0.686145 0
307.047 -0.696132 0
307.063 3.58967 0
304.526 3.59966 0
305.778 -0.691132 0
307.055 1.44677 0
305.794 3.59467 0
304.517 1.45676 0
305.786 1.45177 0
307.047 -0.696132 0
309.584 -0.706166 0
309.601 3.57963 0
307.063 3.58967 0
308.315 -0.701143 0
309.593 1.43674 0
308.332 3.58466 0
307.055 1.44677 0
308.324 1.44176 0
309.584 -0.706166 0
312.122 -0.716245 0
312.139 3.56955 0
309.601 3.57963 0
310.853 -0.7112 0
312.131 1.42666 0
310.87 3.5746 0
309.593 1.43674 0
310.862 1.4317 0
312.122 -0.716245 0
314.66 -0.726369 0
314.677 3.55943 0
312.139 3.56955 0
313.391 -0.721301 0
314.668 1.41653 0
313.408 3.56449 0
312.131 1.42666 0
313.4 1.4216 0
314.66 -0.726369 0
317.198 -0.736537 0
317.215 3.54926 0
314.677 3.55943 0
315.929 -0.731447 0
317.206 1.40636 0
315.946 3.55435 0
314.668 1.41653 0
315.937 1.41145 0
317.198 -0.736537 0
319.735 -0.746748 0
319.753 3.53904 0
317.215 3.54926 0
318.467 -0.741637 0
319.744 1.39615 0
318.484 3.54415 0
317.206 1.40636 0
318.475 1.40126 0
319.735 -0.746748 0
322.273 -0.757003 0
322.291 3.52879 0
319.753 3.53904 0
321.004 -0.75187 0
322.282 1.3859 0
321.022 3.53392 0
319.744 1.39615 0
321.013 1.39103 0
322.273 -0.757003 0
324.811 -0.7673 0
324.828 3.51849 0
322.291 3.52879 0
323.542 -0.762146 0
324.82 1.3756 0
323.56 3.52364 0
322.282 1.3859 0
323.551 1.38075 0
324.811 -0.7673 0
327.349 -0.777639 0
327.366 3.50815 0
324.828 3.51849 0
326.08 -0.772464 0
327.358 1.36526 0
326.097 3.51332 0
324.82 1.3756 0
326.089 1.37043 0
327.349 -0.777639 0
329.887 -0.788019 0
329.904 3.49776 0
327.366 3.50815 0
328.618 -0.782824 0
329.895 1.35488 0
328.635 3.50296 0
327.358 1.36526 0
328.627 1.36007 0
329.887 -0.788019 0
332.424 -0.798439 0
332.442 3.48734 0
329.904 3.49776 0
331.156 -0.793224 0
332.433 1.34446 0
331.173 3.49256 0
329.895 1.35488 0
331.164 1.34967 0
332.424 -0.798439 0
334.962 -0.8089 0
334.98 3.47688 0
332.442 3.48734 0
333.693 -0.803665 0
334.971 1.33399 0
333.711 3.48212 0
332.433 1.34446 0
333.702 1.33923 0
334.962 -0.8089 0
337.5 -0.8194 0
337.518 3.46638 0
334.98 3.47688 0
336.231 -0.814145 0
337.509 1.32349 0
336.249 3.47163 0
334.971 1.33399 0
336.24 1.32875 0
337.5 -0.8194 0
340.038 -0.829938 0
340.056 3.45584 0
337.518 3.46638 0
338.769 -0.824664 0
340.047 1.31295 0
338.787 3.46111 0
337.509 1.32349 0
338.778 1.31823 0
340.038 -0.829938 0
342.576 -0.840515 0
342.594 3.44526 0
340.056 3.45584 0
341.307 -0.835222 0
342.585 1.30238 0
341.325 3.45055 0
340.047 1.31295 0
341.316 1.30767 0
342.576 -0.840515 0
345.114 -0.85113 0
345.132 3.43464 0
342.594 3.44526 0
343.845 -0.845818 0
345.123 1.29176 0
343.863 3.43995 0
342.585 1.30238 0
343.854 1.29707 0
345.114 -0.85113 0
347.651 -0.861781 0
347.669 3.42399 0
345.132 3.43464 0
346.383 -0.856451 0
347.66 1.28111 0
346.4 3.42932 0
345.123 1.29176 0
346.392 1.28644 0
347.651 -0.861781 0
350.189 -0.872469 0
350.207 3.4133 0
347.669 3.42399 0
348.92 -0.86712 0
350.198 1.27042 0
348.938 3.41865 0
347.66 1.28111 0
348.929 1.27577 0
350.189 -0.872469 0
352.727 -0.883192 0
352.745 3.40257 0
350.207 3.4133 0
351.458 -0.877826 0
352.736 1.25969 0
351.476 3.40794 0
350.198 1.27042 0
351.467 1.26506 0
352.727 -0.883192 0
355.265 -0.893951 0
355.283 3.39181 0
352.745 3.40257 0
353.996 -0.888567 0
355.274 1.24894 0
354.014 3.3972 0
352.736 1.25969 0
354.005 1.25432 0
355.265 -0.893951 0
357.803 -0.904744 0
357.821 3.38102 0
355.283 3.39181 0
356.534 -0.899343 0
357.812 1.23814 0
356.552 3.38642 0
355.274 1.24894 0
356.543 1.24354 0
357.803 -0.904744 0
360.341 -0.915571 0
360.359 3.37019 0
357.821 3.38102 0
359.072 -0.910153 0
360.35 1.22731 0
359.09 3.37561 0
357.812 1.23814 0
359.081 1.23273 0
360.341 -0.915571 0
362.879 -0.926431 0
362.897 3.35933 0
360.359 3.37019 0
361.61 -0.920997 0
362.888 1.21645 0
361.628 3.36476 0
360.35 1.22731 0
361.619 1.22189 0
362.879 -0.926431 0
365.416 -0.937324 0
365.435 3.34843 0
362.897 3.35933 0
364.147 -0.931873 0
365.426 1.20556 0
364.166 3.35388 0
362.888 1.21645 0
364.157 1.21101 0
365.416 -0.937324 0
367.954 -0.948249 0
367.973 3.33751 0
365.435 3.34843 0
366.685 -0.942782 0
367.963 1.19463 0
366.704 3.34297 0
365.426 1.20556 0
366.695 1.2001 0
367.954 -0.948249 0
370.492 -0.959206 0
370.511 3.32655 0
367.973 3.33751 0
369.223 -0.953723 0
370.501 1.18367 0
369.242 3.33203 0
367.963 1.19463 0
369.232 1.18916 0
370.492 -0.959206 0
373.03 -0.970193 0
373.049 3.31556 0
370.511 3.32655 0
371.761 -0.964696 0
373.039 1.17269 0
371.78 3.32106 0
370.501 1.18367 0
371.77 1.17818 0
373.03 -0.970193 0
375.568 -0.981211 0
375.586 3.30454 0
373.049 3.31556 0
374.299 -0.975698 0
375.577 1.16167 0
374.317 3.31005 0
373.039 1.17269 0
374.308 1.16718 0
375.568 -0.981211 0
378.106 -0.992258 0
378.124 3.29349 0
375.586 3.30454 0
376.837 -0.986731 0
378.115 1.15062 0
376.855 3.29902 0
375.577 1.16167 0
376.846 1.15615 0
378.106 -0.992258 0
380.644 -1.00333 0
380.662 3.28241 0
378.124 3.29349 0
379.375 -0.997793 0
380.653 1.13954 0
379.393 3.28795 0
378.115 1.15062 0
379.384 1.14508 0
380.644 -1.00333 0
383.181 -1.01444 0
383.2 3.2713 0
380.662 3.28241 0
381.913 -1.00888 0
383.191 1.12844 0
381.931 3.27686 0
380.653 1.13954 0
381.922 1.13399 0
383.181 -1.01444 0
385.719 -1.02557 0
385.738 3.26017 0
383.2 3.2713 0
384.45 -1.02 0
385.729 1.1173 0
384.469 3.26574 0
383.191 1.12844 0
384.46 1.12287 0
385.719 -1.02557 0
388.257 -1.03673 0
388.276 3.24901 0
385.738 3.26017 0
386.988 -1.03115 0
388.267 1.10614 0
387.007 3.25459 0
385.729 1.1173 0
386.998 1.11172 0
388.257 -1.03673 0
390.795 -1.04792 0
390.814 3.23782 0
388.276 3.24901 0
389.526 -1.04232 0
390.805 1.09495 0
389.545 3.24342 0
388.267 1.10614 0
389.536 1.10055 0
390.795 -1.04792 0
393.333 -1.05913 0
393.352 3.22661 0
390.814 3.23782 0
392.064 -1.05352 0
393.342 1.08374 0
392.083 3.23222 0
390.805 1.09495 0
392.074 1.08935 0
393.333 -1.05913 0
395.871 -1.07037 0
395.89 3.21537 0
393.352 3.22661 0
394.602 -1.06475 0
395.88 1.0725 0
394.621 3.22099 0
393.342 1.08374 0
394.611 1.07812 0
395.871 -1.07037 0
398.409 -1.08163 0
398.428 3.2041 0
395.89 3.21537 0
397.14 -1.076 0
398.418 1.06124 0
397.159 3.20974 0
395.88 1.0725 0
397.149 1.06687 0
398.409 -1.08163 0
400.947 -1.09292 0
400.966 3.19281 0
398.428 3.2041 0
399.678 -1.08727 0
400.956 1.04995 0
399.697 3.19846 0
398.418 1.06124 0
399.687 1.05559 0
400.947 -1.09292 0
403.485 -1.10423 0
403.504 3.1815 0
400.966 3.19281 0
402.216 -1.09857 0
403.494 1.03864 0
402.235 3.18716 0
400.956 1.04995 0
402.225 1.04429 0
403.485 -1.10423 0
406.023 -1.11557 0
406.042 3.17016 0
403.504 3.1815 0
404.754 -1.1099 0
406.032 1.0273 0
404.773 3.17583 0
403.494 1.03864 0
404.763 1.03297 0
406.023 -1.11557 0
408.56 -1.12692 0
408.58 3.1588 0
406.042 3.17016 0
407.291 -1.12124 0
408.57 1.01594 0
407.311 3.16449 0
406.032 1.0273 0
407.301 1.02162 0
408.56 -1.12692 0
411.098 -1.1383 0
411.118 3.14742 0
408.58 3.1588 0
409.829 -1.13261 0
411.108 1.00456 0
409.849 3.15312 0
408.57 1.01594 0
409.839 1.01026 0
411.098 -1.1383 0
413.636 -1.1497 0
413.656 3.13602 0
411.118 3.14742 0
412.367 -1.144 0
413.646 0.993164 0
412.387 3.14173 0
411.108 1.00456 0
412.377 0.998867 0
413.636 -1.1497 0
416.174 -1.16112 0
416.194 3.1246 0
413.656 3.13602 0
414.905 -1.15541 0
416.184 0.981743 0
414.925 3.13032 0
413.646 0.993164 0
414.915 0.987456 0
416.174 -1.16112 0
418.712 -1.17256 0
418.731 3.11316 0
416.194 3.1246 0
417.443 -1.16684 0
418.722 0.970302 0
417.462 3.11888 0
416.184 0.981743 0
417.453 0.976025 0
418.712 -1.17256 0
421.25 -1.18402 0
421.269 3.1017 0
418.731 3.11316 0
419.981 -1.17829 0
421.26 0.958842 0
420 3.10743 0
418.722 0.970302 0
419.991 0.964574 0
421.25 -1.18402 0
423.788 -1.1955 0
423.807 3.09022 0
421.269 3.1017 0
422.519 -1.18976 0
423.798 0.947362 0
422.538 3.09596 0
421.26 0.958842 0
422.529 0.953104 0
423.788 -1.1955 0
426.326 -1.20699 0
426.345 3.07872 0
423.807 3.09022 0
425.057 -1.20124 0
426.336 0.935865 0
425.076 3.08447 0
423.798 0.947362 0
425.067 0.941616 0
426.326 -1.20699 0
428.864 -1.21851 0
428.883 3.06721 0
426.345 3.07872 0
427.595 -1.21275 0
428.874 0.92435 0
427.614 3.07297 0
426.336 0.935865 0
427.605 0.93011 0
428.864 -1.21851 0
431.402 -1.23004 0
431.421 3.05567 0
428.883 3.06721 0
430.133 -1.22427 0
431.412 0.912818 0
430.152 3.06144 0
428.874 0.92435 0
430.143 0.918586 0
431.402 -1.23004 0
433.94 -1.24159 0
433.959 3.04412 0
431.421 3.05567 0
432.671 -1.23581 0
433.95 0.90127 0
432.69 3.0499 0
431.412 0.912818 0
432.681 0.907046 0
433.94 -1.24159 0
436.478 -1.25315 0
436.497 3.03256 0
433.959 3.04412 0
435.209 -1.24737 0
436.488 0.889706 0
435.228 3.03834 0
433.95 0.90127 0
435.219 0.89549 0
436.478 -1.25315 0
439.016 -1.26473 0
439.035 3.02098 0
436.497 3.03256 0
437.747 -1.25894 0
439.025 0.878127 0
437.766 3.02677 0
436.488 0.889706 0
437.756 0.883919 0
439.016 -1.26473 0
441.554 -1.27632 0
441.573 3.00938 0
439.035 3.02098 0
440.285 -1.27052 0
441.563 0.866533 0
440.304 3.01518 0
439.025 0.878127 0
440.294 0.872332 0
441.554 -1.27632 0
444.092 -1.28793 0
444.111 2.99778 0
441.573 3.00938 0
442.823 -1.28212 0
444.101 0.854926 0
442.842 3.00358 0
441.563 0.866533 0
442.832 0.860731 0
444.092 -1.28793 0
446.63 -1.29955 0
446.649 2.98615 0
444.111 2.99778 0
445.361 -1.29374 0
446.639 0.843305 0
445.38 2.99197 0
444.101 0.854926 0
445.37 0.849117 0
446.63 -1.29955 0
449.168 -1.31118 0
449.187 2.97452 0
446.649 2.98615 0
447.899 -1.30536 0
449.177 0.831671 0
447.918 2.98034 0
446.639 0.843305 0
447.908 0.83749 0
449.168 -1.31118 0
451.706 -1.32283 0
451.725 2.96287 0
449.187 2.97452 0
450.437 -1.317 0
451.715 0.820026 0
450.456 2.9687 0
449.177 0.831671 0
450.446 0.82585 0
451.706 -1.32283 0
454.244 -1.33448 0
454.263 2.95122 0
451.725 2.96287 0
452.975 -1.32865 0
454.253 0.808368 0
452.994 2.95705 0
451.715 0.820026 0
452.984 0.814198 0
454.244 -1.33448 0
456.781 -1.34615 0
456.801 2.93955 0
454.263 2.95122 0
455.513 -1.34031 0
456.791 0.7967 0
455.532 2.94538 0
454.253 0.808368 0
455.522 0.802535 0
456.781 -1.34615 0
459.319 -1.35783 0
459.339 2.92787 0
456.801 2.93955 0
458.05 -1.35199 0
459.329 0.785021 0
458.07 2.93371 0
456.791 0.7967 0
458.06 0.790862 0
459.319 -1.35783 0
461.857 -1.36951 0
461.877 2.91618 0
459.339 2.92787 0
460.588 -1.36367 0
461.867 0.773333 0
460.608 2.92202 0
459.329 0.785021 0
460.598 0.779179 0
461.857 -1.36951 0
464.395 -1.38121 0
464.415 2.90448 0
461.877 2.91618 0
463.126 -1.37536 0
464.405 0.761636 0
463.146 2.91033 0
461.867 0.773333 0
463.136 0.767486 0
464.395 -1.38121 0
466.933 -1.39292 0
466.953 2.89277 0
464.415 2.90448 0
465.664 -1.38706 0
466.943 0.74993 0
465.684 2.89863 0
464.405 0.761636 0
465.674 0.755784 0
466.933 -1.39292 0
469.471 -1.40463 0
469.491 2.88106 0
466.953 2.89277 0
468.202 -1.39877 0
469.481 0.738216 0
468.222 2.88692 0
466.943 0.74993 0
468.212 0.744074 0
469.471 -1.40463 0
472.009 -1.41635 0
472.029 2.86934 0
469.491 2.88106 0
470.74 -1.41049 0
472.019 0.726496 0
470.76 2.8752 0
469.481 0.738216 0
470.75 0.732357 0
472.009 -1.41635 0
474.547 -1.42807 0
474.567 2.85761 0
472.029 2.86934 0
473.278 -1.42221 0
474.557 0.714768 0
473.298 2.86347 0
472.019 0.726496 0
473.288 0.720633 0
474.547 -1.42807 0
477.085 -1.43981 0
477.105 2.84587 0
474.567 2.85761 0
475.816 -1.43394 0
477.095 0.703034 0
475.836 2.85174 0
474.557 0.714768 0
475.826 0.708902 0
477.085 -1.43981 0
479.623 -1.45155 0
479.643 2.83414 0
477.105 2.84587 0
478.354 -1.44568 0
479.633 0.691295 0
478.374 2.84001 0
477.095 0.703034 0
478.364 0.697165 0
479.623 -1.45155 0
482.162 -1.46329 0
482.181 2.82239 0
479.643 2.83414 0
480.892 -1.45742 0
482.171 0.679551 0
480.912 2.82826 0
479.633 0.691295 0
480.902 0.685424 0
482.162 -1.46329 0
484.7 -1.47504 0
484.719 2.81064 0
482.181 2.82239 0
483.431 -1.46916 0
484.709 0.667803 0
483.45 2.81652 0
482.171 0.679551 0
483.44 0.673678 0
484.7 -1.47504 0
487.238 -1.48679 0
487.257 2.79889 0
484.719 2.81064 0
485.969 -1.48091 0
487.247 0.656052 0
485.988 2.80477 0
484.709 0.667803 0
485.978 0.661928 0
487.238 -1.48679 0
489.776 -1.49854 0
489.795 2.78713 0
487.257 2.79889 0
488.507 -1.49266 0
489.786 0.644296 0
488.526 2.79301 0
487.247 0.656052 0
488.516 0.650174 0
489.776 -1.49854 0
492.314 -1.5103 0
492.333 2.77537 0
489.795 2.78713 0
491.045 -1.50442 0
492.324 0.632538 0
491.064 2.78125 0
489.786 0.644296 0
491.055 0.638418 0
492.314 -1.5103 0
494.852 -1.52206 0
494.871 2.76361 0
492.333 2.77537 0
493.583 -1.51618 0
494.862 0.620774 0
493.602 2.76949 0
492.324 0.632538 0
493.593 0.626657 0
494.852 -1.52206 0
497.39 -1.53384 0
497.41 2.75184 0
494.871 2.76361 0
496.121 -1.52795 0
497.4 0.609001 0
496.141 2.75773 0
494.862 0.620774 0
496.131 0.61489 0
497.39 -1.53384 0
499.928 -1.54566 0
499.948 2.74006 0
497.41 2.75184 0
498.659 -1.53973 0
499.938 0.597204 0
498.679 2.74595 0
497.4 0.609001 0
498.669 0.603106 0
0 4.28571 0
2.53761 4.28558 0
2.5378 8.5714 0
0 8.57143 0
1.26881 4.28567 0
2.53771 6.42851 0
1.26891 8.57144 0
0 6.42857 0
1.26886 6.42856 0
2.53761 4.28558 0
5.07519 4.28534 0
5.07559 8.57122 0
2.5378 8.5714 0
3.8064 4.28547 0
5.07539 6.42829 0
3.8067 8.57133 0
2.53771 6.42851 0
3.80656 6.42842 0
5.07519 4.28534 0
7.61276 4.285 0
7.61336 8.57091 0
5.07559 8.57122 0
6.34397 4.28518 0
7.61307 6.42797 0
6.34448 8.57108 0
5.07539 6.42829 0
6.34423 6.42815 0
7.61276 4.285 0
10.1503 4.28456 0
10.1511 8.57048 0
7.61336 8.57091 0
8.88154 4.2848 0
10.1507 6.42753 0
8.88225 8.57071 0
7.61307 6.42797 0
8.8819 6.42777 0
10.1503 4.28456 0
12.6879 4.28402 0
12.6889 8.56993 0
10.1511 8.57048 0
11.4191 4.2843 0
12.6884 6.42699 0
11.42 8.57022 0
10.1507 6.42753 0
11.4196 6.42727 0
12.6879 4.28402 0
15.2255 4.28336 0
15.2267 8.56927 0
12.6889 8.56993 0
13.9567 4.2837 0
15.2261 6.42633 0
13.9578 8.56962 0
12.6884 6.42699 0
13.9572 6.42667 0
15.2255 4.28336 0
17.7631 4.28258 0
17.7645 8.56849 0
15.2267 8.56927 0
16.4943 4.28298 0
17.7638 6.42555 0
16.4956 8.5689 0
15.2261 6.42633 0
16.4949 6.42595 0
17.7631 4.28258 0
20.3007 4.28169 0
20.3022 8.5676 0
17.7645 8.56849 0
19.0319 4.28215 0
20.3014 6.42466 0
19.0333 8.56806 0
17.7638 6.42555 0
19.0326 6.42512 0
20.3007 4.28169 0
22.8382 4.28069 0
22.84 8.5666 0
20.3022 8.5676 0
21.5695 4.2812 0
22.8391 6.42365 0
21.5711 8.56711 0
20.3014 6.42466 0
21.5703 6.42417 0
22.8382 4.28069 0
25.3758 4.27957 0
25.3778 8.56548 0
22.84 8.5666 0
24.107 4.28014 0
25.3768 6.42253 0
24.1089 8.56605 0
22.8391 6.42365 0
24.108 6.42311 0
25.3758 4.27957 0
27.9134 4.27834 0
27.9156 8.56424 0
25.3778 8.56548 0
26.6446 4.27897 0
27.9145 6.4213 0
26.6467 8.56487 0
25.3768 6.42253 0
26.6457 6.42193 0
27.9134 4.27834 0
30.451 4.27699 0
30.4534 8.5629 0
27.9156 8.56424 0
29.1822 4.27768 0
30.4522 6.41996 0
29.1845 8.56358 0
27.9145 6.4213 0
29.1834 6.42064 0
30.451 4.27699 0
32.9886 4.27554 0
32.9912 8.56144 0
30.4534 8.5629 0
31.7198 4.27628 0
32.9899 6.4185 0
31.7223 8.56218 0
30.4522 6.41996 0
31.721 6.41924 0
32.9886 4.27554 0
35.5262 4.27397 0
35.5289 8.55987 0
32.9912 8.56144 0
34.2574 4.27477 0
35.5276 6.41693 0
34.26 8.56067 0
32.9899 6.4185 0
34.2587 6.41773 0
35.5262 4.27397 0
38.0638 4.27229 0
38.0667 8.55819 0
35.5289 8.55987 0
36.795 4.27314 0
38.0653 6.41525 0
36.7978 8.55905 0
35.5276 6.41693 0
36.7964 6.41611 0
38.0638 4.27229 0
40.6014 4.2705 0
40.6045 8.5564 0
38.0667 8.55819 0
39.3326 4.27141 0
40.603 6.41346 0
39.3356 8.55731 0
38.0653 6.41525 0
39.3341 6.41437 0
40.6014 4.2705 0
43.139 4.2686 0
43.1423 8.5545 0
40.6045 8.5564 0
41.8702 4.26957 0
43.1407 6.41156 0
41.8734 8.55547 0
40.603 6.41346 0
41.8718 6.41253 0
43.139 4.2686 0
45.6767 4.2666 0
45.6801 8.55249 0
43.1423 8.5545 0
44.4079 4.26761 0
45.6784 6.40956 0
44.4112 8.55351 0
43.1407 6.41156 0
44.4095 6.41057 0
45.6767 4.2666 0
48.2143 4.26448 0
48.2179 8.55038 0
45.6801 8.55249 0
46.9455 4.26555 0
48.2161 6.40744 0
46.949 8.55145 0
45.6784 6.40956 0
46.9472 6.40851 0
48.2143 4.26448 0
50.7519 4.26226 0
50.7557 8.54815 0
48.2179 8.55038 0
49.4831 4.26338 0
50.7538 6.40522 0
49.4868 8.54928 0
48.2161 6.40744 0
49.4849 6.40634 0
50.7519 4.26226 0
53.2895 4.25993 0
53.2935 8.54582 0
50.7557 8.54815 0
52.0207 4.2611 0
53.2915 6.40288 0
52.0246 8.547 0
50.7538 6.40522 0
52.0227 6.40406 0
53.2895 4.25993 0
55.8271 4.25749 0
55.8313 8.54338 0
53.2935 8.54582 0
54.5583 4.25872 0
55.8292 6.40045 0
54.5624 8.54461 0
53.2915 6.40288 0
54.5604 6.40168 0
55.8271 4.25749 0
58.3648 4.25495 0
58.3691 8.54084 0
55.8313 8.54338 0
57.0959 4.25623 0
58.3669 6.3979 0
57.1002 8.54212 0
55.8292 6.40045 0
57.0981 6.39919 0
58.3648 4.25495 0
60.9024 4.2523 0
60.9069 8.53819 0
58.3691 8.54084 0
59.6336 4.25363 0
60.9046 6.39525 0
59.638 8.53953 0
58.3669 6.3979 0
59.6358 6.39659 0
60.9024 4.2523 0
63.44 4.24954 0
63.4447 8.53543 0
60.9069 8.53819 0
62.1712 4.25093 0
63.4424 6.3925 0
62.1758 8.53682 0
60.9046 6.39525 0
62.1735 6.39389 0
63.44 4.24954 0
65.9776 4.24669 0
65.9825 8.53258 0
63.4447 8.53543 0
64.7088 4.24813 0
65.9801 6.38964 0
64.7136 8.53402 0
63.4424 6.3925 0
64.7112 6.39108 0
65.9776 4.24669 0
68.5153 4.24373 0
68.5203 8.52961 0
65.9825 8.53258 0
67.2465 4.24522 0
68.5178 6.38668 0
67.2514 8.53111 0
65.9801 6.38964 0
67.2489 6.38817 0
68.5153 4.24373 0
71.0529 4.24066 0
71.0581 8.52655 0
68.5203 8.52961 0
69.7841 4.24221 0
71.0555 6.38362 0
69.7892 8.52809 0
68.5178 6.38668 0
69.7867 6.38516 0
71.0529 4.24066 0
73.5905 4.2375 0
73.596 8.52338 0
71.0581 8.52655 0
72.3217 4.23909 0
73.5933 6.38045 0
72.327 8.52498 0
71.0555 6.38362 0
72.3244 6.38205 0
73.5905 4.2375 0
76.1282 4.23423 0
76.1338 8.52011 0
73.596 8.52338 0
74.8594 4.23588 0
76.131 6.37718 0
74.8649 8.52176 0
73.5933 6.38045 0
74.8621 6.37883 0
76.1282 4.23423 0
78.6658 4.23086 0
78.6716 8.51674 0
76.1338 8.52011 0
77.397 4.23256 0
78.6687 6.37381 0
77.4027 8.51844 0
76.131 6.37718 0
77.3998 6.37551 0
78.6658 4.23086 0
81.2035 4.22739 0
81.2094 8.51327 0
78.6716 8.51674 0
79.9347 4.22914 0
81.2064 6.37034 0
79.9405 8.51502 0
78.6687 6.37381 0
79.9376 6.37209 0
81.2035 4.22739 0
83.7411 4.22382 0
83.7472 8.5097 0
81.2094 8.51327 0
82.4723 4.22562 0
83.7442 6.36677 0
82.4783 8.5115 0
81.2064 6.37034 0
82.4753 6.36857 0
83.7411 4.22382 0
86.2788 4.22015 0
86.285 8.50603 0
83.7472 8.5097 0
85.01 4.222 0
86.2819 6.3631 0
85.0161 8.50788 0
83.7442 6.36677 0
85.013 6.36495 0
86.2788 4.22015 0
88.8164 4.21639 0
88.8228 8.50226 0
86.285 8.50603 0
87.5476 4.21828 0
88.8196 6.35934 0
87.5539 8.50416 0
86.2819 6.3631 0
87.5508 6.36123 0
88.8164 4.21639 0
91.3541 4.21252 0
91.3607 8.4984 0
88.8228 8.50226 0
90.0853 4.21447 0
91.3574 6.35547 0
90.0918 8.50034 0
88.8196 6.35934 0
90.0885 6.35742 0
91.3541 4.21252 0
93.8917 4.20856 0
93.8985 8.49443 0
91.3607 8.4984 0
92.6229 4.21055 0
93.8951 6.35151 0
92.6296 8.49643 0
91.3574 6.35547 0
92.6262 6.3535 0
93.8917 4.20856 0
96.4294 4.2045 0
96.4363 8.49037 0
93.8985 8.49443 0
95.1606 4.20654 0
96.4329 6.34745 0
95.1674 8.49242 0
93.8951 6.35151 0
95.164 6.34949 0
96.4294 4.2045 0
98.9671 4.20034 0
98.9741 8.48622 0
96.4363 8.49037 0
97.6982 4.20243 0
98.9706 6.34329 0
97.7052 8.48831 0
96.4329 6.34745 0
97.7017 6.34538 0
98.9671 4.20034 0
101.505 4.19609 0
101.512 8.48196 0
98.9741 8.48622 0
100.236 4.19823 0
101.508 6.33904 0
100.243 8.4841 0
98.9706 6.34329 0
100.239 6.34118 0
101.505 4.19609 0
104.042 4.19175 0
104.05 8.47762 0
101.512 8.48196 0
102.774 4.19393 0
104.046 6.33469 0
102.781 8.4798 0
101.508 6.33904 0
102.777 6.33688 0
104.042 4.19175 0
106.58 4.1873 0
106.588 8.47317 0
104.05 8.47762 0
105.311 4.18954 0
106.584 6.33025 0
105.319 8.47541 0
104.046 6.33469 0
105.315 6.33248 0
106.58 4.1873 0
109.118 4.18277 0
109.125 8.46864 0
106.588 8.47317 0
107.849 4.18505 0
109.122 6.32571 0
107.857 8.47092 0
106.584 6.33025 0
107.853 6.32799 0
109.118 4.18277 0
111.655 4.17814 0
111.663 8.46401 0
109.125 8.46864 0
110.387 4.18047 0
111.659 6.32108 0
110.394 8.46633 0
109.122 6.32571 0
110.39 6.32341 0
111.655 4.17814 0
114.193 4.17342 0
114.201 8.45929 0
111.663 8.46401 0
112.924 4.17579 0
114.197 6.31636 0
112.932 8.46166 0
111.659 6.32108 0
112.928 6.31874 0
114.193 4.17342 0
116.731 4.16861 0
116.739 8.45447 0
114.201 8.45929 0
115.462 4.17103 0
116.735 6.31155 0
115.47 8.45689 0
114.197 6.31636 0
115.466 6.31397 0
116.731 4.16861 0
119.268 4.1637 0
119.277 8.44957 0
116.739 8.45447 0
118 4.16617 0
119.273 6.30665 0
118.008 8.45203 0
116.735 6.31155 0
118.004 6.30911 0
119.268 4.1637 0
121.806 4.15871 0
121.815 8.44457 0
119.277 8.44957 0
120.537 4.16122 0
121.81 6.30165 0
120.546 8.44708 0
119.273 6.30665 0
120.541 6.30416 0
121.806 4.15871 0
124.344 4.15362 0
124.352 8.43948 0
121.815 8.44457 0
123.075 4.15618 0
124.348 6.29656 0
123.084 8.44204 0
121.81 6.30165 0
123.079 6.29912 0
124.344 4.15362 0
126.882 4.14845 0
126.89 8.43431 0
124.352 8.43948 0
125.613 4.15105 0
126.886 6.29139 0
125.621 8.43691 0
124.348 6.29656 0
125.617 6.29399 0
126.882 4.14845 0
129.419 4.14319 0
129.428 8.42904 0
126.89 8.43431 0
128.15 4.14583 0
129.424 6.28612 0
128.159 8.43169 0
126.886 6.29139 0
128.155 6.28877 0
129.419 4.14319 0
131.957 4.13783 0
131.966 8.42369 0
129.428 8.42904 0
130.688 4.14052 0
131.961 6.28077 0
130.697 8.42638 0
129.424 6.28612 0
130.693 6.28346 0
131.957 4.13783 0
134.495 4.13239 0
134.504 8.41825 0
131.966 8.42369 0
133.226 4.13513 0
134.499 6.27533 0
133.235 8.42098 0
131.961 6.28077 0
133.23 6.27806 0
134.495 4.13239 0
137.032 4.12687 0
137.042 8.41272 0
134.504 8.41825 0
135.763 4.12964 0
137.037 6.2698 0
135.773 8.41549 0
134.499 6.27533 0
135.768 6.27258 0
137.032 4.12687 0
139.57 4.12125 0
139.58 8.4071 0
137.042 8.41272 0
138.301 4.12407 0
139.575 6.26419 0
138.311 8.40992 0
137.037 6.2698 0
138.306 6.26701 0
139.57 4.12125 0
142.108 4.11555 0
142.117 8.4014 0
139.58 8.4071 0
140.839 4.11841 0
142.113 6.25849 0
140.848 8.40426 0
139.575 6.26419 0
140.844 6.26135 0
142.108 4.11555 0
144.645 4.10977 0
144.655 8.39562 0
142.117 8.4014 0
143.377 4.11267 0
144.65 6.2527 0
143.386 8.39852 0
142.113 6.25849 0
143.381 6.25561 0
144.645 4.10977 0
147.183 4.1039 0
147.193 8.38975 0
144.655 8.39562 0
145.914 4.10684 0
147.188 6.24683 0
145.924 8.39269 0
144.65 6.2527 0
145.919 6.24978 0
147.183 4.1039 0
149.721 4.09795 0
149.731 8.38379 0
147.193 8.38975 0
148.452 4.10093 0
149.726 6.24088 0
148.462 8.38678 0
147.188 6.24683 0
148.457 6.24386 0
149.721 4.09795 0
152.259 4.09191 0
152.269 8.37775 0
149.731 8.38379 0
150.99 4.09494 0
152.264 6.23484 0
151 8.38078 0
149.726 6.24088 0
150.995 6.23787 0
152.259 4.09191 0
154.796 4.08579 0
154.807 8.37163 0
152.269 8.37775 0
153.527 4.08886 0
154.801 6.22872 0
153.538 8.3747 0
152.264 6.23484 0
153.533 6.23179 0
154.796 4.08579 0
157.334 4.07959 0
157.344 8.36543 0
154.807 8.37163 0
156.065 4.0827 0
157.339 6.22251 0
156.076 8.36854 0
154.801 6.22872 0
156.07 6.22563 0
157.334 4.07959 0
159.872 4.0733 0
159.882 8.35914 0
157.344 8.36543 0
158.603 4.07645 0
159.877 6.21623 0
158.613 8.36229 0
157.339 6.22251 0
158.608 6.21938 0
159.872 4.0733 0
162.409 4.06694 0
162.42 8.35277 0
159.882 8.35914 0
161.141 4.07013 0
162.415 6.20986 0
161.151 8.35597 0
159.877 6.21623 0
161.146 6.21306 0
162.409 4.06694 0
164.947 4.06049 0
164.958 8.34633 0
162.42 8.35277 0
163.678 4.06372 0
164.953 6.20342 0
163.689 8.34956 0
162.415 6.20986 0
163.684 6.20665 0
164.947 4.06049 0
167.485 4.05396 0
167.496 8.3398 0
164.958 8.34633 0
166.216 4.05724 0
167.49 6.19689 0
166.227 8.34307 0
164.953 6.20342 0
166.221 6.20016 0
167.485 4.05396 0
170.023 4.04736 0
170.034 8.33319 0
167.496 8.3398 0
168.754 4.05067 0
170.028 6.19028 0
168.765 8.33651 0
167.49 6.19689 0
168.759 6.1936 0
170.023 4.04736 0
172.56 4.04067 0
172.572 8.32651 0
170.034 8.33319 0
171.291 4.04403 0
172.566 6.1836 0
171.303 8.32986 0
170.028 6.19028 0
171.297 6.18695 0
172.56 4.04067 0
175.098 4.03391 0
175.11 8.31974 0
172.572 8.32651 0
173.829 4.0373 0
175.104 6.17684 0
173.841 8.32313 0
172.566 6.1836 0
173.835 6.18023 0
175.098 4.03391 0
177.636 4.02707 0
177.647 8.3129 0
175.11 8.31974 0
176.367 4.0305 0
177.642 6.17 0
176.378 8.31633 0
175.104 6.17684 0
176.373 6.17342 0
177.636 4.02707 0
180.174 4.02016 0
180.185 8.30598 0
177.647 8.3129 0
178.905 4.02362 0
180.179 6.16308 0
178.916 8.30945 0
177.642 6.17 0
178.91 6.16655 0
180.174 4.02016 0
182.711 4.01316 0
182.723 8.29899 0
180.185 8.30598 0
181.442 4.01667 0
182.717 6.15608 0
181.454 8.3025 0
180.179 6.16308 0
181.448 6.15959 0
182.711 4.01316 0
185.249 4.00609 0
185.261 8.29192 0
182.723 8.29899 0
183.98 4.00964 0
185.255 6.14901 0
183.992 8.29546 0
182.717 6.15608 0
183.986 6.15256 0
185.249 4.00609 0
187.787 3.99895 0
187.799 8.28477 0
185.261 8.29192 0
186.518 4.00253 0
187.793 6.14187 0
186.53 8.28836 0
185.255 6.14901 0
186.524 6.14545 0
187.787 3.99895 0
190.324 3.99173 0
190.337 8.27756 0
187.799 8.28477 0
189.056 3.99535 0
190.331 6.13465 0
189.068 8.28117 0
187.793 6.14187 0
189.062 6.13827 0
190.324 3.99173 0
192.862 3.98444 0
192.875 8.27026 0
190.337 8.27756 0
191.593 3.9881 0
192.868 6.12736 0
191.606 8.27392 0
190.331 6.13465 0
191.6 6.13101 0
192.862 3.98444 0
195.4 3.97708 0
195.412 8.2629 0
192.875 8.27026 0
194.131 3.98077 0
195.406 6.11999 0
194.144 8.26659 0
192.868 6.12736 0
194.137 6.12369 0
195.4 3.97708 0
197.938 3.96964 0
197.95 8.25546 0
195.412 8.2629 0
196.669 3.97337 0
197.944 6.11255 0
196.681 8.25919 0
195.406 6.11999 0
196.675 6.11628 0
197.938 3.96964 0
200.476 3.96213 0
200.488 8.24795 0
197.95 8.25546 0
199.207 3.96589 0
200.482 6.10504 0
199.219 8.25171 0
197.944 6.11255 0
199.213 6.10881 0
200.476 3.96213 0
203.013 3.95455 0
203.026 8.24036 0
200.488 8.24795 0
201.744 3.95835 0
203.02 6.09746 0
201.757 8.24416 0
200.482 6.10504 0
201.751 6.10126 0
203.013 3.95455 0
205.551 3.94689 0
205.564 8.23271 0
203.026 8.24036 0
204.282 3.95073 0
205.558 6.08981 0
204.295 8.23654 0
203.02 6.09746 0
204.289 6.09364 0
205.551 3.94689 0
208.089 3.93917 0
208.102 8.22499 0
205.564 8.23271 0
206.82 3.94304 0
208.095 6.08209 0
206.833 8.22886 0
205.558 6.08981 0
206.826 6.08596 0
208.089 3.93917 0
210.627 3.93138 0
210.64 8.21719 0
208.102 8.22499 0
209.358 3.93528 0
210.633 6.07429 0
209.371 8.2211 0
208.095 6.08209 0
209.364 6.0782 0
210.627 3.93138 0
213.164 3.92352 0
213.178 8.20933 0
210.64 8.21719 0
211.895 3.92746 0
213.171 6.06643 0
211.909 8.21327 0
210.633 6.07429 0
211.902 6.07037 0
213.164 3.92352 0
215.702 3.91559 0
215.716 8.2014 0
213.178 8.20933 0
214.433 3.91956 0
215.709 6.0585 0
214.447 8.20537 0
213.171 6.06643 0
214.44 6.06247 0
215.702 3.91559 0
218.24 3.90759 0
218.253 8.1934 0
215.716 8.2014 0
216.971 3.9116 0
218.247 6.0505 0
216.984 8.19741 0
215.709 6.0585 0
216.978 6.05451 0
218.24 3.90759 0
220.778 3.89953 0
220.791 8.18533 0
218.253 8.1934 0
219.509 3.90357 0
220.784 6.04244 0
219.522 8.18938 0
218.247 6.0505 0
219.516 6.04648 0
220.778 3.89953 0
223.315 3.8914 0
223.329 8.1772 0
220.791 8.18533 0
222.047 3.89547 0
223.322 6.03431 0
222.06 8.18128 0
220.784 6.04244 0
222.053 6.03838 0
223.315 3.8914 0
225.853 3.8832 0
225.867 8.169 0
223.329 8.1772 0
224.584 3.88731 0
225.86 6.02611 0
224.598 8.17311 0
223.322 6.03431 0
224.591 6.03021 0
225.853 3.8832 0
228.391 3.87494 0
228.405 8.16074 0
225.867 8.169 0
227.122 3.87908 0
228.398 6.01784 0
227.136 8.16488 0
225.86 6.02611 0
227.129 6.02198 0
228.391 3.87494 0
230.929 3.86661 0
230.943 8.15241 0
228.405 8.16074 0
229.66 3.87078 0
230.936 6.00952 0
229.674 8.15658 0
228.398 6.01784 0
229.667 6.01369 0
230.929 3.86661 0
233.467 3.85822 0
233.481 8.14402 0
230.943 8.15241 0
232.198 3.86242 0
233.474 6.00112 0
232.212 8.14822 0
230.936 6.00952 0
232.205 6.00533 0
233.467 3.85822 0
236.004 3.84976 0
236.019 8.13556 0
233.481 8.14402 0
234.735 3.854 0
236.012 5.99267 0
234.75 8.1398 0
233.474 6.00112 0
234.743 5.9969 0
236.004 3.84976 0
238.542 3.84124 0
238.557 8.12704 0
236.019 8.13556 0
237.273 3.84551 0
238.549 5.98415 0
237.288 8.13131 0
236.012 5.99267 0
237.28 5.98842 0
238.542 3.84124 0
241.08 3.83266 0
241.094 8.11846 0
238.557 8.12704 0
239.811 3.83696 0
241.087 5.97557 0
239.826 8.12276 0
238.549 5.98415 0
239.818 5.97987 0
241.08 3.83266 0
243.618 3.82402 0
243.632 8.10982 0
241.094 8.11846 0
242.349 3.82835 0
243.625 5.96693 0
242.363 8.11415 0
241.087 5.97557 0
242.356 5.97125 0
243.618 3.82402 0
246.156 3.81532 0
246.17 8.10111 0
243.632 8.10982 0
244.887 3.81968 0
246.163 5.95822 0
244.901 8.10547 0
243.625 5.96693 0
244.894 5.96258 0
246.156 3.81532 0
248.693 3.80656 0
248.708 8.09235 0
246.17 8.10111 0
247.424 3.81094 0
248.701 5.94946 0
247.439 8.09674 0
246.163 5.95822 0
247.432 5.95385 0
248.693 3.80656 0
251.231 3.79773 0
251.246 8.08352 0
248.708 8.09235 0
249.962 3.80215 0
251.239 5.94063 0
249.977 8.08794 0
248.701 5.94946 0
249.97 5.94505 0
251.231 3.79773 0
253.769 3.78885 0
253.784 8.07464 0
251.246 8.08352 0
252.5 3.7933 0
253.776 5.93175 0
252.515 8.07909 0
251.239 5.94063 0
252.508 5.9362 0
253.769 3.78885 0
256.307 3.77991 0
256.322 8.06569 0
253.784 8.07464 0
255.038 3.78438 0
256.314 5.92281 0
255.053 8.07017 0
253.776 5.93175 0
255.045 5.92728 0
256.307 3.77991 0
258.845 3.77091 0
258.86 8.05669 0
256.322 8.06569 0
257.576 3.77541 0
258.852 5.91381 0
257.591 8.0612 0
256.314 5.92281 0
257.583 5.91831 0
258.845 3.77091 0
261.382 3.76185 0
261.398 8.04763 0
258.86 8.05669 0
260.113 3.76638 0
261.39 5.90475 0
260.129 8.05217 0
258.852 5.91381 0
260.121 5.90928 0
261.382 3.76185 0
263.92 3.75273 0
263.936 8.03852 0
261.398 8.04763 0
262.651 3.7573 0
263.928 5.89563 0
262.667 8.04308 0
261.39 5.90475 0
262.659 5.9002 0
263.92 3.75273 0
266.458 3.74356 0
266.474 8.02935 0
263.936 8.03852 0
265.189 3.74816 0
266.466 5.88646 0
265.205 8.03394 0
263.928 5.89563 0
265.197 5.89105 0
266.458 3.74356 0
268.996 3.73434 0
269.011 8.02012 0
266.474 8.02935 0
267.727 3.73896 0
269.004 5.87723 0
267.742 8.02474 0
266.466 5.88646 0
267.735 5.88185 0
268.996 3.73434 0
271.534 3.72506 0
271.549 8.01083 0
269.011 8.02012 0
270.265 3.7297 0
271.542 5.86795 0
270.28 8.01548 0
269.004 5.87723 0
270.273 5.8726 0
271.534 3.72506 0
274.071 3.71572 0
274.087 8.0015 0
271.549 8.01083 0
272.803 3.72039 0
274.079 5.85861 0
272.818 8.00617 0
271.542 5.86795 0
272.81 5.86329 0
274.071 3.71572 0
276.609 3.70633 0
276.625 7.99211 0
274.087 8.0015 0
275.34 3.71103 0
276.617 5.84922 0
275.356 7.99681 0
274.079 5.85861 0
275.348 5.85393 0
276.609 3.70633 0
279.147 3.69689 0
279.163 7.98266 0
276.625 7.99211 0
277.878 3.70161 0
279.155 5.83978 0
277.894 7.98739 0
276.617 5.84922 0
277.886 5.84451 0
279.147 3.69689 0
281.685 3.68739 0
281.701 7.97316 0
279.163 7.98266 0
280.416 3.69214 0
281.693 5.83028 0
280.432 7.97792 0
279.155 5.83978 0
280.424 5.83504 0
281.685 3.68739 0
284.223 3.67784 0
284.239 7.96361 0
281.701 7.97316 0
282.954 3.68262 0
284.231 5.82073 0
282.97 7.9684 0
281.693 5.83028 0
282.962 5.82551 0
284.223 3.67784 0
286.761 3.66824 0
286.777 7.95401 0
284.239 7.96361 0
285.492 3.67305 0
286.769 5.81113 0
285.508 7.95882 0
284.231 5.82073 0
285.5 5.81594 0
286.761 3.66824 0
289.298 3.65859 0
289.315 7.94436 0
286.777 7.95401 0
288.03 3.66342 0
289.307 5.80148 0
288.046 7.94919 0
286.769 5.81113 0
288.038 5.80631 0
289.298 3.65859 0
291.836 3.64889 0
291.853 7.93466 0
289.315 7.94436 0
290.567 3.65375 0
291.845 5.79178 0
290.584 7.93952 0
289.307 5.80148 0
290.576 5.79664 0
291.836 3.64889 0
294.374 3.63914 0
294.391 7.92491 0
291.853 7.93466 0
293.105 3.64402 0
294.382 5.78203 0
293.122 7.92979 0
291.845 5.79178 0
293.113 5.78691 0
294.374 3.63914 0
296.912 3.62934 0
296.929 7.91511 0
294.391 7.92491 0
295.643 3.63425 0
296.92 5.77223 0
295.66 7.92001 0
294.382 5.78203 0
295.651 5.77714 0
296.912 3.62934 0
299.45 3.61949 0
299.467 7.90526 0
296.929 7.91511 0
298.181 3.62442 0
299.458 5.76238 0
298.198 7.91019 0
296.92 5.77223 0
298.189 5.76731 0
299.45 3.61949 0
301.988 3.6096 0
302.004 7.89536 0
299.467 7.90526 0
300.719 3.61455 0
301.996 5.75249 0
300.735 7.90032 0
299.458 5.76238 0
300.727 5.75744 0
301.988 3.6096 0
304.526 3.59966 0
304.542 7.88542 0
302.004 7.89536 0
303.257 3.60463 0
304.534 5.74254 0
303.273 7.8904 0
301.996 5.75249 0
303.265 5.74752 0
304.526 3.59966 0
307.063 3.58967 0
307.08 7.87543 0
304.542 7.88542 0
305.794 3.59467 0
307.072 5.73255 0
305.811 7.88043 0
304.534 5.74254 0
305.803 5.73755 0
307.063 3.58967 0
309.601 3.57963 0
309.618 7.86539 0
307.08 7.87543 0
308.332 3.58466 0
309.61 5.72252 0
308.349 7.87041 0
307.072 5.73255 0
308.341 5.72754 0
309.601 3.57963 0
312.139 3.56955 0
312.156 7.85531 0
309.618 7.86539 0
310.87 3.5746 0
312.148 5.71243 0
310.887 7.86035 0
309.61 5.72252 0
310.879 5.71748 0
312.139 3.56955 0
314.677 3.55943 0
314.694 7.84518 0
312.156 7.85531 0
313.408 3.56449 0
314.686 5.70231 0
313.425 7.85025 0
312.148 5.71243 0
313.417 5.70738 0
314.677 3.55943 0
317.215 3.54926 0
317.232 7.83501 0
314.694 7.84518 0
315.946 3.55435 0
317.223 5.69214 0
315.963 7.8401 0
314.686 5.70231 0
315.955 5.69723 0
317.215 3.54926 0
319.753 3.53904 0
319.77 7.82479 0
317.232 7.83501 0
318.484 3.54415 0
319.761 5.68192 0
318.501 7.82991 0
317.223 5.69214 0
318.492 5.68704 0
319.753 3.53904 0
322.291 3.52879 0
322.308 7.81454 0
319.77 7.82479 0
321.022 3.53392 0
322.299 5.67167 0
321.039 7.81967 0
319.761 5.68192 0
321.03 5.6768 0
322.291 3.52879 0
324.828 3.51849 0
324.846 7.80424 0
322.308 7.81454 0
323.56 3.52364 0
324.837 5.66137 0
323.577 7.80939 0
322.299 5.67167 0
323.568 5.66652 0
324.828 3.51849 0
327.366 3.50815 0
327.384 7.79389 0
324.846 7.80424 0
326.097 3.51332 0
327.375 5.65102 0
326.115 7.79907 0
324.837 5.66137 0
326.106 5.6562 0
327.366 3.50815 0
329.904 3.49776 0
329.922 7.78351 0
327.384 7.79389 0
328.635 3.50296 0
329.913 5.64064 0
328.653 7.78871 0
327.375 5.65102 0
328.644 5.64584 0
329.904 3.49776 0
332.442 3.48734 0
332.46 7.77309 0
329.922 7.78351 0
331.173 3.49256 0
332.451 5.63022 0
331.191 7.7783 0
329.913 5.64064 0
331.182 5.63544 0
332.442 3.48734 0
334.98 3.47688 0
334.998 7.76262 0
332.46 7.77309 0
333.711 3.48212 0
334.989 5.61976 0
333.729 7.76786 0
332.451 5.63022 0
333.72 5.62499 0
334.98 3.47688 0
337.518 3.46638 0
337.536 7.75212 0
334.998 7.76262 0
336.249 3.47163 0
337.527 5.60925 0
336.267 7.75738 0
334.989 5.61976 0
336.258 5.61451 0
337.518 3.46638 0
340.056 3.45584 0
340.074 7.74158 0
337.536 7.75212 0
338.787 3.46111 0
340.065 5.59871 0
338.805 7.74686 0
337.527 5.60925 0
338.796 5.60399 0
340.056 3.45584 0
342.594 3.44526 0
342.612 7.731 0
340.074 7.74158 0
341.325 3.45055 0
342.603 5.58813 0
341.343 7.73629 0
340.065 5.59871 0
341.334 5.59343 0
342.594 3.44526 0
345.132 3.43464 0
345.149 7.72038 0
342.612 7.731 0
343.863 3.43995 0
345.141 5.57752 0
343.881 7.7257 0
342.603 5.58813 0
343.872 5.58283 0
345.132 3.43464 0
347.669 3.42399 0
347.687 7.70973 0
345.149 7.72038 0
346.4 3.42932 0
347.678 5.56686 0
346.418 7.71506 0
345.141 5.57752 0
346.409 5.57219 0
347.669 3.42399 0
350.207 3.4133 0
350.225 7.69904 0
347.687 7.70973 0
348.938 3.41865 0
350.216 5.55617 0
348.956 7.70439 0
347.678 5.56686 0
348.947 5.56152 0
350.207 3.4133 0
352.745 3.40257 0
352.763 7.68831 0
350.225 7.69904 0
351.476 3.40794 0
352.754 5.54545 0
351.494 7.69368 0
350.216 5.55617 0
351.485 5.55081 0
352.745 3.40257 0
355.283 3.39181 0
355.301 7.67755 0
352.763 7.68831 0
354.014 3.3972 0
355.292 5.53468 0
354.032 7.68293 0
352.754 5.54545 0
354.023 5.54007 0
355.283 3.39181 0
357.821 3.38102 0
357.839 7.66675 0
355.301 7.67755 0
356.552 3.38642 0
357.83 5.52389 0
356.57 7.67215 0
355.292 5.53468 0
356.561 5.52929 0
357.821 3.38102 0
360.359 3.37019 0
360.377 7.65592 0
357.839 7.66675 0
359.09 3.37561 0
360.368 5.51306 0
359.108 7.66134 0
357.83 5.52389 0
359.099 5.51848 0
360.359 3.37019 0
362.897 3.35933 0
362.915 7.64506 0
360.377 7.65592 0
361.628 3.36476 0
362.906 5.5022 0
361.646 7.65049 0
360.368 5.51306 0
361.637 5.50763 0
362.897 3.35933 0
365.435 3.34843 0
365.453 7.63416 0
362.915 7.64506 0
364.166 3.35388 0
365.444 5.4913 0
364.184 7.63962 0
362.906 5.5022 0
364.175 5.49675 0
365.435 3.34843 0
367.973 3.33751 0
367.991 7.62323 0
365.453 7.63416 0
366.704 3.34297 0
367.982 5.48037 0
366.722 7.6287 0
365.444 5.4913 0
366.713 5.48584 0
367.973 3.33751 0
370.511 3.32655 0
370.529 7.61228 0
367.991 7.62323 0
369.242 3.33203 0
370.52 5.46941 0
369.26 7.61776 0
367.982 5.48037 0
369.251 5.4749 0
370.511 3.32655 0
373.049 3.31556 0
373.067 7.60128 0
370.529 7.61228 0
371.78 3.32106 0
373.058 5.45842 0
371.798 7.60678 0
370.52 5.46941 0
371.789 5.46392 0
373.049 3.31556 0
375.586 3.30454 0
375.605 7.59026 0
373.067 7.60128 0
374.317 3.31005 0
375.596 5.4474 0
374.336 7.59578 0
373.058 5.45842 0
374.327 5.45292 0
375.586 3.30454 0
378.124 3.29349 0
378.143 7.57921 0
375.605 7.59026 0
376.855 3.29902 0
378.134 5.43635 0
376.874 7.58474 0
375.596 5.4474 0
376.865 5.44188 0
378.124 3.29349 0
380.662 3.28241 0
380.681 7.56813 0
378.143 7.57921 0
379.393 3.28795 0
380.672 5.42528 0
379.412 7.57368 0
378.134 5.43635 0
379.403 5.43082 0
380.662 3.28241 0
383.2 3.2713 0
383.219 7.55703 0
380.681 7.56813 0
381.931 3.27686 0
383.21 5.41417 0
381.95 7.56258 0
380.672 5.42528 0
381.941 5.41973 0
383.2 3.2713 0
385.738 3.26017 0
385.757 7.54589 0
383.219 7.55703 0
384.469 3.26574 0
385.748 5.40303 0
384.488 7.55146 0
383.21 5.41417 0
384.479 5.4086 0
385.738 3.26017 0
388.276 3.24901 0
388.295 7.53473 0
385.757 7.54589 0
387.007 3.25459 0
388.286 5.39187 0
387.026 7.54031 0
385.748 5.40303 0
387.017 5.39746 0
388.276 3.24901 0
390.814 3.23782 0
390.833 7.52354 0
388.295 7.53473 0
389.545 3.24342 0
390.823 5.38068 0
389.564 7.52914 0
388.286 5.39187 0
389.554 5.38628 0
390.814 3.23782 0
393.352 3.22661 0
393.371 7.51232 0
390.833 7.52354 0
392.083 3.23222 0
393.361 5.36947 0
392.102 7.51793 0
390.823 5.38068 0
392.092 5.37508 0
393.352 3.22661 0
395.89 3.21537 0
395.909 7.50108 0
393.371 7.51232 0
394.621 3.22099 0
395.899 5.35823 0
394.64 7.5067 0
393.361 5.36947 0
394.63 5.36385 0
395.89 3.21537 0
398.428 3.2041 0
398.447 7.48981 0
395.909 7.50108 0
397.159 3.20974 0
398.437 5.34696 0
397.178 7.49545 0
395.899 5.35823 0
397.168 5.3526 0
398.428 3.2041 0
400.966 3.19281 0
400.985 7.47852 0
398.447 7.48981 0
399.697 3.19846 0
400.975 5.33567 0
399.716 7.48417 0
398.437 5.34696 0
399.706 5.34132 0
400.966 3.19281 0
403.504 3.1815 0
403.523 7.46721 0
400.985 7.47852 0
402.235 3.18716 0
403.513 5.32436 0
402.254 7.47287 0
400.975 5.33567 0
402.244 5.33002 0
403.504 3.1815 0
406.042 3.17016 0
406.061 7.45587 0
403.523 7.46721 0
404.773 3.17583 0
406.051 5.31302 0
404.792 7.46154 0
403.513 5.32436 0
404.782 5.31869 0
406.042 3.17016 0
408.58 3.1588 0
408.599 7.44451 0
406.061 7.45587 0
407.311 3.16449 0
408.589 5.30166 0
407.33 7.4502 0
406.051 5.31302 0
407.32 5.30734 0
408.58 3.1588 0
411.118 3.14742 0
411.137 7.43313 0
408.599 7.44451 0
409.849 3.15312 0
411.127 5.29028 0
409.868 7.43883 0
408.589 5.30166 0
409.858 5.29597 0
411.118 3.14742 0
413.656 3.13602 0
413.675 7.42173 0
411.137 7.43313 0
412.387 3.14173 0
413.665 5.27888 0
412.406 7.42743 0
411.127 5.29028 0
412.396 5.28458 0
413.656 3.13602 0
416.194 3.1246 0
416.213 7.41031 0
413.675 7.42173 0
414.925 3.13032 0
416.203 5.26746 0
414.944 7.41602 0
413.665 5.27888 0
414.934 5.27317 0
416.194 3.1246 0
418.731 3.11316 0
418.751 7.39886 0
416.213 7.41031 0
417.462 3.11888 0
418.741 5.25601 0
417.482 7.40459 0
416.203 5.26746 0
417.472 5.26174 0
418.731 3.11316 0
421.269 3.1017 0
421.289 7.3874 0
418.751 7.39886 0
420 3.10743 0
421.279 5.24455 0
420.02 7.39314 0
418.741 5.25601 0
420.01 5.25029 0
421.269 3.1017 0
423.807 3.09022 0
423.827 7.37592 0
421.289 7.3874 0
422.538 3.09596 0
423.817 5.23307 0
422.558 7.38166 0
421.279 5.24455 0
422.548 5.23881 0
423.807 3.09022 0
426.345 3.07872 0
426.365 7.36442 0
423.827 7.37592 0
425.076 3.08447 0
426.355 5.22157 0
425.096 7.37017 0
423.817 5.23307 0
425.086 5.22732 0
426.345 3.07872 0
428.883 3.06721 0
428.903 7.3529 0
426.365 7.36442 0
427.614 3.07297 0
428.893 5.21006 0
427.634 7.35867 0
426.355 5.22157 0
427.624 5.21582 0
428.883 3.06721 0
431.421 3.05567 0
431.441 7.34137 0
428.903 7.3529 0
430.152 3.06144 0
431.431 5.19852 0
430.172 7.34714 0
428.893 5.21006 0
430.162 5.20429 0
431.421 3.05567 0
433.959 3.04412 0
433.979 7.32982 0
431.441 7.34137 0
432.69 3.0499 0
433.969 5.18697 0
432.71 7.3356 0
431.431 5.19852 0
432.7 5.19275 0
433.959 3.04412 0
436.497 3.03256 0
436.517 7.31825 0
433.979 7.32982 0
435.228 3.03834 0
436.507 5.17541 0
435.248 7.32404 0
433.969 5.18697 0
435.238 5.18119 0
436.497 3.03256 0
439.035 3.02098 0
439.055 7.30667 0
436.517 7.31825 0
437.766 3.02677 0
439.045 5.16383 0
437.786 7.31247 0
436.507 5.17541 0
437.776 5.16962 0
439.035 3.02098 0
441.573 3.00938 0
441.593 7.29508 0
439.055 7.30667 0
440.304 3.01518 0
441.583 5.15223 0
440.324 7.30088 0
439.045 5.16383 0
440.314 5.15803 0
441.573 3.00938 0
444.111 2.99778 0
444.131 7.28347 0
441.593 7.29508 0
442.842 3.00358 0
444.121 5.14062 0
442.862 7.28928 0
441.583 5.15223 0
442.852 5.14643 0
444.111 2.99778 0
446.649 2.98615 0
446.669 7.27185 0
444.131 7.28347 0
445.38 2.99197 0
446.659 5.129 0
445.4 7.27766 0
444.121 5.14062 0
445.39 5.13481 0
446.649 2.98615 0
449.187 2.97452 0
449.207 7.26021 0
446.669 7.27185 0
447.918 2.98034 0
449.197 5.11737 0
447.938 7.26603 0
446.659 5.129 0
447.928 5.12319 0
449.187 2.97452 0
451.725 2.96287 0
451.745 7.24856 0
449.207 7.26021 0
450.456 2.9687 0
451.735 5.10572 0
450.476 7.25439 0
449.197 5.11737 0
450.466 5.11154 0
451.725 2.96287 0
454.263 2.95122 0
454.283 7.2369 0
451.745 7.24856 0
452.994 2.95705 0
454.273 5.09406 0
453.014 7.24273 0
451.735 5.10572 0
453.004 5.09989 0
454.263 2.95122 0
456.801 2.93955 0
456.821 7.22523 0
454.283 7.2369 0
455.532 2.94538 0
456.811 5.08239 0
455.552 7.23107 0
454.273 5.09406 0
455.542 5.08823 0
456.801 2.93955 0
459.339 2.92787 0
459.359 7.21355 0
456.821 7.22523 0
458.07 2.93371 0
459.349 5.07071 0
458.09 7.21939 0
456.811 5.08239 0
458.08 5.07655 0
459.339 2.92787 0
461.877 2.91618 0
461.897 7.20186 0
459.359 7.21355 0
460.608 2.92202 0
461.887 5.05902 0
460.628 7.20771 0
459.349 5.07071 0
460.618 5.06487 0
461.877 2.91618 0
464.415 2.90448 0
464.435 7.19016 0
461.897 7.20186 0
463.146 2.91033 0
464.425 5.04732 0
463.166 7.19601 0
461.887 5.05902 0
463.156 5.05317 0
464.415 2.90448 0
466.953 2.89277 0
466.973 7.17846 0
464.435 7.19016 0
465.684 2.89863 0
466.963 5.03562 0
465.704 7.18431 0
464.425 5.04732 0
465.694 5.04147 0
466.953 2.89277 0
469.491 2.88106 0
469.511 7.16674 0
466.973 7.17846 0
468.222 2.88692 0
469.501 5.0239 0
468.242 7.1726 0
466.963 5.03562 0
468.232 5.02976 0
469.491 2.88106 0
472.029 2.86934 0
472.049 7.15502 0
469.511 7.16674 0
470.76 2.8752 0
472.039 5.01218 0
470.78 7.16088 0
469.501 5.0239 0
470.77 5.01804 0
472.029 2.86934 0
474.567 2.85761 0
474.587 7.14329 0
472.049 7.15502 0
473.298 2.86347 0
474.577 5.00045 0
473.318 7.14915 0
472.039 5.01218 0
473.308 5.00631 0
474.567 2.85761 0
477.105 2.84587 0
477.125 7.13155 0
474.587 7.14329 0
475.836 2.85174 0
477.115 4.98871 0
475.856 7.13742 0
474.577 5.00045 0
475.846 4.99458 0
477.105 2.84587 0
479.643 2.83414 0
479.663 7.11981 0
477.125 7.13155 0
478.374 2.84001 0
479.653 4.97697 0
478.394 7.12568 0
477.115 4.98871 0
478.384 4.98284 0
479.643 2.83414 0
482.181 2.82239 0
482.201 7.10807 0
479.663 7.11981 0
480.912 2.82826 0
482.191 4.96523 0
480.932 7.11394 0
479.653 4.97697 0
480.922 4.9711 0
482.181 2.82239 0
484.719 2.81064 0
484.739 7.09632 0
482.201 7.10807 0
483.45 2.81652 0
484.729 4.95348 0
483.47 7.10219 0
482.191 4.96523 0
483.46 4.95935 0
484.719 2.81064 0
487.257 2.79889 0
487.277 7.08456 0
484.739 7.09632 0
485.988 2.80477 0
487.267 4.94173 0
486.008 7.09044 0
484.729 4.95348 0
485.998 4.9476 0
487.257 2.79889 0
489.795 2.78713 0
489.815 7.0728 0
487.277 7.08456 0
488.526 2.79301 0
489.805 4.92997 0
488.546 7.07868 0
487.267 4.94173 0
488.536 4.93585 0
489.795 2.78713 0
492.333 2.77537 0
492.353 7.06104 0
489.815 7.0728 0
491.064 2.78125 0
492.343 4.91821 0
491.084 7.06692 0
489.805 4.92997 0
491.074 4.92409 0
492.333 2.77537 0
494.871 2.76361 0
494.891 7.04928 0
492.353 7.06104 0
493.602 2.76949 0
494.881 4.90645 0
493.622 7.05516 0
492.343 4.91821 0
493.612 4.91233 0
494.871 2.76361 0
497.41 2.75184 0
497.429 7.03752 0
494.891 7.04928 0
496.141 2.75773 0
497.419 4.89468 0
496.16 7.0434 0
494.881 4.90645 0
496.15 4.90056 0
497.41 2.75184 0
499.948 2.74006 0
499.967 7.02576 0
497.429 7.03752 0
498.679 2.74595 0
499.957 4.88292 0
498.698 7.03164 0
497.419 4.89468 0
498.688 4.8888 0
0 8.57143 0
2.5378 8.5714 0
2.53798 12.8572 0
0 12.8571 0
1.26891 8.57144 0
2.53789 10.7143 0
1.26899 12.8572 0
0 10.7143 0
1.26895 10.7143 0
2.5378 8.5714 0
5.07559 8.57122 0
5.07596 12.857 0
2.53798 12.8572 0
3.8067 8.57133 0
5.07578 10.7141 0
3.80697 12.8571 0
2.53789 10.7143 0
3.80684 10.7142 0
5.07559 8.57122 0
7.61336 8.57091 0
7.61393 12.8567 0
5.07596 12.857 0
6.34448 8.57108 0
7.61365 10.7138 0
6.34495 12.8569 0
5.07578 10.7141 0
6.34471 10.714 0
7.61336 8.57091 0
10.1511 8.57048 0
10.1519 12.8563 0
7.61393 12.8567 0
8.88225 8.57071 0
10.1515 10.7134 0
8.88292 12.8565 0
7.61365 10.7138 0
8.88258 10.7136 0
10.1511 8.57048 0
12.6889 8.56993 0
12.6899 12.8557 0
10.1519 12.8563 0
11.42 8.57022 0
12.6894 10.7129 0
11.4209 12.856 0
10.1515 10.7134 0
11.4205 10.7131 0
12.6889 8.56993 0
15.2267 8.56927 0
15.2278 12.8551 0
12.6899 12.8557 0
13.9578 8.56962 0
15.2273 10.7122 0
13.9589 12.8554 0
12.6894 10.7129 0
13.9583 10.7125 0
15.2267 8.56927 0
17.7645 8.56849 0
17.7658 12.8543 0
15.2278 12.8551 0
16.4956 8.5689 0
17.7651 10.7114 0
16.4968 12.8547 0
15.2273 10.7122 0
16.4962 10.7118 0
17.7645 8.56849 0
20.3022 8.5676 0
20.3038 12.8534 0
17.7658 12.8543 0
19.0333 8.56806 0
20.303 10.7105 0
19.0348 12.8539 0
17.7651 10.7114 0
19.0341 10.711 0
20.3022 8.5676 0
22.84 8.5666 0
22.8418 12.8524 0
20.3038 12.8534 0
21.5711 8.56711 0
22.8409 10.7095 0
21.5728 12.8529 0
20.303 10.7105 0
21.5719 10.71 0
22.84 8.5666 0
25.3778 8.56548 0
25.3797 12.8513 0
22.8418 12.8524 0
24.1089 8.56605 0
25.3788 10.7084 0
24.1108 12.8519 0
22.8409 10.7095 0
24.1098 10.709 0
25.3778 8.56548 0
27.9156 8.56424 0
27.9177 12.8501 0
25.3797 12.8513 0
26.6467 8.56487 0
27.9166 10.7072 0
26.6487 12.8507 0
25.3788 10.7084 0
26.6477 10.7078 0
27.9156 8.56424 0
30.4534 8.5629 0
30.4557 12.8487 0
27.9177 12.8501 0
29.1845 8.56358 0
30.4545 10.7058 0
29.1867 12.8494 0
27.9166 10.7072 0
29.1856 10.7065 0
30.4534 8.5629 0
32.9912 8.56144 0
32.9937 12.8472 0
30.4557 12.8487 0
31.7223 8.56218 0
32.9924 10.7044 0
31.7247 12.848 0
30.4545 10.7058 0
31.7235 10.7051 0
32.9912 8.56144 0
35.5289 8.55987 0
35.5316 12.8457 0
32.9937 12.8472 0
34.26 8.56067 0
35.5303 10.7028 0
34.2627 12.8465 0
32.9924 10.7044 0
34.2614 10.7036 0
35.5289 8.55987 0
38.0667 8.55819 0
38.0696 12.844 0
35.5316 12.8457 0
36.7978 8.55905 0
38.0682 10.7011 0
36.8006 12.8449 0
35.5303 10.7028 0
36.7992 10.702 0
38.0667 8.55819 0
40.6045 8.5564 0
40.6076 12.8422 0
38.0696 12.844 0
39.3356 8.55731 0
40.6061 10.6993 0
39.3386 12.8431 0
38.0682 10.7011 0
39.3371 10.7002 0
40.6045 8.5564 0
43.1423 8.5545 0
43.1456 12.8403 0
40.6076 12.8422 0
41.8734 8.55547 0
43.1439 10.6974 0
41.8766 12.8413 0
40.6061 10.6993 0
41.875 10.6984 0
43.1423 8.5545 0
45.6801 8.55249 0
45.6836 12.8383 0
43.1456 12.8403 0
44.4112 8.55351 0
45.6818 10.6954 0
44.4146 12.8393 0
43.1439 10.6974 0
44.4129 10.6964 0
45.6801 8.55249 0
48.2179 8.55038 0
48.2215 12.8362 0
45.6836 12.8383 0
46.949 8.55145 0
48.2197 10.6933 0
46.9525 12.8373 0
45.6818 10.6954 0
46.9508 10.6944 0
48.2179 8.55038 0
50.7557 8.54815 0
50.7595 12.834 0
48.2215 12.8362 0
49.4868 8.54928 0
50.7576 10.6911 0
49.4905 12.8351 0
48.2197 10.6933 0
49.4887 10.6922 0
50.7557 8.54815 0
53.2935 8.54582 0
53.2975 12.8316 0
50.7595 12.834 0
52.0246 8.547 0
53.2955 10.6887 0
52.0285 12.8328 0
50.7576 10.6911 0
52.0266 10.6899 0
53.2935 8.54582 0
55.8313 8.54338 0
55.8355 12.8292 0
53.2975 12.8316 0
54.5624 8.54461 0
55.8334 10.6863 0
54.5665 12.8304 0
53.2955 10.6887 0
54.5644 10.6875 0
55.8313 8.54338 0
58.3691 8.54084 0
58.3735 12.8266 0
55.8355 12.8292 0
57.1002 8.54212 0
58.3713 10.6838 0
57.1045 12.8279 0
55.8334 10.6863 0
57.1023 10.685 0
58.3691 8.54084 0
60.9069 8.53819 0
60.9114 12.824 0
58.3735 12.8266 0
59.638 8.53953 0
60.9092 10.6811 0
59.6424 12.8253 0
58.3713 10.6838 0
59.6402 10.6824 0
60.9069 8.53819 0
63.4447 8.53543 0
63.4494 12.8212 0
60.9114 12.824 0
62.1758 8.53682 0
63.4471 10.6783 0
62.1804 12.8226 0
60.9092 10.6811 0
62.1781 10.6797 0
63.4447 8.53543 0
65.9825 8.53258 0
65.9874 12.8184 0
63.4494 12.8212 0
64.7136 8.53402 0
65.985 10.6755 0
64.7184 12.8198 0
63.4471 10.6783 0
64.716 10.6769 0
65.9825 8.53258 0
68.5203 8.52961 0
68.5254 12.8154 0
65.9874 12.8184 0
67.2514 8.53111 0
68.5229 10.6725 0
67.2564 12.8169 0
65.985 10.6755 0
67.2539 10.674 0
68.5203 8.52961 0
71.0581 8.52655 0
71.0634 12.8123 0
68.5254 12.8154 0
69.7892 8.52809 0
71.0608 10.6695 0
69.7944 12.8139 0
68.5229 10.6725 0
69.7918 10.671 0
71.0581 8.52655 0
73.596 8.52338 0
73.6013 12.8092 0
71.0634 12.8123 0
72.327 8.52498 0
73.5986 10.6663 0
72.3324 12.8108 0
71.0608 10.6695 0
72.3297 10.6679 0
73.596 8.52338 0
76.1338 8.52011 0
76.1393 12.8059 0
73.6013 12.8092 0
74.8649 8.52176 0
76.1365 10.663 0
74.8703 12.8076 0
73.5986 10.6663 0
74.8676 10.6647 0
76.1338 8.52011 0
78.6716 8.51674 0
78.6773 12.8025 0
76.1393 12.8059 0
77.4027 8.51844 0
78.6744 10.6597 0
77.4083 12.8042 0
76.1365 10.663 0
77.4055 10.6613 0
78.6716 8.51674 0
81.2094 8.51327 0
81.2153 12.7991 0
78.6773 12.8025 0
79.9405 8.51502 0
81.2123 10.6562 0
79.9463 12.8008 0
78.6744 10.6597 0
79.9434 10.6579 0
81.2094 8.51327 0
83.7472 8.5097 0
83.7533 12.7955 0
81.2153 12.7991 0
82.4783 8.5115 0
83.7502 10.6526 0
82.4843 12.7973 0
81.2123 10.6562 0
82.4813 10.6544 0
83.7472 8.5097 0
86.285 8.50603 0
86.2913 12.7918 0
83.7533 12.7955 0
85.0161 8.50788 0
86.2881 10.6489 0
85.0223 12.7937 0
83.7502 10.6526 0
85.0192 10.6508 0
86.285 8.50603 0
88.8228 8.50226 0
88.8292 12.7881 0
86.2913 12.7918 0
87.5539 8.50416 0
88.826 10.6452 0
87.5603 12.79 0
86.2881 10.6489 0
87.5571 10.6471 0
88.8228 8.50226 0
91.3607 8.4984 0
91.3672 12.7842 0
88.8292 12.7881 0
90.0918 8.50034 0
91.364 10.6413 0
90.0982 12.7861 0
88.826 10.6452 0
90.095 10.6433 0
91.3607 8.4984 0
93.8985 8.49443 0
93.9052 12.7802 0
91.3672 12.7842 0
92.6296 8.49643 0
93.9019 10.6373 0
92.6362 12.7822 0
91.364 10.6413 0
92.6329 10.6393 0
93.8985 8.49443 0
96.4363 8.49037 0
96.4432 12.7762 0
93.9052 12.7802 0
95.1674 8.49242 0
96.4398 10.6333 0
95.1742 12.7782 0
93.9019 10.6373 0
95.1708 10.6353 0
96.4363 8.49037 0
98.9741 8.48622 0
98.9812 12.772 0
96.4432 12.7762 0
97.7052 8.48831 0
98.9777 10.6291 0
97.7122 12.7741 0
96.4398 10.6333 0
97.7087 10.6312 0
98.9741 8.48622 0
101.512 8.48196 0
101.519 12.7678 0
98.9812 12.772 0
100.243 8.4841 0
101.516 10.6249 0
100.25 12.7699 0
98.9777 10.6291 0
100.247 10.627 0
101.512 8.48196 0
104.05 8.47762 0
104.057 12.7634 0
101.519 12.7678 0
102.781 8.4798 0
104.053 10.6205 0
102.788 12.7656 0
101.516 10.6249 0
102.785 10.6227 0
104.05 8.47762 0
106.588 8.47317 0
106.595 12.759 0
104.057 12.7634 0
105.319 8.47541 0
106.591 10.6161 0
105.326 12.7612 0
104.053 10.6205 0
105.322 10.6183 0
106.588 8.47317 0
109.125 8.46864 0
109.133 12.7544 0
106.595 12.759 0
107.857 8.47092 0
109.129 10.6115 0
107.864 12.7567 0
106.591 10.6161 0
107.86 10.6138 0
109.125 8.46864 0
111.663 8.46401 0
111.671 12.7498 0
109.133 12.7544 0
110.394 8.46633 0
111.667 10.6069 0
110.402 12.7521 0
109.129 10.6115 0
110.398 10.6092 0
111.663 8.46401 0
114.201 8.45929 0
114.209 12.7451 0
111.671 12.7498 0
112.932 8.46166 0
114.205 10.6022 0
112.94 12.7474 0
111.667 10.6069 0
112.936 10.6046 0
114.201 8.45929 0
116.739 8.45447 0
116.747 12.7403 0
114.209 12.7451 0
115.47 8.45689 0
116.743 10.5974 0
115.478 12.7427 0
114.205 10.6022 0
115.474 10.5998 0
116.739 8.45447 0
119.277 8.44957 0
119.285 12.7354 0
116.747 12.7403 0
118.008 8.45203 0
119.281 10.5925 0
118.016 12.7378 0
116.743 10.5974 0
118.012 10.5949 0
119.277 8.44957 0
121.815 8.44457 0
121.823 12.7304 0
119.285 12.7354 0
120.546 8.44708 0
121.819 10.5875 0
120.554 12.7329 0
119.281 10.5925 0
120.55 10.59 0
121.815 8.44457 0
124.352 8.43948 0
124.361 12.7253 0
121.823 12.7304 0
123.084 8.44204 0
124.357 10.5824 0
123.092 12.7278 0
121.819 10.5875 0
123.088 10.5849 0
124.352 8.43948 0
126.89 8.43431 0
126.899 12.7201 0
124.361 12.7253 0
125.621 8.43691 0
126.895 10.5772 0
125.63 12.7227 0
124.357 10.5824 0
125.626 10.5798 0
126.89 8.43431 0
129.428 8.42904 0
129.437 12.7148 0
126.899 12.7201 0
128.159 8.43169 0
129.433 10.5719 0
128.168 12.7175 0
126.895 10.5772 0
128.164 10.5746 0
129.428 8.42904 0
131.966 8.42369 0
131.975 12.7095 0
129.437 12.7148 0
130.697 8.42638 0
131.971 10.5666 0
130.706 12.7122 0
129.433 10.5719 0
130.702 10.5693 0
131.966 8.42369 0
134.504 8.41825 0
134.513 12.704 0
131.975 12.7095 0
133.235 8.42098 0
134.508 10.5611 0
133.244 12.7068 0
131.971 10.5666 0
133.239 10.5639 0
134.504 8.41825 0
137.042 8.41272 0
137.051 12.6985 0
134.513 12.704 0
135.773 8.41549 0
137.046 10.5556 0
135.782 12.7013 0
134.508 10.5611 0
135.777 10.5584 0
137.042 8.41272 0
139.58 8.4071 0
139.589 12.6929 0
137.051 12.6985 0
138.311 8.40992 0
139.584 10.55 0
138.32 12.6957 0
137.046 10.5556 0
138.315 10.5528 0
139.58 8.4071 0
142.117 8.4014 0
142.127 12.6872 0
139.589 12.6929 0
140.848 8.40426 0
142.122 10.5443 0
140.858 12.69 0
139.584 10.55 0
140.853 10.5472 0
142.117 8.4014 0
144.655 8.39562 0
144.665 12.6814 0
142.127 12.6872 0
143.386 8.39852 0
144.66 10.5385 0
143.396 12.6843 0
142.122 10.5443 0
143.391 10.5414 0
144.655 8.39562 0
147.193 8.38975 0
147.203 12.6755 0
144.665 12.6814 0
145.924 8.39269 0
147.198 10.5326 0
145.934 12.6785 0
144.66 10.5385 0
145.929 10.5356 0
147.193 8.38975 0
149.731 8.38379 0
149.741 12.6696 0
147.203 12.6755 0
148.462 8.38678 0
149.736 10.5267 0
148.472 12.6726 0
147.198 10.5326 0
148.467 10.5297 0
149.731 8.38379 0
152.269 8.37775 0
152.279 12.6635 0
149.741 12.6696 0
151 8.38078 0
152.274 10.5206 0
151.01 12.6666 0
149.736 10.5267 0
151.005 10.5237 0
152.269 8.37775 0
154.807 8.37163 0
154.817 12.6574 0
152.279 12.6635 0
153.538 8.3747 0
154.812 10.5145 0
153.548 12.6605 0
152.274 10.5206 0
153.543 10.5176 0
154.807 8.37163 0
157.344 8.36543 0
157.355 12.6512 0
154.817 12.6574 0
156.076 8.36854 0
157.35 10.5083 0
156.086 12.6543 0
154.812 10.5145 0
156.081 10.5114 0
157.344 8.36543 0
159.882 8.35914 0
159.893 12.6449 0
157.355 12.6512 0
158.613 8.36229 0
159.888 10.502 0
158.624 12.6481 0
157.35 10.5083 0
158.619 10.5052 0
159.882 8.35914 0
162.42 8.35277 0
162.431 12.6385 0
159.893 12.6449 0
161.151 8.35597 0
162.426 10.4957 0
161.162 12.6417 0
159.888 10.502 0
161.157 10.4989 0
162.42 8.35277 0
164.958 8.34633 0
164.969 12.6321 0
162.431 12.6385 0
163.689 8.34956 0
164.964 10.4892 0
163.7 12.6353 0
162.426 10.4957 0
163.695 10.4925 0
164.958 8.34633 0
167.496 8.3398 0
167.507 12.6256 0
164.969 12.6321 0
166.227 8.34307 0
167.501 10.4827 0
166.238 12.6288 0
164.964 10.4892 0
166.232 10.486 0
167.496 8.3398 0
170.034 8.33319 0
170.045 12.619 0
167.507 12.6256 0
168.765 8.33651 0
170.039 10.4761 0
168.776 12.6223 0
167.501 10.4827 0
168.77 10.4794 0
170.034 8.33319 0
172.572 8.32651 0
172.583 12.6123 0
170.045 12.619 0
171.303 8.32986 0
172.577 10.4694 0
171.314 12.6156 0
170.039 10.4761 0
171.308 10.4728 0
172.572 8.32651 0
175.11 8.31974 0
175.121 12.6055 0
172.583 12.6123 0
173.841 8.32313 0
175.115 10.4626 0
173.852 12.6089 0
172.577 10.4694 0
173.846 10.466 0
175.11 8.31974 0
177.647 8.3129 0
177.659 12.5987 0
175.121 12.6055 0
176.378 8.31633 0
177.653 10.4558 0
176.39 12.6021 0
175.115 10.4626 0
176.384 10.4592 0
177.647 8.3129 0
180.185 8.30598 0
180.197 12.5917 0
177.659 12.5987 0
178.916 8.30945 0
180.191 10.4489 0
178.928 12.5952 0
177.653 10.4558 0
178.922 10.4523 0
180.185 8.30598 0
182.723 8.29899 0
182.735 12.5848 0
180.197 12.5917 0
181.454 8.3025 0
182.729 10.4419 0
181.466 12.5883 0
180.191 10.4489 0
181.46 10.4454 0
182.723 8.29899 0
185.261 8.29192 0
185.273 12.5777 0
182.735 12.5848 0
183.992 8.29546 0
185.267 10.4348 0
184.004 12.5812 0
182.729 10.4419 0
183.998 10.4384 0
185.261 8.29192 0
187.799 8.28477 0
187.811 12.5705 0
185.273 12.5777 0
186.53 8.28836 0
187.805 10.4277 0
186.542 12.5741 0
185.267 10.4348 0
186.536 10.4312 0
187.799 8.28477 0
190.337 8.27756 0
190.349 12.5633 0
187.811 12.5705 0
189.068 8.28117 0
190.343 10.4204 0
189.08 12.5669 0
187.805 10.4277 0
189.074 10.4241 0
190.337 8.27756 0
192.875 8.27026 0
192.887 12.556 0
190.349 12.5633 0
191.606 8.27392 0
192.881 10.4131 0
191.618 12.5597 0
190.343 10.4204 0
191.612 10.4168 0
192.875 8.27026 0
195.412 8.2629 0
195.425 12.5487 0
192.887 12.556 0
194.144 8.26659 0
195.419 10.4058 0
194.156 12.5523 0
192.881 10.4131 0
194.15 10.4095 0
195.412 8.2629 0
197.95 8.25546 0
197.963 12.5412 0
195.425 12.5487 0
196.681 8.25919 0
197.957 10.3983 0
196.694 12.5449 0
195.419 10.4058 0
196.688 10.4021 0
197.95 8.25546 0
200.488 8.24795 0
200.501 12.5337 0
197.963 12.5412 0
199.219 8.25171 0
200.495 10.3908 0
199.232 12.5375 0
197.957 10.3983 0
199.226 10.3946 0
200.488 8.24795 0
203.026 8.24036 0
203.039 12.5261 0
200.501 12.5337 0
201.757 8.24416 0
203.033 10.3832 0
201.77 12.5299 0
200.495 10.3908 0
201.764 10.387 0
203.026 8.24036 0
205.564 8.23271 0
205.577 12.5185 0
203.039 12.5261 0
204.295 8.23654 0
205.57 10.3756 0
204.308 12.5223 0
203.033 10.3832 0
204.301 10.3794 0
205.564 8.23271 0
208.102 8.22499 0
208.115 12.5107 0
205.577 12.5185 0
206.833 8.22886 0
208.108 10.3679 0
206.846 12.5146 0
205.57 10.3756 0
206.839 10.3717 0
208.102 8.22499 0
210.64 8.21719 0
210.653 12.5029 0
208.115 12.5107 0
209.371 8.2211 0
210.646 10.3601 0
209.384 12.5069 0
208.108 10.3679 0
209.377 10.364 0
210.64 8.21719 0
213.178 8.20933 0
213.191 12.4951 0
210.653 12.5029 0
211.909 8.21327 0
213.184 10.3522 0
211.922 12.499 0
210.646 10.3601 0
211.915 10.3562 0
213.178 8.20933 0
215.716 8.2014 0
215.729 12.4871 0
213.191 12.4951 0
214.447 8.20537 0
215.722 10.3443 0
214.46 12.4911 0
213.184 10.3522 0
214.453 10.3483 0
215.716 8.2014 0
218.253 8.1934 0
218.267 12.4792 0
215.729 12.4871 0
216.984 8.19741 0
218.26 10.3363 0
216.998 12.4832 0
215.722 10.3443 0
216.991 10.3403 0
218.253 8.1934 0
220.791 8.18533 0
220.805 12.4711 0
218.267 12.4792 0
219.522 8.18938 0
220.798 10.3282 0
219.536 12.4751 0
218.26 10.3363 0
219.529 10.3323 0
220.791 8.18533 0
223.329 8.1772 0
223.343 12.4629 0
220.805 12.4711 0
222.06 8.18128 0
223.336 10.3201 0
222.074 12.467 0
220.798 10.3282 0
222.067 10.3242 0
223.329 8.1772 0
225.867 8.169 0
225.881 12.4548 0
223.343 12.4629 0
224.598 8.17311 0
225.874 10.3119 0
224.612 12.4589 0
223.336 10.3201 0
224.605 10.316 0
225.867 8.169 0
228.405 8.16074 0
228.419 12.4465 0
225.881 12.4548 0
227.136 8.16488 0
228.412 10.3036 0
227.15 12.4506 0
225.874 10.3119 0
227.143 10.3078 0
228.405 8.16074 0
230.943 8.15241 0
230.957 12.4382 0
228.419 12.4465 0
229.674 8.15658 0
230.95 10.2953 0
229.688 12.4423 0
228.412 10.3036 0
229.681 10.2995 0
230.943 8.15241 0
233.481 8.14402 0
233.495 12.4298 0
230.957 12.4382 0
232.212 8.14822 0
233.488 10.2869 0
232.226 12.434 0
230.95 10.2953 0
232.219 10.2911 0
233.481 8.14402 0
236.019 8.13556 0
236.033 12.4213 0
233.495 12.4298 0
234.75 8.1398 0
236.026 10.2784 0
234.764 12.4255 0
233.488 10.2869 0
234.757 10.2827 0
236.019 8.13556 0
238.557 8.12704 0
238.571 12.4128 0
236.033 12.4213 0
237.288 8.13131 0
238.564 10.2699 0
237.302 12.4171 0
236.026 10.2784 0
237.295 10.2742 0
238.557 8.12704 0
241.094 8.11846 0
241.109 12.4042 0
238.571 12.4128 0
239.826 8.12276 0
241.102 10.2613 0
239.84 12.4085 0
238.564 10.2699 0
239.833 10.2656 0
241.094 8.11846 0
243.632 8.10982 0
243.647 12.3956 0
241.109 12.4042 0
242.363 8.11415 0
243.64 10.2527 0
242.378 12.3999 0
241.102 10.2613 0
242.371 10.257 0
243.632 8.10982 0
246.17 8.10111 0
246.185 12.3869 0
243.647 12.3956 0
244.901 8.10547 0
246.178 10.244 0
244.916 12.3912 0
243.64 10.2527 0
244.909 10.2483 0
246.17 8.10111 0
248.708 8.09235 0
248.723 12.3781 0
246.185 12.3869 0
247.439 8.09674 0
248.716 10.2352 0
247.454 12.3825 0
246.178 10.244 0
247.447 10.2396 0
248.708 8.09235 0
251.246 8.08352 0
251.261 12.3693 0
248.723 12.3781 0
249.977 8.08794 0
251.254 10.2264 0
249.992 12.3737 0
248.716 10.2352 0
249.985 10.2308 0
251.246 8.08352 0
253.784 8.07464 0
253.799 12.3604 0
251.261 12.3693 0
252.515 8.07909 0
253.791 10.2175 0
252.53 12.3648 0
251.254 10.2264 0
252.523 10.222 0
253.784 8.07464 0
256.322 8.06569 0
256.337 12.3514 0
253.799 12.3604 0
255.053 8.07017 0
256.329 10.2086 0
255.068 12.3559 0
253.791 10.2175 0
255.06 10.213 0
256.322 8.06569 0
258.86 8.05669 0
258.875 12.3424 0
256.337 12.3514 0
257.591 8.0612 0
258.867 10.1996 0
257.606 12.3469 0
256.329 10.2086 0
257.598 10.2041 0
258.86 8.05669 0
261.398 8.04763 0
261.413 12.3334 0
258.875 12.3424 0
260.129 8.05217 0
261.405 10.1905 0
260.144 12.3379 0
258.867 10.1996 0
260.136 10.195 0
261.398 8.04763 0
263.936 8.03852 0
263.951 12.3243 0
261.413 12.3334 0
262.667 8.04308 0
263.943 10.1814 0
262.682 12.3288 0
261.405 10.1905 0
262.674 10.186 0
263.936 8.03852 0
266.474 8.02935 0
266.489 12.3151 0
263.951 12.3243 0
265.205 8.03394 0
266.481 10.1722 0
265.22 12.3197 0
263.943 10.1814 0
265.212 10.1768 0
266.474 8.02935 0
269.011 8.02012 0
269.027 12.3059 0
266.489 12.3151 0
267.742 8.02474 0
269.019 10.163 0
267.758 12.3105 0
266.481 10.1722 0
267.75 10.1676 0
269.011 8.02012 0
271.549 8.01083 0
271.565 12.2966 0
269.027 12.3059 0
270.28 8.01548 0
271.557 10.1537 0
270.296 12.3012 0
269.019 10.163 0
270.288 10.1584 0
271.549 8.01083 0
274.087 8.0015 0
274.103 12.2872 0
271.565 12.2966 0
272.818 8.00617 0
274.095 10.1444 0
272.834 12.2919 0
271.557 10.1537 0
272.826 10.149 0
274.087 8.0015 0
276.625 7.99211 0
276.641 12.2778 0
274.103 12.2872 0
275.356 7.99681 0
276.633 10.135 0
275.372 12.2825 0
274.095 10.1444 0
275.364 10.1397 0
276.625 7.99211 0
279.163 7.98266 0
279.179 12.2684 0
276.641 12.2778 0
277.894 7.98739 0
279.171 10.1255 0
277.91 12.2731 0
276.633 10.135 0
277.902 10.1303 0
279.163 7.98266 0
281.701 7.97316 0
281.717 12.2589 0
279.179 12.2684 0
280.432 7.97792 0
281.709 10.116 0
280.448 12.2636 0
279.171 10.1255 0
280.44 10.1208 0
281.701 7.97316 0
284.239 7.96361 0
284.255 12.2493 0
281.717 12.2589 0
282.97 7.9684 0
284.247 10.1065 0
282.986 12.2541 0
281.709 10.116 0
282.978 10.1113 0
284.239 7.96361 0
286.777 7.95401 0
286.793 12.2397 0
284.255 12.2493 0
285.508 7.95882 0
286.785 10.0969 0
285.524 12.2445 0
284.247 10.1065 0
285.516 10.1017 0
286.777 7.95401 0
289.315 7.94436 0
289.331 12.2301 0
286.793 12.2397 0
288.046 7.94919 0
289.323 10.0872 0
288.062 12.2349 0
286.785 10.0969 0
288.054 10.0921 0
289.315 7.94436 0
291.853 7.93466 0
291.869 12.2204 0
289.331 12.2301 0
290.584 7.93952 0
291.861 10.0775 0
290.6 12.2252 0
289.323 10.0872 0
290.592 10.0824 0
291.853 7.93466 0
294.391 7.92491 0
294.407 12.2106 0
291.869 12.2204 0
293.122 7.92979 0
294.399 10.0678 0
293.138 12.2155 0
291.861 10.0775 0
293.13 10.0727 0
294.391 7.92491 0
296.929 7.91511 0
296.945 12.2008 0
294.407 12.2106 0
295.66 7.92001 0
296.937 10.058 0
295.676 12.2057 0
294.399 10.0678 0
295.668 10.0629 0
296.929 7.91511 0
299.467 7.90526 0
299.483 12.191 0
296.945 12.2008 0
298.198 7.91019 0
299.475 10.0481 0
298.214 12.1959 0
296.937 10.058 0
298.206 10.0531 0
299.467 7.90526 0
302.004 7.89536 0
302.021 12.1811 0
299.483 12.191 0
300.735 7.90032 0
302.013 10.0382 0
300.752 12.186 0
299.475 10.0481 0
300.744 10.0432 0
302.004 7.89536 0
304.542 7.88542 0
304.559 12.1711 0
302.021 12.1811 0
303.273 7.8904 0
304.551 10.0283 0
303.29 12.1761 0
302.013 10.0382 0
303.282 10.0333 0
304.542 7.88542 0
307.08 7.87543 0
307.097 12.1611 0
304.559 12.1711 0
305.811 7.88043 0
307.089 10.0183 0
305.828 12.1661 0
304.551 10.0283 0
305.82 10.0233 0
307.08 7.87543 0
309.618 7.86539 0
309.635 12.1511 0
307.097 12.1611 0
308.349 7.87041 0
309.627 10.0083 0
308.366 12.1561 0
307.089 10.0183 0
308.358 10.0133 0
309.618 7.86539 0
312.156 7.85531 0
312.173 12.141 0
309.635 12.1511 0
310.887 7.86035 0
312.165 9.99817 0
310.904 12.1461 0
309.627 10.0083 0
310.896 10.0032 0
312.156 7.85531 0
314.694 7.84518 0
314.711 12.1309 0
312.173 12.141 0
313.425 7.85025 0
314.703 9.98804 0
313.442 12.136 0
312.165 9.99817 0
313.434 9.99311 0
314.694 7.84518 0
317.232 7.83501 0
317.249 12.1207 0
314.711 12.1309 0
315.963 7.8401 0
317.241 9.97787 0
315.98 12.1258 0
314.703 9.98804 0
315.972 9.98296 0
317.232 7.83501 0
319.77 7.82479 0
319.787 12.1105 0
317.249 12.1207 0
318.501 7.82991 0
319.779 9.96766 0
318.518 12.1156 0
317.241 9.97787 0
318.51 9.97277 0
319.77 7.82479 0
322.308 7.81454 0
322.325 12.1003 0
319.787 12.1105 0
321.039 7.81967 0
322.317 9.9574 0
321.056 12.1054 0
319.779 9.96766 0
321.048 9.96253 0
322.308 7.81454 0
324.846 7.80424 0
324.863 12.09 0
322.325 12.1003 0
323.577 7.80939 0
324.855 9.9471 0
323.594 12.0951 0
322.317 9.9574 0
323.586 9.95225 0
324.846 7.80424 0
327.384 7.79389 0
327.401 12.0796 0
324.863 12.09 0
326.115 7.79907 0
327.393 9.93676 0
326.132 12.0848 0
324.855 9.9471 0
326.124 9.94193 0
327.384 7.79389 0
329.922 7.78351 0
329.939 12.0692 0
327.401 12.0796 0
328.653 7.78871 0
329.931 9.92637 0
328.67 12.0744 0
327.393 9.93676 0
328.662 9.93157 0
329.922 7.78351 0
332.46 7.77309 0
332.477 12.0588 0
329.939 12.0692 0
331.191 7.7783 0
332.469 9.91595 0
331.208 12.064 0
329.931 9.92637 0
331.2 9.92117 0
332.46 7.77309 0
334.998 7.76262 0
335.015 12.0483 0
332.477 12.0588 0
333.729 7.76786 0
335.007 9.90548 0
333.746 12.0536 0
332.469 9.91595 0
333.738 9.91072 0
334.998 7.76262 0
337.536 7.75212 0
337.553 12.0378 0
335.015 12.0483 0
336.267 7.75738 0
337.544 9.89498 0
336.284 12.0431 0
335.007 9.90548 0
336.275 9.90024 0
337.536 7.75212 0
340.074 7.74158 0
340.091 12.0273 0
337.553 12.0378 0
338.805 7.74686 0
340.082 9.88444 0
338.822 12.0326 0
337.544 9.89498 0
338.813 9.88971 0
340.074 7.74158 0
342.612 7.731 0
342.629 12.0167 0
340.091 12.0273 0
341.343 7.73629 0
342.62 9.87386 0
341.36 12.022 0
340.082 9.88444 0
341.351 9.87915 0
342.612 7.731 0
345.149 7.72038 0
345.167 12.0061 0
342.629 12.0167 0
343.881 7.7257 0
345.158 9.86324 0
343.898 12.0114 0
342.62 9.87386 0
343.889 9.86855 0
345.149 7.72038 0
347.687 7.70973 0
347.705 11.9954 0
345.167 12.0061 0
346.418 7.71506 0
347.696 9.85259 0
346.436 12.0008 0
345.158 9.86324 0
346.427 9.85792 0
347.687 7.70973 0
350.225 7.69904 0
350.243 11.9847 0
347.705 11.9954 0
348.956 7.70439 0
350.234 9.84189 0
348.974 11.9901 0
347.696 9.85259 0
348.965 9.84724 0
350.225 7.69904 0
352.763 7.68831 0
352.781 11.974 0
350.243 11.9847 0
351.494 7.69368 0
352.772 9.83117 0
351.512 11.9794 0
350.234 9.84189 0
351.503 9.83653 0
352.763 7.68831 0
355.301 7.67755 0
355.319 11.9633 0
352.781 11.974 0
354.032 7.68293 0
355.31 9.8204 0
354.05 11.9686 0
352.772 9.83117 0
354.041 9.82579 0
355.301 7.67755 0
357.839 7.66675 0
357.857 11.9525 0
355.319 11.9633 0
356.57 7.67215 0
357.848 9.80961 0
356.588 11.9579 0
355.31 9.8204 0
356.579 9.81501 0
357.839 7.66675 0
360.377 7.65592 0
360.396 11.9416 0
357.857 11.9525 0
359.108 7.66134 0
360.386 9.79878 0
359.127 11.947 0
357.848 9.80961 0
359.117 9.8042 0
360.377 7.65592 0
362.915 7.64506 0
362.934 11.9308 0
360.396 11.9416 0
361.646 7.65049 0
362.924 9.78791 0
361.665 11.9362 0
360.386 9.79878 0
361.655 9.79335 0
362.915 7.64506 0
365.453 7.63416 0
365.472 11.9199 0
362.934 11.9308 0
364.184 7.63962 0
365.462 9.77702 0
364.203 11.9253 0
362.924 9.78791 0
364.193 9.78247 0
365.453 7.63416 0
367.991 7.62323 0
368.01 11.9089 0
365.472 11.9199 0
366.722 7.6287 0
368 9.76609 0
366.741 11.9144 0
365.462 9.77702 0
366.731 9.77156 0
367.991 7.62323 0
370.529 7.61228 0
370.548 11.898 0
368.01 11.9089 0
369.26 7.61776 0
370.538 9.75513 0
369.279 11.9035 0
368 9.76609 0
369.269 9.76061 0
370.529 7.61228 0
373.067 7.60128 0
373.086 11.887 0
370.548 11.898 0
371.798 7.60678 0
373.076 9.74414 0
371.817 11.8925 0
370.538 9.75513 0
371.807 9.74964 0
373.067 7.60128 0
375.605 7.59026 0
375.624 11.876 0
373.086 11.887 0
374.336 7.59578 0
375.614 9.73312 0
374.355 11.8815 0
373.076 9.74414 0
374.345 9.73863 0
375.605 7.59026 0
378.143 7.57921 0
378.162 11.8649 0
375.624 11.876 0
376.874 7.58474 0
378.152 9.72207 0
376.893 11.8704 0
375.614 9.73312 0
376.883 9.72759 0
378.143 7.57921 0
380.681 7.56813 0
380.7 11.8538 0
378.162 11.8649 0
379.412 7.57368 0
380.69 9.71099 0
379.431 11.8594 0
378.152 9.72207 0
379.421 9.71653 0
380.681 7.56813 0
383.219 7.55703 0
383.238 11.8427 0
380.7 11.8538 0
381.95 7.56258 0
383.228 9.69988 0
381.969 11.8483 0
380.69 9.71099 0
381.959 9.70544 0
383.219 7.55703 0
385.757 7.54589 0
385.776 11.8316 0
383.238 11.8427 0
384.488 7.55146 0
385.766 9.68874 0
384.507 11.8372 0
383.228 9.69988 0
384.497 9.69431 0
385.757 7.54589 0
388.295 7.53473 0
388.314 11.8204 0
385.776 11.8316 0
387.026 7.54031 0
388.304 9.67758 0
387.045 11.826 0
385.766 9.68874 0
387.035 9.68316 0
388.295 7.53473 0
390.833 7.52354 0
390.852 11.8092 0
388.314 11.8204 0
389.564 7.52914 0
390.842 9.66639 0
389.583 11.8148 0
388.304 9.67758 0
389.573 9.67199 0
390.833 7.52354 0
393.371 7.51232 0
393.39 11.798 0
390.852 11.8092 0
392.102 7.51793 0
393.38 9.65517 0
392.121 11.8036 0
390.842 9.66639 0
392.111 9.66078 0
393.371 7.51232 0
395.909 7.50108 0
395.928 11.7868 0
393.39 11.798 0
394.64 7.5067 0
395.918 9.64393 0
394.659 11.7924 0
393.38 9.65517 0
394.649 9.64955 0
395.909 7.50108 0
398.447 7.48981 0
398.466 11.7755 0
395.928 11.7868 0
397.178 7.49545 0
398.456 9.63266 0
397.197 11.7811 0
395.918 9.64393 0
397.187 9.6383 0
398.447 7.48981 0
400.985 7.47852 0
401.004 11.7642 0
398.466 11.7755 0
399.716 7.48417 0
400.994 9.62137 0
399.735 11.7699 0
398.456 9.63266 0
399.725 9.62702 0
400.985 7.47852 0
403.523 7.46721 0
403.542 11.7529 0
401.004 11.7642 0
402.254 7.47287 0
403.532 9.61006 0
402.273 11.7586 0
400.994 9.62137 0
402.263 9.61572 0
403.523 7.46721 0
406.061 7.45587 0
406.08 11.7416 0
403.542 11.7529 0
404.792 7.46154 0
406.07 9.59872 0
404.811 11.7472 0
403.532 9.61006 0
404.801 9.60439 0
406.061 7.45587 0
408.599 7.44451 0
408.618 11.7302 0
406.08 11.7416 0
407.33 7.4502 0
408.608 9.58736 0
407.349 11.7359 0
406.07 9.59872 0
407.339 9.59304 0
408.599 7.44451 0
411.137 7.43313 0
411.156 11.7188 0
408.618 11.7302 0
409.868 7.43883 0
411.146 9.57598 0
409.887 11.7245 0
408.608 9.58736 0
409.877 9.58167 0
411.137 7.43313 0
413.675 7.42173 0
413.694 11.7074 0
411.156 11.7188 0
412.406 7.42743 0
413.684 9.56458 0
412.425 11.7131 0
411.146 9.57598 0
412.415 9.57028 0
413.675 7.42173 0
416.213 7.41031 0
416.232 11.696 0
413.694 11.7074 0
414.944 7.41602 0
416.222 9.55315 0
414.963 11.7017 0
413.684 9.56458 0
414.953 9.55887 0
416.213 7.41031 0
418.751 7.39886 0
418.77 11.6846 0
416.232 11.696 0
417.482 7.40459 0
418.76 9.54171 0
417.501 11.6903 0
416.222 9.55315 0
417.491 9.54743 0
418.751 7.39886 0
421.289 7.3874 0
421.308 11.6731 0
418.77 11.6846 0
420.02 7.39314 0
421.298 9.53025 0
420.039 11.6788 0
418.76 9.54171 0
420.029 9.53598 0
421.289 7.3874 0
423.827 7.37592 0
423.846 11.6616 0
421.308 11.6731 0
422.558 7.38166 0
423.836 9.51877 0
422.577 11.6673 0
421.298 9.53025 0
422.567 9.52451 0
423.827 7.37592 0
426.365 7.36442 0
426.384 11.6501 0
423.846 11.6616 0
425.096 7.37017 0
426.374 9.50727 0
425.115 11.6559 0
423.836 9.51877 0
425.105 9.51302 0
426.365 7.36442 0
428.903 7.3529 0
428.922 11.6386 0
426.384 11.6501 0
427.634 7.35867 0
428.912 9.49575 0
427.653 11.6444 0
426.374 9.50727 0
427.643 9.50151 0
428.903 7.3529 0
431.441 7.34137 0
431.46 11.6271 0
428.922 11.6386 0
430.172 7.34714 0
431.45 9.48421 0
430.191 11.6328 0
428.912 9.49575 0
430.181 9.48998 0
431.441 7.34137 0
433.979 7.32982 0
433.998 11.6155 0
431.46 11.6271 0
432.71 7.3356 0
433.989 9.47266 0
432.729 11.6213 0
431.45 9.48421 0
432.72 9.47844 0
433.979 7.32982 0
436.517 7.31825 0
436.536 11.6039 0
433.998 11.6155 0
435.248 7.32404 0
436.527 9.4611 0
435.267 11.6097 0
433.989 9.47266 0
435.258 9.46688 0
436.517 7.31825 0
439.055 7.30667 0
439.074 11.5924 0
436.536 11.6039 0
437.786 7.31247 0
439.065 9.44952 0
437.805 11.5981 0
436.527 9.4611 0
437.796 9.45531 0
439.055 7.30667 0
441.593 7.29508 0
441.612 11.5808 0
439.074 11.5924 0
440.324 7.30088 0
441.603 9.43792 0
440.343 11.5866 0
439.065 9.44952 0
440.334 9.44372 0
441.593 7.29508 0
444.131 7.28347 0
444.15 11.5691 0
441.612 11.5808 0
442.862 7.28928 0
444.141 9.42631 0
442.881 11.575 0
441.603 9.43792 0
442.872 9.43212 0
444.131 7.28347 0
446.669 7.27185 0
446.688 11.5575 0
444.15 11.5691 0
445.4 7.27766 0
446.679 9.41469 0
445.419 11.5633 0
444.141 9.42631 0
445.41 9.4205 0
446.669 7.27185 0
449.207 7.26021 0
449.226 11.5459 0
446.688 11.5575 0
447.938 7.26603 0
449.217 9.40305 0
447.957 11.5517 0
446.679 9.41469 0
447.948 9.40887 0
449.207 7.26021 0
451.745 7.24856 0
451.764 11.5342 0
449.226 11.5459 0
450.476 7.25439 0
451.755 9.3914 0
450.495 11.5401 0
449.217 9.40305 0
450.486 9.39723 0
451.745 7.24856 0
454.283 7.2369 0
454.303 11.5226 0
451.764 11.5342 0
453.014 7.24273 0
454.293 9.37974 0
453.034 11.5284 0
451.755 9.3914 0
453.024 9.38558 0
454.283 7.2369 0
456.821 7.22523 0
456.841 11.5109 0
454.303 11.5226 0
455.552 7.23107 0
456.831 9.36807 0
455.572 11.5167 0
454.293 9.37974 0
455.562 9.37391 0
456.821 7.22523 0
459.359 7.21355 0
459.379 11.4992 0
456.841 11.5109 0
458.09 7.21939 0
459.369 9.35639 0
458.11 11.5051 0
456.831 9.36807 0
458.1 9.36223 0
459.359 7.21355 0
461.897 7.20186 0
461.917 11.4875 0
459.379 11.4992 0
460.628 7.20771 0
461.907 9.3447 0
460.648 11.4934 0
459.369 9.35639 0
460.638 9.35055 0
461.897 7.20186 0
464.435 7.19016 0
464.455 11.4758 0
461.917 11.4875 0
463.166 7.19601 0
464.445 9.333 0
463.186 11.4817 0
461.907 9.3447 0
463.176 9.33885 0
464.435 7.19016 0
466.973 7.17846 0
466.993 11.4641 0
464.455 11.4758 0
465.704 7.18431 0
466.983 9.32129 0
465.724 11.47 0
464.445 9.333 0
465.714 9.32715 0
466.973 7.17846 0
469.511 7.16674 0
469.531 11.4524 0
466.993 11.4641 0
468.242 7.1726 0
469.521 9.30958 0
468.262 11.4583 0
466.983 9.32129 0
468.252 9.31544 0
469.511 7.16674 0
472.049 7.15502 0
472.069 11.4407 0
469.531 11.4524 0
470.78 7.16088 0
472.059 9.29786 0
470.8 11.4466 0
469.521 9.30958 0
470.79 9.30372 0
472.049 7.15502 0
474.587 7.14329 0
474.607 11.429 0
472.069 11.4407 0
473.318 7.14915 0
474.597 9.28613 0
473.338 11.4348 0
472.059 9.29786 0
473.328 9.29199 0
474.587 7.14329 0
477.125 7.13155 0
477.145 11.4172 0
474.607 11.429 0
475.856 7.13742 0
477.135 9.27439 0
475.876 11.4231 0
474.597 9.28613 0
475.866 9.28026 0
477.125 7.13155 0
479.663 7.11981 0
479.683 11.4055 0
477.145 11.4172 0
478.394 7.12568 0
479.673 9.26265 0
478.414 11.4114 0
477.135 9.27439 0
478.404 9.26852 0
479.663 7.11981 0
482.201 7.10807 0
482.221 11.3937 0
479.683 11.4055 0
480.932 7.11394 0
482.211 9.2509 0
480.952 11.3996 0
479.673 9.26265 0
480.942 9.25678 0
482.201 7.10807 0
484.739 7.09632 0
484.759 11.382 0
482.221 11.3937 0
483.47 7.10219 0
484.749 9.23915 0
483.49 11.3879 0
482.211 9.2509 0
483.48 9.24503 0
484.739 7.09632 0
487.277 7.08456 0
487.297 11.3702 0
484.759 11.382 0
486.008 7.09044 0
487.287 9.2274 0
486.028 11.3761 0
484.749 9.23915 0
486.018 9.23327 0
487.277 7.08456 0
489.815 7.0728 0
489.835 11.3585 0
487.297 11.3702 0
488.546 7.07868 0
489.825 9.21564 0
488.566 11.3644 0
487.287 9.2274 0
488.556 9.22152 0
489.815 7.0728 0
492.353 7.06104 0
492.373 11.3467 0
489.835 11.3585 0
491.084 7.06692 0
492.363 9.20388 0
491.104 11.3526 0
489.825 9.21564 0
491.094 9.20976 0
492.353 7.06104 0
494.891 7.04928 0
494.911 11.335 0
492.373 11.3467 0
493.622 7.05516 0
494.901 9.19212 0
493.642 11.3408 0
492.363 9.20388 0
493.632 9.198 0
494.891 7.04928 0
497.429 7.03752 0
497.449 11.3232 0
494.911 11.335 0
496.16 7.0434 0
497.439 9.18036 0
496.18 11.3291 0
494.901 9.19212 0
496.17 9.18624 0
497.429 7.03752 0
499.967 7.02576 0
499.987 11.3114 0
497.449 11.3232 0
498.698 7.03164 0
499.977 9.16861 0
498.718 11.3173 0
497.439 9.18036 0
498.708 9.17448 0
0 12.8571 0
2.53798 12.8572 0
2.53816 17.1429 0
0 17.1429 0
1.26899 12.8572 0
2.53807 15 0
1.26908 17.1429 0
0 15 0
1.26904 15 0
2.53798 12.8572 0
5.07596 12.857 0
5.07632 17.1427 0
2.53816 17.1429 0
3.80697 12.8571 0
5.07614 14.9999 0
3.80724 17.1428 0
2.53807 15 0
3.80711 15 0
5.07596 12.857 0
7.61393 12.8567 0
7.61449 17.1424 0
5.07632 17.1427 0
6.34495 12.8569 0
7.61421 14.9996 0
6.34541 17.1426 0
5.07614 14.9999 0
6.34518 14.9997 0
7.61393 12.8567 0
10.1519 12.8563 0
10.1527 17.142 0
7.61449 17.1424 0
8.88292 12.8565 0
10.1523 14.9992 0
8.88358 17.1422 0
7.61421 14.9996 0
8.88325 14.9994 0
10.1519 12.8563 0
12.6899 12.8557 0
12.6908 17.1415 0
10.1527 17.142 0
11.4209 12.856 0
12.6904 14.9986 0
11.4218 17.1418 0
10.1523 14.9992 0
11.4213 14.9989 0
12.6899 12.8557 0
15.2278 12.8551 0
15.229 17.1408 0
12.6908 17.1415 0
13.9589 12.8554 0
15.2284 14.998 0
13.9599 17.1411 0
12.6904 14.9986 0
13.9594 14.9983 0
15.2278 12.8551 0
17.7658 12.8543 0
17.7672 17.14 0
15.229 17.1408 0
16.4968 12.8547 0
17.7665 14.9972 0
16.4981 17.1404 0
15.2284 14.998 0
16.4975 14.9976 0
17.7658 12.8543 0
20.3038 12.8534 0
20.3053 17.1391 0
17.7672 17.14 0
19.0348 12.8539 0
20.3046 14.9963 0
19.0363 17.1396 0
17.7665 14.9972 0
19.0355 14.9967 0
20.3038 12.8534 0
22.8418 12.8524 0
22.8435 17.1381 0
20.3053 17.1391 0
21.5728 12.8529 0
22.8426 14.9953 0
21.5744 17.1386 0
20.3046 14.9963 0
21.5736 14.9958 0
22.8418 12.8524 0
25.3797 12.8513 0
25.3817 17.137 0
22.8435 17.1381 0
24.1108 12.8519 0
25.3807 14.9942 0
24.1126 17.1376 0
22.8426 14.9953 0
24.1117 14.9947 0
25.3797 12.8513 0
27.9177 12.8501 0
27.9198 17.1358 0
25.3817 17.137 0
26.6487 12.8507 0
27.9188 14.9929 0
26.6508 17.1364 0
25.3807 14.9942 0
26.6497 14.9936 0
27.9177 12.8501 0
30.4557 12.8487 0
30.458 17.1344 0
27.9198 17.1358 0
29.1867 12.8494 0
30.4569 14.9916 0
29.1889 17.1351 0
27.9188 14.9929 0
29.1878 14.9923 0
30.4557 12.8487 0
32.9937 12.8472 0
32.9962 17.133 0
30.458 17.1344 0
31.7247 12.848 0
32.9949 14.9901 0
31.7271 17.1337 0
30.4569 14.9916 0
31.7259 14.9909 0
32.9937 12.8472 0
35.5316 12.8457 0
35.5343 17.1314 0
32.9962 17.133 0
34.2627 12.8465 0
35.533 14.9885 0
34.2653 17.1322 0
32.9949 14.9901 0
34.264 14.9893 0
35.5316 12.8457 0
38.0696 12.844 0
38.0725 17.1297 0
35.5343 17.1314 0
36.8006 12.8449 0
38.0711 14.9869 0
36.8034 17.1306 0
35.533 14.9885 0
36.802 14.9877 0
38.0696 12.844 0
40.6076 12.8422 0
40.6107 17.1279 0
38.0725 17.1297 0
39.3386 12.8431 0
40.6091 14.9851 0
39.3416 17.1288 0
38.0711 14.9869 0
39.3401 14.986 0
40.6076 12.8422 0
43.1456 12.8403 0
43.1488 17.126 0
40.6107 17.1279 0
41.8766 12.8413 0
43.1472 14.9832 0
41.8797 17.127 0
40.6091 14.9851 0
41.8782 14.9841 0
43.1456 12.8403 0
45.6836 12.8383 0
45.687 17.124 0
43.1488 17.126 0
44.4146 12.8393 0
45.6853 14.9812 0
44.4179 17.125 0
43.1472 14.9832 0
44.4162 14.9822 0
45.6836 12.8383 0
48.2215 12.8362 0
48.2252 17.1219 0
45.687 17.124 0
46.9525 12.8373 0
48.2233 14.979 0
46.9561 17.123 0
45.6853 14.9812 0
46.9543 14.9801 0
48.2215 12.8362 0
50.7595 12.834 0
50.7633 17.1197 0
48.2252 17.1219 0
49.4905 12.8351 0
50.7614 14.9768 0
49.4942 17.1208 0
48.2233 14.979 0
49.4924 14.978 0
50.7595 12.834 0
53.2975 12.8316 0
53.3015 17.1173 0
50.7633 17.1197 0
52.0285 12.8328 0
53.2995 14.9745 0
52.0324 17.1185 0
50.7614 14.9768 0
52.0304 14.9757 0
53.2975 12.8316 0
55.8355 12.8292 0
55.8396 17.1149 0
53.3015 17.1173 0
54.5665 12.8304 0
55.8376 14.9721 0
54.5706 17.1161 0
53.2995 14.9745 0
54.5685 14.9733 0
55.8355 12.8292 0
58.3735 12.8266 0
58.3778 17.1124 0
55.8396 17.1149 0
57.1045 12.8279 0
58.3756 14.9695 0
57.1087 17.1136 0
55.8376 14.9721 0
57.1066 14.9708 0
58.3735 12.8266 0
60.9114 12.824 0
60.916 17.1097 0
58.3778 17.1124 0
59.6424 12.8253 0
60.9137 14.9669 0
59.6469 17.111 0
58.3756 14.9695 0
59.6447 14.9682 0
60.9114 12.824 0
63.4494 12.8212 0
63.4541 17.1069 0
60.916 17.1097 0
62.1804 12.8226 0
63.4518 14.9641 0
62.185 17.1083 0
60.9137 14.9669 0
62.1827 14.9655 0
63.4494 12.8212 0
65.9874 12.8184 0
65.9923 17.1041 0
63.4541 17.1069 0
64.7184 12.8198 0
65.9898 14.9612 0
64.7232 17.1055 0
63.4518 14.9641 0
64.7208 14.9627 0
65.9874 12.8184 0
68.5254 12.8154 0
68.5304 17.1011 0
65.9923 17.1041 0
67.2564 12.8169 0
68.5279 14.9583 0
67.2613 17.1026 0
65.9898 14.9612 0
67.2589 14.9598 0
68.5254 12.8154 0
71.0634 12.8123 0
71.0686 17.0981 0
68.5304 17.1011 0
69.7944 12.8139 0
71.066 14.9552 0
69.7995 17.0996 0
68.5279 14.9583 0
69.7969 14.9568 0
71.0634 12.8123 0
73.6013 12.8092 0
73.6067 17.0949 0
71.0686 17.0981 0
72.3324 12.8108 0
73.604 14.952 0
72.3377 17.0965 0
71.066 14.9552 0
72.335 14.9536 0
73.6013 12.8092 0
76.1393 12.8059 0
76.1449 17.0916 0
73.6067 17.0949 0
74.8703 12.8076 0
76.1421 14.9488 0
74.8758 17.0933 0
73.604 14.952 0
74.8731 14.9504 0
76.1393 12.8059 0
78.6773 12.8025 0
78.683 17.0882 0
76.1449 17.0916 0
77.4083 12.8042 0
78.6802 14.9454 0
77.414 17.0899 0
76.1421 14.9488 0
77.4111 14.9471 0
78.6773 12.8025 0
81.2153 12.7991 0
81.2212 17.0848 0
78.683 17.0882 0
79.9463 12.8008 0
81.2182 14.9419 0
79.9521 17.0865 0
78.6802 14.9454 0
79.9492 14.9437 0
81.2153 12.7991 0
83.7533 12.7955 0
83.7593 17.0812 0
81.2212 17.0848 0
82.4843 12.7973 0
83.7563 14.9384 0
82.4903 17.083 0
81.2182 14.9419 0
82.4873 14.9402 0
83.7533 12.7955 0
86.2913 12.7918 0
86.2975 17.0775 0
83.7593 17.0812 0
85.0223 12.7937 0
86.2944 14.9347 0
85.0284 17.0794 0
83.7563 14.9384 0
85.0253 14.9365 0
86.2913 12.7918 0
88.8292 12.7881 0
88.8357 17.0738 0
86.2975 17.0775 0
87.5603 12.79 0
88.8325 14.9309 0
87.5666 17.0757 0
86.2944 14.9347 0
87.5634 14.9328 0
88.8292 12.7881 0
91.3672 12.7842 0
91.3738 17.0699 0
88.8357 17.0738 0
90.0982 12.7861 0
91.3705 14.9271 0
90.1047 17.0718 0
88.8325 14.9309 0
90.1015 14.929 0
91.3672 12.7842 0
93.9052 12.7802 0
93.912 17.0659 0
91.3738 17.0699 0
92.6362 12.7822 0
93.9086 14.9231 0
92.6429 17.0679 0
91.3705 14.9271 0
92.6396 14.9251 0
93.9052 12.7802 0
96.4432 12.7762 0
96.4501 17.0619 0
93.912 17.0659 0
95.1742 12.7782 0
96.4467 14.919 0
95.181 17.0639 0
93.9086 14.9231 0
95.1776 14.9211 0
96.4432 12.7762 0
98.9812 12.772 0
98.9882 17.0577 0
96.4501 17.0619 0
97.7122 12.7741 0
98.9847 14.9149 0
97.7192 17.0598 0
96.4467 14.919 0
97.7157 14.917 0
98.9812 12.772 0
101.519 12.7678 0
101.526 17.0535 0
98.9882 17.0577 0
100.25 12.7699 0
101.523 14.9106 0
100.257 17.0556 0
98.9847 14.9149 0
100.254 14.9128 0
101.519 12.7678 0
104.057 12.7634 0
104.065 17.0491 0
101.526 17.0535 0
102.788 12.7656 0
104.061 14.9063 0
102.795 17.0513 0
101.523 14.9106 0
102.792 14.9085 0
104.057 12.7634 0
106.595 12.759 0
106.603 17.0447 0
104.065 17.0491 0
105.326 12.7612 0
106.599 14.9018 0
105.334 17.0469 0
104.061 14.9063 0
105.33 14.9041 0
106.595 12.759 0
109.133 12.7544 0
109.141 17.0401 0
106.603 17.0447 0
107.864 12.7567 0
109.137 14.8973 0
107.872 17.0424 0
106.599 14.9018 0
107.868 14.8996 0
109.133 12.7544 0
111.671 12.7498 0
111.679 17.0355 0
109.141 17.0401 0
110.402 12.7521 0
111.675 14.8927 0
110.41 17.0378 0
109.137 14.8973 0
110.406 14.895 0
111.671 12.7498 0
114.209 12.7451 0
114.217 17.0308 0
111.679 17.0355 0
112.94 12.7474 0
114.213 14.8879 0
112.948 17.0332 0
111.675 14.8927 0
112.944 14.8903 0
114.209 12.7451 0
116.747 12.7403 0
116.755 17.026 0
114.217 17.0308 0
115.478 12.7427 0
116.751 14.8831 0
115.486 17.0284 0
114.213 14.8879 0
115.482 14.8855 0
116.747 12.7403 0
119.285 12.7354 0
119.293 17.0211 0
116.755 17.026 0
118.016 12.7378 0
119.289 14.8782 0
118.024 17.0235 0
116.751 14.8831 0
118.02 14.8807 0
119.285 12.7354 0
121.823 12.7304 0
121.832 17.0161 0
119.293 17.0211 0
120.554 12.7329 0
121.827 14.8732 0
120.562 17.0186 0
119.289 14.8782 0
120.558 14.8757 0
121.823 12.7304 0
124.361 12.7253 0
124.37 17.011 0
121.832 17.0161 0
123.092 12.7278 0
124.365 14.8681 0
123.101 17.0135 0
121.827 14.8732 0
123.096 14.8707 0
124.361 12.7253 0
126.899 12.7201 0
126.908 17.0058 0
124.37 17.011 0
125.63 12.7227 0
126.903 14.863 0
125.639 17.0084 0
124.365 14.8681 0
125.634 14.8656 0
126.899 12.7201 0
129.437 12.7148 0
129.446 17.0005 0
126.908 17.0058 0
128.168 12.7175 0
129.442 14.8577 0
128.177 17.0032 0
126.903 14.863 0
128.172 14.8603 0
129.437 12.7148 0
131.975 12.7095 0
131.984 16.9952 0
129.446 17.0005 0
130.706 12.7122 0
131.98 14.8523 0
130.715 16.9979 0
129.442 14.8577 0
130.711 14.855 0
131.975 12.7095 0
134.513 12.704 0
134.522 16.9897 0
131.984 16.9952 0
133.244 12.7068 0
134.518 14.8469 0
133.253 16.9925 0
131.98 14.8523 0
133.249 14.8496 0
134.513 12.704 0
137.051 12.6985 0
137.06 16.9842 0
134.522 16.9897 0
135.782 12.7013 0
137.056 14.8414 0
135.791 16.987 0
134.518 14.8469 0
135.787 14.8441 0
137.051 12.6985 0
139.589 12.6929 0
139.599 16.9786 0
137.06 16.9842 0
138.32 12.6957 0
139.594 14.8357 0
138.329 16.9814 0
137.056 14.8414 0
138.325 14.8386 0
139.589 12.6929 0
142.127 12.6872 0
142.137 16.9729 0
139.599 16.9786 0
140.858 12.69 0
142.132 14.83 0
140.868 16.9757 0
139.594 14.8357 0
140.863 14.8329 0
142.127 12.6872 0
144.665 12.6814 0
144.675 16.9671 0
142.137 16.9729 0
143.396 12.6843 0
144.67 14.8243 0
143.406 16.97 0
142.132 14.83 0
143.401 14.8272 0
144.665 12.6814 0
147.203 12.6755 0
147.213 16.9612 0
144.675 16.9671 0
145.934 12.6785 0
147.208 14.8184 0
145.944 16.9642 0
144.67 14.8243 0
145.939 14.8213 0
147.203 12.6755 0
149.741 12.6696 0
149.751 16.9553 0
147.213 16.9612 0
148.472 12.6726 0
149.746 14.8124 0
148.482 16.9583 0
147.208 14.8184 0
148.477 14.8154 0
149.741 12.6696 0
152.279 12.6635 0
152.289 16.9492 0
149.751 16.9553 0
151.01 12.6666 0
152.284 14.8064 0
151.02 16.9523 0
149.746 14.8124 0
151.015 14.8094 0
152.279 12.6635 0
154.817 12.6574 0
154.827 16.9431 0
152.289 16.9492 0
153.548 12.6605 0
154.822 14.8003 0
153.558 16.9462 0
152.284 14.8064 0
153.553 14.8033 0
154.817 12.6574 0
157.355 12.6512 0
157.365 16.9369 0
154.827 16.9431 0
156.086 12.6543 0
157.36 14.7941 0
156.096 16.94 0
154.822 14.8003 0
156.091 14.7972 0
157.355 12.6512 0
159.893 12.6449 0
159.904 16.9306 0
157.365 16.9369 0
158.624 12.6481 0
159.898 14.7878 0
158.635 16.9338 0
157.36 14.7941 0
158.629 14.7909 0
159.893 12.6449 0
162.431 12.6385 0
162.442 16.9242 0
159.904 16.9306 0
161.162 12.6417 0
162.436 14.7814 0
161.173 16.9274 0
159.898 14.7878 0
161.167 14.7846 0
162.431 12.6385 0
164.969 12.6321 0
164.98 16.9178 0
162.442 16.9242 0
163.7 12.6353 0
164.974 14.775 0
163.711 16.921 0
162.436 14.7814 0
163.705 14.7782 0
164.969 12.6321 0
167.507 12.6256 0
167.518 16.9113 0
164.98 16.9178 0
166.238 12.6288 0
167.512 14.7684 0
166.249 16.9145 0
164.974 14.775 0
166.243 14.7717 0
167.507 12.6256 0
170.045 12.619 0
170.056 16.9047 0
167.518 16.9113 0
168.776 12.6223 0
170.051 14.7618 0
168.787 16.908 0
167.512 14.7684 0
168.782 14.7651 0
170.045 12.619 0
172.583 12.6123 0
172.594 16.898 0
170.056 16.9047 0
171.314 12.6156 0
172.589 14.7551 0
171.325 16.9013 0
170.051 14.7618 0
171.32 14.7585 0
172.583 12.6123 0
175.121 12.6055 0
175.132 16.8912 0
172.594 16.898 0
173.852 12.6089 0
175.127 14.7484 0
173.863 16.8946 0
172.589 14.7551 0
173.858 14.7518 0
175.121 12.6055 0
177.659 12.5987 0
177.671 16.8844 0
175.132 16.8912 0
176.39 12.6021 0
177.665 14.7415 0
176.401 16.8878 0
175.127 14.7484 0
176.396 14.745 0
177.659 12.5987 0
180.197 12.5917 0
180.209 16.8774 0
177.671 16.8844 0
178.928 12.5952 0
180.203 14.7346 0
178.94 16.8809 0
177.665 14.7415 0
178.934 14.7381 0
180.197 12.5917 0
182.735 12.5848 0
182.747 16.8705 0
180.209 16.8774 0
181.466 12.5883 0
182.741 14.7276 0
181.478 16.874 0
180.203 14.7346 0
181.472 14.7311 0
182.735 12.5848 0
185.273 12.5777 0
185.285 16.8634 0
182.747 16.8705 0
184.004 12.5812 0
185.279 14.7205 0
184.016 16.8669 0
182.741 14.7276 0
184.01 14.7241 0
185.273 12.5777 0
187.811 12.5705 0
187.823 16.8562 0
185.285 16.8634 0
186.542 12.5741 0
187.817 14.7134 0
186.554 16.8598 0
185.279 14.7205 0
186.548 14.717 0
187.811 12.5705 0
190.349 12.5633 0
190.361 16.849 0
187.823 16.8562 0
189.08 12.5669 0
190.355 14.7062 0
189.092 16.8526 0
187.817 14.7134 0
189.086 14.7098 0
190.349 12.5633 0
192.887 12.556 0
192.899 16.8417 0
190.361 16.849 0
191.618 12.5597 0
192.893 14.6989 0
191.63 16.8454 0
190.355 14.7062 0
191.624 14.7025 0
192.887 12.556 0
195.425 12.5487 0
195.437 16.8344 0
192.899 16.8417 0
194.156 12.5523 0
195.431 14.6915 0
194.168 16.838 0
192.893 14.6989 0
194.162 14.6952 0
195.425 12.5487 0
197.963 12.5412 0
197.976 16.8269 0
195.437 16.8344 0
196.694 12.5449 0
197.969 14.6841 0
196.706 16.8306 0
195.431 14.6915 0
196.7 14.6878 0
197.963 12.5412 0
200.501 12.5337 0
200.514 16.8194 0
197.976 16.8269 0
199.232 12.5375 0
200.507 14.6766 0
199.245 16.8232 0
197.969 14.6841 0
199.238 14.6803 0
200.501 12.5337 0
203.039 12.5261 0
203.052 16.8118 0
200.514 16.8194 0
201.77 12.5299 0
203.045 14.669 0
201.783 16.8156 0
200.507 14.6766 0
201.776 14.6728 0
203.039 12.5261 0
205.577 12.5185 0
205.59 16.8042 0
203.052 16.8118 0
204.308 12.5223 0
205.583 14.6613 0
204.321 16.808 0
203.045 14.669 0
204.314 14.6652 0
205.577 12.5185 0
208.115 12.5107 0
208.128 16.7964 0
205.59 16.8042 0
206.846 12.5146 0
208.121 14.6536 0
206.859 16.8003 0
205.583 14.6613 0
206.852 14.6575 0
208.115 12.5107 0
210.653 12.5029 0
210.666 16.7886 0
208.128 16.7964 0
209.384 12.5069 0
210.66 14.6458 0
209.397 16.7925 0
208.121 14.6536 0
209.39 14.6497 0
210.653 12.5029 0
213.191 12.4951 0
213.204 16.7808 0
210.666 16.7886 0
211.922 12.499 0
213.198 14.6379 0
211.935 16.7847 0
210.66 14.6458 0
211.929 14.6419 0
213.191 12.4951 0
215.729 12.4871 0
215.742 16.7728 0
213.204 16.7808 0
214.46 12.4911 0
215.736 14.63 0
214.473 16.7768 0
213.198 14.6379 0
214.467 14.634 0
215.729 12.4871 0
218.267 12.4792 0
218.28 16.7648 0
215.742 16.7728 0
216.998 12.4832 0
218.274 14.622 0
217.011 16.7689 0
215.736 14.63 0
217.005 14.626 0
218.267 12.4792 0
220.805 12.4711 0
220.819 16.7568 0
218.28 16.7648 0
219.536 12.4751 0
220.812 14.6139 0
219.55 16.7608 0
218.274 14.622 0
219.543 14.618 0
220.805 12.4711 0
223.343 12.4629 0
223.357 16.7486 0
220.819 16.7568 0
222.074 12.467 0
223.35 14.6058 0
222.088 16.7527 0
220.812 14.6139 0
222.081 14.6099 0
223.343 12.4629 0
225.881 12.4548 0
225.895 16.7404 0
223.357 16.7486 0
224.612 12.4589 0
225.888 14.5976 0
224.626 16.7446 0
223.35 14.6058 0
224.619 14.6017 0
225.881 12.4548 0
228.419 12.4465 0
228.433 16.7322 0
225.895 16.7404 0
227.15 12.4506 0
228.426 14.5893 0
227.164 16.7363 0
225.888 14.5976 0
227.157 14.5935 0
228.419 12.4465 0
230.957 12.4382 0
230.971 16.7238 0
228.433 16.7322 0
229.688 12.4423 0
230.964 14.581 0
229.702 16.728 0
228.426 14.5893 0
229.695 14.5852 0
230.957 12.4382 0
233.495 12.4298 0
233.509 16.7155 0
230.971 16.7238 0
232.226 12.434 0
233.502 14.5726 0
232.24 16.7197 0
230.964 14.581 0
232.233 14.5768 0
233.495 12.4298 0
236.033 12.4213 0
236.047 16.707 0
233.509 16.7155 0
234.764 12.4255 0
236.04 14.5642 0
234.778 16.7112 0
233.502 14.5726 0
234.771 14.5684 0
236.033 12.4213 0
238.571 12.4128 0
238.585 16.6985 0
236.047 16.707 0
237.302 12.4171 0
238.578 14.5556 0
237.316 16.7027 0
236.04 14.5642 0
237.309 14.5599 0
238.571 12.4128 0
241.109 12.4042 0
241.123 16.6899 0
238.585 16.6985 0
239.84 12.4085 0
241.116 14.5471 0
239.854 16.6942 0
238.578 14.5556 0
239.847 14.5514 0
241.109 12.4042 0
243.647 12.3956 0
243.662 16.6812 0
241.123 16.6899 0
242.378 12.3999 0
243.654 14.5384 0
242.393 16.6856 0
241.116 14.5471 0
242.385 14.5427 0
243.647 12.3956 0
246.185 12.3869 0
246.2 16.6725 0
243.662 16.6812 0
244.916 12.3912 0
246.192 14.5297 0
244.931 16.6769 0
243.654 14.5384 0
244.923 14.5341 0
246.185 12.3869 0
248.723 12.3781 0
248.738 16.6638 0
246.2 16.6725 0
247.454 12.3825 0
248.73 14.5209 0
247.469 16.6682 0
246.192 14.5297 0
247.461 14.5253 0
248.723 12.3781 0
251.261 12.3693 0
251.276 16.6549 0
248.738 16.6638 0
249.992 12.3737 0
251.268 14.5121 0
250.007 16.6594 0
248.73 14.5209 0
249.999 14.5165 0
251.261 12.3693 0
253.799 12.3604 0
253.814 16.6461 0
251.276 16.6549 0
252.53 12.3648 0
253.806 14.5032 0
252.545 16.6505 0
251.268 14.5121 0
252.537 14.5077 0
253.799 12.3604 0
256.337 12.3514 0
256.352 16.6371 0
253.814 16.6461 0
255.068 12.3559 0
256.345 14.4943 0
255.083 16.6416 0
253.806 14.5032 0
255.076 14.4988 0
256.337 12.3514 0
258.875 12.3424 0
258.89 16.6281 0
256.352 16.6371 0
257.606 12.3469 0
258.883 14.4853 0
257.621 16.6326 0
256.345 14.4943 0
257.614 14.4898 0
258.875 12.3424 0
261.413 12.3334 0
261.428 16.6191 0
258.89 16.6281 0
260.144 12.3379 0
261.421 14.4762 0
260.159 16.6236 0
258.883 14.4853 0
260.152 14.4808 0
261.413 12.3334 0
263.951 12.3243 0
263.966 16.6099 0
261.428 16.6191 0
262.682 12.3288 0
263.959 14.4671 0
262.697 16.6145 0
261.421 14.4762 0
262.69 14.4717 0
263.951 12.3243 0
266.489 12.3151 0
266.505 16.6008 0
263.966 16.6099 0
265.22 12.3197 0
266.497 14.4579 0
265.235 16.6054 0
263.959 14.4671 0
265.228 14.4625 0
266.489 12.3151 0
269.027 12.3059 0
269.043 16.5915 0
266.505 16.6008 0
267.758 12.3105 0
269.035 14.4487 0
267.774 16.5962 0
266.497 14.4579 0
267.766 14.4533 0
269.027 12.3059 0
271.565 12.2966 0
271.581 16.5823 0
269.043 16.5915 0
270.296 12.3012 0
271.573 14.4394 0
270.312 16.5869 0
269.035 14.4487 0
270.304 14.4441 0
271.565 12.2966 0
274.103 12.2872 0
274.119 16.5729 0
271.581 16.5823 0
272.834 12.2919 0
274.111 14.4301 0
272.85 16.5776 0
271.573 14.4394 0
272.842 14.4348 0
274.103 12.2872 0
276.641 12.2778 0
276.657 16.5635 0
274.119 16.5729 0
275.372 12.2825 0
276.649 14.4207 0
275.388 16.5682 0
274.111 14.4301 0
275.38 14.4254 0
276.641 12.2778 0
279.179 12.2684 0
279.195 16.5541 0
276.657 16.5635 0
277.91 12.2731 0
279.187 14.4112 0
277.926 16.5588 0
276.649 14.4207 0
277.918 14.416 0
279.179 12.2684 0
281.717 12.2589 0
281.733 16.5446 0
279.195 16.5541 0
280.448 12.2636 0
281.725 14.4017 0
280.464 16.5493 0
279.187 14.4112 0
280.456 14.4065 0
281.717 12.2589 0
284.255 12.2493 0
284.271 16.535 0
281.733 16.5446 0
282.986 12.2541 0
284.263 14.3922 0
283.002 16.5398 0
281.725 14.4017 0
282.994 14.397 0
284.255 12.2493 0
286.793 12.2397 0
286.809 16.5254 0
284.271 16.535 0
285.524 12.2445 0
286.801 14.3826 0
285.54 16.5302 0
284.263 14.3922 0
285.532 14.3874 0
286.793 12.2397 0
289.331 12.2301 0
289.347 16.5158 0
286.809 16.5254 0
288.062 12.2349 0
289.339 14.3729 0
288.078 16.5206 0
286.801 14.3826 0
288.07 14.3778 0
289.331 12.2301 0
291.869 12.2204 0
291.885 16.5061 0
289.347 16.5158 0
290.6 12.2252 0
291.877 14.3632 0
290.616 16.5109 0
289.339 14.3729 0
290.608 14.3681 0
291.869 12.2204 0
294.407 12.2106 0
294.424 16.4963 0
291.885 16.5061 0
293.138 12.2155 0
294.415 14.3535 0
293.155 16.5012 0
291.877 14.3632 0
293.146 14.3584 0
294.407 12.2106 0
296.945 12.2008 0
296.962 16.4865 0
294.424 16.4963 0
295.676 12.2057 0
296.953 14.3437 0
295.693 16.4914 0
294.415 14.3535 0
295.684 14.3486 0
296.945 12.2008 0
299.483 12.191 0
299.5 16.4767 0
296.962 16.4865 0
298.214 12.1959 0
299.491 14.3338 0
298.231 16.4816 0
296.953 14.3437 0
298.222 14.3388 0
299.483 12.191 0
302.021 12.1811 0
302.038 16.4668 0
299.5 16.4767 0
300.752 12.186 0
302.03 14.3239 0
300.769 16.4717 0
299.491 14.3338 0
300.76 14.3289 0
302.021 12.1811 0
304.559 12.1711 0
304.576 16.4568 0
302.038 16.4668 0
303.29 12.1761 0
304.568 14.314 0
303.307 16.4618 0
302.03 14.3239 0
303.299 14.319 0
304.559 12.1711 0
307.097 12.1611 0
307.114 16.4468 0
304.576 16.4568 0
305.828 12.1661 0
307.106 14.304 0
305.845 16.4518 0
304.568 14.314 0
305.837 14.309 0
307.097 12.1611 0
309.635 12.1511 0
309.652 16.4368 0
307.114 16.4468 0
308.366 12.1561 0
309.644 14.294 0
308.383 16.4418 0
307.106 14.304 0
308.375 14.299 0
309.635 12.1511 0
312.173 12.141 0
312.19 16.4267 0
309.652 16.4368 0
310.904 12.1461 0
312.182 14.2839 0
310.921 16.4318 0
309.644 14.294 0
310.913 14.2889 0
312.173 12.141 0
314.711 12.1309 0
314.728 16.4166 0
312.19 16.4267 0
313.442 12.136 0
314.72 14.2737 0
313.459 16.4216 0
312.182 14.2839 0
313.451 14.2788 0
314.711 12.1309 0
317.249 12.1207 0
317.266 16.4064 0
314.728 16.4166 0
315.98 12.1258 0
317.258 14.2636 0
315.997 16.4115 0
314.72 14.2737 0
315.989 14.2687 0
317.249 12.1207 0
319.787 12.1105 0
319.804 16.3962 0
317.266 16.4064 0
318.518 12.1156 0
319.796 14.2534 0
318.535 16.4013 0
317.258 14.2636 0
318.527 14.2585 0
319.787 12.1105 0
322.325 12.1003 0
322.343 16.3859 0
319.804 16.3962 0
321.056 12.1054 0
322.334 14.2431 0
321.074 16.3911 0
319.796 14.2534 0
321.065 14.2482 0
322.325 12.1003 0
324.863 12.09 0
324.881 16.3756 0
322.343 16.3859 0
323.594 12.0951 0
324.872 14.2328 0
323.612 16.3808 0
322.334 14.2431 0
323.603 14.238 0
324.863 12.09 0
327.401 12.0796 0
327.419 16.3653 0
324.881 16.3756 0
326.132 12.0848 0
327.41 14.2225 0
326.15 16.3705 0
324.872 14.2328 0
326.141 14.2276 0
327.401 12.0796 0
329.939 12.0692 0
329.957 16.3549 0
327.419 16.3653 0
328.67 12.0744 0
329.948 14.2121 0
328.688 16.3601 0
327.41 14.2225 0
328.679 14.2173 0
329.939 12.0692 0
332.477 12.0588 0
332.495 16.3445 0
329.957 16.3549 0
331.208 12.064 0
332.486 14.2016 0
331.226 16.3497 0
329.948 14.2121 0
331.217 14.2069 0
332.477 12.0588 0
335.015 12.0483 0
335.033 16.334 0
332.495 16.3445 0
333.746 12.0536 0
335.024 14.1912 0
333.764 16.3393 0
332.486 14.2016 0
333.755 14.1964 0
335.015 12.0483 0
337.553 12.0378 0
337.571 16.3235 0
335.033 16.334 0
336.284 12.0431 0
337.562 14.1807 0
336.302 16.3288 0
335.024 14.1912 0
336.293 14.1859 0
337.553 12.0378 0
340.091 12.0273 0
340.109 16.313 0
337.571 16.3235 0
338.822 12.0326 0
340.1 14.1701 0
338.84 16.3182 0
337.562 14.1807 0
338.831 14.1754 0
340.091 12.0273 0
342.629 12.0167 0
342.647 16.3024 0
340.109 16.313 0
341.36 12.022 0
342.638 14.1596 0
341.378 16.3077 0
340.1 14.1701 0
341.369 14.1648 0
342.629 12.0167 0
345.167 12.0061 0
345.185 16.2918 0
342.647 16.3024 0
343.898 12.0114 0
345.176 14.1489 0
343.916 16.2971 0
342.638 14.1596 0
343.907 14.1542 0
345.167 12.0061 0
347.705 11.9954 0
347.723 16.2811 0
345.185 16.2918 0
346.436 12.0008 0
347.714 14.1383 0
346.454 16.2864 0
345.176 14.1489 0
346.445 14.1436 0
347.705 11.9954 0
350.243 11.9847 0
350.261 16.2704 0
347.723 16.2811 0
348.974 11.9901 0
350.252 14.1276 0
348.992 16.2758 0
347.714 14.1383 0
348.983 14.1329 0
350.243 11.9847 0
352.781 11.974 0
352.8 16.2597 0
350.261 16.2704 0
351.512 11.9794 0
352.791 14.1169 0
351.531 16.2651 0
350.252 14.1276 0
351.521 14.1222 0
352.781 11.974 0
355.319 11.9633 0
355.338 16.2489 0
352.8 16.2597 0
354.05 11.9686 0
355.329 14.1061 0
354.069 16.2543 0
352.791 14.1169 0
354.06 14.1115 0
355.319 11.9633 0
357.857 11.9525 0
357.876 16.2381 0
355.338 16.2489 0
356.588 11.9579 0
357.867 14.0953 0
356.607 16.2435 0
355.329 14.1061 0
356.598 14.1007 0
357.857 11.9525 0
360.396 11.9416 0
360.414 16.2273 0
357.876 16.2381 0
359.127 11.947 0
360.405 14.0845 0
359.145 16.2327 0
357.867 14.0953 0
359.136 14.0899 0
360.396 11.9416 0
362.934 11.9308 0
362.952 16.2164 0
360.414 16.2273 0
361.665 11.9362 0
362.943 14.0736 0
361.683 16.2219 0
360.405 14.0845 0
361.674 14.079 0
362.934 11.9308 0
365.472 11.9199 0
365.49 16.2055 0
362.952 16.2164 0
364.203 11.9253 0
365.481 14.0627 0
364.221 16.211 0
362.943 14.0736 0
364.212 14.0682 0
365.472 11.9199 0
368.01 11.9089 0
368.028 16.1946 0
365.49 16.2055 0
366.741 11.9144 0
368.019 14.0518 0
366.759 16.2001 0
365.481 14.0627 0
366.75 14.0572 0
368.01 11.9089 0
370.548 11.898 0
370.566 16.1837 0
368.028 16.1946 0
369.279 11.9035 0
370.557 14.0408 0
369.297 16.1891 0
368.019 14.0518 0
369.288 14.0463 0
370.548 11.898 0
373.086 11.887 0
373.104 16.1727 0
370.566 16.1837 0
371.817 11.8925 0
373.095 14.0298 0
371.835 16.1782 0
370.557 14.0408 0
371.826 14.0353 0
373.086 11.887 0
375.624 11.876 0
375.642 16.1616 0
373.104 16.1727 0
374.355 11.8815 0
375.633 14.0188 0
374.373 16.1672 0
373.095 14.0298 0
374.364 14.0243 0
375.624 11.876 0
378.162 11.8649 0
378.18 16.1506 0
375.642 16.1616 0
376.893 11.8704 0
378.171 14.0078 0
376.911 16.1561 0
375.633 14.0188 0
376.902 14.0133 0
378.162 11.8649 0
380.7 11.8538 0
380.718 16.1395 0
378.18 16.1506 0
379.431 11.8594 0
380.709 13.9967 0
379.449 16.145 0
378.171 14.0078 0
379.44 14.0022 0
380.7 11.8538 0
383.238 11.8427 0
383.256 16.1284 0
380.718 16.1395 0
381.969 11.8483 0
383.247 13.9856 0
381.987 16.134 0
380.709 13.9967 0
381.978 13.9911 0
383.238 11.8427 0
385.776 11.8316 0
385.795 16.1173 0
383.256 16.1284 0
384.507 11.8372 0
385.785 13.9744 0
384.525 16.1228 0
383.247 13.9856 0
384.516 13.98 0
385.776 11.8316 0
388.314 11.8204 0
388.333 16.1061 0
385.795 16.1173 0
387.045 11.826 0
388.323 13.9633 0
387.064 16.1117 0
385.785 13.9744 0
387.054 13.9688 0
388.314 11.8204 0
390.852 11.8092 0
390.871 16.0949 0
388.333 16.1061 0
389.583 11.8148 0
390.861 13.9521 0
389.602 16.1005 0
388.323 13.9633 0
389.592 13.9577 0
390.852 11.8092 0
393.39 11.798 0
393.409 16.0837 0
390.871 16.0949 0
392.121 11.8036 0
393.399 13.9409 0
392.14 16.0893 0
390.861 13.9521 0
392.13 13.9465 0
393.39 11.798 0
395.928 11.7868 0
395.947 16.0724 0
393.409 16.0837 0
394.659 11.7924 0
395.937 13.9296 0
394.678 16.0781 0
393.399 13.9409 0
394.668 13.9352 0
395.928 11.7868 0
398.466 11.7755 0
398.485 16.0612 0
395.947 16.0724 0
397.197 11.7811 0
398.475 13.9183 0
397.216 16.0668 0
395.937 13.9296 0
397.206 13.924 0
398.466 11.7755 0
401.004 11.7642 0
401.023 16.0499 0
398.485 16.0612 0
399.735 11.7699 0
401.013 13.9071 0
399.754 16.0555 0
398.475 13.9183 0
399.744 13.9127 0
401.004 11.7642 0
403.542 11.7529 0
403.561 16.0386 0
401.023 16.0499 0
402.273 11.7586 0
403.551 13.8957 0
402.292 16.0442 0
401.013 13.9071 0
402.282 13.9014 0
403.542 11.7529 0
406.08 11.7416 0
406.099 16.0272 0
403.561 16.0386 0
404.811 11.7472 0
406.089 13.8844 0
404.83 16.0329 0
403.551 13.8957 0
404.82 13.8901 0
406.08 11.7416 0
408.618 11.7302 0
408.637 16.0159 0
406.099 16.0272 0
407.349 11.7359 0
408.628 13.873 0
407.368 16.0216 0
406.089 13.8844 0
407.359 13.8787 0
408.618 11.7302 0
411.156 11.7188 0
411.175 16.0045 0
408.637 16.0159 0
409.887 11.7245 0
411.166 13.8617 0
409.906 16.0102 0
408.628 13.873 0
409.897 13.8674 0
411.156 11.7188 0
413.694 11.7074 0
413.713 15.9931 0
411.175 16.0045 0
412.425 11.7131 0
413.704 13.8503 0
412.444 15.9988 0
411.166 13.8617 0
412.435 13.856 0
413.694 11.7074 0
416.232 11.696 0
416.251 15.9817 0
413.713 15.9931 0
414.963 11.7017 0
416.242 13.8388 0
414.982 15.9874 0
413.704 13.8503 0
414.973 13.8445 0
416.232 11.696 0
418.77 11.6846 0
418.789 15.9702 0
416.251 15.9817 0
417.501 11.6903 0
418.78 13.8274 0
417.52 15.9759 0
416.242 13.8388 0
417.511 13.8331 0
418.77 11.6846 0
421.308 11.6731 0
421.327 15.9588 0
418.789 15.9702 0
420.039 11.6788 0
421.318 13.8159 0
420.058 15.9645 0
418.78 13.8274 0
420.049 13.8217 0
421.308 11.6731 0
423.846 11.6616 0
423.865 15.9473 0
421.327 15.9588 0
422.577 11.6673 0
423.856 13.8044 0
422.596 15.953 0
421.318 13.8159 0
422.587 13.8102 0
423.846 11.6616 0
426.384 11.6501 0
426.404 15.9358 0
423.865 15.9473 0
425.115 11.6559 0
426.394 13.7929 0
425.135 15.9415 0
423.856 13.8044 0
425.125 13.7987 0
426.384 11.6501 0
428.922 11.6386 0
428.942 15.9243 0
426.404 15.9358 0
427.653 11.6444 0
428.932 13.7814 0
427.673 15.93 0
426.394 13.7929 0
427.663 13.7872 0
428.922 11.6386 0
431.46 11.6271 0
431.48 15.9127 0
428.942 15.9243 0
430.191 11.6328 0
431.47 13.7699 0
430.211 15.9185 0
428.932 13.7814 0
430.201 13.7757 0
431.46 11.6271 0
433.998 11.6155 0
434.018 15.9012 0
431.48 15.9127 0
432.729 11.6213 0
434.008 13.7583 0
432.749 15.907 0
431.47 13.7699 0
432.739 13.7641 0
433.998 11.6155 0
436.536 11.6039 0
436.556 15.8896 0
434.018 15.9012 0
435.267 11.6097 0
436.546 13.7468 0
435.287 15.8954 0
434.008 13.7583 0
435.277 13.7526 0
436.536 11.6039 0
439.074 11.5924 0
439.094 15.878 0
436.556 15.8896 0
437.805 11.5981 0
439.084 13.7352 0
437.825 15.8838 0
436.546 13.7468 0
437.815 13.741 0
439.074 11.5924 0
441.612 11.5808 0
441.632 15.8664 0
439.094 15.878 0
440.343 11.5866 0
441.622 13.7236 0
440.363 15.8722 0
439.084 13.7352 0
440.353 13.7294 0
441.612 11.5808 0
444.15 11.5691 0
444.17 15.8548 0
441.632 15.8664 0
442.881 11.575 0
444.16 13.712 0
442.901 15.8606 0
441.622 13.7236 0
442.891 13.7178 0
444.15 11.5691 0
446.688 11.5575 0
446.708 15.8432 0
444.17 15.8548 0
445.419 11.5633 0
446.698 13.7004 0
445.439 15.849 0
444.16 13.712 0
445.429 13.7062 0
446.688 11.5575 0
449.226 11.5459 0
449.246 15.8316 0
446.708 15.8432 0
447.957 11.5517 0
449.236 13.6887 0
447.977 15.8374 0
446.698 13.7004 0
447.967 13.6945 0
449.226 11.5459 0
451.764 11.5342 0
451.784 15.8199 0
449.246 15.8316 0
450.495 11.5401 0
451.774 13.6771 0
450.515 15.8257 0
449.236 13.6887 0
450.505 13.6829 0
451.764 11.5342 0
454.303 11.5226 0
454.322 15.8083 0
451.784 15.8199 0
453.034 11.5284 0
454.312 13.6654 0
453.053 15.8141 0
451.774 13.6771 0
453.043 13.6712 0
454.303 11.5226 0
456.841 11.5109 0
456.86 15.7966 0
454.322 15.8083 0
455.572 11.5167 0
456.85 13.6537 0
455.591 15.8024 0
454.312 13.6654 0
455.581 13.6596 0
456.841 11.5109 0
459.379 11.4992 0
459.398 15.7849 0
456.86 15.7966 0
458.11 11.5051 0
459.388 13.6421 0
458.129 15.7907 0
456.85 13.6537 0
458.119 13.6479 0
459.379 11.4992 0
461.917 11.4875 0
461.936 15.7732 0
459.398 15.7849 0
460.648 11.4934 0
461.926 13.6304 0
460.667 15.7791 0
459.388 13.6421 0
460.657 13.6362 0
461.917 11.4875 0
464.455 11.4758 0
464.474 15.7615 0
461.936 15.7732 0
463.186 11.4817 0
464.465 13.6187 0
463.205 15.7674 0
461.926 13.6304 0
463.195 13.6245 0
464.455 11.4758 0
466.993 11.4641 0
467.012 15.7498 0
464.474 15.7615 0
465.724 11.47 0
467.003 13.607 0
465.743 15.7557 0
464.465 13.6187 0
465.734 13.6128 0
466.993 11.4641 0
469.531 11.4524 0
469.55 15.7381 0
467.012 15.7498 0
468.262 11.4583 0
469.541 13.5953 0
468.281 15.7439 0
467.003 13.607 0
468.272 13.6011 0
469.531 11.4524 0
472.069 11.4407 0
472.089 15.7264 0
469.55 15.7381 0
470.8 11.4466 0
472.079 13.5835 0
470.82 15.7322 0
469.541 13.5953 0
470.81 13.5894 0
472.069 11.4407 0
474.607 11.429 0
474.627 15.7146 0
472.089 15.7264 0
473.338 11.4348 0
474.617 13.5718 0
473.358 15.7205 0
472.079 13.5835 0
473.348 13.5777 0
474.607 11.429 0
477.145 11.4172 0
477.165 15.7029 0
474.627 15.7146 0
475.876 11.4231 0
477.155 13.5601 0
475.896 15.7088 0
474.617 13.5718 0
475.886 13.5659 0
477.145 11.4172 0
479.683 11.4055 0
479.703 15.6912 0
477.165 15.7029 0
478.414 11.4114 0
479.693 13.5483 0
478.434 15.697 0
477.155 13.5601 0
478.424 13.5542 0
479.683 11.4055 0
482.221 11.3937 0
482.241 15.6794 0
479.703 15.6912 0
480.952 11.3996 0
482.231 13.5366 0
480.972 15.6853 0
479.693 13.5483 0
480.962 13.5424 0
482.221 11.3937 0
484.759 11.382 0
484.779 15.6677 0
482.241 15.6794 0
483.49 11.3879 0
484.769 13.5248 0
483.51 15.6735 0
482.231 13.5366 0
483.5 13.5307 0
484.759 11.382 0
487.297 11.3702 0
487.317 15.6559 0
484.779 15.6677 0
486.028 11.3761 0
487.307 13.5131 0
486.048 15.6618 0
484.769 13.5248 0
486.038 13.5189 0
487.297 11.3702 0
489.835 11.3585 0
489.855 15.6441 0
487.317 15.6559 0
488.566 11.3644 0
489.845 13.5013 0
488.586 15.65 0
487.307 13.5131 0
488.576 13.5072 0
489.835 11.3585 0
492.373 11.3467 0
492.393 15.6324 0
489.855 15.6441 0
491.104 11.3526 0
492.383 13.4895 0
491.124 15.6383 0
489.845 13.5013 0
491.114 13.4954 0
492.373 11.3467 0
494.911 11.335 0
494.931 15.6206 0
492.393 15.6324 0
493.642 11.3408 0
494.921 13.4778 0
493.662 15.6265 0
492.383 13.4895 0
493.652 13.4837 0
494.911 11.335 0
497.449 11.3232 0
497.469 15.6089 0
494.931 15.6206 0
496.18 11.3291 0
497.459 13.466 0
496.2 15.6147 0
494.921 13.4778 0
496.19 13.4719 0
497.449 11.3232 0
499.987 11.3114 0
500.007 15.5971 0
497.469 15.6089 0
498.718 11.3173 0
499.997 13.4543 0
498.738 15.603 0
497.459 13.466 0
498.728 13.4602 0
0 17.1429 0
2.53816 17.1429 0
2.53834 21.4285 0
0 21.4286 0
1.26908 17.1429 0
2.53825 19.2857 0
1.26916 21.4286 0
0 19.2857 0
1.26912 19.2857 0
2.53816 17.1429 0
5.07632 17.1427 0
5.0767 21.4284 0
2.53834 21.4285 0
3.80724 17.1428 0
5.07651 19.2856 0
3.80751 21.4285 0
2.53825 19.2857 0
3.80738 19.2857 0
5.07632 17.1427 0
7.61449 17.1424 0
7.61506 21.4281 0
5.0767 21.4284 0
6.34541 17.1426 0
7.61478 19.2853 0
6.34588 21.4282 0
5.07651 19.2856 0
6.34564 19.2854 0
7.61449 17.1424 0
10.1527 17.142 0
10.1534 21.4276 0
7.61506 21.4281 0
8.88358 17.1422 0
10.153 19.2848 0
8.88425 21.4279 0
7.61478 19.2853 0
8.88391 19.2851 0
10.1527 17.142 0
12.6908 17.1415 0
12.6918 21.4271 0
10.1534 21.4276 0
11.4218 17.1418 0
12.6913 19.2843 0
11.4226 21.4274 0
10.153 19.2848 0
11.4222 19.2846 0
12.6908 17.1415 0
15.229 17.1408 0
15.2302 21.4264 0
12.6918 21.4271 0
13.9599 17.1411 0
15.2296 19.2836 0
13.961 21.4268 0
12.6913 19.2843 0
13.9605 19.284 0
15.229 17.1408 0
17.7672 17.14 0
17.7685 21.4256 0
15.2302 21.4264 0
16.4981 17.1404 0
17.7679 19.2828 0
16.4994 21.426 0
15.2296 19.2836 0
16.4987 19.2832 0
17.7672 17.14 0
20.3053 17.1391 0
20.3069 21.4247 0
17.7685 21.4256 0
19.0363 17.1396 0
20.3061 19.2819 0
19.0377 21.4252 0
17.7679 19.2828 0
19.037 19.2824 0
20.3053 17.1391 0
22.8435 17.1381 0
22.8453 21.4237 0
20.3069 21.4247 0
21.5744 17.1386 0
22.8444 19.2809 0
21.5761 21.4243 0
20.3061 19.2819 0
21.5753 19.2815 0
22.8435 17.1381 0
25.3817 17.137 0
25.3836 21.4226 0
22.8453 21.4237 0
24.1126 17.1376 0
25.3827 19.2798 0
24.1144 21.4232 0
22.8444 19.2809 0
24.1135 19.2804 0
25.3817 17.137 0
27.9198 17.1358 0
27.922 21.4214 0
25.3836 21.4226 0
26.6508 17.1364 0
27.9209 19.2786 0
26.6528 21.422 0
25.3827 19.2798 0
26.6518 19.2792 0
27.9198 17.1358 0
30.458 17.1344 0
30.4603 21.42 0
27.922 21.4214 0
29.1889 17.1351 0
30.4592 19.2772 0
29.1912 21.4207 0
27.9209 19.2786 0
29.19 19.2779 0
30.458 17.1344 0
32.9962 17.133 0
32.9987 21.4186 0
30.4603 21.42 0
31.7271 17.1337 0
32.9974 19.2758 0
31.7295 21.4193 0
30.4592 19.2772 0
31.7283 19.2765 0
32.9962 17.133 0
35.5343 17.1314 0
35.537 21.417 0
32.9987 21.4186 0
34.2653 17.1322 0
35.5357 19.2742 0
34.2679 21.4178 0
32.9974 19.2758 0
34.2666 19.275 0
35.5343 17.1314 0
38.0725 17.1297 0
38.0754 21.4153 0
35.537 21.417 0
36.8034 17.1306 0
38.0739 19.2725 0
36.8062 21.4162 0
35.5357 19.2742 0
36.8048 19.2734 0
38.0725 17.1297 0
40.6107 17.1279 0
40.6137 21.4135 0
38.0754 21.4153 0
39.3416 17.1288 0
40.6122 19.2707 0
39.3446 21.4144 0
38.0739 19.2725 0
39.3431 19.2717 0
40.6107 17.1279 0
43.1488 17.126 0
43.1521 21.4116 0
40.6137 21.4135 0
41.8797 17.127 0
43.1505 19.2688 0
41.8829 21.4126 0
40.6122 19.2707 0
41.8813 19.2698 0
43.1488 17.126 0
45.687 17.124 0
45.6904 21.4096 0
43.1521 21.4116 0
44.4179 17.125 0
45.6887 19.2668 0
44.4213 21.4107 0
43.1505 19.2688 0
44.4196 19.2679 0
45.687 17.124 0
48.2252 17.1219 0
48.2288 21.4075 0
45.6904 21.4096 0
46.9561 17.123 0
48.227 19.2647 0
46.9596 21.4086 0
45.6887 19.2668 0
46.9578 19.2658 0
48.2252 17.1219 0
50.7633 17.1197 0
50.7671 21.4053 0
48.2288 21.4075 0
49.4942 17.1208 0
50.7652 19.2625 0
49.4979 21.4064 0
48.227 19.2647 0
49.4961 19.2636 0
50.7633 17.1197 0
53.3015 17.1173 0
53.3055 21.403 0
50.7671 21.4053 0
52.0324 17.1185 0
53.3035 19.2602 0
52.0363 21.4041 0
50.7652 19.2625 0
52.0343 19.2613 0
53.3015 17.1173 0
55.8396 17.1149 0
55.8438 21.4005 0
53.3055 21.403 0
54.5706 17.1161 0
55.8417 19.2577 0
54.5746 21.4018 0
53.3035 19.2602 0
54.5726 19.259 0
55.8396 17.1149 0
58.3778 17.1124 0
58.3821 21.398 0
55.8438 21.4005 0
57.1087 17.1136 0
58.38 19.2552 0
57.113 21.3993 0
55.8417 19.2577 0
57.1108 19.2565 0
58.3778 17.1124 0
60.916 17.1097 0
60.9205 21.3953 0
58.3821 21.398 0
59.6469 17.111 0
60.9182 19.2525 0
59.6513 21.3967 0
58.38 19.2552 0
59.6491 19.2539 0
60.916 17.1097 0
63.4541 17.1069 0
63.4588 21.3926 0
60.9205 21.3953 0
62.185 17.1083 0
63.4565 19.2498 0
62.1896 21.394 0
60.9182 19.2525 0
62.1873 19.2512 0
63.4541 17.1069 0
65.9923 17.1041 0
65.9971 21.3897 0
63.4588 21.3926 0
64.7232 17.1055 0
65.9947 19.2469 0
64.728 21.3912 0
63.4565 19.2498 0
64.7256 19.2484 0
65.9923 17.1041 0
68.5304 17.1011 0
68.5355 21.3867 0
65.9971 21.3897 0
67.2613 17.1026 0
68.5329 19.2439 0
67.2663 21.3882 0
65.9947 19.2469 0
67.2638 19.2454 0
68.5304 17.1011 0
71.0686 17.0981 0
71.0738 21.3837 0
68.5355 21.3867 0
69.7995 17.0996 0
71.0712 19.2409 0
69.8046 21.3852 0
68.5329 19.2439 0
69.8021 19.2424 0
71.0686 17.0981 0
73.6067 17.0949 0
73.6121 21.3805 0
71.0738 21.3837 0
72.3377 17.0965 0
73.6094 19.2377 0
72.343 21.3821 0
71.0712 19.2409 0
72.3403 19.2393 0
73.6067 17.0949 0
76.1449 17.0916 0
76.1505 21.3772 0
73.6121 21.3805 0
74.8758 17.0933 0
76.1477 19.2344 0
74.8813 21.3789 0
73.6094 19.2377 0
74.8785 19.2361 0
76.1449 17.0916 0
78.683 17.0882 0
78.6888 21.3739 0
76.1505 21.3772 0
77.414 17.0899 0
78.6859 19.2311 0
77.4196 21.3756 0
76.1477 19.2344 0
77.4168 19.2328 0
78.683 17.0882 0
81.2212 17.0848 0
81.2271 21.3704 0
78.6888 21.3739 0
79.9521 17.0865 0
81.2241 19.2276 0
79.9579 21.3722 0
78.6859 19.2311 0
79.955 19.2293 0
81.2212 17.0848 0
83.7593 17.0812 0
83.7654 21.3668 0
81.2271 21.3704 0
82.4903 17.083 0
83.7624 19.224 0
82.4963 21.3686 0
81.2241 19.2276 0
82.4933 19.2258 0
83.7593 17.0812 0
86.2975 17.0775 0
86.3037 21.3632 0
83.7654 21.3668 0
85.0284 17.0794 0
86.3006 19.2204 0
85.0346 21.365 0
83.7624 19.224 0
85.0315 19.2222 0
86.2975 17.0775 0
88.8357 17.0738 0
88.8421 21.3594 0
86.3037 21.3632 0
87.5666 17.0757 0
88.8389 19.2166 0
87.5729 21.3613 0
86.3006 19.2204 0
87.5697 19.2185 0
88.8357 17.0738 0
91.3738 17.0699 0
91.3804 21.3555 0
88.8421 21.3594 0
90.1047 17.0718 0
91.3771 19.2127 0
90.1112 21.3575 0
88.8389 19.2166 0
90.108 19.2147 0
91.3738 17.0699 0
93.912 17.0659 0
93.9187 21.3516 0
91.3804 21.3555 0
92.6429 17.0679 0
93.9153 19.2088 0
92.6495 21.3536 0
91.3771 19.2127 0
92.6462 19.2108 0
93.912 17.0659 0
96.4501 17.0619 0
96.457 21.3475 0
93.9187 21.3516 0
95.181 17.0639 0
96.4535 19.2047 0
95.1878 21.3495 0
93.9153 19.2088 0
95.1844 19.2067 0
96.4501 17.0619 0
98.9882 17.0577 0
98.9953 21.3433 0
96.457 21.3475 0
97.7192 17.0598 0
98.9918 19.2005 0
97.7262 21.3454 0
96.4535 19.2047 0
97.7227 19.2026 0
98.9882 17.0577 0
101.526 17.0535 0
101.534 21.3391 0
98.9953 21.3433 0
100.257 17.0556 0
101.53 19.1963 0
100.264 21.3412 0
98.9918 19.2005 0
100.261 19.1984 0
101.526 17.0535 0
104.065 17.0491 0
104.072 21.3347 0
101.534 21.3391 0
102.795 17.0513 0
104.068 19.1919 0
102.803 21.3369 0
101.53 19.1963 0
102.799 19.1941 0
104.065 17.0491 0
106.603 17.0447 0
106.61 21.3303 0
104.072 21.3347 0
105.334 17.0469 0
106.606 19.1875 0
105.341 21.3325 0
104.068 19.1919 0
105.337 19.1897 0
106.603 17.0447 0
109.141 17.0401 0
109.149 21.3258 0
106.61 21.3303 0
107.872 17.0424 0
109.145 19.183 0
107.879 21.328 0
106.606 19.1875 0
107.876 19.1852 0
109.141 17.0401 0
111.679 17.0355 0
111.687 21.3211 0
109.149 21.3258 0
110.41 17.0378 0
111.683 19.1783 0
110.418 21.3235 0
109.145 19.183 0
110.414 19.1807 0
111.679 17.0355 0
114.217 17.0308 0
114.225 21.3164 0
111.687 21.3211 0
112.948 17.0332 0
114.221 19.1736 0
112.956 21.3188 0
111.683 19.1783 0
112.952 19.176 0
114.217 17.0308 0
116.755 17.026 0
116.763 21.3116 0
114.225 21.3164 0
115.486 17.0284 0
116.759 19.1688 0
115.494 21.314 0
114.221 19.1736 0
115.49 19.1712 0
116.755 17.026 0
119.293 17.0211 0
119.302 21.3067 0
116.763 21.3116 0
118.024 17.0235 0
119.298 19.1639 0
118.033 21.3091 0
116.759 19.1688 0
118.028 19.1663 0
119.293 17.0211 0
121.832 17.0161 0
121.84 21.3017 0
119.302 21.3067 0
120.562 17.0186 0
121.836 19.1589 0
120.571 21.3042 0
119.298 19.1639 0
120.567 19.1614 0
121.832 17.0161 0
124.37 17.011 0
124.378 21.2966 0
121.84 21.3017 0
123.101 17.0135 0
124.374 19.1538 0
123.109 21.2992 0
121.836 19.1589 0
123.105 19.1564 0
124.37 17.011 0
126.908 17.0058 0
126.917 21.2914 0
124.378 21.2966 0
125.639 17.0084 0
126.912 19.1486 0
125.647 21.294 0
124.374 19.1538 0
125.643 19.1512 0
126.908 17.0058 0
129.446 17.0005 0
129.455 21.2862 0
126.917 21.2914 0
128.177 17.0032 0
129.45 19.1434 0
128.186 21.2888 0
126.912 19.1486 0
128.181 19.146 0
129.446 17.0005 0
131.984 16.9952 0
131.993 21.2808 0
129.455 21.2862 0
130.715 16.9979 0
131.989 19.138 0
130.724 21.2835 0
129.45 19.1434 0
130.72 19.1407 0
131.984 16.9952 0
134.522 16.9897 0
134.531 21.2754 0
131.993 21.2808 0
133.253 16.9925 0
134.527 19.1326 0
133.262 21.2781 0
131.989 19.138 0
133.258 19.1353 0
134.522 16.9897 0
137.06 16.9842 0
137.07 21.2698 0
134.531 21.2754 0
135.791 16.987 0
137.065 19.127 0
135.801 21.2726 0
134.527 19.1326 0
135.796 19.1298 0
137.06 16.9842 0
139.599 16.9786 0
139.608 21.2642 0
137.07 21.2698 0
138.329 16.9814 0
139.603 19.1214 0
138.339 21.267 0
137.065 19.127 0
138.334 19.1242 0
139.599 16.9786 0
142.137 16.9729 0
142.146 21.2585 0
139.608 21.2642 0
140.868 16.9757 0
142.142 19.1157 0
140.877 21.2614 0
139.603 19.1214 0
140.872 19.1186 0
142.137 16.9729 0
144.675 16.9671 0
144.685 21.2527 0
142.146 21.2585 0
143.406 16.97 0
144.68 19.1099 0
143.415 21.2556 0
142.142 19.1157 0
143.411 19.1128 0
144.675 16.9671 0
147.213 16.9612 0
147.223 21.2469 0
144.685 21.2527 0
145.944 16.9642 0
147.218 19.104 0
145.954 21.2498 0
144.68 19.1099 0
145.949 19.107 0
147.213 16.9612 0
149.751 16.9553 0
149.761 21.2409 0
147.223 21.2469 0
148.482 16.9583 0
149.756 19.0981 0
148.492 21.2439 0
147.218 19.104 0
148.487 19.1011 0
149.751 16.9553 0
152.289 16.9492 0
152.299 21.2349 0
149.761 21.2409 0
151.02 16.9523 0
152.294 19.0921 0
151.03 21.2379 0
149.756 19.0981 0
151.025 19.0951 0
152.289 16.9492 0
154.827 16.9431 0
154.838 21.2287 0
152.299 21.2349 0
153.558 16.9462 0
154.833 19.0859 0
153.569 21.2318 0
152.294 19.0921 0
153.563 19.089 0
154.827 16.9431 0
157.365 16.9369 0
157.376 21.2225 0
154.838 21.2287 0
156.096 16.94 0
157.371 19.0797 0
156.107 21.2256 0
154.833 19.0859 0
156.102 19.0828 0
157.365 16.9369 0
159.904 16.9306 0
159.914 21.2162 0
157.376 21.2225 0
158.635 16.9338 0
159.909 19.0734 0
158.645 21.2194 0
157.371 19.0797 0
158.64 19.0766 0
159.904 16.9306 0
162.442 16.9242 0
162.453 21.2099 0
159.914 21.2162 0
161.173 16.9274 0
162.447 19.0671 0
161.183 21.2131 0
159.909 19.0734 0
161.178 19.0703 0
162.442 16.9242 0
164.98 16.9178 0
164.991 21.2034 0
162.453 21.2099 0
163.711 16.921 0
164.985 19.0606 0
163.722 21.2067 0
162.447 19.0671 0
163.716 19.0639 0
164.98 16.9178 0
167.518 16.9113 0
167.529 21.1969 0
164.991 21.2034 0
166.249 16.9145 0
167.524 19.0541 0
166.26 21.2002 0
164.985 19.0606 0
166.254 19.0574 0
167.518 16.9113 0
170.056 16.9047 0
170.067 21.1903 0
167.529 21.1969 0
168.787 16.908 0
170.062 19.0475 0
168.798 21.1936 0
167.524 19.0541 0
168.793 19.0508 0
170.056 16.9047 0
172.594 16.898 0
172.606 21.1836 0
170.067 21.1903 0
171.325 16.9013 0
172.6 19.0408 0
171.336 21.187 0
170.062 19.0475 0
171.331 19.0441 0
172.594 16.898 0
175.132 16.8912 0
175.144 21.1768 0
172.606 21.1836 0
173.863 16.8946 0
175.138 19.034 0
173.875 21.1802 0
172.6 19.0408 0
173.869 19.0374 0
175.132 16.8912 0
177.671 16.8844 0
177.682 21.17 0
175.144 21.1768 0
176.401 16.8878 0
177.676 19.0272 0
176.413 21.1734 0
175.138 19.034 0
176.407 19.0306 0
177.671 16.8844 0
180.209 16.8774 0
180.22 21.1631 0
177.682 21.17 0
178.94 16.8809 0
180.214 19.0203 0
178.951 21.1665 0
177.676 19.0272 0
178.945 19.0237 0
180.209 16.8774 0
182.747 16.8705 0
182.759 21.1561 0
180.22 21.1631 0
181.478 16.874 0
182.753 19.0133 0
181.489 21.1596 0
180.214 19.0203 0
181.484 19.0168 0
182.747 16.8705 0
185.285 16.8634 0
185.297 21.149 0
182.759 21.1561 0
184.016 16.8669 0
185.291 19.0062 0
184.028 21.1526 0
182.753 19.0133 0
184.022 19.0097 0
185.285 16.8634 0
187.823 16.8562 0
187.835 21.1419 0
185.297 21.149 0
186.554 16.8598 0
187.829 18.9991 0
186.566 21.1454 0
185.291 19.0062 0
186.56 19.0026 0
187.823 16.8562 0
190.361 16.849 0
190.373 21.1346 0
187.835 21.1419 0
189.092 16.8526 0
190.367 18.9918 0
189.104 21.1383 0
187.829 18.9991 0
189.098 18.9955 0
190.361 16.849 0
192.899 16.8417 0
192.912 21.1274 0
190.373 21.1346 0
191.63 16.8454 0
192.905 18.9845 0
191.642 21.131 0
190.367 18.9918 0
191.636 18.9882 0
192.899 16.8417 0
195.437 16.8344 0
195.45 21.12 0
192.912 21.1274 0
194.168 16.838 0
195.444 18.9772 0
194.181 21.1237 0
192.905 18.9845 0
194.175 18.9809 0
195.437 16.8344 0
197.976 16.8269 0
197.988 21.1125 0
195.45 21.12 0
196.706 16.8306 0
197.982 18.9697 0
196.719 21.1163 0
195.444 18.9772 0
196.713 18.9735 0
197.976 16.8269 0
200.514 16.8194 0
200.526 21.105 0
197.988 21.1125 0
199.245 16.8232 0
200.52 18.9622 0
199.257 21.1088 0
197.982 18.9697 0
199.251 18.966 0
200.514 16.8194 0
203.052 16.8118 0
203.065 21.0974 0
200.526 21.105 0
201.783 16.8156 0
203.058 18.9546 0
201.795 21.1012 0
200.52 18.9622 0
201.789 18.9584 0
203.052 16.8118 0
205.59 16.8042 0
205.603 21.0898 0
203.065 21.0974 0
204.321 16.808 0
205.596 18.947 0
204.334 21.0936 0
203.058 18.9546 0
204.327 18.9508 0
205.59 16.8042 0
208.128 16.7964 0
208.141 21.0821 0
205.603 21.0898 0
206.859 16.8003 0
208.135 18.9393 0
206.872 21.0859 0
205.596 18.947 0
206.865 18.9431 0
208.128 16.7964 0
210.666 16.7886 0
210.679 21.0743 0
208.141 21.0821 0
209.397 16.7925 0
210.673 18.9315 0
209.41 21.0782 0
208.135 18.9393 0
209.404 18.9354 0
210.666 16.7886 0
213.204 16.7808 0
213.218 21.0664 0
210.679 21.0743 0
211.935 16.7847 0
213.211 18.9236 0
211.948 21.0704 0
210.673 18.9315 0
211.942 18.9275 0
213.204 16.7808 0
215.742 16.7728 0
215.756 21.0585 0
213.218 21.0664 0
214.473 16.7768 0
215.749 18.9157 0
214.487 21.0625 0
213.211 18.9236 0
214.48 18.9196 0
215.742 16.7728 0
218.28 16.7648 0
218.294 21.0505 0
215.756 21.0585 0
217.011 16.7689 0
218.287 18.9077 0
217.025 21.0545 0
215.749 18.9157 0
217.018 18.9117 0
218.28 16.7648 0
220.819 16.7568 0
220.832 21.0424 0
218.294 21.0505 0
219.55 16.7608 0
220.825 18.8996 0
219.563 21.0465 0
218.287 18.9077 0
219.556 18.9036 0
220.819 16.7568 0
223.357 16.7486 0
223.37 21.0343 0
220.832 21.0424 0
222.088 16.7527 0
223.364 18.8915 0
222.101 21.0384 0
220.825 18.8996 0
222.094 18.8955 0
223.357 16.7486 0
225.895 16.7404 0
225.909 21.0261 0
223.37 21.0343 0
224.626 16.7446 0
225.902 18.8833 0
224.64 21.0302 0
223.364 18.8915 0
224.633 18.8874 0
225.895 16.7404 0
228.433 16.7322 0
228.447 21.0178 0
225.909 21.0261 0
227.164 16.7363 0
228.44 18.875 0
227.178 21.022 0
225.902 18.8833 0
227.171 18.8791 0
228.433 16.7322 0
230.971 16.7238 0
230.985 21.0095 0
228.447 21.0178 0
229.702 16.728 0
230.978 18.8667 0
229.716 21.0137 0
228.44 18.875 0
229.709 18.8708 0
230.971 16.7238 0
233.509 16.7155 0
233.523 21.0011 0
230.985 21.0095 0
232.24 16.7197 0
233.516 18.8583 0
232.254 21.0053 0
230.978 18.8667 0
232.247 18.8625 0
233.509 16.7155 0
236.047 16.707 0
236.062 20.9926 0
233.523 21.0011 0
234.778 16.7112 0
236.054 18.8498 0
234.792 20.9969 0
233.516 18.8583 0
234.785 18.8541 0
236.047 16.707 0
238.585 16.6985 0
238.6 20.9841 0
236.062 20.9926 0
237.316 16.7027 0
238.593 18.8413 0
237.331 20.9884 0
236.054 18.8498 0
237.323 18.8456 0
238.585 16.6985 0
241.123 16.6899 0
241.138 20.9755 0
238.6 20.9841 0
239.854 16.6942 0
241.131 18.8327 0
239.869 20.9798 0
238.593 18.8413 0
239.862 18.837 0
241.123 16.6899 0
243.662 16.6812 0
243.676 20.9669 0
241.138 20.9755 0
242.393 16.6856 0
243.669 18.8241 0
242.407 20.9712 0
241.131 18.8327 0
242.4 18.8284 0
243.662 16.6812 0
246.2 16.6725 0
246.214 20.9582 0
243.676 20.9669 0
244.931 16.6769 0
246.207 18.8154 0
244.945 20.9625 0
243.669 18.8241 0
244.938 18.8197 0
246.2 16.6725 0
248.738 16.6638 0
248.753 20.9494 0
246.214 20.9582 0
247.469 16.6682 0
248.745 18.8066 0
247.483 20.9538 0
246.207 18.8154 0
247.476 18.811 0
248.738 16.6638 0
251.276 16.6549 0
251.291 20.9406 0
248.753 20.9494 0
250.007 16.6594 0
251.283 18.7978 0
250.022 20.945 0
248.745 18.8066 0
250.014 18.8022 0
251.276 16.6549 0
253.814 16.6461 0
253.829 20.9317 0
251.291 20.9406 0
252.545 16.6505 0
253.821 18.7889 0
252.56 20.9362 0
251.283 18.7978 0
252.552 18.7933 0
253.814 16.6461 0
256.352 16.6371 0
256.367 20.9228 0
253.829 20.9317 0
255.083 16.6416 0
256.36 18.7799 0
255.098 20.9272 0
253.821 18.7889 0
255.091 18.7844 0
256.352 16.6371 0
258.89 16.6281 0
258.905 20.9138 0
256.367 20.9228 0
257.621 16.6326 0
258.898 18.7709 0
257.636 20.9183 0
256.36 18.7799 0
257.629 18.7754 0
258.89 16.6281 0
261.428 16.6191 0
261.444 20.9047 0
258.905 20.9138 0
260.159 16.6236 0
261.436 18.7619 0
260.175 20.9092 0
258.898 18.7709 0
260.167 18.7664 0
261.428 16.6191 0
263.966 16.6099 0
263.982 20.8956 0
261.444 20.9047 0
262.697 16.6145 0
263.974 18.7528 0
262.713 20.9001 0
261.436 18.7619 0
262.705 18.7573 0
263.966 16.6099 0
266.505 16.6008 0
266.52 20.8864 0
263.982 20.8956 0
265.235 16.6054 0
266.512 18.7436 0
265.251 20.891 0
263.974 18.7528 0
265.243 18.7482 0
266.505 16.6008 0
269.043 16.5915 0
269.058 20.8772 0
266.52 20.8864 0
267.774 16.5962 0
269.05 18.7344 0
267.789 20.8818 0
266.512 18.7436 0
267.781 18.739 0
269.043 16.5915 0
271.581 16.5823 0
271.596 20.8679 0
269.058 20.8772 0
270.312 16.5869 0
271.589 18.7251 0
270.327 20.8725 0
269.05 18.7344 0
270.319 18.7297 0
271.581 16.5823 0
274.119 16.5729 0
274.135 20.8586 0
271.596 20.8679 0
272.85 16.5776 0
274.127 18.7157 0
272.865 20.8632 0
271.589 18.7251 0
272.858 18.7204 0
274.119 16.5729 0
276.657 16.5635 0
276.673 20.8492 0
274.135 20.8586 0
275.388 16.5682 0
276.665 18.7063 0
275.404 20.8539 0
274.127 18.7157 0
275.396 18.711 0
276.657 16.5635 0
279.195 16.5541 0
279.211 20.8397 0
276.673 20.8492 0
277.926 16.5588 0
279.203 18.6969 0
277.942 20.8444 0
276.665 18.7063 0
277.934 18.7016 0
279.195 16.5541 0
281.733 16.5446 0
281.749 20.8302 0
279.211 20.8397 0
280.464 16.5493 0
281.741 18.6874 0
280.48 20.835 0
279.203 18.6969 0
280.472 18.6922 0
281.733 16.5446 0
284.271 16.535 0
284.287 20.8207 0
281.749 20.8302 0
283.002 16.5398 0
284.279 18.6779 0
283.018 20.8254 0
281.741 18.6874 0
283.01 18.6826 0
284.271 16.535 0
286.809 16.5254 0
286.826 20.8111 0
284.287 20.8207 0
285.54 16.5302 0
286.817 18.6682 0
285.556 20.8159 0
284.279 18.6779 0
285.548 18.6731 0
286.809 16.5254 0
289.347 16.5158 0
289.364 20.8014 0
286.826 20.8111 0
288.078 16.5206 0
289.356 18.6586 0
288.095 20.8062 0
286.817 18.6682 0
288.086 18.6634 0
289.347 16.5158 0
291.885 16.5061 0
291.902 20.7917 0
289.364 20.8014 0
290.616 16.5109 0
291.894 18.6489 0
290.633 20.7966 0
289.356 18.6586 0
290.625 18.6538 0
291.885 16.5061 0
294.424 16.4963 0
294.44 20.782 0
291.902 20.7917 0
293.155 16.5012 0
294.432 18.6391 0
293.171 20.7868 0
291.894 18.6489 0
293.163 18.644 0
294.424 16.4963 0
296.962 16.4865 0
296.978 20.7722 0
294.44 20.782 0
295.693 16.4914 0
296.97 18.6293 0
295.709 20.7771 0
294.432 18.6391 0
295.701 18.6342 0
296.962 16.4865 0
299.5 16.4767 0
299.516 20.7623 0
296.978 20.7722 0
298.231 16.4816 0
299.508 18.6195 0
298.247 20.7672 0
296.97 18.6293 0
298.239 18.6244 0
299.5 16.4767 0
302.038 16.4668 0
302.055 20.7524 0
299.516 20.7623 0
300.769 16.4717 0
302.046 18.6096 0
300.785 20.7574 0
299.508 18.6195 0
300.777 18.6145 0
302.038 16.4668 0
304.576 16.4568 0
304.593 20.7425 0
302.055 20.7524 0
303.307 16.4618 0
304.584 18.5996 0
303.324 20.7474 0
302.046 18.6096 0
303.315 18.6046 0
304.576 16.4568 0
307.114 16.4468 0
307.131 20.7325 0
304.593 20.7425 0
305.845 16.4518 0
307.122 18.5897 0
305.862 20.7375 0
304.584 18.5996 0
305.853 18.5947 0
307.114 16.4468 0
309.652 16.4368 0
309.669 20.7224 0
307.131 20.7325 0
308.383 16.4418 0
309.661 18.5796 0
308.4 20.7275 0
307.122 18.5897 0
308.392 18.5846 0
309.652 16.4368 0
312.19 16.4267 0
312.207 20.7123 0
309.669 20.7224 0
310.921 16.4318 0
312.199 18.5695 0
310.938 20.7174 0
309.661 18.5796 0
310.93 18.5746 0
312.19 16.4267 0
314.728 16.4166 0
314.745 20.7022 0
312.207 20.7123 0
313.459 16.4216 0
314.737 18.5594 0
313.476 20.7073 0
312.199 18.5695 0
313.468 18.5645 0
314.728 16.4166 0
317.266 16.4064 0
317.284 20.692 0
314.745 20.7022 0
315.997 16.4115 0
317.275 18.5492 0
316.014 20.6971 0
314.737 18.5594 0
316.006 18.5543 0
317.266 16.4064 0
319.804 16.3962 0
319.822 20.6818 0
317.284 20.692 0
318.535 16.4013 0
319.813 18.539 0
318.553 20.6869 0
317.275 18.5492 0
318.544 18.5441 0
319.804 16.3962 0
322.343 16.3859 0
322.36 20.6716 0
319.822 20.6818 0
321.074 16.3911 0
322.351 18.5288 0
321.091 20.6767 0
319.813 18.539 0
321.082 18.5339 0
322.343 16.3859 0
324.881 16.3756 0
324.898 20.6613 0
322.36 20.6716 0
323.612 16.3808 0
324.889 18.5185 0
323.629 20.6664 0
322.351 18.5288 0
323.62 18.5236 0
324.881 16.3756 0
327.419 16.3653 0
327.436 20.6509 0
324.898 20.6613 0
326.15 16.3705 0
327.427 18.5081 0
326.167 20.6561 0
324.889 18.5185 0
326.158 18.5133 0
327.419 16.3653 0
329.957 16.3549 0
329.974 20.6405 0
327.436 20.6509 0
328.688 16.3601 0
329.966 18.4977 0
328.705 20.6457 0
327.427 18.5081 0
328.697 18.5029 0
329.957 16.3549 0
332.495 16.3445 0
332.513 20.6301 0
329.974 20.6405 0
331.226 16.3497 0
332.504 18.4873 0
331.243 20.6353 0
329.966 18.4977 0
331.235 18.4925 0
332.495 16.3445 0
335.033 16.334 0
335.051 20.6197 0
332.513 20.6301 0
333.764 16.3393 0
335.042 18.4768 0
333.782 20.6249 0
332.504 18.4873 0
333.773 18.4821 0
335.033 16.334 0
337.571 16.3235 0
337.589 20.6092 0
335.051 20.6197 0
336.302 16.3288 0
337.58 18.4663 0
336.32 20.6144 0
335.042 18.4768 0
336.311 18.4716 0
337.571 16.3235 0
340.109 16.313 0
340.127 20.5986 0
337.589 20.6092 0
338.84 16.3182 0
340.118 18.4558 0
338.858 20.6039 0
337.58 18.4663 0
338.849 18.4611 0
340.109 16.313 0
342.647 16.3024 0
342.665 20.588 0
340.127 20.5986 0
341.378 16.3077 0
342.656 18.4452 0
341.396 20.5933 0
340.118 18.4558 0
341.387 18.4505 0
342.647 16.3024 0
345.185 16.2918 0
345.203 20.5774 0
342.665 20.588 0
343.916 16.2971 0
345.194 18.4346 0
343.934 20.5827 0
342.656 18.4452 0
343.925 18.4399 0
345.185 16.2918 0
347.723 16.2811 0
347.741 20.5668 0
345.203 20.5774 0
346.454 16.2864 0
347.732 18.4239 0
346.472 20.5721 0
345.194 18.4346 0
346.463 18.4293 0
347.723 16.2811 0
350.261 16.2704 0
350.28 20.5561 0
347.741 20.5668 0
348.992 16.2758 0
350.27 18.4132 0
349.01 20.5614 0
347.732 18.4239 0
349.001 18.4186 0
350.261 16.2704 0
352.8 16.2597 0
352.818 20.5453 0
350.28 20.5561 0
351.531 16.2651 0
352.809 18.4025 0
351.549 20.5507 0
350.27 18.4132 0
351.54 18.4079 0
352.8 16.2597 0
355.338 16.2489 0
355.356 20.5346 0
352.818 20.5453 0
354.069 16.2543 0
355.347 18.3918 0
354.087 20.54 0
352.809 18.4025 0
354.078 18.3971 0
355.338 16.2489 0
357.876 16.2381 0
357.894 20.5238 0
355.356 20.5346 0
356.607 16.2435 0
357.885 18.381 0
356.625 20.5292 0
355.347 18.3918 0
356.616 18.3864 0
357.876 16.2381 0
360.414 16.2273 0
360.432 20.5129 0
357.894 20.5238 0
359.145 16.2327 0
360.423 18.3701 0
359.163 20.5184 0
357.885 18.381 0
359.154 18.3755 0
360.414 16.2273 0
362.952 16.2164 0
362.97 20.5021 0
360.432 20.5129 0
361.683 16.2219 0
362.961 18.3593 0
361.701 20.5075 0
360.423 18.3701 0
361.692 18.3647 0
362.952 16.2164 0
365.49 16.2055 0
365.508 20.4912 0
362.97 20.5021 0
364.221 16.211 0
365.499 18.3484 0
364.239 20.4966 0
362.961 18.3593 0
364.23 18.3538 0
365.49 16.2055 0
368.028 16.1946 0
368.046 20.4803 0
365.508 20.4912 0
366.759 16.2001 0
368.037 18.3374 0
366.777 20.4857 0
365.499 18.3484 0
366.768 18.3429 0
368.028 16.1946 0
370.566 16.1837 0
370.585 20.4693 0
368.046 20.4803 0
369.297 16.1891 0
370.575 18.3265 0
369.316 20.4748 0
368.037 18.3374 0
369.306 18.332 0
370.566 16.1837 0
373.104 16.1727 0
373.123 20.4583 0
370.585 20.4693 0
371.835 16.1782 0
373.113 18.3155 0
371.854 20.4638 0
370.575 18.3265 0
371.844 18.321 0
373.104 16.1727 0
375.642 16.1616 0
375.661 20.4473 0
373.123 20.4583 0
374.373 16.1672 0
375.652 18.3045 0
374.392 20.4528 0
373.113 18.3155 0
374.382 18.31 0
375.642 16.1616 0
378.18 16.1506 0
378.199 20.4362 0
375.661 20.4473 0
376.911 16.1561 0
378.19 18.2934 0
376.93 20.4418 0
375.652 18.3045 0
376.921 18.2989 0
378.18 16.1506 0
380.718 16.1395 0
380.737 20.4252 0
378.199 20.4362 0
379.449 16.145 0
380.728 18.2823 0
379.468 20.4307 0
378.19 18.2934 0
379.459 18.2879 0
380.718 16.1395 0
383.256 16.1284 0
383.275 20.414 0
380.737 20.4252 0
381.987 16.134 0
383.266 18.2712 0
382.006 20.4196 0
380.728 18.2823 0
381.997 18.2768 0
383.256 16.1284 0
385.795 16.1173 0
385.813 20.4029 0
383.275 20.414 0
384.525 16.1228 0
385.804 18.2601 0
384.544 20.4085 0
383.266 18.2712 0
384.535 18.2657 0
385.795 16.1173 0
388.333 16.1061 0
388.351 20.3917 0
385.813 20.4029 0
387.064 16.1117 0
388.342 18.2489 0
387.082 20.3973 0
385.804 18.2601 0
387.073 18.2545 0
388.333 16.1061 0
390.871 16.0949 0
390.89 20.3806 0
388.351 20.3917 0
389.602 16.1005 0
390.88 18.2377 0
389.62 20.3862 0
388.342 18.2489 0
389.611 18.2433 0
390.871 16.0949 0
393.409 16.0837 0
393.428 20.3693 0
390.89 20.3806 0
392.14 16.0893 0
393.418 18.2265 0
392.159 20.375 0
390.88 18.2377 0
392.149 18.2321 0
393.409 16.0837 0
395.947 16.0724 0
395.966 20.3581 0
393.428 20.3693 0
394.678 16.0781 0
395.956 18.2153 0
394.697 20.3637 0
393.418 18.2265 0
394.687 18.2209 0
395.947 16.0724 0
398.485 16.0612 0
398.504 20.3468 0
395.966 20.3581 0
397.216 16.0668 0
398.494 18.204 0
397.235 20.3525 0
395.956 18.2153 0
397.225 18.2096 0
398.485 16.0612 0
401.023 16.0499 0
401.042 20.3355 0
398.504 20.3468 0
399.754 16.0555 0
401.032 18.1927 0
399.773 20.3412 0
398.494 18.204 0
399.763 18.1984 0
401.023 16.0499 0
403.561 16.0386 0
403.58 20.3242 0
401.042 20.3355 0
402.292 16.0442 0
403.571 18.1814 0
402.311 20.3299 0
401.032 18.1927 0
402.301 18.1871 0
403.561 16.0386 0
406.099 16.0272 0
406.118 20.3129 0
403.58 20.3242 0
404.83 16.0329 0
406.109 18.1701 0
404.849 20.3186 0
403.571 18.1814 0
404.84 18.1757 0
406.099 16.0272 0
408.637 16.0159 0
408.656 20.3015 0
406.118 20.3129 0
407.368 16.0216 0
408.647 18.1587 0
407.387 20.3072 0
406.109 18.1701 0
407.378 18.1644 0
408.637 16.0159 0
411.175 16.0045 0
411.194 20.2901 0
408.656 20.3015 0
409.906 16.0102 0
411.185 18.1473 0
409.925 20.2958 0
408.647 18.1587 0
409.916 18.153 0
411.175 16.0045 0
413.713 15.9931 0
413.732 20.2787 0
411.194 20.2901 0
412.444 15.9988 0
413.723 18.1359 0
412.463 20.2844 0
411.185 18.1473 0
412.454 18.1416 0
413.713 15.9931 0
416.251 15.9817 0
416.271 20.2673 0
413.732 20.2787 0
414.982 15.9874 0
416.261 18.1245 0
415.002 20.273 0
413.723 18.1359 0
414.992 18.1302 0
416.251 15.9817 0
418.789 15.9702 0
418.809 20.2559 0
416.271 20.2673 0
417.52 15.9759 0
418.799 18.1131 0
417.54 20.2616 0
416.261 18.1245 0
417.53 18.1188 0
418.789 15.9702 0
421.327 15.9588 0
421.347 20.2444 0
418.809 20.2559 0
420.058 15.9645 0
421.337 18.1016 0
420.078 20.2501 0
418.799 18.1131 0
420.068 18.1073 0
421.327 15.9588 0
423.865 15.9473 0
423.885 20.2329 0
421.347 20.2444 0
422.596 15.953 0
423.875 18.0901 0
422.616 20.2387 0
421.337 18.1016 0
422.606 18.0958 0
423.865 15.9473 0
426.404 15.9358 0
426.423 20.2214 0
423.885 20.2329 0
425.135 15.9415 0
426.413 18.0786 0
425.154 20.2272 0
423.875 18.0901 0
425.144 18.0844 0
426.404 15.9358 0
428.942 15.9243 0
428.961 20.2099 0
426.423 20.2214 0
427.673 15.93 0
428.951 18.0671 0
427.692 20.2157 0
426.413 18.0786 0
427.682 18.0729 0
428.942 15.9243 0
431.48 15.9127 0
431.499 20.1984 0
428.961 20.2099 0
430.211 15.9185 0
431.489 18.0556 0
430.23 20.2042 0
428.951 18.0671 0
430.22 18.0613 0
431.48 15.9127 0
434.018 15.9012 0
434.037 20.1868 0
431.499 20.1984 0
432.749 15.907 0
434.027 18.044 0
432.768 20.1926 0
431.489 18.0556 0
432.758 18.0498 0
434.018 15.9012 0
436.556 15.8896 0
436.575 20.1753 0
434.037 20.1868 0
435.287 15.8954 0
436.566 18.0324 0
435.306 20.181 0
434.027 18.044 0
435.296 18.0382 0
436.556 15.8896 0
439.094 15.878 0
439.113 20.1637 0
436.575 20.1753 0
437.825 15.8838 0
439.104 18.0209 0
437.844 20.1695 0
436.566 18.0324 0
437.835 18.0266 0
439.094 15.878 0
441.632 15.8664 0
441.651 20.1521 0
439.113 20.1637 0
440.363 15.8722 0
441.642 18.0093 0
440.382 20.1579 0
439.104 18.0209 0
440.373 18.0151 0
441.632 15.8664 0
444.17 15.8548 0
444.19 20.1405 0
441.651 20.1521 0
442.901 15.8606 0
444.18 17.9976 0
442.92 20.1463 0
441.642 18.0093 0
442.911 18.0035 0
444.17 15.8548 0
446.708 15.8432 0
446.728 20.1289 0
444.19 20.1405 0
445.439 15.849 0
446.718 17.986 0
445.459 20.1347 0
444.18 17.9976 0
445.449 17.9918 0
446.708 15.8432 0
449.246 15.8316 0
449.266 20.1172 0
446.728 20.1289 0
447.977 15.8374 0
449.256 17.9744 0
447.997 20.123 0
446.718 17.986 0
447.987 17.9802 0
449.246 15.8316 0
451.784 15.8199 0
451.804 20.1056 0
449.266 20.1172 0
450.515 15.8257 0
451.794 17.9627 0
450.535 20.1114 0
449.256 17.9744 0
450.525 17.9686 0
451.784 15.8199 0
454.322 15.8083 0
454.342 20.0939 0
451.804 20.1056 0
453.053 15.8141 0
454.332 17.9511 0
453.073 20.0997 0
451.794 17.9627 0
453.063 17.9569 0
454.322 15.8083 0
456.86 15.7966 0
456.88 20.0822 0
454.342 20.0939 0
455.591 15.8024 0
456.87 17.9394 0
455.611 20.0881 0
454.332 17.9511 0
455.601 17.9452 0
456.86 15.7966 0
459.398 15.7849 0
459.418 20.0706 0
456.88 20.0822 0
458.129 15.7907 0
459.408 17.9277 0
458.149 20.0764 0
456.87 17.9394 0
458.139 17.9336 0
459.398 15.7849 0
461.936 15.7732 0
461.956 20.0589 0
459.418 20.0706 0
460.667 15.7791 0
461.946 17.916 0
460.687 20.0647 0
459.408 17.9277 0
460.677 17.9219 0
461.936 15.7732 0
464.474 15.7615 0
464.494 20.0472 0
461.956 20.0589 0
463.205 15.7674 0
464.484 17.9043 0
463.225 20.053 0
461.946 17.916 0
463.215 17.9102 0
464.474 15.7615 0
467.012 15.7498 0
467.032 20.0355 0
464.494 20.0472 0
465.743 15.7557 0
467.022 17.8926 0
465.763 20.0413 0
464.484 17.9043 0
465.753 17.8985 0
467.012 15.7498 0
469.55 15.7381 0
469.57 20.0237 0
467.032 20.0355 0
468.281 15.7439 0
469.56 17.8809 0
468.301 20.0296 0
467.022 17.8926 0
468.291 17.8868 0
469.55 15.7381 0
472.089 15.7264 0
472.108 20.012 0
469.57 20.0237 0
470.82 15.7322 0
472.098 17.8692 0
470.839 20.0179 0
469.56 17.8809 0
470.829 17.8751 0
472.089 15.7264 0
474.627 15.7146 0
474.646 20.0003 0
472.108 20.012 0
473.358 15.7205 0
474.636 17.8575 0
473.377 20.0062 0
472.098 17.8692 0
473.367 17.8633 0
474.627 15.7146 0
477.165 15.7029 0
477.184 19.9886 0
474.646 20.0003 0
475.896 15.7088 0
477.175 17.8457 0
475.915 19.9944 0
474.636 17.8575 0
475.905 17.8516 0
477.165 15.7029 0
479.703 15.6912 0
479.722 19.9768 0
477.184 19.9886 0
478.434 15.697 0
479.713 17.834 0
478.453 19.9827 0
477.175 17.8457 0
478.444 17.8399 0
479.703 15.6912 0
482.241 15.6794 0
482.261 19.9651 0
479.722 19.9768 0
480.972 15.6853 0
482.251 17.8222 0
480.991 19.9709 0
479.713 17.834 0
480.982 17.8281 0
482.241 15.6794 0
484.779 15.6677 0
484.799 19.9533 0
482.261 19.9651 0
483.51 15.6735 0
484.789 17.8105 0
483.53 19.9592 0
482.251 17.8222 0
483.52 17.8164 0
484.779 15.6677 0
487.317 15.6559 0
487.337 19.9416 0
484.799 19.9533 0
486.048 15.6618 0
487.327 17.7987 0
486.068 19.9474 0
484.789 17.8105 0
486.058 17.8046 0
487.317 15.6559 0
489.855 15.6441 0
489.875 19.9298 0
487.337 19.9416 0
488.586 15.65 0
489.865 17.787 0
488.606 19.9357 0
487.327 17.7987 0
488.596 17.7929 0
489.855 15.6441 0
492.393 15.6324 0
492.413 19.918 0
489.875 19.9298 0
491.124 15.6383 0
492.403 17.7752 0
491.144 19.9239 0
489.865 17.787 0
491.134 17.7811 0
492.393 15.6324 0
494.931 15.6206 0
494.951 19.9063 0
492.413 19.918 0
493.662 15.6265 0
494.941 17.7635 0
493.682 19.9122 0
492.403 17.7752 0
493.672 17.7693 0
494.931 15.6206 0
497.469 15.6089 0
497.489 19.8945 0
494.951 19.9063 0
496.2 15.6147 0
497.479 17.7517 0
496.22 19.9004 0
494.941 17.7635 0
496.21 17.7576 0
497.469 15.6089 0
500.007 15.5971 0
500.027 19.8828 0
497.489 19.8945 0
498.738 15.603 0
500.017 17.7399 0
498.758 19.8886 0
497.479 17.7517 0
498.748 17.7458 0
0 21.4286 0
2.53834 21.4285 0
2.53853 25.7142 0
0 25.7143 0
1.26916 21.4286 0
2.53843 23.5714 0
1.26926 25.7142 0
0 23.5714 0
1.26921 23.5714 0
2.53834 21.4285 0
5.0767 21.4284 0
5.0771 25.7139 0
2.53853 25.7142 0
3.80751 21.4285 0
5.07689 23.5712 0
3.80781 25.714 0
2.53843 23.5714 0
3.80766 23.5713 0
5.0767 21.4284 0
7.61506 21.4281 0
7.61567 25.7136 0
5.0771 25.7139 0
6.34588 21.4282 0
7.61536 23.5708 0
6.34638 25.7138 0
5.07689 23.5712 0
6.34612 23.571 0
7.61506 21.4281 0
10.1534 21.4276 0
10.1542 25.7131 0
7.61567 25.7136 0
8.88425 21.4279 0
10.1538 23.5704 0
8.88495 25.7134 0
7.61536 23.5708 0
8.8846 23.5706 0
10.1534 21.4276 0
12.6918 21.4271 0
12.6928 25.7126 0
10.1542 25.7131 0
11.4226 21.4274 0
12.6923 23.5698 0
11.4235 25.7129 0
10.1538 23.5704 0
11.4231 23.5701 0
12.6918 21.4271 0
15.2302 21.4264 0
15.2314 25.7119 0
12.6928 25.7126 0
13.961 21.4268 0
15.2308 23.5692 0
13.9621 25.7123 0
12.6923 23.5698 0
13.9615 23.5695 0
15.2302 21.4264 0
17.7685 21.4256 0
17.7699 25.7112 0
15.2314 25.7119 0
16.4994 21.426 0
17.7692 23.5684 0
16.5006 25.7116 0
15.2308 23.5692 0
16.5 23.5688 0
17.7685 21.4256 0
20.3069 21.4247 0
20.3085 25.7103 0
17.7699 25.7112 0
19.0377 21.4252 0
20.3077 23.5675 0
19.0392 25.7107 0
17.7692 23.5684 0
19.0385 23.568 0
20.3069 21.4247 0
22.8453 21.4237 0
22.847 25.7093 0
20.3085 25.7103 0
21.5761 21.4243 0
22.8461 23.5665 0
21.5778 25.7098 0
20.3077 23.5675 0
21.5769 23.567 0
22.8453 21.4237 0
25.3836 21.4226 0
25.3856 25.7081 0
22.847 25.7093 0
24.1144 21.4232 0
25.3846 23.5654 0
24.1163 25.7087 0
22.8461 23.5665 0
24.1154 23.566 0
25.3836 21.4226 0
27.922 21.4214 0
27.9241 25.7069 0
25.3856 25.7081 0
26.6528 21.422 0
27.9231 23.5642 0
26.6549 25.7075 0
25.3846 23.5654 0
26.6538 23.5648 0
27.922 21.4214 0
30.4603 21.42 0
30.4627 25.7056 0
27.9241 25.7069 0
29.1912 21.4207 0
30.4615 23.5628 0
29.1934 25.7062 0
27.9231 23.5642 0
29.1923 23.5635 0
30.4603 21.42 0
32.9987 21.4186 0
33.0012 25.7041 0
30.4627 25.7056 0
31.7295 21.4193 0
33 23.5614 0
31.7319 25.7048 0
30.4615 23.5628 0
31.7307 23.5621 0
32.9987 21.4186 0
35.537 21.417 0
35.5398 25.7025 0
33.0012 25.7041 0
34.2679 21.4178 0
35.5384 23.5598 0
34.2705 25.7033 0
33 23.5614 0
34.2692 23.5606 0
35.537 21.417 0
38.0754 21.4153 0
38.0783 25.7009 0
35.5398 25.7025 0
36.8062 21.4162 0
38.0768 23.5581 0
36.809 25.7017 0
35.5384 23.5598 0
36.8076 23.559 0
38.0754 21.4153 0
40.6137 21.4135 0
40.6168 25.6991 0
38.0783 25.7009 0
39.3446 21.4144 0
40.6153 23.5563 0
39.3476 25.7 0
38.0768 23.5581 0
39.3461 23.5572 0
40.6137 21.4135 0
43.1521 21.4116 0
43.1554 25.6972 0
40.6168 25.6991 0
41.8829 21.4126 0
43.1537 23.5544 0
41.8861 25.6981 0
40.6153 23.5563 0
41.8845 23.5554 0
43.1521 21.4116 0
45.6904 21.4096 0
45.6939 25.6952 0
43.1554 25.6972 0
44.4213 21.4107 0
45.6922 23.5524 0
44.4246 25.6962 0
43.1537 23.5544 0
44.4229 23.5534 0
45.6904 21.4096 0
48.2288 21.4075 0
48.2324 25.693 0
45.6939 25.6952 0
46.9596 21.4086 0
48.2306 23.5503 0
46.9631 25.6941 0
45.6922 23.5524 0
46.9614 23.5514 0
48.2288 21.4075 0
50.7671 21.4053 0
50.7709 25.6908 0
48.2324 25.693 0
49.4979 21.4064 0
50.769 23.5481 0
49.5017 25.6919 0
48.2306 23.5503 0
49.4998 23.5492 0
50.7671 21.4053 0
53.3055 21.403 0
53.3095 25.6885 0
50.7709 25.6908 0
52.0363 21.4041 0
53.3075 23.5457 0
52.0402 25.6897 0
50.769 23.5481 0
52.0382 23.5469 0
53.3055 21.403 0
55.8438 21.4005 0
55.848 25.686 0
53.3095 25.6885 0
54.5746 21.4018 0
55.8459 23.5433 0
54.5787 25.6873 0
53.3075 23.5457 0
54.5767 23.5445 0
55.8438 21.4005 0
58.3821 21.398 0
58.3865 25.6835 0
55.848 25.686 0
57.113 21.3993 0
58.3843 23.5408 0
57.1172 25.6848 0
55.8459 23.5433 0
57.1151 23.542 0
58.3821 21.398 0
60.9205 21.3953 0
60.925 25.6809 0
58.3865 25.6835 0
59.6513 21.3967 0
60.9227 23.5381 0
59.6557 25.6822 0
58.3843 23.5408 0
59.6535 23.5394 0
60.9205 21.3953 0
63.4588 21.3926 0
63.4635 25.6781 0
60.925 25.6809 0
62.1896 21.394 0
63.4612 23.5353 0
62.1943 25.6795 0
60.9227 23.5381 0
62.1919 23.5367 0
63.4588 21.3926 0
65.9971 21.3897 0
66.002 25.6752 0
63.4635 25.6781 0
64.728 21.3912 0
65.9996 23.5325 0
64.7328 25.6767 0
63.4612 23.5353 0
64.7304 23.5339 0
65.9971 21.3897 0
68.5355 21.3867 0
68.5405 25.6723 0
66.002 25.6752 0
67.2663 21.3882 0
68.538 23.5295 0
67.2713 25.6738 0
65.9996 23.5325 0
67.2688 23.531 0
68.5355 21.3867 0
71.0738 21.3837 0
71.079 25.6692 0
68.5405 25.6723 0
69.8046 21.3852 0
71.0764 23.5265 0
69.8098 25.6708 0
68.538 23.5295 0
69.8072 23.528 0
71.0738 21.3837 0
73.6121 21.3805 0
73.6175 25.6661 0
71.079 25.6692 0
72.343 21.3821 0
73.6148 23.5233 0
72.3483 25.6676 0
71.0764 23.5265 0
72.3456 23.5249 0
73.6121 21.3805 0
76.1505 21.3772 0
76.156 25.6628 0
73.6175 25.6661 0
74.8813 21.3789 0
76.1532 23.52 0
74.8868 25.6644 0
73.6148 23.5233 0
74.884 23.5217 0
76.1505 21.3772 0
78.6888 21.3739 0
78.6945 25.6594 0
76.156 25.6628 0
77.4196 21.3756 0
78.6916 23.5167 0
77.4253 25.6611 0
76.1532 23.52 0
77.4224 23.5184 0
78.6888 21.3739 0
81.2271 21.3704 0
81.233 25.6559 0
78.6945 25.6594 0
79.9579 21.3722 0
81.2301 23.5132 0
79.9638 25.6577 0
78.6916 23.5167 0
79.9609 23.5149 0
81.2271 21.3704 0
83.7654 21.3668 0
83.7715 25.6524 0
81.233 25.6559 0
82.4963 21.3686 0
83.7685 23.5096 0
82.5023 25.6542 0
81.2301 23.5132 0
82.4993 23.5114 0
83.7654 21.3668 0
86.3037 21.3632 0
86.31 25.6487 0
83.7715 25.6524 0
85.0346 21.365 0
86.3069 23.5059 0
85.0407 25.6505 0
83.7685 23.5096 0
85.0377 23.5078 0
86.3037 21.3632 0
88.8421 21.3594 0
88.8485 25.6449 0
86.31 25.6487 0
87.5729 21.3613 0
88.8453 23.5022 0
87.5792 25.6468 0
86.3069 23.5059 0
87.5761 23.5041 0
88.8421 21.3594 0
91.3804 21.3555 0
91.387 25.6411 0
88.8485 25.6449 0
90.1112 21.3575 0
91.3837 23.4983 0
90.1177 25.643 0
88.8453 23.5022 0
90.1145 23.5003 0
91.3804 21.3555 0
93.9187 21.3516 0
93.9254 25.6371 0
91.387 25.6411 0
92.6495 21.3536 0
93.9221 23.4943 0
92.6562 25.6391 0
91.3837 23.4983 0
92.6529 23.4963 0
93.9187 21.3516 0
96.457 21.3475 0
96.4639 25.633 0
93.9254 25.6371 0
95.1878 21.3495 0
96.4604 23.4903 0
95.1947 25.6351 0
93.9221 23.4943 0
95.1913 23.4923 0
96.457 21.3475 0
98.9953 21.3433 0
99.0024 25.6289 0
96.4639 25.633 0
97.7262 21.3454 0
98.9988 23.4861 0
97.7331 25.631 0
96.4604 23.4903 0
97.7296 23.4882 0
98.9953 21.3433 0
101.534 21.3391 0
101.541 25.6246 0
99.0024 25.6289 0
100.264 21.3412 0
101.537 23.4819 0
100.272 25.6268 0
98.9988 23.4861 0
100.268 23.484 0
101.534 21.3391 0
104.072 21.3347 0
104.079 25.6203 0
101.541 25.6246 0
102.803 21.3369 0
104.076 23.4775 0
102.81 25.6225 0
101.537 23.4819 0
102.806 23.4797 0
104.072 21.3347 0
106.61 21.3303 0
106.618 25.6158 0
104.079 25.6203 0
105.341 21.3325 0
106.614 23.4731 0
105.349 25.6181 0
104.076 23.4775 0
105.345 23.4753 0
106.61 21.3303 0
109.149 21.3258 0
109.156 25.6113 0
106.618 25.6158 0
107.879 21.328 0
109.152 23.4685 0
107.887 25.6136 0
106.614 23.4731 0
107.883 23.4708 0
109.149 21.3258 0
111.687 21.3211 0
111.695 25.6067 0
109.156 25.6113 0
110.418 21.3235 0
111.691 23.4639 0
110.425 25.609 0
109.152 23.4685 0
110.422 23.4662 0
111.687 21.3211 0
114.225 21.3164 0
114.233 25.602 0
111.695 25.6067 0
112.956 21.3188 0
114.229 23.4592 0
112.964 25.6043 0
111.691 23.4639 0
112.96 23.4616 0
114.225 21.3164 0
116.763 21.3116 0
116.772 25.5971 0
114.233 25.602 0
115.494 21.314 0
116.768 23.4544 0
115.502 25.5996 0
114.229 23.4592 0
115.498 23.4568 0
116.763 21.3116 0
119.302 21.3067 0
119.31 25.5922 0
116.772 25.5971 0
118.033 21.3091 0
119.306 23.4495 0
118.041 25.5947 0
116.768 23.4544 0
118.037 23.4519 0
119.302 21.3067 0
121.84 21.3017 0
121.849 25.5872 0
119.31 25.5922 0
120.571 21.3042 0
121.844 23.4445 0
120.579 25.5897 0
119.306 23.4495 0
120.575 23.447 0
121.84 21.3017 0
124.378 21.2966 0
124.387 25.5822 0
121.849 25.5872 0
123.109 21.2992 0
124.383 23.4394 0
123.118 25.5847 0
121.844 23.4445 0
123.113 23.4419 0
124.378 21.2966 0
126.917 21.2914 0
126.925 25.577 0
124.387 25.5822 0
125.647 21.294 0
126.921 23.4342 0
125.656 25.5796 0
124.383 23.4394 0
125.652 23.4368 0
126.917 21.2914 0
129.455 21.2862 0
129.464 25.5717 0
126.925 25.577 0
128.186 21.2888 0
129.459 23.4289 0
128.195 25.5744 0
126.921 23.4342 0
128.19 23.4316 0
129.455 21.2862 0
131.993 21.2808 0
132.002 25.5664 0
129.464 25.5717 0
130.724 21.2835 0
131.998 23.4236 0
130.733 25.569 0
129.459 23.4289 0
130.729 23.4263 0
131.993 21.2808 0
134.531 21.2754 0
134.541 25.5609 0
132.002 25.5664 0
133.262 21.2781 0
134.536 23.4181 0
133.271 25.5636 0
131.998 23.4236 0
133.267 23.4209 0
134.531 21.2754 0
137.07 21.2698 0
137.079 25.5554 0
134.541 25.5609 0
135.801 21.2726 0
137.074 23.4126 0
135.81 25.5582 0
134.536 23.4181 0
135.805 23.4154 0
137.07 21.2698 0
139.608 21.2642 0
139.618 25.5498 0
137.079 25.5554 0
138.339 21.267 0
139.613 23.407 0
138.348 25.5526 0
137.074 23.4126 0
138.344 23.4098 0
139.608 21.2642 0
142.146 21.2585 0
142.156 25.5441 0
139.618 25.5498 0
140.877 21.2614 0
142.151 23.4013 0
140.887 25.5469 0
139.613 23.407 0
140.882 23.4042 0
142.146 21.2585 0
144.685 21.2527 0
144.694 25.5383 0
142.156 25.5441 0
143.415 21.2556 0
144.69 23.3955 0
143.425 25.5412 0
142.151 23.4013 0
143.42 23.3984 0
144.685 21.2527 0
147.223 21.2469 0
147.233 25.5324 0
144.694 25.5383 0
145.954 21.2498 0
147.228 23.3896 0
145.964 25.5354 0
144.69 23.3955 0
145.959 23.3926 0
147.223 21.2469 0
149.761 21.2409 0
149.771 25.5265 0
147.233 25.5324 0
148.492 21.2439 0
149.766 23.3837 0
148.502 25.5294 0
147.228 23.3896 0
148.497 23.3867 0
149.761 21.2409 0
152.299 21.2349 0
152.31 25.5204 0
149.771 25.5265 0
151.03 21.2379 0
152.305 23.3776 0
151.04 25.5234 0
149.766 23.3837 0
151.035 23.3807 0
152.299 21.2349 0
154.838 21.2287 0
154.848 25.5143 0
152.31 25.5204 0
153.569 21.2318 0
154.843 23.3715 0
153.579 25.5174 0
152.305 23.3776 0
153.574 23.3746 0
154.838 21.2287 0
157.376 21.2225 0
157.386 25.5081 0
154.848 25.5143 0
156.107 21.2256 0
157.381 23.3653 0
156.117 25.5112 0
154.843 23.3715 0
156.112 23.3684 0
157.376 21.2225 0
159.914 21.2162 0
159.925 25.5018 0
157.386 25.5081 0
158.645 21.2194 0
159.92 23.359 0
158.656 25.505 0
157.381 23.3653 0
158.65 23.3622 0
159.914 21.2162 0
162.453 21.2099 0
162.463 25.4954 0
159.925 25.5018 0
161.183 21.2131 0
162.458 23.3527 0
161.194 25.4986 0
159.92 23.359 0
161.189 23.3559 0
162.453 21.2099 0
164.991 21.2034 0
165.002 25.489 0
162.463 25.4954 0
163.722 21.2067 0
164.996 23.3462 0
163.733 25.4922 0
162.458 23.3527 0
163.727 23.3495 0
164.991 21.2034 0
167.529 21.1969 0
167.54 25.4825 0
165.002 25.489 0
166.26 21.2002 0
167.535 23.3397 0
166.271 25.4857 0
164.996 23.3462 0
166.265 23.343 0
167.529 21.1969 0
170.067 21.1903 0
170.079 25.4759 0
167.54 25.4825 0
168.798 21.1936 0
170.073 23.3331 0
168.809 25.4792 0
167.535 23.3397 0
168.804 23.3364 0
170.067 21.1903 0
172.606 21.1836 0
172.617 25.4692 0
170.079 25.4759 0
171.336 21.187 0
172.611 23.3264 0
171.348 25.4725 0
170.073 23.3331 0
171.342 23.3297 0
172.606 21.1836 0
175.144 21.1768 0
175.155 25.4624 0
172.617 25.4692 0
173.875 21.1802 0
175.15 23.3196 0
173.886 25.4658 0
172.611 23.3264 0
173.88 23.323 0
175.144 21.1768 0
177.682 21.17 0
177.694 25.4556 0
175.155 25.4624 0
176.413 21.1734 0
177.688 23.3128 0
176.424 25.459 0
175.15 23.3196 0
176.419 23.3162 0
177.682 21.17 0
180.22 21.1631 0
180.232 25.4486 0
177.694 25.4556 0
178.951 21.1665 0
180.226 23.3059 0
178.963 25.4521 0
177.688 23.3128 0
178.957 23.3093 0
180.22 21.1631 0
182.759 21.1561 0
182.77 25.4417 0
180.232 25.4486 0
181.489 21.1596 0
182.765 23.2989 0
181.501 25.4452 0
180.226 23.3059 0
181.495 23.3024 0
182.759 21.1561 0
185.297 21.149 0
185.309 25.4346 0
182.77 25.4417 0
184.028 21.1526 0
185.303 23.2918 0
184.04 25.4381 0
182.765 23.2989 0
184.034 23.2953 0
185.297 21.149 0
187.835 21.1419 0
187.847 25.4274 0
185.309 25.4346 0
186.566 21.1454 0
187.841 23.2847 0
186.578 25.431 0
185.303 23.2918 0
186.572 23.2882 0
187.835 21.1419 0
190.373 21.1346 0
190.386 25.4202 0
187.847 25.4274 0
189.104 21.1383 0
190.379 23.2774 0
189.116 25.4238 0
187.841 23.2847 0
189.11 23.2811 0
190.373 21.1346 0
192.912 21.1274 0
192.924 25.4129 0
190.386 25.4202 0
191.642 21.131 0
192.918 23.2701 0
191.655 25.4166 0
190.379 23.2774 0
191.649 23.2738 0
192.912 21.1274 0
195.45 21.12 0
195.462 25.4056 0
192.924 25.4129 0
194.181 21.1237 0
195.456 23.2628 0
194.193 25.4092 0
192.918 23.2701 0
194.187 23.2665 0
195.45 21.12 0
197.988 21.1125 0
198.001 25.3981 0
195.462 25.4056 0
196.719 21.1163 0
197.994 23.2553 0
196.731 25.4018 0
195.456 23.2628 0
196.725 23.2591 0
197.988 21.1125 0
200.526 21.105 0
200.539 25.3906 0
198.001 25.3981 0
199.257 21.1088 0
200.533 23.2478 0
199.27 25.3944 0
197.994 23.2553 0
199.264 23.2516 0
200.526 21.105 0
203.065 21.0974 0
203.077 25.383 0
200.539 25.3906 0
201.795 21.1012 0
203.071 23.2402 0
201.808 25.3868 0
200.533 23.2478 0
201.802 23.244 0
203.065 21.0974 0
205.603 21.0898 0
205.616 25.3754 0
203.077 25.383 0
204.334 21.0936 0
205.609 23.2326 0
204.347 25.3792 0
203.071 23.2402 0
204.34 23.2364 0
205.603 21.0898 0
208.141 21.0821 0
208.154 25.3676 0
205.616 25.3754 0
206.872 21.0859 0
208.148 23.2249 0
206.885 25.3715 0
205.609 23.2326 0
206.878 23.2287 0
208.141 21.0821 0
210.679 21.0743 0
210.692 25.3598 0
208.154 25.3676 0
209.41 21.0782 0
210.686 23.2171 0
209.423 25.3638 0
208.148 23.2249 0
209.417 23.221 0
210.679 21.0743 0
213.218 21.0664 0
213.231 25.352 0
210.692 25.3598 0
211.948 21.0704 0
213.224 23.2092 0
211.962 25.3559 0
210.686 23.2171 0
211.955 23.2131 0
213.218 21.0664 0
215.756 21.0585 0
215.769 25.3441 0
213.231 25.352 0
214.487 21.0625 0
215.762 23.2013 0
214.5 25.348 0
213.224 23.2092 0
214.493 23.2052 0
215.756 21.0585 0
218.294 21.0505 0
218.308 25.3361 0
215.769 25.3441 0
217.025 21.0545 0
218.301 23.1933 0
217.038 25.3401 0
215.762 23.2013 0
217.032 23.1973 0
218.294 21.0505 0
220.832 21.0424 0
220.846 25.328 0
218.308 25.3361 0
219.563 21.0465 0
220.839 23.1852 0
219.577 25.332 0
218.301 23.1933 0
219.57 23.1892 0
220.832 21.0424 0
223.37 21.0343 0
223.384 25.3199 0
220.846 25.328 0
222.101 21.0384 0
223.377 23.1771 0
222.115 25.3239 0
220.839 23.1852 0
222.108 23.1811 0
223.37 21.0343 0
225.909 21.0261 0
225.923 25.3117 0
223.384 25.3199 0
224.64 21.0302 0
225.916 23.1689 0
224.653 25.3158 0
223.377 23.1771 0
224.646 23.173 0
225.909 21.0261 0
228.447 21.0178 0
228.461 25.3034 0
225.923 25.3117 0
227.178 21.022 0
228.454 23.1606 0
227.192 25.3075 0
225.916 23.1689 0
227.185 23.1648 0
228.447 21.0178 0
230.985 21.0095 0
230.999 25.2951 0
228.461 25.3034 0
229.716 21.0137 0
230.992 23.1523 0
229.73 25.2992 0
228.454 23.1606 0
229.723 23.1565 0
230.985 21.0095 0
233.523 21.0011 0
233.538 25.2867 0
230.999 25.2951 0
232.254 21.0053 0
233.53 23.1439 0
232.268 25.2909 0
230.992 23.1523 0
232.261 23.1481 0
233.523 21.0011 0
236.062 20.9926 0
236.076 25.2782 0
233.538 25.2867 0
234.792 20.9969 0
236.069 23.1354 0
234.807 25.2825 0
233.53 23.1439 0
234.8 23.1397 0
236.062 20.9926 0
238.6 20.9841 0
238.614 25.2697 0
236.076 25.2782 0
237.331 20.9884 0
238.607 23.1269 0
237.345 25.274 0
236.069 23.1354 0
237.338 23.1312 0
238.6 20.9841 0
241.138 20.9755 0
241.152 25.2611 0
238.614 25.2697 0
239.869 20.9798 0
241.145 23.1183 0
239.883 25.2654 0
238.607 23.1269 0
239.876 23.1226 0
241.138 20.9755 0
243.676 20.9669 0
243.691 25.2525 0
241.152 25.2611 0
242.407 20.9712 0
243.683 23.1097 0
242.422 25.2568 0
241.145 23.1183 0
242.414 23.114 0
243.676 20.9669 0
246.214 20.9582 0
246.229 25.2438 0
243.691 25.2525 0
244.945 20.9625 0
246.222 23.101 0
244.96 25.2481 0
243.683 23.1097 0
244.953 23.1053 0
246.214 20.9582 0
248.753 20.9494 0
248.767 25.235 0
246.229 25.2438 0
247.483 20.9538 0
248.76 23.0922 0
247.498 25.2394 0
246.222 23.101 0
247.491 23.0966 0
248.753 20.9494 0
251.291 20.9406 0
251.306 25.2262 0
248.767 25.235 0
250.022 20.945 0
251.298 23.0834 0
250.037 25.2306 0
248.76 23.0922 0
250.029 23.0878 0
251.291 20.9406 0
253.829 20.9317 0
253.844 25.2173 0
251.306 25.2262 0
252.56 20.9362 0
253.837 23.0745 0
252.575 25.2217 0
251.298 23.0834 0
252.567 23.079 0
253.829 20.9317 0
256.367 20.9228 0
256.382 25.2083 0
253.844 25.2173 0
255.098 20.9272 0
256.375 23.0656 0
255.113 25.2128 0
253.837 23.0745 0
255.106 23.07 0
256.367 20.9228 0
258.905 20.9138 0
258.921 25.1993 0
256.382 25.2083 0
257.636 20.9183 0
258.913 23.0566 0
257.651 25.2039 0
256.375 23.0656 0
257.644 23.0611 0
258.905 20.9138 0
261.444 20.9047 0
261.459 25.1903 0
258.921 25.1993 0
260.175 20.9092 0
261.451 23.0475 0
260.19 25.1948 0
258.913 23.0566 0
260.182 23.052 0
261.444 20.9047 0
263.982 20.8956 0
263.997 25.1812 0
261.459 25.1903 0
262.713 20.9001 0
263.99 23.0384 0
262.728 25.1857 0
261.451 23.0475 0
262.72 23.0429 0
263.982 20.8956 0
266.52 20.8864 0
266.536 25.172 0
263.997 25.1812 0
265.251 20.891 0
266.528 23.0292 0
265.266 25.1766 0
263.99 23.0384 0
265.259 23.0338 0
266.52 20.8864 0
269.058 20.8772 0
269.074 25.1628 0
266.536 25.172 0
267.789 20.8818 0
269.066 23.02 0
267.805 25.1674 0
266.528 23.0292 0
267.797 23.0246 0
269.058 20.8772 0
271.596 20.8679 0
271.612 25.1535 0
269.074 25.1628 0
270.327 20.8725 0
271.604 23.0107 0
270.343 25.1581 0
269.066 23.02 0
270.335 23.0153 0
271.596 20.8679 0
274.135 20.8586 0
274.15 25.1441 0
271.612 25.1535 0
272.865 20.8632 0
274.142 23.0014 0
272.881 25.1488 0
271.604 23.0107 0
272.873 23.006 0
274.135 20.8586 0
276.673 20.8492 0
276.689 25.1348 0
274.15 25.1441 0
275.404 20.8539 0
276.681 22.992 0
275.42 25.1395 0
274.142 23.0014 0
275.412 22.9967 0
276.673 20.8492 0
279.211 20.8397 0
279.227 25.1253 0
276.689 25.1348 0
277.942 20.8444 0
279.219 22.9825 0
277.958 25.13 0
276.681 22.992 0
277.95 22.9872 0
279.211 20.8397 0
281.749 20.8302 0
281.765 25.1158 0
279.227 25.1253 0
280.48 20.835 0
281.757 22.973 0
280.496 25.1206 0
279.219 22.9825 0
280.488 22.9778 0
281.749 20.8302 0
284.287 20.8207 0
284.303 25.1063 0
281.765 25.1158 0
283.018 20.8254 0
284.295 22.9635 0
283.034 25.111 0
281.757 22.973 0
283.026 22.9683 0
284.287 20.8207 0
286.826 20.8111 0
286.842 25.0967 0
284.303 25.1063 0
285.556 20.8159 0
286.834 22.9539 0
285.573 25.1015 0
284.295 22.9635 0
285.565 22.9587 0
286.826 20.8111 0
289.364 20.8014 0
289.38 25.087 0
286.842 25.0967 0
288.095 20.8062 0
289.372 22.9442 0
288.111 25.0918 0
286.834 22.9539 0
288.103 22.949 0
289.364 20.8014 0
291.902 20.7917 0
291.918 25.0773 0
289.38 25.087 0
290.633 20.7966 0
291.91 22.9345 0
290.649 25.0822 0
289.372 22.9442 0
290.641 22.9394 0
291.902 20.7917 0
294.44 20.782 0
294.457 25.0676 0
291.918 25.0773 0
293.171 20.7868 0
294.448 22.9248 0
293.187 25.0724 0
291.91 22.9345 0
293.179 22.9296 0
294.44 20.782 0
296.978 20.7722 0
296.995 25.0578 0
294.457 25.0676 0
295.709 20.7771 0
296.987 22.915 0
295.726 25.0627 0
294.448 22.9248 0
295.717 22.9199 0
296.978 20.7722 0
299.516 20.7623 0
299.533 25.0479 0
296.995 25.0578 0
298.247 20.7672 0
299.525 22.9051 0
298.264 25.0528 0
296.987 22.915 0
298.256 22.91 0
299.516 20.7623 0
302.055 20.7524 0
302.071 25.038 0
299.533 25.0479 0
300.785 20.7574 0
302.063 22.8952 0
300.802 25.043 0
299.525 22.9051 0
300.794 22.9002 0
302.055 20.7524 0
304.593 20.7425 0
304.61 25.0281 0
302.071 25.038 0
303.324 20.7474 0
304.601 22.8853 0
303.34 25.033 0
302.063 22.8952 0
303.332 22.8902 0
304.593 20.7425 0
307.131 20.7325 0
307.148 25.0181 0
304.61 25.0281 0
305.862 20.7375 0
307.139 22.8753 0
305.879 25.0231 0
304.601 22.8853 0
305.87 22.8803 0
307.131 20.7325 0
309.669 20.7224 0
309.686 25.008 0
307.148 25.0181 0
308.4 20.7275 0
309.678 22.8652 0
308.417 25.0131 0
307.139 22.8753 0
308.408 22.8703 0
309.669 20.7224 0
312.207 20.7123 0
312.224 24.998 0
309.686 25.008 0
310.938 20.7174 0
312.216 22.8552 0
310.955 25.003 0
309.678 22.8652 0
310.947 22.8602 0
312.207 20.7123 0
314.745 20.7022 0
314.763 24.9878 0
312.224 24.998 0
313.476 20.7073 0
314.754 22.845 0
313.493 24.9929 0
312.216 22.8552 0
313.485 22.8501 0
314.745 20.7022 0
317.284 20.692 0
317.301 24.9777 0
314.763 24.9878 0
316.014 20.6971 0
317.292 22.8349 0
316.032 24.9827 0
314.754 22.845 0
316.023 22.8399 0
317.284 20.692 0
319.822 20.6818 0
319.839 24.9674 0
317.301 24.9777 0
318.553 20.6869 0
319.83 22.8246 0
318.57 24.9726 0
317.292 22.8349 0
318.561 22.8298 0
319.822 20.6818 0
322.36 20.6716 0
322.377 24.9572 0
319.839 24.9674 0
321.091 20.6767 0
322.369 22.8144 0
321.108 24.9623 0
319.83 22.8246 0
321.099 22.8195 0
322.36 20.6716 0
324.898 20.6613 0
324.915 24.9469 0
322.377 24.9572 0
323.629 20.6664 0
324.907 22.8041 0
323.646 24.952 0
322.369 22.8144 0
323.638 22.8092 0
324.898 20.6613 0
327.436 20.6509 0
327.454 24.9365 0
324.915 24.9469 0
326.167 20.6561 0
327.445 22.7937 0
326.185 24.9417 0
324.907 22.8041 0
326.176 22.7989 0
327.436 20.6509 0
329.974 20.6405 0
329.992 24.9262 0
327.454 24.9365 0
328.705 20.6457 0
329.983 22.7834 0
328.723 24.9314 0
327.445 22.7937 0
328.714 22.7886 0
329.974 20.6405 0
332.513 20.6301 0
332.53 24.9157 0
329.992 24.9262 0
331.243 20.6353 0
332.521 22.7729 0
331.261 24.9209 0
329.983 22.7834 0
331.252 22.7781 0
332.513 20.6301 0
335.051 20.6197 0
335.068 24.9053 0
332.53 24.9157 0
333.782 20.6249 0
335.059 22.7625 0
333.799 24.9105 0
332.521 22.7729 0
333.79 22.7677 0
335.051 20.6197 0
337.589 20.6092 0
337.607 24.8948 0
335.068 24.9053 0
336.32 20.6144 0
337.598 22.752 0
336.337 24.9 0
335.059 22.7625 0
336.329 22.7572 0
337.589 20.6092 0
340.127 20.5986 0
340.145 24.8842 0
337.607 24.8948 0
338.858 20.6039 0
340.136 22.7414 0
338.876 24.8895 0
337.598 22.752 0
338.867 22.7467 0
340.127 20.5986 0
342.665 20.588 0
342.683 24.8736 0
340.145 24.8842 0
341.396 20.5933 0
342.674 22.7308 0
341.414 24.8789 0
340.136 22.7414 0
341.405 22.7361 0
342.665 20.588 0
345.203 20.5774 0
345.221 24.863 0
342.683 24.8736 0
343.934 20.5827 0
345.212 22.7202 0
343.952 24.8683 0
342.674 22.7308 0
343.943 22.7255 0
345.203 20.5774 0
347.741 20.5668 0
347.759 24.8524 0
345.221 24.863 0
346.472 20.5721 0
347.75 22.7096 0
346.49 24.8577 0
345.212 22.7202 0
346.481 22.7149 0
347.741 20.5668 0
350.28 20.5561 0
350.298 24.8417 0
347.759 24.8524 0
349.01 20.5614 0
350.289 22.6989 0
349.028 24.847 0
347.75 22.7096 0
349.019 22.7042 0
350.28 20.5561 0
352.818 20.5453 0
352.836 24.831 0
350.298 24.8417 0
351.549 20.5507 0
352.827 22.6882 0
351.567 24.8363 0
350.289 22.6989 0
351.558 22.6935 0
352.818 20.5453 0
355.356 20.5346 0
355.374 24.8202 0
352.836 24.831 0
354.087 20.54 0
355.365 22.6774 0
354.105 24.8256 0
352.827 22.6882 0
354.096 22.6828 0
355.356 20.5346 0
357.894 20.5238 0
357.912 24.8094 0
355.374 24.8202 0
356.625 20.5292 0
357.903 22.6666 0
356.643 24.8148 0
355.365 22.6774 0
356.634 22.672 0
357.894 20.5238 0
360.432 20.5129 0
360.45 24.7986 0
357.912 24.8094 0
359.163 20.5184 0
360.441 22.6558 0
359.181 24.804 0
357.903 22.6666 0
359.172 22.6612 0
360.432 20.5129 0
362.97 20.5021 0
362.989 24.7877 0
360.45 24.7986 0
361.701 20.5075 0
362.979 22.6449 0
361.719 24.7931 0
360.441 22.6558 0
361.71 22.6503 0
362.97 20.5021 0
365.508 20.4912 0
365.527 24.7768 0
362.989 24.7877 0
364.239 20.4966 0
365.518 22.634 0
364.258 24.7823 0
362.979 22.6449 0
364.248 22.6395 0
365.508 20.4912 0
368.046 20.4803 0
368.065 24.7659 0
365.527 24.7768 0
366.777 20.4857 0
368.056 22.6231 0
366.796 24.7713 0
365.518 22.634 0
366.787 22.6285 0
368.046 20.4803 0
370.585 20.4693 0
370.603 24.7549 0
368.065 24.7659 0
369.316 20.4748 0
370.594 22.6121 0
369.334 24.7604 0
368.056 22.6231 0
369.325 22.6176 0
370.585 20.4693 0
373.123 20.4583 0
373.141 24.7439 0
370.603 24.7549 0
371.854 20.4638 0
373.132 22.6011 0
371.872 24.7494 0
370.594 22.6121 0
371.863 22.6066 0
373.123 20.4583 0
375.661 20.4473 0
375.679 24.7329 0
373.141 24.7439 0
374.392 20.4528 0
375.67 22.5901 0
374.41 24.7384 0
373.132 22.6011 0
374.401 22.5956 0
375.661 20.4473 0
378.199 20.4362 0
378.218 24.7219 0
375.679 24.7329 0
376.93 20.4418 0
378.208 22.579 0
376.949 24.7274 0
375.67 22.5901 0
376.939 22.5846 0
378.199 20.4362 0
380.737 20.4252 0
380.756 24.7108 0
378.218 24.7219 0
379.468 20.4307 0
380.746 22.568 0
379.487 24.7163 0
378.208 22.579 0
379.477 22.5735 0
380.737 20.4252 0
383.275 20.414 0
383.294 24.6997 0
380.756 24.7108 0
382.006 20.4196 0
383.285 22.5569 0
382.025 24.7052 0
380.746 22.568 0
382.015 22.5624 0
383.275 20.414 0
385.813 20.4029 0
385.832 24.6885 0
383.294 24.6997 0
384.544 20.4085 0
385.823 22.5457 0
384.563 24.6941 0
383.285 22.5569 0
384.554 22.5513 0
385.813 20.4029 0
388.351 20.3917 0
388.37 24.6774 0
385.832 24.6885 0
387.082 20.3973 0
388.361 22.5346 0
387.101 24.683 0
385.823 22.5457 0
387.092 22.5401 0
388.351 20.3917 0
390.89 20.3806 0
390.908 24.6662 0
388.37 24.6774 0
389.62 20.3862 0
390.899 22.5234 0
389.639 24.6718 0
388.361 22.5346 0
389.63 22.529 0
390.89 20.3806 0
393.428 20.3693 0
393.447 24.655 0
390.908 24.6662 0
392.159 20.375 0
393.437 22.5122 0
392.177 24.6606 0
390.899 22.5234 0
392.168 22.5178 0
393.428 20.3693 0
395.966 20.3581 0
395.985 24.6437 0
393.447 24.655 0
394.697 20.3637 0
395.975 22.5009 0
394.716 24.6494 0
393.437 22.5122 0
394.706 22.5065 0
395.966 20.3581 0
398.504 20.3468 0
398.523 24.6325 0
395.985 24.6437 0
397.235 20.3525 0
398.513 22.4896 0
397.254 24.6381 0
395.975 22.5009 0
397.244 22.4953 0
398.504 20.3468 0
401.042 20.3355 0
401.061 24.6212 0
398.523 24.6325 0
399.773 20.3412 0
401.051 22.4784 0
399.792 24.6268 0
398.513 22.4896 0
399.782 22.484 0
401.042 20.3355 0
403.58 20.3242 0
403.599 24.6099 0
401.061 24.6212 0
402.311 20.3299 0
403.59 22.467 0
402.33 24.6155 0
401.051 22.4784 0
402.321 22.4727 0
403.58 20.3242 0
406.118 20.3129 0
406.137 24.5985 0
403.599 24.6099 0
404.849 20.3186 0
406.128 22.4557 0
404.868 24.6042 0
403.59 22.467 0
404.859 22.4614 0
406.118 20.3129 0
408.656 20.3015 0
408.675 24.5872 0
406.137 24.5985 0
407.387 20.3072 0
408.666 22.4443 0
407.406 24.5928 0
406.128 22.4557 0
407.397 22.45 0
408.656 20.3015 0
411.194 20.2901 0
411.214 24.5758 0
408.675 24.5872 0
409.925 20.2958 0
411.204 22.433 0
409.945 24.5815 0
408.666 22.4443 0
409.935 22.4387 0
411.194 20.2901 0
413.732 20.2787 0
413.752 24.5644 0
411.214 24.5758 0
412.463 20.2844 0
413.742 22.4216 0
412.483 24.5701 0
411.204 22.433 0
412.473 22.4273 0
413.732 20.2787 0
416.271 20.2673 0
416.29 24.553 0
413.752 24.5644 0
415.002 20.273 0
416.28 22.4101 0
415.021 24.5587 0
413.742 22.4216 0
415.011 22.4159 0
416.271 20.2673 0
418.809 20.2559 0
418.828 24.5415 0
416.29 24.553 0
417.54 20.2616 0
418.818 22.3987 0
417.559 24.5472 0
416.28 22.4101 0
417.549 22.4044 0
418.809 20.2559 0
421.347 20.2444 0
421.366 24.5301 0
418.828 24.5415 0
420.078 20.2501 0
421.356 22.3872 0
420.097 24.5358 0
418.818 22.3987 0
420.087 22.393 0
421.347 20.2444 0
423.885 20.2329 0
423.904 24.5186 0
421.366 24.5301 0
422.616 20.2387 0
423.895 22.3758 0
422.635 24.5243 0
421.356 22.3872 0
422.625 22.3815 0
423.885 20.2329 0
426.423 20.2214 0
426.442 24.5071 0
423.904 24.5186 0
425.154 20.2272 0
426.433 22.3643 0
425.173 24.5128 0
423.895 22.3758 0
425.164 22.37 0
426.423 20.2214 0
428.961 20.2099 0
428.98 24.4956 0
426.442 24.5071 0
427.692 20.2157 0
428.971 22.3527 0
427.711 24.5013 0
426.433 22.3643 0
427.702 22.3585 0
428.961 20.2099 0
431.499 20.1984 0
431.519 24.484 0
428.98 24.4956 0
430.23 20.2042 0
431.509 22.3412 0
430.25 24.4898 0
428.971 22.3527 0
430.24 22.347 0
431.499 20.1984 0
434.037 20.1868 0
434.057 24.4725 0
431.519 24.484 0
432.768 20.1926 0
434.047 22.3297 0
432.788 24.4783 0
431.509 22.3412 0
432.778 22.3354 0
434.037 20.1868 0
436.575 20.1753 0
436.595 24.4609 0
434.057 24.4725 0
435.306 20.181 0
436.585 22.3181 0
435.326 24.4667 0
434.047 22.3297 0
435.316 22.3239 0
436.575 20.1753 0
439.113 20.1637 0
439.133 24.4493 0
436.595 24.4609 0
437.844 20.1695 0
439.123 22.3065 0
437.864 24.4551 0
436.585 22.3181 0
437.854 22.3123 0
439.113 20.1637 0
441.651 20.1521 0
441.671 24.4377 0
439.133 24.4493 0
440.382 20.1579 0
441.661 22.2949 0
440.402 24.4435 0
439.123 22.3065 0
440.392 22.3007 0
441.651 20.1521 0
444.19 20.1405 0
444.209 24.4261 0
441.671 24.4377 0
442.92 20.1463 0
444.199 22.2833 0
442.94 24.4319 0
441.661 22.2949 0
442.93 22.2891 0
444.19 20.1405 0
446.728 20.1289 0
446.747 24.4145 0
444.209 24.4261 0
445.459 20.1347 0
446.737 22.2717 0
445.478 24.4203 0
444.199 22.2833 0
445.468 22.2775 0
446.728 20.1289 0
449.266 20.1172 0
449.285 24.4029 0
446.747 24.4145 0
447.997 20.123 0
449.275 22.26 0
448.016 24.4087 0
446.737 22.2717 0
448.006 22.2659 0
449.266 20.1172 0
451.804 20.1056 0
451.823 24.3912 0
449.285 24.4029 0
450.535 20.1114 0
451.814 22.2484 0
450.554 24.397 0
449.275 22.26 0
450.545 22.2542 0
451.804 20.1056 0
454.342 20.0939 0
454.361 24.3796 0
451.823 24.3912 0
453.073 20.0997 0
454.352 22.2367 0
453.092 24.3854 0
451.814 22.2484 0
453.083 22.2426 0
454.342 20.0939 0
456.88 20.0822 0
456.9 24.3679 0
454.361 24.3796 0
455.611 20.0881 0
456.89 22.2251 0
455.631 24.3737 0
454.352 22.2367 0
455.621 22.2309 0
456.88 20.0822 0
459.418 20.0706 0
459.438 24.3562 0
456.9 24.3679 0
458.149 20.0764 0
459.428 22.2134 0
458.169 24.3621 0
456.89 22.2251 0
458.159 22.2192 0
459.418 20.0706 0
461.956 20.0589 0
461.976 24.3445 0
459.438 24.3562 0
460.687 20.0647 0
461.966 22.2017 0
460.707 24.3504 0
459.428 22.2134 0
460.697 22.2075 0
461.956 20.0589 0
464.494 20.0472 0
464.514 24.3328 0
461.976 24.3445 0
463.225 20.053 0
464.504 22.19 0
463.245 24.3387 0
461.966 22.2017 0
463.235 22.1958 0
464.494 20.0472 0
467.032 20.0355 0
467.052 24.3211 0
464.514 24.3328 0
465.763 20.0413 0
467.042 22.1783 0
465.783 24.327 0
464.504 22.19 0
465.773 22.1841 0
467.032 20.0355 0
469.57 20.0237 0
469.59 24.3094 0
467.052 24.3211 0
468.301 20.0296 0
469.58 22.1666 0
468.321 24.3153 0
467.042 22.1783 0
468.311 22.1724 0
469.57 20.0237 0
472.108 20.012 0
472.128 24.2977 0
469.59 24.3094 0
470.839 20.0179 0
472.118 22.1549 0
470.859 24.3035 0
469.58 22.1666 0
470.849 22.1607 0
472.108 20.012 0
474.646 20.0003 0
474.666 24.286 0
472.128 24.2977 0
473.377 20.0062 0
474.656 22.1431 0
473.397 24.2918 0
472.118 22.1549 0
473.387 22.149 0
474.646 20.0003 0
477.184 19.9886 0
477.204 24.2742 0
474.666 24.286 0
475.915 19.9944 0
477.194 22.1314 0
475.935 24.2801 0
474.656 22.1431 0
475.925 22.1373 0
477.184 19.9886 0
479.722 19.9768 0
479.742 24.2625 0
477.204 24.2742 0
478.453 19.9827 0
479.732 22.1196 0
478.473 24.2683 0
477.194 22.1314 0
478.463 22.1255 0
479.722 19.9768 0
482.261 19.9651 0
482.28 24.2507 0
479.742 24.2625 0
480.991 19.9709 0
482.27 22.1079 0
481.011 24.2566 0
479.732 22.1196 0
481.001 22.1138 0
482.261 19.9651 0
484.799 19.9533 0
484.818 24.239 0
482.28 24.2507 0
483.53 19.9592 0
484.808 22.0962 0
483.549 24.2449 0
482.27 22.1079 0
483.539 22.102 0
484.799 19.9533 0
487.337 19.9416 0
487.356 24.2272 0
484.818 24.239 0
486.068 19.9474 0
487.347 22.0844 0
486.087 24.2331 0
484.808 22.0962 0
486.078 22.0903 0
487.337 19.9416 0
489.875 19.9298 0
489.895 24.2155 0
487.356 24.2272 0
488.606 19.9357 0
489.885 22.0726 0
488.625 24.2214 0
487.347 22.0844 0
488.616 22.0785 0
489.875 19.9298 0
492.413 19.918 0
492.433 24.2037 0
489.895 24.2155 0
491.144 19.9239 0
492.423 22.0609 0
491.164 24.2096 0
489.885 22.0726 0
491.154 22.0668 0
492.413 19.918 0
494.951 19.9063 0
494.971 24.192 0
492.433 24.2037 0
493.682 19.9122 0
494.961 22.0491 0
493.702 24.1978 0
492.423 22.0609 0
493.692 22.055 0
494.951 19.9063 0
497.489 19.8945 0
497.509 24.1802 0
494.971 24.192 0
496.22 19.9004 0
497.499 22.0374 0
496.24 24.1861 0
494.961 22.0491 0
496.23 22.0432 0
497.489 19.8945 0
500.027 19.8828 0
500.047 24.1684 0
497.509 24.1802 0
498.758 19.8886 0
500.037 22.0256 0
498.778 24.1743 0
497.499 22.0374 0
498.768 22.0315 0
0 25.7143 0
2.53853 25.7142 0
2.53884 29.9996 0
0 30 0
1.26926 25.7142 0
2.53865 27.8569 0
1.26945 29.9998 0
0 27.8571 0
1.26931 27.857 0
2.53853 25.7142 0
5.0771 25.7139 0
5.07758 29.9993 0
2.53884 29.9996 0
3.80781 25.714 0
5.07732 27.8566 0
3.80821 29.9995 0
2.53865 27.8569 0
3.80799 27.8568 0
5.0771 25.7139 0
7.61567 25.7136 0
7.61632 29.999 0
5.07758 29.9993 0
6.34638 25.7138 0
7.61599 27.8563 0
6.34695 29.9992 0
5.07732 27.8566 0
6.34666 27.8565 0
7.61567 25.7136 0
10.1542 25.7131 0
10.1551 29.9986 0
7.61632 29.999 0
8.88495 25.7134 0
10.1546 27.8559 0
8.88569 29.9988 0
7.61599 27.8563 0
8.88532 27.8561 0
10.1542 25.7131 0
12.6928 25.7126 0
12.6938 29.998 0
10.1551 29.9986 0
11.4235 25.7129 0
12.6933 27.8553 0
11.4244 29.9983 0
10.1546 27.8559 0
11.424 27.8556 0
12.6928 25.7126 0
15.2314 25.7119 0
15.2326 29.9973 0
12.6938 29.998 0
13.9621 25.7123 0
15.232 27.8546 0
13.9632 29.9977 0
12.6933 27.8553 0
13.9626 27.855 0
15.2314 25.7119 0
17.7699 25.7112 0
17.7713 29.9966 0
15.2326 29.9973 0
16.5006 25.7116 0
17.7706 27.8539 0
16.5019 29.997 0
15.232 27.8546 0
16.5013 27.8543 0
17.7699 25.7112 0
20.3085 25.7103 0
20.3101 29.9957 0
17.7713 29.9966 0
19.0392 25.7107 0
20.3093 27.853 0
19.0407 29.9961 0
17.7706 27.8539 0
19.0399 27.8534 0
20.3085 25.7103 0
22.847 25.7093 0
22.8488 29.9947 0
20.3101 29.9957 0
21.5778 25.7098 0
22.8479 27.852 0
21.5794 29.9952 0
20.3093 27.853 0
21.5786 27.8525 0
22.847 25.7093 0
25.3856 25.7081 0
25.3876 29.9936 0
22.8488 29.9947 0
24.1163 25.7087 0
25.3866 27.8509 0
24.1182 29.9941 0
22.8479 27.852 0
24.1172 27.8514 0
25.3856 25.7081 0
27.9241 25.7069 0
27.9263 29.9923 0
25.3876 29.9936 0
26.6549 25.7075 0
27.9252 27.8496 0
26.6569 29.993 0
25.3866 27.8509 0
26.6559 27.8503 0
27.9241 25.7069 0
30.4627 25.7056 0
30.465 29.991 0
27.9263 29.9923 0
29.1934 25.7062 0
30.4638 27.8483 0
29.1957 29.9917 0
27.9252 27.8496 0
29.1945 27.849 0
30.4627 25.7056 0
33.0012 25.7041 0
33.0038 29.9895 0
30.465 29.991 0
31.7319 25.7048 0
33.0025 27.8468 0
31.7344 29.9903 0
30.4638 27.8483 0
31.7332 27.8476 0
33.0012 25.7041 0
35.5398 25.7025 0
35.5425 29.988 0
33.0038 29.9895 0
34.2705 25.7033 0
35.5411 27.8453 0
34.2731 29.9888 0
33.0025 27.8468 0
34.2718 27.8461 0
35.5398 25.7025 0
38.0783 25.7009 0
38.0812 29.9863 0
35.5425 29.988 0
36.809 25.7017 0
38.0797 27.8436 0
36.8118 29.9871 0
35.5411 27.8453 0
36.8104 27.8444 0
38.0783 25.7009 0
40.6168 25.6991 0
40.6199 29.9845 0
38.0812 29.9863 0
39.3476 25.7 0
40.6184 27.8418 0
39.3506 29.9854 0
38.0797 27.8436 0
39.3491 27.8427 0
40.6168 25.6991 0
43.1554 25.6972 0
43.1586 29.9826 0
40.6199 29.9845 0
41.8861 25.6981 0
43.157 27.8399 0
41.8893 29.9836 0
40.6184 27.8418 0
41.8877 27.8409 0
43.1554 25.6972 0
45.6939 25.6952 0
45.6974 29.9806 0
43.1586 29.9826 0
44.4246 25.6962 0
45.6956 27.8379 0
44.428 29.9816 0
43.157 27.8399 0
44.4263 27.8389 0
45.6939 25.6952 0
48.2324 25.693 0
48.2361 29.9785 0
45.6974 29.9806 0
46.9631 25.6941 0
48.2342 27.8358 0
46.9667 29.9796 0
45.6956 27.8379 0
46.9649 27.8368 0
48.2324 25.693 0
50.7709 25.6908 0
50.7748 29.9763 0
48.2361 29.9785 0
49.5017 25.6919 0
50.7728 27.8335 0
49.5054 29.9774 0
48.2342 27.8358 0
49.5035 27.8347 0
50.7709 25.6908 0
53.3095 25.6885 0
53.3135 29.9739 0
50.7748 29.9763 0
52.0402 25.6897 0
53.3115 27.8312 0
52.0441 29.9751 0
50.7728 27.8335 0
52.0422 27.8324 0
53.3095 25.6885 0
55.848 25.686 0
55.8522 29.9715 0
53.3135 29.9739 0
54.5787 25.6873 0
55.8501 27.8288 0
54.5828 29.9727 0
53.3115 27.8312 0
54.5808 27.83 0
55.848 25.686 0
58.3865 25.6835 0
58.3909 29.9689 0
55.8522 29.9715 0
57.1172 25.6848 0
58.3887 27.8262 0
57.1215 29.9702 0
55.8501 27.8288 0
57.1194 27.8275 0
58.3865 25.6835 0
60.925 25.6809 0
60.9296 29.9663 0
58.3909 29.9689 0
59.6557 25.6822 0
60.9273 27.8236 0
59.6602 29.9676 0
58.3887 27.8262 0
59.658 27.8249 0
60.925 25.6809 0
63.4635 25.6781 0
63.4682 29.9635 0
60.9296 29.9663 0
62.1943 25.6795 0
63.4659 27.8208 0
62.1989 29.9649 0
60.9273 27.8236 0
62.1966 27.8222 0
63.4635 25.6781 0
66.002 25.6752 0
66.0069 29.9607 0
63.4682 29.9635 0
64.7328 25.6767 0
66.0045 27.818 0
64.7376 29.9621 0
63.4659 27.8208 0
64.7352 27.8194 0
66.002 25.6752 0
68.5405 25.6723 0
68.5456 29.9577 0
66.0069 29.9607 0
67.2713 25.6738 0
68.5431 27.815 0
67.2763 29.9592 0
66.0045 27.818 0
67.2738 27.8165 0
68.5405 25.6723 0
71.079 25.6692 0
71.0843 29.9547 0
68.5456 29.9577 0
69.8098 25.6708 0
71.0817 27.812 0
69.8149 29.9562 0
68.5431 27.815 0
69.8124 27.8135 0
71.079 25.6692 0
73.6175 25.6661 0
73.6229 29.9515 0
71.0843 29.9547 0
72.3483 25.6676 0
73.6202 27.8088 0
72.3536 29.9531 0
71.0817 27.812 0
72.3509 27.8104 0
73.6175 25.6661 0
76.156 25.6628 0
76.1616 29.9482 0
73.6229 29.9515 0
74.8868 25.6644 0
76.1588 27.8055 0
74.8923 29.9499 0
73.6202 27.8088 0
74.8895 27.8072 0
76.156 25.6628 0
78.6945 25.6594 0
78.7003 29.9449 0
76.1616 29.9482 0
77.4253 25.6611 0
78.6974 27.8021 0
77.4309 29.9466 0
76.1588 27.8055 0
77.4281 27.8038 0
78.6945 25.6594 0
81.233 25.6559 0
81.2389 29.9414 0
78.7003 29.9449 0
79.9638 25.6577 0
81.236 27.7987 0
79.9696 29.9431 0
78.6974 27.8021 0
79.9667 27.8004 0
81.233 25.6559 0
83.7715 25.6524 0
83.7776 29.9378 0
81.2389 29.9414 0
82.5023 25.6542 0
83.7745 27.7951 0
82.5083 29.9396 0
81.236 27.7987 0
82.5053 27.7969 0
83.7715 25.6524 0
86.31 25.6487 0
86.3163 29.9342 0
83.7776 29.9378 0
85.0407 25.6505 0
86.3131 27.7914 0
85.0469 29.936 0
83.7745 27.7951 0
85.0438 27.7933 0
86.31 25.6487 0
88.8485 25.6449 0
88.8549 29.9304 0
86.3163 29.9342 0
87.5792 25.6468 0
88.8517 27.7877 0
87.5856 29.9323 0
86.3131 27.7914 0
87.5824 27.7896 0
88.8485 25.6449 0
91.387 25.6411 0
91.3935 29.9265 0
88.8549 29.9304 0
90.1177 25.643 0
91.3902 27.7838 0
90.1242 29.9285 0
88.8517 27.7877 0
90.121 27.7858 0
91.387 25.6411 0
93.9254 25.6371 0
93.9322 29.9226 0
91.3935 29.9265 0
92.6562 25.6391 0
93.9288 27.7798 0
92.6629 29.9246 0
91.3902 27.7838 0
92.6595 27.7818 0
93.9254 25.6371 0
96.4639 25.633 0
96.4708 29.9185 0
93.9322 29.9226 0
95.1947 25.6351 0
96.4674 27.7758 0
95.2015 29.9205 0
93.9288 27.7798 0
95.1981 27.7778 0
96.4639 25.633 0
99.0024 25.6289 0
99.0095 29.9143 0
96.4708 29.9185 0
97.7331 25.631 0
99.0059 27.7716 0
97.7401 29.9164 0
96.4674 27.7758 0
97.7366 27.7737 0
99.0024 25.6289 0
101.541 25.6246 0
101.548 29.9101 0
99.0095 29.9143 0
100.272 25.6268 0
101.544 27.7674 0
100.279 29.9122 0
99.0059 27.7716 0
100.275 27.7695 0
101.541 25.6246 0
104.079 25.6203 0
104.087 29.9058 0
101.548 29.9101 0
102.81 25.6225 0
104.083 27.763 0
102.817 29.9079 0
101.544 27.7674 0
102.814 27.7652 0
104.079 25.6203 0
106.618 25.6158 0
106.625 29.9013 0
104.087 29.9058 0
105.349 25.6181 0
106.622 27.7586 0
105.356 29.9035 0
104.083 27.763 0
105.352 27.7608 0
106.618 25.6158 0
109.156 25.6113 0
109.164 29.8968 0
106.625 29.9013 0
107.887 25.6136 0
109.16 27.7541 0
107.895 29.8991 0
106.622 27.7586 0
107.891 27.7563 0
109.156 25.6113 0
111.695 25.6067 0
111.703 29.8921 0
109.164 29.8968 0
110.425 25.609 0
111.699 27.7494 0
110.433 29.8945 0
109.16 27.7541 0
110.429 27.7517 0
111.695 25.6067 0
114.233 25.602 0
114.241 29.8874 0
111.703 29.8921 0
112.964 25.6043 0
114.237 27.7447 0
112.972 29.8898 0
111.699 27.7494 0
112.968 27.7471 0
114.233 25.602 0
116.772 25.5971 0
116.78 29.8826 0
114.241 29.8874 0
115.502 25.5996 0
116.776 27.7399 0
115.51 29.885 0
114.237 27.7447 0
115.506 27.7423 0
116.772 25.5971 0
119.31 25.5922 0
119.318 29.8777 0
116.78 29.8826 0
118.041 25.5947 0
119.314 27.735 0
118.049 29.8802 0
116.776 27.7399 0
118.045 27.7374 0
119.31 25.5922 0
121.849 25.5872 0
121.857 29.8727 0
119.318 29.8777 0
120.579 25.5897 0
121.853 27.73 0
120.588 29.8752 0
119.314 27.735 0
120.583 27.7325 0
121.849 25.5872 0
124.387 25.5822 0
124.396 29.8676 0
121.857 29.8727 0
123.118 25.5847 0
124.391 27.7249 0
123.126 29.8702 0
121.853 27.73 0
123.122 27.7275 0
124.387 25.5822 0
126.925 25.577 0
126.934 29.8625 0
124.396 29.8676 0
125.656 25.5796 0
126.93 27.7197 0
125.665 29.8651 0
124.391 27.7249 0
125.661 27.7223 0
126.925 25.577 0
129.464 25.5717 0
129.473 29.8572 0
126.934 29.8625 0
128.195 25.5744 0
129.468 27.7145 0
128.203 29.8598 0
126.93 27.7197 0
128.199 27.7171 0
129.464 25.5717 0
132.002 25.5664 0
132.011 29.8518 0
129.473 29.8572 0
130.733 25.569 0
132.007 27.7091 0
130.742 29.8545 0
129.468 27.7145 0
130.738 27.7118 0
132.002 25.5664 0
134.541 25.5609 0
134.55 29.8464 0
132.011 29.8518 0
133.271 25.5636 0
134.545 27.7037 0
133.281 29.8491 0
132.007 27.7091 0
133.276 27.7064 0
134.541 25.5609 0
137.079 25.5554 0
137.089 29.8409 0
134.55 29.8464 0
135.81 25.5582 0
137.084 27.6981 0
135.819 29.8436 0
134.545 27.7037 0
135.815 27.7009 0
137.079 25.5554 0
139.618 25.5498 0
139.627 29.8353 0
137.089 29.8409 0
138.348 25.5526 0
139.622 27.6925 0
138.358 29.8381 0
137.084 27.6981 0
138.353 27.6953 0
139.618 25.5498 0
142.156 25.5441 0
142.166 29.8296 0
139.627 29.8353 0
140.887 25.5469 0
142.161 27.6868 0
140.896 29.8324 0
139.622 27.6925 0
140.892 27.6897 0
142.156 25.5441 0
144.694 25.5383 0
144.704 29.8238 0
142.166 29.8296 0
143.425 25.5412 0
144.699 27.681 0
143.435 29.8267 0
142.161 27.6868 0
143.43 27.6839 0
144.694 25.5383 0
147.233 25.5324 0
147.243 29.8179 0
144.704 29.8238 0
145.964 25.5354 0
147.238 27.6752 0
145.974 29.8208 0
144.699 27.681 0
145.969 27.6781 0
147.233 25.5324 0
149.771 25.5265 0
149.781 29.8119 0
147.243 29.8179 0
148.502 25.5294 0
149.776 27.6692 0
148.512 29.8149 0
147.238 27.6752 0
148.507 27.6722 0
149.771 25.5265 0
152.31 25.5204 0
152.32 29.8059 0
149.781 29.8119 0
151.04 25.5234 0
152.315 27.6632 0
151.051 29.8089 0
149.776 27.6692 0
151.046 27.6662 0
152.31 25.5204 0
154.848 25.5143 0
154.858 29.7998 0
152.32 29.8059 0
153.579 25.5174 0
154.853 27.6571 0
153.589 29.8029 0
152.315 27.6632 0
153.584 27.6601 0
154.848 25.5143 0
157.386 25.5081 0
157.397 29.7936 0
154.858 29.7998 0
156.117 25.5112 0
157.392 27.6508 0
156.128 29.7967 0
154.853 27.6571 0
156.123 27.654 0
157.386 25.5081 0
159.925 25.5018 0
159.936 29.7873 0
157.397 29.7936 0
158.656 25.505 0
159.93 27.6446 0
158.666 29.7905 0
157.392 27.6508 0
158.661 27.6477 0
159.925 25.5018 0
162.463 25.4954 0
162.474 29.7809 0
159.936 29.7873 0
161.194 25.4986 0
162.469 27.6382 0
161.205 29.7841 0
159.93 27.6446 0
161.199 27.6414 0
162.463 25.4954 0
165.002 25.489 0
165.013 29.7745 0
162.474 29.7809 0
163.733 25.4922 0
165.007 27.6317 0
163.743 29.7777 0
162.469 27.6382 0
163.738 27.635 0
165.002 25.489 0
167.54 25.4825 0
167.551 29.768 0
165.013 29.7745 0
166.271 25.4857 0
167.546 27.6252 0
166.282 29.7712 0
165.007 27.6317 0
166.276 27.6285 0
167.54 25.4825 0
170.079 25.4759 0
170.09 29.7614 0
167.551 29.768 0
168.809 25.4792 0
170.084 27.6186 0
168.82 29.7647 0
167.546 27.6252 0
168.815 27.6219 0
170.079 25.4759 0
172.617 25.4692 0
172.628 29.7547 0
170.09 29.7614 0
171.348 25.4725 0
172.623 27.6119 0
171.359 29.758 0
170.084 27.6186 0
171.353 27.6153 0
172.617 25.4692 0
175.155 25.4624 0
175.167 29.7479 0
172.628 29.7547 0
173.886 25.4658 0
175.161 27.6052 0
173.898 29.7513 0
172.623 27.6119 0
173.892 27.6086 0
175.155 25.4624 0
177.694 25.4556 0
177.705 29.7411 0
175.167 29.7479 0
176.424 25.459 0
177.699 27.5983 0
176.436 29.7445 0
175.161 27.6052 0
176.43 27.6018 0
177.694 25.4556 0
180.232 25.4486 0
180.244 29.7341 0
177.705 29.7411 0
178.963 25.4521 0
180.238 27.5914 0
178.975 29.7376 0
177.699 27.5983 0
178.969 27.5949 0
180.232 25.4486 0
182.77 25.4417 0
182.782 29.7272 0
180.244 29.7341 0
181.501 25.4452 0
182.776 27.5844 0
181.513 29.7307 0
180.238 27.5914 0
181.507 27.5879 0
182.77 25.4417 0
185.309 25.4346 0
185.321 29.7201 0
182.782 29.7272 0
184.04 25.4381 0
185.315 27.5773 0
184.052 29.7236 0
182.776 27.5844 0
184.046 27.5809 0
185.309 25.4346 0
187.847 25.4274 0
187.859 29.7129 0
185.321 29.7201 0
186.578 25.431 0
187.853 27.5702 0
186.59 29.7165 0
185.315 27.5773 0
186.584 27.5738 0
187.847 25.4274 0
190.386 25.4202 0
190.398 29.7057 0
187.859 29.7129 0
189.116 25.4238 0
190.392 27.563 0
189.129 29.7093 0
187.853 27.5702 0
189.122 27.5666 0
190.386 25.4202 0
192.924 25.4129 0
192.936 29.6984 0
190.398 29.7057 0
191.655 25.4166 0
192.93 27.5557 0
191.667 29.7021 0
190.392 27.563 0
191.661 27.5593 0
192.924 25.4129 0
195.462 25.4056 0
195.475 29.6911 0
192.936 29.6984 0
194.193 25.4092 0
195.469 27.5483 0
194.206 29.6948 0
192.93 27.5557 0
194.199 27.552 0
195.462 25.4056 0
198.001 25.3981 0
198.013 29.6836 0
195.475 29.6911 0
196.731 25.4018 0
198.007 27.5409 0
196.744 29.6874 0
195.469 27.5483 0
196.738 27.5446 0
198.001 25.3981 0
200.539 25.3906 0
200.552 29.6761 0
198.013 29.6836 0
199.27 25.3944 0
200.545 27.5334 0
199.283 29.6799 0
198.007 27.5409 0
199.276 27.5371 0
200.539 25.3906 0
203.077 25.383 0
203.09 29.6685 0
200.552 29.6761 0
201.808 25.3868 0
203.084 27.5258 0
201.821 29.6723 0
200.545 27.5334 0
201.815 27.5296 0
203.077 25.383 0
205.616 25.3754 0
205.629 29.6609 0
203.09 29.6685 0
204.347 25.3792 0
205.622 27.5181 0
204.359 29.6647 0
203.084 27.5258 0
204.353 27.522 0
205.616 25.3754 0
208.154 25.3676 0
208.167 29.6532 0
205.629 29.6609 0
206.885 25.3715 0
208.161 27.5104 0
206.898 29.657 0
205.622 27.5181 0
206.891 27.5143 0
208.154 25.3676 0
210.692 25.3598 0
210.706 29.6454 0
208.167 29.6532 0
209.423 25.3638 0
210.699 27.5026 0
209.436 29.6493 0
208.161 27.5104 0
209.43 27.5065 0
210.692 25.3598 0
213.231 25.352 0
213.244 29.6375 0
210.706 29.6454 0
211.962 25.3559 0
213.237 27.4948 0
211.975 29.6414 0
210.699 27.5026 0
211.968 27.4987 0
213.231 25.352 0
215.769 25.3441 0
215.783 29.6296 0
213.244 29.6375 0
214.5 25.348 0
215.776 27.4868 0
214.513 29.6335 0
213.237 27.4948 0
214.507 27.4908 0
215.769 25.3441 0
218.308 25.3361 0
218.321 29.6216 0
215.783 29.6296 0
217.038 25.3401 0
218.314 27.4788 0
217.052 29.6256 0
215.776 27.4868 0
217.045 27.4828 0
218.308 25.3361 0
220.846 25.328 0
220.86 29.6135 0
218.321 29.6216 0
219.577 25.332 0
220.853 27.4708 0
219.59 29.6176 0
218.314 27.4788 0
219.583 27.4748 0
220.846 25.328 0
223.384 25.3199 0
223.398 29.6054 0
220.86 29.6135 0
222.115 25.3239 0
223.391 27.4626 0
222.129 29.6095 0
220.853 27.4708 0
222.122 27.4667 0
223.384 25.3199 0
225.923 25.3117 0
225.936 29.5972 0
223.398 29.6054 0
224.653 25.3158 0
225.929 27.4544 0
224.667 29.6013 0
223.391 27.4626 0
224.66 27.4585 0
225.923 25.3117 0
228.461 25.3034 0
228.475 29.5889 0
225.936 29.5972 0
227.192 25.3075 0
228.468 27.4462 0
227.206 29.5931 0
225.929 27.4544 0
227.199 27.4503 0
228.461 25.3034 0
230.999 25.2951 0
231.013 29.5806 0
228.475 29.5889 0
229.73 25.2992 0
231.006 27.4378 0
229.744 29.5848 0
228.468 27.4462 0
229.737 27.442 0
230.999 25.2951 0
233.538 25.2867 0
233.552 29.5722 0
231.013 29.5806 0
232.268 25.2909 0
233.545 27.4294 0
232.283 29.5764 0
231.006 27.4378 0
232.275 27.4336 0
233.538 25.2867 0
236.076 25.2782 0
236.09 29.5637 0
233.552 29.5722 0
234.807 25.2825 0
236.083 27.421 0
234.821 29.568 0
233.545 27.4294 0
234.814 27.4252 0
236.076 25.2782 0
238.614 25.2697 0
238.629 29.5552 0
236.09 29.5637 0
237.345 25.274 0
238.621 27.4125 0
237.359 29.5595 0
236.083 27.421 0
237.352 27.4167 0
238.614 25.2697 0
241.152 25.2611 0
241.167 29.5466 0
238.629 29.5552 0
239.883 25.2654 0
241.16 27.4039 0
239.898 29.5509 0
238.621 27.4125 0
239.891 27.4082 0
241.152 25.2611 0
243.691 25.2525 0
243.705 29.538 0
241.167 29.5466 0
242.422 25.2568 0
243.698 27.3952 0
242.436 29.5423 0
241.16 27.4039 0
242.429 27.3996 0
243.691 25.2525 0
246.229 25.2438 0
246.244 29.5293 0
243.705 29.538 0
244.96 25.2481 0
246.236 27.3865 0
244.975 29.5337 0
243.698 27.3952 0
244.967 27.3909 0
246.229 25.2438 0
248.767 25.235 0
248.782 29.5205 0
246.244 29.5293 0
247.498 25.2394 0
248.775 27.3778 0
247.513 29.5249 0
246.236 27.3865 0
247.506 27.3822 0
248.767 25.235 0
251.306 25.2262 0
251.321 29.5117 0
248.782 29.5205 0
250.037 25.2306 0
251.313 27.3689 0
250.051 29.5161 0
248.775 27.3778 0
250.044 27.3734 0
251.306 25.2262 0
253.844 25.2173 0
253.859 29.5028 0
251.321 29.5117 0
252.575 25.2217 0
253.852 27.3601 0
252.59 29.5073 0
251.313 27.3689 0
252.582 27.3645 0
253.844 25.2173 0
256.382 25.2083 0
256.397 29.4939 0
253.859 29.5028 0
255.113 25.2128 0
256.39 27.3511 0
255.128 29.4984 0
253.852 27.3601 0
255.121 27.3556 0
256.382 25.2083 0
258.921 25.1993 0
258.936 29.4849 0
256.397 29.4939 0
257.651 25.2039 0
258.928 27.3421 0
257.667 29.4894 0
256.39 27.3511 0
257.659 27.3466 0
258.921 25.1993 0
261.459 25.1903 0
261.474 29.4758 0
258.936 29.4849 0
260.19 25.1948 0
261.467 27.3331 0
260.205 29.4804 0
258.928 27.3421 0
260.197 27.3376 0
261.459 25.1903 0
263.997 25.1812 0
264.013 29.4667 0
261.474 29.4758 0
262.728 25.1857 0
264.005 27.3239 0
262.743 29.4713 0
261.467 27.3331 0
262.736 27.3285 0
263.997 25.1812 0
266.536 25.172 0
266.551 29.4575 0
264.013 29.4667 0
265.266 25.1766 0
266.543 27.3148 0
265.282 29.4621 0
264.005 27.3239 0
265.274 27.3194 0
266.536 25.172 0
269.074 25.1628 0
269.089 29.4483 0
266.551 29.4575 0
267.805 25.1674 0
269.082 27.3055 0
267.82 29.4529 0
266.543 27.3148 0
267.812 27.3102 0
269.074 25.1628 0
271.612 25.1535 0
271.628 29.439 0
269.089 29.4483 0
270.343 25.1581 0
271.62 27.2963 0
270.359 29.4437 0
269.082 27.3055 0
270.351 27.3009 0
271.612 25.1535 0
274.15 25.1441 0
274.166 29.4297 0
271.628 29.439 0
272.881 25.1488 0
274.158 27.2869 0
272.897 29.4344 0
271.62 27.2963 0
272.889 27.2916 0
274.15 25.1441 0
276.689 25.1348 0
276.705 29.4203 0
274.166 29.4297 0
275.42 25.1395 0
276.697 27.2775 0
275.435 29.425 0
274.158 27.2869 0
275.427 27.2822 0
276.689 25.1348 0
279.227 25.1253 0
279.243 29.4109 0
276.705 29.4203 0
277.958 25.13 0
279.235 27.2681 0
277.974 29.4156 0
276.697 27.2775 0
277.966 27.2728 0
279.227 25.1253 0
281.765 25.1158 0
281.781 29.4014 0
279.243 29.4109 0
280.496 25.1206 0
281.773 27.2586 0
280.512 29.4061 0
279.235 27.2681 0
280.504 27.2633 0
281.765 25.1158 0
284.303 25.1063 0
284.32 29.3918 0
281.781 29.4014 0
283.034 25.111 0
284.312 27.249 0
283.05 29.3966 0
281.773 27.2586 0
283.042 27.2538 0
284.303 25.1063 0
286.842 25.0967 0
286.858 29.3822 0
284.32 29.3918 0
285.573 25.1015 0
286.85 27.2394 0
285.589 29.387 0
284.312 27.249 0
285.581 27.2442 0
286.842 25.0967 0
289.38 25.087 0
289.396 29.3726 0
286.858 29.3822 0
288.111 25.0918 0
289.388 27.2298 0
288.127 29.3774 0
286.85 27.2394 0
288.119 27.2346 0
289.38 25.087 0
291.918 25.0773 0
291.935 29.3629 0
289.396 29.3726 0
290.649 25.0822 0
291.926 27.2201 0
290.665 29.3677 0
289.388 27.2298 0
290.657 27.2249 0
291.918 25.0773 0
294.457 25.0676 0
294.473 29.3531 0
291.935 29.3629 0
293.187 25.0724 0
294.465 27.2103 0
293.204 29.358 0
291.926 27.2201 0
293.196 27.2152 0
294.457 25.0676 0
296.995 25.0578 0
297.011 29.3433 0
294.473 29.3531 0
295.726 25.0627 0
297.003 27.2005 0
295.742 29.3482 0
294.465 27.2103 0
295.734 27.2054 0
296.995 25.0578 0
299.533 25.0479 0
299.55 29.3335 0
297.011 29.3433 0
298.264 25.0528 0
299.541 27.1907 0
298.281 29.3384 0
297.003 27.2005 0
298.272 27.1956 0
299.533 25.0479 0
302.071 25.038 0
302.088 29.3236 0
299.55 29.3335 0
300.802 25.043 0
302.08 27.1808 0
300.819 29.3285 0
299.541 27.1907 0
300.811 27.1857 0
302.071 25.038 0
304.61 25.0281 0
304.626 29.3136 0
302.088 29.3236 0
303.34 25.033 0
304.618 27.1708 0
303.357 29.3186 0
302.08 27.1808 0
303.349 27.1758 0
304.61 25.0281 0
307.148 25.0181 0
307.165 29.3036 0
304.626 29.3136 0
305.879 25.0231 0
307.156 27.1609 0
305.896 29.3086 0
304.618 27.1708 0
305.887 27.1659 0
307.148 25.0181 0
309.686 25.008 0
309.703 29.2936 0
307.165 29.3036 0
308.417 25.0131 0
309.695 27.1508 0
308.434 29.2986 0
307.156 27.1609 0
308.425 27.1558 0
309.686 25.008 0
312.224 24.998 0
312.241 29.2835 0
309.703 29.2936 0
310.955 25.003 0
312.233 27.1407 0
310.972 29.2886 0
309.695 27.1508 0
310.964 27.1458 0
312.224 24.998 0
314.763 24.9878 0
314.78 29.2734 0
312.241 29.2835 0
313.493 24.9929 0
314.771 27.1306 0
313.51 29.2785 0
312.233 27.1407 0
313.502 27.1357 0
314.763 24.9878 0
317.301 24.9777 0
317.318 29.2632 0
314.78 29.2734 0
316.032 24.9827 0
317.309 27.1204 0
316.049 29.2683 0
314.771 27.1306 0
316.04 27.1255 0
317.301 24.9777 0
319.839 24.9674 0
319.856 29.253 0
317.318 29.2632 0
318.57 24.9726 0
319.848 27.1102 0
318.587 29.2581 0
317.309 27.1204 0
318.578 27.1153 0
319.839 24.9674 0
322.377 24.9572 0
322.395 29.2428 0
319.856 29.253 0
321.108 24.9623 0
322.386 27.1 0
321.125 29.2479 0
319.848 27.1102 0
321.117 27.1051 0
322.377 24.9572 0
324.915 24.9469 0
324.933 29.2325 0
322.395 29.2428 0
323.646 24.952 0
324.924 27.0897 0
323.664 29.2376 0
322.386 27.1 0
323.655 27.0948 0
324.915 24.9469 0
327.454 24.9365 0
327.471 29.2221 0
324.933 29.2325 0
326.185 24.9417 0
327.462 27.0793 0
326.202 29.2273 0
324.924 27.0897 0
326.193 27.0845 0
327.454 24.9365 0
329.992 24.9262 0
330.009 29.2117 0
327.471 29.2221 0
328.723 24.9314 0
330.001 27.0689 0
328.74 29.2169 0
327.462 27.0793 0
328.732 27.0741 0
329.992 24.9262 0
332.53 24.9157 0
332.548 29.2013 0
330.009 29.2117 0
331.261 24.9209 0
332.539 27.0585 0
331.279 29.2065 0
330.001 27.0689 0
331.27 27.0637 0
332.53 24.9157 0
335.068 24.9053 0
335.086 29.1908 0
332.548 29.2013 0
333.799 24.9105 0
335.077 27.0481 0
333.817 29.1961 0
332.539 27.0585 0
333.808 27.0533 0
335.068 24.9053 0
337.607 24.8948 0
337.624 29.1803 0
335.086 29.1908 0
336.337 24.9 0
337.615 27.0376 0
336.355 29.1856 0
335.077 27.0481 0
336.346 27.0428 0
337.607 24.8948 0
340.145 24.8842 0
340.163 29.1698 0
337.624 29.1803 0
338.876 24.8895 0
340.154 27.027 0
338.893 29.1751 0
337.615 27.0376 0
338.885 27.0323 0
340.145 24.8842 0
342.683 24.8736 0
342.701 29.1592 0
340.163 29.1698 0
341.414 24.8789 0
342.692 27.0164 0
341.432 29.1645 0
340.154 27.027 0
341.423 27.0217 0
342.683 24.8736 0
345.221 24.863 0
345.239 29.1486 0
342.701 29.1592 0
343.952 24.8683 0
345.23 27.0058 0
343.97 29.1539 0
342.692 27.0164 0
343.961 27.0111 0
345.221 24.863 0
347.759 24.8524 0
347.777 29.138 0
345.239 29.1486 0
346.49 24.8577 0
347.768 26.9952 0
346.508 29.1433 0
345.23 27.0058 0
346.499 27.0005 0
347.759 24.8524 0
350.298 24.8417 0
350.316 29.1273 0
347.777 29.138 0
349.028 24.847 0
350.307 26.9845 0
349.047 29.1326 0
347.768 26.9952 0
349.037 26.9898 0
350.298 24.8417 0
352.836 24.831 0
352.854 29.1165 0
350.316 29.1273 0
351.567 24.8363 0
352.845 26.9738 0
351.585 29.1219 0
350.307 26.9845 0
351.576 26.9791 0
352.836 24.831 0
355.374 24.8202 0
355.392 29.1058 0
352.854 29.1165 0
354.105 24.8256 0
355.383 26.963 0
354.123 29.1112 0
352.845 26.9738 0
354.114 26.9684 0
355.374 24.8202 0
357.912 24.8094 0
357.93 29.095 0
355.392 29.1058 0
356.643 24.8148 0
357.921 26.9522 0
356.661 29.1004 0
355.383 26.963 0
356.652 26.9576 0
357.912 24.8094 0
360.45 24.7986 0
360.469 29.0842 0
357.93 29.095 0
359.181 24.804 0
360.459 26.9414 0
359.2 29.0896 0
357.921 26.9522 0
359.19 26.9468 0
360.45 24.7986 0
362.989 24.7877 0
363.007 29.0733 0
360.469 29.0842 0
361.719 24.7931 0
362.998 26.9305 0
361.738 29.0787 0
360.459 26.9414 0
361.729 26.9359 0
362.989 24.7877 0
365.527 24.7768 0
365.545 29.0624 0
363.007 29.0733 0
364.258 24.7823 0
365.536 26.9196 0
364.276 29.0679 0
362.998 26.9305 0
364.267 26.9251 0
365.527 24.7768 0
368.065 24.7659 0
368.083 29.0515 0
365.545 29.0624 0
366.796 24.7713 0
368.074 26.9087 0
366.814 29.0569 0
365.536 26.9196 0
366.805 26.9141 0
368.065 24.7659 0
370.603 24.7549 0
370.622 29.0405 0
368.083 29.0515 0
369.334 24.7604 0
370.612 26.8977 0
369.352 29.046 0
368.074 26.9087 0
369.343 26.9032 0
370.603 24.7549 0
373.141 24.7439 0
373.16 29.0295 0
370.622 29.0405 0
371.872 24.7494 0
373.151 26.8867 0
371.891 29.035 0
370.612 26.8977 0
371.881 26.8922 0
373.141 24.7439 0
375.679 24.7329 0
375.698 29.0185 0
373.16 29.0295 0
374.41 24.7384 0
375.689 26.8757 0
374.429 29.024 0
373.151 26.8867 0
374.42 26.8812 0
375.679 24.7329 0
378.218 24.7219 0
378.236 29.0075 0
375.698 29.0185 0
376.949 24.7274 0
378.227 26.8647 0
376.967 29.013 0
375.689 26.8757 0
376.958 26.8702 0
378.218 24.7219 0
380.756 24.7108 0
380.774 28.9964 0
378.236 29.0075 0
379.487 24.7163 0
380.765 26.8536 0
379.505 29.0019 0
378.227 26.8647 0
379.496 26.8591 0
380.756 24.7108 0
383.294 24.6997 0
383.313 28.9853 0
380.774 28.9964 0
382.025 24.7052 0
383.303 26.8425 0
382.044 28.9908 0
380.765 26.8536 0
382.034 26.848 0
383.294 24.6997 0
385.832 24.6885 0
385.851 28.9741 0
383.313 28.9853 0
384.563 24.6941 0
385.841 26.8313 0
384.582 28.9797 0
383.303 26.8425 0
384.572 26.8369 0
385.832 24.6885 0
388.37 24.6774 0
388.389 28.963 0
385.851 28.9741 0
387.101 24.683 0
388.38 26.8202 0
387.12 28.9686 0
385.841 26.8313 0
387.111 26.8258 0
388.37 24.6774 0
390.908 24.6662 0
390.927 28.9518 0
388.389 28.963 0
389.639 24.6718 0
390.918 26.809 0
389.658 28.9574 0
388.38 26.8202 0
389.649 26.8146 0
390.908 24.6662 0
393.447 24.655 0
393.466 28.9406 0
390.927 28.9518 0
392.177 24.6606 0
393.456 26.7978 0
392.196 28.9462 0
390.918 26.809 0
392.187 26.8034 0
393.447 24.655 0
395.985 24.6437 0
396.004 28.9293 0
393.466 28.9406 0
394.716 24.6494 0
395.994 26.7865 0
394.735 28.935 0
393.456 26.7978 0
394.725 26.7922 0
395.985 24.6437 0
398.523 24.6325 0
398.542 28.9181 0
396.004 28.9293 0
397.254 24.6381 0
398.532 26.7753 0
397.273 28.9237 0
395.994 26.7865 0
397.263 26.7809 0
398.523 24.6325 0
401.061 24.6212 0
401.08 28.9068 0
398.542 28.9181 0
399.792 24.6268 0
401.071 26.764 0
399.811 28.9124 0
398.532 26.7753 0
399.801 26.7696 0
401.061 24.6212 0
403.599 24.6099 0
403.618 28.8955 0
401.08 28.9068 0
402.33 24.6155 0
403.609 26.7527 0
402.349 28.9011 0
401.071 26.764 0
402.34 26.7583 0
403.599 24.6099 0
406.137 24.5985 0
406.156 28.8841 0
403.618 28.8955 0
404.868 24.6042 0
406.147 26.7413 0
404.887 28.8898 0
403.609 26.7527 0
404.878 26.747 0
406.137 24.5985 0
408.675 24.5872 0
408.695 28.8728 0
406.156 28.8841 0
407.406 24.5928 0
408.685 26.73 0
407.426 28.8785 0
406.147 26.7413 0
407.416 26.7357 0
408.675 24.5872 0
411.214 24.5758 0
411.233 28.8614 0
408.695 28.8728 0
409.945 24.5815 0
411.223 26.7186 0
409.964 28.8671 0
408.685 26.73 0
409.954 26.7243 0
411.214 24.5758 0
413.752 24.5644 0
413.771 28.85 0
411.233 28.8614 0
412.483 24.5701 0
413.761 26.7072 0
412.502 28.8557 0
411.223 26.7186 0
412.492 26.7129 0
413.752 24.5644 0
416.29 24.553 0
416.309 28.8386 0
413.771 28.85 0
415.021 24.5587 0
416.299 26.6958 0
415.04 28.8443 0
413.761 26.7072 0
415.03 26.7015 0
416.29 24.553 0
418.828 24.5415 0
418.847 28.8271 0
416.309 28.8386 0
417.559 24.5472 0
418.838 26.6843 0
417.578 28.8329 0
416.299 26.6958 0
417.569 26.6901 0
418.828 24.5415 0
421.366 24.5301 0
421.385 28.8157 0
418.847 28.8271 0
420.097 24.5358 0
421.376 26.6729 0
420.116 28.8214 0
418.838 26.6843 0
420.107 26.6786 0
421.366 24.5301 0
423.904 24.5186 0
423.924 28.8042 0
421.385 28.8157 0
422.635 24.5243 0
423.914 26.6614 0
422.655 28.8099 0
421.376 26.6729 0
422.645 26.6671 0
423.904 24.5186 0
426.442 24.5071 0
426.462 28.7927 0
423.924 28.8042 0
425.173 24.5128 0
426.452 26.6499 0
425.193 28.7984 0
423.914 26.6614 0
425.183 26.6556 0
426.442 24.5071 0
428.98 24.4956 0
429 28.7812 0
426.462 28.7927 0
427.711 24.5013 0
428.99 26.6384 0
427.731 28.7869 0
426.452 26.6499 0
427.721 26.6441 0
428.98 24.4956 0
431.519 24.484 0
431.538 28.7697 0
429 28.7812 0
430.25 24.4898 0
431.528 26.6268 0
430.269 28.7754 0
428.99 26.6384 0
430.259 26.6326 0
431.519 24.484 0
434.057 24.4725 0
434.076 28.7581 0
431.538 28.7697 0
432.788 24.4783 0
434.066 26.6153 0
432.807 28.7639 0
431.528 26.6268 0
432.797 26.6211 0
434.057 24.4725 0
436.595 24.4609 0
436.614 28.7465 0
434.076 28.7581 0
435.326 24.4667 0
436.605 26.6037 0
435.345 28.7523 0
434.066 26.6153 0
435.335 26.6095 0
436.595 24.4609 0
439.133 24.4493 0
439.152 28.735 0
436.614 28.7465 0
437.864 24.4551 0
439.143 26.5921 0
437.883 28.7408 0
436.605 26.6037 0
437.874 26.5979 0
439.133 24.4493 0
441.671 24.4377 0
441.691 28.7234 0
439.152 28.735 0
440.402 24.4435 0
441.681 26.5806 0
440.422 28.7292 0
439.143 26.5921 0
440.412 26.5864 0
441.671 24.4377 0
444.209 24.4261 0
444.229 28.7118 0
441.691 28.7234 0
442.94 24.4319 0
444.219 26.5689 0
442.96 28.7176 0
441.681 26.5806 0
442.95 26.5747 0
444.209 24.4261 0
446.747 24.4145 0
446.767 28.7001 0
444.229 28.7118 0
445.478 24.4203 0
446.757 26.5573 0
445.498 28.706 0
444.219 26.5689 0
445.488 26.5631 0
446.747 24.4145 0
449.285 24.4029 0
449.305 28.6885 0
446.767 28.7001 0
448.016 24.4087 0
449.295 26.5457 0
448.036 28.6943 0
446.757 26.5573 0
448.026 26.5515 0
449.285 24.4029 0
451.823 24.3912 0
451.843 28.6769 0
449.305 28.6885 0
450.554 24.397 0
451.833 26.534 0
450.574 28.6827 0
449.295 26.5457 0
450.564 26.5399 0
451.823 24.3912 0
454.361 24.3796 0
454.381 28.6652 0
451.843 28.6769 0
453.092 24.3854 0
454.371 26.5224 0
453.112 28.671 0
451.833 26.534 0
453.102 26.5282 0
454.361 24.3796 0
456.9 24.3679 0
456.919 28.6535 0
454.381 28.6652 0
455.631 24.3737 0
456.909 26.5107 0
455.65 28.6594 0
454.371 26.5224 0
455.64 26.5166 0
456.9 24.3679 0
459.438 24.3562 0
459.457 28.6419 0
456.919 28.6535 0
458.169 24.3621 0
459.448 26.499 0
458.188 28.6477 0
456.909 26.5107 0
458.178 26.5049 0
459.438 24.3562 0
461.976 24.3445 0
461.995 28.6302 0
459.457 28.6419 0
460.707 24.3504 0
461.986 26.4873 0
460.726 28.636 0
459.448 26.499 0
460.717 26.4932 0
461.976 24.3445 0
464.514 24.3328 0
464.534 28.6185 0
461.995 28.6302 0
463.245 24.3387 0
464.524 26.4756 0
463.265 28.6243 0
461.986 26.4873 0
463.255 26.4815 0
464.514 24.3328 0
467.052 24.3211 0
467.072 28.6068 0
464.534 28.6185 0
465.783 24.327 0
467.062 26.4639 0
465.803 28.6126 0
464.524 26.4756 0
465.793 26.4698 0
467.052 24.3211 0
469.59 24.3094 0
469.61 28.5951 0
467.072 28.6068 0
468.321 24.3153 0
469.6 26.4522 0
468.341 28.6009 0
467.062 26.4639 0
468.331 26.4581 0
469.59 24.3094 0
472.128 24.2977 0
472.148 28.5833 0
469.61 28.5951 0
470.859 24.3035 0
472.138 26.4405 0
470.879 28.5892 0
469.6 26.4522 0
470.869 26.4464 0
472.128 24.2977 0
474.666 24.286 0
474.686 28.5716 0
472.148 28.5833 0
473.397 24.2918 0
474.676 26.4288 0
473.417 28.5775 0
472.138 26.4405 0
473.407 26.4346 0
474.666 24.286 0
477.204 24.2742 0
477.224 28.5599 0
474.686 28.5716 0
475.935 24.2801 0
477.214 26.417 0
475.955 28.5657 0
474.676 26.4288 0
475.945 26.4229 0
477.204 24.2742 0
479.742 24.2625 0
479.762 28.5481 0
477.224 28.5599 0
478.473 24.2683 0
479.752 26.4053 0
478.493 28.554 0
477.214 26.417 0
478.483 26.4112 0
479.742 24.2625 0
482.28 24.2507 0
482.3 28.5364 0
479.762 28.5481 0
481.011 24.2566 0
482.29 26.3936 0
481.031 28.5423 0
479.752 26.4053 0
481.021 26.3994 0
482.28 24.2507 0
484.818 24.239 0
484.838 28.5246 0
482.3 28.5364 0
483.549 24.2449 0
484.828 26.3818 0
483.569 28.5305 0
482.29 26.3936 0
483.559 26.3877 0
484.818 24.239 0
487.356 24.2272 0
487.376 28.5129 0
484.838 28.5246 0
486.087 24.2331 0
487.366 26.3701 0
486.107 28.5188 0
484.828 26.3818 0
486.097 26.3759 0
487.356 24.2272 0
489.895 24.2155 0
489.914 28.5011 0
487.376 28.5129 0
488.625 24.2214 0
489.904 26.3583 0
488.645 28.507 0
487.366 26.3701 0
488.635 26.3642 0
489.895 24.2155 0
492.433 24.2037 0
492.452 28.4894 0
489.914 28.5011 0
491.164 24.2096 0
492.442 26.3465 0
491.183 28.4953 0
489.904 26.3583 0
491.173 26.3524 0
492.433 24.2037 0
494.971 24.192 0
494.99 28.4776 0
492.452 28.4894 0
493.702 24.1978 0
494.981 26.3348 0
493.721 28.4835 0
492.442 26.3465 0
493.712 26.3407 0
494.971 24.192 0
497.509 24.1802 0
497.529 28.4658 0
494.99 28.4776 0
496.24 24.1861 0
497.519 26.323 0
496.259 28.4717 0
494.981 26.3348 0
496.25 26.3289 0
497.509 24.1802 0
500.047 24.1684 0
500.067 28.454 0
497.529 28.4658 0
498.778 24.1743 0
500.057 26.3112 0
498.798 28.4599 0
497.519 26.323 0
498.788 26.3171 0
      </DataArray>
    </Points>
    <Cells>
      <DataArray type="Int32" Name="connectivity" format="ascii">
0 1 2 3 4 5 6 7 8 
9 10 11 12 13 14 15 16 17 
18 19 20 21 22 23 24 25 26 
27 28 29 30 31 32 33 34 35 
36 37 38 39 40 41 42 43 44 
45 46 47 48 49 50 51 52 53 
54 55 56 57 58 59 60 61 62 
63 64 65 66 67 68 69 70 71 
72 73 74 75 76 77 78 79 80 
81 82 83 84 85 86 87 88 89 
90 91 92 93 94 95 96 97 98 
99 100 101 102 103 104 105 106 107 
108 109 110 111 112 113 114 115 116 
117 118 119 120 121 122 123 124 125 
126 127 128 129 130 131 132 133 134 
135 136 137 138 139 140 141 142 143 
144 145 146 147 148 149 150 151 152 
153 154 155 156 157 158 159 160 161 
162 163 164 165 166 167 168 169 170 
171 172 173 174 175 176 177 178 179 
180 181 182 183 184 185 186 187 188 
189 190 191 192 193 194 195 196 197 
198 199 200 201 202 203 204 205 206 
207 208 209 210 211 212 213 214 215 
216 217 218 219 220 221 222 223 224 
225 226 227 228 229 230 231 232 233 
234 235 236 237 238 239 240 241 242 
243 244 245 246 247 248 249 250 251 
252 253 254 255 256 257 258 259 260 
261 262 263 264 265 266 267 268 269 
270 271 272 273 274 275 276 277 278 
279 280 281 282 283 284 285 286 287 
288 289 290 291 292 293 294 295 296 
297 298 299 300 301 302 303 304 305 
306 307 308 309 310 311 312 313 314 
315 316 317 318 319 320 321 322 323 
324 325 326 327 328 329 330 331 332 
333 334 335 336 337 338 339 340 341 
342 343 344 345 346 347 348 349 350 
351 352 353 354 355 356 357 358 359 
360 361 362 363 364 365 366 367 368 
369 370 371 372 373 374 375 376 377 
378 379 380 381 382 383 384 385 386 
387 388 389 390 391 392 393 394 395 
396 397 398 399 400 401 402 403 404 
405 406 407 408 409 410 411 412 413 
414 415 416 417 418 419 420 421 422 
423 424 425 426 427 428 429 430 431 
432 433 434 435 436 437 438 439 440 
441 442 443 444 445 446 447 448 449 
450 451 452 453 454 455 456 457 458 
459 460 461 462 463 464 465 466 467 
468 469 470 471 472 473 474 475 476 
477 478 479 480 481 482 483 484 485 
486 487 488 489 490 491 492 493 494 
495 496 497 498 499 500 501 502 503 
504 505 506 507 508 509 510 511 512 
513 514 515 516 517 518 519 520 521 
522 523 524 525 526 527 528 529 530 
531 532 533 534 535 536 537 538 539 
540 541 542 543 544 545 546 547 548 
549 550 551 552 553 554 555 556 557 
558 559 560 561 562 563 564 565 566 
567 568 569 570 571 572 573 574 575 
576 577 578 579 580 581 582 583 584 
585 586 587 588 589 590 591 592 593 
594 595 596 597 598 599 600 601 602 
603 604 605 606 607 608 609 610 611 
612 613 614 615 616 617 618 619 620 
621 622 623 624 625 626 627 628 629 
630 631 632 633 634 635 636 637 638 
639 640 641 642 643 644 645 646 647 
648 649 650 651 652 653 654 655 656 
657 658 659 660 661 662 663 664 665 
666 667 668 669 670 671 672 673 674 
675 676 677 678 679 680 681 682 683 
684 685 686 687 688 689 690 691 692 
693 694 695 696 697 698 699 700 701 
702 703 704 705 706 707 708 709 710 
711 712 713 714 715 716 717 718 719 
720 721 722 723 724 725 726 727 728 
729 730 731 732 733 734 735 736 737 
738 739 740 741 742 743 744 745 746 
747 748 749 750 751 752 753 754 755 
756 757 758 759 760 761 762 763 764 
765 766 767 768 769 770 771 772 773 
774 775 776 777 778 779 780 781 782 
783 784 785 786 787 788 789 790 791 
792 793 794 795 796 797 798 799 800 
801 802 803 804 805 806 807 808 809 
810 811 812 813 814 815 816 817 818 
819 820 821 822 823 824 825 826 827 
828 829 830 831 832 833 834 835 836 
837 838 839 840 841 842 843 844 845 
846 847 848 849 850 851 852 853 854 
855 856 857 858 859 860 861 862 863 
864 865 866 867 868 869 870 871 872 
873 874 875 876 877 878 879 880 881 
882 883 884 885 886 887 888 889 890 
891 892 893 894 895 896 897 898 899 
900 901 902 903 904 905 906 907 908 
909 910 911 912 913 914 915 916 917 
918 919 920 921 922 923 924 925 926 
927 928 929 930 931 932 933 934 935 
936 937 938 939 940 941 942 943 944 
945 946 947 948 949 950 951 952 953 
954 955 956 957 958 959 960 961 962 
963 964 965 966 967 968 969 970 971 
972 973 974 975 976 977 978 979 980 
981 982 983 984 985 986 987 988 989 
990 991 992 993 994 995 996 997 998 
999 1000 1001 1002 1003 1004 1005 1006 1007 
1008 1009 1010 1011 1012 1013 1014 1015 1016 
1017 1018 1019 1020 1021 1022 1023 1024 1025 
1026 1027 1028 1029 1030 1031 1032 1033 1034 
1035 1036 1037 1038 1039 1040 1041 1042 1043 
1044 1045 1046 1047 1048 1049 1050 1051 1052 
1053 1054 1055 1056 1057 1058 1059 1060 1061 
1062 1063 1064 1065 1066 1067 1068 1069 1070 
1071 1072 1073 1074 1075 1076 1077 1078 1079 
1080 1081 1082 1083 1084 1085 1086 1087 1088 
1089 1090 1091 1092 1093 1094 1095 1096 1097 
1098 1099 1100 1101 1102 1103 1104 1105 1106 
1107 1108 1109 1110 1111 1112 1113 1114 1115 
1116 1117 1118 1119 1120 1121 1122 1123 1124 
1125 1126 1127 1128 1129 1130 1131 1132 1133 
1134 1135 1136 1137 1138 1139 1140 1141 1142 
1143 1144 1145 1146 1147 1148 1149 1150 1151 
1152 1153 1154 1155 1156 1157 1158 1159 1160 
1161 1162 1163 1164 1165 1166 1167 1168 1169 
1170 1171 1172 1173 1174 1175 1176 1177 1178 
1179 1180 1181 1182 1183 1184 1185 1186 1187 
1188 1189 1190 1191 1192 1193 1194 1195 1196 
1197 1198 1199 1200 1201 1202 1203 1204 1205 
1206 1207 1208 1209 1210 1211 1212 1213 1214 
1215 1216 1217 1218 1219 1220 1221 1222 1223 
1224 1225 1226 1227 1228 1229 1230 1231 1232 
1233 1234 1235 1236 1237 1238 1239 1240 1241 
1242 1243 1244 1245 1246 1247 1248 1249 1250 
1251 1252 1253 1254 1255 1256 1257 1258 1259 
1260 1261 1262 1263 1264 1265 1266 1267 1268 
1269 1270 1271 1272 1273 1274 1275 1276 1277 
1278 1279 1280 1281 1282 1283 1284 1285 1286 
1287 1288 1289 1290 1291 1292 1293 1294 1295 
1296 1297 1298 1299 1300 1301 1302 1303 1304 
1305 1306 1307 1308 1309 1310 1311 1312 1313 
1314 1315 1316 1317 1318 1319 1320 1321 1322 
1323 1324 1325 1326 1327 1328 1329 1330 1331 
1332 1333 1334 1335 1336 1337 1338 1339 1340 
1341 1342 1343 1344 1345 1346 1347 1348 1349 
1350 1351 1352 1353 1354 1355 1356 1357 1358 
1359 1360 1361 1362 1363 1364 1365 1366 1367 
1368 1369 1370 1371 1372 1373 1374 1375 1376 
1377 1378 1379 1380 1381 1382 1383 1384 1385 
1386 1387 1388 1389 1390 1391 1392 1393 1394 
1395 1396 1397 1398 1399 1400 1401 1402 1403 
1404 1405 1406 1407 1408 1409 1410 1411 1412 
1413 1414 1415 1416 1417 1418 1419 1420 1421 
1422 1423 1424 1425 1426 1427 1428 1429 1430 
1431 1432 1433 1434 1435 1436 1437 1438 1439 
1440 1441 1442 1443 1444 1445 1446 1447 1448 
1449 1450 1451 1452 1453 1454 1455 1456 1457 
1458 1459 1460 1461 1462 1463 1464 1465 1466 
1467 1468 1469 1470 1471 1472 1473 1474 1475 
1476 1477 1478 1479 1480 1481 1482 1483 1484 
1485 1486 1487 1488 1489 1490 1491 1492 1493 
1494 1495 1496 1497 1498 1499 1500 1501 1502 
1503 1504 1505 1506 1507 1508 1509 1510 1511 
1512 1513 1514 1515 1516 1517 1518 1519 1520 
1521 1522 1523 1524 1525 1526 1527 1528 1529 
1530 1531 1532 1533 1534 1535 1536 1537 1538 
1539 1540 1541 1542 1543 1544 1545 1546 1547 
1548 1549 1550 1551 1552 1553 1554 1555 1556 
1557 1558 1559 1560 1561 1562 1563 1564 1565 
1566 1567 1568 1569 1570 1571 1572 1573 1574 
1575 1576 1577 1578 1579 1580 1581 1582 1583 
1584 1585 1586 1587 1588 1589 1590 1591 1592 
1593 1594 1595 1596 1597 1598 1599 1600 1601 
1602 1603 1604 1605 1606 1607 1608 1609 1610 
1611 1612 1613 1614 1615 1616 1617 1618 1619 
1620 1621 1622 1623 1624 1625 1626 1627 1628 
1629 1630 1631 1632 1633 1634 1635 1636 1637 
1638 1639 1640 1641 1642 1643 1644 1645 1646 
1647 1648 1649 1650 1651 1652 1653 1654 1655 
1656 1657 1658 1659 1660 1661 1662 1663 1664 
1665 1666 1667 1668 1669 1670 1671 1672 1673 
1674 1675 1676 1677 1678 1679 1680 1681 1682 
1683 1684 1685 1686 1687 1688 1689 1690 1691 
1692 1693 1694 1695 1696 1697 1698 1699 1700 
1701 1702 1703 1704 1705 1706 1707 1708 1709 
1710 1711 1712 1713 1714 1715 1716 1717 1718 
1719 1720 1721 1722 1723 1724 1725 1726 1727 
1728 1729 1730 1731 1732 1733 1734 1735 1736 
1737 1738 1739 1740 1741 1742 1743 1744 1745 
1746 1747 1748 1749 1750 1751 1752 1753 1754 
1755 1756 1757 1758 1759 1760 1761 1762 1763 
1764 1765 1766 1767 1768 1769 1770 1771 1772 
1773 1774 1775 1776 1777 1778 1779 1780 1781 
1782 1783 1784 1785 1786 1787 1788 1789 1790 
1791 1792 1793 1794 1795 1796 1797 1798 1799 
1800 1801 1802 1803 1804 1805 1806 1807 1808 
1809 1810 1811 1812 1813 1814 1815 1816 1817 
1818 1819 1820 1821 1822 1823 1824 1825 1826 
1827 1828 1829 1830 1831 1832 1833 1834 1835 
1836 1837 1838 1839 1840 1841 1842 1843 1844 
1845 1846 1847 1848 1849 1850 1851 1852 1853 
1854 1855 1856 1857 1858 1859 1860 1861 1862 
1863 1864 1865 1866 1867 1868 1869 1870 1871 
1872 1873 1874 1875 1876 1877 1878 1879 1880 
1881 1882 1883 1884 1885 1886 1887 1888 1889 
1890 1891 1892 1893 1894 1895 1896 1897 1898 
1899 1900 1901 1902 1903 1904 1905 1906 1907 
1908 1909 1910 1911 1912 1913 1914 1915 1916 
1917 1918 1919 1920 1921 1922 1923 1924 1925 
1926 1927 1928 1929 1930 1931 1932 1933 1934 
1935 1936 1937 1938 1939 1940 1941 1942 1943 
1944 1945 1946 1947 1948 1949 1950 1951 1952 
1953 1954 1955 1956 1957 1958 1959 1960 1961 
1962 1963 1964 1965 1966 1967 1968 1969 1970 
1971 1972 1973 1974 1975 1976 1977 1978 1979 
1980 1981 1982 1983 1984 1985 1986 1987 1988 
1989 1990 1991 1992 1993 1994 1995 1996 1997 
1998 1999 2000 2001 2002 2003 2004 2005 2006 
2007 2008 2009 2010 2011 2012 2013 2014 2015 
2016 2017 2018 2019 2020 2021 2022 2023 2024 
2025 2026 2027 2028 2029 2030 2031 2032 2033 
2034 2035 2036 2037 2038 2039 2040 2041 2042 
2043 2044 2045 2046 2047 2048 2049 2050 2051 
2052 2053 2054 2055 2056 2057 2058 2059 2060 
2061 2062 2063 2064 2065 2066 2067 2068 2069 
2070 2071 2072 2073 2074 2075 2076 2077 2078 
2079 2080 2081 2082 2083 2084 2085 2086 2087 
2088 2089 2090 2091 2092 2093 2094 2095 2096 
2097 2098 2099 2100 2101 2102 2103 2104 2105 
2106 2107 2108 2109 2110 2111 2112 2113 2114 
2115 2116 2117 2118 2119 2120 2121 2122 2123 
2124 2125 2126 2127 2128 2129 2130 2131 2132 
2133 2134 2135 2136 2137 2138 2139 2140 2141 
2142 2143 2144 2145 2146 2147 2148 2149 2150 
2151 2152 2153 2154 2155 2156 2157 2158 2159 
2160 2161 2162 2163 2164 2165 2166 2167 2168 
2169 2170 2171 2172 2173 2174 2175 2176 2177 
2178 2179 2180 2181 2182 2183 2184 2185 2186 
2187 2188 2189 2190 2191 2192 2193 2194 2195 
2196 2197 2198 2199 2200 2201 2202 2203 2204 
2205 2206 2207 2208 2209 2210 2211 2212 2213 
2214 2215 2216 2217 2218 2219 2220 2221 2222 
2223 2224 2225 2226 2227 2228 2229 2230 2231 
2232 2233 2234 2235 2236 2237 2238 2239 2240 
2241 2242 2243 2244 2245 2246 2247 2248 2249 
2250 2251 2252 2253 2254 2255 2256 2257 2258 
2259 2260 2261 2262 2263 2264 2265 2266 2267 
2268 2269 2270 2271 2272 2273 2274 2275 2276 
2277 2278 2279 2280 2281 2282 2283 2284 2285 
2286 2287 2288 2289 2290 2291 2292 2293 2294 
2295 2296 2297 2298 2299 2300 2301 2302 2303 
2304 2305 2306 2307 2308 2309 2310 2311 2312 
2313 2314 2315 2316 2317 2318 2319 2320 2321 
2322 2323 2324 2325 2326 2327 2328 2329 2330 
2331 2332 2333 2334 2335 2336 2337 2338 2339 
2340 2341 2342 2343 2344 2345 2346 2347 2348 
2349 2350 2351 2352 2353 2354 2355 2356 2357 
2358 2359 2360 2361 2362 2363 2364 2365 2366 
2367 2368 2369 2370 2371 2372 2373 2374 2375 
2376 2377 2378 2379 2380 2381 2382 2383 2384 
2385 2386 2387 2388 2389 2390 2391 2392 2393 
2394 2395 2396 2397 2398 2399 2400 2401 2402 
2403 2404 2405 2406 2407 2408 2409 2410 2411 
2412 2413 2414 2415 2416 2417 2418 2419 2420 
2421 2422 2423 2424 2425 2426 2427 2428 2429 
2430 2431 2432 2433 2434 2435 2436 2437 2438 
2439 2440 2441 2442 2443 2444 2445 2446 2447 
2448 2449 2450 2451 2452 2453 2454 2455 2456 
2457 2458 2459 2460 2461 2462 2463 2464 2465 
2466 2467 2468 2469 2470 2471 2472 2473 2474 
2475 2476 2477 2478 2479 2480 2481 2482 2483 
2484 2485 2486 2487 2488 2489 2490 2491 2492 
2493 2494 2495 2496 2497 2498 2499 2500 2501 
2502 2503 2504 2505 2506 2507 2508 2509 2510 
2511 2512 2513 2514 2515 2516 2517 2518 2519 
2520 2521 2522 2523 2524 2525 2526 2527 2528 
2529 2530 2531 2532 2533 2534 2535 2536 2537 
2538 2539 2540 2541 2542 2543 2544 2545 2546 
2547 2548 2549 2550 2551 2552 2553 2554 2555 
2556 2557 2558 2559 2560 2561 2562 2563 2564 
2565 2566 2567 2568 2569 2570 2571 2572 2573 
2574 2575 2576 2577 2578 2579 2580 2581 2582 
2583 2584 2585 2586 2587 2588 2589 2590 2591 
2592 2593 2594 2595 2596 2597 2598 2599 2600 
2601 2602 2603 2604 2605 2606 2607 2608 2609 
2610 2611 2612 2613 2614 2615 2616 2617 2618 
2619 2620 2621 2622 2623 2624 2625 2626 2627 
2628 2629 2630 2631 2632 2633 2634 2635 2636 
2637 2638 2639 2640 2641 2642 2643 2644 2645 
2646 2647 2648 2649 2650 2651 2652 2653 2654 
2655 2656 2657 2658 2659 2660 2661 2662 2663 
2664 2665 2666 2667 2668 2669 2670 2671 2672 
2673 2674 2675 2676 2677 2678 2679 2680 2681 
2682 2683 2684 2685 2686 2687 2688 2689 2690 
2691 2692 2693 2694 2695 2696 2697 2698 2699 
2700 2701 2702 2703 2704 2705 2706 2707 2708 
2709 2710 2711 2712 2713 2714 2715 2716 2717 
2718 2719 2720 2721 2722 2723 2724 2725 2726 
2727 2728 2729 2730 2731 2732 2733 2734 2735 
2736 2737 2738 2739 2740 2741 2742 2743 2744 
2745 2746 2747 2748 2749 2750 2751 2752 2753 
2754 2755 2756 2757 2758 2759 2760 2761 2762 
2763 2764 2765 2766 2767 2768 2769 2770 2771 
2772 2773 2774 2775 2776 2777 2778 2779 2780 
2781 2782 2783 2784 2785 2786 2787 2788 2789 
2790 2791 2792 2793 2794 2795 2796 2797 2798 
2799 2800 2801 2802 2803 2804 2805 2806 2807 
2808 2809 2810 2811 2812 2813 2814 2815 2816 
2817 2818 2819 2820 2821 2822 2823 2824 2825 
2826 2827 2828 2829 2830 2831 2832 2833 2834 
2835 2836 2837 2838 2839 2840 2841 2842 2843 
2844 2845 2846 2847 2848 2849 2850 2851 2852 
2853 2854 2855 2856 2857 2858 2859 2860 2861 
2862 2863 2864 2865 2866 2867 2868 2869 2870 
2871 2872 2873 2874 2875 2876 2877 2878 2879 
2880 2881 2882 2883 2884 2885 2886 2887 2888 
2889 2890 2891 2892 2893 2894 2895 2896 2897 
2898 2899 2900 2901 2902 2903 2904 2905 2906 
2907 2908 2909 2910 2911 2912 2913 2914 2915 
2916 2917 2918 2919 2920 2921 2922 2923 2924 
2925 2926 2927 2928 2929 2930 2931 2932 2933 
2934 2935 2936 2937 2938 2939 2940 2941 2942 
2943 2944 2945 2946 2947 2948 2949 2950 2951 
2952 2953 2954 2955 2956 2957 2958 2959 2960 
2961 2962 2963 2964 2965 2966 2967 2968 2969 
2970 2971 2972 2973 2974 2975 2976 2977 2978 
2979 2980 2981 2982 2983 2984 2985 2986 2987 
2988 2989 2990 2991 2992 2993 2994 2995 2996 
2997 2998 2999 3000 3001 3002 3003 3004 3005 
3006 3007 3008 3009 3010 3011 3012 3013 3014 
3015 3016 3017 3018 3019 3020 3021 3022 3023 
3024 3025 3026 3027 3028 3029 3030 3031 3032 
3033 3034 3035 3036 3037 3038 3039 3040 3041 
3042 3043 3044 3045 3046 3047 3048 3049 3050 
3051 3052 3053 3054 3055 3056 3057 3058 3059 
3060 3061 3062 3063 3064 3065 3066 3067 3068 
3069 3070 3071 3072 3073 3074 3075 3076 3077 
3078 3079 3080 3081 3082 3083 3084 3085 3086 
3087 3088 3089 3090 3091 3092 3093 3094 3095 
3096 3097 3098 3099 3100 3101 3102 3103 3104 
3105 3106 3107 3108 3109 3110 3111 3112 3113 
3114 3115 3116 3117 3118 3119 3120 3121 3122 
3123 3124 3125 3126 3127 3128 3129 3130 3131 
3132 3133 3134 3135 3136 3137 3138 3139 3140 
3141 3142 3143 3144 3145 3146 3147 3148 3149 
3150 3151 3152 3153 3154 3155 3156 3157 3158 
3159 3160 3161 3162 3163 3164 3165 3166 3167 
3168 3169 3170 3171 3172 3173 3174 3175 3176 
3177 3178 3179 3180 3181 3182 3183 3184 3185 
3186 3187 3188 3189 3190 3191 3192 3193 3194 
3195 3196 3197 3198 3199 3200 3201 3202 3203 
3204 3205 3206 3207 3208 3209 3210 3211 3212 
3213 3214 3215 3216 3217 3218 3219 3220 3221 
3222 3223 3224 3225 3226 3227 3228 3229 3230 
3231 3232 3233 3234 3235 3236 3237 3238 3239 
3240 3241 3242 3243 3244 3245 3246 3247 3248 
3249 3250 3251 3252 3253 3254 3255 3256 3257 
3258 3259 3260 3261 3262 3263 3264 3265 3266 
3267 3268 3269 3270 3271 3272 3273 3274 3275 
3276 3277 3278 3279 3280 3281 3282 3283 3284 
3285 3286 3287 3288 3289 3290 3291 3292 3293 
3294 3295 3296 3297 3298 3299 3300 3301 3302 
3303 3304 3305 3306 3307 3308 3309 3310 3311 
3312 3313 3314 3315 3316 3317 3318 3319 3320 
3321 3322 3323 3324 3325 3326 3327 3328 3329 
3330 3331 3332 3333 3334 3335 3336 3337 3338 
3339 3340 3341 3342 3343 3344 3345 3346 3347 
3348 3349 3350 3351 3352 3353 3354 3355 3356 
3357 3358 3359 3360 3361 3362 3363 3364 3365 
3366 3367 3368 3369 3370 3371 3372 3373 3374 
3375 3376 3377 3378 3379 3380 3381 3382 3383 
3384 3385 3386 3387 3388 3389 3390 3391 3392 
3393 3394 3395 3396 3397 3398 3399 3400 3401 
3402 3403 3404 3405 3406 3407 3408 3409 3410 
3411 3412 3413 3414 3415 3416 3417 3418 3419 
3420 3421 3422 3423 3424 3425 3426 3427 3428 
3429 3430 3431 3432 3433 3434 3435 3436 3437 
3438 3439 3440 3441 3442 3443 3444 3445 3446 
3447 3448 3449 3450 3451 3452 3453 3454 3455 
3456 3457 3458 3459 3460 3461 3462 3463 3464 
3465 3466 3467 3468 3469 3470 3471 3472 3473 
3474 3475 3476 3477 3478 3479 3480 3481 3482 
3483 3484 3485 3486 3487 3488 3489 3490 3491 
3492 3493 3494 3495 3496 3497 3498 3499 3500 
3501 3502 3503 3504 3505 3506 3507 3508 3509 
3510 3511 3512 3513 3514 3515 3516 3517 3518 
3519 3520 3521 3522 3523 3524 3525 3526 3527 
3528 3529 3530 3531 3532 3533 3534 3535 3536 
3537 3538 3539 3540 3541 3542 3543 3544 3545 
3546 3547 3548 3549 3550 3551 3552 3553 3554 
3555 3556 3557 3558 3559 3560 3561 3562 3563 
3564 3565 3566 3567 3568 3569 3570 3571 3572 
3573 3574 3575 3576 3577 3578 3579 3580 3581 
3582 3583 3584 3585 3586 3587 3588 3589 3590 
3591 3592 3593 3594 3595 3596 3597 3598 3599 
3600 3601 3602 3603 3604 3605 3606 3607 3608 
3609 3610 3611 3612 3613 3614 3615 3616 3617 
3618 3619 3620 3621 3622 3623 3624 3625 3626 
3627 3628 3629 3630 3631 3632 3633 3634 3635 
3636 3637 3638 3639 3640 3641 3642 3643 3644 
3645 3646 3647 3648 3649 3650 3651 3652 3653 
3654 3655 3656 3657 3658 3659 3660 3661 3662 
3663 3664 3665 3666 3667 3668 3669 3670 3671 
3672 3673 3674 3675 3676 3677 3678 3679 3680 
3681 3682 3683 3684 3685 3686 3687 3688 3689 
3690 3691 3692 3693 3694 3695 3696 3697 3698 
3699 3700 3701 3702 3703 3704 3705 3706 3707 
3708 3709 3710 3711 3712 3713 3714 3715 3716 
3717 3718 3719 3720 3721 3722 3723 3724 3725 
3726 3727 3728 3729 3730 3731 3732 3733 3734 
3735 3736 3737 3738 3739 3740 3741 3742 3743 
3744 3745 3746 3747 3748 3749 3750 3751 3752 
3753 3754 3755 3756 3757 3758 3759 3760 3761 
3762 3763 3764 3765 3766 3767 3768 3769 3770 
3771 3772 3773 3774 3775 3776 3777 3778 3779 
3780 3781 3782 3783 3784 3785 3786 3787 3788 
3789 3790 3791 3792 3793 3794 3795 3796 3797 
3798 3799 3800 3801 3802 3803 3804 3805 3806 
3807 3808 3809 3810 3811 3812 3813 3814 3815 
3816 3817 3818 3819 3820 3821 3822 3823 3824 
3825 3826 3827 3828 3829 3830 3831 3832 3833 
3834 3835 3836 3837 3838 3839 3840 3841 3842 
3843 3844 3845 3846 3847 3848 3849 3850 3851 
3852 3853 3854 3855 3856 3857 3858 3859 3860 
3861 3862 3863 3864 3865 3866 3867 3868 3869 
3870 3871 3872 3873 3874 3875 3876 3877 3878 
3879 3880 3881 3882 3883 3884 3885 3886 3887 
3888 3889 3890 3891 3892 3893 3894 3895 3896 
3897 3898 3899 3900 3901 3902 3903 3904 3905 
3906 3907 3908 3909 3910 3911 3912 3913 3914 
3915 3916 3917 3918 3919 3920 3921 3922 3923 
3924 3925 3926 3927 3928 3929 3930 3931 3932 
3933 3934 3935 3936 3937 3938 3939 3940 3941 
3942 3943 3944 3945 3946 3947 3948 3949 3950 
3951 3952 3953 3954 3955 3956 3957 3958 3959 
3960 3961 3962 3963 3964 3965 3966 3967 3968 
3969 3970 3971 3972 3973 3974 3975 3976 3977 
3978 3979 3980 3981 3982 3983 3984 3985 3986 
3987 3988 3989 3990 3991 3992 3993 3994 3995 
3996 3997 3998 3999 4000 4001 4002 4003 4004 
4005 4006 4007 4008 4009 4010 4011 4012 4013 
4014 4015 4016 4017 4018 4019 4020 4021 4022 
4023 4024 4025 4026 4027 4028 4029 4030 4031 
4032 4033 4034 4035 4036 4037 4038 4039 4040 
4041 4042 4043 4044 4045 4046 4047 4048 4049 
4050 4051 4052 4053 4054 4055 4056 4057 4058 
4059 4060 4061 4062 4063 4064 4065 4066 4067 
4068 4069 4070 4071 4072 4073 4074 4075 4076 
4077 4078 4079 4080 4081 4082 4083 4084 4085 
4086 4087 4088 4089 4090 4091 4092 4093 4094 
4095 4096 4097 4098 4099 4100 4101 4102 4103 
4104 4105 4106 4107 4108 4109 4110 4111 4112 
4113 4114 4115 4116 4117 4118 4119 4120 4121 
4122 4123 4124 4125 4126 4127 4128 4129 4130 
4131 4132 4133 4134 4135 4136 4137 4138 4139 
4140 4141 4142 4143 4144 4145 4146 4147 4148 
4149 4150 4151 4152 4153 4154 4155 4156 4157 
4158 4159 4160 4161 4162 4163 4164 4165 4166 
4167 4168 4169 4170 4171 4172 4173 4174 4175 
4176 4177 4178 4179 4180 4181 4182 4183 4184 
4185 4186 4187 4188 4189 4190 4191 4192 4193 
4194 4195 4196 4197 4198 4199 4200 4201 4202 
4203 4204 4205 4206 4207 4208 4209 4210 4211 
4212 4213 4214 4215 4216 4217 4218 4219 4220 
4221 4222 4223 4224 4225 4226 4227 4228 4229 
4230 4231 4232 4233 4234 4235 4236 4237 4238 
4239 4240 4241 4242 4243 4244 4245 4246 4247 
4248 4249 4250 4251 4252 4253 4254 4255 4256 
4257 4258 4259 4260 4261 4262 4263 4264 4265 
4266 4267 4268 4269 4270 4271 4272 4273 4274 
4275 4276 4277 4278 4279 4280 4281 4282 4283 
4284 4285 4286 4287 4288 4289 4290 4291 4292 
4293 4294 4295 4296 4297 4298 4299 4300 4301 
4302 4303 4304 4305 4306 4307 4308 4309 4310 
4311 4312 4313 4314 4315 4316 4317 4318 4319 
4320 4321 4322 4323 4324 4325 4326 4327 4328 
4329 4330 4331 4332 4333 4334 4335 4336 4337 
4338 4339 4340 4341 4342 4343 4344 4345 4346 
4347 4348 4349 4350 4351 4352 4353 4354 4355 
4356 4357 4358 4359 4360 4361 4362 4363 4364 
4365 4366 4367 4368 4369 4370 4371 4372 4373 
4374 4375 4376 4377 4378 4379 4380 4381 4382 
4383 4384 4385 4386 4387 4388 4389 4390 4391 
4392 4393 4394 4395 4396 4397 4398 4399 4400 
4401 4402 4403 4404 4405 4406 4407 4408 4409 
4410 4411 4412 4413 4414 4415 4416 4417 4418 
4419 4420 4421 4422 4423 4424 4425 4426 4427 
4428 4429 4430 4431 4432 4433 4434 4435 4436 
4437 4438 4439 4440 4441 4442 4443 4444 4445 
4446 4447 4448 4449 4450 4451 4452 4453 4454 
4455 4456 4457 4458 4459 4460 4461 4462 4463 
4464 4465 4466 4467 4468 4469 4470 4471 4472 
4473 4474 4475 4476 4477 4478 4479 4480 4481 
4482 4483 4484 4485 4486 4487 4488 4489 4490 
4491 4492 4493 4494 4495 4496 4497 4498 4499 
4500 4501 4502 4503 4504 4505 4506 4507 4508 
4509 4510 4511 4512 4513 4514 4515 4516 4517 
4518 4519 4520 4521 4522 4523 4524 4525 4526 
4527 4528 4529 4530 4531 4532 4533 4534 4535 
4536 4537 4538 4539 4540 4541 4542 4543 4544 
4545 4546 4547 4548 4549 4550 4551 4552 4553 
4554 4555 4556 4557 4558 4559 4560 4561 4562 
4563 4564 4565 4566 4567 4568 4569 4570 4571 
4572 4573 4574 4575 4576 4577 4578 4579 4580 
4581 4582 4583 4584 4585 4586 4587 4588 4589 
4590 4591 4592 4593 4594 4595 4596 4597 4598 
4599 4600 4601 4602 4603 4604 4605 4606 4607 
4608 4609 4610 4611 4612 4613 4614 4615 4616 
4617 4618 4619 4620 4621 4622 4623 4624 4625 
4626 4627 4628 4629 4630 4631 4632 4633 4634 
4635 4636 4637 4638 4639 4640 4641 4642 4643 
4644 4645 4646 4647 4648 4649 4650 4651 4652 
4653 4654 4655 4656 4657 4658 4659 4660 4661 
4662 4663 4664 4665 4666 4667 4668 4669 4670 
4671 4672 4673 4674 4675 4676 4677 4678 4679 
4680 4681 4682 4683 4684 4685 4686 4687 4688 
4689 4690 4691 4692 4693 4694 4695 4696 4697 
4698 4699 4700 4701 4702 4703 4704 4705 4706 
4707 4708 4709 4710 4711 4712 4713 4714 4715 
4716 4717 4718 4719 4720 4721 4722 4723 4724 
4725 4726 4727 4728 4729 4730 4731 4732 4733 
4734 4735 4736 4737 4738 4739 4740 4741 4742 
4743 4744 4745 4746 4747 4748 4749 4750 4751 
4752 4753 4754 4755 4756 4757 4758 4759 4760 
4761 4762 4763 4764 4765 4766 4767 4768 4769 
4770 4771 4772 4773 4774 4775 4776 4777 4778 
4779 4780 4781 4782 4783 4784 4785 4786 4787 
4788 4789 4790 4791 4792 4793 4794 4795 4796 
4797 4798 4799 4800 4801 4802 4803 4804 4805 
4806 4807 4808 4809 4810 4811 4812 4813 4814 
4815 4816 4817 4818 4819 4820 4821 4822 4823 
4824 4825 4826 4827 4828 4829 4830 4831 4832 
4833 4834 4835 4836 4837 4838 4839 4840 4841 
4842 4843 4844 4845 4846 4847 4848 4849 4850 
4851 4852 4853 4854 4855 4856 4857 4858 4859 
4860 4861 4862 4863 4864 4865 4866 4867 4868 
4869 4870 4871 4872 4873 4874 4875 4876 4877 
4878 4879 4880 4881 4882 4883 4884 4885 4886 
4887 4888 4889 4890 4891 4892 4893 4894 4895 
4896 4897 4898 4899 4900 4901 4902 4903 4904 
4905 4906 4907 4908 4909 4910 4911 4912 4913 
4914 4915 4916 4917 4918 4919 4920 4921 4922 
4923 4924 4925 4926 4927 4928 4929 4930 4931 
4932 4933 4934 4935 4936 4937 4938 4939 4940 
4941 4942 4943 4944 4945 4946 4947 4948 4949 
4950 4951 4952 4953 4954 4955 4956 4957 4958 
4959 4960 4961 4962 4963 4964 4965 4966 4967 
4968 4969 4970 4971 4972 4973 4974 4975 4976 
4977 4978 4979 4980 4981 4982 4983 4984 4985 
4986 4987 4988 4989 4990 4991 4992 4993 4994 
4995 4996 4997 4998 4999 5000 5001 5002 5003 
5004 5005 5006 5007 5008 5009 5010 5011 5012 
5013 5014 5015 5016 5017 5018 5019 5020 5021 
5022 5023 5024 5025 5026 5027 5028 5029 5030 
5031 5032 5033 5034 5035 5036 5037 5038 5039 
5040 5041 5042 5043 5044 5045 5046 5047 5048 
5049 5050 5051 5052 5053 5054 5055 5056 5057 
5058 5059 5060 5061 5062 5063 5064 5065 5066 
5067 5068 5069 5070 5071 5072 5073 5074 5075 
5076 5077 5078 5079 5080 5081 5082 5083 5084 
5085 5086 5087 5088 5089 5090 5091 5092 5093 
5094 5095 5096 5097 5098 5099 5100 5101 5102 
5103 5104 5105 5106 5107 5108 5109 5110 5111 
5112 5113 5114 5115 5116 5117 5118 5119 5120 
5121 5122 5123 5124 5125 5126 5127 5128 5129 
5130 5131 5132 5133 5134 5135 5136 5137 5138 
5139 5140 5141 5142 5143 5144 5145 5146 5147 
5148 5149 5150 5151 5152 5153 5154 5155 5156 
5157 5158 5159 5160 5161 5162 5163 5164 5165 
5166 5167 5168 5169 5170 5171 5172 5173 5174 
5175 5176 5177 5178 5179 5180 5181 5182 5183 
5184 5185 5186 5187 5188 5189 5190 5191 5192 
5193 5194 5195 5196 5197 5198 5199 5200 5201 
5202 5203 5204 5205 5206 5207 5208 5209 5210 
5211 5212 5213 5214 5215 5216 5217 5218 5219 
5220 5221 5222 5223 5224 5225 5226 5227 5228 
5229 5230 5231 5232 5233 5234 5235 5236 5237 
5238 5239 5240 5241 5242 5243 5244 5245 5246 
5247 5248 5249 5250 5251 5252 5253 5254 5255 
5256 5257 5258 5259 5260 5261 5262 5263 5264 
5265 5266 5267 5268 5269 5270 5271 5272 5273 
5274 5275 5276 5277 5278 5279 5280 5281 5282 
5283 5284 5285 5286 5287 5288 5289 5290 5291 
5292 5293 5294 5295 5296 5297 5298 5299 5300 
5301 5302 5303 5304 5305 5306 5307 5308 5309 
5310 5311 5312 5313 5314 5315 5316 5317 5318 
5319 5320 5321 5322 5323 5324 5325 5326 5327 
5328 5329 5330 5331 5332 5333 5334 5335 5336 
5337 5338 5339 5340 5341 5342 5343 5344 5345 
5346 5347 5348 5349 5350 5351 5352 5353 5354 
5355 5356 5357 5358 5359 5360 5361 5362 5363 
5364 5365 5366 5367 5368 5369 5370 5371 5372 
5373 5374 5375 5376 5377 5378 5379 5380 5381 
5382 5383 5384 5385 5386 5387 5388 5389 5390 
5391 5392 5393 5394 5395 5396 5397 5398 5399 
5400 5401 5402 5403 5404 5405 5406 5407 5408 
5409 5410 5411 5412 5413 5414 5415 5416 5417 
5418 5419 5420 5421 5422 5423 5424 5425 5426 
5427 5428 5429 5430 5431 5432 5433 5434 5435 
5436 5437 5438 5439 5440 5441 5442 5443 5444 
5445 5446 5447 5448 5449 5450 5451 5452 5453 
5454 5455 5456 5457 5458 5459 5460 5461 5462 
5463 5464 5465 5466 5467 5468 5469 5470 5471 
5472 5473 5474 5475 5476 5477 5478 5479 5480 
5481 5482 5483 5484 5485 5486 5487 5488 5489 
5490 5491 5492 5493 5494 5495 5496 5497 5498 
5499 5500 5501 5502 5503 5504 5505 5506 5507 
5508 5509 5510 5511 5512 5513 5514 5515 5516 
5517 5518 5519 5520 5521 5522 5523 5524 5525 
5526 5527 5528 5529 5530 5531 5532 5533 5534 
5535 5536 5537 5538 5539 5540 5541 5542 5543 
5544 5545 5546 5547 5548 5549 5550 5551 5552 
5553 5554 5555 5556 5557 5558 5559 5560 5561 
5562 5563 5564 5565 5566 5567 5568 5569 5570 
5571 5572 5573 5574 5575 5576 5577 5578 5579 
5580 5581 5582 5583 5584 5585 5586 5587 5588 
5589 5590 5591 5592 5593 5594 5595 5596 5597 
5598 5599 5600 5601 5602 5603 5604 5605 5606 
5607 5608 5609 5610 5611 5612 5613 5614 5615 
5616 5617 5618 5619 5620 5621 5622 5623 5624 
5625 5626 5627 5628 5629 5630 5631 5632 5633 
5634 5635 5636 5637 5638 5639 5640 5641 5642 
5643 5644 5645 5646 5647 5648 5649 5650 5651 
5652 5653 5654 5655 5656 5657 5658 5659 5660 
5661 5662 5663 5664 5665 5666 5667 5668 5669 
5670 5671 5672 5673 5674 5675 5676 5677 5678 
5679 5680 5681 5682 5683 5684 5685 5686 5687 
5688 5689 5690 5691 5692 5693 5694 5695 5696 
5697 5698 5699 5700 5701 5702 5703 5704 5705 
5706 5707 5708 5709 5710 5711 5712 5713 5714 
5715 5716 5717 5718 5719 5720 5721 5722 5723 
5724 5725 5726 5727 5728 5729 5730 5731 5732 
5733 5734 5735 5736 5737 5738 5739 5740 5741 
5742 5743 5744 5745 5746 5747 5748 5749 5750 
5751 5752 5753 5754 5755 5756 5757 5758 5759 
5760 5761 5762 5763 5764 5765 5766 5767 5768 
5769 5770 5771 5772 5773 5774 5775 5776 5777 
5778 5779 5780 5781 5782 5783 5784 5785 5786 
5787 5788 5789 5790 5791 5792 5793 5794 5795 
5796 5797 5798 5799 5800 5801 5802 5803 5804 
5805 5806 5807 5808 5809 5810 5811 5812 5813 
5814 5815 5816 5817 5818 5819 5820 5821 5822 
5823 5824 5825 5826 5827 5828 5829 5830 5831 
5832 5833 5834 5835 5836 5837 5838 5839 5840 
5841 5842 5843 5844 5845 5846 5847 5848 5849 
5850 5851 5852 5853 5854 5855 5856 5857 5858 
5859 5860 5861 5862 5863 5864 5865 5866 5867 
5868 5869 5870 5871 5872 5873 5874 5875 5876 
5877 5878 5879 5880 5881 5882 5883 5884 5885 
5886 5887 5888 5889 5890 5891 5892 5893 5894 
5895 5896 5897 5898 5899 5900 5901 5902 5903 
5904 5905 5906 5907 5908 5909 5910 5911 5912 
5913 5914 5915 5916 5917 5918 5919 5920 5921 
5922 5923 5924 5925 5926 5927 5928 5929 5930 
5931 5932 5933 5934 5935 5936 5937 5938 5939 
5940 5941 5942 5943 5944 5945 5946 5947 5948 
5949 5950 5951 5952 5953 5954 5955 5956 5957 
5958 5959 5960 5961 5962 5963 5964 5965 5966 
5967 5968 5969 5970 5971 5972 5973 5974 5975 
5976 5977 5978 5979 5980 5981 5982 5983 5984 
5985 5986 5987 5988 5989 5990 5991 5992 5993 
5994 5995 5996 5997 5998 5999 6000 6001 6002 
6003 6004 6005 6006 6007 6008 6009 6010 6011 
6012 6013 6014 6015 6016 6017 6018 6019 6020 
6021 6022 6023 6024 6025 6026 6027 6028 6029 
6030 6031 6032 6033 6034 6035 6036 6037 6038 
6039 6040 6041 6042 6043 6044 6045 6046 6047 
6048 6049 6050 6051 6052 6053 6054 6055 6056 
6057 6058 6059 6060 6061 6062 6063 6064 6065 
6066 6067 6068 6069 6070 6071 6072 6073 6074 
6075 6076 6077 6078 6079 6080 6081 6082 6083 
6084 6085 6086 6087 6088 6089 6090 6091 6092 
6093 6094 6095 6096 6097 6098 6099 6100 6101 
6102 6103 6104 6105 6106 6107 6108 6109 6110 
6111 6112 6113 6114 6115 6116 6117 6118 6119 
6120 6121 6122 6123 6124 6125 6126 6127 6128 
6129 6130 6131 6132 6133 6134 6135 6136 6137 
6138 6139 6140 6141 6142 6143 6144 6145 6146 
6147 6148 6149 6150 6151 6152 6153 6154 6155 
6156 6157 6158 6159 6160 6161 6162 6163 6164 
6165 6166 6167 6168 6169 6170 6171 6172 6173 
6174 6175 6176 6177 6178 6179 6180 6181 6182 
6183 6184 6185 6186 6187 6188 6189 6190 6191 
6192 6193 6194 6195 6196 6197 6198 6199 6200 
6201 6202 6203 6204 6205 6206 6207 6208 6209 
6210 6211 6212 6213 6214 6215 6216 6217 6218 
6219 6220 6221 6222 6223 6224 6225 6226 6227 
6228 6229 6230 6231 6232 6233 6234 6235 6236 
6237 6238 6239 6240 6241 6242 6243 6244 6245 
6246 6247 6248 6249 6250 6251 6252 6253 6254 
6255 6256 6257 6258 6259 6260 6261 6262 6263 
6264 6265 6266 6267 6268 6269 6270 6271 6272 
6273 6274 6275 6276 6277 6278 6279 6280 6281 
6282 6283 6284 6285 6286 6287 6288 6289 6290 
6291 6292 6293 6294 6295 6296 6297 6298 6299 
6300 6301 6302 6303 6304 6305 6306 6307 6308 
6309 6310 6311 6312 6313 6314 6315 6316 6317 
6318 6319 6320 6321 6322 6323 6324 6325 6326 
6327 6328 6329 6330 6331 6332 6333 6334 6335 
6336 6337 6338 6339 6340 6341 6342 6343 6344 
6345 6346 6347 6348 6349 6350 6351 6352 6353 
6354 6355 6356 6357 6358 6359 6360 6361 6362 
6363 6364 6365 6366 6367 6368 6369 6370 6371 
6372 6373 6374 6375 6376 6377 6378 6379 6380 
6381 6382 6383 6384 6385 6386 6387 6388 6389 
6390 6391 6392 6393 6394 6395 6396 6397 6398 
6399 6400 6401 6402 6403 6404 6405 6406 6407 
6408 6409 6410 6411 6412 6413 6414 6415 6416 
6417 6418 6419 6420 6421 6422 6423 6424 6425 
6426 6427 6428 6429 6430 6431 6432 6433 6434 
6435 6436 6437 6438 6439 6440 6441 6442 6443 
6444 6445 6446 6447 6448 6449 6450 6451 6452 
6453 6454 6455 6456 6457 6458 6459 6460 6461 
6462 6463 6464 6465 6466 6467 6468 6469 6470 
6471 6472 6473 6474 6475 6476 6477 6478 6479 
6480 6481 6482 6483 6484 6485 6486 6487 6488 
6489 6490 6491 6492 6493 6494 6495 6496 6497 
6498 6499 6500 6501 6502 6503 6504 6505 6506 
6507 6508 6509 6510 6511 6512 6513 6514 6515 
6516 6517 6518 6519 6520 6521 6522 6523 6524 
6525 6526 6527 6528 6529 6530 6531 6532 6533 
6534 6535 6536 6537 6538 6539 6540 6541 6542 
6543 6544 6545 6546 6547 6548 6549 6550 6551 
6552 6553 6554 6555 6556 6557 6558 6559 6560 
6561 6562 6563 6564 6565 6566 6567 6568 6569 
6570 6571 6572 6573 6574 6575 6576 6577 6578 
6579 6580 6581 6582 6583 6584 6585 6586 6587 
6588 6589 6590 6591 6592 6593 6594 6595 6596 
6597 6598 6599 6600 6601 6602 6603 6604 6605 
6606 6607 6608 6609 6610 6611 6612 6613 6614 
6615 6616 6617 6618 6619 6620 6621 6622 6623 
6624 6625 6626 6627 6628 6629 6630 6631 6632 
6633 6634 6635 6636 6637 6638 6639 6640 6641 
6642 6643 6644 6645 6646 6647 6648 6649 6650 
6651 6652 6653 6654 6655 6656 6657 6658 6659 
6660 6661 6662 6663 6664 6665 6666 6667 6668 
6669 6670 6671 6672 6673 6674 6675 6676 6677 
6678 6679 6680 6681 6682 6683 6684 6685 6686 
6687 6688 6689 6690 6691 6692 6693 6694 6695 
6696 6697 6698 6699 6700 6701 6702 6703 6704 
6705 6706 6707 6708 6709 6710 6711 6712 6713 
6714 6715 6716 6717 6718 6719 6720 6721 6722 
6723 6724 6725 6726 6727 6728 6729 6730 6731 
6732 6733 6734 6735 6736 6737 6738 6739 6740 
6741 6742 6743 6744 6745 6746 6747 6748 6749 
6750 6751 6752 6753 6754 6755 6756 6757 6758 
6759 6760 6761 6762 6763 6764 6765 6766 6767 
6768 6769 6770 6771 6772 6773 6774 6775 6776 
6777 6778 6779 6780 6781 6782 6783 6784 6785 
6786 6787 6788 6789 6790 6791 6792 6793 6794 
6795 6796 6797 6798 6799 6800 6801 6802 6803 
6804 6805 6806 6807 6808 6809 6810 6811 6812 
6813 6814 6815 6816 6817 6818 6819 6820 6821 
6822 6823 6824 6825 6826 6827 6828 6829 6830 
6831 6832 6833 6834 6835 6836 6837 6838 6839 
6840 6841 6842 6843 6844 6845 6846 6847 6848 
6849 6850 6851 6852 6853 6854 6855 6856 6857 
6858 6859 6860 6861 6862 6863 6864 6865 6866 
6867 6868 6869 6870 6871 6872 6873 6874 6875 
6876 6877 6878 6879 6880 6881 6882 6883 6884 
6885 6886 6887 6888 6889 6890 6891 6892 6893 
6894 6895 6896 6897 6898 6899 6900 6901 6902 
6903 6904 6905 6906 6907 6908 6909 6910 6911 
6912 6913 6914 6915 6916 6917 6918 6919 6920 
6921 6922 6923 6924 6925 6926 6927 6928 6929 
6930 6931 6932 6933 6934 6935 6936 6937 6938 
6939 6940 6941 6942 6943 6944 6945 6946 6947 
6948 6949 6950 6951 6952 6953 6954 6955 6956 
6957 6958 6959 6960 6961 6962 6963 6964 6965 
6966 6967 6968 6969 6970 6971 6972 6973 6974 
6975 6976 6977 6978 6979 6980 6981 6982 6983 
6984 6985 6986 6987 6988 6989 6990 6991 6992 
6993 6994 6995 6996 6997 6998 6999 7000 7001 
7002 7003 7004 7005 7006 7007 7008 7009 7010 
7011 7012 7013 7014 7015 7016 7017 7018 7019 
7020 7021 7022 7023 7024 7025 7026 7027 7028 
7029 7030 7031 7032 7033 7034 7035 7036 7037 
7038 7039 7040 7041 7042 7043 7044 7045 7046 
7047 7048 7049 7050 7051 7052 7053 7054 7055 
7056 7057 7058 7059 7060 7061 7062 7063 7064 
7065 7066 7067 7068 7069 7070 7071 7072 7073 
7074 7075 7076 7077 7078 7079 7080 7081 7082 
7083 7084 7085 7086 7087 7088 7089 7090 7091 
7092 7093 7094 7095 7096 7097 7098 7099 7100 
7101 7102 7103 7104 7105 7106 7107 7108 7109 
7110 7111 7112 7113 7114 7115 7116 7117 7118 
7119 7120 7121 7122 7123 7124 7125 7126 7127 
7128 7129 7130 7131 7132 7133 7134 7135 7136 
7137 7138 7139 7140 7141 7142 7143 7144 7145 
7146 7147 7148 7149 7150 7151 7152 7153 7154 
7155 7156 7157 7158 7159 7160 7161 7162 7163 
7164 7165 7166 7167 7168 7169 7170 7171 7172 
7173 7174 7175 7176 7177 7178 7179 7180 7181 
7182 7183 7184 7185 7186 7187 7188 7189 7190 
7191 7192 7193 7194 7195 7196 7197 7198 7199 
7200 7201 7202 7203 7204 7205 7206 7207 7208 
7209 7210 7211 7212 7213 7214 7215 7216 7217 
7218 7219 7220 7221 7222 7223 7224 7225 7226 
7227 7228 7229 7230 7231 7232 7233 7234 7235 
7236 7237 7238 7239 7240 7241 7242 7243 7244 
7245 7246 7247 7248 7249 7250 7251 7252 7253 
7254 7255 7256 7257 7258 7259 7260 7261 7262 
7263 7264 7265 7266 7267 7268 7269 7270 7271 
7272 7273 7274 7275 7276 7277 7278 7279 7280 
7281 7282 7283 7284 7285 7286 7287 7288 7289 
7290 7291 7292 7293 7294 7295 7296 7297 7298 
7299 7300 7301 7302 7303 7304 7305 7306 7307 
7308 7309 7310 7311 7312 7313 7314 7315 7316 
7317 7318 7319 7320 7321 7322 7323 7324 7325 
7326 7327 7328 7329 7330 7331 7332 7333 7334 
7335 7336 7337 7338 7339 7340 7341 7342 7343 
7344 7345 7346 7347 7348 7349 7350 7351 7352 
7353 7354 7355 7356 7357 7358 7359 7360 7361 
7362 7363 7364 7365 7366 7367 7368 7369 7370 
7371 7372 7373 7374 7375 7376 7377 7378 7379 
7380 7381 7382 7383 7384 7385 7386 7387 7388 
7389 7390 7391 7392 7393 7394 7395 7396 7397 
7398 7399 7400 7401 7402 7403 7404 7405 7406 
7407 7408 7409 7410 7411 7412 7413 7414 7415 
7416 7417 7418 7419 7420 7421 7422 7423 7424 
7425 7426 7427 7428 7429 7430 7431 7432 7433 
7434 7435 7436 7437 7438 7439 7440 7441 7442 
7443 7444 7445 7446 7447 7448 7449 7450 7451 
7452 7453 7454 7455 7456 7457 7458 7459 7460 
7461 7462 7463 7464 7465 7466 7467 7468 7469 
7470 7471 7472 7473 7474 7475 7476 7477 7478 
7479 7480 7481 7482 7483 7484 7485 7486 7487 
7488 7489 7490 7491 7492 7493 7494 7495 7496 
7497 7498 7499 7500 7501 7502 7503 7504 7505 
7506 7507 7508 7509 7510 7511 7512 7513 7514 
7515 7516 7517 7518 7519 7520 7521 7522 7523 
7524 7525 7526 7527 7528 7529 7530 7531 7532 
7533 7534 7535 7536 7537 7538 7539 7540 7541 
7542 7543 7544 7545 7546 7547 7548 7549 7550 
7551 7552 7553 7554 7555 7556 7557 7558 7559 
7560 7561 7562 7563 7564 7565 7566 7567 7568 
7569 7570 7571 7572 7573 7574 7575 7576 7577 
7578 7579 7580 7581 7582 7583 7584 7585 7586 
7587 7588 7589 7590 7591 7592 7593 7594 7595 
7596 7597 7598 7599 7600 7601 7602 7603 7604 
7605 7606 7607 7608 7609 7610 7611 7612 7613 
7614 7615 7616 7617 7618 7619 7620 7621 7622 
7623 7624 7625 7626 7627 7628 7629 7630 7631 
7632 7633 7634 7635 7636 7637 7638 7639 7640 
7641 7642 7643 7644 7645 7646 7647 7648 7649 
7650 7651 7652 7653 7654 7655 7656 7657 7658 
7659 7660 7661 7662 7663 7664 7665 7666 7667 
7668 7669 7670 7671 7672 7673 7674 7675 7676 
7677 7678 7679 7680 7681 7682 7683 7684 7685 
7686 7687 7688 7689 7690 7691 7692 7693 7694 
7695 7696 7697 7698 7699 7700 7701 7702 7703 
7704 7705 7706 7707 7708 7709 7710 7711 7712 
7713 7714 7715 7716 7717 7718 7719 7720 7721 
7722 7723 7724 7725 7726 7727 7728 7729 7730 
7731 7732 7733 7734 7735 7736 7737 7738 7739 
7740 7741 7742 7743 7744 7745 7746 7747 7748 
7749 7750 7751 7752 7753 7754 7755 7756 7757 
7758 7759 7760 7761 7762 7763 7764 7765 7766 
7767 7768 7769 7770 7771 7772 7773 7774 7775 
7776 7777 7778 7779 7780 7781 7782 7783 7784 
7785 7786 7787 7788 7789 7790 7791 7792 7793 
7794 7795 7796 7797 7798 7799 7800 7801 7802 
7803 7804 7805 7806 7807 7808 7809 7810 7811 
7812 7813 7814 7815 7816 7817 7818 7819 7820 
7821 7822 7823 7824 7825 7826 7827 7828 7829 
7830 7831 7832 7833 7834 7835 7836 7837 7838 
7839 7840 7841 7842 7843 7844 7845 7846 7847 
7848 7849 7850 7851 7852 7853 7854 7855 7856 
7857 7858 7859 7860 7861 7862 7863 7864 7865 
7866 7867 7868 7869 7870 7871 7872 7873 7874 
7875 7876 7877 7878 7879 7880 7881 7882 7883 
7884 7885 7886 7887 7888 7889 7890 7891 7892 
7893 7894 7895 7896 7897 7898 7899 7900 7901 
7902 7903 7904 7905 7906 7907 7908 7909 7910 
7911 7912 7913 7914 7915 7916 7917 7918 7919 
7920 7921 7922 7923 7924 7925 7926 7927 7928 
7929 7930 7931 7932 7933 7934 7935 7936 7937 
7938 7939 7940 7941 7942 7943 7944 7945 7946 
7947 7948 7949 7950 7951 7952 7953 7954 7955 
7956 7957 7958 7959 7960 7961 7962 7963 7964 
7965 7966 7967 7968 7969 7970 7971 7972 7973 
7974 7975 7976 7977 7978 7979 7980 7981 7982 
7983 7984 7985 7986 7987 7988 7989 7990 7991 
7992 7993 7994 7995 7996 7997 7998 7999 8000 
8001 8002 8003 8004 8005 8006 8007 8008 8009 
8010 8011 8012 8013 8014 8015 8016 8017 8018 
8019 8020 8021 8022 8023 8024 8025 8026 8027 
8028 8029 8030 8031 8032 8033 8034 8035 8036 
8037 8038 8039 8040 8041 8042 8043 8044 8045 
8046 8047 8048 8049 8050 8051 8052 8053 8054 
8055 8056 8057 8058 8059 8060 8061 8062 8063 
8064 8065 8066 8067 8068 8069 8070 8071 8072 
8073 8074 8075 8076 8077 8078 8079 8080 8081 
8082 8083 8084 8085 8086 8087 8088 8089 8090 
8091 8092 8093 8094 8095 8096 8097 8098 8099 
8100 8101 8102 8103 8104 8105 8106 8107 8108 
8109 8110 8111 8112 8113 8114 8115 8116 8117 
8118 8119 8120 8121 8122 8123 8124 8125 8126 
8127 8128 8129 8130 8131 8132 8133 8134 8135 
8136 8137 8138 8139 8140 8141 8142 8143 8144 
8145 8146 8147 8148 8149 8150 8151 8152 8153 
8154 8155 8156 8157 8158 8159 8160 8161 8162 
8163 8164 8165 8166 8167 8168 8169 8170 8171 
8172 8173 8174 8175 8176 8177 8178 8179 8180 
8181 8182 8183 8184 8185 8186 8187 8188 8189 
8190 8191 8192 8193 8194 8195 8196 8197 8198 
8199 8200 8201 8202 8203 8204 8205 8206 8207 
8208 8209 8210 8211 8212 8213 8214 8215 8216 
8217 8218 8219 8220 8221 8222 8223 8224 8225 
8226 8227 8228 8229 8230 8231 8232 8233 8234 
8235 8236 8237 8238 8239 8240 8241 8242 8243 
8244 8245 8246 8247 8248 8249 8250 8251 8252 
8253 8254 8255 8256 8257 8258 8259 8260 8261 
8262 8263 8264 8265 8266 8267 8268 8269 8270 
8271 8272 8273 8274 8275 8276 8277 8278 8279 
8280 8281 8282 8283 8284 8285 8286 8287 8288 
8289 8290 8291 8292 8293 8294 8295 8296 8297 
8298 8299 8300 8301 8302 8303 8304 8305 8306 
8307 8308 8309 8310 8311 8312 8313 8314 8315 
8316 8317 8318 8319 8320 8321 8322 8323 8324 
8325 8326 8327 8328 8329 8330 8331 8332 8333 
8334 8335 8336 8337 8338 8339 8340 8341 8342 
8343 8344 8345 8346 8347 8348 8349 8350 8351 
8352 8353 8354 8355 8356 8357 8358 8359 8360 
8361 8362 8363 8364 8365 8366 8367 8368 8369 
8370 8371 8372 8373 8374 8375 8376 8377 8378 
8379 8380 8381 8382 8383 8384 8385 8386 8387 
8388 8389 8390 8391 8392 8393 8394 8395 8396 
8397 8398 8399 8400 8401 8402 8403 8404 8405 
8406 8407 8408 8409 8410 8411 8412 8413 8414 
8415 8416 8417 8418 8419 8420 8421 8422 8423 
8424 8425 8426 8427 8428 8429 8430 8431 8432 
8433 8434 8435 8436 8437 8438 8439 8440 8441 
8442 8443 8444 8445 8446 8447 8448 8449 8450 
8451 8452 8453 8454 8455 8456 8457 8458 8459 
8460 8461 8462 8463 8464 8465 8466 8467 8468 
8469 8470 8471 8472 8473 8474 8475 8476 8477 
8478 8479 8480 8481 8482 8483 8484 8485 8486 
8487 8488 8489 8490 8491 8492 8493 8494 8495 
8496 8497 8498 8499 8500 8501 8502 8503 8504 
8505 8506 8507 8508 8509 8510 8511 8512 8513 
8514 8515 8516 8517 8518 8519 8520 8521 8522 
8523 8524 8525 8526 8527 8528 8529 8530 8531 
8532 8533 8534 8535 8536 8537 8538 8539 8540 
8541 8542 8543 8544 8545 8546 8547 8548 8549 
8550 8551 8552 8553 8554 8555 8556 8557 8558 
8559 8560 8561 8562 8563 8564 8565 8566 8567 
8568 8569 8570 8571 8572 8573 8574 8575 8576 
8577 8578 8579 8580 8581 8582 8583 8584 8585 
8586 8587 8588 8589 8590 8591 8592 8593 8594 
8595 8596 8597 8598 8599 8600 8601 8602 8603 
8604 8605 8606 8607 8608 8609 8610 8611 8612 
8613 8614 8615 8616 8617 8618 8619 8620 8621 
8622 8623 8624 8625 8626 8627 8628 8629 8630 
8631 8632 8633 8634 8635 8636 8637 8638 8639 
8640 8641 8642 8643 8644 8645 8646 8647 8648 
8649 8650 8651 8652 8653 8654 8655 8656 8657 
8658 8659 8660 8661 8662 8663 8664 8665 8666 
8667 8668 8669 8670 8671 8672 8673 8674 8675 
8676 8677 8678 8679 8680 8681 8682 8683 8684 
8685 8686 8687 8688 8689 8690 8691 8692 8693 
8694 8695 8696 8697 8698 8699 8700 8701 8702 
8703 8704 8705 8706 8707 8708 8709 8710 8711 
8712 8713 8714 8715 8716 8717 8718 8719 8720 
8721 8722 8723 8724 8725 8726 8727 8728 8729 
8730 8731 8732 8733 8734 8735 8736 8737 8738 
8739 8740 8741 8742 8743 8744 8745 8746 8747 
8748 8749 8750 8751 8752 8753 8754 8755 8756 
8757 8758 8759 8760 8761 8762 8763 8764 8765 
8766 8767 8768 8769 8770 8771 8772 8773 8774 
8775 8776 8777 8778 8779 8780 8781 8782 8783 
8784 8785 8786 8787 8788 8789 8790 8791 8792 
8793 8794 8795 8796 8797 8798 8799 8800 8801 
8802 8803 8804 8805 8806 8807 8808 8809 8810 
8811 8812 8813 8814 8815 8816 8817 8818 8819 
8820 8821 8822 8823 8824 8825 8826 8827 8828 
8829 8830 8831 8832 8833 8834 8835 8836 8837 
8838 8839 8840 8841 8842 8843 8844 8845 8846 
8847 8848 8849 8850 8851 8852 8853 8854 8855 
8856 8857 8858 8859 8860 8861 8862 8863 8864 
8865 8866 8867 8868 8869 8870 8871 8872 8873 
8874 8875 8876 8877 8878 8879 8880 8881 8882 
8883 8884 8885 8886 8887 8888 8889 8890 8891 
8892 8893 8894 8895 8896 8897 8898 8899 8900 
8901 8902 8903 8904 8905 8906 8907 8908 8909 
8910 8911 8912 8913 8914 8915 8916 8917 8918 
8919 8920 8921 8922 8923 8924 8925 8926 8927 
8928 8929 8930 8931 8932 8933 8934 8935 8936 
8937 8938 8939 8940 8941 8942 8943 8944 8945 
8946 8947 8948 8949 8950 8951 8952 8953 8954 
8955 8956 8957 8958 8959 8960 8961 8962 8963 
8964 8965 8966 8967 8968 8969 8970 8971 8972 
8973 8974 8975 8976 8977 8978 8979 8980 8981 
8982 8983 8984 8985 8986 8987 8988 8989 8990 
8991 8992 8993 8994 8995 8996 8997 8998 8999 
9000 9001 9002 9003 9004 9005 9006 9007 9008 
9009 9010 9011 9012 9013 9014 9015 9016 9017 
9018 9019 9020 9021 9022 9023 9024 9025 9026 
9027 9028 9029 9030 9031 9032 9033 9034 9035 
9036 9037 9038 9039 9040 9041 9042 9043 9044 
9045 9046 9047 9048 9049 9050 9051 9052 9053 
9054 9055 9056 9057 9058 9059 9060 9061 9062 
9063 9064 9065 9066 9067 9068 9069 9070 9071 
9072 9073 9074 9075 9076 9077 9078 9079 9080 
9081 9082 9083 9084 9085 9086 9087 9088 9089 
9090 9091 9092 9093 9094 9095 9096 9097 9098 
9099 9100 9101 9102 9103 9104 9105 9106 9107 
9108 9109 9110 9111 9112 9113 9114 9115 9116 
9117 9118 9119 9120 9121 9122 9123 9124 9125 
9126 9127 9128 9129 9130 9131 9132 9133 9134 
9135 9136 9137 9138 9139 9140 9141 9142 9143 
9144 9145 9146 9147 9148 9149 9150 9151 9152 
9153 9154 9155 9156 9157 9158 9159 9160 9161 
9162 9163 9164 9165 9166 9167 9168 9169 9170 
9171 9172 9173 9174 9175 9176 9177 9178 9179 
9180 9181 9182 9183 9184 9185 9186 9187 9188 
9189 9190 9191 9192 9193 9194 9195 9196 9197 
9198 9199 9200 9201 9202 9203 9204 9205 9206 
9207 9208 9209 9210 9211 9212 9213 9214 9215 
9216 9217 9218 9219 9220 9221 9222 9223 9224 
9225 9226 9227 9228 9229 9230 9231 9232 9233 
9234 9235 9236 9237 9238 9239 9240 9241 9242 
9243 9244 9245 9246 9247 9248 9249 9250 9251 
9252 9253 9254 9255 9256 9257 9258 9259 9260 
9261 9262 9263 9264 9265 9266 9267 9268 9269 
9270 9271 9272 9273 9274 9275 9276 9277 9278 
9279 9280 9281 9282 9283 9284 9285 9286 9287 
9288 9289 9290 9291 9292 9293 9294 9295 9296 
9297 9298 9299 9300 9301 9302 9303 9304 9305 
9306 9307 9308 9309 9310 9311 9312 9313 9314 
9315 9316 9317 9318 9319 9320 9321 9322 9323 
9324 9325 9326 9327 9328 9329 9330 9331 9332 
9333 9334 9335 9336 9337 9338 9339 9340 9341 
9342 9343 9344 9345 9346 9347 9348 9349 9350 
9351 9352 9353 9354 9355 9356 9357 9358 9359 
9360 9361 9362 9363 9364 9365 9366 9367 9368 
9369 9370 9371 9372 9373 9374 9375 9376 9377 
9378 9379 9380 9381 9382 9383 9384 9385 9386 
9387 9388 9389 9390 9391 9392 9393 9394 9395 
9396 9397 9398 9399 9400 9401 9402 9403 9404 
9405 9406 9407 9408 9409 9410 9411 9412 9413 
9414 9415 9416 9417 9418 9419 9420 9421 9422 
9423 9424 9425 9426 9427 9428 9429 9430 9431 
9432 9433 9434 9435 9436 9437 9438 9439 9440 
9441 9442 9443 9444 9445 9446 9447 9448 9449 
9450 9451 9452 9453 9454 9455 9456 9457 9458 
9459 9460 9461 9462 9463 9464 9465 9466 9467 
9468 9469 9470 9471 9472 9473 9474 9475 9476 
9477 9478 9479 9480 9481 9482 9483 9484 9485 
9486 9487 9488 9489 9490 9491 9492 9493 9494 
9495 9496 9497 9498 9499 9500 9501 9502 9503 
9504 9505 9506 9507 9508 9509 9510 9511 9512 
9513 9514 9515 9516 9517 9518 9519 9520 9521 
9522 9523 9524 9525 9526 9527 9528 9529 9530 
9531 9532 9533 9534 9535 9536 9537 9538 9539 
9540 9541 9542 9543 9544 9545 9546 9547 9548 
9549 9550 9551 9552 9553 9554 9555 9556 9557 
9558 9559 9560 9561 9562 9563 9564 9565 9566 
9567 9568 9569 9570 9571 9572 9573 9574 9575 
9576 9577 9578 9579 9580 9581 9582 9583 9584 
9585 9586 9587 9588 9589 9590 9591 9592 9593 
9594 9595 9596 9597 9598 9599 9600 9601 9602 
9603 9604 9605 9606 9607 9608 9609 9610 9611 
9612 9613 9614 9615 9616 9617 9618 9619 9620 
9621 9622 9623 9624 9625 9626 9627 9628 9629 
9630 9631 9632 9633 9634 9635 9636 9637 9638 
9639 9640 9641 9642 9643 9644 9645 9646 9647 
9648 9649 9650 9651 9652 9653 9654 9655 9656 
9657 9658 9659 9660 9661 9662 9663 9664 9665 
9666 9667 9668 9669 9670 9671 9672 9673 9674 
9675 9676 9677 9678 9679 9680 9681 9682 9683 
9684 9685 9686 9687 9688 9689 9690 9691 9692 
9693 9694 9695 9696 9697 9698 9699 9700 9701 
9702 9703 9704 9705 9706 9707 9708 9709 9710 
9711 9712 9713 9714 9715 9716 9717 9718 9719 
9720 9721 9722 9723 9724 9725 9726 9727 9728 
9729 9730 9731 9732 9733 9734 9735 9736 9737 
9738 9739 9740 9741 9742 9743 9744 9745 9746 
9747 9748 9749 9750 9751 9752 9753 9754 9755 
9756 9757 9758 9759 9760 9761 9762 9763 9764 
9765 9766 9767 9768 9769 9770 9771 9772 9773 
9774 9775 9776 9777 9778 9779 9780 9781 9782 
9783 9784 9785 9786 9787 9788 9789 9790 9791 
9792 9793 9794 9795 9796 9797 9798 9799 9800 
9801 9802 9803 9804 9805 9806 9807 9808 9809 
9810 9811 9812 9813 9814 9815 9816 9817 9818 
9819 9820 9821 9822 9823 9824 9825 9826 9827 
9828 9829 9830 9831 9832 9833 9834 9835 9836 
9837 9838 9839 9840 9841 9842 9843 9844 9845 
9846 9847 9848 9849 9850 9851 9852 9853 9854 
9855 9856 9857 9858 9859 9860 9861 9862 9863 
9864 9865 9866 9867 9868 9869 9870 9871 9872 
9873 9874 9875 9876 9877 9878 9879 9880 9881 
9882 9883 9884 9885 9886 9887 9888 9889 9890 
9891 9892 9893 9894 9895 9896 9897 9898 9899 
9900 9901 9902 9903 9904 9905 9906 9907 9908 
9909 9910 9911 9912 9913 9914 9915 9916 9917 
9918 9919 9920 9921 9922 9923 9924 9925 9926 
9927 9928 9929 9930 9931 9932 9933 9934 9935 
9936 9937 9938 9939 9940 9941 9942 9943 9944 
9945 9946 9947 9948 9949 9950 9951 9952 9953 
9954 9955 9956 9957 9958 9959 9960 9961 9962 
9963 9964 9965 9966 9967 9968 9969 9970 9971 
9972 9973 9974 9975 9976 9977 9978 9979 9980 
9981 9982 9983 9984 9985 9986 9987 9988 9989 
9990 9991 9992 9993 9994 9995 9996 9997 9998 
9999 10000 10001 10002 10003 10004 10005 10006 10007 
10008 10009 10010 10011 10012 10013 10014 10015 10016 
10017 10018 10019 10020 10021 10022 10023 10024 10025 
10026 10027 10028 10029 10030 10031 10032 10033 10034 
10035 10036 10037 10038 10039 10040 10041 10042 10043 
10044 10045 10046 10047 10048 10049 10050 10051 10052 
10053 10054 10055 10056 10057 10058 10059 10060 10061 
10062 10063 10064 10065 10066 10067 10068 10069 10070 
10071 10072 10073 10074 10075 10076 10077 10078 10079 
10080 10081 10082 10083 10084 10085 10086 10087 10088 
10089 10090 10091 10092 10093 10094 10095 10096 10097 
10098 10099 10100 10101 10102 10103 10104 10105 10106 
10107 10108 10109 10110 10111 10112 10113 10114 10115 
10116 10117 10118 10119 10120 10121 10122 10123 10124 
10125 10126 10127 10128 10129 10130 10131 10132 10133 
10134 10135 10136 10137 10138 10139 10140 10141 10142 
10143 10144 10145 10146 10147 10148 10149 10150 10151 
10152 10153 10154 10155 10156 10157 10158 10159 10160 
10161 10162 10163 10164 10165 10166 10167 10168 10169 
10170 10171 10172 10173 10174 10175 10176 10177 10178 
10179 10180 10181 10182 10183 10184 10185 10186 10187 
10188 10189 10190 10191 10192 10193 10194 10195 10196 
10197 10198 10199 10200 10201 10202 10203 10204 10205 
10206 10207 10208 10209 10210 10211 10212 10213 10214 
10215 10216 10217 10218 10219 10220 10221 10222 10223 
10224 10225 10226 10227 10228 10229 10230 10231 10232 
10233 10234 10235 10236 10237 10238 10239 10240 10241 
10242 10243 10244 10245 10246 10247 10248 10249 10250 
10251 10252 10253 10254 10255 10256 10257 10258 10259 
10260 10261 10262 10263 10264 10265 10266 10267 10268 
10269 10270 10271 10272 10273 10274 10275 10276 10277 
10278 10279 10280 10281 10282 10283 10284 10285 10286 
10287 10288 10289 10290 10291 10292 10293 10294 10295 
10296 10297 10298 10299 10300 10301 10302 10303 10304 
10305 10306 10307 10308 10309 10310 10311 10312 10313 
10314 10315 10316 10317 10318 10319 10320 10321 10322 
10323 10324 10325 10326 10327 10328 10329 10330 10331 
10332 10333 10334 10335 10336 10337 10338 10339 10340 
10341 10342 10343 10344 10345 10346 10347 10348 10349 
10350 10351 10352 10353 10354 10355 10356 10357 10358 
10359 10360 10361 10362 10363 10364 10365 10366 10367 
10368 10369 10370 10371 10372 10373 10374 10375 10376 
10377 10378 10379 10380 10381 10382 10383 10384 10385 
10386 10387 10388 10389 10390 10391 10392 10393 10394 
10395 10396 10397 10398 10399 10400 10401 10402 10403 
10404 10405 10406 10407 10408 10409 10410 10411 10412 
10413 10414 10415 10416 10417 10418 10419 10420 10421 
10422 10423 10424 10425 10426 10427 10428 10429 10430 
10431 10432 10433 10434 10435 10436 10437 10438 10439 
10440 10441 10442 10443 10444 10445 10446 10447 10448 
10449 10450 10451 10452 10453 10454 10455 10456 10457 
10458 10459 10460 10461 10462 10463 10464 10465 10466 
10467 10468 10469 10470 10471 10472 10473 10474 10475 
10476 10477 10478 10479 10480 10481 10482 10483 10484 
10485 10486 10487 10488 10489 10490 10491 10492 10493 
10494 10495 10496 10497 10498 10499 10500 10501 10502 
10503 10504 10505 10506 10507 10508 10509 10510 10511 
10512 10513 10514 10515 10516 10517 10518 10519 10520 
10521 10522 10523 10524 10525 10526 10527 10528 10529 
10530 10531 10532 10533 10534 10535 10536 10537 10538 
10539 10540 10541 10542 10543 10544 10545 10546 10547 
10548 10549 10550 10551 10552 10553 10554 10555 10556 
10557 10558 10559 10560 10561 10562 10563 10564 10565 
10566 10567 10568 10569 10570 10571 10572 10573 10574 
10575 10576 10577 10578 10579 10580 10581 10582 10583 
10584 10585 10586 10587 10588 10589 10590 10591 10592 
10593 10594 10595 10596 10597 10598 10599 10600 10601 
10602 10603 10604 10605 10606 10607 10608 10609 10610 
10611 10612 10613 10614 10615 10616 10617 10618 10619 
10620 10621 10622 10623 10624 10625 10626 10627 10628 
10629 10630 10631 10632 10633 10634 10635 10636 10637 
10638 10639 10640 10641 10642 10643 10644 10645 10646 
10647 10648 10649 10650 10651 10652 10653 10654 10655 
10656 10657 10658 10659 10660 10661 10662 10663 10664 
10665 10666 10667 10668 10669 10670 10671 10672 10673 
10674 10675 10676 10677 10678 10679 10680 10681 10682 
10683 10684 10685 10686 10687 10688 10689 10690 10691 
10692 10693 10694 10695 10696 10697 10698 10699 10700 
10701 10702 10703 10704 10705 10706 10707 10708 10709 
10710 10711 10712 10713 10714 10715 10716 10717 10718 
10719 10720 10721 10722 10723 10724 10725 10726 10727 
10728 10729 10730 10731 10732 10733 10734 10735 10736 
10737 10738 10739 10740 10741 10742 10743 10744 10745 
10746 10747 10748 10749 10750 10751 10752 10753 10754 
10755 10756 10757 10758 10759 10760 10761 10762 10763 
10764 10765 10766 10767 10768 10769 10770 10771 10772 
10773 10774 10775 10776 10777 10778 10779 10780 10781 
10782 10783 10784 10785 10786 10787 10788 10789 10790 
10791 10792 10793 10794 10795 10796 10797 10798 10799 
10800 10801 10802 10803 10804 10805 10806 10807 10808 
10809 10810 10811 10812 10813 10814 10815 10816 10817 
10818 10819 10820 10821 10822 10823 10824 10825 10826 
10827 10828 10829 10830 10831 10832 10833 10834 10835 
10836 10837 10838 10839 10840 10841 10842 10843 10844 
10845 10846 10847 10848 10849 10850 10851 10852 10853 
10854 10855 10856 10857 10858 10859 10860 10861 10862 
10863 10864 10865 10866 10867 10868 10869 10870 10871 
10872 10873 10874 10875 10876 10877 10878 10879 10880 
10881 10882 10883 10884 10885 10886 10887 10888 10889 
10890 10891 10892 10893 10894 10895 10896 10897 10898 
10899 10900 10901 10902 10903 10904 10905 10906 10907 
10908 10909 10910 10911 10912 10913 10914 10915 10916 
10917 10918 10919 10920 10921 10922 10923 10924 10925 
10926 10927 10928 10929 10930 10931 10932 10933 10934 
10935 10936 10937 10938 10939 10940 10941 10942 10943 
10944 10945 10946 10947 10948 10949 10950 10951 10952 
10953 10954 10955 10956 10957 10958 10959 10960 10961 
10962 10963 10964 10965 10966 10967 10968 10969 10970 
10971 10972 10973 10974 10975 10976 10977 10978 10979 
10980 10981 10982 10983 10984 10985 10986 10987 10988 
10989 10990 10991 10992 10993 10994 10995 10996 10997 
10998 10999 11000 11001 11002 11003 11004 11005 11006 
11007 11008 11009 11010 11011 11012 11013 11014 11015 
11016 11017 11018 11019 11020 11021 11022 11023 11024 
11025 11026 11027 11028 11029 11030 11031 11032 11033 
11034 11035 11036 11037 11038 11039 11040 11041 11042 
11043 11044 11045 11046 11047 11048 11049 11050 11051 
11052 11053 11054 11055 11056 11057 11058 11059 11060 
11061 11062 11063 11064 11065 11066 11067 11068 11069 
11070 11071 11072 11073 11074 11075 11076 11077 11078 
11079 11080 11081 11082 11083 11084 11085 11086 11087 
11088 11089 11090 11091 11092 11093 11094 11095 11096 
11097 11098 11099 11100 11101 11102 11103 11104 11105 
11106 11107 11108 11109 11110 11111 11112 11113 11114 
11115 11116 11117 11118 11119 11120 11121 11122 11123 
11124 11125 11126 11127 11128 11129 11130 11131 11132 
11133 11134 11135 11136 11137 11138 11139 11140 11141 
11142 11143 11144 11145 11146 11147 11148 11149 11150 
11151 11152 11153 11154 11155 11156 11157 11158 11159 
11160 11161 11162 11163 11164 11165 11166 11167 11168 
11169 11170 11171 11172 11173 11174 11175 11176 11177 
11178 11179 11180 11181 11182 11183 11184 11185 11186 
11187 11188 11189 11190 11191 11192 11193 11194 11195 
11196 11197 11198 11199 11200 11201 11202 11203 11204 
11205 11206 11207 11208 11209 11210 11211 11212 11213 
11214 11215 11216 11217 11218 11219 11220 11221 11222 
11223 11224 11225 11226 11227 11228 11229 11230 11231 
11232 11233 11234 11235 11236 11237 11238 11239 11240 
11241 11242 11243 11244 11245 11246 11247 11248 11249 
11250 11251 11252 11253 11254 11255 11256 11257 11258 
11259 11260 11261 11262 11263 11264 11265 11266 11267 
11268 11269 11270 11271 11272 11273 11274 11275 11276 
11277 11278 11279 11280 11281 11282 11283 11284 11285 
11286 11287 11288 11289 11290 11291 11292 11293 11294 
11295 11296 11297 11298 11299 11300 11301 11302 11303 
11304 11305 11306 11307 11308 11309 11310 11311 11312 
11313 11314 11315 11316 11317 11318 11319 11320 11321 
11322 11323 11324 11325 11326 11327 11328 11329 11330 
11331 11332 11333 11334 11335 11336 11337 11338 11339 
11340 11341 11342 11343 11344 11345 11346 11347 11348 
11349 11350 11351 11352 11353 11354 11355 11356 11357 
11358 11359 11360 11361 11362 11363 11364 11365 11366 
11367 11368 11369 11370 11371 11372 11373 11374 11375 
11376 11377 11378 11379 11380 11381 11382 11383 11384 
11385 11386 11387 11388 11389 11390 11391 11392 11393 
11394 11395 11396 11397 11398 11399 11400 11401 11402 
11403 11404 11405 11406 11407 11408 11409 11410 11411 
11412 11413 11414 11415 11416 11417 11418 11419 11420 
11421 11422 11423 11424 11425 11426 11427 11428 11429 
11430 11431 11432 11433 11434 11435 11436 11437 11438 
11439 11440 11441 11442 11443 11444 11445 11446 11447 
11448 11449 11450 11451 11452 11453 11454 11455 11456 
11457 11458 11459 11460 11461 11462 11463 11464 11465 
11466 11467 11468 11469 11470 11471 11472 11473 11474 
11475 11476 11477 11478 11479 11480 11481 11482 11483 
11484 11485 11486 11487 11488 11489 11490 11491 11492 
11493 11494 11495 11496 11497 11498 11499 11500 11501 
11502 11503 11504 11505 11506 11507 11508 11509 11510 
11511 11512 11513 11514 11515 11516 11517 11518 11519 
11520 11521 11522 11523 11524 11525 11526 11527 11528 
11529 11530 11531 11532 11533 11534 11535 11536 11537 
11538 11539 11540 11541 11542 11543 11544 11545 11546 
11547 11548 11549 11550 11551 11552 11553 11554 11555 
11556 11557 11558 11559 11560 11561 11562 11563 11564 
11565 11566 11567 11568 11569 11570 11571 11572 11573 
11574 11575 11576 11577 11578 11579 11580 11581 11582 
11583 11584 11585 11586 11587 11588 11589 11590 11591 
11592 11593 11594 11595 11596 11597 11598 11599 11600 
11601 11602 11603 11604 11605 11606 11607 11608 11609 
11610 11611 11612 11613 11614 11615 11616 11617 11618 
11619 11620 11621 11622 11623 11624 11625 11626 11627 
11628 11629 11630 11631 11632 11633 11634 11635 11636 
11637 11638 11639 11640 11641 11642 11643 11644 11645 
11646 11647 11648 11649 11650 11651 11652 11653 11654 
11655 11656 11657 11658 11659 11660 11661 11662 11663 
11664 11665 11666 11667 11668 11669 11670 11671 11672 
11673 11674 11675 11676 11677 11678 11679 11680 11681 
11682 11683 11684 11685 11686 11687 11688 11689 11690 
11691 11692 11693 11694 11695 11696 11697 11698 11699 
11700 11701 11702 11703 11704 11705 11706 11707 11708 
11709 11710 11711 11712 11713 11714 11715 11716 11717 
11718 11719 11720 11721 11722 11723 11724 11725 11726 
11727 11728 11729 11730 11731 11732 11733 11734 11735 
11736 11737 11738 11739 11740 11741 11742 11743 11744 
11745 11746 11747 11748 11749 11750 11751 11752 11753 
11754 11755 11756 11757 11758 11759 11760 11761 11762 
11763 11764 11765 11766 11767 11768 11769 11770 11771 
11772 11773 11774 11775 11776 11777 11778 11779 11780 
11781 11782 11783 11784 11785 11786 11787 11788 11789 
11790 11791 11792 11793 11794 11795 11796 11797 11798 
11799 11800 11801 11802 11803 11804 11805 11806 11807 
11808 11809 11810 11811 11812 11813 11814 11815 11816 
11817 11818 11819 11820 11821 11822 11823 11824 11825 
11826 11827 11828 11829 11830 11831 11832 11833 11834 
11835 11836 11837 11838 11839 11840 11841 11842 11843 
11844 11845 11846 11847 11848 11849 11850 11851 11852 
11853 11854 11855 11856 11857 11858 11859 11860 11861 
11862 11863 11864 11865 11866 11867 11868 11869 11870 
11871 11872 11873 11874 11875 11876 11877 11878 11879 
11880 11881 11882 11883 11884 11885 11886 11887 11888 
11889 11890 11891 11892 11893 11894 11895 11896 11897 
11898 11899 11900 11901 11902 11903 11904 11905 11906 
11907 11908 11909 11910 11911 11912 11913 11914 11915 
11916 11917 11918 11919 11920 11921 11922 11923 11924 
11925 11926 11927 11928 11929 11930 11931 11932 11933 
11934 11935 11936 11937 11938 11939 11940 11941 11942 
11943 11944 11945 11946 11947 11948 11949 11950 11951 
11952 11953 11954 11955 11956 11957 11958 11959 11960 
11961 11962 11963 11964 11965 11966 11967 11968 11969 
11970 11971 11972 11973 11974 11975 11976 11977 11978 
11979 11980 11981 11982 11983 11984 11985 11986 11987 
11988 11989 11990 11991 11992 11993 11994 11995 11996 
11997 11998 11999 12000 12001 12002 12003 12004 12005 
12006 12007 12008 12009 12010 12011 12012 12013 12014 
12015 12016 12017 12018 12019 12020 12021 12022 12023 
12024 12025 12026 12027 12028 12029 12030 12031 12032 
12033 12034 12035 12036 12037 12038 12039 12040 12041 
12042 12043 12044 12045 12046 12047 12048 12049 12050 
12051 12052 12053 12054 12055 12056 12057 12058 12059 
12060 12061 12062 12063 12064 12065 12066 12067 12068 
12069 12070 12071 12072 12073 12074 12075 12076 12077 
12078 12079 12080 12081 12082 12083 12084 12085 12086 
12087 12088 12089 12090 12091 12092 12093 12094 12095 
12096 12097 12098 12099 12100 12101 12102 12103 12104 
12105 12106 12107 12108 12109 12110 12111 12112 12113 
12114 12115 12116 12117 12118 12119 12120 12121 12122 
12123 12124 12125 12126 12127 12128 12129 12130 12131 
12132 12133 12134 12135 12136 12137 12138 12139 12140 
12141 12142 12143 12144 12145 12146 12147 12148 12149 
12150 12151 12152 12153 12154 12155 12156 12157 12158 
12159 12160 12161 12162 12163 12164 12165 12166 12167 
12168 12169 12170 12171 12172 12173 12174 12175 12176 
12177 12178 12179 12180 12181 12182 12183 12184 12185 
12186 12187 12188 12189 12190 12191 12192 12193 12194 
12195 12196 12197 12198 12199 12200 12201 12202 12203 
12204 12205 12206 12207 12208 12209 12210 12211 12212 
12213 12214 12215 12216 12217 12218 12219 12220 12221 
12222 12223 12224 12225 12226 12227 12228 12229 12230 
12231 12232 12233 12234 12235 12236 12237 12238 12239 
12240 12241 12242 12243 12244 12245 12246 12247 12248 
12249 12250 12251 12252 12253 12254 12255 12256 12257 
12258 12259 12260 12261 12262 12263 12264 12265 12266 
12267 12268 12269 12270 12271 12272 12273 12274 12275 
12276 12277 12278 12279 12280 12281 12282 12283 12284 
12285 12286 12287 12288 12289 12290 12291 12292 12293 
12294 12295 12296 12297 12298 12299 12300 12301 12302 
12303 12304 12305 12306 12307 12308 12309 12310 12311 
12312 12313 12314 12315 12316 12317 12318 12319 12320 
12321 12322 12323 12324 12325 12326 12327 12328 12329 
12330 12331 12332 12333 12334 12335 12336 12337 12338 
12339 12340 12341 12342 12343 12344 12345 12346 12347 
12348 12349 12350 12351 12352 12353 12354 12355 12356 
12357 12358 12359 12360 12361 12362 12363 12364 12365 
12366 12367 12368 12369 12370 12371 12372 12373 12374 
12375 12376 12377 12378 12379 12380 12381 12382 12383 
12384 12385 12386 12387 12388 12389 12390 12391 12392 
12393 12394 12395 12396 12397 12398 12399 12400 12401 
12402 12403 12404 12405 12406 12407 12408 12409 12410 
      </DataArray>
      <DataArray type="Int32" Name="offsets" format="ascii">
9
18
27
36
45
54
63
72
81
90
99
108
117
126
135
144
153
162
171
180
189
198
207
216
225
234
243
252
261
270
279
288
297
306
315
324
333
342
351
360
369
378
387
396
405
414
423
432
441
450
459
468
477
486
495
504
513
522
531
540
549
558
567
576
585
594
603
612
621
630
639
648
657
666
675
684
693
702
711
720
729
738
747
756
765
774
783
792
801
810
819
828
837
846
855
864
873
882
891
900
909
918
927
936
945
954
963
972
981
990
999
1008
1017
1026
1035
1044
1053
1062
1071
1080
1089
1098
1107
1116
1125
1134
1143
1152
1161
1170
1179
1188
1197
1206
1215
1224
1233
1242
1251
1260
1269
1278
1287
1296
1305
1314
1323
1332
1341
1350
1359
1368
1377
1386
1395
1404
1413
1422
1431
1440
1449
1458
1467
1476
1485
1494
1503
1512
1521
1530
1539
1548
1557
1566
1575
1584
1593
1602
1611
1620
1629
1638
1647
1656
1665
1674
1683
1692
1701
1710
1719
1728
1737
1746
1755
1764
1773
1782
1791
1800
1809
1818
1827
1836
1845
1854
1863
1872
1881
1890
1899
1908
1917
1926
1935
1944
1953
1962
1971
1980
1989
1998
2007
2016
2025
2034
2043
2052
2061
2070
2079
2088
2097
2106
2115
2124
2133
2142
2151
2160
2169
2178
2187
2196
2205
2214
2223
2232
2241
2250
2259
2268
2277
2286
2295
2304
2313
2322
2331
2340
2349
2358
2367
2376
2385
2394
2403
2412
2421
2430
2439
2448
2457
2466
2475
2484
2493
2502
2511
2520
2529
2538
2547
2556
2565
2574
2583
2592
2601
2610
2619
2628
2637
2646
2655
2664
2673
2682
2691
2700
2709
2718
2727
2736
2745
2754
2763
2772
2781
2790
2799
2808
2817
2826
2835
2844
2853
2862
2871
2880
2889
2898
2907
2916
2925
2934
2943
2952
2961
2970
2979
2988
2997
3006
3015
3024
3033
3042
3051
3060
3069
3078
3087
3096
3105
3114
3123
3132
3141
3150
3159
3168
3177
3186
3195
3204
3213
3222
3231
3240
3249
3258
3267
3276
3285
3294
3303
3312
3321
3330
3339
3348
3357
3366
3375
3384
3393
3402
3411
3420
3429
3438
3447
3456
3465
3474
3483
3492
3501
3510
3519
3528
3537
3546
3555
3564
3573
3582
3591
3600
3609
3618
3627
3636
3645
3654
3663
3672
3681
3690
3699
3708
3717
3726
3735
3744
3753
3762
3771
3780
3789
3798
3807
3816
3825
3834
3843
3852
3861
3870
3879
3888
3897
3906
3915
3924
3933
3942
3951
3960
3969
3978
3987
3996
4005
4014
4023
4032
4041
4050
4059
4068
4077
4086
4095
4104
4113
4122
4131
4140
4149
4158
4167
4176
4185
4194
4203
4212
4221
4230
4239
4248
4257
4266
4275
4284
4293
4302
4311
4320
4329
4338
4347
4356
4365
4374
4383
4392
4401
4410
4419
4428
4437
4446
4455
4464
4473
4482
4491
4500
4509
4518
4527
4536
4545
4554
4563
4572
4581
4590
4599
4608
4617
4626
4635
4644
4653
4662
4671
4680
4689
4698
4707
4716
4725
4734
4743
4752
4761
4770
4779
4788
4797
4806
4815
4824
4833
4842
4851
4860
4869
4878
4887
4896
4905
4914
4923
4932
4941
4950
4959
4968
4977
4986
4995
5004
5013
5022
5031
5040
5049
5058
5067
5076
5085
5094
5103
5112
5121
5130
5139
5148
5157
5166
5175
5184
5193
5202
5211
5220
5229
5238
5247
5256
5265
5274
5283
5292
5301
5310
5319
5328
5337
5346
5355
5364
5373
5382
5391
5400
5409
5418
5427
5436
5445
5454
5463
5472
5481
5490
5499
5508
5517
5526
5535
5544
5553
5562
5571
5580
5589
5598
5607
5616
5625
5634
5643
5652
5661
5670
5679
5688
5697
5706
5715
5724
5733
5742
5751
5760
5769
5778
5787
5796
5805
5814
5823
5832
5841
5850
5859
5868
5877
5886
5895
5904
5913
5922
5931
5940
5949
5958
5967
5976
5985
5994
6003
6012
6021
6030
6039
6048
6057
6066
6075
6084
6093
6102
6111
6120
6129
6138
6147
6156
6165
6174
6183
6192
6201
6210
6219
6228
6237
6246
6255
6264
6273
6282
6291
6300
6309
6318
6327
6336
6345
6354
6363
6372
6381
6390
6399
6408
6417
6426
6435
6444
6453
6462
6471
6480
6489
6498
6507
6516
6525
6534
6543
6552
6561
6570
6579
6588
6597
6606
6615
6624
6633
6642
6651
6660
6669
6678
6687
6696
6705
6714
6723
6732
6741
6750
6759
6768
6777
6786
6795
6804
6813
6822
6831
6840
6849
6858
6867
6876
6885
6894
6903
6912
6921
6930
6939
6948
6957
6966
6975
6984
6993
7002
7011
7020
7029
7038
7047
7056
7065
7074
7083
7092
7101
7110
7119
7128
7137
7146
7155
7164
7173
7182
7191
7200
7209
7218
7227
7236
7245
7254
7263
7272
7281
7290
7299
7308
7317
7326
7335
7344
7353
7362
7371
7380
7389
7398
7407
7416
7425
7434
7443
7452
7461
7470
7479
7488
7497
7506
7515
7524
7533
7542
7551
7560
7569
7578
7587
7596
7605
7614
7623
7632
7641
7650
7659
7668
7677
7686
7695
7704
7713
7722
7731
7740
7749
7758
7767
7776
7785
7794
7803
7812
7821
7830
7839
7848
7857
7866
7875
7884
7893
7902
7911
7920
7929
7938
7947
7956
7965
7974
7983
7992
8001
8010
8019
8028
8037
8046
8055
8064
8073
8082
8091
8100
8109
8118
8127
8136
8145
8154
8163
8172
8181
8190
8199
8208
8217
8226
8235
8244
8253
8262
8271
8280
8289
8298
8307
8316
8325
8334
8343
8352
8361
8370
8379
8388
8397
8406
8415
8424
8433
8442
8451
8460
8469
8478
8487
8496
8505
8514
8523
8532
8541
8550
8559
8568
8577
8586
8595
8604
8613
8622
8631
8640
8649
8658
8667
8676
8685
8694
8703
8712
8721
8730
8739
8748
8757
8766
8775
8784
8793
8802
8811
8820
8829
8838
8847
8856
8865
8874
8883
8892
8901
8910
8919
8928
8937
8946
8955
8964
8973
8982
8991
9000
9009
9018
9027
9036
9045
9054
9063
9072
9081
9090
9099
9108
9117
9126
9135
9144
9153
9162
9171
9180
9189
9198
9207
9216
9225
9234
9243
9252
9261
9270
9279
9288
9297
9306
9315
9324
9333
9342
9351
9360
9369
9378
9387
9396
9405
9414
9423
9432
9441
9450
9459
9468
9477
9486
9495
9504
9513
9522
9531
9540
9549
9558
9567
9576
9585
9594
9603
9612
9621
9630
9639
9648
9657
9666
9675
9684
9693
9702
9711
9720
9729
9738
9747
9756
9765
9774
9783
9792
9801
9810
9819
9828
9837
9846
9855
9864
9873
9882
9891
9900
9909
9918
9927
9936
9945
9954
9963
9972
9981
9990
9999
10008
10017
10026
10035
10044
10053
10062
10071
10080
10089
10098
10107
10116
10125
10134
10143
10152
10161
10170
10179
10188
10197
10206
10215
10224
10233
10242
10251
10260
10269
10278
10287
10296
10305
10314
10323
10332
10341
10350
10359
10368
10377
10386
10395
10404
10413
10422
10431
10440
10449
10458
10467
10476
10485
10494
10503
10512
10521
10530
10539
10548
10557
10566
10575
10584
10593
10602
10611
10620
10629
10638
10647
10656
10665
10674
10683
10692
10701
10710
10719
10728
10737
10746
10755
10764
10773
10782
10791
10800
10809
10818
10827
10836
10845
10854
10863
10872
10881
10890
10899
10908
10917
10926
10935
10944
10953
10962
10971
10980
10989
10998
11007
11016
11025
11034
11043
11052
11061
11070
11079
11088
11097
11106
11115
11124
11133
11142
11151
11160
11169
11178
11187
11196
11205
11214
11223
11232
11241
11250
11259
11268
11277
11286
11295
11304
11313
11322
11331
11340
11349
11358
11367
11376
11385
11394
11403
11412
11421
11430
11439
11448
11457
11466
11475
11484
11493
11502
11511
11520
11529
11538
11547
11556
11565
11574
11583
11592
11601
11610
11619
11628
11637
11646
11655
11664
11673
11682
11691
11700
11709
11718
11727
11736
11745
11754
11763
11772
11781
11790
11799
11808
11817
11826
11835
11844
11853
11862
11871
11880
11889
11898
11907
11916
11925
11934
11943
11952
11961
11970
11979
11988
11997
12006
12015
12024
12033
12042
12051
12060
12069
12078
12087
12096
12105
12114
12123
12132
12141
12150
12159
12168
12177
12186
12195
12204
12213
12222
12231
12240
12249
12258
12267
12276
12285
12294
12303
12312
12321
12330
12339
12348
12357
12366
12375
12384
12393
12402
12411
      </DataArray>
      <DataArray type="UInt8" Name="types" format="ascii">
70
70
70
70
70
70
70
70
70
70
70
70
70
70
70
70
70
70
70
70
70
70
70
70
70
70
70
70
70
70
70
70
70
70
70
70
70
70
70
70
70
70
70
70
70
70
70
70
70
70
70
70
70
70
70
70
70
70
70
70
70
70
70
70
70
70
70
70
70
70
70
70
70
70
70
70
70
70
70
70
70
70
70
70
70
70
70
70
70
70
70
70
70
70
70
70
70
70
70
70
70
70
70
70
70
70
70
70
70
70
70
70
70
70
70
70
70
70
70
70
70
70
70
70
70
70
70
70
70
70
70
70
70
70
70
70
70
70
70
70
70
70
70
70
70
70
70
70
70
70
70
70
70
70
70
70
70
70
70
70
70
70
70
70
70
70
70
70
70
70
70
70
70
70
70
70
70
70
70
70
70
70
70
70
70
70
70
70
70
70
70
70
70
70
70
70
70
70
70
70
70
70
70
70
70
70
70
70
70
70
70
70
70
70
70
70
70
70
70
70
70
70
70
70
70
70
70
70
70
70
70
70
70
70
70
70
70
70
70
70
70
70
70
70
70
70
70
70
70
70
70
70
70
70
70
70
70
70
70
70
70
70
70
70
70
70
70
70
70
70
70
70
70
70
70
70
70
70
70
70
70
70
70
70
70
70
70
70
70
70
70
70
70
70
70
70
70
70
70
70
70
70
70
70
70
70
70
70
70
70
70
70
70
70
70
70
70
70
70
70
70
70
70
70
70
70
70
70
70
70
70
70
70
70
70
70
70
70
70
70
70
70
70
70
70
70
70
70
70
70
70
70
70
70
70
70
70
70
70
70
70
70
70
70
70
70
70
70
70
70
70
70
70
70
70
70
70
70
70
70
70
70
70
70
70
70
70
70
70
70
70
70
70
70
70
70
70
70
70
70
70
70
70
70
70
70
70
70
70
70
70
70
70
70
70
70
70
70
70
70
70
70
70
70
70
70
70
70
70
70
70
70
70
70
70
70
70
70
70
70
70
70
70
70
70
70
70
70
70
70
70
70
70
70
70
70
70
70
70
70
70
70
70
70
70
70
70
70
70
70
70
70
70
70
70
70
70
70
70
70
70
70
70
70
70
70
70
70
70
70
70
70
70
70
70
70
70
70
70
70
70
70
70
70
70
70
70
70
70
70
70
70
70
70
70
70
70
70
70
70
70
70
70
70
70
70
70
70
70
70
70
70
70
70
70
70
70
70
70
70
70
70
70
70
70
70
70
70
70
70
70
70
70
70
70
70
70
70
70
70
70
70
70
70
70
70
70
70
70
70
70
70
70
70
70
70
70
70
70
70
70
70
70
70
70
70
70
70
70
70
70
70
70
70
70
70
70
70
70
70
70
70
70
70
70
70
70
70
70
70
70
70
70
70
70
70
70
70
70
70
70
70
70
70
70
70
70
70
70
70
70
70
70
70
70
70
70
70
70
70
70
70
70
70
70
70
70
70
70
70
70
70
70
70
70
70
70
70
70
70
70
70
70
70
70
70
70
70
70
70
70
70
70
70
70
70
70
70
70
70
70
70
70
70
70
70
70
70
70
70
70
70
70
70
70
70
70
70
70
70
70
70
70
70
70
70
70
70
70
70
70
70
70
70
70
70
70
70
70
70
70
70
70
70
70
70
70
70
70
70
70
70
70
70
70
70
70
70
70
70
70
70
70
70
70
70
70
70
70
70
70
70
70
70
70
70
70
70
70
70
70
70
70
70
70
70
70
70
70
70
70
70
70
70
70
70
70
70
70
70
70
70
70
70
70
70
70
70
70
70
70
70
70
70
70
70
70
70
70
70
70
70
70
70
70
70
70
70
70
70
70
70
70
70
70
70
70
70
70
70
70
70
70
70
70
70
70
70
70
70
70
70
70
70
70
70
70
70
70
70
70
70
70
70
70
70
70
70
70
70
70
70
70
70
70
70
70
70
70
70
70
70
70
70
70
70
70
70
70
70
70
70
70
70
70
70
70
70
70
70
70
70
70
70
70
70
70
70
70
70
70
70
70
70
70
70
70
70
70
70
70
70
70
70
70
70
70
70
70
70
70
70
70
70
70
70
70
70
70
70
70
70
70
70
70
70
70
70
70
70
70
70
70
70
70
70
70
70
70
70
70
70
70
70
70
70
70
70
70
70
70
70
70
70
70
70
70
70
70
70
70
70
70
70
70
70
70
70
70
70
70
70
70
70
70
70
70
70
70
70
70
70
70
70
70
70
70
70
70
70
70
70
70
70
70
70
70
70
70
70
70
70
70
70
70
70
70
70
70
70
70
70
70
70
70
70
70
70
70
70
70
70
70
70
70
70
70
70
70
70
70
70
70
70
70
70
70
70
70
70
70
70
70
70
70
70
70
70
70
70
70
70
70
70
70
70
70
70
70
70
70
70
70
70
70
70
70
70
70
70
70
70
70
70
70
70
70
70
70
70
70
70
70
70
70
70
70
70
70
70
70
70
70
70
70
70
70
70
70
70
70
70
70
70
70
70
70
70
70
70
70
70
70
70
70
70
70
70
70
70
70
70
70
70
70
70
70
70
70
70
70
70
70
70
70
70
70
70
70
70
70
70
70
70
70
70
70
70
70
70
70
70
70
70
70
70
70
70
70
70
70
70
70
70
70
70
70
70
70
70
70
70
70
70
70
70
70
70
70
70
70
70
70
70
70
70
70
70
70
70
70
70
70
70
70
70
70
70
70
70
70
70
70
70
70
70
70
70
70
70
70
70
70
70
70
70
70
70
70
70
70
70
70
70
70
70
70
70
70
70
70
70
70
70
70
70
70
70
70
70
70
70
70
70
70
70
70
70
70
70
70
70
70
70
70
70
70
70
70
70
70
70
70
70
70
70
70
70
70
70
70
70
70
70
70
70
70
70
70
70
70
70
70
70
70
70
70
70
70
70
70
70
70
70
70
70
70
70
70
70
70
70
70
70
70
70
70
70
70
70
70
70
70
70
70
70
70
70
70
70
70
70
70
70
70
70
70
70
70
70
70
70
70
70
70
70
70
70
70
70
70
70
70
70
70
70
70
70
70
70
70
70
70
70
70
70
70
70
70
70
70
70
70
70
70
70
70
70
70
70
70
70
70
70
70
70
70
70
70
      </DataArray>
    </Cells>
    <PointData>
      <DataArray type="Float64" NumberOfComponents="3" Name="Displacement" format="ascii">
0 0 0
-0.00076903 -0.000384185 -0.000384185
-0.000458359 -0.000129924 -0.000129924
0 0 0
-0.000418416 -0.000239408 -0.000239408
-0.000579096 -0.000232235 -0.000232235
-0.000222428 -4.65921e-05 -4.65921e-05
0 0 0
-0.0002762 -0.000102346 -0.000102346
-0.00076903 -0.000384185 -0.000384185
-0.00143442 -0.000667447 -0.000667447
-0.000954625 -0.000375029 -0.000375029
-0.000458359 -0.000129924 -0.000129924
-0.00110272 -0.000520472 -0.000520472
-0.00118242 -0.000506422 -0.000506422
-0.000704132 -0.000240642 -0.000240642
-0.000579096 -0.000232235 -0.000232235
-0.000882459 -0.000365194 -0.000365194
-0.00143442 -0.000667447 -0.000667447
-0.00210557 -0.00100914 -0.00100914
-0.00145535 -0.000711758 -0.000711758
-0.000954625 -0.000375029 -0.000375029
-0.00176882 -0.000828291 -0.000828291
-0.00177687 -0.000849242 -0.000849242
-0.00120529 -0.00053155 -0.00053155
-0.00118242 -0.000506422 -0.000506422
-0.00148042 -0.000666675 -0.000666675
-0.00210557 -0.00100914 -0.00100914
-0.00278213 -0.00144873 -0.00144873
-0.00195354 -0.00115026 -0.00115026
-0.00145535 -0.000711758 -0.000711758
-0.00244337 -0.00121566 -0.00121566
-0.00236617 -0.00128779 -0.00128779
-0.00170488 -0.000917693 -0.000917693
-0.00177687 -0.000849242 -0.000849242
-0.00207195 -0.00105564 -0.00105564
-0.00278213 -0.00144873 -0.00144873
-0.00346223 -0.00199531 -0.00199531
-0.00244745 -0.0016978 -0.0016978
-0.00195354 -0.00115026 -0.00115026
-0.00312193 -0.00170827 -0.00170827
-0.0029534 -0.00183496 -0.00183496
-0.002201 -0.00141009 -0.00141009
-0.00236617 -0.00128779 -0.00128779
-0.00265999 -0.0015474 -0.0015474
-0.00346223 -0.00199531 -0.00199531
-0.00414251 -0.00265503 -0.00265503
-0.00293806 -0.00235858 -0.00235858
-0.00244745 -0.0016978 -0.0016978
-0.00380246 -0.00231089 -0.00231089
-0.00353859 -0.00249485 -0.00249485
-0.00269314 -0.00201391 -0.00201391
-0.0029534 -0.00183496 -0.00183496
-0.00324626 -0.00215068 -0.00215068
-0.00414251 -0.00265503 -0.00265503
-0.00482177 -0.00342874 -0.00342874
-0.00342557 -0.00313378 -0.00313378
-0.00293806 -0.00235858 -0.00235858
-0.00448234 -0.0030276 -0.0030276
-0.0041217 -0.00326924 -0.00326924
-0.00318218 -0.00273184 -0.00273184
-0.00353859 -0.00249485 -0.00249485
-0.00383043 -0.00286769 -0.00286769
-0.00482177 -0.00342874 -0.00342874
-0.00549875 -0.00431719 -0.00431719
-0.00391035 -0.00402374 -0.00402374
-0.00342557 -0.00313378 -0.00313378
-0.00516059 -0.00385863 -0.00385863
-0.00470236 -0.00415836 -0.00415836
-0.00366829 -0.00356443 -0.00356443
-0.0041217 -0.00326924 -0.00326924
-0.00441236 -0.00369947 -0.00369947
-0.00549875 -0.00431719 -0.00431719
-0.00617294 -0.00531994 -0.00531994
-0.00439249 -0.00502811 -0.00502811
-0.00391035 -0.00402374 -0.00402374
-0.00583622 -0.0048043 -0.0048043
-0.00528039 -0.00516193 -0.00516193
-0.00415175 -0.00451166 -0.00451166
-0.00470236 -0.00415836 -0.00415836
-0.00499172 -0.00464587 -0.00464587
-0.00617294 -0.00531994 -0.00531994
-0.00684393 -0.00643659 -0.00643659
-0.00487208 -0.00614639 -0.00614639
-0.00439249 -0.00502811 -0.00502811
-0.00650885 -0.00586406 -0.00586406
-0.00585559 -0.00627941 -0.00627941
-0.0046326 -0.00557305 -0.00557305
-0.00528039 -0.00516193 -0.00516193
-0.00556835 -0.00570647 -0.00570647
-0.00684393 -0.00643659 -0.00643659
-0.00751158 -0.00766651 -0.00766651
-0.00534915 -0.00737796 -0.00737796
-0.00487208 -0.00614639 -0.00614639
-0.00717818 -0.00703743 -0.00703743
-0.00642789 -0.0075102 -0.0075102
-0.00511093 -0.00674805 -0.00674805
-0.00585559 -0.00627941 -0.00627941
-0.00614211 -0.00688068 -0.00688068
-0.00751158 -0.00766651 -0.00766651
-0.00817577 -0.0090091 -0.0090091
-0.00582371 -0.0087222 -0.0087222
-0.00534915 -0.00737796 -0.00737796
-0.00784411 -0.00832376 -0.00832376
-0.00699724 -0.00885367 -0.00885367
-0.00558674 -0.00803603 -0.00803603
-0.00642789 -0.0075102 -0.0075102
-0.00671294 -0.00816789 -0.00816789
-0.00817577 -0.0090091 -0.0090091
-0.00883648 -0.0104637 -0.0104637
-0.00629577 -0.0101785 -0.0101785
-0.00582371 -0.0087222 -0.0087222
-0.00850656 -0.00972244 -0.00972244
-0.00756362 -0.0103092 -0.0103092
-0.00606005 -0.00943637 -0.00943637
-0.00699724 -0.00885367 -0.00885367
-0.0072808 -0.00956746 -0.00956746
-0.00883648 -0.0104637 -0.0104637
-0.00949368 -0.0120297 -0.0120297
-0.00676535 -0.0117462 -0.0117462
-0.00629577 -0.0101785 -0.0101785
-0.00916552 -0.0112328 -0.0112328
-0.008127 -0.0118761 -0.0118761
-0.00653087 -0.0109484 -0.0109484
-0.00756362 -0.0103092 -0.0103092
-0.00784568 -0.0110787 -0.0110787
-0.00949368 -0.0120297 -0.0120297
-0.0101474 -0.0137065 -0.0137065
-0.00723243 -0.0134247 -0.0134247
-0.00676535 -0.0117462 -0.0117462
-0.00982097 -0.0128543 -0.0128543
-0.00868739 -0.0135538 -0.0135538
-0.0069992 -0.0125716 -0.0125716
-0.008127 -0.0118761 -0.0118761
-0.00840756 -0.0127011 -0.0127011
-0.0101474 -0.0137065 -0.0137065
-0.0107976 -0.0154935 -0.0154935
-0.00769704 -0.0152133 -0.0152133
-0.00723243 -0.0134247 -0.0134247
-0.0104729 -0.0145863 -0.0145863
-0.00924478 -0.0153417 -0.0153417
-0.00746505 -0.0143053 -0.0143053
-0.00868739 -0.0135538 -0.0135538
-0.00896646 -0.014434 -0.014434
-0.0107976 -0.0154935 -0.0154935
-0.0114443 -0.0173901 -0.0173901
-0.00815917 -0.0171116 -0.0171116
-0.00769704 -0.0152133 -0.0152133
-0.0111214 -0.0164282 -0.0164282
-0.00979919 -0.0172392 -0.0172392
-0.00792842 -0.0161488 -0.0161488
-0.00924478 -0.0153417 -0.0153417
-0.00952236 -0.0162768 -0.0162768
-0.0114443 -0.0173901 -0.0173901
-0.0120874 -0.0193956 -0.0193956
-0.00861883 -0.0191188 -0.0191188
-0.00815917 -0.0171116 -0.0171116
-0.0117663 -0.0183793 -0.0183793
-0.0103506 -0.0192456 -0.0192456
-0.00838931 -0.0181016 -0.0181016
-0.00979919 -0.0172392 -0.0172392
-0.0100753 -0.0182288 -0.0182288
-0.0120874 -0.0193956 -0.0193956
-0.0127271 -0.0215095 -0.0215095
-0.00907602 -0.0212344 -0.0212344
-0.00861883 -0.0191188 -0.0191188
-0.0124077 -0.0204391 -0.0204391
-0.0108991 -0.0213604 -0.0213604
-0.00884773 -0.0201631 -0.0201631
-0.0103506 -0.0192456 -0.0192456
-0.0106252 -0.0202895 -0.0202895
-0.0127271 -0.0215095 -0.0215095
-0.0133634 -0.0237312 -0.0237312
-0.00953074 -0.0234578 -0.0234578
-0.00907602 -0.0212344 -0.0212344
-0.0130457 -0.0226069 -0.0226069
-0.0114445 -0.023583 -0.023583
-0.00930369 -0.0223327 -0.0223327
-0.0108991 -0.0213604 -0.0213604
-0.0111722 -0.0224583 -0.0224583
-0.0133634 -0.0237312 -0.0237312
-0.0139961 -0.02606 -0.02606
-0.009983 -0.0257883 -0.0257883
-0.00953074 -0.0234578 -0.0234578
-0.0136802 -0.0248822 -0.0248822
-0.011987 -0.0259127 -0.0259127
-0.00975718 -0.0246097 -0.0246097
-0.0114445 -0.023583 -0.023583
-0.0117161 -0.0247345 -0.0247345
-0.0139961 -0.02606 -0.02606
-0.0146253 -0.0284953 -0.0284953
-0.0104328 -0.0282253 -0.0282253
-0.009983 -0.0257883 -0.0257883
-0.0143111 -0.0272643 -0.0272643
-0.0125265 -0.028349 -0.028349
-0.0102082 -0.0269935 -0.0269935
-0.011987 -0.0259127 -0.0259127
-0.0122571 -0.0271176 -0.0271176
-0.0146253 -0.0284953 -0.0284953
-0.0152511 -0.0310365 -0.0310365
-0.0108802 -0.0307683 -0.0307683
-0.0104328 -0.0282253 -0.0282253
-0.0149386 -0.0297527 -0.0297527
-0.0130631 -0.0308912 -0.0308912
-0.0106568 -0.0294836 -0.0294836
-0.0125265 -0.028349 -0.028349
-0.0127952 -0.0296069 -0.0296069
-0.0152511 -0.0310365 -0.0310365
-0.0158734 -0.0336831 -0.0336831
-0.0113251 -0.0334167 -0.0334167
-0.0108802 -0.0307683 -0.0307683
-0.0155627 -0.0323467 -0.0323467
-0.0135967 -0.0335387 -0.0335387
-0.0111029 -0.0320794 -0.0320794
-0.0130631 -0.0308912 -0.0308912
-0.0133303 -0.0322018 -0.0322018
-0.0158734 -0.0336831 -0.0336831
-0.0164922 -0.0364345 -0.0364345
-0.0117675 -0.0361697 -0.0361697
-0.0113251 -0.0334167 -0.0334167
-0.0161832 -0.0350457 -0.0350457
-0.0141273 -0.0362909 -0.0362909
-0.0115466 -0.0347801 -0.0347801
-0.0135967 -0.0335387 -0.0335387
-0.0138624 -0.0349018 -0.0349018
-0.0164922 -0.0364345 -0.0364345
-0.0171076 -0.0392899 -0.0392899
-0.0122075 -0.0390269 -0.0390269
-0.0117675 -0.0361697 -0.0361697
-0.0168003 -0.0378492 -0.0378492
-0.014655 -0.0391473 -0.0391473
-0.0119878 -0.0375853 -0.0375853
-0.0141273 -0.0362909 -0.0362909
-0.0143916 -0.0377062 -0.0377062
-0.0171076 -0.0392899 -0.0392899
-0.0177195 -0.0422489 -0.0422489
-0.0126451 -0.0419876 -0.0419876
-0.0122075 -0.0390269 -0.0390269
-0.017414 -0.0407565 -0.0407565
-0.0151798 -0.0421072 -0.0421072
-0.0124266 -0.0404944 -0.0404944
-0.014655 -0.0391473 -0.0391473
-0.0149178 -0.0406144 -0.0406144
-0.0177195 -0.0422489 -0.0422489
-0.0183279 -0.0453107 -0.0453107
-0.0130803 -0.0450513 -0.0450513
-0.0126451 -0.0419876 -0.0419876
-0.0180241 -0.043767 -0.043767
-0.0157016 -0.04517 -0.04517
-0.012863 -0.0435066 -0.0435066
-0.0151798 -0.0421072 -0.0421072
-0.015441 -0.0436258 -0.0436258
-0.0183279 -0.0453107 -0.0453107
-0.0189329 -0.0484749 -0.0484749
-0.013513 -0.0482172 -0.0482172
-0.0130803 -0.0450513 -0.0450513
-0.0186309 -0.0468801 -0.0468801
-0.0162204 -0.0483352 -0.0483352
-0.0132969 -0.0466215 -0.0466215
-0.0157016 -0.04517 -0.04517
-0.0159614 -0.0467399 -0.0467399
-0.0189329 -0.0484749 -0.0484749
-0.0195345 -0.0517408 -0.0517408
-0.0139432 -0.0514849 -0.0514849
-0.013513 -0.0482172 -0.0482172
-0.0192341 -0.0500952 -0.0500952
-0.0167363 -0.051602 -0.051602
-0.0137284 -0.0498384 -0.0498384
-0.0162204 -0.0483352 -0.0483352
-0.0164787 -0.0499559 -0.0499559
-0.0195345 -0.0517408 -0.0517408
-0.0201326 -0.0551077 -0.0551077
-0.0143711 -0.0548536 -0.0548536
-0.0139432 -0.0514849 -0.0514849
-0.0198339 -0.0534117 -0.0534117
-0.0172493 -0.0549699 -0.0549699
-0.0141575 -0.0531566 -0.0531566
-0.0167363 -0.051602 -0.051602
-0.0169932 -0.0532734 -0.0532734
-0.0201326 -0.0551077 -0.0551077
-0.0207272 -0.0585752 -0.0585752
-0.0147965 -0.0583229 -0.0583229
-0.0143711 -0.0548536 -0.0548536
-0.0204303 -0.056829 -0.056829
-0.0177593 -0.0584383 -0.0584383
-0.0145841 -0.0565757 -0.0565757
-0.0172493 -0.0549699 -0.0549699
-0.0175047 -0.0566916 -0.0566916
-0.0207272 -0.0585752 -0.0585752
-0.0213184 -0.0621426 -0.0621426
-0.0152196 -0.061892 -0.061892
-0.0147965 -0.0583229 -0.0583229
-0.0210232 -0.0603464 -0.0603464
-0.0182665 -0.0620067 -0.0620067
-0.0150083 -0.060095 -0.060095
-0.0177593 -0.0584383 -0.0584383
-0.0180133 -0.0602101 -0.0602101
-0.0213184 -0.0621426 -0.0621426
-0.0219062 -0.0658092 -0.0658092
-0.0156402 -0.0655604 -0.0655604
-0.0152196 -0.061892 -0.061892
-0.0216127 -0.0639635 -0.0639635
-0.0187706 -0.0656742 -0.0656742
-0.0154302 -0.0637138 -0.0637138
-0.0182665 -0.0620067 -0.0620067
-0.0185189 -0.0638281 -0.0638281
-0.0219062 -0.0658092 -0.0658092
-0.0224905 -0.0695745 -0.0695745
-0.0160583 -0.0693275 -0.0693275
-0.0156402 -0.0655604 -0.0655604
-0.0221988 -0.0676795 -0.0676795
-0.0192719 -0.0694405 -0.0694405
-0.0158495 -0.0674317 -0.0674317
-0.0187706 -0.0656742 -0.0656742
-0.0190216 -0.0675451 -0.0675451
-0.0224905 -0.0695745 -0.0695745
-0.0230714 -0.0734379 -0.0734379
-0.0164741 -0.0731927 -0.0731927
-0.0160583 -0.0693275 -0.0693275
-0.0227814 -0.071494 -0.071494
-0.0197702 -0.0733049 -0.0733049
-0.0162665 -0.0712479 -0.0712479
-0.0192719 -0.0694405 -0.0694405
-0.0195214 -0.0713605 -0.0713605
-0.0230714 -0.0734379 -0.0734379
-0.0236489 -0.0773987 -0.0773987
-0.0168875 -0.0771554 -0.0771554
-0.0164741 -0.0731927 -0.0731927
-0.0233606 -0.0754061 -0.0754061
-0.0202657 -0.0772667 -0.0772667
-0.0166811 -0.0751619 -0.0751619
-0.0197702 -0.0733049 -0.0733049
-0.0200183 -0.0752736 -0.0752736
-0.0236489 -0.0773987 -0.0773987
-0.024223 -0.0814564 -0.0814564
-0.0172985 -0.0812149 -0.0812149
-0.0168875 -0.0771554 -0.0771554
-0.0239364 -0.0794155 -0.0794155
-0.0207582 -0.0813253 -0.0813253
-0.0170933 -0.079173 -0.079173
-0.0202657 -0.0772667 -0.0772667
-0.0205123 -0.0792839 -0.0792839
-0.024223 -0.0814564 -0.0814564
-0.0247936 -0.0856104 -0.0856104
-0.017707 -0.0853706 -0.0853706
-0.0172985 -0.0812149 -0.0812149
-0.0245087 -0.0835214 -0.0835214
-0.0212478 -0.0854803 -0.0854803
-0.017503 -0.0832808 -0.0832808
-0.0207582 -0.0813253 -0.0813253
-0.0210033 -0.0833908 -0.0833908
-0.0247936 -0.0856104 -0.0856104
-0.0253608 -0.08986 -0.08986
-0.0181132 -0.0896221 -0.0896221
-0.017707 -0.0853706 -0.0853706
-0.0250776 -0.0877232 -0.0877232
-0.0217345 -0.0897309 -0.0897309
-0.0179104 -0.0874844 -0.0874844
-0.0212478 -0.0854803 -0.0854803
-0.0214915 -0.0875936 -0.0875936
-0.0253608 -0.08986 -0.08986
-0.0259246 -0.0942046 -0.0942046
-0.018517 -0.0939686 -0.0939686
-0.0181132 -0.0896221 -0.0896221
-0.0256431 -0.0920205 -0.0920205
-0.0222182 -0.0940765 -0.0940765
-0.0183154 -0.0917835 -0.0917835
-0.0217345 -0.0897309 -0.0897309
-0.0219767 -0.0918918 -0.0918918
-0.0259246 -0.0942046 -0.0942046
-0.0264849 -0.0986437 -0.0986437
-0.0189183 -0.0984095 -0.0984095
-0.018517 -0.0939686 -0.0939686
-0.0262052 -0.0964124 -0.0964124
-0.0226991 -0.0985166 -0.0985166
-0.018718 -0.0961773 -0.0961773
-0.0222182 -0.0940765 -0.0940765
-0.022459 -0.0962848 -0.0962848
-0.0264849 -0.0986437 -0.0986437
-0.0270419 -0.103177 -0.103177
-0.0193173 -0.102944 -0.102944
-0.0189183 -0.0984095 -0.0984095
-0.0267638 -0.100898 -0.100898
-0.0231771 -0.10305 -0.10305
-0.0191181 -0.100665 -0.100665
-0.0226991 -0.0985166 -0.0985166
-0.0229384 -0.100772 -0.100772
-0.0270419 -0.103177 -0.103177
-0.0275954 -0.107803 -0.107803
-0.0197139 -0.107572 -0.107572
-0.0193173 -0.102944 -0.102944
-0.0273191 -0.105478 -0.105478
-0.0236521 -0.107678 -0.107678
-0.0195159 -0.105247 -0.105247
-0.0231771 -0.10305 -0.10305
-0.023415 -0.105352 -0.105352
-0.0275954 -0.107803 -0.107803
-0.0281456 -0.112522 -0.112522
-0.0201081 -0.112293 -0.112293
-0.0197139 -0.107572 -0.107572
-0.0278709 -0.110151 -0.110151
-0.0241243 -0.112397 -0.112397
-0.0199113 -0.109921 -0.109921
-0.0236521 -0.107678 -0.107678
-0.0238886 -0.110026 -0.110026
-0.0281456 -0.112522 -0.112522
-0.0286923 -0.117332 -0.117332
-0.0205 -0.117106 -0.117106
-0.0201081 -0.112293 -0.112293
-0.0284193 -0.114916 -0.114916
-0.0245936 -0.117209 -0.117209
-0.0203044 -0.114688 -0.114688
-0.0241243 -0.112397 -0.112397
-0.0243593 -0.114792 -0.114792
-0.0286923 -0.117332 -0.117332
-0.0292356 -0.122235 -0.122235
-0.0208894 -0.12201 -0.12201
-0.0205 -0.117106 -0.117106
-0.0289644 -0.119772 -0.119772
-0.02506 -0.122112 -0.122112
-0.020695 -0.119546 -0.119546
-0.0245936 -0.117209 -0.117209
-0.0248271 -0.119649 -0.119649
-0.0292356 -0.122235 -0.122235
-0.0297755 -0.127228 -0.127228
-0.0212765 -0.127004 -0.127004
-0.0208894 -0.12201 -0.12201
-0.029506 -0.12472 -0.12472
-0.0255235 -0.127106 -0.127106
-0.0210832 -0.124496 -0.124496
-0.02506 -0.122112 -0.122112
-0.0252921 -0.124598 -0.124598
-0.0297755 -0.127228 -0.127228
-0.030312 -0.132311 -0.132311
-0.0216612 -0.13209 -0.13209
-0.0212765 -0.127004 -0.127004
-0.0300442 -0.129758 -0.129758
-0.0259841 -0.132191 -0.132191
-0.0214691 -0.129536 -0.129536
-0.0255235 -0.127106 -0.127106
-0.0257541 -0.129637 -0.129637
-0.030312 -0.132311 -0.132311
-0.0308452 -0.137484 -0.137484
-0.0220435 -0.137264 -0.137264
-0.0216612 -0.13209 -0.13209
-0.030579 -0.134886 -0.134886
-0.0264418 -0.137364 -0.137364
-0.0218526 -0.134666 -0.134666
-0.0259841 -0.132191 -0.132191
-0.0262133 -0.134766 -0.134766
-0.0308452 -0.137484 -0.137484
-0.0313749 -0.142746 -0.142746
-0.0224234 -0.142528 -0.142528
-0.0220435 -0.137264 -0.137264
-0.0311104 -0.140104 -0.140104
-0.0268966 -0.142627 -0.142627
-0.0222337 -0.139885 -0.139885
-0.0264418 -0.137364 -0.137364
-0.0266696 -0.139985 -0.139985
-0.0313749 -0.142746 -0.142746
-0.0319012 -0.148096 -0.148096
-0.022801 -0.14788 -0.14788
-0.0224234 -0.142528 -0.142528
-0.0316385 -0.14541 -0.14541
-0.0273486 -0.147978 -0.147978
-0.0226125 -0.145193 -0.145193
-0.0268966 -0.142627 -0.142627
-0.0271229 -0.145292 -0.145292
-0.0319012 -0.148096 -0.148096
-0.0324241 -0.153534 -0.153534
-0.0231762 -0.15332 -0.15332
-0.022801 -0.14788 -0.14788
-0.0321631 -0.150804 -0.150804
-0.0277976 -0.153417 -0.153417
-0.0229889 -0.150589 -0.150589
-0.0273486 -0.147978 -0.147978
-0.0275735 -0.150687 -0.150687
-0.0324241 -0.153534 -0.153534
-0.0329437 -0.159059 -0.159059
-0.023549 -0.158847 -0.158847
-0.0231762 -0.15332 -0.15332
-0.0326843 -0.156285 -0.156285
-0.0282438 -0.158944 -0.158944
-0.0233629 -0.156073 -0.156073
-0.0277976 -0.153417 -0.153417
-0.0280211 -0.15617 -0.15617
-0.0329437 -0.159059 -0.159059
-0.0334598 -0.164671 -0.164671
-0.0239195 -0.164461 -0.164461
-0.023549 -0.158847 -0.158847
-0.0332022 -0.161854 -0.161854
-0.0286871 -0.164556 -0.164556
-0.0237345 -0.161643 -0.161643
-0.0282438 -0.158944 -0.158944
-0.0284658 -0.161739 -0.161739
-0.0334598 -0.164671 -0.164671
-0.0339726 -0.170368 -0.170368
-0.0242876 -0.17016 -0.17016
-0.0239195 -0.164461 -0.164461
-0.0337166 -0.167509 -0.167509
-0.0291275 -0.170255 -0.170255
-0.0241038 -0.1673 -0.1673
-0.0286871 -0.164556 -0.164556
-0.0289077 -0.167395 -0.167395
-0.0339726 -0.170368 -0.170368
-0.034482 -0.176151 -0.176151
-0.0246533 -0.175945 -0.175945
-0.0242876 -0.17016 -0.17016
-0.0342277 -0.173249 -0.173249
-0.0295651 -0.176039 -0.176039
-0.0244707 -0.173042 -0.173042
-0.0291275 -0.170255 -0.170255
-0.0293467 -0.173137 -0.173137
-0.034482 -0.176151 -0.176151
-0.034988 -0.182019 -0.182019
-0.0250167 -0.181815 -0.181815
-0.0246533 -0.175945 -0.175945
-0.0347354 -0.179075 -0.179075
-0.0299998 -0.181908 -0.181908
-0.0248353 -0.178869 -0.178869
-0.0295651 -0.176039 -0.176039
-0.0297828 -0.178963 -0.178963
-0.034988 -0.182019 -0.182019
-0.0354906 -0.187971 -0.187971
-0.0253777 -0.187769 -0.187769
-0.0250167 -0.181815 -0.181815
-0.0352397 -0.184985 -0.184985
-0.0304316 -0.187861 -0.187861
-0.0251975 -0.184781 -0.184781
-0.0299998 -0.181908 -0.181908
-0.030216 -0.184874 -0.184874
-0.0354906 -0.187971 -0.187971
-0.0359898 -0.194007 -0.194007
-0.0257363 -0.193806 -0.193806
-0.0253777 -0.187769 -0.187769
-0.0357406 -0.190979 -0.190979
-0.0308605 -0.193898 -0.193898
-0.0255573 -0.190777 -0.190777
-0.0304316 -0.187861 -0.187861
-0.0306464 -0.190869 -0.190869
-0.0359898 -0.194007 -0.194007
-0.0364857 -0.200125 -0.200125
-0.0260926 -0.199927 -0.199927
-0.0257363 -0.193806 -0.193806
-0.0362382 -0.197056 -0.197056
-0.0312866 -0.200017 -0.200017
-0.0259147 -0.196856 -0.196856
-0.0308605 -0.193898 -0.193898
-0.0310739 -0.196947 -0.196947
-0.0364857 -0.200125 -0.200125
-0.0369781 -0.206326 -0.206326
-0.0264465 -0.206129 -0.206129
-0.0260926 -0.199927 -0.199927
-0.0367323 -0.203215 -0.203215
-0.0317098 -0.206219 -0.206219
-0.0262699 -0.203018 -0.203018
-0.0312866 -0.200017 -0.200017
-0.0314986 -0.203108 -0.203108
-0.0369781 -0.206326 -0.206326
-0.0374672 -0.212609 -0.212609
-0.0267981 -0.212414 -0.212414
-0.0264465 -0.206129 -0.206129
-0.0372231 -0.209457 -0.209457
-0.0321301 -0.212502 -0.212502
-0.0266226 -0.209261 -0.209261
-0.0317098 -0.206219 -0.206219
-0.0319203 -0.209351 -0.209351
-0.0374672 -0.212609 -0.212609
-0.0379529 -0.218972 -0.218972
-0.0271473 -0.218779 -0.218779
-0.0267981 -0.212414 -0.212414
-0.0377105 -0.21578 -0.21578
-0.0325476 -0.218867 -0.218867
-0.026973 -0.215586 -0.215586
-0.0321301 -0.212502 -0.212502
-0.0323392 -0.215675 -0.215675
-0.0379529 -0.218972 -0.218972
-0.0384353 -0.225417 -0.225417
-0.0274942 -0.225225 -0.225225
-0.0271473 -0.218779 -0.218779
-0.0381945 -0.222184 -0.222184
-0.0329622 -0.225312 -0.225312
-0.0273211 -0.221992 -0.221992
-0.0325476 -0.218867 -0.218867
-0.0327553 -0.22208 -0.22208
-0.0384353 -0.225417 -0.225417
-0.0389142 -0.231941 -0.231941
-0.0278387 -0.231751 -0.231751
-0.0274942 -0.225225 -0.225225
-0.0386752 -0.228669 -0.228669
-0.0333739 -0.231838 -0.231838
-0.0276667 -0.228478 -0.228478
-0.0329622 -0.225312 -0.225312
-0.0331684 -0.228565 -0.228565
-0.0389142 -0.231941 -0.231941
-0.0393898 -0.238544 -0.238544
-0.0281809 -0.238357 -0.238357
-0.0278387 -0.231751 -0.231751
-0.0391525 -0.235233 -0.235233
-0.0337828 -0.238442 -0.238442
-0.0280101 -0.235044 -0.235044
-0.0333739 -0.231838 -0.231838
-0.0335787 -0.23513 -0.23513
-0.0393898 -0.238544 -0.238544
-0.039862 -0.245226 -0.245226
-0.0285207 -0.245041 -0.245041
-0.0281809 -0.238357 -0.238357
-0.0396264 -0.241875 -0.241875
-0.0341888 -0.245125 -0.245125
-0.0283511 -0.241689 -0.241689
-0.0337828 -0.238442 -0.238442
-0.0339862 -0.241774 -0.241774
-0.039862 -0.245226 -0.245226
-0.0403309 -0.251986 -0.251986
-0.0288581 -0.251803 -0.251803
-0.0285207 -0.245041 -0.245041
-0.0400969 -0.248597 -0.248597
-0.034592 -0.251886 -0.251886
-0.0286897 -0.248412 -0.248412
-0.0341888 -0.245125 -0.245125
-0.0343908 -0.248496 -0.248496
-0.0403309 -0.251986 -0.251986
-0.0407963 -0.258824 -0.258824
-0.0291933 -0.258643 -0.258643
-0.0288581 -0.251803 -0.251803
-0.040564 -0.255396 -0.255396
-0.0349923 -0.258725 -0.258725
-0.029026 -0.255213 -0.255213
-0.034592 -0.251886 -0.251886
-0.0347925 -0.255296 -0.255296
-0.0407963 -0.258824 -0.258824
-0.0412584 -0.265739 -0.265739
-0.029526 -0.265559 -0.265559
-0.0291933 -0.258643 -0.258643
-0.0410278 -0.262272 -0.262272
-0.0353897 -0.265641 -0.265641
-0.0293599 -0.262091 -0.262091
-0.0349923 -0.258725 -0.258725
-0.0351913 -0.262173 -0.262173
-0.0412584 -0.265739 -0.265739
-0.0417172 -0.27273 -0.27273
-0.0298564 -0.272552 -0.272552
-0.029526 -0.265559 -0.265559
-0.0414882 -0.269225 -0.269225
-0.0357843 -0.272633 -0.272633
-0.0296915 -0.269046 -0.269046
-0.0353897 -0.265641 -0.265641
-0.0355873 -0.269127 -0.269127
-0.0417172 -0.27273 -0.27273
-0.0421725 -0.279796 -0.279796
-0.0301845 -0.27962 -0.27962
-0.0298564 -0.272552 -0.272552
-0.0419453 -0.276254 -0.276254
-0.036176 -0.2797 -0.2797
-0.0300208 -0.276077 -0.276077
-0.0357843 -0.272633 -0.272633
-0.0359805 -0.276157 -0.276157
-0.0421725 -0.279796 -0.279796
-0.0426245 -0.286938 -0.286938
-0.0305102 -0.286764 -0.286764
-0.0301845 -0.27962 -0.27962
-0.0423989 -0.283358 -0.283358
-0.0365648 -0.286843 -0.286843
-0.0303477 -0.283183 -0.283183
-0.036176 -0.2797 -0.2797
-0.0363708 -0.283262 -0.283262
-0.0426245 -0.286938 -0.286938
-0.0430731 -0.294154 -0.294154
-0.0308336 -0.293982 -0.293982
-0.0305102 -0.286764 -0.286764
-0.0428492 -0.290537 -0.290537
-0.0369508 -0.29406 -0.29406
-0.0306722 -0.290364 -0.290364
-0.0365648 -0.286843 -0.286843
-0.0367582 -0.290442 -0.290442
-0.0430731 -0.294154 -0.294154
-0.0435184 -0.301444 -0.301444
-0.0311546 -0.301274 -0.301274
-0.0308336 -0.293982 -0.293982
-0.0432962 -0.29779 -0.29779
-0.037334 -0.301351 -0.301351
-0.0309944 -0.297619 -0.297619
-0.0369508 -0.29406 -0.29406
-0.0371428 -0.297697 -0.297697
-0.0435184 -0.301444 -0.301444
-0.0439603 -0.308807 -0.308807
-0.0314733 -0.308639 -0.308639
-0.0311546 -0.301274 -0.301274
-0.0437398 -0.305117 -0.305117
-0.0377143 -0.308716 -0.308716
-0.0313143 -0.304947 -0.304947
-0.037334 -0.301351 -0.301351
-0.0375245 -0.305024 -0.305024
-0.0439603 -0.308807 -0.308807
-0.0443988 -0.316243 -0.316243
-0.0317897 -0.316077 -0.316077
-0.0314733 -0.308639 -0.308639
-0.04418 -0.312516 -0.312516
-0.0380917 -0.316152 -0.316152
-0.0316318 -0.312349 -0.312349
-0.0377143 -0.308716 -0.308716
-0.0379033 -0.312425 -0.312425
-0.0443988 -0.316243 -0.316243
-0.0448339 -0.323751 -0.323751
-0.0321036 -0.323587 -0.323587
-0.0317897 -0.316077 -0.316077
-0.0446168 -0.319988 -0.319988
-0.0384663 -0.323661 -0.323661
-0.0319469 -0.319823 -0.319823
-0.0380917 -0.316152 -0.316152
-0.0382793 -0.319898 -0.319898
-0.0448339 -0.323751 -0.323751
-0.0452657 -0.331331 -0.331331
-0.0324153 -0.331168 -0.331168
-0.0321036 -0.323587 -0.323587
-0.0450502 -0.327532 -0.327532
-0.038838 -0.331242 -0.331242
-0.0322598 -0.327369 -0.327369
-0.0384663 -0.323661 -0.323661
-0.0386525 -0.327443 -0.327443
-0.0452657 -0.331331 -0.331331
-0.0456941 -0.338981 -0.338981
-0.0327246 -0.33882 -0.33882
-0.0324153 -0.331168 -0.331168
-0.0454803 -0.335147 -0.335147
-0.0392068 -0.338893 -0.338893
-0.0325702 -0.334985 -0.334985
-0.038838 -0.331242 -0.331242
-0.0390228 -0.335059 -0.335059
-0.0456941 -0.338981 -0.338981
-0.0461192 -0.346702 -0.346702
-0.0330316 -0.346543 -0.346543
-0.0327246 -0.33882 -0.33882
-0.0459071 -0.342833 -0.342833
-0.0395728 -0.346615 -0.346615
-0.0328784 -0.342673 -0.342673
-0.0392068 -0.338893 -0.338893
-0.0393902 -0.342745 -0.342745
-0.0461192 -0.346702 -0.346702
-0.0465409 -0.354492 -0.354492
-0.0333362 -0.354335 -0.354335
-0.0330316 -0.346543 -0.346543
-0.0463304 -0.350588 -0.350588
-0.039936 -0.354406 -0.354406
-0.0331842 -0.35043 -0.35043
-0.0395728 -0.346615 -0.346615
-0.0397548 -0.350502 -0.350502
-0.0465409 -0.354492 -0.354492
-0.0469592 -0.362351 -0.362351
-0.0336385 -0.362196 -0.362196
-0.0333362 -0.354335 -0.354335
-0.0467504 -0.358413 -0.358413
-0.0402963 -0.362266 -0.362266
-0.0334876 -0.358257 -0.358257
-0.039936 -0.354406 -0.354406
-0.0401165 -0.358327 -0.358327
-0.0469592 -0.362351 -0.362351
-0.0473741 -0.370278 -0.370278
-0.0339384 -0.370125 -0.370125
-0.0336385 -0.362196 -0.362196
-0.0471671 -0.366306 -0.366306
-0.0406537 -0.370195 -0.370195
-0.0337887 -0.366152 -0.366152
-0.0402963 -0.362266 -0.362266
-0.0404754 -0.366222 -0.366222
-0.0473741 -0.370278 -0.370278
-0.0477857 -0.378274 -0.378274
-0.034236 -0.378123 -0.378123
-0.0339384 -0.370125 -0.370125
-0.0475803 -0.374268 -0.374268
-0.0410083 -0.378191 -0.378191
-0.0340875 -0.374116 -0.374116
-0.0406537 -0.370195 -0.370195
-0.0408314 -0.374184 -0.374184
-0.0477857 -0.378274 -0.378274
-0.0481939 -0.386336 -0.386336
-0.0345312 -0.386187 -0.386187
-0.034236 -0.378123 -0.378123
-0.0479902 -0.382297 -0.382297
-0.04136 -0.386255 -0.386255
-0.0343839 -0.382146 -0.382146
-0.0410083 -0.378191 -0.378191
-0.0411845 -0.382214 -0.382214
-0.0481939 -0.386336 -0.386336
-0.0485988 -0.394466 -0.394466
-0.0348241 -0.394318 -0.394318
-0.0345312 -0.386187 -0.386187
-0.0483968 -0.390393 -0.390393
-0.0417089 -0.394385 -0.394385
-0.034678 -0.390244 -0.390244
-0.04136 -0.386255 -0.386255
-0.0415348 -0.390311 -0.390311
-0.0485988 -0.394466 -0.394466
-0.0490002 -0.402661 -0.402661
-0.0351147 -0.402515 -0.402515
-0.0348241 -0.394318 -0.394318
-0.0487999 -0.398555 -0.398555
-0.0420549 -0.402581 -0.402581
-0.0349697 -0.398409 -0.398409
-0.0417089 -0.394385 -0.394385
-0.0418823 -0.398475 -0.398475
-0.0490002 -0.402661 -0.402661
-0.0493984 -0.410921 -0.410921
-0.0354029 -0.410778 -0.410778
-0.0351147 -0.402515 -0.402515
-0.0491997 -0.406783 -0.406783
-0.0423981 -0.410843 -0.410843
-0.0352591 -0.406638 -0.406638
-0.0420549 -0.402581 -0.402581
-0.0422269 -0.406704 -0.406704
-0.0493984 -0.410921 -0.410921
-0.0497931 -0.419247 -0.419247
-0.0356887 -0.419105 -0.419105
-0.0354029 -0.410778 -0.410778
-0.0495962 -0.415076 -0.415076
-0.0427384 -0.419169 -0.419169
-0.0355461 -0.414933 -0.414933
-0.0423981 -0.410843 -0.410843
-0.0425686 -0.414998 -0.414998
-0.0497931 -0.419247 -0.419247
-0.0501845 -0.427636 -0.427636
-0.0359723 -0.427497 -0.427497
-0.0356887 -0.419105 -0.419105
-0.0499892 -0.423433 -0.423433
-0.0430758 -0.42756 -0.42756
-0.0358308 -0.423293 -0.423293
-0.0427384 -0.419169 -0.419169
-0.0429075 -0.423356 -0.423356
-0.0501845 -0.427636 -0.427636
-0.0505725 -0.436089 -0.436089
-0.0362534 -0.435952 -0.435952
-0.0359723 -0.427497 -0.427497
-0.0503789 -0.431855 -0.431855
-0.0434104 -0.436014 -0.436014
-0.0361131 -0.431716 -0.431716
-0.0430758 -0.42756 -0.42756
-0.0432435 -0.431779 -0.431779
-0.0505725 -0.436089 -0.436089
-0.0509571 -0.444605 -0.444605
-0.0365322 -0.44447 -0.44447
-0.0362534 -0.435952 -0.435952
-0.0507652 -0.44034 -0.44034
-0.0437422 -0.444531 -0.444531
-0.0363931 -0.440203 -0.440203
-0.0434104 -0.436014 -0.436014
-0.0435766 -0.440264 -0.440264
-0.0509571 -0.444605 -0.444605
-0.0513384 -0.453184 -0.453184
-0.0368087 -0.45305 -0.45305
-0.0365322 -0.44447 -0.44447
-0.0511482 -0.448887 -0.448887
-0.044071 -0.45311 -0.45311
-0.0366708 -0.448752 -0.448752
-0.0437422 -0.444531 -0.444531
-0.0439069 -0.448813 -0.448813
-0.0513384 -0.453184 -0.453184
-0.0517163 -0.461824 -0.461824
-0.0370829 -0.461692 -0.461692
-0.0368087 -0.45305 -0.45305
-0.0515278 -0.457496 -0.457496
-0.044397 -0.461752 -0.461752
-0.0369461 -0.457363 -0.457363
-0.044071 -0.45311 -0.45311
-0.0442344 -0.457423 -0.457423
-0.0517163 -0.461824 -0.461824
-0.0520908 -0.470526 -0.470526
-0.0373546 -0.470395 -0.470395
-0.0370829 -0.461692 -0.461692
-0.051904 -0.466167 -0.466167
-0.0447202 -0.470454 -0.470454
-0.037219 -0.466036 -0.466036
-0.044397 -0.461752 -0.461752
-0.044559 -0.466095 -0.466095
-0.0520908 -0.470526 -0.470526
-0.052462 -0.479287 -0.479287
-0.0376241 -0.479159 -0.479159
-0.0373546 -0.470395 -0.470395
-0.0522768 -0.474899 -0.474899
-0.0450405 -0.479217 -0.479217
-0.0374897 -0.47477 -0.47477
-0.0447202 -0.470454 -0.470454
-0.0448807 -0.474828 -0.474828
-0.052462 -0.479287 -0.479287
-0.0528298 -0.488109 -0.488109
-0.0378912 -0.487983 -0.487983
-0.0376241 -0.479159 -0.479159
-0.0526463 -0.483691 -0.483691
-0.0453579 -0.48804 -0.48804
-0.0377579 -0.483564 -0.483564
-0.0450405 -0.479217 -0.479217
-0.0451996 -0.483621 -0.483621
-0.0528298 -0.488109 -0.488109
-0.0531942 -0.496991 -0.496991
-0.0381559 -0.496866 -0.496866
-0.0378912 -0.487983 -0.487983
-0.0530124 -0.492543 -0.492543
-0.0456725 -0.496922 -0.496922
-0.0380238 -0.492417 -0.492417
-0.0453579 -0.48804 -0.48804
-0.0455156 -0.492474 -0.492474
-0.0531942 -0.496991 -0.496991
-0.0535553 -0.505931 -0.505931
-0.0384183 -0.505808 -0.505808
-0.0381559 -0.496866 -0.496866
-0.0533752 -0.501453 -0.501453
-0.0459842 -0.505863 -0.505863
-0.0382874 -0.50133 -0.50133
-0.0456725 -0.496922 -0.496922
-0.0458287 -0.501385 -0.501385
-0.0535553 -0.505931 -0.505931
-0.0539129 -0.514929 -0.514929
-0.0386783 -0.514808 -0.514808
-0.0384183 -0.505808 -0.505808
-0.0537345 -0.510422 -0.510422
-0.0462931 -0.514862 -0.514862
-0.0385486 -0.510301 -0.510301
-0.0459842 -0.505863 -0.505863
-0.046139 -0.510355 -0.510355
-0.0539129 -0.514929 -0.514929
-0.0542672 -0.523984 -0.523984
-0.038936 -0.523866 -0.523866
-0.0386783 -0.514808 -0.514808
-0.0540905 -0.519449 -0.519449
-0.0465991 -0.523919 -0.523919
-0.0388075 -0.51933 -0.51933
-0.0462931 -0.514862 -0.514862
-0.0464464 -0.519383 -0.519383
-0.0542672 -0.523984 -0.523984
-0.0546181 -0.533097 -0.533097
-0.0391913 -0.53298 -0.53298
-0.038936 -0.523866 -0.523866
-0.0544431 -0.528533 -0.528533
-0.0469022 -0.533032 -0.533032
-0.039064 -0.528416 -0.528416
-0.0465991 -0.523919 -0.523919
-0.046751 -0.528468 -0.528468
-0.0546181 -0.533097 -0.533097
-0.0549657 -0.542266 -0.542266
-0.0394443 -0.542151 -0.542151
-0.0391913 -0.53298 -0.53298
-0.0547923 -0.537674 -0.537674
-0.0472025 -0.542202 -0.542202
-0.0393181 -0.537558 -0.537558
-0.0469022 -0.533032 -0.533032
-0.0470527 -0.53761 -0.53761
-0.0549657 -0.542266 -0.542266
-0.0553098 -0.55149 -0.55149
-0.0396949 -0.551377 -0.551377
-0.0394443 -0.542151 -0.542151
-0.0551382 -0.546871 -0.546871
-0.0474998 -0.551428 -0.551428
-0.0395699 -0.546757 -0.546757
-0.0472025 -0.542202 -0.542202
-0.0473515 -0.546808 -0.546808
-0.0553098 -0.55149 -0.55149
-0.0556506 -0.56077 -0.56077
-0.0399432 -0.560659 -0.560659
-0.0396949 -0.551377 -0.551377
-0.0554807 -0.556123 -0.556123
-0.0477944 -0.560708 -0.560708
-0.0398193 -0.556011 -0.556011
-0.0474998 -0.551428 -0.551428
-0.0476475 -0.556061 -0.556061
-0.0556506 -0.56077 -0.56077
-0.055988 -0.570104 -0.570104
-0.0401891 -0.569995 -0.569995
-0.0399432 -0.560659 -0.560659
-0.0558198 -0.56543 -0.56543
-0.048086 -0.570044 -0.570044
-0.0400664 -0.56532 -0.56532
-0.0477944 -0.560708 -0.560708
-0.0479406 -0.565369 -0.565369
-0.055988 -0.570104 -0.570104
-0.0563221 -0.579492 -0.579492
-0.0404326 -0.579385 -0.579385
-0.0401891 -0.569995 -0.569995
-0.0561555 -0.574791 -0.574791
-0.0483748 -0.579433 -0.579433
-0.0403112 -0.574683 -0.574683
-0.048086 -0.570044 -0.570044
-0.0482308 -0.574731 -0.574731
-0.0563221 -0.579492 -0.579492
-0.0566527 -0.588933 -0.588933
-0.0406738 -0.588828 -0.588828
-0.0404326 -0.579385 -0.579385
-0.0564878 -0.584206 -0.584206
-0.0486607 -0.588875 -0.588875
-0.0405535 -0.5841 -0.5841
-0.0483748 -0.579433 -0.579433
-0.0485181 -0.584147 -0.584147
-0.0566527 -0.588933 -0.588933
-0.05698 -0.598427 -0.598427
-0.0409127 -0.598324 -0.598324
-0.0406738 -0.588828 -0.588828
-0.0568168 -0.593674 -0.593674
-0.0489438 -0.59837 -0.59837
-0.0407935 -0.593569 -0.593569
-0.0486607 -0.588875 -0.588875
-0.0488026 -0.593616 -0.593616
-0.05698 -0.598427 -0.598427
-0.0573039 -0.607974 -0.607974
-0.0411491 -0.607872 -0.607872
-0.0409127 -0.598324 -0.598324
-0.0571423 -0.603194 -0.603194
-0.049224 -0.607917 -0.607917
-0.0410312 -0.603091 -0.603091
-0.0489438 -0.59837 -0.59837
-0.0490842 -0.603137 -0.603137
-0.0573039 -0.607974 -0.607974
-0.0576244 -0.617571 -0.617571
-0.0413832 -0.617471 -0.617471
-0.0411491 -0.607872 -0.607872
-0.0574645 -0.612766 -0.612766
-0.0495013 -0.617516 -0.617516
-0.0412665 -0.612665 -0.612665
-0.049224 -0.607917 -0.607917
-0.049363 -0.61271 -0.61271
-0.0576244 -0.617571 -0.617571
-0.0579415 -0.62722 -0.62722
-0.041615 -0.627122 -0.627122
-0.0413832 -0.617471 -0.617471
-0.0577833 -0.622389 -0.622389
-0.0497757 -0.627165 -0.627165
-0.0414994 -0.62229 -0.62229
-0.0495013 -0.617516 -0.617516
-0.0496388 -0.622334 -0.622334
-0.0579415 -0.62722 -0.62722
-0.0582552 -0.636918 -0.636918
-0.0418444 -0.636822 -0.636822
-0.041615 -0.627122 -0.627122
-0.0580987 -0.632063 -0.632063
-0.0500472 -0.636865 -0.636865
-0.04173 -0.631966 -0.631966
-0.0497757 -0.627165 -0.627165
-0.0499118 -0.632009 -0.632009
-0.0582552 -0.636918 -0.636918
-0.0585655 -0.646667 -0.646667
-0.0420714 -0.646572 -0.646572
-0.0418444 -0.636822 -0.636822
-0.0584108 -0.641786 -0.641786
-0.0503159 -0.646614 -0.646614
-0.0419582 -0.641691 -0.641691
-0.0500472 -0.636865 -0.636865
-0.0501819 -0.641733 -0.641733
-0.0585655 -0.646667 -0.646667
-0.0588725 -0.656464 -0.656464
-0.042296 -0.656372 -0.656372
-0.0420714 -0.646572 -0.646572
-0.0587194 -0.651559 -0.651559
-0.0505817 -0.656413 -0.656413
-0.042184 -0.651466 -0.651466
-0.0503159 -0.646614 -0.646614
-0.0504492 -0.651507 -0.651507
-0.0588725 -0.656464 -0.656464
-0.059176 -0.66631 -0.66631
-0.0425183 -0.666219 -0.666219
-0.042296 -0.656372 -0.656372
-0.0590247 -0.661381 -0.661381
-0.0508446 -0.66626 -0.66626
-0.0424075 -0.66129 -0.66129
-0.0505817 -0.656413 -0.656413
-0.0507135 -0.66133 -0.66133
-0.059176 -0.66631 -0.66631
-0.0594762 -0.676204 -0.676204
-0.0427382 -0.676115 -0.676115
-0.0425183 -0.666219 -0.666219
-0.0593265 -0.671251 -0.671251
-0.0511046 -0.676154 -0.676154
-0.0426285 -0.671161 -0.671161
-0.0508446 -0.66626 -0.66626
-0.050975 -0.671201 -0.671201
-0.0594762 -0.676204 -0.676204
-0.0597729 -0.686145 -0.686145
-0.0429557 -0.686058 -0.686058
-0.0427382 -0.676115 -0.676115
-0.059625 -0.681168 -0.681168
-0.0513618 -0.686096 -0.686096
-0.0428473 -0.681081 -0.681081
-0.0511046 -0.676154 -0.676154
-0.0512336 -0.681119 -0.681119
-0.0597729 -0.686145 -0.686145
-0.0600663 -0.696132 -0.696132
-0.0431709 -0.696047 -0.696047
-0.0429557 -0.686058 -0.686058
-0.05992 -0.691132 -0.691132
-0.0516161 -0.696085 -0.696085
-0.0430636 -0.691047 -0.691047
-0.0513618 -0.686096 -0.686096
-0.0514893 -0.691085 -0.691085
-0.0600663 -0.696132 -0.696132
-0.0603563 -0.706166 -0.706166
-0.0433837 -0.706083 -0.706083
-0.0431709 -0.696047 -0.696047
-0.0602117 -0.701143 -0.701143
-0.0518674 -0.706119 -0.706119
-0.0432776 -0.701059 -0.701059
-0.0516161 -0.696085 -0.696085
-0.0517421 -0.701096 -0.701096
-0.0603563 -0.706166 -0.706166
-0.0606428 -0.716245 -0.716245
-0.0435941 -0.716164 -0.716164
-0.0433837 -0.706083 -0.706083
-0.0605 -0.7112 -0.7112
-0.0521159 -0.716199 -0.716199
-0.0434892 -0.711117 -0.711117
-0.0518674 -0.706119 -0.706119
-0.051992 -0.711154 -0.711154
-0.0606428 -0.716245 -0.716245
-0.060926 -0.726369 -0.726369
-0.0438021 -0.726289 -0.726289
-0.0435941 -0.716164 -0.716164
-0.0607848 -0.721301 -0.721301
-0.0523615 -0.726324 -0.726324
-0.0436984 -0.721221 -0.721221
-0.0521159 -0.716199 -0.716199
-0.0522391 -0.721256 -0.721256
-0.060926 -0.726369 -0.726369
-0.0612058 -0.736537 -0.736537
-0.0440078 -0.736459 -0.736459
-0.0438021 -0.726289 -0.726289
-0.0610663 -0.731447 -0.731447
-0.0526042 -0.736493 -0.736493
-0.0439052 -0.731369 -0.731369
-0.0523615 -0.726324 -0.726324
-0.0524832 -0.731403 -0.731403
-0.0612058 -0.736537 -0.736537
-0.0614821 -0.746748 -0.746748
-0.044211 -0.746673 -0.746673
-0.0440078 -0.736459 -0.736459
-0.0613444 -0.741637 -0.741637
-0.052844 -0.746706 -0.746706
-0.0441097 -0.74156 -0.74156
-0.0526042 -0.736493 -0.736493
-0.0527245 -0.741594 -0.741594
-0.0614821 -0.746748 -0.746748
-0.0617551 -0.757003 -0.757003
-0.0444119 -0.756929 -0.756929
-0.044211 -0.746673 -0.746673
-0.061619 -0.75187 -0.75187
-0.053081 -0.756961 -0.756961
-0.0443118 -0.751796 -0.751796
-0.052844 -0.746706 -0.746706
-0.0529629 -0.751828 -0.751828
-0.0617551 -0.757003 -0.757003
-0.0620246 -0.7673 -0.7673
-0.0446104 -0.767228 -0.767228
-0.0444119 -0.756929 -0.756929
-0.0618903 -0.762146 -0.762146
-0.053315 -0.767259 -0.767259
-0.0445115 -0.762073 -0.762073
-0.053081 -0.756961 -0.756961
-0.0531983 -0.762105 -0.762105
-0.0620246 -0.7673 -0.7673
-0.0622908 -0.777639 -0.777639
-0.0448065 -0.777569 -0.777569
-0.0446104 -0.767228 -0.767228
-0.0621581 -0.772464 -0.772464
-0.0535461 -0.777599 -0.777599
-0.0447088 -0.772393 -0.772393
-0.053315 -0.767259 -0.767259
-0.0534309 -0.772424 -0.772424
-0.0622908 -0.777639 -0.777639
-0.0625535 -0.788019 -0.788019
-0.0450002 -0.78795 -0.78795
-0.0448065 -0.777569 -0.777569
-0.0624226 -0.782824 -0.782824
-0.0537743 -0.78798 -0.78798
-0.0449037 -0.782754 -0.782754
-0.0535461 -0.777599 -0.777599
-0.0536606 -0.782785 -0.782785
-0.0625535 -0.788019 -0.788019
-0.0628128 -0.798439 -0.798439
-0.0451916 -0.798373 -0.798373
-0.0450002 -0.78795 -0.78795
-0.0626836 -0.793224 -0.793224
-0.0539997 -0.798402 -0.798402
-0.0450962 -0.793157 -0.793157
-0.0537743 -0.78798 -0.78798
-0.0538874 -0.793186 -0.793186
-0.0628128 -0.798439 -0.798439
-0.0630687 -0.8089 -0.8089
-0.0453805 -0.808835 -0.808835
-0.0451916 -0.798373 -0.798373
-0.0629412 -0.803665 -0.803665
-0.0542221 -0.808863 -0.808863
-0.0452863 -0.803599 -0.803599
-0.0539997 -0.798402 -0.798402
-0.0541112 -0.803628 -0.803628
-0.0630687 -0.8089 -0.8089
-0.0633212 -0.8194 -0.8194
-0.0455671 -0.819337 -0.819337
-0.0453805 -0.808835 -0.808835
-0.0631954 -0.814145 -0.814145
-0.0544416 -0.819364 -0.819364
-0.0454741 -0.814081 -0.814081
-0.0542221 -0.808863 -0.808863
-0.0543322 -0.814109 -0.814109
-0.0633212 -0.8194 -0.8194
-0.0635703 -0.829938 -0.829938
-0.0457512 -0.829877 -0.829877
-0.0455671 -0.819337 -0.819337
-0.0634462 -0.824664 -0.824664
-0.0546582 -0.829904 -0.829904
-0.0456594 -0.824602 -0.824602
-0.0544416 -0.819364 -0.819364
-0.0545503 -0.824629 -0.824629
-0.0635703 -0.829938 -0.829938
-0.0638159 -0.840515 -0.840515
-0.045933 -0.840456 -0.840456
-0.0457512 -0.829877 -0.829877
-0.0636935 -0.835222 -0.835222
-0.0548719 -0.840482 -0.840482
-0.0458424 -0.835162 -0.835162
-0.0546582 -0.829904 -0.829904
-0.0547654 -0.835188 -0.835188
-0.0638159 -0.840515 -0.840515
-0.0640582 -0.85113 -0.85113
-0.0461123 -0.851072 -0.851072
-0.045933 -0.840456 -0.840456
-0.0639375 -0.845818 -0.845818
-0.0550827 -0.851097 -0.851097
-0.0460229 -0.84576 -0.84576
-0.0548719 -0.840482 -0.840482
-0.0549777 -0.845785 -0.845785
-0.0640582 -0.85113 -0.85113
-0.064297 -0.861781 -0.861781
-0.0462893 -0.861725 -0.861725
-0.0461123 -0.851072 -0.851072
-0.064178 -0.856451 -0.856451
-0.0552906 -0.861749 -0.861749
-0.0462011 -0.856394 -0.856394
-0.0550827 -0.851097 -0.851097
-0.055187 -0.856419 -0.856419
-0.064297 -0.861781 -0.861781
-0.0645323 -0.872469 -0.872469
-0.0464638 -0.872415 -0.872415
-0.0462893 -0.861725 -0.861725
-0.0644151 -0.86712 -0.86712
-0.0554956 -0.872438 -0.872438
-0.0463769 -0.867066 -0.867066
-0.0552906 -0.861749 -0.861749
-0.0553934 -0.867089 -0.867089
-0.0645323 -0.872469 -0.872469
-0.0647643 -0.883192 -0.883192
-0.046636 -0.88314 -0.88314
-0.0464638 -0.872415 -0.872415
-0.0646487 -0.877826 -0.877826
-0.0556976 -0.883162 -0.883162
-0.0465502 -0.877773 -0.877773
-0.0554956 -0.872438 -0.872438
-0.0555969 -0.877796 -0.877796
-0.0647643 -0.883192 -0.883192
-0.0649928 -0.893951 -0.893951
-0.0468057 -0.893901 -0.893901
-0.046636 -0.88314 -0.88314
-0.064879 -0.888567 -0.888567
-0.0558967 -0.893922 -0.893922
-0.0467211 -0.888516 -0.888516
-0.0556976 -0.883162 -0.883162
-0.0557975 -0.888538 -0.888538
-0.0649928 -0.893951 -0.893951
-0.0652179 -0.904744 -0.904744
-0.046973 -0.904695 -0.904695
-0.0468057 -0.893901 -0.893901
-0.0651058 -0.899343 -0.899343
-0.0560929 -0.904716 -0.904716
-0.0468897 -0.899294 -0.899294
-0.0558967 -0.893922 -0.893922
-0.0559952 -0.899315 -0.899315
-0.0652179 -0.904744 -0.904744
-0.0654395 -0.915571 -0.915571
-0.0471379 -0.915524 -0.915524
-0.046973 -0.904695 -0.904695
-0.0653291 -0.910153 -0.910153
-0.0562862 -0.915544 -0.915544
-0.0470558 -0.910106 -0.910106
-0.0560929 -0.904716 -0.904716
-0.0561899 -0.910126 -0.910126
-0.0654395 -0.915571 -0.915571
-0.0656577 -0.926431 -0.926431
-0.0473004 -0.926386 -0.926386
-0.0471379 -0.915524 -0.915524
-0.0655491 -0.920997 -0.920997
-0.0564766 -0.926405 -0.926405
-0.0472195 -0.920951 -0.920951
-0.0562862 -0.915544 -0.915544
-0.0563818 -0.92097 -0.92097
-0.0656577 -0.926431 -0.926431
-0.0658725 -0.937324 -0.937324
-0.0474605 -0.937281 -0.937281
-0.0473004 -0.926386 -0.926386
-0.0657656 -0.931873 -0.931873
-0.056664 -0.937299 -0.937299
-0.0473808 -0.93183 -0.93183
-0.0564766 -0.926405 -0.926405
-0.0565706 -0.931848 -0.931848
-0.0658725 -0.937324 -0.937324
-0.0660839 -0.948249 -0.948249
-0.0476182 -0.948208 -0.948208
-0.0474605 -0.937281 -0.937281
-0.0659786 -0.942782 -0.942782
-0.0568485 -0.948225 -0.948225
-0.0475397 -0.942741 -0.942741
-0.056664 -0.937299 -0.937299
-0.0567566 -0.942758 -0.942758
-0.0660839 -0.948249 -0.948249
-0.0662917 -0.959206 -0.959206
-0.0477734 -0.959166 -0.959166
-0.0476182 -0.948208 -0.948208
-0.0661882 -0.953723 -0.953723
-0.0570301 -0.959183 -0.959183
-0.0476961 -0.953683 -0.953683
-0.0568485 -0.948225 -0.948225
-0.0569396 -0.9537 -0.9537
-0.0662917 -0.959206 -0.959206
-0.0664962 -0.970193 -0.970193
-0.0479263 -0.970156 -0.970156
-0.0477734 -0.959166 -0.959166
-0.0663944 -0.964696 -0.964696
-0.0572087 -0.970171 -0.970171
-0.0478501 -0.964657 -0.964657
-0.0570301 -0.959183 -0.959183
-0.0571197 -0.964673 -0.964673
-0.0664962 -0.970193 -0.970193
-0.0666972 -0.981211 -0.981211
-0.0480766 -0.981175 -0.981175
-0.0479263 -0.970156 -0.970156
-0.0665971 -0.975698 -0.975698
-0.0573844 -0.98119 -0.98119
-0.0480018 -0.975662 -0.975662
-0.0572087 -0.970171 -0.970171
-0.0572969 -0.975677 -0.975677
-0.0666972 -0.981211 -0.981211
-0.0668947 -0.992258 -0.992258
-0.0482246 -0.992224 -0.992224
-0.0480766 -0.981175 -0.981175
-0.0667964 -0.986731 -0.986731
-0.0575571 -0.992238 -0.992238
-0.0481509 -0.986696 -0.986696
-0.0573844 -0.98119 -0.98119
-0.0574711 -0.98671 -0.98671
-0.0668947 -0.992258 -0.992258
-0.0670888 -1.00333 -1.00333
-0.0483702 -1.0033 -1.0033
-0.0482246 -0.992224 -0.992224
-0.0669922 -0.997793 -0.997793
-0.057727 -1.00332 -1.00332
-0.0482977 -0.99776 -0.99776
-0.0575571 -0.992238 -0.992238
-0.0576424 -0.997773 -0.997773
-0.0670888 -1.00333 -1.00333
-0.0672795 -1.01444 -1.01444
-0.0485133 -1.01441 -1.01441
-0.0483702 -1.0033 -1.0033
-0.0671846 -1.00888 -1.00888
-0.0578938 -1.01442 -1.01442
-0.048442 -1.00885 -1.00885
-0.057727 -1.00332 -1.00332
-0.0578108 -1.00887 -1.00887
-0.0672795 -1.01444 -1.01444
-0.0674667 -1.02557 -1.02557
-0.0486539 -1.02554 -1.02554
-0.0485133 -1.01441 -1.01441
-0.0673735 -1.02 -1.02
-0.0580578 -1.02556 -1.02556
-0.0485839 -1.01997 -1.01997
-0.0578938 -1.01442 -1.01442
-0.0579762 -1.01999 -1.01999
-0.0674667 -1.02557 -1.02557
-0.0676504 -1.03673 -1.03673
-0.0487922 -1.03671 -1.03671
-0.0486539 -1.02554 -1.02554
-0.067559 -1.03115 -1.03115
-0.0582188 -1.03672 -1.03672
-0.0487234 -1.03112 -1.03112
-0.0580578 -1.02556 -1.02556
-0.0581386 -1.03113 -1.03113
-0.0676504 -1.03673 -1.03673
-0.0678306 -1.04792 -1.04792
-0.048928 -1.04789 -1.04789
-0.0487922 -1.03671 -1.03671
-0.067741 -1.04232 -1.04232
-0.0583768 -1.0479 -1.0479
-0.0488604 -1.0423 -1.0423
-0.0582188 -1.03672 -1.03672
-0.0582981 -1.04231 -1.04231
-0.0678306 -1.04792 -1.04792
-0.0680074 -1.05913 -1.05913
-0.0490613 -1.05911 -1.05911
-0.048928 -1.04789 -1.04789
-0.0679195 -1.05352 -1.05352
-0.0585319 -1.05912 -1.05912
-0.048995 -1.0535 -1.0535
-0.0583768 -1.0479 -1.0479
-0.0584547 -1.05351 -1.05351
-0.0680074 -1.05913 -1.05913
-0.0681808 -1.07037 -1.07037
-0.0491922 -1.07035 -1.07035
-0.0490613 -1.05911 -1.05911
-0.0680946 -1.06475 -1.06475
-0.058684 -1.07036 -1.07036
-0.0491271 -1.06473 -1.06473
-0.0585319 -1.05912 -1.05912
-0.0586083 -1.06473 -1.06473
-0.0681808 -1.07037 -1.07037
-0.0683506 -1.08163 -1.08163
-0.0493207 -1.08161 -1.08161
-0.0491922 -1.07035 -1.07035
-0.0682661 -1.076 -1.076
-0.0588331 -1.08162 -1.08162
-0.0492568 -1.07598 -1.07598
-0.058684 -1.07036 -1.07036
-0.0587589 -1.07599 -1.07599
-0.0683506 -1.08163 -1.08163
-0.068517 -1.09292 -1.09292
-0.0494467 -1.0929 -1.0929
-0.0493207 -1.08161 -1.08161
-0.0684343 -1.08727 -1.08727
-0.0589794 -1.09291 -1.09291
-0.049384 -1.08726 -1.08726
-0.0588331 -1.08162 -1.08162
-0.0589066 -1.08726 -1.08726
-0.068517 -1.09292 -1.09292
-0.06868 -1.10423 -1.10423
-0.0495703 -1.10422 -1.10422
-0.0494467 -1.0929 -1.0929
-0.0685989 -1.09857 -1.09857
-0.0591226 -1.10422 -1.10422
-0.0495088 -1.09856 -1.09856
-0.0589794 -1.09291 -1.09291
-0.0590513 -1.09856 -1.09856
-0.06868 -1.10423 -1.10423
-0.0688394 -1.11557 -1.11557
-0.0496914 -1.11555 -1.11555
-0.0495703 -1.10422 -1.10422
-0.0687601 -1.1099 -1.1099
-0.0592629 -1.11556 -1.11556
-0.0496311 -1.10988 -1.10988
-0.0591226 -1.10422 -1.10422
-0.0591931 -1.10989 -1.10989
-0.0688394 -1.11557 -1.11557
-0.0689954 -1.12692 -1.12692
-0.04981 -1.12691 -1.12691
-0.0496914 -1.11555 -1.11555
-0.0689178 -1.12124 -1.12124
-0.0594002 -1.12691 -1.12691
-0.049751 -1.12123 -1.12123
-0.0592629 -1.11556 -1.11556
-0.0593319 -1.12123 -1.12123
-0.0689954 -1.12692 -1.12692
-0.0691479 -1.1383 -1.1383
-0.0499262 -1.13829 -1.13829
-0.04981 -1.12691 -1.12691
-0.0690721 -1.13261 -1.13261
-0.0595345 -1.13829 -1.13829
-0.0498685 -1.1326 -1.1326
-0.0594002 -1.12691 -1.12691
-0.0594677 -1.1326 -1.1326
-0.0691479 -1.1383 -1.1383
-0.0692969 -1.1497 -1.1497
-0.05004 -1.14969 -1.14969
-0.0499262 -1.13829 -1.13829
-0.0692228 -1.144 -1.144
-0.0596659 -1.14969 -1.14969
-0.0499834 -1.14399 -1.14399
-0.0595345 -1.13829 -1.13829
-0.0596006 -1.14399 -1.14399
-0.0692969 -1.1497 -1.1497
-0.0694424 -1.16112 -1.16112
-0.0501513 -1.16111 -1.16111
-0.05004 -1.14969 -1.14969
-0.0693701 -1.15541 -1.15541
-0.0597943 -1.16111 -1.16111
-0.0500959 -1.1554 -1.1554
-0.0596659 -1.14969 -1.14969
-0.0597305 -1.1554 -1.1554
-0.0694424 -1.16112 -1.16112
-0.0695844 -1.17256 -1.17256
-0.0502601 -1.17255 -1.17255
-0.0501513 -1.16111 -1.16111
-0.0695138 -1.16684 -1.16684
-0.0599197 -1.17256 -1.17256
-0.050206 -1.16683 -1.16683
-0.0597943 -1.16111 -1.16111
-0.0598574 -1.16683 -1.16683
-0.0695844 -1.17256 -1.17256
-0.0697229 -1.18402 -1.18402
-0.0503664 -1.18402 -1.18402
-0.0502601 -1.17255 -1.17255
-0.0696541 -1.17829 -1.17829
-0.0600421 -1.18402 -1.18402
-0.0503135 -1.17828 -1.17828
-0.0599197 -1.17256 -1.17256
-0.0599813 -1.17828 -1.17828
-0.0697229 -1.18402 -1.18402
-0.069858 -1.1955 -1.1955
-0.0504703 -1.1955 -1.1955
-0.0503664 -1.18402 -1.18402
-0.0697909 -1.18976 -1.18976
-0.0601616 -1.19549 -1.19549
-0.0504186 -1.18975 -1.18975
-0.0600421 -1.18402 -1.18402
-0.0601022 -1.18975 -1.18975
-0.069858 -1.1955 -1.1955
-0.0699895 -1.20699 -1.20699
-0.0505717 -1.20699 -1.20699
-0.0504703 -1.1955 -1.1955
-0.0699242 -1.20124 -1.20124
-0.0602781 -1.20699 -1.20699
-0.0505213 -1.20124 -1.20124
-0.0601616 -1.19549 -1.19549
-0.0602202 -1.20124 -1.20124
-0.0699895 -1.20699 -1.20699
-0.0701176 -1.21851 -1.21851
-0.0506706 -1.21851 -1.21851
-0.0505717 -1.20699 -1.20699
-0.070054 -1.21275 -1.21275
-0.0603915 -1.21851 -1.21851
-0.0506214 -1.21275 -1.21275
-0.0602781 -1.20699 -1.20699
-0.0603352 -1.21275 -1.21275
-0.0701176 -1.21851 -1.21851
-0.0702421 -1.23004 -1.23004
-0.050767 -1.23004 -1.23004
-0.0506706 -1.21851 -1.21851
-0.0701803 -1.22427 -1.22427
-0.060502 -1.23004 -1.23004
-0.0507191 -1.22427 -1.22427
-0.0603915 -1.21851 -1.21851
-0.0604472 -1.22427 -1.22427
-0.0702421 -1.23004 -1.23004
-0.0703632 -1.24159 -1.24159
-0.050861 -1.24159 -1.24159
-0.050767 -1.23004 -1.23004
-0.0703031 -1.23581 -1.23581
-0.0606095 -1.24159 -1.24159
-0.0508143 -1.23581 -1.23581
-0.060502 -1.23004 -1.23004
-0.0605562 -1.23581 -1.23581
-0.0703632 -1.24159 -1.24159
-0.0704807 -1.25315 -1.25315
-0.0509524 -1.25316 -1.25316
-0.050861 -1.24159 -1.24159
-0.0704224 -1.24737 -1.24737
-0.060714 -1.25315 -1.25315
-0.050907 -1.24737 -1.24737
-0.0606095 -1.24159 -1.24159
-0.0606622 -1.24737 -1.24737
-0.0704807 -1.25315 -1.25315
-0.0705947 -1.26473 -1.26473
-0.0510414 -1.26474 -1.26474
-0.0509524 -1.25316 -1.25316
-0.0705381 -1.25894 -1.25894
-0.0608155 -1.26473 -1.26473
-0.0509972 -1.25894 -1.25894
-0.060714 -1.25315 -1.25315
-0.0607652 -1.25894 -1.25894
-0.0705947 -1.26473 -1.26473
-0.0707052 -1.27632 -1.27632
-0.0511279 -1.27633 -1.27633
-0.0510414 -1.26474 -1.26474
-0.0706504 -1.27052 -1.27052
-0.060914 -1.27632 -1.27632
-0.051085 -1.27053 -1.27053
-0.0608155 -1.26473 -1.26473
-0.0608652 -1.27053 -1.27053
-0.0707052 -1.27632 -1.27632
-0.0708122 -1.28793 -1.28793
-0.0512119 -1.28794 -1.28794
-0.0511279 -1.27633 -1.27633
-0.0707592 -1.28212 -1.28212
-0.0610095 -1.28793 -1.28793
-0.0511702 -1.28213 -1.28213
-0.060914 -1.27632 -1.27632
-0.0609622 -1.28213 -1.28213
-0.0708122 -1.28793 -1.28793
-0.0709157 -1.29955 -1.29955
-0.0512934 -1.29956 -1.29956
-0.0512119 -1.28794 -1.28794
-0.0708644 -1.29374 -1.29374
-0.061102 -1.29955 -1.29955
-0.051253 -1.29375 -1.29375
-0.0610095 -1.28793 -1.28793
-0.0610562 -1.29374 -1.29374
-0.0709157 -1.29955 -1.29955
-0.0710157 -1.31118 -1.31118
-0.0513724 -1.31119 -1.31119
-0.0512934 -1.29956 -1.29956
-0.0709661 -1.30536 -1.30536
-0.0611915 -1.31119 -1.31119
-0.0513332 -1.30538 -1.30538
-0.061102 -1.29955 -1.29955
-0.0611472 -1.30537 -1.30537
-0.0710157 -1.31118 -1.31118
-0.0711121 -1.32283 -1.32283
-0.0514489 -1.32284 -1.32284
-0.0513724 -1.31119 -1.31119
-0.0710643 -1.317 -1.317
-0.061278 -1.32283 -1.32283
-0.051411 -1.31702 -1.31702
-0.0611915 -1.31119 -1.31119
-0.0612351 -1.31701 -1.31701
-0.0711121 -1.32283 -1.32283
-0.071205 -1.33448 -1.33448
-0.0515229 -1.3345 -1.3345
-0.0514489 -1.32284 -1.32284
-0.071159 -1.32865 -1.32865
-0.0613614 -1.33449 -1.33449
-0.0514862 -1.32867 -1.32867
-0.061278 -1.32283 -1.32283
-0.0613201 -1.32866 -1.32866
-0.071205 -1.33448 -1.33448
-0.0712944 -1.34615 -1.34615
-0.0515944 -1.34617 -1.34617
-0.0515229 -1.3345 -1.3345
-0.0712501 -1.34031 -1.34031
-0.0614419 -1.34616 -1.34616
-0.051559 -1.34033 -1.34033
-0.0613614 -1.33449 -1.33449
-0.061402 -1.34032 -1.34032
-0.0712944 -1.34615 -1.34615
-0.0713802 -1.35783 -1.35783
-0.0516634 -1.35785 -1.35785
-0.0515944 -1.34617 -1.34617
-0.0713378 -1.35199 -1.35199
-0.0615193 -1.35784 -1.35784
-0.0516292 -1.35201 -1.35201
-0.0614419 -1.34616 -1.34616
-0.061481 -1.352 -1.352
-0.0713802 -1.35783 -1.35783
-0.0714626 -1.36951 -1.36951
-0.0517299 -1.36954 -1.36954
-0.0516634 -1.35785 -1.35785
-0.0714218 -1.36367 -1.36367
-0.0615937 -1.36952 -1.36952
-0.051697 -1.36369 -1.36369
-0.0615193 -1.35784 -1.35784
-0.0615569 -1.36368 -1.36368
-0.0714626 -1.36951 -1.36951
-0.0715413 -1.38121 -1.38121
-0.0517939 -1.38123 -1.38123
-0.0517299 -1.36954 -1.36954
-0.0715024 -1.37536 -1.37536
-0.0616651 -1.38122 -1.38122
-0.0517622 -1.37538 -1.37538
-0.0615937 -1.36952 -1.36952
-0.0616298 -1.37537 -1.37537
-0.0715413 -1.38121 -1.38121
-0.0716166 -1.39292 -1.39292
-0.0518553 -1.39294 -1.39294
-0.0517939 -1.38123 -1.38123
-0.0715794 -1.38706 -1.38706
-0.0617334 -1.39293 -1.39293
-0.0518249 -1.38709 -1.38709
-0.0616651 -1.38122 -1.38122
-0.0616996 -1.38707 -1.38707
-0.0716166 -1.39292 -1.39292
-0.0716883 -1.40463 -1.40463
-0.0519142 -1.40465 -1.40465
-0.0518553 -1.39294 -1.39294
-0.0716529 -1.39877 -1.39877
-0.0617987 -1.40464 -1.40464
-0.0518851 -1.3988 -1.3988
-0.0617334 -1.39293 -1.39293
-0.0617665 -1.39878 -1.39878
-0.0716883 -1.40463 -1.40463
-0.0717564 -1.41635 -1.41635
-0.0519706 -1.41638 -1.41638
-0.0519142 -1.40465 -1.40465
-0.0717228 -1.41049 -1.41049
-0.061861 -1.41636 -1.41636
-0.0519427 -1.41051 -1.41051
-0.0617987 -1.40464 -1.40464
-0.0618303 -1.4105 -1.4105
-0.0717564 -1.41635 -1.41635
-0.071821 -1.42807 -1.42807
-0.0520245 -1.4281 -1.4281
-0.0519706 -1.41638 -1.41638
-0.0717892 -1.42221 -1.42221
-0.0619203 -1.42809 -1.42809
-0.0519979 -1.42224 -1.42224
-0.061861 -1.41636 -1.41636
-0.061891 -1.42222 -1.42222
-0.071821 -1.42807 -1.42807
-0.0718821 -1.43981 -1.43981
-0.0520759 -1.43984 -1.43984
-0.0520245 -1.4281 -1.4281
-0.071852 -1.43394 -1.43394
-0.0619765 -1.43982 -1.43982
-0.0520505 -1.43397 -1.43397
-0.0619203 -1.42809 -1.42809
-0.0619488 -1.43396 -1.43396
-0.0718821 -1.43981 -1.43981
-0.0719397 -1.45155 -1.45155
-0.0521247 -1.45158 -1.45158
-0.0520759 -1.43984 -1.43984
-0.0719113 -1.44568 -1.44568
-0.0620297 -1.45156 -1.45156
-0.0521006 -1.44571 -1.44571
-0.0619765 -1.43982 -1.43982
-0.0620035 -1.44569 -1.44569
-0.0719397 -1.45155 -1.45155
-0.0719939 -1.46329 -1.46329
-0.0521709 -1.46332 -1.46332
-0.0521247 -1.45158 -1.45158
-0.0719672 -1.45742 -1.45742
-0.06208 -1.46331 -1.46331
-0.0521481 -1.45745 -1.45745
-0.0620297 -1.45156 -1.45156
-0.0620552 -1.45743 -1.45743
-0.0719939 -1.46329 -1.46329
-0.0720447 -1.47504 -1.47504
-0.0522146 -1.47507 -1.47507
-0.0521709 -1.46332 -1.46332
-0.0720197 -1.46916 -1.46916
-0.0621274 -1.47505 -1.47505
-0.0521931 -1.4692 -1.4692
-0.06208 -1.46331 -1.46331
-0.062104 -1.46918 -1.46918
-0.0720447 -1.47504 -1.47504
-0.0720925 -1.48679 -1.48679
-0.0522557 -1.48683 -1.48683
-0.0522146 -1.47507 -1.47507
-0.072069 -1.48091 -1.48091
-0.0621719 -1.48681 -1.48681
-0.0522355 -1.48095 -1.48095
-0.0621274 -1.47505 -1.47505
-0.06215 -1.48093 -1.48093
-0.0720925 -1.48679 -1.48679
-0.0721376 -1.49854 -1.49854
-0.0522939 -1.49858 -1.49858
-0.0522557 -1.48683 -1.48683
-0.0721153 -1.49266 -1.49266
-0.0622137 -1.49856 -1.49856
-0.0522752 -1.4927 -1.4927
-0.0621719 -1.48681 -1.48681
-0.0621931 -1.49268 -1.49268
-0.0721376 -1.49854 -1.49854
-0.0721809 -1.5103 -1.5103
-0.0523292 -1.51034 -1.51034
-0.0522939 -1.49858 -1.49858
-0.0721594 -1.50442 -1.50442
-0.062253 -1.51032 -1.51032
-0.0523119 -1.50446 -1.50446
-0.0622137 -1.49856 -1.49856
-0.0622337 -1.50444 -1.50444
-0.0721809 -1.5103 -1.5103
-0.0722238 -1.52206 -1.52206
-0.0523611 -1.5221 -1.5221
-0.0523292 -1.51034 -1.51034
-0.0722022 -1.51618 -1.51618
-0.0622895 -1.52208 -1.52208
-0.0523456 -1.51622 -1.51622
-0.062253 -1.51032 -1.51032
-0.0622716 -1.5162 -1.5162
-0.0722238 -1.52206 -1.52206
-0.0722698 -1.53384 -1.53384
-0.0523899 -1.53388 -1.53388
-0.0523611 -1.5221 -1.5221
-0.0722461 -1.52795 -1.52795
-0.0623222 -1.53386 -1.53386
-0.0523757 -1.52799 -1.52799
-0.0622895 -1.52208 -1.52208
-0.0623066 -1.52797 -1.52797
-0.0722698 -1.53384 -1.53384
-0.0723181 -1.54566 -1.54566
-0.0524206 -1.54565 -1.54565
-0.0523899 -1.53388 -1.53388
-0.0722951 -1.53973 -1.53973
-0.0623517 -1.54565 -1.54565
-0.0524044 -1.53976 -1.53976
-0.0623222 -1.53386 -1.53386
-0.0623362 -1.53975 -1.53975
0 0 0
-0.000458359 -0.000129924 -0.000129924
-0.00026652 -2.74256e-05 -2.74256e-05
0 0 0
-0.000222428 -4.65921e-05 -4.65921e-05
-0.00035889 -6.62492e-05 -6.62492e-05
-0.000129209 8.10398e-06 8.10398e-06
0 0 0
-0.000176715 -1.40794e-05 -1.40794e-05
-0.000458359 -0.000129924 -0.000129924
-0.000954625 -0.000375029 -0.000375029
-0.000553409 -0.000207181 -0.000207181
-0.00026652 -2.74256e-05 -2.74256e-05
-0.000704132 -0.000240642 -0.000240642
-0.000747236 -0.000276679 -0.000276679
-0.000408175 -0.000100062 -0.000100062
-0.00035889 -6.62492e-05 -6.62492e-05
-0.000549957 -0.00015539 -0.00015539
-0.000954625 -0.000375029 -0.000375029
-0.00145535 -0.000711758 -0.000711758
-0.000852245 -0.000518148 -0.000518148
-0.000553409 -0.000207181 -0.000207181
-0.00120529 -0.00053155 -0.00053155
-0.00114788 -0.000601417 -0.000601417
-0.000701918 -0.000347118 -0.000347118
-0.000747236 -0.000276679 -0.000276679
-0.000947055 -0.000425457 -0.000425457
-0.00145535 -0.000711758 -0.000711758
-0.00195354 -0.00115026 -0.00115026
-0.00115353 -0.000948707 -0.000948707
-0.000852245 -0.000518148 -0.000518148
-0.00170488 -0.000917693 -0.000917693
-0.00154924 -0.00103691 -0.00103691
-0.00100292 -0.000718803 -0.000718803
-0.00114788 -0.000601417 -0.000601417
-0.0013488 -0.000805203 -0.000805203
-0.00195354 -0.00115026 -0.00115026
-0.00244745 -0.0016978 -0.0016978
-0.00145377 -0.00149569 -0.00149569
-0.00115353 -0.000948707 -0.000948707
-0.002201 -0.00141009 -0.00141009
-0.00194745 -0.00158447 -0.00158447
-0.00130391 -0.00120773 -0.00120773
-0.00154924 -0.00103691 -0.00103691
-0.0017488 -0.00129656 -0.00129656
-0.00244745 -0.0016978 -0.0016978
-0.00293806 -0.00235858 -0.00235858
-0.00175121 -0.0021579 -0.0021579
-0.00145377 -0.00149569 -0.00149569
-0.00269314 -0.00201391 -0.00201391
-0.00234219 -0.00224609 -0.00224609
-0.00160286 -0.00181242 -0.00181242
-0.00194745 -0.00158447 -0.00158447
-0.00214524 -0.00190096 -0.00190096
-0.00293806 -0.00235858 -0.00235858
-0.00342557 -0.00313378 -0.00313378
-0.00204599 -0.0029351 -0.0029351
-0.00175121 -0.0021579 -0.0021579
-0.00318218 -0.00273184 -0.00273184
-0.00273371 -0.00302231 -0.00302231
-0.00189892 -0.00253214 -0.00253214
-0.00234219 -0.00224609 -0.00224609
-0.00253833 -0.00261986 -0.00261986
-0.00342557 -0.00313378 -0.00313378
-0.00391035 -0.00402374 -0.00402374
-0.00233827 -0.00382692 -0.00382692
-0.00204599 -0.0029351 -0.0029351
-0.00366829 -0.00356443 -0.00356443
-0.00312245 -0.00391321 -0.00391321
-0.00219242 -0.00336671 -0.00336671
-0.00273371 -0.00302231 -0.00302231
-0.00292841 -0.00345344 -0.00345344
-0.00391035 -0.00402374 -0.00402374
-0.00439249 -0.00502811 -0.00502811
-0.00262845 -0.00483295 -0.00483295
-0.00233827 -0.00382692 -0.00382692
-0.00415175 -0.00451166 -0.00451166
-0.00350871 -0.00491843 -0.00491843
-0.00248361 -0.00431569 -0.00431569
-0.00312245 -0.00391321 -0.00391321
-0.00331588 -0.00440156 -0.00440156
-0.00439249 -0.00502811 -0.00502811
-0.00487208 -0.00614639 -0.00614639
-0.00291675 -0.00595269 -0.00595269
-0.00262845 -0.00483295 -0.00483295
-0.0046326 -0.00557305 -0.00557305
-0.0038927 -0.00603747 -0.00603747
-0.00277282 -0.00537864 -0.00537864
-0.00350871 -0.00491843 -0.00491843
-0.00370098 -0.00546376 -0.00546376
-0.00487208 -0.00614639 -0.00614639
-0.00534915 -0.00737796 -0.00737796
-0.00320335 -0.0071856 -0.0071856
-0.00291675 -0.00595269 -0.00595269
-0.00511093 -0.00674805 -0.00674805
-0.00427456 -0.00726975 -0.00726975
-0.00306025 -0.00655504 -0.00655504
-0.0038927 -0.00603747 -0.00603747
-0.00408389 -0.00663949 -0.00663949
-0.00534915 -0.00737796 -0.00737796
-0.00582371 -0.0087222 -0.0087222
-0.00348835 -0.00853108 -0.00853108
-0.00320335 -0.0071856 -0.0071856
-0.00558674 -0.00803603 -0.00803603
-0.00465435 -0.00861467 -0.00861467
-0.00334604 -0.0078443 -0.0078443
-0.00427456 -0.00726975 -0.00726975
-0.00446471 -0.00792817 -0.00792817
-0.00582371 -0.0087222 -0.0087222
-0.00629577 -0.0101785 -0.0101785
-0.00377183 -0.00998856 -0.00998856
-0.00348835 -0.00853108 -0.00853108
-0.00606005 -0.00943637 -0.00943637
-0.00503212 -0.0100716 -0.0100716
-0.00363028 -0.00924586 -0.00924586
-0.00465435 -0.00861467 -0.00861467
-0.00484348 -0.00932917 -0.00932917
-0.00629577 -0.0101785 -0.0101785
-0.00676535 -0.0117462 -0.0117462
-0.0040538 -0.0115574 -0.0115574
-0.00377183 -0.00998856 -0.00998856
-0.00653087 -0.0109484 -0.0109484
-0.00540789 -0.01164 -0.01164
-0.003913 -0.0107591 -0.0107591
-0.00503212 -0.0100716 -0.0100716
-0.00522025 -0.0108419 -0.0108419
-0.00676535 -0.0117462 -0.0117462
-0.00723243 -0.0134247 -0.0134247
-0.0043343 -0.0132371 -0.0132371
-0.0040538 -0.0115574 -0.0115574
-0.0069992 -0.0125716 -0.0125716
-0.00578168 -0.0133191 -0.0133191
-0.00419424 -0.0123835 -0.0123835
-0.00540789 -0.01164 -0.01164
-0.00559503 -0.0124657 -0.0124657
-0.00723243 -0.0134247 -0.0134247
-0.00769704 -0.0152133 -0.0152133
-0.00461334 -0.015027 -0.015027
-0.0043343 -0.0132371 -0.0132371
-0.00746505 -0.0143053 -0.0143053
-0.00615351 -0.0151084 -0.0151084
-0.004474 -0.0141183 -0.0141183
-0.00578168 -0.0133191 -0.0133191
-0.00596784 -0.0142 -0.0142
-0.00769704 -0.0152133 -0.0152133
-0.00815917 -0.0171116 -0.0171116
-0.00489092 -0.0169264 -0.0169264
-0.00461334 -0.015027 -0.015027
-0.00792842 -0.0161488 -0.0161488
-0.00652336 -0.0170073 -0.0170073
-0.00475231 -0.015963 -0.015963
-0.00615351 -0.0151084 -0.0151084
-0.00633868 -0.0160442 -0.0160442
-0.00815917 -0.0171116 -0.0171116
-0.00861883 -0.0191188 -0.0191188
-0.00516705 -0.0189348 -0.0189348
-0.00489092 -0.0169264 -0.0169264
-0.00838931 -0.0181016 -0.0181016
-0.00689125 -0.0190152 -0.0190152
-0.00502916 -0.017917 -0.017917
-0.00652336 -0.0170073 -0.0170073
-0.00670755 -0.0179977 -0.0179977
-0.00861883 -0.0191188 -0.0191188
-0.00907602 -0.0212344 -0.0212344
-0.00544173 -0.0210516 -0.0210516
-0.00516705 -0.0189348 -0.0189348
-0.00884773 -0.0201631 -0.0201631
-0.00725719 -0.0211315 -0.0211315
-0.00530457 -0.0199797 -0.0199797
-0.00689125 -0.0190152 -0.0190152
-0.00707446 -0.0200598 -0.0200598
-0.00907602 -0.0212344 -0.0212344
-0.00953074 -0.0234578 -0.0234578
-0.00571497 -0.0232761 -0.0232761
-0.00544173 -0.0210516 -0.0210516
-0.00930369 -0.0223327 -0.0223327
-0.00762117 -0.0233555 -0.0233555
-0.00557853 -0.0221504 -0.0221504
-0.00725719 -0.0211315 -0.0211315
-0.00743942 -0.02223 -0.02223
-0.00953074 -0.0234578 -0.0234578
-0.009983 -0.0257883 -0.0257883
-0.00598677 -0.0256078 -0.0256078
-0.00571497 -0.0232761 -0.0232761
-0.00975718 -0.0246097 -0.0246097
-0.0079832 -0.0256867 -0.0256867
-0.00585105 -0.0244286 -0.0244286
-0.00762117 -0.0233555 -0.0233555
-0.00780243 -0.0245077 -0.0245077
-0.009983 -0.0257883 -0.0257883
-0.0104328 -0.0282253 -0.0282253
-0.00625714 -0.0280461 -0.0280461
-0.00598677 -0.0256078 -0.0256078
-0.0102082 -0.0269935 -0.0269935
-0.00834329 -0.0281244 -0.0281244
-0.00612214 -0.0268137 -0.0268137
-0.0079832 -0.0256867 -0.0256867
-0.00816349 -0.0268922 -0.0268922
-0.0104328 -0.0282253 -0.0282253
-0.0108802 -0.0307683 -0.0307683
-0.00652608 -0.0305903 -0.0305903
-0.00625714 -0.0280461 -0.0280461
-0.0106568 -0.0294836 -0.0294836
-0.00870143 -0.030668 -0.030668
-0.00639179 -0.029305 -0.029305
-0.00834329 -0.0281244 -0.0281244
-0.0085226 -0.029383 -0.029383
-0.0108802 -0.0307683 -0.0307683
-0.0113251 -0.0334167 -0.0334167
-0.00679359 -0.0332398 -0.0332398
-0.00652608 -0.0305903 -0.0305903
-0.0111029 -0.0320794 -0.0320794
-0.00905764 -0.033317 -0.033317
-0.00666001 -0.0319019 -0.0319019
-0.00870143 -0.030668 -0.030668
-0.00887978 -0.0319794 -0.0319794
-0.0113251 -0.0334167 -0.0334167
-0.0117675 -0.0361697 -0.0361697
-0.00705968 -0.0359941 -0.0359941
-0.00679359 -0.0332398 -0.0332398
-0.0115466 -0.0347801 -0.0347801
-0.00941191 -0.0360708 -0.0360708
-0.00692681 -0.0346039 -0.0346039
-0.00905764 -0.033317 -0.033317
-0.00923501 -0.0346809 -0.0346809
-0.0117675 -0.0361697 -0.0361697
-0.0122075 -0.0390269 -0.0390269
-0.00732435 -0.0388526 -0.0388526
-0.00705968 -0.0359941 -0.0359941
-0.0119878 -0.0375853 -0.0375853
-0.00976425 -0.0389287 -0.0389287
-0.00719219 -0.0374104 -0.0374104
-0.00941191 -0.0360708 -0.0360708
-0.00958832 -0.0374867 -0.0374867
-0.0122075 -0.0390269 -0.0390269
-0.0126451 -0.0419876 -0.0419876
-0.0075876 -0.0418145 -0.0418145
-0.00732435 -0.0388526 -0.0388526
-0.0124266 -0.0404944 -0.0404944
-0.0101147 -0.0418901 -0.0418901
-0.00745615 -0.0403206 -0.0403206
-0.00976425 -0.0389287 -0.0389287
-0.0099397 -0.0403965 -0.0403965
-0.0126451 -0.0419876 -0.0419876
-0.0130803 -0.0450513 -0.0450513
-0.00784944 -0.0448794 -0.0448794
-0.0075876 -0.0418145 -0.0418145
-0.012863 -0.0435066 -0.0435066
-0.0104632 -0.0449544 -0.0449544
-0.00771869 -0.0433341 -0.0433341
-0.0101147 -0.0418901 -0.0418901
-0.0102891 -0.0434094 -0.0434094
-0.0130803 -0.0450513 -0.0450513
-0.013513 -0.0482172 -0.0482172
-0.00810987 -0.0480466 -0.0480466
-0.00784944 -0.0448794 -0.0448794
-0.0132969 -0.0466215 -0.0466215
-0.0108097 -0.048121 -0.048121
-0.00797983 -0.0464502 -0.0464502
-0.0104632 -0.0449544 -0.0449544
-0.0106367 -0.0465249 -0.0465249
-0.013513 -0.0482172 -0.0482172
-0.0139432 -0.0514849 -0.0514849
-0.00836889 -0.0513155 -0.0513155
-0.00810987 -0.0480466 -0.0480466
-0.0137284 -0.0498384 -0.0498384
-0.0111544 -0.0513894 -0.0513894
-0.00823956 -0.0496684 -0.0496684
-0.0108097 -0.048121 -0.048121
-0.0109823 -0.0497425 -0.0497425
-0.0139432 -0.0514849 -0.0514849
-0.0143711 -0.0548536 -0.0548536
-0.00862651 -0.0546855 -0.0546855
-0.00836889 -0.0513155 -0.0513155
-0.0141575 -0.0531566 -0.0531566
-0.0114971 -0.0547588 -0.0547588
-0.00849788 -0.0529879 -0.0529879
-0.0111544 -0.0513894 -0.0513894
-0.011326 -0.0530615 -0.0530615
-0.0143711 -0.0548536 -0.0548536
-0.0147965 -0.0583229 -0.0583229
-0.00888274 -0.058156 -0.058156
-0.00862651 -0.0546855 -0.0546855
-0.0145841 -0.0565757 -0.0565757
-0.0118379 -0.0582287 -0.0582287
-0.0087548 -0.0564082 -0.0564082
-0.0114971 -0.0547588 -0.0547588
-0.0116678 -0.0564812 -0.0564812
-0.0147965 -0.0583229 -0.0583229
-0.0152196 -0.061892 -0.061892
-0.00913757 -0.0617264 -0.0617264
-0.00888274 -0.058156 -0.058156
-0.0150083 -0.060095 -0.060095
-0.0121769 -0.0617986 -0.0617986
-0.00901033 -0.0599288 -0.0599288
-0.0118379 -0.0582287 -0.0582287
-0.0120076 -0.0600012 -0.0600012
-0.0152196 -0.061892 -0.061892
-0.0156402 -0.0655604 -0.0655604
-0.009391 -0.0653961 -0.0653961
-0.00913757 -0.0617264 -0.0617264
-0.0154302 -0.0637138 -0.0637138
-0.0125139 -0.0654677 -0.0654677
-0.00926446 -0.0635489 -0.0635489
-0.0121769 -0.0617986 -0.0617986
-0.0123456 -0.0636208 -0.0636208
-0.0156402 -0.0655604 -0.0655604
-0.0160583 -0.0693275 -0.0693275
-0.00964304 -0.0691645 -0.0691645
-0.009391 -0.0653961 -0.0653961
-0.0158495 -0.0674317 -0.0674317
-0.012849 -0.0692355 -0.0692355
-0.0095172 -0.067268 -0.067268
-0.0125139 -0.0654677 -0.0654677
-0.0126817 -0.0673393 -0.0673393
-0.0160583 -0.0693275 -0.0693275
-0.0164741 -0.0731927 -0.0731927
-0.0098937 -0.073031 -0.073031
-0.00964304 -0.0691645 -0.0691645
-0.0162665 -0.0712479 -0.0712479
-0.0131822 -0.0731014 -0.0731014
-0.00976855 -0.0710855 -0.0710855
-0.012849 -0.0692355 -0.0692355
-0.0130158 -0.0711562 -0.0711562
-0.0164741 -0.0731927 -0.0731927
-0.0168875 -0.0771554 -0.0771554
-0.010143 -0.0769949 -0.0769949
-0.0098937 -0.073031 -0.073031
-0.0166811 -0.0751619 -0.0751619
-0.0135135 -0.0770648 -0.0770648
-0.0100185 -0.0750008 -0.0750008
-0.0131822 -0.0731014 -0.0731014
-0.0133481 -0.0750709 -0.0750709
-0.0168875 -0.0771554 -0.0771554
-0.0172985 -0.0812149 -0.0812149
-0.0103909 -0.0810557 -0.0810557
-0.010143 -0.0769949 -0.0769949
-0.0170933 -0.079173 -0.079173
-0.013843 -0.081125 -0.081125
-0.0102671 -0.0790132 -0.0790132
-0.0135135 -0.0770648 -0.0770648
-0.0136785 -0.0790828 -0.0790828
-0.0172985 -0.0812149 -0.0812149
-0.017707 -0.0853706 -0.0853706
-0.0106374 -0.0852128 -0.0852128
-0.0103909 -0.0810557 -0.0810557
-0.017503 -0.0832808 -0.0832808
-0.0141705 -0.0852815 -0.0852815
-0.0105143 -0.0831223 -0.0831223
-0.013843 -0.081125 -0.081125
-0.014007 -0.0831912 -0.0831912
-0.017707 -0.0853706 -0.0853706
-0.0181132 -0.0896221 -0.0896221
-0.0108825 -0.0894655 -0.0894655
-0.0106374 -0.0852128 -0.0852128
-0.0179104 -0.0874844 -0.0874844
-0.0144962 -0.0895336 -0.0895336
-0.0107601 -0.0873272 -0.0873272
-0.0141705 -0.0852815 -0.0852815
-0.0143336 -0.0873956 -0.0873956
-0.0181132 -0.0896221 -0.0896221
-0.018517 -0.0939686 -0.0939686
-0.0111263 -0.0938133 -0.0938133
-0.0108825 -0.0894655 -0.0894655
-0.0183154 -0.0917835 -0.0917835
-0.0148199 -0.0938808 -0.0938808
-0.0110046 -0.0916276 -0.0916276
-0.0144962 -0.0895336 -0.0895336
-0.0146583 -0.0916954 -0.0916954
-0.018517 -0.0939686 -0.0939686
-0.0189183 -0.0984095 -0.0984095
-0.0113687 -0.0982556 -0.0982556
-0.0111263 -0.0938133 -0.0938133
-0.018718 -0.0961773 -0.0961773
-0.0151418 -0.0983225 -0.0983225
-0.0112476 -0.0960227 -0.0960227
-0.0148199 -0.0938808 -0.0938808
-0.0149811 -0.0960899 -0.0960899
-0.0189183 -0.0984095 -0.0984095
-0.0193173 -0.102944 -0.102944
-0.0116097 -0.102792 -0.102792
-0.0113687 -0.0982556 -0.0982556
-0.0191181 -0.100665 -0.100665
-0.0154618 -0.102858 -0.102858
-0.0114894 -0.100512 -0.100512
-0.0151418 -0.0983225 -0.0983225
-0.015302 -0.100579 -0.100579
-0.0193173 -0.102944 -0.102944
-0.0197139 -0.107572 -0.107572
-0.0118493 -0.107421 -0.107421
-0.0116097 -0.102792 -0.102792
-0.0195159 -0.105247 -0.105247
-0.0157799 -0.107487 -0.107487
-0.0117297 -0.105095 -0.105095
-0.0154618 -0.102858 -0.102858
-0.0156211 -0.105161 -0.105161
-0.0197139 -0.107572 -0.107572
-0.0201081 -0.112293 -0.112293
-0.0120876 -0.112143 -0.112143
-0.0118493 -0.107421 -0.107421
-0.0199113 -0.109921 -0.109921
-0.0160962 -0.112208 -0.112208
-0.0119687 -0.10977 -0.10977
-0.0157799 -0.107487 -0.107487
-0.0159383 -0.109836 -0.109836
-0.0201081 -0.112293 -0.112293
-0.0205 -0.117106 -0.117106
-0.0123246 -0.116957 -0.116957
-0.0120876 -0.112143 -0.112143
-0.0203044 -0.114688 -0.114688
-0.0164106 -0.117021 -0.117021
-0.0122063 -0.114538 -0.114538
-0.0160962 -0.112208 -0.112208
-0.0162536 -0.114603 -0.114603
-0.0205 -0.117106 -0.117106
-0.0208894 -0.12201 -0.12201
-0.0125601 -0.121862 -0.121862
-0.0123246 -0.116957 -0.116957
-0.020695 -0.119546 -0.119546
-0.0167231 -0.121926 -0.121926
-0.0124425 -0.119398 -0.119398
-0.0164106 -0.117021 -0.117021
-0.0165671 -0.119462 -0.119462
-0.0208894 -0.12201 -0.12201
-0.0212765 -0.127004 -0.127004
-0.0127944 -0.126858 -0.126858
-0.0125601 -0.121862 -0.121862
-0.0210832 -0.124496 -0.124496
-0.0170337 -0.126922 -0.126922
-0.0126774 -0.124349 -0.124349
-0.0167231 -0.121926 -0.121926
-0.0168786 -0.124413 -0.124413
-0.0212765 -0.127004 -0.127004
-0.0216612 -0.13209 -0.13209
-0.0130272 -0.131945 -0.131945
-0.0127944 -0.126858 -0.126858
-0.0214691 -0.129536 -0.129536
-0.0173425 -0.132008 -0.132008
-0.012911 -0.12939 -0.12939
-0.0170337 -0.126922 -0.126922
-0.0171883 -0.129453 -0.129453
-0.0216612 -0.13209 -0.13209
-0.0220435 -0.137264 -0.137264
-0.0132587 -0.137121 -0.137121
-0.0130272 -0.131945 -0.131945
-0.0218526 -0.134666 -0.134666
-0.0176494 -0.137183 -0.137183
-0.0131431 -0.134522 -0.134522
-0.0173425 -0.132008 -0.132008
-0.0174962 -0.134584 -0.134584
-0.0220435 -0.137264 -0.137264
-0.0224234 -0.142528 -0.142528
-0.0134889 -0.142386 -0.142386
-0.0132587 -0.137121 -0.137121
-0.0222337 -0.139885 -0.139885
-0.0179544 -0.142447 -0.142447
-0.013374 -0.139742 -0.139742
-0.0176494 -0.137183 -0.137183
-0.0178022 -0.139804 -0.139804
-0.0224234 -0.142528 -0.142528
-0.022801 -0.14788 -0.14788
-0.0137177 -0.147739 -0.147739
-0.0134889 -0.142386 -0.142386
-0.0226125 -0.145193 -0.145193
-0.0182576 -0.1478 -0.1478
-0.0136034 -0.145052 -0.145052
-0.0179544 -0.142447 -0.142447
-0.0181063 -0.145113 -0.145113
-0.022801 -0.14788 -0.14788
-0.0231762 -0.15332 -0.15332
-0.0139451 -0.153181 -0.153181
-0.0137177 -0.147739 -0.147739
-0.0229889 -0.150589 -0.150589
-0.018559 -0.153241 -0.153241
-0.0138316 -0.150449 -0.150449
-0.0182576 -0.1478 -0.1478
-0.0184085 -0.15051 -0.15051
-0.0231762 -0.15332 -0.15332
-0.023549 -0.158847 -0.158847
-0.0141712 -0.158709 -0.158709
-0.0139451 -0.153181 -0.153181
-0.0233629 -0.156073 -0.156073
-0.0188584 -0.158769 -0.158769
-0.0140584 -0.155934 -0.155934
-0.018559 -0.153241 -0.153241
-0.0187089 -0.155994 -0.155994
-0.023549 -0.158847 -0.158847
-0.0239195 -0.164461 -0.164461
-0.014396 -0.164324 -0.164324
-0.0141712 -0.158709 -0.158709
-0.0237345 -0.161643 -0.161643
-0.019156 -0.164383 -0.164383
-0.0142838 -0.161506 -0.161506
-0.0188584 -0.158769 -0.158769
-0.0190075 -0.161565 -0.161565
-0.0239195 -0.164461 -0.164461
-0.0242876 -0.17016 -0.17016
-0.0146194 -0.170025 -0.170025
-0.014396 -0.164324 -0.164324
-0.0241038 -0.1673 -0.1673
-0.0194518 -0.170083 -0.170083
-0.0145079 -0.167164 -0.167164
-0.019156 -0.164383 -0.164383
-0.0193042 -0.167223 -0.167223
-0.0242876 -0.17016 -0.17016
-0.0246533 -0.175945 -0.175945
-0.0148415 -0.175811 -0.175811
-0.0146194 -0.170025 -0.170025
-0.0244707 -0.173042 -0.173042
-0.0197457 -0.175869 -0.175869
-0.0147306 -0.172907 -0.172907
-0.0194518 -0.170083 -0.170083
-0.019599 -0.172966 -0.172966
-0.0246533 -0.175945 -0.175945
-0.0250167 -0.181815 -0.181815
-0.0150623 -0.181682 -0.181682
-0.0148415 -0.175811 -0.175811
-0.0248353 -0.178869 -0.178869
-0.0200378 -0.18174 -0.18174
-0.0149521 -0.178736 -0.178736
-0.0197457 -0.175869 -0.175869
-0.019892 -0.178794 -0.178794
-0.0250167 -0.181815 -0.181815
-0.0253777 -0.187769 -0.187769
-0.0152817 -0.187638 -0.187638
-0.0150623 -0.181682 -0.181682
-0.0251975 -0.184781 -0.184781
-0.020328 -0.187694 -0.187694
-0.0151721 -0.18465 -0.18465
-0.0200378 -0.18174 -0.18174
-0.0201831 -0.184706 -0.184706
-0.0253777 -0.187769 -0.187769
-0.0257363 -0.193806 -0.193806
-0.0154997 -0.193676 -0.193676
-0.0152817 -0.187638 -0.187638
-0.0255573 -0.190777 -0.190777
-0.0206163 -0.193732 -0.193732
-0.0153909 -0.190647 -0.190647
-0.020328 -0.187694 -0.187694
-0.0204724 -0.190703 -0.190703
-0.0257363 -0.193806 -0.193806
-0.0260926 -0.199927 -0.199927
-0.0157165 -0.199798 -0.199798
-0.0154997 -0.193676 -0.193676
-0.0259147 -0.196856 -0.196856
-0.0209028 -0.199854 -0.199854
-0.0156083 -0.196727 -0.196727
-0.0206163 -0.193732 -0.193732
-0.0207598 -0.196783 -0.196783
-0.0260926 -0.199927 -0.199927
-0.0264465 -0.206129 -0.206129
-0.0159319 -0.206002 -0.206002
-0.0157165 -0.199798 -0.199798
-0.0262699 -0.203018 -0.203018
-0.0211875 -0.206057 -0.206057
-0.0158243 -0.20289 -0.20289
-0.0209028 -0.199854 -0.199854
-0.0210454 -0.202945 -0.202945
-0.0264465 -0.206129 -0.206129
-0.0267981 -0.212414 -0.212414
-0.0161459 -0.212288 -0.212288
-0.0159319 -0.206002 -0.206002
-0.0266226 -0.209261 -0.209261
-0.0214703 -0.212342 -0.212342
-0.0160391 -0.209135 -0.209135
-0.0211875 -0.206057 -0.206057
-0.0213291 -0.209189 -0.209189
-0.0267981 -0.212414 -0.212414
-0.0271473 -0.218779 -0.218779
-0.0163586 -0.218655 -0.218655
-0.0161459 -0.212288 -0.212288
-0.026973 -0.215586 -0.215586
-0.0217513 -0.218709 -0.218709
-0.0162524 -0.215461 -0.215461
-0.0214703 -0.212342 -0.212342
-0.021611 -0.215515 -0.215515
-0.0271473 -0.218779 -0.218779
-0.0274942 -0.225225 -0.225225
-0.01657 -0.225103 -0.225103
-0.0163586 -0.218655 -0.218655
-0.0273211 -0.221992 -0.221992
-0.0220304 -0.225155 -0.225155
-0.0164645 -0.221869 -0.221869
-0.0217513 -0.218709 -0.218709
-0.0218911 -0.221922 -0.221922
-0.0274942 -0.225225 -0.225225
-0.0278387 -0.231751 -0.231751
-0.0167801 -0.23163 -0.23163
-0.01657 -0.225103 -0.225103
-0.0276667 -0.228478 -0.228478
-0.0223077 -0.231682 -0.231682
-0.0166752 -0.228356 -0.228356
-0.0220304 -0.225155 -0.225155
-0.0221693 -0.228409 -0.228409
-0.0278387 -0.231751 -0.231751
-0.0281809 -0.238357 -0.238357
-0.0169889 -0.238237 -0.238237
-0.0167801 -0.23163 -0.23163
-0.0280101 -0.235044 -0.235044
-0.0225832 -0.238288 -0.238288
-0.0168846 -0.234923 -0.234923
-0.0223077 -0.231682 -0.231682
-0.0224457 -0.234975 -0.234975
-0.0281809 -0.238357 -0.238357
-0.0285207 -0.245041 -0.245041
-0.0171963 -0.244922 -0.244922
-0.0169889 -0.238237 -0.238237
-0.0283511 -0.241689 -0.241689
-0.0228568 -0.244973 -0.244973
-0.0170927 -0.24157 -0.24157
-0.0225832 -0.238288 -0.238288
-0.0227202 -0.241621 -0.241621
-0.0285207 -0.245041 -0.245041
-0.0288581 -0.251803 -0.251803
-0.0174023 -0.251686 -0.251686
-0.0171963 -0.244922 -0.244922
-0.0286897 -0.248412 -0.248412
-0.0231285 -0.251736 -0.251736
-0.0172995 -0.248294 -0.248294
-0.0228568 -0.244973 -0.244973
-0.0229929 -0.248345 -0.248345
-0.0288581 -0.251803 -0.251803
-0.0291933 -0.258643 -0.258643
-0.0176071 -0.258527 -0.258527
-0.0174023 -0.251686 -0.251686
-0.029026 -0.255213 -0.255213
-0.0233985 -0.258576 -0.258576
-0.0175049 -0.255096 -0.255096
-0.0231285 -0.251736 -0.251736
-0.0232637 -0.255146 -0.255146
-0.0291933 -0.258643 -0.258643
-0.029526 -0.265559 -0.265559
-0.0178105 -0.265445 -0.265445
-0.0176071 -0.258527 -0.258527
-0.0293599 -0.262091 -0.262091
-0.0236666 -0.265494 -0.265494
-0.017709 -0.261976 -0.261976
-0.0233985 -0.258576 -0.258576
-0.0235328 -0.262025 -0.262025
-0.029526 -0.265559 -0.265559
-0.0298564 -0.272552 -0.272552
-0.0180126 -0.272439 -0.272439
-0.0178105 -0.265445 -0.265445
-0.0296915 -0.269046 -0.269046
-0.0239328 -0.272487 -0.272487
-0.0179118 -0.268932 -0.268932
-0.0236666 -0.265494 -0.265494
-0.0237999 -0.268981 -0.268981
-0.0298564 -0.272552 -0.272552
-0.0301845 -0.27962 -0.27962
-0.0182134 -0.279509 -0.279509
-0.0180126 -0.272439 -0.272439
-0.0300208 -0.276077 -0.276077
-0.0241973 -0.279556 -0.279556
-0.0181132 -0.275964 -0.275964
-0.0239328 -0.272487 -0.272487
-0.0240653 -0.276012 -0.276012
-0.0301845 -0.27962 -0.27962
-0.0305102 -0.286764 -0.286764
-0.0184129 -0.286654 -0.286654
-0.0182134 -0.279509 -0.279509
-0.0303477 -0.283183 -0.283183
-0.0244598 -0.286701 -0.286701
-0.0183133 -0.283072 -0.283072
-0.0241973 -0.279556 -0.279556
-0.0243288 -0.283119 -0.283119
-0.0305102 -0.286764 -0.286764
-0.0308336 -0.293982 -0.293982
-0.018611 -0.293873 -0.293873
-0.0184129 -0.286654 -0.286654
-0.0306722 -0.290364 -0.290364
-0.0247206 -0.29392 -0.29392
-0.0185121 -0.290254 -0.290254
-0.0244598 -0.286701 -0.286701
-0.0245905 -0.290301 -0.290301
-0.0308336 -0.293982 -0.293982
-0.0311546 -0.301274 -0.301274
-0.0188078 -0.301166 -0.301166
-0.018611 -0.293873 -0.293873
-0.0309944 -0.297619 -0.297619
-0.0249795 -0.301212 -0.301212
-0.0187096 -0.29751 -0.29751
-0.0247206 -0.29392 -0.29392
-0.0248503 -0.297557 -0.297557
-0.0311546 -0.301274 -0.301274
-0.0314733 -0.308639 -0.308639
-0.0190033 -0.308533 -0.308533
-0.0188078 -0.301166 -0.301166
-0.0313143 -0.304947 -0.304947
-0.0252366 -0.308578 -0.308578
-0.0189057 -0.304841 -0.304841
-0.0249795 -0.301212 -0.301212
-0.0251083 -0.304886 -0.304886
-0.0314733 -0.308639 -0.308639
-0.0317897 -0.316077 -0.316077
-0.0191975 -0.315972 -0.315972
-0.0190033 -0.308533 -0.308533
-0.0316318 -0.312349 -0.312349
-0.0254919 -0.316017 -0.316017
-0.0191005 -0.312243 -0.312243
-0.0252366 -0.308578 -0.308578
-0.0253645 -0.312289 -0.312289
-0.0317897 -0.316077 -0.316077
-0.0321036 -0.323587 -0.323587
-0.0193903 -0.323483 -0.323483
-0.0191975 -0.315972 -0.315972
-0.0319469 -0.319823 -0.319823
-0.0257453 -0.323527 -0.323527
-0.0192941 -0.319719 -0.319719
-0.0254919 -0.316017 -0.316017
-0.0256188 -0.319763 -0.319763
-0.0321036 -0.323587 -0.323587
-0.0324153 -0.331168 -0.331168
-0.0195818 -0.331066 -0.331066
-0.0193903 -0.323483 -0.323483
-0.0322598 -0.327369 -0.327369
-0.0259969 -0.33111 -0.33111
-0.0194862 -0.327266 -0.327266
-0.0257453 -0.323527 -0.323527
-0.0258713 -0.32731 -0.32731
-0.0324153 -0.331168 -0.331168
-0.0327246 -0.33882 -0.33882
-0.019772 -0.33872 -0.33872
-0.0195818 -0.331066 -0.331066
-0.0325702 -0.334985 -0.334985
-0.0262466 -0.338763 -0.338763
-0.0196771 -0.334884 -0.334884
-0.0259969 -0.33111 -0.33111
-0.026122 -0.334927 -0.334927
-0.0327246 -0.33882 -0.33882
-0.0330316 -0.346543 -0.346543
-0.0199609 -0.346444 -0.346444
-0.019772 -0.33872 -0.33872
-0.0328784 -0.342673 -0.342673
-0.0264945 -0.346486 -0.346486
-0.0198666 -0.342573 -0.342573
-0.0262466 -0.338763 -0.338763
-0.0263708 -0.342615 -0.342615
-0.0330316 -0.346543 -0.346543
-0.0333362 -0.354335 -0.354335
-0.0201485 -0.354237 -0.354237
-0.0199609 -0.346444 -0.346444
-0.0331842 -0.35043 -0.35043
-0.0267406 -0.354278 -0.354278
-0.0200548 -0.350332 -0.350332
-0.0264945 -0.346486 -0.346486
-0.0266178 -0.350373 -0.350373
-0.0333362 -0.354335 -0.354335
-0.0336385 -0.362196 -0.362196
-0.0203347 -0.362099 -0.362099
-0.0201485 -0.354237 -0.354237
-0.0334876 -0.358257 -0.358257
-0.0269849 -0.36214 -0.36214
-0.0202417 -0.35816 -0.35816
-0.0267406 -0.354278 -0.354278
-0.026863 -0.358201 -0.358201
-0.0336385 -0.362196 -0.362196
-0.0339384 -0.370125 -0.370125
-0.0205196 -0.37003 -0.37003
-0.0203347 -0.362099 -0.362099
-0.0337887 -0.366152 -0.366152
-0.0272273 -0.370071 -0.370071
-0.0204273 -0.366056 -0.366056
-0.0269849 -0.36214 -0.36214
-0.0271063 -0.366097 -0.366097
-0.0339384 -0.370125 -0.370125
-0.034236 -0.378123 -0.378123
-0.0207032 -0.378029 -0.378029
-0.0205196 -0.37003 -0.37003
-0.0340875 -0.374116 -0.374116
-0.0274679 -0.378069 -0.378069
-0.0206116 -0.374021 -0.374021
-0.0272273 -0.370071 -0.370071
-0.0273478 -0.374061 -0.374061
-0.034236 -0.378123 -0.378123
-0.0345312 -0.386187 -0.386187
-0.0208855 -0.386095 -0.386095
-0.0207032 -0.378029 -0.378029
-0.0343839 -0.382146 -0.382146
-0.0277066 -0.386134 -0.386134
-0.0207945 -0.382054 -0.382054
-0.0274679 -0.378069 -0.378069
-0.0275875 -0.382093 -0.382093
-0.0345312 -0.386187 -0.386187
-0.0348241 -0.394318 -0.394318
-0.0210664 -0.394227 -0.394227
-0.0208855 -0.386095 -0.386095
-0.034678 -0.390244 -0.390244
-0.0279436 -0.394266 -0.394266
-0.0209761 -0.390153 -0.390153
-0.0277066 -0.386134 -0.386134
-0.0278253 -0.390192 -0.390192
-0.0348241 -0.394318 -0.394318
-0.0351147 -0.402515 -0.402515
-0.021246 -0.402426 -0.402426
-0.0210664 -0.394227 -0.394227
-0.0349697 -0.398409 -0.398409
-0.0281786 -0.402464 -0.402464
-0.0211564 -0.398318 -0.398318
-0.0279436 -0.394266 -0.394266
-0.0280613 -0.398356 -0.398356
-0.0351147 -0.402515 -0.402515
-0.0354029 -0.410778 -0.410778
-0.0214243 -0.41069 -0.41069
-0.021246 -0.402426 -0.402426
-0.0352591 -0.406638 -0.406638
-0.0284119 -0.410727 -0.410727
-0.0213353 -0.40655 -0.40655
-0.0281786 -0.402464 -0.402464
-0.0282955 -0.406587 -0.406587
-0.0354029 -0.410778 -0.410778
-0.0356887 -0.419105 -0.419105
-0.0216013 -0.419018 -0.419018
-0.0214243 -0.41069 -0.41069
-0.0355461 -0.414933 -0.414933
-0.0286433 -0.419055 -0.419055
-0.021513 -0.414846 -0.414846
-0.0284119 -0.410727 -0.410727
-0.0285278 -0.414883 -0.414883
-0.0356887 -0.419105 -0.419105
-0.0359723 -0.427497 -0.427497
-0.021777 -0.427411 -0.427411
-0.0216013 -0.419018 -0.419018
-0.0358308 -0.423293 -0.423293
-0.0288729 -0.427447 -0.427447
-0.0216893 -0.423207 -0.423207
-0.0286433 -0.419055 -0.419055
-0.0287583 -0.423243 -0.423243
-0.0359723 -0.427497 -0.427497
-0.0362534 -0.435952 -0.435952
-0.0219513 -0.435868 -0.435868
-0.021777 -0.427411 -0.427411
-0.0361131 -0.431716 -0.431716
-0.0291007 -0.435903 -0.435903
-0.0218643 -0.431632 -0.431632
-0.0288729 -0.427447 -0.427447
-0.028987 -0.431667 -0.431667
-0.0362534 -0.435952 -0.435952
-0.0365322 -0.44447 -0.44447
-0.0221243 -0.444387 -0.444387
-0.0219513 -0.435868 -0.435868
-0.0363931 -0.440203 -0.440203
-0.0293266 -0.444422 -0.444422
-0.022038 -0.44012 -0.44012
-0.0291007 -0.435903 -0.435903
-0.0292138 -0.440154 -0.440154
-0.0365322 -0.44447 -0.44447
-0.0368087 -0.45305 -0.45305
-0.022296 -0.452969 -0.452969
-0.0221243 -0.444387 -0.444387
-0.0366708 -0.448752 -0.448752
-0.0295507 -0.453003 -0.453003
-0.0222103 -0.44867 -0.44867
-0.0293266 -0.444422 -0.444422
-0.0294388 -0.448704 -0.448704
-0.0368087 -0.45305 -0.45305
-0.0370829 -0.461692 -0.461692
-0.0224663 -0.461612 -0.461612
-0.022296 -0.452969 -0.452969
-0.0369461 -0.457363 -0.457363
-0.0297729 -0.461646 -0.461646
-0.0223813 -0.457283 -0.457283
-0.0295507 -0.453003 -0.453003
-0.029662 -0.457317 -0.457317
-0.0370829 -0.461692 -0.461692
-0.0373546 -0.470395 -0.470395
-0.0226354 -0.470317 -0.470317
-0.0224663 -0.461612 -0.461612
-0.037219 -0.466036 -0.466036
-0.0299933 -0.47035 -0.47035
-0.022551 -0.465957 -0.465957
-0.0297729 -0.461646 -0.461646
-0.0298833 -0.46599 -0.46599
-0.0373546 -0.470395 -0.470395
-0.0376241 -0.479159 -0.479159
-0.0228031 -0.479082 -0.479082
-0.0226354 -0.470317 -0.470317
-0.0374897 -0.47477 -0.47477
-0.0302119 -0.479114 -0.479114
-0.0227194 -0.474692 -0.474692
-0.0299933 -0.47035 -0.47035
-0.0301028 -0.474725 -0.474725
-0.0376241 -0.479159 -0.479159
-0.0378912 -0.487983 -0.487983
-0.0229695 -0.487907 -0.487907
-0.0228031 -0.479082 -0.479082
-0.0377579 -0.483564 -0.483564
-0.0304286 -0.487939 -0.487939
-0.0228864 -0.483487 -0.483487
-0.0302119 -0.479114 -0.479114
-0.0303205 -0.483519 -0.483519
-0.0378912 -0.487983 -0.487983
-0.0381559 -0.496866 -0.496866
-0.0231345 -0.496792 -0.496792
-0.0229695 -0.487907 -0.487907
-0.0380238 -0.492417 -0.492417
-0.0306435 -0.496823 -0.496823
-0.0230522 -0.492342 -0.492342
-0.0304286 -0.487939 -0.487939
-0.0305363 -0.492373 -0.492373
-0.0381559 -0.496866 -0.496866
-0.0384183 -0.505808 -0.505808
-0.0232983 -0.505735 -0.505735
-0.0231345 -0.496792 -0.496792
-0.0382874 -0.50133 -0.50133
-0.0308566 -0.505765 -0.505765
-0.0232166 -0.501256 -0.501256
-0.0306435 -0.496823 -0.496823
-0.0307503 -0.501287 -0.501287
-0.0384183 -0.505808 -0.505808
-0.0386783 -0.514808 -0.514808
-0.0234607 -0.514737 -0.514737
-0.0232983 -0.505735 -0.505735
-0.0385486 -0.510301 -0.510301
-0.0310678 -0.514766 -0.514766
-0.0233796 -0.510229 -0.510229
-0.0308566 -0.505765 -0.505765
-0.0309624 -0.510259 -0.510259
-0.0386783 -0.514808 -0.514808
-0.038936 -0.523866 -0.523866
-0.0236217 -0.523795 -0.523795
-0.0234607 -0.514737 -0.514737
-0.0388075 -0.51933 -0.51933
-0.0312772 -0.523824 -0.523824
-0.0235414 -0.519259 -0.519259
-0.0310678 -0.514766 -0.514766
-0.0311727 -0.519288 -0.519288
-0.038936 -0.523866 -0.523866
-0.0391913 -0.53298 -0.53298
-0.0237815 -0.532911 -0.532911
-0.0236217 -0.523795 -0.523795
-0.039064 -0.528416 -0.528416
-0.0314847 -0.53294 -0.53294
-0.0237018 -0.528346 -0.528346
-0.0312772 -0.523824 -0.523824
-0.0313812 -0.528375 -0.528375
-0.0391913 -0.53298 -0.53298
-0.0394443 -0.542151 -0.542151
-0.0239399 -0.542083 -0.542083
-0.0237815 -0.532911 -0.532911
-0.0393181 -0.537558 -0.537558
-0.0316904 -0.542111 -0.542111
-0.0238608 -0.53749 -0.53749
-0.0314847 -0.53294 -0.53294
-0.0315878 -0.537518 -0.537518
-0.0394443 -0.542151 -0.542151
-0.0396949 -0.551377 -0.551377
-0.0240969 -0.551311 -0.551311
-0.0239399 -0.542083 -0.542083
-0.0395699 -0.546757 -0.546757
-0.0318942 -0.551338 -0.551338
-0.0240186 -0.54669 -0.54669
-0.0316904 -0.542111 -0.542111
-0.0317925 -0.546718 -0.546718
-0.0396949 -0.551377 -0.551377
-0.0399432 -0.560659 -0.560659
-0.0242527 -0.560594 -0.560594
-0.0240969 -0.551311 -0.551311
-0.0398193 -0.556011 -0.556011
-0.0320962 -0.560621 -0.560621
-0.024175 -0.555946 -0.555946
-0.0318942 -0.551338 -0.551338
-0.0319955 -0.555973 -0.555973
-0.0399432 -0.560659 -0.560659
-0.0401891 -0.569995 -0.569995
-0.0244071 -0.569932 -0.569932
-0.0242527 -0.560594 -0.560594
-0.0400664 -0.56532 -0.56532
-0.0322964 -0.569957 -0.569957
-0.02433 -0.565256 -0.565256
-0.0320962 -0.560621 -0.560621
-0.0321965 -0.565282 -0.565282
-0.0401891 -0.569995 -0.569995
-0.0404326 -0.579385 -0.579385
-0.0245602 -0.579323 -0.579323
-0.0244071 -0.569932 -0.569932
-0.0403112 -0.574683 -0.574683
-0.0324947 -0.579348 -0.579348
-0.0244838 -0.574621 -0.574621
-0.0322964 -0.569957 -0.569957
-0.0323958 -0.574646 -0.574646
-0.0404326 -0.579385 -0.579385
-0.0406738 -0.588828 -0.588828
-0.0247119 -0.588767 -0.588767
-0.0245602 -0.579323 -0.579323
-0.0405535 -0.5841 -0.5841
-0.0326912 -0.588792 -0.588792
-0.0246362 -0.584039 -0.584039
-0.0324947 -0.579348 -0.579348
-0.0325932 -0.584063 -0.584063
-0.0406738 -0.588828 -0.588828
-0.0409127 -0.598324 -0.598324
-0.0248623 -0.598265 -0.598265
-0.0247119 -0.588767 -0.588767
-0.0407935 -0.593569 -0.593569
-0.0328858 -0.598289 -0.598289
-0.0247873 -0.59351 -0.59351
-0.0326912 -0.588792 -0.588792
-0.0327887 -0.593534 -0.593534
-0.0409127 -0.598324 -0.598324
-0.0411491 -0.607872 -0.607872
-0.0250113 -0.607814 -0.607814
-0.0248623 -0.598265 -0.598265
-0.0410312 -0.603091 -0.603091
-0.0330785 -0.607837 -0.607837
-0.024937 -0.603033 -0.603033
-0.0328858 -0.598289 -0.598289
-0.0329824 -0.603057 -0.603057
-0.0411491 -0.607872 -0.607872
-0.0413832 -0.617471 -0.617471
-0.0251591 -0.617415 -0.617415
-0.0250113 -0.607814 -0.607814
-0.0412665 -0.612665 -0.612665
-0.0332695 -0.617438 -0.617438
-0.0250854 -0.612608 -0.612608
-0.0330785 -0.607837 -0.607837
-0.0331742 -0.612631 -0.612631
-0.0413832 -0.617471 -0.617471
-0.041615 -0.627122 -0.627122
-0.0253054 -0.627067 -0.627067
-0.0251591 -0.617415 -0.617415
-0.0414994 -0.62229 -0.62229
-0.0334585 -0.627089 -0.627089
-0.0252324 -0.622234 -0.622234
-0.0332695 -0.617438 -0.617438
-0.0333642 -0.622257 -0.622257
-0.041615 -0.627122 -0.627122
-0.0418444 -0.636822 -0.636822
-0.0254505 -0.636769 -0.636769
-0.0253054 -0.627067 -0.627067
-0.04173 -0.631966 -0.631966
-0.0336457 -0.63679 -0.63679
-0.0253781 -0.631911 -0.631911
-0.0334585 -0.627089 -0.627089
-0.0335523 -0.631933 -0.631933
-0.0418444 -0.636822 -0.636822
-0.0420714 -0.646572 -0.646572
-0.0255942 -0.64652 -0.64652
-0.0254505 -0.636769 -0.636769
-0.0419582 -0.641691 -0.641691
-0.0338311 -0.646541 -0.646541
-0.0255225 -0.641638 -0.641638
-0.0336457 -0.63679 -0.63679
-0.0337386 -0.641659 -0.641659
-0.0420714 -0.646572 -0.646572
-0.042296 -0.656372 -0.656372
-0.0257365 -0.656321 -0.656321
-0.0255942 -0.64652 -0.64652
-0.042184 -0.651466 -0.651466
-0.0340146 -0.656341 -0.656341
-0.0256655 -0.651414 -0.651414
-0.0338311 -0.646541 -0.646541
-0.033923 -0.651435 -0.651435
-0.042296 -0.656372 -0.656372
-0.0425183 -0.666219 -0.666219
-0.0258775 -0.66617 -0.66617
-0.0257365 -0.656321 -0.656321
-0.0424075 -0.66129 -0.66129
-0.0341962 -0.66619 -0.66619
-0.0258072 -0.661239 -0.661239
-0.0340146 -0.656341 -0.656341
-0.0341056 -0.661259 -0.661259
-0.0425183 -0.666219 -0.666219
-0.0427382 -0.676115 -0.676115
-0.0260172 -0.676067 -0.676067
-0.0258775 -0.66617 -0.66617
-0.0426285 -0.671161 -0.671161
-0.034376 -0.676086 -0.676086
-0.0259475 -0.671112 -0.671112
-0.0341962 -0.66619 -0.66619
-0.0342863 -0.671132 -0.671132
-0.0427382 -0.676115 -0.676115
-0.0429557 -0.686058 -0.686058
-0.0261555 -0.686011 -0.686011
-0.0260172 -0.676067 -0.676067
-0.0428473 -0.681081 -0.681081
-0.0345539 -0.686029 -0.686029
-0.0260865 -0.681033 -0.681033
-0.034376 -0.676086 -0.676086
-0.0344652 -0.681052 -0.681052
-0.0429557 -0.686058 -0.686058
-0.0431709 -0.696047 -0.696047
-0.0262924 -0.696002 -0.696002
-0.0261555 -0.686011 -0.686011
-0.0430636 -0.691047 -0.691047
-0.0347299 -0.69602 -0.69602
-0.0262241 -0.691001 -0.691001
-0.0345539 -0.686029 -0.686029
-0.0346422 -0.691019 -0.691019
-0.0431709 -0.696047 -0.696047
-0.0433837 -0.706083 -0.706083
-0.026428 -0.706038 -0.706038
-0.0262924 -0.696002 -0.696002
-0.0432776 -0.701059 -0.701059
-0.0349041 -0.706056 -0.706056
-0.0263604 -0.701014 -0.701014
-0.0347299 -0.69602 -0.69602
-0.0348173 -0.701032 -0.701032
-0.0433837 -0.706083 -0.706083
-0.0435941 -0.716164 -0.716164
-0.0265622 -0.716121 -0.716121
-0.026428 -0.706038 -0.706038
-0.0434892 -0.711117 -0.711117
-0.0350765 -0.716137 -0.716137
-0.0264953 -0.711074 -0.711074
-0.0349041 -0.706056 -0.706056
-0.0349905 -0.711091 -0.711091
-0.0435941 -0.716164 -0.716164
-0.0438021 -0.726289 -0.726289
-0.0266951 -0.726248 -0.726248
-0.0265622 -0.716121 -0.716121
-0.0436984 -0.721221 -0.721221
-0.0352469 -0.726264 -0.726264
-0.0266288 -0.721179 -0.721179
-0.0350765 -0.716137 -0.716137
-0.0351619 -0.721195 -0.721195
-0.0438021 -0.726289 -0.726289
-0.0440078 -0.736459 -0.736459
-0.0268267 -0.736419 -0.736419
-0.0266951 -0.726248 -0.726248
-0.0439052 -0.731369 -0.731369
-0.0354155 -0.736434 -0.736434
-0.0267611 -0.731328 -0.731328
-0.0352469 -0.726264 -0.726264
-0.0353314 -0.731344 -0.731344
-0.0440078 -0.736459 -0.736459
-0.044211 -0.746673 -0.746673
-0.0269568 -0.746634 -0.746634
-0.0268267 -0.736419 -0.736419
-0.0441097 -0.74156 -0.74156
-0.0355822 -0.746649 -0.746649
-0.0268919 -0.741521 -0.741521
-0.0354155 -0.736434 -0.736434
-0.0354991 -0.741536 -0.741536
-0.044211 -0.746673 -0.746673
-0.0444119 -0.756929 -0.756929
-0.0270856 -0.756892 -0.756892
-0.0269568 -0.746634 -0.746634
-0.0443118 -0.751796 -0.751796
-0.0357471 -0.756906 -0.756906
-0.0270214 -0.751757 -0.751757
-0.0355822 -0.746649 -0.746649
-0.0356649 -0.751772 -0.751772
-0.0444119 -0.756929 -0.756929
-0.0446104 -0.767228 -0.767228
-0.0272131 -0.767192 -0.767192
-0.0270856 -0.756892 -0.756892
-0.0445115 -0.762073 -0.762073
-0.03591 -0.767205 -0.767205
-0.0271495 -0.762036 -0.762036
-0.0357471 -0.756906 -0.756906
-0.0358288 -0.76205 -0.76205
-0.0446104 -0.767228 -0.767228
-0.0448065 -0.777569 -0.777569
-0.0273392 -0.777534 -0.777534
-0.0272131 -0.767192 -0.767192
-0.0447088 -0.772393 -0.772393
-0.0360711 -0.777547 -0.777547
-0.0272763 -0.772358 -0.772358
-0.03591 -0.767205 -0.767205
-0.0359908 -0.772371 -0.772371
-0.0448065 -0.777569 -0.777569
-0.0450002 -0.78795 -0.78795
-0.0274639 -0.787917 -0.787917
-0.0273392 -0.777534 -0.777534
-0.0449037 -0.782754 -0.782754
-0.0362304 -0.787929 -0.787929
-0.0274017 -0.78272 -0.78272
-0.0360711 -0.777547 -0.777547
-0.036151 -0.782733 -0.782733
-0.0450002 -0.78795 -0.78795
-0.0451916 -0.798373 -0.798373
-0.0275872 -0.798341 -0.798341
-0.0274639 -0.787917 -0.787917
-0.0450962 -0.793157 -0.793157
-0.0363877 -0.798352 -0.798352
-0.0275257 -0.793124 -0.793124
-0.0362304 -0.787929 -0.787929
-0.0363093 -0.793136 -0.793136
-0.0451916 -0.798373 -0.798373
-0.0453805 -0.808835 -0.808835
-0.0277092 -0.808804 -0.808804
-0.0275872 -0.798341 -0.798341
-0.0452863 -0.803599 -0.803599
-0.0365432 -0.808816 -0.808816
-0.0276484 -0.803567 -0.803567
-0.0363877 -0.798352 -0.798352
-0.0364657 -0.803579 -0.803579
-0.0453805 -0.808835 -0.808835
-0.0455671 -0.819337 -0.819337
-0.0278298 -0.819307 -0.819307
-0.0277092 -0.808804 -0.808804
-0.0454741 -0.814081 -0.814081
-0.0366967 -0.819318 -0.819318
-0.0277697 -0.814051 -0.814051
-0.0365432 -0.808816 -0.808816
-0.0366202 -0.814062 -0.814062
-0.0455671 -0.819337 -0.819337
-0.0457512 -0.829877 -0.829877
-0.027949 -0.829849 -0.829849
-0.0278298 -0.819307 -0.819307
-0.0456594 -0.824602 -0.824602
-0.0368484 -0.829859 -0.829859
-0.0278896 -0.824573 -0.824573
-0.0366967 -0.819318 -0.819318
-0.0367728 -0.824584 -0.824584
-0.0457512 -0.829877 -0.829877
-0.045933 -0.840456 -0.840456
-0.0280669 -0.840429 -0.840429
-0.027949 -0.829849 -0.829849
-0.0458424 -0.835162 -0.835162
-0.0369982 -0.840439 -0.840439
-0.0280081 -0.835134 -0.835134
-0.0368484 -0.829859 -0.829859
-0.0369236 -0.835144 -0.835144
-0.045933 -0.840456 -0.840456
-0.0461123 -0.851072 -0.851072
-0.0281834 -0.851047 -0.851047
-0.0280669 -0.840429 -0.840429
-0.0460229 -0.84576 -0.84576
-0.0371462 -0.851056 -0.851056
-0.0281253 -0.845733 -0.845733
-0.0369982 -0.840439 -0.840439
-0.0370724 -0.845742 -0.845742
-0.0461123 -0.851072 -0.851072
-0.0462893 -0.861725 -0.861725
-0.0282985 -0.861701 -0.861701
-0.0281834 -0.851047 -0.851047
-0.0462011 -0.856394 -0.856394
-0.0372922 -0.861709 -0.861709
-0.0282411 -0.856369 -0.856369
-0.0371462 -0.851056 -0.851056
-0.0372194 -0.856378 -0.856378
-0.0462893 -0.861725 -0.861725
-0.0464638 -0.872415 -0.872415
-0.0284122 -0.872392 -0.872392
-0.0282985 -0.861701 -0.861701
-0.0463769 -0.867066 -0.867066
-0.0374363 -0.8724 -0.8724
-0.0283555 -0.867042 -0.867042
-0.0372922 -0.861709 -0.861709
-0.0373645 -0.86705 -0.86705
-0.0464638 -0.872415 -0.872415
-0.046636 -0.88314 -0.88314
-0.0285245 -0.883118 -0.883118
-0.0284122 -0.872392 -0.872392
-0.0465502 -0.877773 -0.877773
-0.0375786 -0.883126 -0.883126
-0.0284685 -0.877751 -0.877751
-0.0374363 -0.8724 -0.8724
-0.0375077 -0.877758 -0.877758
-0.046636 -0.88314 -0.88314
-0.0468057 -0.893901 -0.893901
-0.0286355 -0.89388 -0.89388
-0.0285245 -0.883118 -0.883118
-0.0467211 -0.888516 -0.888516
-0.0377189 -0.893887 -0.893887
-0.0285802 -0.888495 -0.888495
-0.0375786 -0.883126 -0.883126
-0.037649 -0.888502 -0.888502
-0.0468057 -0.893901 -0.893901
-0.046973 -0.904695 -0.904695
-0.0287451 -0.904676 -0.904676
-0.0286355 -0.89388 -0.89388
-0.0468897 -0.899294 -0.899294
-0.0378574 -0.904682 -0.904682
-0.0286905 -0.899274 -0.899274
-0.0377189 -0.893887 -0.893887
-0.0377884 -0.89928 -0.89928
-0.046973 -0.904695 -0.904695
-0.0471379 -0.915524 -0.915524
-0.0288532 -0.915506 -0.915506
-0.0287451 -0.904676 -0.904676
-0.0470558 -0.910106 -0.910106
-0.0379939 -0.915512 -0.915512
-0.0287993 -0.910087 -0.910087
-0.0378574 -0.904682 -0.904682
-0.0379259 -0.910093 -0.910093
-0.0471379 -0.915524 -0.915524
-0.0473004 -0.926386 -0.926386
-0.02896 -0.92637 -0.92637
-0.0288532 -0.915506 -0.915506
-0.0472195 -0.920951 -0.920951
-0.0381285 -0.926374 -0.926374
-0.0289068 -0.920934 -0.920934
-0.0379939 -0.915512 -0.915512
-0.0380615 -0.920939 -0.920939
-0.0473004 -0.926386 -0.926386
-0.0474605 -0.937281 -0.937281
-0.0290654 -0.937266 -0.937266
-0.02896 -0.92637 -0.92637
-0.0473808 -0.93183 -0.93183
-0.0382613 -0.93727 -0.93727
-0.0290129 -0.931813 -0.931813
-0.0381285 -0.926374 -0.926374
-0.0381951 -0.931818 -0.931818
-0.0474605 -0.937281 -0.937281
-0.0476182 -0.948208 -0.948208
-0.0291694 -0.948194 -0.948194
-0.0290654 -0.937266 -0.937266
-0.0475397 -0.942741 -0.942741
-0.0383921 -0.948197 -0.948197
-0.0291176 -0.942726 -0.942726
-0.0382613 -0.93727 -0.93727
-0.0383269 -0.94273 -0.94273
-0.0476182 -0.948208 -0.948208
-0.0477734 -0.959166 -0.959166
-0.029272 -0.959153 -0.959153
-0.0291694 -0.948194 -0.948194
-0.0476961 -0.953683 -0.953683
-0.038521 -0.959157 -0.959157
-0.0292209 -0.95367 -0.95367
-0.0383921 -0.948197 -0.948197
-0.0384568 -0.953673 -0.953673
-0.0477734 -0.959166 -0.959166
-0.0479263 -0.970156 -0.970156
-0.0293732 -0.970144 -0.970144
-0.029272 -0.959153 -0.959153
-0.0478501 -0.964657 -0.964657
-0.038648 -0.970147 -0.970147
-0.0293228 -0.964645 -0.964645
-0.038521 -0.959157 -0.959157
-0.0385848 -0.964648 -0.964648
-0.0479263 -0.970156 -0.970156
-0.0480766 -0.981175 -0.981175
-0.029473 -0.981165 -0.981165
-0.0293732 -0.970144 -0.970144
-0.0480018 -0.975662 -0.975662
-0.0387731 -0.981167 -0.981167
-0.0294233 -0.975651 -0.975651
-0.038648 -0.970147 -0.970147
-0.0387108 -0.975653 -0.975653
-0.0480766 -0.981175 -0.981175
-0.0482246 -0.992224 -0.992224
-0.0295714 -0.992215 -0.992215
-0.029473 -0.981165 -0.981165
-0.0481509 -0.986696 -0.986696
-0.0388963 -0.992217 -0.992217
-0.0295224 -0.986686 -0.986686
-0.0387731 -0.981167 -0.981167
-0.038835 -0.986688 -0.986688
-0.0482246 -0.992224 -0.992224
-0.0483702 -1.0033 -1.0033
-0.0296683 -1.00329 -1.00329
-0.0295714 -0.992215 -0.992215
-0.0482977 -0.99776 -0.99776
-0.0390176 -1.0033 -1.0033
-0.02962 -0.997751 -0.997751
-0.0388963 -0.992217 -0.992217
-0.0389572 -0.997753 -0.997753
-0.0483702 -1.0033 -1.0033
-0.0485133 -1.01441 -1.01441
-0.0297639 -1.0144 -1.0144
-0.0296683 -1.00329 -1.00329
-0.048442 -1.00885 -1.00885
-0.0391369 -1.0144 -1.0144
-0.0297163 -1.00885 -1.00885
-0.0390176 -1.0033 -1.0033
-0.0390775 -1.00885 -1.00885
-0.0485133 -1.01441 -1.01441
-0.0486539 -1.02554 -1.02554
-0.0298581 -1.02554 -1.02554
-0.0297639 -1.0144 -1.0144
-0.0485839 -1.01997 -1.01997
-0.0392543 -1.02554 -1.02554
-0.0298112 -1.01997 -1.01997
-0.0391369 -1.0144 -1.0144
-0.0391958 -1.01997 -1.01997
-0.0486539 -1.02554 -1.02554
-0.0487922 -1.03671 -1.03671
-0.0299508 -1.0367 -1.0367
-0.0298581 -1.02554 -1.02554
-0.0487234 -1.03112 -1.03112
-0.0393698 -1.0367 -1.0367
-0.0299046 -1.03112 -1.03112
-0.0392543 -1.02554 -1.02554
-0.0393123 -1.03112 -1.03112
-0.0487922 -1.03671 -1.03671
-0.048928 -1.04789 -1.04789
-0.0300421 -1.04789 -1.04789
-0.0299508 -1.0367 -1.0367
-0.0488604 -1.0423 -1.0423
-0.0394834 -1.04789 -1.04789
-0.0299967 -1.04229 -1.04229
-0.0393698 -1.0367 -1.0367
-0.0394268 -1.04229 -1.04229
-0.048928 -1.04789 -1.04789
-0.0490613 -1.05911 -1.05911
-0.0301321 -1.05911 -1.05911
-0.0300421 -1.04789 -1.04789
-0.048995 -1.0535 -1.0535
-0.039595 -1.05911 -1.05911
-0.0300873 -1.0535 -1.0535
-0.0394834 -1.04789 -1.04789
-0.0395394 -1.05349 -1.05349
-0.0490613 -1.05911 -1.05911
-0.0491922 -1.07035 -1.07035
-0.0302205 -1.07035 -1.07035
-0.0301321 -1.05911 -1.05911
-0.0491271 -1.06473 -1.06473
-0.0397047 -1.07035 -1.07035
-0.0301765 -1.06472 -1.06472
-0.039595 -1.05911 -1.05911
-0.0396501 -1.06472 -1.06472
-0.0491922 -1.07035 -1.07035
-0.0493207 -1.08161 -1.08161
-0.0303076 -1.08161 -1.08161
-0.0302205 -1.07035 -1.07035
-0.0492568 -1.07598 -1.07598
-0.0398125 -1.08161 -1.08161
-0.0302643 -1.07598 -1.07598
-0.0397047 -1.07035 -1.07035
-0.0397588 -1.07598 -1.07598
-0.0493207 -1.08161 -1.08161
-0.0494467 -1.0929 -1.0929
-0.0303932 -1.0929 -1.0929
-0.0303076 -1.08161 -1.08161
-0.049384 -1.08726 -1.08726
-0.0399183 -1.0929 -1.0929
-0.0303506 -1.08726 -1.08726
-0.0398125 -1.08161 -1.08161
-0.0398656 -1.08725 -1.08725
-0.0494467 -1.0929 -1.0929
-0.0495703 -1.10422 -1.10422
-0.0304775 -1.10422 -1.10422
-0.0303932 -1.0929 -1.0929
-0.0495088 -1.09856 -1.09856
-0.0400222 -1.10421 -1.10421
-0.0304355 -1.09856 -1.09856
-0.0399183 -1.0929 -1.0929
-0.0399705 -1.09856 -1.09856
-0.0495703 -1.10422 -1.10422
-0.0496914 -1.11555 -1.11555
-0.0305602 -1.11556 -1.11556
-0.0304775 -1.10422 -1.10422
-0.0496311 -1.10988 -1.10988
-0.0401241 -1.11555 -1.11555
-0.030519 -1.10988 -1.10988
-0.0400222 -1.10421 -1.10421
-0.0400734 -1.10988 -1.10988
-0.0496914 -1.11555 -1.11555
-0.04981 -1.12691 -1.12691
-0.0306416 -1.12692 -1.12692
-0.0305602 -1.11556 -1.11556
-0.049751 -1.12123 -1.12123
-0.0402241 -1.12691 -1.12691
-0.0306011 -1.12123 -1.12123
-0.0401241 -1.11555 -1.11555
-0.0401744 -1.12123 -1.12123
-0.04981 -1.12691 -1.12691
-0.0499262 -1.13829 -1.13829
-0.0307215 -1.1383 -1.1383
-0.0306416 -1.12692 -1.12692
-0.0498685 -1.1326 -1.1326
-0.0403222 -1.13829 -1.13829
-0.0306817 -1.1326 -1.1326
-0.0402241 -1.12691 -1.12691
-0.0402734 -1.1326 -1.1326
-0.0499262 -1.13829 -1.13829
-0.05004 -1.14969 -1.14969
-0.0307999 -1.1497 -1.1497
-0.0307215 -1.1383 -1.1383
-0.0499834 -1.14399 -1.14399
-0.0404183 -1.14969 -1.14969
-0.0307609 -1.14399 -1.14399
-0.0403222 -1.13829 -1.13829
-0.0403705 -1.14399 -1.14399
-0.05004 -1.14969 -1.14969
-0.0501513 -1.16111 -1.16111
-0.030877 -1.16112 -1.16112
-0.0307999 -1.1497 -1.1497
-0.0500959 -1.1554 -1.1554
-0.0405124 -1.16111 -1.16111
-0.0308386 -1.15541 -1.15541
-0.0404183 -1.14969 -1.14969
-0.0404656 -1.1554 -1.1554
-0.0501513 -1.16111 -1.16111
-0.0502601 -1.17255 -1.17255
-0.0309526 -1.17256 -1.17256
-0.030877 -1.16112 -1.16112
-0.050206 -1.16683 -1.16683
-0.0406046 -1.17256 -1.17256
-0.0309149 -1.16684 -1.16684
-0.0405124 -1.16111 -1.16111
-0.0405588 -1.16683 -1.16683
-0.0502601 -1.17255 -1.17255
-0.0503664 -1.18402 -1.18402
-0.0310267 -1.18403 -1.18403
-0.0309526 -1.17256 -1.17256
-0.0503135 -1.17828 -1.17828
-0.0406949 -1.18402 -1.18402
-0.0309898 -1.17829 -1.17829
-0.0406046 -1.17256 -1.17256
-0.04065 -1.17829 -1.17829
-0.0503664 -1.18402 -1.18402
-0.0504703 -1.1955 -1.1955
-0.0310994 -1.19551 -1.19551
-0.0310267 -1.18403 -1.18403
-0.0504186 -1.18975 -1.18975
-0.0407831 -1.1955 -1.1955
-0.0310632 -1.18977 -1.18977
-0.0406949 -1.18402 -1.18402
-0.0407392 -1.18976 -1.18976
-0.0504703 -1.1955 -1.1955
-0.0505717 -1.20699 -1.20699
-0.0311706 -1.20701 -1.20701
-0.0310994 -1.19551 -1.19551
-0.0505213 -1.20124 -1.20124
-0.0408695 -1.207 -1.207
-0.0311352 -1.20126 -1.20126
-0.0407831 -1.1955 -1.1955
-0.0408265 -1.20125 -1.20125
-0.0505717 -1.20699 -1.20699
-0.0506706 -1.21851 -1.21851
-0.0312404 -1.21852 -1.21852
-0.0311706 -1.20701 -1.20701
-0.0506214 -1.21275 -1.21275
-0.0409538 -1.21851 -1.21851
-0.0312057 -1.21276 -1.21276
-0.0408695 -1.207 -1.207
-0.0409119 -1.21275 -1.21275
-0.0506706 -1.21851 -1.21851
-0.050767 -1.23004 -1.23004
-0.0313087 -1.23006 -1.23006
-0.0312404 -1.21852 -1.21852
-0.0507191 -1.22427 -1.22427
-0.0410362 -1.23005 -1.23005
-0.0312747 -1.22429 -1.22429
-0.0409538 -1.21851 -1.21851
-0.0409952 -1.22428 -1.22428
-0.050767 -1.23004 -1.23004
-0.050861 -1.24159 -1.24159
-0.0313756 -1.24161 -1.24161
-0.0313087 -1.23006 -1.23006
-0.0508143 -1.23581 -1.23581
-0.0411166 -1.2416 -1.2416
-0.0313423 -1.23583 -1.23583
-0.0410362 -1.23005 -1.23005
-0.0410766 -1.23582 -1.23582
-0.050861 -1.24159 -1.24159
-0.0509524 -1.25316 -1.25316
-0.031441 -1.25317 -1.25317
-0.0313756 -1.24161 -1.24161
-0.050907 -1.24737 -1.24737
-0.041195 -1.25316 -1.25316
-0.0314085 -1.24739 -1.24739
-0.0411166 -1.2416 -1.2416
-0.0411561 -1.24738 -1.24738
-0.0509524 -1.25316 -1.25316
-0.0510414 -1.26474 -1.26474
-0.0315049 -1.26475 -1.26475
-0.031441 -1.25317 -1.25317
-0.0509972 -1.25894 -1.25894
-0.0412715 -1.26474 -1.26474
-0.0314731 -1.25896 -1.25896
-0.041195 -1.25316 -1.25316
-0.0412335 -1.25895 -1.25895
-0.0510414 -1.26474 -1.26474
-0.0511279 -1.27633 -1.27633
-0.0315674 -1.27635 -1.27635
-0.0315049 -1.26475 -1.26475
-0.051085 -1.27053 -1.27053
-0.041346 -1.27634 -1.27634
-0.0315364 -1.27055 -1.27055
-0.0412715 -1.26474 -1.26474
-0.041309 -1.27054 -1.27054
-0.0511279 -1.27633 -1.27633
-0.0512119 -1.28794 -1.28794
-0.0316284 -1.28796 -1.28796
-0.0315674 -1.27635 -1.27635
-0.0511702 -1.28213 -1.28213
-0.0414185 -1.28795 -1.28795
-0.0315981 -1.28215 -1.28215
-0.041346 -1.27634 -1.27634
-0.0413825 -1.28214 -1.28214
-0.0512119 -1.28794 -1.28794
-0.0512934 -1.29956 -1.29956
-0.0316879 -1.29958 -1.29958
-0.0316284 -1.28796 -1.28796
-0.051253 -1.29375 -1.29375
-0.041489 -1.29957 -1.29957
-0.0316584 -1.29377 -1.29377
-0.0414185 -1.28795 -1.28795
-0.041454 -1.29376 -1.29376
-0.0512934 -1.29956 -1.29956
-0.0513724 -1.31119 -1.31119
-0.031746 -1.31122 -1.31122
-0.0316879 -1.29958 -1.29958
-0.0513332 -1.30538 -1.30538
-0.0415575 -1.3112 -1.3112
-0.0317171 -1.3054 -1.3054
-0.041489 -1.29957 -1.29957
-0.0415235 -1.30539 -1.30539
-0.0513724 -1.31119 -1.31119
-0.0514489 -1.32284 -1.32284
-0.0318026 -1.32287 -1.32287
-0.031746 -1.31122 -1.31122
-0.051411 -1.31702 -1.31702
-0.0416241 -1.32285 -1.32285
-0.0317745 -1.31704 -1.31704
-0.0415575 -1.3112 -1.3112
-0.041591 -1.31703 -1.31703
-0.0514489 -1.32284 -1.32284
-0.0515229 -1.3345 -1.3345
-0.0318577 -1.33453 -1.33453
-0.0318026 -1.32287 -1.32287
-0.0514862 -1.32867 -1.32867
-0.0416886 -1.33451 -1.33451
-0.0318303 -1.32869 -1.32869
-0.0416241 -1.32285 -1.32285
-0.0416566 -1.32868 -1.32868
-0.0515229 -1.3345 -1.3345
-0.0515944 -1.34617 -1.34617
-0.0319113 -1.3462 -1.3462
-0.0318577 -1.33453 -1.33453
-0.051559 -1.34033 -1.34033
-0.0417512 -1.34618 -1.34618
-0.0318846 -1.34036 -1.34036
-0.0416886 -1.33451 -1.33451
-0.0417201 -1.34034 -1.34034
-0.0515944 -1.34617 -1.34617
-0.0516634 -1.35785 -1.35785
-0.0319634 -1.35788 -1.35788
-0.0319113 -1.3462 -1.3462
-0.0516292 -1.35201 -1.35201
-0.0418117 -1.35786 -1.35786
-0.0319375 -1.35203 -1.35203
-0.0417512 -1.34618 -1.34618
-0.0417817 -1.35202 -1.35202
-0.0516634 -1.35785 -1.35785
-0.0517299 -1.36954 -1.36954
-0.032014 -1.36957 -1.36957
-0.0319634 -1.35788 -1.35788
-0.051697 -1.36369 -1.36369
-0.0418703 -1.36955 -1.36955
-0.0319889 -1.36372 -1.36372
-0.0418117 -1.35786 -1.35786
-0.0418413 -1.3637 -1.3637
-0.0517299 -1.36954 -1.36954
-0.0517939 -1.38123 -1.38123
-0.0320632 -1.38126 -1.38126
-0.032014 -1.36957 -1.36957
-0.0517622 -1.37538 -1.37538
-0.0419268 -1.38125 -1.38125
-0.0320388 -1.37541 -1.37541
-0.0418703 -1.36955 -1.36955
-0.0418988 -1.3754 -1.3754
-0.0517939 -1.38123 -1.38123
-0.0518553 -1.39294 -1.39294
-0.0321108 -1.39297 -1.39297
-0.0320632 -1.38126 -1.38126
-0.0518249 -1.38709 -1.38709
-0.0419814 -1.39296 -1.39296
-0.0320872 -1.38712 -1.38712
-0.0419268 -1.38125 -1.38125
-0.0419544 -1.3871 -1.3871
-0.0518553 -1.39294 -1.39294
-0.0519142 -1.40465 -1.40465
-0.032157 -1.40469 -1.40469
-0.0321108 -1.39297 -1.39297
-0.0518851 -1.3988 -1.3988
-0.0420339 -1.40467 -1.40467
-0.0321341 -1.39883 -1.39883
-0.0419814 -1.39296 -1.39296
-0.0420079 -1.39881 -1.39881
-0.0519142 -1.40465 -1.40465
-0.0519706 -1.41638 -1.41638
-0.0322016 -1.41641 -1.41641
-0.032157 -1.40469 -1.40469
-0.0519427 -1.41051 -1.41051
-0.0420844 -1.41639 -1.41639
-0.0321795 -1.41055 -1.41055
-0.0420339 -1.40467 -1.40467
-0.0420594 -1.41053 -1.41053
-0.0519706 -1.41638 -1.41638
-0.0520245 -1.4281 -1.4281
-0.0322447 -1.42814 -1.42814
-0.0322016 -1.41641 -1.41641
-0.0519979 -1.42224 -1.42224
-0.0421329 -1.42812 -1.42812
-0.0322233 -1.42227 -1.42227
-0.0420844 -1.41639 -1.41639
-0.0421089 -1.42226 -1.42226
-0.0520245 -1.4281 -1.4281
-0.0520759 -1.43984 -1.43984
-0.0322863 -1.43988 -1.43988
-0.0322447 -1.42814 -1.42814
-0.0520505 -1.43397 -1.43397
-0.0421794 -1.43986 -1.43986
-0.0322657 -1.43401 -1.43401
-0.0421329 -1.42812 -1.42812
-0.0421564 -1.43399 -1.43399
-0.0520759 -1.43984 -1.43984
-0.0521247 -1.45158 -1.45158
-0.0323263 -1.45162 -1.45162
-0.0322863 -1.43988 -1.43988
-0.0521006 -1.44571 -1.44571
-0.0422238 -1.4516 -1.4516
-0.0323065 -1.44575 -1.44575
-0.0421794 -1.43986 -1.43986
-0.0422018 -1.44573 -1.44573
-0.0521247 -1.45158 -1.45158
-0.0521709 -1.46332 -1.46332
-0.0323646 -1.46336 -1.46336
-0.0323263 -1.45162 -1.45162
-0.0521481 -1.45745 -1.45745
-0.042266 -1.46334 -1.46334
-0.0323456 -1.45749 -1.45749
-0.0422238 -1.4516 -1.4516
-0.0422452 -1.45747 -1.45747
-0.0521709 -1.46332 -1.46332
-0.0522146 -1.47507 -1.47507
-0.0324012 -1.47511 -1.47511
-0.0323646 -1.46336 -1.46336
-0.0521931 -1.4692 -1.4692
-0.0423061 -1.47509 -1.47509
-0.0323831 -1.46924 -1.46924
-0.042266 -1.46334 -1.46334
-0.0422863 -1.46922 -1.46922
-0.0522146 -1.47507 -1.47507
-0.0522557 -1.48683 -1.48683
-0.0324359 -1.48687 -1.48687
-0.0324012 -1.47511 -1.47511
-0.0522355 -1.48095 -1.48095
-0.0423438 -1.48685 -1.48685
-0.0324188 -1.48099 -1.48099
-0.0423061 -1.47509 -1.47509
-0.0423252 -1.48097 -1.48097
-0.0522557 -1.48683 -1.48683
-0.0522939 -1.49858 -1.49858
-0.0324685 -1.49862 -1.49862
-0.0324359 -1.48687 -1.48687
-0.0522752 -1.4927 -1.4927
-0.042379 -1.4986 -1.4986
-0.0324524 -1.49275 -1.49275
-0.0423438 -1.48685 -1.48685
-0.0423617 -1.49272 -1.49272
-0.0522939 -1.49858 -1.49858
-0.0523292 -1.51034 -1.51034
-0.0324991 -1.51038 -1.51038
-0.0324685 -1.49862 -1.49862
-0.0523119 -1.50446 -1.50446
-0.0424114 -1.51036 -1.51036
-0.0324841 -1.5045 -1.5045
-0.042379 -1.4986 -1.4986
-0.0423955 -1.50448 -1.50448
-0.0523292 -1.51034 -1.51034
-0.0523611 -1.5221 -1.5221
-0.032528 -1.52215 -1.52215
-0.0324991 -1.51038 -1.51038
-0.0523456 -1.51622 -1.51622
-0.0424411 -1.52213 -1.52213
-0.0325137 -1.51627 -1.51627
-0.0424114 -1.51036 -1.51036
-0.0424266 -1.51624 -1.51624
-0.0523611 -1.5221 -1.5221
-0.0523899 -1.53388 -1.53388
-0.0325568 -1.53391 -1.53391
-0.032528 -1.52215 -1.52215
-0.0523757 -1.52799 -1.52799
-0.0424695 -1.53389 -1.53389
-0.0325423 -1.52803 -1.52803
-0.0424411 -1.52213 -1.52213
-0.0424552 -1.52801 -1.52801
-0.0523899 -1.53388 -1.53388
-0.0524206 -1.54565 -1.54565
-0.0325865 -1.54567 -1.54567
-0.0325568 -1.53391 -1.53391
-0.0524044 -1.53976 -1.53976
-0.0425008 -1.54566 -1.54566
-0.0325715 -1.53979 -1.53979
-0.0424695 -1.53389 -1.53389
-0.0424846 -1.53978 -1.53978
0 0 0
-0.00026652 -2.74256e-05 -2.74256e-05
-8.77386e-05 1.42398e-05 1.42398e-05
0 0 0
-0.000129209 8.10398e-06 8.10398e-06
-0.000176466 -1.39106e-06 -1.39106e-06
-4.36736e-05 2.86586e-05 2.86586e-05
0 0 0
-8.56579e-05 2.16662e-05 2.16662e-05
-0.00026652 -2.74256e-05 -2.74256e-05
-0.000553409 -0.000207181 -0.000207181
-0.000182731 -0.000134784 -0.000134784
-8.77386e-05 1.42398e-05 1.42398e-05
-0.000408175 -0.000100062 -0.000100062
-0.00036638 -0.000160995 -0.000160995
-0.00013435 -4.11562e-05 -4.11562e-05
-0.000176466 -1.39106e-06 -1.39106e-06
-0.000270231 -6.29749e-05 -6.29749e-05
-0.000553409 -0.000207181 -0.000207181
-0.000852245 -0.000518148 -0.000518148
-0.000281135 -0.000427034 -0.000427034
-0.000182731 -0.000134784 -0.000134784
-0.000701918 -0.000347118 -0.000347118
-0.00056429 -0.000460589 -0.000460589
-0.000231669 -0.000263978 -0.000263978
-0.00036638 -0.000160995 -0.000160995
-0.000464635 -0.000294201 -0.000294201
-0.000852245 -0.000518148 -0.000518148
-0.00115353 -0.000948707 -0.000948707
-0.000381678 -0.000849458 -0.000849458
-0.000281135 -0.000427034 -0.000427034
-0.00100292 -0.000718803 -0.000718803
-0.000765169 -0.000886389 -0.000886389
-0.000331266 -0.000622563 -0.000622563
-0.00056429 -0.000460589 -0.000460589
-0.000664609 -0.00065825 -0.00065825
-0.00115353 -0.000948707 -0.000948707
-0.00145377 -0.00149569 -0.00149569
-0.000482075 -0.00139399 -0.00139399
-0.000381678 -0.000849458 -0.000849458
-0.00130391 -0.00120773 -0.00120773
-0.00096585 -0.00143213 -0.00143213
-0.000431955 -0.00110678 -0.00110678
-0.000765169 -0.000886389 -0.000886389
-0.000865653 -0.00114451 -0.00114451
-0.00145377 -0.00149569 -0.00149569
-0.00175121 -0.0021579 -0.0021579
-0.000581885 -0.00205651 -0.00205651
-0.000482075 -0.00139399 -0.00139399
-0.00160286 -0.00181242 -0.00181242
-0.00116488 -0.00209459 -0.00209459
-0.00053208 -0.00171066 -0.00171066
-0.00096585 -0.00143213 -0.00143213
-0.0010656 -0.00174888 -0.00174888
-0.00175121 -0.0021579 -0.0021579
-0.00204599 -0.0029351 -0.0029351
-0.000680664 -0.00283485 -0.00283485
-0.000581885 -0.00205651 -0.00205651
-0.00189892 -0.00253214 -0.00253214
-0.00136198 -0.00287251 -0.00287251
-0.000631403 -0.00243128 -0.00243128
-0.00116488 -0.00209459 -0.00209459
-0.00126366 -0.00246917 -0.00246917
-0.00204599 -0.0029351 -0.0029351
-0.00233827 -0.00382692 -0.00382692
-0.000778561 -0.00372796 -0.00372796
-0.000680664 -0.00283485 -0.00283485
-0.00219242 -0.00336671 -0.00336671
-0.00155728 -0.00376509 -0.00376509
-0.000729715 -0.00326711 -0.00326711
-0.00136198 -0.00287251 -0.00287251
-0.00145984 -0.00330451 -0.00330451
-0.00233827 -0.00382692 -0.00382692
-0.00262845 -0.00483295 -0.00483295
-0.000875645 -0.00473513 -0.00473513
-0.000778561 -0.00372796 -0.00372796
-0.00248361 -0.00431569 -0.00431569
-0.00175105 -0.00477181 -0.00477181
-0.000827197 -0.00421732 -0.00421732
-0.00155728 -0.00376509 -0.00376509
-0.00165435 -0.00425421 -0.00425421
-0.00262845 -0.00483295 -0.00483295
-0.00291675 -0.00595269 -0.00595269
-0.000972065 -0.00585584 -0.00585584
-0.000875645 -0.00473513 -0.00473513
-0.00277282 -0.00537864 -0.00537864
-0.00194348 -0.00589212 -0.00589212
-0.000923932 -0.00528133 -0.00528133
-0.00175105 -0.00477181 -0.00477181
-0.00184742 -0.0053178 -0.0053178
-0.00291675 -0.00595269 -0.00595269
-0.00320335 -0.0071856 -0.0071856
-0.0010679 -0.00708958 -0.00708958
-0.000972065 -0.00585584 -0.00585584
-0.00306025 -0.00655504 -0.00655504
-0.00213474 -0.00712552 -0.00712552
-0.00102005 -0.00645862 -0.00645862
-0.00194348 -0.00589212 -0.00589212
-0.00203925 -0.00649472 -0.00649472
-0.00320335 -0.0071856 -0.0071856
-0.00348835 -0.00853108 -0.00853108
-0.00116321 -0.00843582 -0.00843582
-0.0010679 -0.00708958 -0.00708958
-0.00334604 -0.0078443 -0.0078443
-0.00232492 -0.00847146 -0.00847146
-0.00111561 -0.00774867 -0.00774867
-0.00213474 -0.00712552 -0.00712552
-0.00222996 -0.00778446 -0.00778446
-0.00348835 -0.00853108 -0.00853108
-0.00377183 -0.00998856 -0.00998856
-0.00125803 -0.00989399 -0.00989399
-0.00116321 -0.00843582 -0.00843582
-0.00363028 -0.00924586 -0.00924586
-0.00251407 -0.00992936 -0.00992936
-0.00121068 -0.00915095 -0.00915095
-0.00232492 -0.00847146 -0.00847146
-0.00241962 -0.00918645 -0.00918645
-0.00377183 -0.00998856 -0.00998856
-0.0040538 -0.0115574 -0.0115574
-0.00135239 -0.0114635 -0.0114635
-0.00125803 -0.00989399 -0.00989399
-0.003913 -0.0107591 -0.0107591
-0.00270225 -0.0114986 -0.0114986
-0.00130526 -0.0106649 -0.0106649
-0.00251407 -0.00992936 -0.00992936
-0.00260828 -0.0107001 -0.0107001
-0.0040538 -0.0115574 -0.0115574
-0.0043343 -0.0132371 -0.0132371
-0.00144629 -0.0131439 -0.0131439
-0.00135239 -0.0114635 -0.0114635
-0.00419424 -0.0123835 -0.0123835
-0.00288945 -0.0131787 -0.0131787
-0.0013994 -0.0122899 -0.0122899
-0.00270225 -0.0114986 -0.0114986
-0.00279597 -0.0123248 -0.0123248
-0.0043343 -0.0132371 -0.0132371
-0.00461334 -0.015027 -0.015027
-0.00153976 -0.0149344 -0.0149344
-0.00144629 -0.0131439 -0.0131439
-0.004474 -0.0141183 -0.0141183
-0.0030757 -0.0149689 -0.0149689
-0.00149308 -0.0140254 -0.0140254
-0.00288945 -0.0131787 -0.0131787
-0.0029827 -0.0140601 -0.0140601
-0.00461334 -0.015027 -0.015027
-0.00489092 -0.0169264 -0.0169264
-0.0016328 -0.0168344 -0.0168344
-0.00153976 -0.0149344 -0.0149344
-0.00475231 -0.015963 -0.015963
-0.00326101 -0.0168688 -0.0168688
-0.00158633 -0.0158707 -0.0158707
-0.0030757 -0.0149689 -0.0149689
-0.00316848 -0.0159052 -0.0159052
-0.00489092 -0.0169264 -0.0169264
-0.00516705 -0.0189348 -0.0189348
-0.0017254 -0.0188435 -0.0188435
-0.0016328 -0.0168344 -0.0168344
-0.00502916 -0.017917 -0.017917
-0.00344538 -0.0188776 -0.0188776
-0.00167915 -0.0178254 -0.0178254
-0.00326101 -0.0168688 -0.0168688
-0.00335331 -0.0178596 -0.0178596
-0.00516705 -0.0189348 -0.0189348
-0.00544173 -0.0210516 -0.0210516
-0.00181758 -0.020961 -0.020961
-0.0017254 -0.0188435 -0.0188435
-0.00530457 -0.0199797 -0.0199797
-0.00362881 -0.0209947 -0.0209947
-0.00177155 -0.0198887 -0.0198887
-0.00344538 -0.0188776 -0.0188776
-0.00353721 -0.0199226 -0.0199226
-0.00544173 -0.0210516 -0.0210516
-0.00571497 -0.0232761 -0.0232761
-0.00190935 -0.0231862 -0.0231862
-0.00181758 -0.020961 -0.020961
-0.00557853 -0.0221504 -0.0221504
-0.00381131 -0.0232197 -0.0232197
-0.00186352 -0.0220601 -0.0220601
-0.00362881 -0.0209947 -0.0209947
-0.00372018 -0.0220938 -0.0220938
-0.00571497 -0.0232761 -0.0232761
-0.00598677 -0.0256078 -0.0256078
-0.00200069 -0.0255186 -0.0255186
-0.00190935 -0.0231862 -0.0231862
-0.00585105 -0.0244286 -0.0244286
-0.00399288 -0.0255518 -0.0255518
-0.00195507 -0.024339 -0.024339
-0.00381131 -0.0232197 -0.0232197
-0.00390221 -0.0243724 -0.0243724
-0.00598677 -0.0256078 -0.0256078
-0.00625714 -0.0280461 -0.0280461
-0.00209163 -0.0279575 -0.0279575
-0.00200069 -0.0255186 -0.0255186
-0.00612214 -0.0268137 -0.0268137
-0.00417353 -0.0279905 -0.0279905
-0.00204621 -0.0267248 -0.0267248
-0.00399288 -0.0255518 -0.0255518
-0.00408332 -0.0267578 -0.0267578
-0.00625714 -0.0280461 -0.0280461
-0.00652608 -0.0305903 -0.0305903
-0.00218215 -0.0305024 -0.0305024
-0.00209163 -0.0279575 -0.0279575
-0.00639179 -0.029305 -0.029305
-0.00435327 -0.0305351 -0.0305351
-0.00213694 -0.0292168 -0.0292168
-0.00417353 -0.0279905 -0.0279905
-0.00426352 -0.0292496 -0.0292496
-0.00652608 -0.0305903 -0.0305903
-0.00679359 -0.0332398 -0.0332398
-0.00227227 -0.0331527 -0.0331527
-0.00218215 -0.0305024 -0.0305024
-0.00666001 -0.0319019 -0.0319019
-0.00453208 -0.0331851 -0.0331851
-0.00222726 -0.0318144 -0.0318144
-0.00435327 -0.0305351 -0.0305351
-0.00444279 -0.0318469 -0.0318469
-0.00679359 -0.0332398 -0.0332398
-0.00705968 -0.0359941 -0.0359941
-0.002362 -0.0359077 -0.0359077
-0.00227227 -0.0331527 -0.0331527
-0.00692681 -0.0346039 -0.0346039
-0.00470999 -0.0359398 -0.0359398
-0.00231719 -0.0345171 -0.0345171
-0.00453208 -0.0331851 -0.0331851
-0.00462115 -0.0345494 -0.0345494
-0.00705968 -0.0359941 -0.0359941
-0.00732435 -0.0388526 -0.0388526
-0.00245132 -0.0387668 -0.0387668
-0.002362 -0.0359077 -0.0359077
-0.00719219 -0.0374104 -0.0374104
-0.00488698 -0.0387986 -0.0387986
-0.00240671 -0.0373243 -0.0373243
-0.00470999 -0.0359398 -0.0359398
-0.0047986 -0.0373562 -0.0373562
-0.00732435 -0.0388526 -0.0388526
-0.0075876 -0.0418145 -0.0418145
-0.00254025 -0.0417295 -0.0417295
-0.00245132 -0.0387668 -0.0387668
-0.00745615 -0.0403206 -0.0403206
-0.00506307 -0.041761 -0.041761
-0.00249583 -0.0402352 -0.0402352
-0.00488698 -0.0387986 -0.0387986
-0.00497514 -0.0402669 -0.0402669
-0.0075876 -0.0418145 -0.0418145
-0.00784944 -0.0448794 -0.0448794
-0.00262879 -0.0447951 -0.0447951
-0.00254025 -0.0417295 -0.0417295
-0.00771869 -0.0433341 -0.0433341
-0.00523826 -0.0448263 -0.0448263
-0.00258457 -0.0432494 -0.0432494
-0.00506307 -0.041761 -0.041761
-0.00515078 -0.0432808 -0.0432808
-0.00784944 -0.0448794 -0.0448794
-0.00810987 -0.0480466 -0.0480466
-0.00271695 -0.047963 -0.047963
-0.00262879 -0.0447951 -0.0447951
-0.00797983 -0.0464502 -0.0464502
-0.00541255 -0.0479939 -0.0479939
-0.00267292 -0.0463663 -0.0463663
-0.00523826 -0.0448263 -0.0448263
-0.00532552 -0.0463973 -0.0463973
-0.00810987 -0.0480466 -0.0480466
-0.00836889 -0.0513155 -0.0513155
-0.00280472 -0.0512326 -0.0512326
-0.00271695 -0.047963 -0.047963
-0.00823956 -0.0496684 -0.0496684
-0.00558595 -0.0512632 -0.0512632
-0.00276088 -0.0495851 -0.0495851
-0.00541255 -0.0479939 -0.0479939
-0.00549936 -0.0496159 -0.0496159
-0.00836889 -0.0513155 -0.0513155
-0.00862651 -0.0546855 -0.0546855
-0.00289211 -0.0546034 -0.0546034
-0.00280472 -0.0512326 -0.0512326
-0.00849788 -0.0529879 -0.0529879
-0.00575846 -0.0546337 -0.0546337
-0.00284846 -0.0529054 -0.0529054
-0.00558595 -0.0512632 -0.0512632
-0.00567232 -0.0529359 -0.0529359
-0.00862651 -0.0546855 -0.0546855
-0.00888274 -0.058156 -0.058156
-0.00297912 -0.0580747 -0.0580747
-0.00289211 -0.0546034 -0.0546034
-0.0087548 -0.0564082 -0.0564082
-0.00593008 -0.0581046 -0.0581046
-0.00293566 -0.0563265 -0.0563265
-0.00575846 -0.0546337 -0.0546337
-0.00584438 -0.0563566 -0.0563566
-0.00888274 -0.058156 -0.058156
-0.00913757 -0.0617264 -0.0617264
-0.00306576 -0.0616458 -0.0616458
-0.00297912 -0.0580747 -0.0580747
-0.00901033 -0.0599288 -0.0599288
-0.00610081 -0.0616755 -0.0616755
-0.00302249 -0.0598478 -0.0598478
-0.00593008 -0.0581046 -0.0581046
-0.00601555 -0.0598776 -0.0598776
-0.00913757 -0.0617264 -0.0617264
-0.009391 -0.0653961 -0.0653961
-0.00315203 -0.0653163 -0.0653163
-0.00306576 -0.0616458 -0.0616458
-0.00926446 -0.0635489 -0.0635489
-0.00627066 -0.0653456 -0.0653456
-0.00310894 -0.0634687 -0.0634687
-0.00610081 -0.0616755 -0.0616755
-0.00618585 -0.0634982 -0.0634982
-0.009391 -0.0653961 -0.0653961
-0.00964304 -0.0691645 -0.0691645
-0.00323793 -0.0690854 -0.0690854
-0.00315203 -0.0653163 -0.0653163
-0.0095172 -0.067268 -0.067268
-0.00643963 -0.0691145 -0.0691145
-0.00319503 -0.0671885 -0.0671885
-0.00627066 -0.0653456 -0.0653456
-0.00635526 -0.0672178 -0.0672178
-0.00964304 -0.0691645 -0.0691645
-0.0098937 -0.073031 -0.073031
-0.00332347 -0.0729527 -0.0729527
-0.00323793 -0.0690854 -0.0690854
-0.00976855 -0.0710855 -0.0710855
-0.00660773 -0.0729814 -0.0729814
-0.00328075 -0.0710068 -0.0710068
-0.00643963 -0.0691145 -0.0691145
-0.00652379 -0.0710357 -0.0710357
-0.0098937 -0.073031 -0.073031
-0.010143 -0.0769949 -0.0769949
-0.00340865 -0.0769174 -0.0769174
-0.00332347 -0.0729527 -0.0729527
-0.0100185 -0.0750008 -0.0750008
-0.00677496 -0.0769458 -0.0769458
-0.00336611 -0.0749229 -0.0749229
-0.00660773 -0.0729814 -0.0729814
-0.00669145 -0.0749514 -0.0749514
-0.010143 -0.0769949 -0.0769949
-0.0103909 -0.0810557 -0.0810557
-0.00349347 -0.080979 -0.080979
-0.00340865 -0.0769174 -0.0769174
-0.0102671 -0.0790132 -0.0790132
-0.00694131 -0.081007 -0.081007
-0.0034511 -0.0789361 -0.0789361
-0.00677496 -0.0769458 -0.0769458
-0.00685824 -0.0789643 -0.0789643
-0.0103909 -0.0810557 -0.0810557
-0.0106374 -0.0852128 -0.0852128
-0.00357793 -0.0851368 -0.0851368
-0.00349347 -0.080979 -0.080979
-0.0105143 -0.0831223 -0.0831223
-0.0071068 -0.0851646 -0.0851646
-0.00353574 -0.0830459 -0.0830459
-0.00694131 -0.081007 -0.081007
-0.00702416 -0.0830738 -0.0830738
-0.0106374 -0.0852128 -0.0852128
-0.0108825 -0.0894655 -0.0894655
-0.00366203 -0.0893903 -0.0893903
-0.00357793 -0.0851368 -0.0851368
-0.0107601 -0.0873272 -0.0873272
-0.00727142 -0.0894178 -0.0894178
-0.00362002 -0.0872517 -0.0872517
-0.0071068 -0.0851646 -0.0851646
-0.00718921 -0.0872792 -0.0872792
-0.0108825 -0.0894655 -0.0894655
-0.0111263 -0.0938133 -0.0938133
-0.00374579 -0.0937389 -0.0937389
-0.00366203 -0.0893903 -0.0893903
-0.0110046 -0.0916276 -0.0916276
-0.00743518 -0.093766 -0.093766
-0.00370396 -0.0915528 -0.0915528
-0.00727142 -0.0894178 -0.0894178
-0.00735341 -0.09158 -0.09158
-0.0111263 -0.0938133 -0.0938133
-0.0113687 -0.0982556 -0.0982556
-0.0038292 -0.0981819 -0.0981819
-0.00374579 -0.0937389 -0.0937389
-0.0112476 -0.0960227 -0.0960227
-0.00759808 -0.0982087 -0.0982087
-0.00378754 -0.0959487 -0.0959487
-0.00743518 -0.093766 -0.093766
-0.00751673 -0.0959756 -0.0959756
-0.0113687 -0.0982556 -0.0982556
-0.0116097 -0.102792 -0.102792
-0.00391226 -0.102719 -0.102719
-0.0038292 -0.0981819 -0.0981819
-0.0114894 -0.100512 -0.100512
-0.00776012 -0.102745 -0.102745
-0.00387077 -0.100439 -0.100439
-0.00759808 -0.0982087 -0.0982087
-0.0076792 -0.100465 -0.100465
-0.0116097 -0.102792 -0.102792
-0.0118493 -0.107421 -0.107421
-0.00399498 -0.107349 -0.107349
-0.00391226 -0.102719 -0.102719
-0.0117297 -0.105095 -0.105095
-0.00792131 -0.107375 -0.107375
-0.00395366 -0.105022 -0.105022
-0.00776012 -0.102745 -0.102745
-0.00784082 -0.105049 -0.105049
-0.0118493 -0.107421 -0.107421
-0.0120876 -0.112143 -0.112143
-0.00407735 -0.112072 -0.112072
-0.00399498 -0.107349 -0.107349
-0.0119687 -0.10977 -0.10977
-0.00808164 -0.112097 -0.112097
-0.00403621 -0.109699 -0.109699
-0.00792131 -0.107375 -0.107375
-0.00800158 -0.109725 -0.109725
-0.0120876 -0.112143 -0.112143
-0.0123246 -0.116957 -0.116957
-0.00415939 -0.116886 -0.116886
-0.00407735 -0.112072 -0.112072
-0.0122063 -0.114538 -0.114538
-0.00824112 -0.116912 -0.116912
-0.00411841 -0.114468 -0.114468
-0.00808164 -0.112097 -0.112097
-0.00816149 -0.114493 -0.114493
-0.0123246 -0.116957 -0.116957
-0.0125601 -0.121862 -0.121862
-0.00424109 -0.121793 -0.121793
-0.00415939 -0.116886 -0.116886
-0.0124425 -0.119398 -0.119398
-0.00839976 -0.121818 -0.121818
-0.00420028 -0.119328 -0.119328
-0.00824112 -0.116912 -0.116912
-0.00832055 -0.119353 -0.119353
-0.0125601 -0.121862 -0.121862
-0.0127944 -0.126858 -0.126858
-0.00432245 -0.12679 -0.12679
-0.00424109 -0.121793 -0.121793
-0.0126774 -0.124349 -0.124349
-0.00855755 -0.126814 -0.126814
-0.00428181 -0.12428 -0.12428
-0.00839976 -0.121818 -0.121818
-0.00847876 -0.124305 -0.124305
-0.0127944 -0.126858 -0.126858
-0.0130272 -0.131945 -0.131945
-0.00440349 -0.131877 -0.131877
-0.00432245 -0.12679 -0.12679
-0.012911 -0.12939 -0.12939
-0.00871449 -0.131901 -0.131901
-0.00436301 -0.129322 -0.129322
-0.00855755 -0.126814 -0.126814
-0.00863613 -0.129347 -0.129347
-0.0130272 -0.131945 -0.131945
-0.0132587 -0.137121 -0.137121
-0.00448419 -0.137054 -0.137054
-0.00440349 -0.131877 -0.131877
-0.0131431 -0.134522 -0.134522
-0.0088706 -0.137078 -0.137078
-0.00444388 -0.134454 -0.134454
-0.00871449 -0.131901 -0.131901
-0.00879265 -0.134478 -0.134478
-0.0132587 -0.137121 -0.137121
-0.0134889 -0.142386 -0.142386
-0.00456456 -0.14232 -0.14232
-0.00448419 -0.137054 -0.137054
-0.013374 -0.139742 -0.139742
-0.00902586 -0.142343 -0.142343
-0.00452441 -0.139676 -0.139676
-0.0088706 -0.137078 -0.137078
-0.00894833 -0.1397 -0.1397
-0.0134889 -0.142386 -0.142386
-0.0137177 -0.147739 -0.147739
-0.0046446 -0.147674 -0.147674
-0.00456456 -0.14232 -0.14232
-0.0136034 -0.145052 -0.145052
-0.00918028 -0.147697 -0.147697
-0.00460462 -0.144986 -0.144986
-0.00902586 -0.142343 -0.142343
-0.00910318 -0.145009 -0.145009
-0.0137177 -0.147739 -0.147739
-0.0139451 -0.153181 -0.153181
-0.00472432 -0.153116 -0.153116
-0.0046446 -0.147674 -0.147674
-0.0138316 -0.150449 -0.150449
-0.00933387 -0.153139 -0.153139
-0.0046845 -0.150384 -0.150384
-0.00918028 -0.147697 -0.147697
-0.00925718 -0.150407 -0.150407
-0.0139451 -0.153181 -0.153181
-0.0141712 -0.158709 -0.158709
-0.00480372 -0.158645 -0.158645
-0.00472432 -0.153116 -0.153116
-0.0140584 -0.155934 -0.155934
-0.00948662 -0.158668 -0.158668
-0.00476406 -0.15587 -0.15587
-0.00933387 -0.153139 -0.153139
-0.00941035 -0.155893 -0.155893
-0.0141712 -0.158709 -0.158709
-0.014396 -0.164324 -0.164324
-0.00488279 -0.164261 -0.164261
-0.00480372 -0.158645 -0.158645
-0.0142838 -0.161506 -0.161506
-0.00963854 -0.164283 -0.164283
-0.00484329 -0.161442 -0.161442
-0.00948662 -0.158668 -0.158668
-0.00956269 -0.161465 -0.161465
-0.014396 -0.164324 -0.164324
-0.0146194 -0.170025 -0.170025
-0.00496154 -0.169963 -0.169963
-0.00488279 -0.164261 -0.164261
-0.0145079 -0.167164 -0.167164
-0.00978963 -0.169985 -0.169985
-0.00492221 -0.167101 -0.167101
-0.00963854 -0.164283 -0.164283
-0.00971419 -0.167123 -0.167123
-0.0146194 -0.170025 -0.170025
-0.0148415 -0.175811 -0.175811
-0.00503998 -0.17575 -0.17575
-0.00496154 -0.169963 -0.169963
-0.0147306 -0.172907 -0.172907
-0.00993989 -0.175772 -0.175772
-0.0050008 -0.172846 -0.172846
-0.00978963 -0.169985 -0.169985
-0.00986486 -0.172868 -0.172868
-0.0148415 -0.175811 -0.175811
-0.0150623 -0.181682 -0.181682
-0.00511809 -0.181622 -0.181622
-0.00503998 -0.17575 -0.17575
-0.0149521 -0.178736 -0.178736
-0.0100893 -0.181643 -0.181643
-0.00507908 -0.178675 -0.178675
-0.00993989 -0.175772 -0.175772
-0.0100147 -0.178697 -0.178697
-0.0150623 -0.181682 -0.181682
-0.0152817 -0.187638 -0.187638
-0.0051959 -0.187578 -0.187578
-0.00511809 -0.181622 -0.181622
-0.0151721 -0.18465 -0.18465
-0.0102379 -0.187599 -0.187599
-0.00515703 -0.18459 -0.18459
-0.0100893 -0.181643 -0.181643
-0.0101637 -0.184611 -0.184611
-0.0152817 -0.187638 -0.187638
-0.0154997 -0.193676 -0.193676
-0.00527338 -0.193618 -0.193618
-0.0051959 -0.187578 -0.187578
-0.0153909 -0.190647 -0.190647
-0.0103857 -0.193638 -0.193638
-0.00523468 -0.190587 -0.190587
-0.0102379 -0.187599 -0.187599
-0.0103119 -0.190608 -0.190608
-0.0154997 -0.193676 -0.193676
-0.0157165 -0.199798 -0.199798
-0.00535055 -0.19974 -0.19974
-0.00527338 -0.193618 -0.193618
-0.0156083 -0.196727 -0.196727
-0.0105326 -0.19976 -0.19976
-0.00531201 -0.196669 -0.196669
-0.0103857 -0.193638 -0.193638
-0.0104593 -0.196689 -0.196689
-0.0157165 -0.199798 -0.199798
-0.0159319 -0.206002 -0.206002
-0.00542742 -0.205945 -0.205945
-0.00535055 -0.19974 -0.19974
-0.0158243 -0.20289 -0.20289
-0.0106788 -0.205965 -0.205965
-0.00538902 -0.202832 -0.202832
-0.0105326 -0.19976 -0.19976
-0.0106058 -0.202852 -0.202852
-0.0159319 -0.206002 -0.206002
-0.0161459 -0.212288 -0.212288
-0.00550396 -0.212232 -0.212232
-0.00542742 -0.205945 -0.205945
-0.0160391 -0.209135 -0.209135
-0.0108241 -0.212251 -0.212251
-0.00546573 -0.209078 -0.209078
-0.0106788 -0.205965 -0.205965
-0.0107515 -0.209098 -0.209098
-0.0161459 -0.212288 -0.212288
-0.0163586 -0.218655 -0.218655
-0.0055802 -0.2186 -0.2186
-0.00550396 -0.212232 -0.212232
-0.0162524 -0.215461 -0.215461
-0.0109686 -0.218619 -0.218619
-0.00554212 -0.215406 -0.215406
-0.0108241 -0.212251 -0.212251
-0.0108964 -0.215425 -0.215425
-0.0163586 -0.218655 -0.218655
-0.01657 -0.225103 -0.225103
-0.00565614 -0.225048 -0.225048
-0.0055802 -0.2186 -0.2186
-0.0164645 -0.221869 -0.221869
-0.0111122 -0.225067 -0.225067
-0.00561821 -0.221814 -0.221814
-0.0109686 -0.218619 -0.218619
-0.0110405 -0.221833 -0.221833
-0.01657 -0.225103 -0.225103
-0.0167801 -0.23163 -0.23163
-0.00573176 -0.231576 -0.231576
-0.00565614 -0.225048 -0.225048
-0.0166752 -0.228356 -0.228356
-0.0112551 -0.231595 -0.231595
-0.00569399 -0.228302 -0.228302
-0.0111122 -0.225067 -0.225067
-0.0111838 -0.228321 -0.228321
-0.0167801 -0.23163 -0.23163
-0.0169889 -0.238237 -0.238237
-0.00580708 -0.238184 -0.238184
-0.00573176 -0.231576 -0.231576
-0.0168846 -0.234923 -0.234923
-0.0113971 -0.238202 -0.238202
-0.00576946 -0.23487 -0.23487
-0.0112551 -0.231595 -0.231595
-0.0113262 -0.234888 -0.234888
-0.0169889 -0.238237 -0.238237
-0.0171963 -0.244922 -0.244922
-0.00588209 -0.24487 -0.24487
-0.00580708 -0.238184 -0.238184
-0.0170927 -0.24157 -0.24157
-0.0115383 -0.244888 -0.244888
-0.00584462 -0.241517 -0.241517
-0.0113971 -0.238202 -0.238202
-0.0114678 -0.241535 -0.241535
-0.0171963 -0.244922 -0.244922
-0.0174023 -0.251686 -0.251686
-0.00595679 -0.251635 -0.251635
-0.00588209 -0.24487 -0.24487
-0.0172995 -0.248294 -0.248294
-0.0116787 -0.251652 -0.251652
-0.00591948 -0.248243 -0.248243
-0.0115383 -0.244888 -0.244888
-0.0116086 -0.24826 -0.24826
-0.0174023 -0.251686 -0.251686
-0.0176071 -0.258527 -0.258527
-0.00603119 -0.258476 -0.258476
-0.00595679 -0.251635 -0.251635
-0.0175049 -0.255096 -0.255096
-0.0118183 -0.258493 -0.258493
-0.00599403 -0.255046 -0.255046
-0.0116787 -0.251652 -0.251652
-0.0117486 -0.255063 -0.255063
-0.0176071 -0.258527 -0.258527
-0.0178105 -0.265445 -0.265445
-0.00610529 -0.265395 -0.265395
-0.00603119 -0.258476 -0.258476
-0.017709 -0.261976 -0.261976
-0.0119571 -0.265412 -0.265412
-0.00606828 -0.261926 -0.261926
-0.0118183 -0.258493 -0.258493
-0.0118878 -0.261943 -0.261943
-0.0178105 -0.265445 -0.265445
-0.0180126 -0.272439 -0.272439
-0.00617908 -0.27239 -0.27239
-0.00610529 -0.265395 -0.265395
-0.0179118 -0.268932 -0.268932
-0.012095 -0.272406 -0.272406
-0.00614222 -0.268883 -0.268883
-0.0119571 -0.265412 -0.265412
-0.0120261 -0.2689 -0.2689
-0.0180126 -0.272439 -0.272439
-0.0182134 -0.279509 -0.279509
-0.00625258 -0.279461 -0.279461
-0.00617908 -0.27239 -0.27239
-0.0181132 -0.275964 -0.275964
-0.0122321 -0.279477 -0.279477
-0.00621587 -0.275916 -0.275916
-0.012095 -0.272406 -0.272406
-0.0121637 -0.275932 -0.275932
-0.0182134 -0.279509 -0.279509
-0.0184129 -0.286654 -0.286654
-0.00632577 -0.286607 -0.286607
-0.00625258 -0.279461 -0.279461
-0.0183133 -0.283072 -0.283072
-0.0123685 -0.286622 -0.286622
-0.00628921 -0.283025 -0.283025
-0.0122321 -0.279477 -0.279477
-0.0123004 -0.28304 -0.28304
-0.0184129 -0.286654 -0.286654
-0.018611 -0.293873 -0.293873
-0.00639866 -0.293827 -0.293827
-0.00632577 -0.286607 -0.286607
-0.0185121 -0.290254 -0.290254
-0.012504 -0.293842 -0.293842
-0.00636225 -0.290208 -0.290208
-0.0123685 -0.286622 -0.286622
-0.0124363 -0.290223 -0.290223
-0.018611 -0.293873 -0.293873
-0.0188078 -0.301166 -0.301166
-0.00647124 -0.301121 -0.301121
-0.00639866 -0.293827 -0.293827
-0.0187096 -0.29751 -0.29751
-0.0126387 -0.301136 -0.301136
-0.00643499 -0.297465 -0.297465
-0.012504 -0.293842 -0.293842
-0.0125714 -0.29748 -0.29748
-0.0188078 -0.301166 -0.301166
-0.0190033 -0.308533 -0.308533
-0.00654353 -0.308489 -0.308489
-0.00647124 -0.301121 -0.301121
-0.0189057 -0.304841 -0.304841
-0.0127726 -0.308503 -0.308503
-0.00650743 -0.304796 -0.304796
-0.0126387 -0.301136 -0.301136
-0.0127057 -0.30481 -0.30481
-0.0190033 -0.308533 -0.308533
-0.0191975 -0.315972 -0.315972
-0.00661552 -0.315929 -0.315929
-0.00654353 -0.308489 -0.308489
-0.0191005 -0.312243 -0.312243
-0.0129056 -0.315943 -0.315943
-0.00657956 -0.3122 -0.3122
-0.0127726 -0.308503 -0.308503
-0.0128392 -0.312214 -0.312214
-0.0191975 -0.315972 -0.315972
-0.0193903 -0.323483 -0.323483
-0.00668721 -0.323441 -0.323441
-0.00661552 -0.315929 -0.315929
-0.0192941 -0.319719 -0.319719
-0.0130379 -0.323455 -0.323455
-0.0066514 -0.319676 -0.319676
-0.0129056 -0.315943 -0.315943
-0.0129719 -0.31969 -0.31969
-0.0193903 -0.323483 -0.323483
-0.0195818 -0.331066 -0.331066
-0.0067586 -0.331025 -0.331025
-0.00668721 -0.323441 -0.323441
-0.0194862 -0.327266 -0.327266
-0.0131693 -0.331038 -0.331038
-0.00672294 -0.327224 -0.327224
-0.0130379 -0.323455 -0.323455
-0.0131037 -0.327237 -0.327237
-0.0195818 -0.331066 -0.331066
-0.019772 -0.33872 -0.33872
-0.00682969 -0.338679 -0.338679
-0.0067586 -0.331025 -0.331025
-0.0196771 -0.334884 -0.334884
-0.0133 -0.338692 -0.338692
-0.00679418 -0.334843 -0.334843
-0.0131693 -0.331038 -0.331038
-0.0132348 -0.334856 -0.334856
-0.019772 -0.33872 -0.33872
-0.0199609 -0.346444 -0.346444
-0.00690048 -0.346404 -0.346404
-0.00682969 -0.338679 -0.338679
-0.0198666 -0.342573 -0.342573
-0.0134298 -0.346416 -0.346416
-0.00686512 -0.342533 -0.342533
-0.0133 -0.338692 -0.338692
-0.013365 -0.342545 -0.342545
-0.0199609 -0.346444 -0.346444
-0.0201485 -0.354237 -0.354237
-0.00697097 -0.354198 -0.354198
-0.00690048 -0.346404 -0.346404
-0.0200548 -0.350332 -0.350332
-0.0135588 -0.35421 -0.35421
-0.00693576 -0.350292 -0.350292
-0.0134298 -0.346416 -0.346416
-0.0134944 -0.350305 -0.350305
-0.0201485 -0.354237 -0.354237
-0.0203347 -0.362099 -0.362099
-0.00704116 -0.362061 -0.362061
-0.00697097 -0.354198 -0.354198
-0.0202417 -0.35816 -0.35816
-0.0136871 -0.362073 -0.362073
-0.0070061 -0.358121 -0.358121
-0.0135588 -0.35421 -0.35421
-0.0136231 -0.358133 -0.358133
-0.0203347 -0.362099 -0.362099
-0.0205196 -0.37003 -0.37003
-0.00711105 -0.369993 -0.369993
-0.00704116 -0.362061 -0.362061
-0.0204273 -0.366056 -0.366056
-0.0138145 -0.370005 -0.370005
-0.00707614 -0.366019 -0.366019
-0.0136871 -0.362073 -0.362073
-0.0137509 -0.36603 -0.36603
-0.0205196 -0.37003 -0.37003
-0.0207032 -0.378029 -0.378029
-0.00718064 -0.377993 -0.377993
-0.00711105 -0.369993 -0.369993
-0.0206116 -0.374021 -0.374021
-0.0139411 -0.378004 -0.378004
-0.00714588 -0.373985 -0.373985
-0.0138145 -0.370005 -0.370005
-0.0138779 -0.373996 -0.373996
-0.0207032 -0.378029 -0.378029
-0.0208855 -0.386095 -0.386095
-0.00724994 -0.38606 -0.38606
-0.00718064 -0.377993 -0.377993
-0.0207945 -0.382054 -0.382054
-0.0140668 -0.38607 -0.38607
-0.00721533 -0.382018 -0.382018
-0.0139411 -0.378004 -0.378004
-0.014004 -0.382029 -0.382029
-0.0208855 -0.386095 -0.386095
-0.0210664 -0.394227 -0.394227
-0.00731893 -0.394193 -0.394193
-0.00724994 -0.38606 -0.38606
-0.0209761 -0.390153 -0.390153
-0.0141918 -0.394203 -0.394203
-0.00728447 -0.390118 -0.390118
-0.0140668 -0.38607 -0.38607
-0.0141294 -0.390128 -0.390128
-0.0210664 -0.394227 -0.394227
-0.021246 -0.402426 -0.402426
-0.00738763 -0.402392 -0.402392
-0.00731893 -0.394193 -0.394193
-0.0211564 -0.398318 -0.398318
-0.014316 -0.402402 -0.402402
-0.00735332 -0.398284 -0.398284
-0.0141918 -0.394203 -0.394203
-0.014254 -0.398294 -0.398294
-0.021246 -0.402426 -0.402426
-0.0214243 -0.41069 -0.41069
-0.00745602 -0.410657 -0.410657
-0.00738763 -0.402392 -0.402392
-0.0213353 -0.40655 -0.40655
-0.0144393 -0.410666 -0.410666
-0.00742186 -0.406517 -0.406517
-0.014316 -0.402402 -0.402402
-0.0143777 -0.406526 -0.406526
-0.0214243 -0.41069 -0.41069
-0.0216013 -0.419018 -0.419018
-0.00752412 -0.418987 -0.418987
-0.00745602 -0.410657 -0.410657
-0.021513 -0.414846 -0.414846
-0.0145619 -0.418996 -0.418996
-0.00749011 -0.414814 -0.414814
-0.0144393 -0.410666 -0.410666
-0.0145007 -0.414823 -0.414823
-0.0216013 -0.419018 -0.419018
-0.021777 -0.427411 -0.427411
-0.00759191 -0.42738 -0.42738
-0.00752412 -0.418987 -0.418987
-0.0216893 -0.423207 -0.423207
-0.0146836 -0.427389 -0.427389
-0.00755805 -0.423175 -0.423175
-0.0145619 -0.418996 -0.418996
-0.0146228 -0.423184 -0.423184
-0.021777 -0.427411 -0.427411
-0.0219513 -0.435868 -0.435868
-0.00765941 -0.435838 -0.435838
-0.00759191 -0.42738 -0.42738
-0.0218643 -0.431632 -0.431632
-0.0148045 -0.435846 -0.435846
-0.0076257 -0.431601 -0.431601
-0.0146836 -0.427389 -0.427389
-0.0147441 -0.43161 -0.43161
-0.0219513 -0.435868 -0.435868
-0.0221243 -0.444387 -0.444387
-0.0077266 -0.444358 -0.444358
-0.00765941 -0.435838 -0.435838
-0.022038 -0.44012 -0.44012
-0.0149246 -0.444366 -0.444366
-0.00769304 -0.44009 -0.44009
-0.0148045 -0.435846 -0.435846
-0.0148646 -0.440098 -0.440098
-0.0221243 -0.444387 -0.444387
-0.022296 -0.452969 -0.452969
-0.00779349 -0.452941 -0.452941
-0.0077266 -0.444358 -0.444358
-0.0222103 -0.44867 -0.44867
-0.0150439 -0.452948 -0.452948
-0.00776008 -0.448641 -0.448641
-0.0149246 -0.444366 -0.444366
-0.0149843 -0.448649 -0.448649
-0.022296 -0.452969 -0.452969
-0.0224663 -0.461612 -0.461612
-0.00786008 -0.461585 -0.461585
-0.00779349 -0.452941 -0.452941
-0.0223813 -0.457283 -0.457283
-0.0151624 -0.461592 -0.461592
-0.00782682 -0.457255 -0.457255
-0.0150439 -0.452948 -0.452948
-0.0151032 -0.457262 -0.457262
-0.0224663 -0.461612 -0.461612
-0.0226354 -0.470317 -0.470317
-0.00792636 -0.47029 -0.47029
-0.00786008 -0.461585 -0.461585
-0.022551 -0.465957 -0.465957
-0.01528 -0.470297 -0.470297
-0.00789326 -0.46593 -0.46593
-0.0151624 -0.461592 -0.461592
-0.0152213 -0.465937 -0.465937
-0.0226354 -0.470317 -0.470317
-0.0228031 -0.479082 -0.479082
-0.00799234 -0.479057 -0.479057
-0.00792636 -0.47029 -0.47029
-0.0227194 -0.474692 -0.474692
-0.0153969 -0.479063 -0.479063
-0.00795939 -0.474666 -0.474666
-0.01528 -0.470297 -0.470297
-0.0153385 -0.474673 -0.474673
-0.0228031 -0.479082 -0.479082
-0.0229695 -0.487907 -0.487907
-0.00805802 -0.487883 -0.487883
-0.00799234 -0.479057 -0.479057
-0.0228864 -0.483487 -0.483487
-0.0155129 -0.487889 -0.487889
-0.00802522 -0.483462 -0.483462
-0.0153969 -0.479063 -0.479063
-0.015455 -0.483468 -0.483468
-0.0229695 -0.487907 -0.487907
-0.0231345 -0.496792 -0.496792
-0.00812339 -0.496768 -0.496768
-0.00805802 -0.487883 -0.487883
-0.0230522 -0.492342 -0.492342
-0.0156281 -0.496774 -0.496774
-0.00809075 -0.492318 -0.492318
-0.0155129 -0.487889 -0.487889
-0.0155706 -0.492324 -0.492324
-0.0231345 -0.496792 -0.496792
-0.0232983 -0.505735 -0.505735
-0.00818846 -0.505712 -0.505712
-0.00812339 -0.496768 -0.496768
-0.0232166 -0.501256 -0.501256
-0.0157425 -0.505717 -0.505717
-0.00815597 -0.501233 -0.501233
-0.0156281 -0.496774 -0.496774
-0.0156854 -0.501238 -0.501238
-0.0232983 -0.505735 -0.505735
-0.0234607 -0.514737 -0.514737
-0.00825322 -0.514714 -0.514714
-0.00818846 -0.505712 -0.505712
-0.0233796 -0.510229 -0.510229
-0.0158561 -0.514719 -0.514719
-0.00822088 -0.510206 -0.510206
-0.0157425 -0.505717 -0.505717
-0.0157994 -0.510211 -0.510211
-0.0234607 -0.514737 -0.514737
-0.0236217 -0.523795 -0.523795
-0.00831768 -0.523774 -0.523774
-0.00825322 -0.514714 -0.514714
-0.0235414 -0.519259 -0.519259
-0.0159688 -0.523779 -0.523779
-0.00828549 -0.519237 -0.519237
-0.0158561 -0.514719 -0.514719
-0.0159126 -0.519242 -0.519242
-0.0236217 -0.523795 -0.523795
-0.0237815 -0.532911 -0.532911
-0.00838182 -0.532891 -0.532891
-0.00831768 -0.523774 -0.523774
-0.0237018 -0.528346 -0.528346
-0.0160808 -0.532895 -0.532895
-0.00834979 -0.528325 -0.528325
-0.0159688 -0.523779 -0.523779
-0.0160249 -0.52833 -0.52833
-0.0237815 -0.532911 -0.532911
-0.0239399 -0.542083 -0.542083
-0.00844566 -0.542064 -0.542064
-0.00838182 -0.532891 -0.532891
-0.0238608 -0.53749 -0.53749
-0.0161919 -0.542068 -0.542068
-0.00841378 -0.53747 -0.53747
-0.0160808 -0.532895 -0.532895
-0.0161364 -0.537474 -0.537474
-0.0239399 -0.542083 -0.542083
-0.0240969 -0.551311 -0.551311
-0.00850918 -0.551292 -0.551292
-0.00844566 -0.542064 -0.542064
-0.0240186 -0.54669 -0.54669
-0.0163022 -0.551296 -0.551296
-0.00847746 -0.546671 -0.546671
-0.0161919 -0.542068 -0.542068
-0.0162472 -0.546675 -0.546675
-0.0240969 -0.551311 -0.551311
-0.0242527 -0.560594 -0.560594
-0.0085724 -0.560576 -0.560576
-0.00850918 -0.551292 -0.551292
-0.024175 -0.555946 -0.555946
-0.0164117 -0.560579 -0.560579
-0.00854083 -0.555927 -0.555927
-0.0163022 -0.551296 -0.551296
-0.016357 -0.555931 -0.555931
-0.0242527 -0.560594 -0.560594
-0.0244071 -0.569932 -0.569932
-0.0086353 -0.569914 -0.569914
-0.0085724 -0.560576 -0.560576
-0.02433 -0.565256 -0.565256
-0.0165203 -0.569917 -0.569917
-0.00860389 -0.565239 -0.565239
-0.0164117 -0.560579 -0.560579
-0.0164661 -0.565242 -0.565242
-0.0244071 -0.569932 -0.569932
-0.0245602 -0.579323 -0.579323
-0.00869789 -0.579307 -0.579307
-0.0086353 -0.569914 -0.569914
-0.0244838 -0.574621 -0.574621
-0.0166282 -0.579309 -0.579309
-0.00866664 -0.574604 -0.574604
-0.0165203 -0.569917 -0.569917
-0.0165744 -0.574606 -0.574606
-0.0245602 -0.579323 -0.579323
-0.0247119 -0.588767 -0.588767
-0.00876017 -0.588752 -0.588752
-0.00869789 -0.579307 -0.579307
-0.0246362 -0.584039 -0.584039
-0.0167352 -0.588754 -0.588754
-0.00872907 -0.584023 -0.584023
-0.0166282 -0.579309 -0.579309
-0.0166818 -0.584025 -0.584025
-0.0247119 -0.588767 -0.588767
-0.0248623 -0.598265 -0.598265
-0.00882213 -0.59825 -0.59825
-0.00876017 -0.588752 -0.588752
-0.0247873 -0.59351 -0.59351
-0.0168413 -0.598252 -0.598252
-0.00879119 -0.593495 -0.593495
-0.0167352 -0.588754 -0.588754
-0.0167884 -0.593497 -0.593497
-0.0248623 -0.598265 -0.598265
-0.0250113 -0.607814 -0.607814
-0.00888378 -0.6078 -0.6078
-0.00882213 -0.59825 -0.59825
-0.024937 -0.603033 -0.603033
-0.0169467 -0.607802 -0.607802
-0.00885299 -0.603019 -0.603019
-0.0168413 -0.598252 -0.598252
-0.0168941 -0.60302 -0.60302
-0.0250113 -0.607814 -0.607814
-0.0251591 -0.617415 -0.617415
-0.0089451 -0.617402 -0.617402
-0.00888378 -0.6078 -0.6078
-0.0250854 -0.612608 -0.612608
-0.0170512 -0.617403 -0.617403
-0.00891448 -0.612595 -0.612595
-0.0169467 -0.607802 -0.607802
-0.0169991 -0.612596 -0.612596
-0.0251591 -0.617415 -0.617415
-0.0253054 -0.627067 -0.627067
-0.00900611 -0.627055 -0.627055
-0.0089451 -0.617402 -0.617402
-0.0252324 -0.622234 -0.622234
-0.0171549 -0.627055 -0.627055
-0.00897565 -0.622222 -0.622222
-0.0170512 -0.617403 -0.617403
-0.0171032 -0.622223 -0.622223
-0.0253054 -0.627067 -0.627067
-0.0254505 -0.636769 -0.636769
-0.0090668 -0.636757 -0.636757
-0.00900611 -0.627055 -0.627055
-0.0253781 -0.631911 -0.631911
-0.0172578 -0.636758 -0.636758
-0.00903649 -0.6319 -0.6319
-0.0171549 -0.627055 -0.627055
-0.0172064 -0.6319 -0.6319
-0.0254505 -0.636769 -0.636769
-0.0255942 -0.64652 -0.64652
-0.00912717 -0.64651 -0.64651
-0.0090668 -0.636757 -0.636757
-0.0255225 -0.641638 -0.641638
-0.0173598 -0.64651 -0.64651
-0.00909702 -0.641627 -0.641627
-0.0172578 -0.636758 -0.636758
-0.0173089 -0.641628 -0.641628
-0.0255942 -0.64652 -0.64652
-0.0257365 -0.656321 -0.656321
-0.00918721 -0.656311 -0.656311
-0.00912717 -0.64651 -0.64651
-0.0256655 -0.651414 -0.651414
-0.017461 -0.656311 -0.656311
-0.00915723 -0.651404 -0.651404
-0.0173598 -0.64651 -0.64651
-0.0174105 -0.651404 -0.651404
-0.0257365 -0.656321 -0.656321
-0.0258775 -0.66617 -0.66617
-0.00924693 -0.666161 -0.666161
-0.00918721 -0.656311 -0.656311
-0.0258072 -0.661239 -0.661239
-0.0175614 -0.66616 -0.66616
-0.00921711 -0.66123 -0.66123
-0.017461 -0.656311 -0.656311
-0.0175113 -0.66123 -0.66123
-0.0258775 -0.66617 -0.66617
-0.0260172 -0.676067 -0.676067
-0.00930632 -0.676059 -0.676059
-0.00924693 -0.666161 -0.666161
-0.0259475 -0.671112 -0.671112
-0.0176609 -0.676058 -0.676058
-0.00927667 -0.671104 -0.671104
-0.0175614 -0.66616 -0.66616
-0.0176112 -0.671103 -0.671103
-0.0260172 -0.676067 -0.676067
-0.0261555 -0.686011 -0.686011
-0.00936539 -0.686004 -0.686004
-0.00930632 -0.676059 -0.676059
-0.0260865 -0.681033 -0.681033
-0.0177596 -0.686002 -0.686002
-0.0093359 -0.681026 -0.681026
-0.0176609 -0.676058 -0.676058
-0.0177103 -0.681024 -0.681024
-0.0261555 -0.686011 -0.686011
-0.0262924 -0.696002 -0.696002
-0.00942413 -0.695996 -0.695996
-0.00936539 -0.686004 -0.686004
-0.0262241 -0.691001 -0.691001
-0.0178574 -0.695994 -0.695994
-0.0093948 -0.690994 -0.690994
-0.0177596 -0.686002 -0.686002
-0.0178086 -0.690992 -0.690992
-0.0262924 -0.696002 -0.696002
-0.026428 -0.706038 -0.706038
-0.00948253 -0.706033 -0.706033
-0.00942413 -0.695996 -0.695996
-0.0263604 -0.701014 -0.701014
-0.0179544 -0.706031 -0.706031
-0.00945337 -0.701009 -0.701009
-0.0178574 -0.695994 -0.695994
-0.017906 -0.701007 -0.701007
-0.026428 -0.706038 -0.706038
-0.0265622 -0.716121 -0.716121
-0.00954061 -0.716116 -0.716116
-0.00948253 -0.706033 -0.706033
-0.0264953 -0.711074 -0.711074
-0.0180506 -0.716114 -0.716114
-0.00951161 -0.711069 -0.711069
-0.0179544 -0.706031 -0.706031
-0.0180026 -0.711067 -0.711067
-0.0265622 -0.716121 -0.716121
-0.0266951 -0.726248 -0.726248
-0.00959835 -0.726244 -0.726244
-0.00954061 -0.716116 -0.716116
-0.0266288 -0.721179 -0.721179
-0.0181459 -0.726241 -0.726241
-0.00956952 -0.721175 -0.721175
-0.0180506 -0.716114 -0.716114
-0.0180983 -0.721172 -0.721172
-0.0266951 -0.726248 -0.726248
-0.0268267 -0.736419 -0.736419
-0.00965576 -0.736416 -0.736416
-0.00959835 -0.726244 -0.726244
-0.0267611 -0.731328 -0.731328
-0.0182403 -0.736413 -0.736413
-0.0096271 -0.731325 -0.731325
-0.0181459 -0.726241 -0.726241
-0.0181932 -0.731321 -0.731321
-0.0268267 -0.736419 -0.736419
-0.0269568 -0.746634 -0.746634
-0.00971283 -0.746632 -0.746632
-0.00965576 -0.736416 -0.736416
-0.0268919 -0.741521 -0.741521
-0.018334 -0.746628 -0.746628
-0.00968434 -0.741518 -0.741518
-0.0182403 -0.736413 -0.736413
-0.0182873 -0.741515 -0.741515
-0.0269568 -0.746634 -0.746634
-0.0270856 -0.756892 -0.756892
-0.00976956 -0.75689 -0.75689
-0.00971283 -0.746632 -0.746632
-0.0270214 -0.751757 -0.751757
-0.0184267 -0.756886 -0.756886
-0.00974124 -0.751756 -0.751756
-0.018334 -0.746628 -0.746628
-0.0183805 -0.751752 -0.751752
-0.0270856 -0.756892 -0.756892
-0.0272131 -0.767192 -0.767192
-0.00982596 -0.767191 -0.767191
-0.00976956 -0.75689 -0.75689
-0.0271495 -0.762036 -0.762036
-0.0185187 -0.767187 -0.767187
-0.0097978 -0.762035 -0.762035
-0.0184267 -0.756886 -0.756886
-0.0184728 -0.762031 -0.762031
-0.0272131 -0.767192 -0.767192
-0.0273392 -0.777534 -0.777534
-0.00988201 -0.777534 -0.777534
-0.00982596 -0.767191 -0.767191
-0.0272763 -0.772358 -0.772358
-0.0186097 -0.777529 -0.777529
-0.00985402 -0.772357 -0.772357
-0.0185187 -0.767187 -0.767187
-0.0185643 -0.772353 -0.772353
-0.0273392 -0.777534 -0.777534
-0.0274639 -0.787917 -0.787917
-0.00993771 -0.787918 -0.787918
-0.00988201 -0.777534 -0.777534
-0.0274017 -0.78272 -0.78272
-0.0186999 -0.787913 -0.787913
-0.0099099 -0.782721 -0.782721
-0.0186097 -0.777529 -0.777529
-0.0186549 -0.782716 -0.782716
-0.0274639 -0.787917 -0.787917
-0.0275872 -0.798341 -0.798341
-0.00999307 -0.798343 -0.798343
-0.00993771 -0.787918 -0.787918
-0.0275257 -0.793124 -0.793124
-0.0187893 -0.798337 -0.798337
-0.00996544 -0.793125 -0.793125
-0.0186999 -0.787913 -0.787913
-0.0187447 -0.79312 -0.79312
-0.0275872 -0.798341 -0.798341
-0.0277092 -0.808804 -0.808804
-0.0100481 -0.808807 -0.808807
-0.00999307 -0.798343 -0.798343
-0.0276484 -0.803567 -0.803567
-0.0188778 -0.808801 -0.808801
-0.0100206 -0.80357 -0.80357
-0.0187893 -0.798337 -0.798337
-0.0188336 -0.803564 -0.803564
-0.0277092 -0.808804 -0.808804
-0.0278298 -0.819307 -0.819307
-0.0101028 -0.819311 -0.819311
-0.0100481 -0.808807 -0.808807
-0.0277697 -0.814051 -0.814051
-0.0189654 -0.819305 -0.819305
-0.0100755 -0.814054 -0.814054
-0.0188778 -0.808801 -0.808801
-0.0189217 -0.814048 -0.814048
-0.0278298 -0.819307 -0.819307
-0.027949 -0.829849 -0.829849
-0.0101571 -0.829853 -0.829853
-0.0101028 -0.819311 -0.819311
-0.0278896 -0.824573 -0.824573
-0.0190522 -0.829847 -0.829847
-0.01013 -0.824577 -0.824577
-0.0189654 -0.819305 -0.819305
-0.0190089 -0.824571 -0.824571
-0.027949 -0.829849 -0.829849
-0.0280669 -0.840429 -0.840429
-0.010211 -0.840434 -0.840434
-0.0101571 -0.829853 -0.829853
-0.0280081 -0.835134 -0.835134
-0.0191381 -0.840428 -0.840428
-0.0101841 -0.835139 -0.835139
-0.0190522 -0.829847 -0.829847
-0.0190953 -0.835133 -0.835133
-0.0280669 -0.840429 -0.840429
-0.0281834 -0.851047 -0.851047
-0.0102646 -0.851052 -0.851052
-0.010211 -0.840434 -0.840434
-0.0281253 -0.845733 -0.845733
-0.0192232 -0.851046 -0.851046
-0.0102379 -0.845739 -0.845739
-0.0191381 -0.840428 -0.840428
-0.0191807 -0.845732 -0.845732
-0.0281834 -0.851047 -0.851047
-0.0282985 -0.861701 -0.861701
-0.0103179 -0.861708 -0.861708
-0.0102646 -0.851052 -0.851052
-0.0282411 -0.856369 -0.856369
-0.0193073 -0.8617 -0.8617
-0.0102913 -0.856375 -0.856375
-0.0192232 -0.851046 -0.851046
-0.0192654 -0.856368 -0.856368
-0.0282985 -0.861701 -0.861701
-0.0284122 -0.872392 -0.872392
-0.0103708 -0.872399 -0.872399
-0.0103179 -0.861708 -0.861708
-0.0283555 -0.867042 -0.867042
-0.0193906 -0.872392 -0.872392
-0.0103444 -0.867049 -0.867049
-0.0193073 -0.8617 -0.8617
-0.0193491 -0.867042 -0.867042
-0.0284122 -0.872392 -0.872392
-0.0285245 -0.883118 -0.883118
-0.0104233 -0.883126 -0.883126
-0.0103708 -0.872399 -0.872399
-0.0284685 -0.877751 -0.877751
-0.0194731 -0.883119 -0.883119
-0.0103971 -0.877758 -0.877758
-0.0193906 -0.872392 -0.872392
-0.019432 -0.877751 -0.877751
-0.0285245 -0.883118 -0.883118
-0.0286355 -0.89388 -0.89388
-0.0104755 -0.893889 -0.893889
-0.0104233 -0.883126 -0.883126
-0.0285802 -0.888495 -0.888495
-0.0195546 -0.893881 -0.893881
-0.0104494 -0.888503 -0.888503
-0.0194731 -0.883119 -0.883119
-0.019514 -0.888495 -0.888495
-0.0286355 -0.89388 -0.89388
-0.0287451 -0.904676 -0.904676
-0.0105273 -0.904686 -0.904686
-0.0104755 -0.893889 -0.893889
-0.0286905 -0.899274 -0.899274
-0.0196353 -0.904677 -0.904677
-0.0105014 -0.899283 -0.899283
-0.0195546 -0.893881 -0.893881
-0.0195951 -0.899275 -0.899275
-0.0287451 -0.904676 -0.904676
-0.0288532 -0.915506 -0.915506
-0.0105787 -0.915517 -0.915517
-0.0105273 -0.904686 -0.904686
-0.0287993 -0.910087 -0.910087
-0.0197151 -0.915508 -0.915508
-0.010553 -0.910097 -0.910097
-0.0196353 -0.904677 -0.904677
-0.0196753 -0.910088 -0.910088
-0.0288532 -0.915506 -0.915506
-0.02896 -0.92637 -0.92637
-0.0106298 -0.926381 -0.926381
-0.0105787 -0.915517 -0.915517
-0.0289068 -0.920934 -0.920934
-0.019794 -0.926372 -0.926372
-0.0106043 -0.920945 -0.920945
-0.0197151 -0.915508 -0.915508
-0.0197547 -0.920936 -0.920936
-0.02896 -0.92637 -0.92637
-0.0290654 -0.937266 -0.937266
-0.0106805 -0.937278 -0.937278
-0.0106298 -0.926381 -0.926381
-0.0290129 -0.931813 -0.931813
-0.0198721 -0.937268 -0.937268
-0.0106552 -0.931825 -0.931825
-0.019794 -0.926372 -0.926372
-0.0198332 -0.931816 -0.931816
-0.0290654 -0.937266 -0.937266
-0.0291694 -0.948194 -0.948194
-0.0107308 -0.948206 -0.948206
-0.0106805 -0.937278 -0.937278
-0.0291176 -0.942726 -0.942726
-0.0199492 -0.948197 -0.948197
-0.0107057 -0.942738 -0.942738
-0.0198721 -0.937268 -0.937268
-0.0199108 -0.942728 -0.942728
-0.0291694 -0.948194 -0.948194
-0.029272 -0.959153 -0.959153
-0.0107807 -0.959167 -0.959167
-0.0107308 -0.948206 -0.948206
-0.0292209 -0.95367 -0.95367
-0.0200255 -0.959157 -0.959157
-0.0107558 -0.953683 -0.953683
-0.0199492 -0.948197 -0.948197
-0.0199875 -0.953673 -0.953673
-0.029272 -0.959153 -0.959153
-0.0293732 -0.970144 -0.970144
-0.0108303 -0.970158 -0.970158
-0.0107807 -0.959167 -0.959167
-0.0293228 -0.964645 -0.964645
-0.0201009 -0.970148 -0.970148
-0.0108056 -0.964659 -0.964659
-0.0200255 -0.959157 -0.959157
-0.0200633 -0.964648 -0.964648
-0.0293732 -0.970144 -0.970144
-0.029473 -0.981165 -0.981165
-0.0108795 -0.98118 -0.98118
-0.0108303 -0.970158 -0.970158
-0.0294233 -0.975651 -0.975651
-0.0201754 -0.981169 -0.981169
-0.0108549 -0.975665 -0.975665
-0.0201009 -0.970148 -0.970148
-0.0201382 -0.975655 -0.975655
-0.029473 -0.981165 -0.981165
-0.0295714 -0.992215 -0.992215
-0.0109283 -0.992231 -0.992231
-0.0108795 -0.98118 -0.98118
-0.0295224 -0.986686 -0.986686
-0.020249 -0.99222 -0.99222
-0.0109039 -0.986702 -0.986702
-0.0201754 -0.981169 -0.981169
-0.0202123 -0.986691 -0.986691
-0.0295714 -0.992215 -0.992215
-0.0296683 -1.00329 -1.00329
-0.0109767 -1.00331 -1.00331
-0.0109283 -0.992231 -0.992231
-0.02962 -0.997751 -0.997751
-0.0203217 -1.0033 -1.0033
-0.0109525 -0.997767 -0.997767
-0.020249 -0.99222 -0.99222
-0.0202854 -0.997756 -0.997756
-0.0296683 -1.00329 -1.00329
-0.0297639 -1.0144 -1.0144
-0.0110247 -1.01442 -1.01442
-0.0109767 -1.00331 -1.00331
-0.0297163 -1.00885 -1.00885
-0.0203935 -1.01441 -1.01441
-0.0110008 -1.00886 -1.00886
-0.0203217 -1.0033 -1.0033
-0.0203577 -1.00885 -1.00885
-0.0297639 -1.0144 -1.0144
-0.0298581 -1.02554 -1.02554
-0.0110724 -1.02556 -1.02556
-0.0110247 -1.01442 -1.01442
-0.0298112 -1.01997 -1.01997
-0.0204644 -1.02554 -1.02554
-0.0110486 -1.01998 -1.01998
-0.0203935 -1.01441 -1.01441
-0.020429 -1.01997 -1.01997
-0.0298581 -1.02554 -1.02554
-0.0299508 -1.0367 -1.0367
-0.0111196 -1.03672 -1.03672
-0.0110724 -1.02556 -1.02556
-0.0299046 -1.03112 -1.03112
-0.0205344 -1.03671 -1.03671
-0.0110961 -1.03114 -1.03114
-0.0204644 -1.02554 -1.02554
-0.0204995 -1.03112 -1.03112
-0.0299508 -1.0367 -1.0367
-0.0300421 -1.04789 -1.04789
-0.0111665 -1.04791 -1.04791
-0.0111196 -1.03672 -1.03672
-0.0299967 -1.04229 -1.04229
-0.0206035 -1.0479 -1.0479
-0.0111431 -1.04231 -1.04231
-0.0205344 -1.03671 -1.03671
-0.020569 -1.0423 -1.0423
-0.0300421 -1.04789 -1.04789
-0.0301321 -1.05911 -1.05911
-0.0112129 -1.05913 -1.05913
-0.0111665 -1.04791 -1.04791
-0.0300873 -1.0535 -1.0535
-0.0206717 -1.05911 -1.05911
-0.0111898 -1.05352 -1.05352
-0.0206035 -1.0479 -1.0479
-0.0206377 -1.0535 -1.0535
-0.0301321 -1.05911 -1.05911
-0.0302205 -1.07035 -1.07035
-0.011259 -1.07037 -1.07037
-0.0112129 -1.05913 -1.05913
-0.0301765 -1.06472 -1.06472
-0.0207389 -1.07036 -1.07036
-0.011236 -1.06475 -1.06475
-0.0206717 -1.05911 -1.05911
-0.0207054 -1.06473 -1.06473
-0.0302205 -1.07035 -1.07035
-0.0303076 -1.08161 -1.08161
-0.0113047 -1.08164 -1.08164
-0.011259 -1.07037 -1.07037
-0.0302643 -1.07598 -1.07598
-0.0208053 -1.08162 -1.08162
-0.0112819 -1.076 -1.076
-0.0207389 -1.07036 -1.07036
-0.0207722 -1.07599 -1.07599
-0.0303076 -1.08161 -1.08161
-0.0303932 -1.0929 -1.0929
-0.0113499 -1.09293 -1.09293
-0.0113047 -1.08164 -1.08164
-0.0303506 -1.08726 -1.08726
-0.0208707 -1.09291 -1.09291
-0.0113273 -1.08728 -1.08728
-0.0208053 -1.08162 -1.08162
-0.0208381 -1.08727 -1.08727
-0.0303932 -1.0929 -1.0929
-0.0304775 -1.10422 -1.10422
-0.0113948 -1.10424 -1.10424
-0.0113499 -1.09293 -1.09293
-0.0304355 -1.09856 -1.09856
-0.0209353 -1.10423 -1.10423
-0.0113724 -1.09858 -1.09858
-0.0208707 -1.09291 -1.09291
-0.0209031 -1.09857 -1.09857
-0.0304775 -1.10422 -1.10422
-0.0305602 -1.11556 -1.11556
-0.0114392 -1.11558 -1.11558
-0.0113948 -1.10424 -1.10424
-0.030519 -1.10988 -1.10988
-0.0209989 -1.11557 -1.11557
-0.011417 -1.10991 -1.10991
-0.0209353 -1.10423 -1.10423
-0.0209672 -1.10989 -1.10989
-0.0305602 -1.11556 -1.11556
-0.0306416 -1.12692 -1.12692
-0.0114832 -1.12694 -1.12694
-0.0114392 -1.11558 -1.11558
-0.0306011 -1.12123 -1.12123
-0.0210616 -1.12692 -1.12692
-0.0114613 -1.12126 -1.12126
-0.0209989 -1.11557 -1.11557
-0.0210303 -1.12124 -1.12124
-0.0306416 -1.12692 -1.12692
-0.0307215 -1.1383 -1.1383
-0.0115269 -1.13832 -1.13832
-0.0114832 -1.12694 -1.12694
-0.0306817 -1.1326 -1.1326
-0.0211233 -1.13831 -1.13831
-0.0115051 -1.13263 -1.13263
-0.0210616 -1.12692 -1.12692
-0.0210926 -1.13261 -1.13261
-0.0307215 -1.1383 -1.1383
-0.0307999 -1.1497 -1.1497
-0.01157 -1.14972 -1.14972
-0.0115269 -1.13832 -1.13832
-0.0307609 -1.14399 -1.14399
-0.0211842 -1.14971 -1.14971
-0.0115485 -1.14402 -1.14402
-0.0211233 -1.13831 -1.13831
-0.0211538 -1.14401 -1.14401
-0.0307999 -1.1497 -1.1497
-0.030877 -1.16112 -1.16112
-0.0116128 -1.16115 -1.16115
-0.01157 -1.14972 -1.14972
-0.0308386 -1.15541 -1.15541
-0.0212441 -1.16113 -1.16113
-0.0115915 -1.15543 -1.15543
-0.0211842 -1.14971 -1.14971
-0.0212142 -1.15542 -1.15542
-0.030877 -1.16112 -1.16112
-0.0309526 -1.17256 -1.17256
-0.0116552 -1.17259 -1.17259
-0.0116128 -1.16115 -1.16115
-0.0309149 -1.16684 -1.16684
-0.021303 -1.17258 -1.17258
-0.0116341 -1.16687 -1.16687
-0.0212441 -1.16113 -1.16113
-0.0212737 -1.16685 -1.16685
-0.0309526 -1.17256 -1.17256
-0.0310267 -1.18403 -1.18403
-0.0116971 -1.18405 -1.18405
-0.0116552 -1.17259 -1.17259
-0.0309898 -1.17829 -1.17829
-0.0213611 -1.18404 -1.18404
-0.0116762 -1.17832 -1.17832
-0.021303 -1.17258 -1.17258
-0.0213322 -1.1783 -1.1783
-0.0310267 -1.18403 -1.18403
-0.0310994 -1.19551 -1.19551
-0.0117386 -1.19554 -1.19554
-0.0116971 -1.18405 -1.18405
-0.0310632 -1.18977 -1.18977
-0.0214182 -1.19552 -1.19552
-0.0117179 -1.18979 -1.18979
-0.0213611 -1.18404 -1.18404
-0.0213897 -1.18978 -1.18978
-0.0310994 -1.19551 -1.19551
-0.0311706 -1.20701 -1.20701
-0.0117797 -1.20704 -1.20704
-0.0117386 -1.19554 -1.19554
-0.0311352 -1.20126 -1.20126
-0.0214743 -1.20702 -1.20702
-0.0117592 -1.20128 -1.20128
-0.0214182 -1.19552 -1.19552
-0.0214464 -1.20127 -1.20127
-0.0311706 -1.20701 -1.20701
-0.0312404 -1.21852 -1.21852
-0.0118204 -1.21855 -1.21855
-0.0117797 -1.20704 -1.20704
-0.0312057 -1.21276 -1.21276
-0.0215295 -1.21854 -1.21854
-0.0118001 -1.21279 -1.21279
-0.0214743 -1.20702 -1.20702
-0.021502 -1.21278 -1.21278
-0.0312404 -1.21852 -1.21852
-0.0313087 -1.23006 -1.23006
-0.0118606 -1.23009 -1.23009
-0.0118204 -1.21855 -1.21855
-0.0312747 -1.22429 -1.22429
-0.0215838 -1.23007 -1.23007
-0.0118405 -1.22432 -1.22432
-0.0215295 -1.21854 -1.21854
-0.0215568 -1.2243 -1.2243
-0.0313087 -1.23006 -1.23006
-0.0313756 -1.24161 -1.24161
-0.0119003 -1.24164 -1.24164
-0.0118606 -1.23009 -1.23009
-0.0313423 -1.23583 -1.23583
-0.0216371 -1.24162 -1.24162
-0.0118805 -1.23586 -1.23586
-0.0215838 -1.23007 -1.23007
-0.0216106 -1.23584 -1.23584
-0.0313756 -1.24161 -1.24161
-0.031441 -1.25317 -1.25317
-0.0119397 -1.25321 -1.25321
-0.0119003 -1.24164 -1.24164
-0.0314085 -1.24739 -1.24739
-0.0216895 -1.25319 -1.25319
-0.0119201 -1.24742 -1.24742
-0.0216371 -1.24162 -1.24162
-0.0216634 -1.2474 -1.2474
-0.031441 -1.25317 -1.25317
-0.0315049 -1.26475 -1.26475
-0.0119786 -1.26479 -1.26479
-0.0119397 -1.25321 -1.25321
-0.0314731 -1.25896 -1.25896
-0.0217409 -1.26477 -1.26477
-0.0119592 -1.25899 -1.25899
-0.0216895 -1.25319 -1.25319
-0.0217153 -1.25898 -1.25898
-0.0315049 -1.26475 -1.26475
-0.0315674 -1.27635 -1.27635
-0.012017 -1.27638 -1.27638
-0.0119786 -1.26479 -1.26479
-0.0315364 -1.27055 -1.27055
-0.0217914 -1.27637 -1.27637
-0.0119978 -1.27058 -1.27058
-0.0217409 -1.26477 -1.26477
-0.0217663 -1.27057 -1.27057
-0.0315674 -1.27635 -1.27635
-0.0316284 -1.28796 -1.28796
-0.012055 -1.28799 -1.28799
-0.012017 -1.27638 -1.27638
-0.0315981 -1.28215 -1.28215
-0.0218409 -1.28798 -1.28798
-0.0120361 -1.28219 -1.28219
-0.0217914 -1.27637 -1.27637
-0.0218162 -1.28217 -1.28217
-0.0316284 -1.28796 -1.28796
-0.0316879 -1.29958 -1.29958
-0.0120926 -1.29962 -1.29962
-0.012055 -1.28799 -1.28799
-0.0316584 -1.29377 -1.29377
-0.0218894 -1.2996 -1.2996
-0.0120738 -1.2938 -1.2938
-0.0218409 -1.28798 -1.28798
-0.0218653 -1.29379 -1.29379
-0.0316879 -1.29958 -1.29958
-0.031746 -1.31122 -1.31122
-0.0121297 -1.31125 -1.31125
-0.0120926 -1.29962 -1.29962
-0.0317171 -1.3054 -1.3054
-0.021937 -1.31123 -1.31123
-0.0121112 -1.30543 -1.30543
-0.0218894 -1.2996 -1.2996
-0.0219133 -1.30541 -1.30541
-0.031746 -1.31122 -1.31122
-0.0318026 -1.32287 -1.32287
-0.0121663 -1.3229 -1.3229
-0.0121297 -1.31125 -1.31125
-0.0317745 -1.31704 -1.31704
-0.0219836 -1.32288 -1.32288
-0.012148 -1.31708 -1.31708
-0.021937 -1.31123 -1.31123
-0.0219604 -1.31706 -1.31706
-0.0318026 -1.32287 -1.32287
-0.0318577 -1.33453 -1.33453
-0.0122025 -1.33456 -1.33456
-0.0121663 -1.3229 -1.3229
-0.0318303 -1.32869 -1.32869
-0.0220292 -1.33454 -1.33454
-0.0121845 -1.32873 -1.32873
-0.0219836 -1.32288 -1.32288
-0.0220065 -1.32871 -1.32871
-0.0318577 -1.33453 -1.33453
-0.0319113 -1.3462 -1.3462
-0.0122382 -1.34623 -1.34623
-0.0122025 -1.33456 -1.33456
-0.0318846 -1.34036 -1.34036
-0.0220739 -1.34621 -1.34621
-0.0122204 -1.34039 -1.34039
-0.0220292 -1.33454 -1.33454
-0.0220517 -1.34038 -1.34038
-0.0319113 -1.3462 -1.3462
-0.0319634 -1.35788 -1.35788
-0.0122735 -1.35791 -1.35791
-0.0122382 -1.34623 -1.34623
-0.0319375 -1.35203 -1.35203
-0.0221176 -1.35789 -1.35789
-0.0122559 -1.35207 -1.35207
-0.0220739 -1.34621 -1.34621
-0.0220959 -1.35205 -1.35205
-0.0319634 -1.35788 -1.35788
-0.032014 -1.36957 -1.36957
-0.0123083 -1.3696 -1.3696
-0.0122735 -1.35791 -1.35791
-0.0319889 -1.36372 -1.36372
-0.0221603 -1.36958 -1.36958
-0.0122909 -1.36376 -1.36376
-0.0221176 -1.35789 -1.35789
-0.0221391 -1.36374 -1.36374
-0.032014 -1.36957 -1.36957
-0.0320632 -1.38126 -1.38126
-0.0123426 -1.3813 -1.3813
-0.0123083 -1.3696 -1.3696
-0.0320388 -1.37541 -1.37541
-0.022202 -1.38128 -1.38128
-0.0123255 -1.37545 -1.37545
-0.0221603 -1.36958 -1.36958
-0.0221813 -1.37543 -1.37543
-0.0320632 -1.38126 -1.38126
-0.0321108 -1.39297 -1.39297
-0.0123764 -1.39301 -1.39301
-0.0123426 -1.3813 -1.3813
-0.0320872 -1.38712 -1.38712
-0.0222428 -1.39299 -1.39299
-0.0123596 -1.38716 -1.38716
-0.022202 -1.38128 -1.38128
-0.0222225 -1.38714 -1.38714
-0.0321108 -1.39297 -1.39297
-0.032157 -1.40469 -1.40469
-0.0124098 -1.40473 -1.40473
-0.0123764 -1.39301 -1.39301
-0.0321341 -1.39883 -1.39883
-0.0222825 -1.40471 -1.40471
-0.0123932 -1.39887 -1.39887
-0.0222428 -1.39299 -1.39299
-0.0222628 -1.39885 -1.39885
-0.032157 -1.40469 -1.40469
-0.0322016 -1.41641 -1.41641
-0.0124427 -1.41645 -1.41645
-0.0124098 -1.40473 -1.40473
-0.0321795 -1.41055 -1.41055
-0.0223213 -1.41643 -1.41643
-0.0124263 -1.41059 -1.41059
-0.0222825 -1.40471 -1.40471
-0.022302 -1.41057 -1.41057
-0.0322016 -1.41641 -1.41641
-0.0322447 -1.42814 -1.42814
-0.0124751 -1.42818 -1.42818
-0.0124427 -1.41645 -1.41645
-0.0322233 -1.42227 -1.42227
-0.022359 -1.42816 -1.42816
-0.0124589 -1.42231 -1.42231
-0.0223213 -1.41643 -1.41643
-0.0223403 -1.42229 -1.42229
-0.0322447 -1.42814 -1.42814
-0.0322863 -1.43988 -1.43988
-0.012507 -1.43992 -1.43992
-0.0124751 -1.42818 -1.42818
-0.0322657 -1.43401 -1.43401
-0.0223958 -1.4399 -1.4399
-0.0124911 -1.43405 -1.43405
-0.022359 -1.42816 -1.42816
-0.0223775 -1.43403 -1.43403
-0.0322863 -1.43988 -1.43988
-0.0323263 -1.45162 -1.45162
-0.0125383 -1.45166 -1.45166
-0.012507 -1.43992 -1.43992
-0.0323065 -1.44575 -1.44575
-0.0224314 -1.45164 -1.45164
-0.0125227 -1.44579 -1.44579
-0.0223958 -1.4399 -1.4399
-0.0224137 -1.44577 -1.44577
-0.0323263 -1.45162 -1.45162
-0.0323646 -1.46336 -1.46336
-0.0125691 -1.46341 -1.46341
-0.0125383 -1.45166 -1.45166
-0.0323456 -1.45749 -1.45749
-0.0224659 -1.46338 -1.46338
-0.0125538 -1.45753 -1.45753
-0.0224314 -1.45164 -1.45164
-0.0224488 -1.45751 -1.45751
-0.0323646 -1.46336 -1.46336
-0.0324012 -1.47511 -1.47511
-0.0125993 -1.47516 -1.47516
-0.0125691 -1.46341 -1.46341
-0.0323831 -1.46924 -1.46924
-0.0224992 -1.47513 -1.47513
-0.0125843 -1.46928 -1.46928
-0.0224659 -1.46338 -1.46338
-0.0224827 -1.46926 -1.46926
-0.0324012 -1.47511 -1.47511
-0.0324359 -1.48687 -1.48687
-0.0126288 -1.48691 -1.48691
-0.0125993 -1.47516 -1.47516
-0.0324188 -1.48099 -1.48099
-0.0225312 -1.48689 -1.48689
-0.0126141 -1.48103 -1.48103
-0.0224992 -1.47513 -1.47513
-0.0225154 -1.48101 -1.48101
-0.0324359 -1.48687 -1.48687
-0.0324685 -1.49862 -1.49862
-0.0126577 -1.49867 -1.49867
-0.0126288 -1.48691 -1.48691
-0.0324524 -1.49275 -1.49275
-0.0225618 -1.49865 -1.49865
-0.0126433 -1.49279 -1.49279
-0.0225312 -1.48689 -1.48689
-0.0225467 -1.49277 -1.49277
-0.0324685 -1.49862 -1.49862
-0.0324991 -1.51038 -1.51038
-0.0126859 -1.51043 -1.51043
-0.0126577 -1.49867 -1.49867
-0.0324841 -1.5045 -1.5045
-0.0225911 -1.51041 -1.51041
-0.0126718 -1.50455 -1.50455
-0.0225618 -1.49865 -1.49865
-0.0225766 -1.50453 -1.50453
-0.0324991 -1.51038 -1.51038
-0.032528 -1.52215 -1.52215
-0.0127137 -1.52219 -1.52219
-0.0126859 -1.51043 -1.51043
-0.0325137 -1.51627 -1.51627
-0.0226195 -1.52217 -1.52217
-0.0126998 -1.51631 -1.51631
-0.0225911 -1.51041 -1.51041
-0.0226053 -1.51629 -1.51629
-0.032528 -1.52215 -1.52215
-0.0325568 -1.53391 -1.53391
-0.0127415 -1.53395 -1.53395
-0.0127137 -1.52219 -1.52219
-0.0325423 -1.52803 -1.52803
-0.0226479 -1.53393 -1.53393
-0.0127276 -1.52807 -1.52807
-0.0226195 -1.52217 -1.52217
-0.0226337 -1.52805 -1.52805
-0.0325568 -1.53391 -1.53391
-0.0325865 -1.54567 -1.54567
-0.0127698 -1.5457 -1.5457
-0.0127415 -1.53395 -1.53395
-0.0325715 -1.53979 -1.53979
-0.0226768 -1.54568 -1.54568
-0.0127556 -1.53982 -1.53982
-0.0226479 -1.53393 -1.53393
-0.0226623 -1.5398 -1.5398
0 0 0
-8.77386e-05 1.42398e-05 1.42398e-05
8.75564e-05 1.42026e-05 1.42026e-05
0 0 0
-4.36736e-05 2.86586e-05 2.86586e-05
-9.14864e-08 1.94391e-05 1.94391e-05
4.35799e-05 2.86378e-05 2.86378e-05
0 0 0
-4.72975e-08 3.08628e-05 3.08628e-05
-8.77386e-05 1.42398e-05 1.42398e-05
-0.000182731 -0.000134784 -0.000134784
0.000182374 -0.000134855 -0.000134855
8.75564e-05 1.42026e-05 1.42026e-05
-0.00013435 -4.11562e-05 -4.11562e-05
-1.78716e-07 -0.000126226 -0.000126226
0.000134081 -4.12097e-05 -4.12097e-05
-9.14864e-08 1.94391e-05 1.94391e-05
-1.34911e-07 -3.39455e-05 -3.39455e-05
-0.000182731 -0.000134784 -0.000134784
-0.000281135 -0.000427034 -0.000427034
0.000280591 -0.000427143 -0.000427143
0.000182374 -0.000134855 -0.000134855
-0.000231669 -0.000263978 -0.000263978
-2.71163e-07 -0.000415986 -0.000415986
0.000231221 -0.000264067 -0.000264067
-1.78716e-07 -0.000126226 -0.000126226
-2.23786e-07 -0.00025409 -0.00025409
-0.000281135 -0.000427034 -0.000427034
-0.000381678 -0.000849458 -0.000849458
0.000380922 -0.000849611 -0.000849611
0.000280591 -0.000427143 -0.000427143
-0.000331266 -0.000622563 -0.000622563
-3.76512e-07 -0.000837244 -0.000837244
0.00033062 -0.000622693 -0.000622693
-2.71163e-07 -0.000415986 -0.000415986
-3.21847e-07 -0.000610776 -0.000610776
-0.000381678 -0.000849458 -0.000849458
-0.000482075 -0.00139399 -0.00139399
0.000481069 -0.00139419 -0.00139419
0.000380922 -0.000849611 -0.000849611
-0.000431955 -0.00110678 -0.00110678
-5.00419e-07 -0.00138134 -0.00138134
0.00043108 -0.00110696 -0.00110696
-3.76512e-07 -0.000837244 -0.000837244
-4.35782e-07 -0.00109429 -0.00109429
-0.000482075 -0.00139399 -0.00139399
-0.000581885 -0.00205651 -0.00205651
0.000580581 -0.00205677 -0.00205677
0.000481069 -0.00139419 -0.00139419
-0.00053208 -0.00171066 -0.00171066
-6.48852e-07 -0.00204389 -0.00204389
0.000530932 -0.00171089 -0.00171089
-5.00419e-07 -0.00138134 -0.00138134
-5.71203e-07 -0.00169799 -0.00169799
-0.000581885 -0.00205651 -0.00205651
-0.000680664 -0.00283485 -0.00283485
0.000679001 -0.00283518 -0.00283518
0.000580581 -0.00205677 -0.00205677
-0.000631403 -0.00243128 -0.00243128
-8.27624e-07 -0.00282239 -0.00282239
0.000629928 -0.00243157 -0.00243157
-6.48852e-07 -0.00204389 -0.00204389
-7.34079e-07 -0.00241874 -0.00241874
-0.000680664 -0.00283485 -0.00283485
-0.000778561 -0.00372796 -0.00372796
0.000776467 -0.00372835 -0.00372835
0.000679001 -0.00283518 -0.00283518
-0.000729715 -0.00326711 -0.00326711
-1.04256e-06 -0.00371569 -0.00371569
0.000727847 -0.00326746 -0.00326746
-8.27624e-07 -0.00282239 -0.00282239
-9.30221e-07 -0.00325474 -0.00325474
-0.000778561 -0.00372796 -0.00372796
-0.000875645 -0.00473513 -0.00473513
0.000873037 -0.00473559 -0.00473559
0.000776467 -0.00372835 -0.00372835
-0.000827197 -0.00421732 -0.00421732
-1.29918e-06 -0.00472305 -0.00472305
0.000824857 -0.00421774 -0.00421774
-1.04256e-06 -0.00371569 -0.00371569
-1.16533e-06 -0.00420515 -0.00420515
-0.000875645 -0.00473513 -0.00473513
-0.000972065 -0.00585584 -0.00585584
0.000968849 -0.00585639 -0.00585639
0.000873037 -0.00473559 -0.00473559
-0.000923932 -0.00528133 -0.00528133
-1.60272e-06 -0.00584393 -0.00584393
0.000921032 -0.00528183 -0.00528183
-1.29918e-06 -0.00472305 -0.00472305
-1.44477e-06 -0.00526933 -0.00526933
-0.000972065 -0.00585584 -0.00585584
-0.0010679 -0.00708958 -0.00708958
0.00106397 -0.00709022 -0.00709022
0.000968849 -0.00585639 -0.00585639
-0.00102005 -0.00645862 -0.00645862
-1.95817e-06 -0.00707781 -0.00707781
0.00101649 -0.00645921 -0.00645921
-1.60272e-06 -0.00584393 -0.00584393
-1.77366e-06 -0.00644678 -0.00644678
-0.0010679 -0.00708958 -0.00708958
-0.00116321 -0.00843582 -0.00843582
0.00115845 -0.00843655 -0.00843655
0.00106397 -0.00709022 -0.00709022
-0.00111561 -0.00774867 -0.00774867
-2.37029e-06 -0.00842418 -0.00842418
0.00111129 -0.00774936 -0.00774936
-1.95817e-06 -0.00707781 -0.00707781
-2.15685e-06 -0.00773697 -0.00773697
-0.00116321 -0.00843582 -0.00843582
-0.00125803 -0.00989399 -0.00989399
0.00125232 -0.00989483 -0.00989483
0.00115845 -0.00843655 -0.00843655
-0.00121068 -0.00915095 -0.00915095
-2.84372e-06 -0.00988248 -0.00988248
0.00120546 -0.00915173 -0.00915173
-2.37029e-06 -0.00842418 -0.00842418
-2.59906e-06 -0.00913938 -0.00913938
-0.00125803 -0.00989399 -0.00989399
-0.00135239 -0.0114635 -0.0114635
0.0013456 -0.0114645 -0.0114645
0.00125232 -0.00989483 -0.00989483
-0.00130526 -0.0106649 -0.0106649
-3.38295e-06 -0.0114522 -0.0114522
0.00129904 -0.0106658 -0.0106658
-2.84372e-06 -0.00988248 -0.00988248
-3.10483e-06 -0.0106534 -0.0106534
-0.00135239 -0.0114635 -0.0114635
-0.00144629 -0.0131439 -0.0131439
0.00143829 -0.0131449 -0.0131449
0.0013456 -0.0114645 -0.0114645
-0.0013994 -0.0122899 -0.0122899
-3.9924e-06 -0.0131326 -0.0131326
0.00139202 -0.0122909 -0.0122909
-3.38295e-06 -0.0114522 -0.0114522
-3.67862e-06 -0.0122786 -0.0122786
-0.00144629 -0.0131439 -0.0131439
-0.00153976 -0.0149344 -0.0149344
0.00153039 -0.0149356 -0.0149356
0.00143829 -0.0131449 -0.0131449
-0.00149308 -0.0140254 -0.0140254
-4.6764e-06 -0.0149232 -0.0149232
0.00148442 -0.0140265 -0.0140265
-3.9924e-06 -0.0131326 -0.0131326
-4.32481e-06 -0.0140142 -0.0140142
-0.00153976 -0.0149344 -0.0149344
-0.0016328 -0.0168344 -0.0168344
0.0016219 -0.0168358 -0.0168358
0.00153039 -0.0149356 -0.0149356
-0.00158633 -0.0158707 -0.0158707
-5.43924e-06 -0.0168235 -0.0168235
0.00157622 -0.015872 -0.015872
-4.6764e-06 -0.0149232 -0.0149232
-5.0477e-06 -0.0158597 -0.0158597
-0.0016328 -0.0168344 -0.0168344
-0.0017254 -0.0188435 -0.0188435
0.00171281 -0.018845 -0.018845
0.0016219 -0.0168358 -0.0168358
-0.00167915 -0.0178254 -0.0178254
-6.28511e-06 -0.0188327 -0.0188327
0.00166743 -0.0178268 -0.0178268
-5.43924e-06 -0.0168235 -0.0168235
-5.85154e-06 -0.0178145 -0.0178145
-0.0017254 -0.0188435 -0.0188435
-0.00181758 -0.020961 -0.020961
0.00180313 -0.0209626 -0.0209626
0.00171281 -0.018845 -0.018845
-0.00177155 -0.0198887 -0.0198887
-7.21815e-06 -0.0209502 -0.0209502
0.00175805 -0.0198903 -0.0198903
-6.28511e-06 -0.0188327 -0.0188327
-6.74047e-06 -0.0198779 -0.0198779
-0.00181758 -0.020961 -0.020961
-0.00190935 -0.0231862 -0.0231862
0.00189284 -0.023188 -0.023188
0.00180313 -0.0209626 -0.0209626
-0.00186352 -0.0220601 -0.0220601
-8.24242e-06 -0.0231756 -0.0231756
0.00184806 -0.0220618 -0.0220618
-7.21815e-06 -0.0209502 -0.0209502
-7.71863e-06 -0.0220495 -0.0220495
-0.00190935 -0.0231862 -0.0231862
-0.00200069 -0.0255186 -0.0255186
0.00198195 -0.0255205 -0.0255205
0.00189284 -0.023188 -0.023188
-0.00195507 -0.024339 -0.024339
-9.36194e-06 -0.0255081 -0.0255081
0.00193747 -0.0243409 -0.0243409
-8.24242e-06 -0.0231756 -0.0231756
-8.79003e-06 -0.0243285 -0.0243285
-0.00200069 -0.0255186 -0.0255186
-0.00209163 -0.0279575 -0.0279575
0.00207044 -0.0279596 -0.0279596
0.00198195 -0.0255205 -0.0255205
-0.00204621 -0.0267248 -0.0267248
-1.05806e-05 -0.0279472 -0.0279472
0.00202627 -0.0267268 -0.0267268
-9.36194e-06 -0.0255081 -0.0255081
-9.95865e-06 -0.0267144 -0.0267144
-0.00209163 -0.0279575 -0.0279575
-0.00218215 -0.0305024 -0.0305024
0.00215832 -0.0305047 -0.0305047
0.00207044 -0.0279596 -0.0279596
-0.00213694 -0.0292168 -0.0292168
-1.19024e-05 -0.0304923 -0.0304923
0.00211446 -0.029219 -0.029219
-1.05806e-05 -0.0279472 -0.0279472
-1.12284e-05 -0.0292066 -0.0292066
-0.00218215 -0.0305024 -0.0305024
-0.00227227 -0.0331527 -0.0331527
0.00224559 -0.0331551 -0.0331551
0.00215832 -0.0305047 -0.0305047
-0.00222726 -0.0318144 -0.0318144
-1.33309e-05 -0.0331427 -0.0331427
0.00220203 -0.0318168 -0.0318168
-1.19024e-05 -0.0304923 -0.0304923
-1.26031e-05 -0.0318044 -0.0318044
-0.00227227 -0.0331527 -0.0331527
-0.002362 -0.0359077 -0.0359077
0.00233223 -0.0359103 -0.0359103
0.00224559 -0.0331551 -0.0331551
-0.00231719 -0.0345171 -0.0345171
-1.487e-05 -0.0358979 -0.0358979
0.00228899 -0.0345197 -0.0345197
-1.33309e-05 -0.0331427 -0.0331427
-1.40864e-05 -0.0345072 -0.0345072
-0.002362 -0.0359077 -0.0359077
-0.00245132 -0.0387668 -0.0387668
0.00241825 -0.0387697 -0.0387697
0.00233223 -0.0359103 -0.0359103
-0.00240671 -0.0373243 -0.0373243
-1.65233e-05 -0.0387572 -0.0387572
0.00237532 -0.037327 -0.037327
-1.487e-05 -0.0358979 -0.0358979
-1.56821e-05 -0.0373145 -0.0373145
-0.00245132 -0.0387668 -0.0387668
-0.00254025 -0.0417295 -0.0417295
0.00250363 -0.0417325 -0.0417325
0.00241825 -0.0387697 -0.0387697
-0.00249583 -0.0402352 -0.0402352
-1.82943e-05 -0.04172 -0.04172
0.00246102 -0.0402382 -0.0402382
-1.65233e-05 -0.0387572 -0.0387572
-1.73938e-05 -0.0402257 -0.0402257
-0.00254025 -0.0417295 -0.0417295
-0.00262879 -0.0447951 -0.0447951
0.00258839 -0.0447983 -0.0447983
0.00250363 -0.0417325 -0.0417325
-0.00258457 -0.0432494 -0.0432494
-2.01865e-05 -0.0447858 -0.0447858
0.00254609 -0.0432526 -0.0432526
-1.82943e-05 -0.04172 -0.04172
-1.9225e-05 -0.0432401 -0.0432401
-0.00262879 -0.0447951 -0.0447951
-0.00271695 -0.047963 -0.047963
0.00267251 -0.0479665 -0.0479665
0.00258839 -0.0447983 -0.0447983
-0.00267292 -0.0463663 -0.0463663
-2.22035e-05 -0.0479539 -0.0479539
0.00263053 -0.0463697 -0.0463697
-2.01865e-05 -0.0447858 -0.0447858
-2.11792e-05 -0.0463571 -0.0463571
-0.00271695 -0.047963 -0.047963
-0.00280472 -0.0512326 -0.0512326
0.00275599 -0.0512363 -0.0512363
0.00267251 -0.0479665 -0.0479665
-0.00276088 -0.0495851 -0.0495851
-2.43484e-05 -0.0512237 -0.0512237
0.00271433 -0.0495887 -0.0495887
-2.22035e-05 -0.0479539 -0.0479539
-2.32597e-05 -0.0495761 -0.0495761
-0.00280472 -0.0512326 -0.0512326
-0.00289211 -0.0546034 -0.0546034
0.00283883 -0.0546073 -0.0546073
0.00275599 -0.0512363 -0.0512363
-0.00284846 -0.0529054 -0.0529054
-2.66246e-05 -0.0545946 -0.0545946
0.00279749 -0.0529092 -0.0529092
-2.43484e-05 -0.0512237 -0.0512237
-2.54699e-05 -0.0528965 -0.0528965
-0.00289211 -0.0546034 -0.0546034
-0.00297912 -0.0580747 -0.0580747
0.00292102 -0.0580788 -0.0580788
0.00283883 -0.0546073 -0.0546073
-0.00293566 -0.0563265 -0.0563265
-2.90353e-05 -0.058066 -0.058066
0.00288001 -0.0563305 -0.0563305
-2.66246e-05 -0.0545946 -0.0545946
-2.78129e-05 -0.0563178 -0.0563178
-0.00297912 -0.0580747 -0.0580747
-0.00306576 -0.0616458 -0.0616458
0.00300256 -0.0616502 -0.0616502
0.00292102 -0.0580788 -0.0580788
-0.00302249 -0.0598478 -0.0598478
-3.15836e-05 -0.0616374 -0.0616374
0.00296187 -0.059852 -0.059852
-2.90353e-05 -0.058066 -0.058066
-3.0292e-05 -0.0598393 -0.0598393
-0.00306576 -0.0616458 -0.0616458
-0.00315203 -0.0653163 -0.0653163
0.00308346 -0.0653209 -0.0653209
0.00300256 -0.0616502 -0.0616502
-0.00310894 -0.0634687 -0.0634687
-3.42726e-05 -0.065308 -0.065308
0.00304309 -0.0634732 -0.0634732
-3.15836e-05 -0.0616374 -0.0616374
-3.29103e-05 -0.0634603 -0.0634603
-0.00315203 -0.0653163 -0.0653163
-0.00323793 -0.0690854 -0.0690854
0.00316369 -0.0690903 -0.0690903
0.00308346 -0.0653209 -0.0653209
-0.00319503 -0.0671885 -0.0671885
-3.71052e-05 -0.0690774 -0.0690774
0.00312366 -0.0671933 -0.0671933
-3.42726e-05 -0.065308 -0.065308
-3.56708e-05 -0.0671804 -0.0671804
-0.00323793 -0.0690854 -0.0690854
-0.00332347 -0.0729527 -0.0729527
0.00324327 -0.0729578 -0.0729578
0.00316369 -0.0690903 -0.0690903
-0.00328075 -0.0710068 -0.0710068
-4.00844e-05 -0.0729448 -0.0729448
0.00320356 -0.0710118 -0.0710118
-3.71052e-05 -0.0690774 -0.0690774
-3.85763e-05 -0.0709988 -0.0709988
-0.00332347 -0.0729527 -0.0729527
-0.00340865 -0.0769174 -0.0769174
0.00332219 -0.0769227 -0.0769227
0.00324327 -0.0729578 -0.0729578
-0.00336611 -0.0749229 -0.0749229
-4.32131e-05 -0.0769097 -0.0769097
0.00328281 -0.0749281 -0.0749281
-4.00844e-05 -0.0729448 -0.0729448
-4.16299e-05 -0.0749151 -0.0749151
-0.00340865 -0.0769174 -0.0769174
-0.00349347 -0.080979 -0.080979
0.00340044 -0.0809846 -0.0809846
0.00332219 -0.0769227 -0.0769227
-0.0034511 -0.0789361 -0.0789361
-4.6494e-05 -0.0809715 -0.0809715
0.0033614 -0.0789416 -0.0789416
-4.32131e-05 -0.0769097 -0.0769097
-4.48343e-05 -0.0789285 -0.0789285
-0.00349347 -0.080979 -0.080979
-0.00357793 -0.0851368 -0.0851368
0.00347803 -0.0851427 -0.0851427
0.00340044 -0.0809846 -0.0809846
-0.00353574 -0.0830459 -0.0830459
-4.99297e-05 -0.0851295 -0.0851295
0.00343932 -0.0830516 -0.0830516
-4.6494e-05 -0.0809715 -0.0809715
-4.81923e-05 -0.0830385 -0.0830385
-0.00357793 -0.0851368 -0.0851368
-0.00366203 -0.0893903 -0.0893903
0.00355495 -0.0893965 -0.0893965
0.00347803 -0.0851427 -0.0851427
-0.00362002 -0.0872517 -0.0872517
-5.35231e-05 -0.0893832 -0.0893832
0.00351658 -0.0872577 -0.0872577
-4.99297e-05 -0.0851295 -0.0851295
-5.17065e-05 -0.0872445 -0.0872445
-0.00366203 -0.0893903 -0.0893903
-0.00374579 -0.0937389 -0.0937389
0.0036312 -0.0937453 -0.0937453
0.00355495 -0.0893965 -0.0893965
-0.00370396 -0.0915528 -0.0915528
-5.72765e-05 -0.093732 -0.093732
0.00359316 -0.0915591 -0.0915591
-5.35231e-05 -0.0893832 -0.0893832
-5.53796e-05 -0.0915458 -0.0915458
-0.00374579 -0.0937389 -0.0937389
-0.0038292 -0.0981819 -0.0981819
0.00370678 -0.0981886 -0.0981886
0.0036312 -0.0937453 -0.0937453
-0.00378754 -0.0959487 -0.0959487
-6.11926e-05 -0.0981752 -0.0981752
0.00366907 -0.0959552 -0.0959552
-5.72765e-05 -0.093732 -0.093732
-5.92141e-05 -0.0959419 -0.0959419
-0.0038292 -0.0981819 -0.0981819
-0.00391226 -0.102719 -0.102719
0.00378167 -0.102726 -0.102726
0.00370678 -0.0981886 -0.0981886
-0.00387077 -0.100439 -0.100439
-6.52738e-05 -0.102712 -0.102712
0.00374431 -0.100446 -0.100446
-6.11926e-05 -0.0981752 -0.0981752
-6.32124e-05 -0.100432 -0.100432
-0.00391226 -0.102719 -0.102719
-0.00399498 -0.107349 -0.107349
0.00385589 -0.107356 -0.107356
0.00378167 -0.102726 -0.102726
-0.00395366 -0.105022 -0.105022
-6.95223e-05 -0.107343 -0.107343
0.00381887 -0.105029 -0.105029
-6.52738e-05 -0.102712 -0.102712
-6.7377e-05 -0.105016 -0.105016
-0.00399498 -0.107349 -0.107349
-0.00407735 -0.112072 -0.112072
0.00392943 -0.112079 -0.112079
0.00385589 -0.107356 -0.107356
-0.00403621 -0.109699 -0.109699
-7.39406e-05 -0.112066 -0.112066
0.00389275 -0.109706 -0.109706
-6.95223e-05 -0.107343 -0.107343
-7.17101e-05 -0.109693 -0.109693
-0.00407735 -0.112072 -0.112072
-0.00415939 -0.116886 -0.116886
0.00400229 -0.116894 -0.116894
0.00392943 -0.112079 -0.112079
-0.00411841 -0.114468 -0.114468
-7.85309e-05 -0.116881 -0.116881
0.00396595 -0.114475 -0.114475
-7.39406e-05 -0.112066 -0.112066
-7.62142e-05 -0.114462 -0.114462
-0.00415939 -0.116886 -0.116886
-0.00424109 -0.121793 -0.121793
0.00407446 -0.121801 -0.121801
0.00400229 -0.116894 -0.116894
-0.00420028 -0.119328 -0.119328
-8.32953e-05 -0.121787 -0.121787
0.00403846 -0.119336 -0.119336
-7.85309e-05 -0.116881 -0.116881
-8.08912e-05 -0.119322 -0.119322
-0.00424109 -0.121793 -0.121793
-0.00432245 -0.12679 -0.12679
0.00414594 -0.126798 -0.126798
0.00407446 -0.121801 -0.121801
-0.00428181 -0.12428 -0.12428
-8.8236e-05 -0.126784 -0.126784
0.00411029 -0.124288 -0.124288
-8.32953e-05 -0.121787 -0.121787
-8.57435e-05 -0.124274 -0.124274
-0.00432245 -0.12679 -0.12679
-0.00440349 -0.131877 -0.131877
0.00421674 -0.131886 -0.131886
0.00414594 -0.126798 -0.126798
-0.00436301 -0.129322 -0.129322
-9.3355e-05 -0.131872 -0.131872
0.00418143 -0.129331 -0.129331
-8.8236e-05 -0.126784 -0.126784
-9.07731e-05 -0.129317 -0.129317
-0.00440349 -0.131877 -0.131877
-0.00448419 -0.137054 -0.137054
0.00428684 -0.137063 -0.137063
0.00421674 -0.131886 -0.131886
-0.00444388 -0.134454 -0.134454
-9.86542e-05 -0.137049 -0.137049
0.00425187 -0.134463 -0.134463
-9.3355e-05 -0.131872 -0.131872
-9.59819e-05 -0.134449 -0.134449
-0.00448419 -0.137054 -0.137054
-0.00456456 -0.14232 -0.14232
0.00435625 -0.142329 -0.142329
0.00428684 -0.137063 -0.137063
-0.00452441 -0.139676 -0.139676
-0.000104136 -0.142315 -0.142315
0.00432163 -0.139685 -0.139685
-9.86542e-05 -0.137049 -0.137049
-0.000101372 -0.139671 -0.139671
-0.00456456 -0.14232 -0.14232
-0.0046446 -0.147674 -0.147674
0.00442496 -0.147684 -0.147684
0.00435625 -0.142329 -0.142329
-0.00460462 -0.144986 -0.144986
-0.000109801 -0.147669 -0.147669
0.00439069 -0.144995 -0.144995
-0.000104136 -0.142315 -0.142315
-0.000106945 -0.144981 -0.144981
-0.0046446 -0.147674 -0.147674
-0.00472432 -0.153116 -0.153116
0.00449298 -0.153126 -0.153126
0.00442496 -0.147684 -0.147684
-0.0046845 -0.150384 -0.150384
-0.000115652 -0.153112 -0.153112
0.00445906 -0.150394 -0.150394
-0.000109801 -0.147669 -0.147669
-0.000112703 -0.15038 -0.15038
-0.00472432 -0.153116 -0.153116
-0.00480372 -0.158645 -0.158645
0.00456029 -0.158656 -0.158656
0.00449298 -0.153126 -0.153126
-0.00476406 -0.15587 -0.15587
-0.000121691 -0.158641 -0.158641
0.00452672 -0.15588 -0.15588
-0.000115652 -0.153112 -0.153112
-0.000118648 -0.155866 -0.155866
-0.00480372 -0.158645 -0.158645
-0.00488279 -0.164261 -0.164261
0.00462691 -0.164272 -0.164272
0.00456029 -0.158656 -0.158656
-0.00484329 -0.161442 -0.161442
-0.000127919 -0.164257 -0.164257
0.00459369 -0.161453 -0.161453
-0.000121691 -0.158641 -0.158641
-0.000124781 -0.161438 -0.161438
-0.00488279 -0.164261 -0.164261
-0.00496154 -0.169963 -0.169963
0.00469283 -0.169974 -0.169974
0.00462691 -0.164272 -0.164272
-0.00492221 -0.167101 -0.167101
-0.000134337 -0.169959 -0.169959
0.00465996 -0.167112 -0.167112
-0.000127919 -0.164257 -0.164257
-0.000131104 -0.167097 -0.167097
-0.00496154 -0.169963 -0.169963
-0.00503998 -0.17575 -0.17575
0.00475804 -0.175761 -0.175761
0.00469283 -0.169974 -0.169974
-0.0050008 -0.172846 -0.172846
-0.000140948 -0.175747 -0.175747
0.00472552 -0.172857 -0.172857
-0.000134337 -0.169959 -0.169959
-0.000137619 -0.172842 -0.172842
-0.00503998 -0.17575 -0.17575
-0.00511809 -0.181622 -0.181622
0.00482255 -0.181634 -0.181634
0.00475804 -0.175761 -0.175761
-0.00507908 -0.178675 -0.178675
-0.000147753 -0.181619 -0.181619
0.00479038 -0.178687 -0.178687
-0.000140948 -0.175747 -0.175747
-0.000144326 -0.178672 -0.178672
-0.00511809 -0.181622 -0.181622
-0.0051959 -0.187578 -0.187578
0.00488635 -0.18759 -0.18759
0.00482255 -0.181634 -0.181634
-0.00515703 -0.18459 -0.18459
-0.000154753 -0.187575 -0.187575
0.00485453 -0.184601 -0.184601
-0.000147753 -0.181619 -0.181619
-0.000151229 -0.184586 -0.184586
-0.0051959 -0.187578 -0.187578
-0.00527338 -0.193618 -0.193618
0.00494944 -0.19363 -0.19363
0.00488635 -0.18759 -0.18759
-0.00523468 -0.190587 -0.190587
-0.00016195 -0.193615 -0.193615
0.00491798 -0.1906 -0.1906
-0.000154753 -0.187575 -0.187575
-0.000158327 -0.190585 -0.190585
-0.00527338 -0.193618 -0.193618
-0.00535055 -0.19974 -0.19974
0.00501182 -0.199753 -0.199753
0.00494944 -0.19363 -0.19363
-0.00531201 -0.196669 -0.196669
-0.000169344 -0.199738 -0.199738
0.00498072 -0.196681 -0.196681
-0.00016195 -0.193615 -0.193615
-0.000165622 -0.196666 -0.196666
-0.00535055 -0.19974 -0.19974
-0.00542742 -0.205945 -0.205945
0.0050735 -0.205958 -0.205958
0.00501182 -0.199753 -0.199753
-0.00538902 -0.202832 -0.202832
-0.000176938 -0.205943 -0.205943
0.00504275 -0.202845 -0.202845
-0.000169344 -0.199738 -0.199738
-0.000173116 -0.20283 -0.20283
-0.00542742 -0.205945 -0.205945
-0.00550396 -0.212232 -0.212232
0.00513446 -0.212245 -0.212245
0.0050735 -0.205958 -0.205958
-0.00546573 -0.209078 -0.209078
-0.000184731 -0.21223 -0.21223
0.00510407 -0.209091 -0.209091
-0.000176938 -0.205943 -0.205943
-0.000180809 -0.209076 -0.209076
-0.00550396 -0.212232 -0.212232
-0.0055802 -0.2186 -0.2186
0.00519471 -0.218613 -0.218613
0.00513446 -0.212245 -0.212245
-0.00554212 -0.215406 -0.215406
-0.000192726 -0.218598 -0.218598
0.00516467 -0.215419 -0.215419
-0.000184731 -0.21223 -0.21223
-0.000188704 -0.215404 -0.215404
-0.0055802 -0.2186 -0.2186
-0.00565614 -0.225048 -0.225048
0.00525424 -0.225062 -0.225062
0.00519471 -0.218613 -0.218613
-0.00561821 -0.221814 -0.221814
-0.000200924 -0.225046 -0.225046
0.00522456 -0.221828 -0.221828
-0.000192726 -0.218598 -0.218598
-0.0001968 -0.221812 -0.221812
-0.00565614 -0.225048 -0.225048
-0.00573176 -0.231576 -0.231576
0.00531306 -0.231591 -0.231591
0.00525424 -0.225062 -0.225062
-0.00569399 -0.228302 -0.228302
-0.000209325 -0.231575 -0.231575
0.00528374 -0.228316 -0.228316
-0.000200924 -0.225046 -0.225046
-0.000205099 -0.228301 -0.228301
-0.00573176 -0.231576 -0.231576
-0.00580708 -0.238184 -0.238184
0.00537117 -0.238199 -0.238199
0.00531306 -0.231591 -0.231591
-0.00576946 -0.23487 -0.23487
-0.00021793 -0.238183 -0.238183
0.00534221 -0.234885 -0.234885
-0.000209325 -0.231575 -0.231575
-0.000213602 -0.234869 -0.234869
-0.00580708 -0.238184 -0.238184
-0.00588209 -0.24487 -0.24487
0.00542856 -0.244885 -0.244885
0.00537117 -0.238199 -0.238199
-0.00584462 -0.241517 -0.241517
-0.000226741 -0.244869 -0.244869
0.00539995 -0.241532 -0.241532
-0.00021793 -0.238183 -0.238183
-0.00022231 -0.241516 -0.241516
-0.00588209 -0.24487 -0.24487
-0.00595679 -0.251635 -0.251635
0.00548523 -0.25165 -0.25165
0.00542856 -0.244885 -0.244885
-0.00591948 -0.248243 -0.248243
-0.000235758 -0.251634 -0.251634
0.00545698 -0.248258 -0.248258
-0.000226741 -0.244869 -0.244869
-0.000231223 -0.248242 -0.248242
-0.00595679 -0.251635 -0.251635
-0.00603119 -0.258476 -0.258476
0.00554118 -0.258492 -0.258492
0.00548523 -0.25165 -0.25165
-0.00599403 -0.255046 -0.255046
-0.000244981 -0.258476 -0.258476
0.0055133 -0.255061 -0.255061
-0.000235758 -0.251634 -0.251634
-0.000240343 -0.255045 -0.255045
-0.00603119 -0.258476 -0.258476
-0.00610529 -0.265395 -0.265395
0.00559642 -0.265411 -0.265411
0.00554118 -0.258492 -0.258492
-0.00606828 -0.261926 -0.261926
-0.000254412 -0.265395 -0.265395
0.00556889 -0.261942 -0.261942
-0.000244981 -0.258476 -0.258476
-0.000249671 -0.261926 -0.261926
-0.00610529 -0.265395 -0.265395
-0.00617908 -0.27239 -0.27239
0.00565093 -0.272407 -0.272407
0.00559642 -0.265411 -0.265411
-0.00614222 -0.268883 -0.268883
-0.000264052 -0.27239 -0.27239
0.00562377 -0.268899 -0.268899
-0.000254412 -0.265395 -0.265395
-0.000259206 -0.268883 -0.268883
-0.00617908 -0.27239 -0.27239
-0.00625258 -0.279461 -0.279461
0.00570473 -0.279478 -0.279478
0.00565093 -0.272407 -0.272407
-0.00621587 -0.275916 -0.275916
-0.0002739 -0.279461 -0.279461
0.00567792 -0.275933 -0.275933
-0.000264052 -0.27239 -0.27239
-0.00026895 -0.275917 -0.275917
-0.00625258 -0.279461 -0.279461
-0.00632577 -0.286607 -0.286607
0.0057578 -0.286624 -0.286624
0.00570473 -0.279478 -0.279478
-0.00628921 -0.283025 -0.283025
-0.000283958 -0.286608 -0.286608
0.00573136 -0.283042 -0.283042
-0.0002739 -0.279461 -0.279461
-0.000278903 -0.283025 -0.283025
-0.00632577 -0.286607 -0.286607
-0.00639866 -0.293827 -0.293827
0.00581016 -0.293845 -0.293845
0.0057578 -0.286624 -0.286624
-0.00636225 -0.290208 -0.290208
-0.000294226 -0.293828 -0.293828
0.00578407 -0.290225 -0.290225
-0.000283958 -0.286608 -0.286608
-0.000289066 -0.290209 -0.290209
-0.00639866 -0.293827 -0.293827
-0.00647124 -0.301121 -0.301121
0.00586179 -0.301139 -0.301139
0.00581016 -0.293845 -0.293845
-0.00643499 -0.297465 -0.297465
-0.000304704 -0.301122 -0.301122
0.00583606 -0.297483 -0.297483
-0.000294226 -0.293828 -0.293828
-0.000299438 -0.297466 -0.297466
-0.00647124 -0.301121 -0.301121
-0.00654353 -0.308489 -0.308489
0.0059127 -0.308507 -0.308507
0.00586179 -0.301139 -0.301139
-0.00650743 -0.304796 -0.304796
-0.000315393 -0.30849 -0.30849
0.00588734 -0.304814 -0.304814
-0.000304704 -0.301122 -0.301122
-0.000310022 -0.304797 -0.304797
-0.00654353 -0.308489 -0.308489
-0.00661552 -0.315929 -0.315929
0.00596289 -0.315947 -0.315947
0.0059127 -0.308507 -0.308507
-0.00657956 -0.3122 -0.3122
-0.000326293 -0.315931 -0.315931
0.00593788 -0.312218 -0.312218
-0.000315393 -0.30849 -0.30849
-0.000320816 -0.312201 -0.312201
-0.00661552 -0.315929 -0.315929
-0.00668721 -0.323441 -0.323441
0.00601235 -0.32346 -0.32346
0.00596289 -0.315947 -0.315947
-0.0066514 -0.319676 -0.319676
-0.000337404 -0.323443 -0.323443
0.00598771 -0.319695 -0.319695
-0.000326293 -0.315931 -0.315931
-0.000331822 -0.319678 -0.319678
-0.00668721 -0.323441 -0.323441
-0.0067586 -0.331025 -0.331025
0.0060611 -0.331044 -0.331044
0.00601235 -0.32346 -0.32346
-0.00672294 -0.327224 -0.327224
-0.000348727 -0.331027 -0.331027
0.00603681 -0.327243 -0.327243
-0.000337404 -0.323443 -0.323443
-0.000343039 -0.327226 -0.327226
-0.0067586 -0.331025 -0.331025
-0.00682969 -0.338679 -0.338679
0.00610911 -0.338699 -0.338699
0.0060611 -0.331044 -0.331044
-0.00679418 -0.334843 -0.334843
-0.000360262 -0.338681 -0.338681
0.0060852 -0.334863 -0.334863
-0.000348727 -0.331027 -0.331027
-0.000354468 -0.334845 -0.334845
-0.00682969 -0.338679 -0.338679
-0.00690048 -0.346404 -0.346404
0.00615641 -0.346424 -0.346424
0.00610911 -0.338699 -0.338699
-0.00686512 -0.342533 -0.342533
-0.000372009 -0.346406 -0.346406
0.00613285 -0.342553 -0.342553
-0.000360262 -0.338681 -0.338681
-0.000366109 -0.342535 -0.342535
-0.00690048 -0.346404 -0.346404
-0.00697097 -0.354198 -0.354198
0.00620298 -0.354218 -0.354218
0.00615641 -0.346424 -0.346424
-0.00693576 -0.350292 -0.350292
-0.000383968 -0.354201 -0.354201
0.00617979 -0.350312 -0.350312
-0.000372009 -0.346406 -0.346406
-0.000377962 -0.350295 -0.350295
-0.00697097 -0.354198 -0.354198
-0.00704116 -0.362061 -0.362061
0.00624883 -0.362082 -0.362082
0.00620298 -0.354218 -0.354218
-0.0070061 -0.358121 -0.358121
-0.000396139 -0.362064 -0.362064
0.006226 -0.358142 -0.358142
-0.000383968 -0.354201 -0.354201
-0.000390027 -0.358124 -0.358124
-0.00704116 -0.362061 -0.362061
-0.00711105 -0.369993 -0.369993
0.00629396 -0.370014 -0.370014
0.00624883 -0.362082 -0.362082
-0.00707614 -0.366019 -0.366019
-0.000408522 -0.369996 -0.369996
0.00627149 -0.36604 -0.36604
-0.000396139 -0.362064 -0.362064
-0.000402304 -0.366022 -0.366022
-0.00711105 -0.369993 -0.369993
-0.00718064 -0.377993 -0.377993
0.00633836 -0.378014 -0.378014
0.00629396 -0.370014 -0.370014
-0.00714588 -0.373985 -0.373985
-0.000421118 -0.377996 -0.377996
0.00631625 -0.374006 -0.374006
-0.000408522 -0.369996 -0.369996
-0.000414794 -0.373988 -0.373988
-0.00718064 -0.377993 -0.377993
-0.00724994 -0.38606 -0.38606
0.00638204 -0.386081 -0.386081
0.00633836 -0.378014 -0.378014
-0.00721533 -0.382018 -0.382018
-0.000433925 -0.386063 -0.386063
0.00636029 -0.382039 -0.382039
-0.000421118 -0.377996 -0.377996
-0.000427495 -0.382021 -0.382021
-0.00724994 -0.38606 -0.38606
-0.00731893 -0.394193 -0.394193
0.006425 -0.394215 -0.394215
0.00638204 -0.386081 -0.386081
-0.00728447 -0.390118 -0.390118
-0.000446944 -0.394197 -0.394197
0.00640361 -0.39014 -0.39014
-0.000433925 -0.386063 -0.386063
-0.000440408 -0.390122 -0.390122
-0.00731893 -0.394193 -0.394193
-0.00738763 -0.402392 -0.402392
0.00646723 -0.402415 -0.402415
0.006425 -0.394215 -0.394215
-0.00735332 -0.398284 -0.398284
-0.000460175 -0.402397 -0.402397
0.00644621 -0.398307 -0.398307
-0.000446944 -0.394197 -0.394197
-0.000453533 -0.398289 -0.398289
-0.00738763 -0.402392 -0.402392
-0.00745602 -0.410657 -0.410657
0.00650874 -0.41068 -0.41068
0.00646723 -0.402415 -0.402415
-0.00742186 -0.406517 -0.406517
-0.000473617 -0.410662 -0.410662
0.00648808 -0.406539 -0.406539
-0.000460175 -0.402397 -0.402397
-0.000466869 -0.406521 -0.406521
-0.00745602 -0.410657 -0.410657
-0.00752412 -0.418987 -0.418987
0.00654953 -0.41901 -0.41901
0.00650874 -0.41068 -0.41068
-0.00749011 -0.414814 -0.414814
-0.000487269 -0.418991 -0.418991
0.00652923 -0.414837 -0.414837
-0.000473617 -0.410662 -0.410662
-0.000480417 -0.414818 -0.414818
-0.00752412 -0.418987 -0.418987
-0.00759191 -0.42738 -0.42738
0.0065896 -0.427404 -0.427404
0.00654953 -0.41901 -0.41901
-0.00755805 -0.423175 -0.423175
-0.000501133 -0.427385 -0.427385
0.00656966 -0.423199 -0.423199
-0.000487269 -0.418991 -0.418991
-0.000494175 -0.42318 -0.42318
-0.00759191 -0.42738 -0.42738
-0.00765941 -0.435838 -0.435838
0.00662895 -0.435861 -0.435861
0.0065896 -0.427404 -0.427404
-0.0076257 -0.431601 -0.431601
-0.000515207 -0.435843 -0.435843
0.00660936 -0.431625 -0.431625
-0.000501133 -0.427385 -0.427385
-0.000508144 -0.431606 -0.431606
-0.00765941 -0.435838 -0.435838
-0.0077266 -0.444358 -0.444358
0.00666757 -0.444382 -0.444382
0.00662895 -0.435861 -0.435861
-0.00769304 -0.44009 -0.44009
-0.000529491 -0.444363 -0.444363
0.00664835 -0.440114 -0.440114
-0.000515207 -0.435843 -0.435843
-0.000522323 -0.440095 -0.440095
-0.0077266 -0.444358 -0.444358
-0.00779349 -0.452941 -0.452941
0.00670548 -0.452965 -0.452965
0.00666757 -0.444382 -0.444382
-0.00776008 -0.448641 -0.448641
-0.000543984 -0.452946 -0.452946
0.00668661 -0.448666 -0.448666
-0.000529491 -0.444363 -0.444363
-0.000536711 -0.448647 -0.448647
-0.00779349 -0.452941 -0.452941
-0.00786008 -0.461585 -0.461585
0.00674266 -0.46161 -0.46161
0.00670548 -0.452965 -0.452965
-0.00782682 -0.457255 -0.457255
-0.000558686 -0.461591 -0.461591
0.00672416 -0.45728 -0.45728
-0.000543984 -0.452946 -0.452946
-0.000551309 -0.457261 -0.457261
-0.00786008 -0.461585 -0.461585
-0.00792636 -0.47029 -0.47029
0.00677912 -0.470316 -0.470316
0.00674266 -0.46161 -0.46161
-0.00789326 -0.46593 -0.46593
-0.000573597 -0.470297 -0.470297
0.00676098 -0.465955 -0.465955
-0.000558686 -0.461591 -0.461591
-0.000566115 -0.465936 -0.465936
-0.00792636 -0.47029 -0.47029
-0.00799234 -0.479057 -0.479057
0.00681487 -0.479082 -0.479082
0.00677912 -0.470316 -0.470316
-0.00795939 -0.474666 -0.474666
-0.000588715 -0.479063 -0.479063
0.00679709 -0.474691 -0.474691
-0.000573597 -0.470297 -0.470297
-0.00058113 -0.474672 -0.474672
-0.00799234 -0.479057 -0.479057
-0.00805802 -0.487883 -0.487883
0.0068499 -0.487909 -0.487909
0.00681487 -0.479082 -0.479082
-0.00802522 -0.483462 -0.483462
-0.00060404 -0.487889 -0.487889
0.00683247 -0.483488 -0.483488
-0.000588715 -0.479063 -0.479063
-0.000596351 -0.483469 -0.483469
-0.00805802 -0.487883 -0.487883
-0.00812339 -0.496768 -0.496768
0.00688421 -0.496794 -0.496794
0.0068499 -0.487909 -0.487909
-0.00809075 -0.492318 -0.492318
-0.000619571 -0.496775 -0.496775
0.00686714 -0.492344 -0.492344
-0.00060404 -0.487889 -0.487889
-0.00061178 -0.492325 -0.492325
-0.00812339 -0.496768 -0.496768
-0.00818846 -0.505712 -0.505712
0.0069178 -0.505739 -0.505739
0.00688421 -0.496794 -0.496794
-0.00815597 -0.501233 -0.501233
-0.000635308 -0.505719 -0.505719
0.00690109 -0.501259 -0.501259
-0.000619571 -0.496775 -0.496775
-0.000627414 -0.50124 -0.50124
-0.00818846 -0.505712 -0.505712
-0.00825322 -0.514714 -0.514714
0.00695068 -0.514741 -0.514741
0.0069178 -0.505739 -0.505739
-0.00822088 -0.510206 -0.510206
-0.00065125 -0.514722 -0.514722
0.00693433 -0.510233 -0.510233
-0.000635308 -0.505719 -0.505719
-0.000643254 -0.510213 -0.510213
-0.00825322 -0.514714 -0.514714
-0.00831768 -0.523774 -0.523774
0.00698284 -0.523801 -0.523801
0.00695068 -0.514741 -0.514741
-0.00828549 -0.519237 -0.519237
-0.000667396 -0.523782 -0.523782
0.00696685 -0.519264 -0.519264
-0.00065125 -0.514722 -0.514722
-0.000659297 -0.519245 -0.519245
-0.00831768 -0.523774 -0.523774
-0.00838182 -0.532891 -0.532891
0.00701429 -0.532918 -0.532918
0.00698284 -0.523801 -0.523801
-0.00834979 -0.528325 -0.528325
-0.000683745 -0.532899 -0.532899
0.00699865 -0.528353 -0.528353
-0.000667396 -0.523782 -0.523782
-0.000675545 -0.528333 -0.528333
-0.00838182 -0.532891 -0.532891
-0.00844566 -0.542064 -0.542064
0.00704502 -0.542092 -0.542092
0.00701429 -0.532918 -0.532918
-0.00841378 -0.53747 -0.53747
-0.000700296 -0.542072 -0.542072
0.00702974 -0.537498 -0.537498
-0.000683745 -0.532899 -0.532899
-0.000691995 -0.537478 -0.537478
-0.00844566 -0.542064 -0.542064
-0.00850918 -0.551292 -0.551292
0.00707504 -0.551321 -0.551321
0.00704502 -0.542092 -0.542092
-0.00847746 -0.546671 -0.546671
-0.000717048 -0.551301 -0.551301
0.00706012 -0.546699 -0.546699
-0.000700296 -0.542072 -0.542072
-0.000708647 -0.546679 -0.546679
-0.00850918 -0.551292 -0.551292
-0.0085724 -0.560576 -0.560576
0.00710435 -0.560605 -0.560605
0.00707504 -0.551321 -0.551321
-0.00854083 -0.555927 -0.555927
-0.000734001 -0.560585 -0.560585
0.00708979 -0.555956 -0.555956
-0.000717048 -0.551301 -0.551301
-0.0007255 -0.555936 -0.555936
-0.0085724 -0.560576 -0.560576
-0.0086353 -0.569914 -0.569914
0.00713295 -0.569944 -0.569944
0.00710435 -0.560605 -0.560605
-0.00860389 -0.565239 -0.565239
-0.000751153 -0.569923 -0.569923
0.00711874 -0.565267 -0.565267
-0.000734001 -0.560585 -0.560585
-0.000742552 -0.565247 -0.565247
-0.0086353 -0.569914 -0.569914
-0.00869789 -0.579307 -0.579307
0.00716084 -0.579336 -0.579336
0.00713295 -0.569944 -0.569944
-0.00866664 -0.574604 -0.574604
-0.000768503 -0.579316 -0.579316
0.00714699 -0.574633 -0.574633
-0.000751153 -0.569923 -0.569923
-0.000759803 -0.574613 -0.574613
-0.00869789 -0.579307 -0.579307
-0.00876017 -0.588752 -0.588752
0.00718803 -0.588782 -0.588782
0.00716084 -0.579336 -0.579336
-0.00872907 -0.584023 -0.584023
-0.00078605 -0.588761 -0.588761
0.00717452 -0.584052 -0.584052
-0.000768503 -0.579316 -0.579316
-0.000777252 -0.584032 -0.584032
-0.00876017 -0.588752 -0.588752
-0.00882213 -0.59825 -0.59825
0.0072145 -0.59828 -0.59828
0.00718803 -0.588782 -0.588782
-0.00879119 -0.593495 -0.593495
-0.000803793 -0.59826 -0.59826
0.00720135 -0.593524 -0.593524
-0.00078605 -0.588761 -0.588761
-0.000794897 -0.593504 -0.593504
-0.00882213 -0.59825 -0.59825
-0.00888378 -0.6078 -0.6078
0.00724027 -0.607831 -0.607831
0.0072145 -0.59828 -0.59828
-0.00885299 -0.603019 -0.603019
-0.000821731 -0.60781 -0.60781
0.00722747 -0.603049 -0.603049
-0.000803793 -0.59826 -0.59826
-0.000812738 -0.603028 -0.603028
-0.00888378 -0.6078 -0.6078
-0.0089451 -0.617402 -0.617402
0.00726533 -0.617433 -0.617433
0.00724027 -0.607831 -0.607831
-0.00891448 -0.612595 -0.612595
-0.000839863 -0.617412 -0.617412
0.00725289 -0.612625 -0.612625
-0.000821731 -0.60781 -0.60781
-0.000830773 -0.612605 -0.612605
-0.0089451 -0.617402 -0.617402
-0.00900611 -0.627055 -0.627055
0.0072897 -0.627086 -0.627086
0.00726533 -0.617433 -0.617433
-0.00897565 -0.622222 -0.622222
-0.000858187 -0.627065 -0.627065
0.0072776 -0.622253 -0.622253
-0.000839863 -0.617412 -0.617412
-0.000849001 -0.622232 -0.622232
-0.00900611 -0.627055 -0.627055
-0.0090668 -0.636757 -0.636757
0.00731335 -0.636789 -0.636789
0.0072897 -0.627086 -0.627086
-0.00903649 -0.6319 -0.6319
-0.000876701 -0.636768 -0.636768
0.00730161 -0.631931 -0.631931
-0.000858187 -0.627065 -0.627065
-0.00086742 -0.63191 -0.63191
-0.0090668 -0.636757 -0.636757
-0.00912717 -0.64651 -0.64651
0.00733631 -0.646541 -0.646541
0.00731335 -0.636789 -0.636789
-0.00909702 -0.641627 -0.641627
-0.000895406 -0.64652 -0.64652
0.00732492 -0.641659 -0.641659
-0.000876701 -0.636768 -0.636768
-0.00088603 -0.641638 -0.641638
-0.00912717 -0.64651 -0.64651
-0.00918721 -0.656311 -0.656311
0.00735857 -0.656343 -0.656343
0.00733631 -0.646541 -0.646541
-0.00915723 -0.651404 -0.651404
-0.000914299 -0.656322 -0.656322
0.00734753 -0.651436 -0.651436
-0.000895406 -0.64652 -0.64652
-0.000904829 -0.651415 -0.651415
-0.00918721 -0.656311 -0.656311
-0.00924693 -0.666161 -0.666161
0.00738013 -0.666193 -0.666193
0.00735857 -0.656343 -0.656343
-0.00921711 -0.66123 -0.66123
-0.000933378 -0.666172 -0.666172
0.00736944 -0.661262 -0.661262
-0.000914299 -0.656322 -0.656322
-0.000923815 -0.661241 -0.661241
-0.00924693 -0.666161 -0.666161
-0.00930632 -0.676059 -0.676059
0.00740099 -0.676092 -0.676092
0.00738013 -0.666193 -0.666193
-0.00927667 -0.671104 -0.671104
-0.000952644 -0.67607 -0.67607
0.00739065 -0.671137 -0.671137
-0.000933378 -0.666172 -0.666172
-0.000942988 -0.671115 -0.671115
-0.00930632 -0.676059 -0.676059
-0.00936539 -0.686004 -0.686004
0.00742116 -0.686037 -0.686037
0.00740099 -0.676092 -0.676092
-0.0093359 -0.681026 -0.681026
-0.000972093 -0.686015 -0.686015
0.00741117 -0.681058 -0.681058
-0.000952644 -0.67607 -0.67607
-0.000962345 -0.681037 -0.681037
-0.00936539 -0.686004 -0.686004
-0.00942413 -0.695996 -0.695996
0.00744064 -0.696029 -0.696029
0.00742116 -0.686037 -0.686037
-0.0093948 -0.690994 -0.690994
-0.000991725 -0.696007 -0.696007
0.00743099 -0.691027 -0.691027
-0.000972093 -0.686015 -0.686015
-0.000981886 -0.691005 -0.691005
-0.00942413 -0.695996 -0.695996
-0.00948253 -0.706033 -0.706033
0.00745942 -0.706067 -0.706067
0.00744064 -0.696029 -0.696029
-0.00945337 -0.701009 -0.701009
-0.00101154 -0.706045 -0.706045
0.00745011 -0.701042 -0.701042
-0.000991725 -0.696007 -0.696007
-0.00100161 -0.70102 -0.70102
-0.00948253 -0.706033 -0.706033
-0.00954061 -0.716116 -0.716116
0.00747751 -0.71615 -0.71615
0.00745942 -0.706067 -0.706067
-0.00951161 -0.711069 -0.711069
-0.00103153 -0.716128 -0.716128
0.00746855 -0.711103 -0.711103
-0.00101154 -0.706045 -0.706045
-0.00102151 -0.711081 -0.711081
-0.00954061 -0.716116 -0.716116
-0.00959835 -0.726244 -0.726244
0.00749491 -0.726278 -0.726278
0.00747751 -0.71615 -0.71615
-0.00956952 -0.721175 -0.721175
-0.0010517 -0.726256 -0.726256
0.0074863 -0.721208 -0.721208
-0.00103153 -0.716128 -0.716128
-0.00104159 -0.721187 -0.721187
-0.00959835 -0.726244 -0.726244
-0.00965576 -0.736416 -0.736416
0.00751163 -0.73645 -0.73645
0.00749491 -0.726278 -0.726278
-0.0096271 -0.731325 -0.731325
-0.00107205 -0.736429 -0.736429
0.00750336 -0.731359 -0.731359
-0.0010517 -0.726256 -0.726256
-0.00106185 -0.731337 -0.731337
-0.00965576 -0.736416 -0.736416
-0.00971283 -0.746632 -0.746632
0.00752766 -0.746666 -0.746666
0.00751163 -0.73645 -0.73645
-0.00968434 -0.741518 -0.741518
-0.00109257 -0.746644 -0.746644
0.00751973 -0.741553 -0.741553
-0.00107205 -0.736429 -0.736429
-0.00108228 -0.741531 -0.741531
-0.00971283 -0.746632 -0.746632
-0.00976956 -0.75689 -0.75689
0.007543 -0.756925 -0.756925
0.00752766 -0.746666 -0.746666
-0.00974124 -0.751756 -0.751756
-0.00111326 -0.756903 -0.756903
0.00753542 -0.75179 -0.75179
-0.00109257 -0.746644 -0.746644
-0.00110289 -0.751768 -0.751768
-0.00976956 -0.75689 -0.75689
-0.00982596 -0.767191 -0.767191
0.00755767 -0.767227 -0.767227
0.007543 -0.756925 -0.756925
-0.0097978 -0.762035 -0.762035
-0.00113413 -0.767204 -0.767204
0.00755042 -0.762071 -0.762071
-0.00111326 -0.756903 -0.756903
-0.00112367 -0.762049 -0.762049
-0.00982596 -0.767191 -0.767191
-0.00988201 -0.777534 -0.777534
0.00757165 -0.77757 -0.77757
0.00755767 -0.767227 -0.767227
-0.00985402 -0.772357 -0.772357
-0.00115516 -0.777547 -0.777547
0.00756474 -0.772393 -0.772393
-0.00113413 -0.767204 -0.767204
-0.00114462 -0.772371 -0.772371
-0.00988201 -0.777534 -0.777534
-0.00993771 -0.787918 -0.787918
0.00758495 -0.787954 -0.787954
0.00757165 -0.77757 -0.77757
-0.0099099 -0.782721 -0.782721
-0.00117636 -0.787932 -0.787932
0.00757839 -0.782757 -0.782757
-0.00115516 -0.777547 -0.777547
-0.00116574 -0.782734 -0.782734
-0.00993771 -0.787918 -0.787918
-0.00999307 -0.798343 -0.798343
0.00759758 -0.798379 -0.798379
0.00758495 -0.787954 -0.787954
-0.00996544 -0.793125 -0.793125
-0.00119773 -0.798356 -0.798356
0.00759135 -0.793161 -0.793161
-0.00117636 -0.787932 -0.787932
-0.00118702 -0.793139 -0.793139
-0.00999307 -0.798343 -0.798343
-0.0100481 -0.808807 -0.808807
0.00760953 -0.808843 -0.808843
0.00759758 -0.798379 -0.798379
-0.0100206 -0.80357 -0.80357
-0.00121926 -0.808821 -0.808821
0.00760364 -0.803606 -0.803606
-0.00119773 -0.798356 -0.798356
-0.00120847 -0.803584 -0.803584
-0.0100481 -0.808807 -0.808807
-0.0101028 -0.819311 -0.819311
0.00762081 -0.819347 -0.819347
0.00760953 -0.808843 -0.808843
-0.0100755 -0.814054 -0.814054
-0.00124095 -0.819325 -0.819325
0.00761526 -0.814091 -0.814091
-0.00121926 -0.808821 -0.808821
-0.00123009 -0.814068 -0.814068
-0.0101028 -0.819311 -0.819311
-0.0101571 -0.829853 -0.829853
0.00763142 -0.82989 -0.82989
0.00762081 -0.819347 -0.819347
-0.01013 -0.824577 -0.824577
-0.00126281 -0.829868 -0.829868
0.0076262 -0.824614 -0.824614
-0.00124095 -0.819325 -0.819325
-0.00125186 -0.824592 -0.824592
-0.0101571 -0.829853 -0.829853
-0.010211 -0.840434 -0.840434
0.00764136 -0.840471 -0.840471
0.00763142 -0.82989 -0.82989
-0.0101841 -0.835139 -0.835139
-0.00128482 -0.840449 -0.840449
0.00763647 -0.835176 -0.835176
-0.00126281 -0.829868 -0.829868
-0.00127379 -0.835154 -0.835154
-0.010211 -0.840434 -0.840434
-0.0102646 -0.851052 -0.851052
0.00765063 -0.85109 -0.85109
0.00764136 -0.840471 -0.840471
-0.0102379 -0.845739 -0.845739
-0.00130699 -0.851067 -0.851067
0.00764607 -0.845776 -0.845776
-0.00128482 -0.840449 -0.840449
-0.00129588 -0.845753 -0.845753
-0.0102646 -0.851052 -0.851052
-0.0103179 -0.861708 -0.861708
0.00765923 -0.861745 -0.861745
0.00765063 -0.85109 -0.85109
-0.0102913 -0.856375 -0.856375
-0.00132931 -0.861723 -0.861723
0.00765501 -0.856413 -0.856413
-0.00130699 -0.851067 -0.851067
-0.00131813 -0.85639 -0.85639
-0.0103179 -0.861708 -0.861708
-0.0103708 -0.872399 -0.872399
0.00766717 -0.872437 -0.872437
0.00765923 -0.861745 -0.861745
-0.0103444 -0.867049 -0.867049
-0.00135179 -0.872414 -0.872414
0.00766328 -0.867087 -0.867087
-0.00132931 -0.861723 -0.861723
-0.00134053 -0.867064 -0.867064
-0.0103708 -0.872399 -0.872399
-0.0104233 -0.883126 -0.883126
0.00767445 -0.883165 -0.883165
0.00766717 -0.872437 -0.872437
-0.0103971 -0.877758 -0.877758
-0.00137441 -0.883142 -0.883142
0.00767089 -0.877797 -0.877797
-0.00135179 -0.872414 -0.872414
-0.00136308 -0.877774 -0.877774
-0.0104233 -0.883126 -0.883126
-0.0104755 -0.893889 -0.893889
0.00768107 -0.893927 -0.893927
0.00767445 -0.883165 -0.883165
-0.0104494 -0.888503 -0.888503
-0.00139718 -0.893904 -0.893904
0.00767784 -0.888542 -0.888542
-0.00137441 -0.883142 -0.883142
-0.00138578 -0.888519 -0.888519
-0.0104755 -0.893889 -0.893889
-0.0105273 -0.904686 -0.904686
0.00768703 -0.904724 -0.904724
0.00768107 -0.893927 -0.893927
-0.0105014 -0.899283 -0.899283
-0.0014201 -0.904702 -0.904702
0.00768413 -0.899322 -0.899322
-0.00139718 -0.893904 -0.893904
-0.00140863 -0.899299 -0.899299
-0.0105273 -0.904686 -0.904686
-0.0105787 -0.915517 -0.915517
0.00769234 -0.915556 -0.915556
0.00768703 -0.904724 -0.904724
-0.010553 -0.910097 -0.910097
-0.00144317 -0.915533 -0.915533
0.00768977 -0.910136 -0.910136
-0.0014201 -0.904702 -0.904702
-0.00143162 -0.910113 -0.910113
-0.0105787 -0.915517 -0.915517
-0.0106298 -0.926381 -0.926381
0.007697 -0.92642 -0.92642
0.00769234 -0.915556 -0.915556
-0.0106043 -0.920945 -0.920945
-0.00146637 -0.926397 -0.926397
0.00769475 -0.920984 -0.920984
-0.00144317 -0.915533 -0.915533
-0.00145475 -0.920961 -0.920961
-0.0106298 -0.926381 -0.926381
-0.0106805 -0.937278 -0.937278
0.007701 -0.937317 -0.937317
0.007697 -0.92642 -0.92642
-0.0106552 -0.931825 -0.931825
-0.00148972 -0.937294 -0.937294
0.00769908 -0.931864 -0.931864
-0.00146637 -0.926397 -0.926397
-0.00147803 -0.931841 -0.931841
-0.0106805 -0.937278 -0.937278
-0.0107308 -0.948206 -0.948206
0.00770435 -0.948246 -0.948246
0.007701 -0.937317 -0.937317
-0.0107057 -0.942738 -0.942738
-0.0015132 -0.948223 -0.948223
0.00770276 -0.942778 -0.942778
-0.00148972 -0.937294 -0.937294
-0.00150144 -0.942754 -0.942754
-0.0107308 -0.948206 -0.948206
-0.0107807 -0.959167 -0.959167
0.00770706 -0.959207 -0.959207
0.00770435 -0.948246 -0.948246
-0.0107558 -0.953683 -0.953683
-0.00153682 -0.959183 -0.959183
0.00770579 -0.953722 -0.953722
-0.0015132 -0.948223 -0.948223
-0.00152499 -0.953699 -0.953699
-0.0107807 -0.959167 -0.959167
-0.0108303 -0.970158 -0.970158
0.00770913 -0.970198 -0.970198
0.00770706 -0.959207 -0.959207
-0.0108056 -0.964659 -0.964659
-0.00156057 -0.970175 -0.970175
0.00770817 -0.964699 -0.964699
-0.00153682 -0.959183 -0.959183
-0.00154868 -0.964675 -0.964675
-0.0108303 -0.970158 -0.970158
-0.0108795 -0.98118 -0.98118
0.00771055 -0.98122 -0.98122
0.00770913 -0.970198 -0.970198
-0.0108549 -0.975665 -0.975665
-0.00158445 -0.981197 -0.981197
0.00770992 -0.975705 -0.975705
-0.00156057 -0.970175 -0.970175
-0.0015725 -0.975682 -0.975682
-0.0108795 -0.98118 -0.98118
-0.0109283 -0.992231 -0.992231
0.00771133 -0.992271 -0.992271
0.00771055 -0.98122 -0.98122
-0.0109039 -0.986702 -0.986702
-0.00160847 -0.992248 -0.992248
0.00771102 -0.986742 -0.986742
-0.00158445 -0.981197 -0.981197
-0.00159644 -0.986719 -0.986719
-0.0109283 -0.992231 -0.992231
-0.0109767 -1.00331 -1.00331
0.00771147 -1.00335 -1.00335
0.00771133 -0.992271 -0.992271
-0.0109525 -0.997767 -0.997767
-0.0016326 -1.00333 -1.00333
0.00771148 -0.997808 -0.997808
-0.00160847 -0.992248 -0.992248
-0.00162052 -0.997785 -0.997785
-0.0109767 -1.00331 -1.00331
-0.0110247 -1.01442 -1.01442
0.00771098 -1.01446 -1.01446
0.00771147 -1.00335 -1.00335
-0.0110008 -1.00886 -1.00886
-0.00165686 -1.01444 -1.01444
0.00771131 -1.0089 -1.0089
-0.0016326 -1.00333 -1.00333
-0.00164472 -1.00888 -1.00888
-0.0110247 -1.01442 -1.01442
-0.0110724 -1.02556 -1.02556
0.00770986 -1.0256 -1.0256
0.00771098 -1.01446 -1.01446
-0.0110486 -1.01998 -1.01998
-0.00168125 -1.02557 -1.02557
0.0077105 -1.02003 -1.02003
-0.00165686 -1.01444 -1.01444
-0.00166904 -1.02 -1.02
-0.0110724 -1.02556 -1.02556
-0.0111196 -1.03672 -1.03672
0.00770811 -1.03676 -1.03676
0.00770986 -1.0256 -1.0256
-0.0110961 -1.03114 -1.03114
-0.00170575 -1.03674 -1.03674
0.00770906 -1.03118 -1.03118
-0.00168125 -1.02557 -1.02557
-0.00169348 -1.03115 -1.03115
-0.0111196 -1.03672 -1.03672
-0.0111665 -1.04791 -1.04791
0.00770572 -1.04795 -1.04795
0.00770811 -1.03676 -1.03676
-0.0111431 -1.04231 -1.04231
-0.00173037 -1.04793 -1.04793
0.00770699 -1.04235 -1.04235
-0.00170575 -1.03674 -1.03674
-0.00171804 -1.04233 -1.04233
-0.0111665 -1.04791 -1.04791
-0.0112129 -1.05913 -1.05913
0.00770272 -1.05917 -1.05917
0.00770572 -1.04795 -1.04795
-0.0111898 -1.05352 -1.05352
-0.0017551 -1.05915 -1.05915
0.0077043 -1.05356 -1.05356
-0.00173037 -1.04793 -1.04793
-0.00174272 -1.05353 -1.05353
-0.0112129 -1.05913 -1.05913
-0.011259 -1.07037 -1.07037
0.00769908 -1.07041 -1.07041
0.00770272 -1.05917 -1.05917
-0.011236 -1.06475 -1.06475
-0.00177995 -1.07039 -1.07039
0.00770098 -1.06479 -1.06479
-0.0017551 -1.05915 -1.05915
-0.00176751 -1.06476 -1.06476
-0.011259 -1.07037 -1.07037
-0.0113047 -1.08164 -1.08164
0.00769483 -1.08168 -1.08168
0.00769908 -1.07041 -1.07041
-0.0112819 -1.076 -1.076
-0.0018049 -1.08165 -1.08165
0.00769704 -1.07604 -1.07604
-0.00177995 -1.07039 -1.07039
-0.00179241 -1.07602 -1.07602
-0.0113047 -1.08164 -1.08164
-0.0113499 -1.09293 -1.09293
0.00768996 -1.09297 -1.09297
0.00769483 -1.08168 -1.08168
-0.0113273 -1.08728 -1.08728
-0.00182997 -1.09295 -1.09295
0.00769247 -1.08732 -1.08732
-0.0018049 -1.08165 -1.08165
-0.00181742 -1.0873 -1.0873
-0.0113499 -1.09293 -1.09293
-0.0113948 -1.10424 -1.10424
0.00768447 -1.10428 -1.10428
0.00768996 -1.09297 -1.09297
-0.0113724 -1.09858 -1.09858
-0.00185514 -1.10426 -1.10426
0.00768729 -1.09862 -1.09862
-0.00182997 -1.09295 -1.09295
-0.00184254 -1.0986 -1.0986
-0.0113948 -1.10424 -1.10424
-0.0114392 -1.11558 -1.11558
0.00767837 -1.11562 -1.11562
0.00768447 -1.10428 -1.10428
-0.011417 -1.10991 -1.10991
-0.00188041 -1.1156 -1.1156
0.0076815 -1.10995 -1.10995
-0.00185514 -1.10426 -1.10426
-0.00186776 -1.10993 -1.10993
-0.0114392 -1.11558 -1.11558
-0.0114832 -1.12694 -1.12694
0.00767166 -1.12698 -1.12698
0.00767837 -1.11562 -1.11562
-0.0114613 -1.12126 -1.12126
-0.00190578 -1.12696 -1.12696
0.00767509 -1.1213 -1.1213
-0.00188041 -1.1156 -1.1156
-0.00189308 -1.12128 -1.12128
-0.0114832 -1.12694 -1.12694
-0.0115269 -1.13832 -1.13832
0.00766434 -1.13836 -1.13836
0.00767166 -1.12698 -1.12698
-0.0115051 -1.13263 -1.13263
-0.00193124 -1.13834 -1.13834
0.00766808 -1.13267 -1.13267
-0.00190578 -1.12696 -1.12696
-0.0019185 -1.13265 -1.13265
-0.0115269 -1.13832 -1.13832
-0.01157 -1.14972 -1.14972
0.00765642 -1.14977 -1.14977
0.00766434 -1.13836 -1.13836
-0.0115485 -1.14402 -1.14402
-0.00195681 -1.14974 -1.14974
0.00766045 -1.14406 -1.14406
-0.00193124 -1.13834 -1.13834
-0.00194401 -1.14404 -1.14404
-0.01157 -1.14972 -1.14972
-0.0116128 -1.16115 -1.16115
0.00764789 -1.16119 -1.16119
0.00765642 -1.14977 -1.14977
-0.0115915 -1.15543 -1.15543
-0.00198246 -1.16117 -1.16117
0.00765223 -1.15548 -1.15548
-0.00195681 -1.14974 -1.14974
-0.00196962 -1.15545 -1.15545
-0.0116128 -1.16115 -1.16115
-0.0116552 -1.17259 -1.17259
0.00763875 -1.17263 -1.17263
0.00764789 -1.16119 -1.16119
-0.0116341 -1.16687 -1.16687
-0.00200821 -1.17261 -1.17261
0.0076434 -1.16691 -1.16691
-0.00198246 -1.16117 -1.16117
-0.00199532 -1.16689 -1.16689
-0.0116552 -1.17259 -1.17259
-0.0116971 -1.18405 -1.18405
0.00762903 -1.1841 -1.1841
0.00763875 -1.17263 -1.17263
-0.0116762 -1.17832 -1.17832
-0.00203404 -1.18407 -1.18407
0.00763396 -1.17836 -1.17836
-0.00200821 -1.17261 -1.17261
-0.00202111 -1.17834 -1.17834
-0.0116971 -1.18405 -1.18405
-0.0117386 -1.19554 -1.19554
0.0076187 -1.19558 -1.19558
0.00762903 -1.1841 -1.1841
-0.0117179 -1.18979 -1.18979
-0.00205995 -1.19556 -1.19556
0.00762394 -1.18984 -1.18984
-0.00203404 -1.18407 -1.18407
-0.00204699 -1.18981 -1.18981
-0.0117386 -1.19554 -1.19554
-0.0117797 -1.20704 -1.20704
0.00760778 -1.20708 -1.20708
0.0076187 -1.19558 -1.19558
-0.0117592 -1.20128 -1.20128
-0.00208595 -1.20706 -1.20706
0.00761332 -1.20133 -1.20133
-0.00205995 -1.19556 -1.19556
-0.00207294 -1.2013 -1.2013
-0.0117797 -1.20704 -1.20704
-0.0118204 -1.21855 -1.21855
0.00759627 -1.2186 -1.2186
0.00760778 -1.20708 -1.20708
-0.0118001 -1.21279 -1.21279
-0.00211203 -1.21857 -1.21857
0.0076021 -1.21284 -1.21284
-0.00208595 -1.20706 -1.20706
-0.00209898 -1.21281 -1.21281
-0.0118204 -1.21855 -1.21855
-0.0118606 -1.23009 -1.23009
0.00758418 -1.23013 -1.23013
0.00759627 -1.2186 -1.2186
-0.0118405 -1.22432 -1.22432
-0.00213819 -1.23011 -1.23011
0.0075903 -1.22436 -1.22436
-0.00211203 -1.21857 -1.21857
-0.0021251 -1.22434 -1.22434
-0.0118606 -1.23009 -1.23009
-0.0119003 -1.24164 -1.24164
0.0075715 -1.24168 -1.24168
0.00758418 -1.23013 -1.23013
-0.0118805 -1.23586 -1.23586
-0.00216441 -1.24166 -1.24166
0.00757791 -1.23591 -1.23591
-0.00213819 -1.23011 -1.23011
-0.00215129 -1.23588 -1.23588
-0.0119003 -1.24164 -1.24164
-0.0119397 -1.25321 -1.25321
0.00755823 -1.25325 -1.25325
0.0075715 -1.24168 -1.24168
-0.0119201 -1.24742 -1.24742
-0.00219071 -1.25323 -1.25323
0.00756494 -1.24746 -1.24746
-0.00216441 -1.24166 -1.24166
-0.00217756 -1.24744 -1.24744
-0.0119397 -1.25321 -1.25321
-0.0119786 -1.26479 -1.26479
0.00754439 -1.26483 -1.26483
0.00755823 -1.25325 -1.25325
-0.0119592 -1.25899 -1.25899
-0.00221708 -1.26481 -1.26481
0.00755138 -1.25904 -1.25904
-0.00219071 -1.25323 -1.25323
-0.00220389 -1.25901 -1.25901
-0.0119786 -1.26479 -1.26479
-0.012017 -1.27638 -1.27638
0.00752996 -1.27643 -1.27643
0.00754439 -1.26483 -1.26483
-0.0119978 -1.27058 -1.27058
-0.00224352 -1.2764 -1.2764
0.00753725 -1.27063 -1.27063
-0.00221708 -1.26481 -1.26481
-0.00223029 -1.2706 -1.2706
-0.012017 -1.27638 -1.27638
-0.012055 -1.28799 -1.28799
0.00751497 -1.28804 -1.28804
0.00752996 -1.27643 -1.27643
-0.0120361 -1.28219 -1.28219
-0.00227002 -1.28801 -1.28801
0.00752254 -1.28223 -1.28223
-0.00224352 -1.2764 -1.2764
-0.00225676 -1.28221 -1.28221
-0.012055 -1.28799 -1.28799
-0.0120926 -1.29962 -1.29962
0.0074994 -1.29966 -1.29966
0.00751497 -1.28804 -1.28804
-0.0120738 -1.2938 -1.2938
-0.00229658 -1.29964 -1.29964
0.00750726 -1.29385 -1.29385
-0.00227002 -1.28801 -1.28801
-0.00228329 -1.29382 -1.29382
-0.0120926 -1.29962 -1.29962
-0.0121297 -1.31125 -1.31125
0.00748326 -1.3113 -1.3113
0.0074994 -1.29966 -1.29966
-0.0121112 -1.30543 -1.30543
-0.00232319 -1.31127 -1.31127
0.0074914 -1.30548 -1.30548
-0.00229658 -1.29964 -1.29964
-0.00230988 -1.30545 -1.30545
-0.0121297 -1.31125 -1.31125
-0.0121663 -1.3229 -1.3229
0.00746656 -1.32295 -1.32295
0.00748326 -1.3113 -1.3113
-0.012148 -1.31708 -1.31708
-0.00234987 -1.32292 -1.32292
0.00747498 -1.31712 -1.31712
-0.00232319 -1.31127 -1.31127
-0.00233652 -1.3171 -1.3171
-0.0121663 -1.3229 -1.3229
-0.0122025 -1.33456 -1.33456
0.00744929 -1.33461 -1.33461
0.00746656 -1.32295 -1.32295
-0.0121845 -1.32873 -1.32873
-0.00237659 -1.33458 -1.33458
0.00745799 -1.32877 -1.32877
-0.00234987 -1.32292 -1.32292
-0.00236322 -1.32875 -1.32875
-0.0122025 -1.33456 -1.33456
-0.0122382 -1.34623 -1.34623
0.00743146 -1.34628 -1.34628
0.00744929 -1.33461 -1.33461
-0.0122204 -1.34039 -1.34039
-0.00240337 -1.34625 -1.34625
0.00744044 -1.34044 -1.34044
-0.00237659 -1.33458 -1.33458
-0.00238997 -1.34042 -1.34042
-0.0122382 -1.34623 -1.34623
-0.0122735 -1.35791 -1.35791
0.00741307 -1.35796 -1.35796
0.00743146 -1.34628 -1.34628
-0.0122559 -1.35207 -1.35207
-0.00243019 -1.35793 -1.35793
0.00742234 -1.35212 -1.35212
-0.00240337 -1.34625 -1.34625
-0.00241677 -1.35209 -1.35209
-0.0122735 -1.35791 -1.35791
-0.0123083 -1.3696 -1.3696
0.00739413 -1.36965 -1.36965
0.00741307 -1.35796 -1.35796
-0.0122909 -1.36376 -1.36376
-0.00245706 -1.36962 -1.36962
0.00740367 -1.3638 -1.3638
-0.00243019 -1.35793 -1.35793
-0.00244362 -1.36378 -1.36378
-0.0123083 -1.3696 -1.3696
-0.0123426 -1.3813 -1.3813
0.00737463 -1.38135 -1.38135
0.00739413 -1.36965 -1.36965
-0.0123255 -1.37545 -1.37545
-0.00248397 -1.38132 -1.38132
0.00738445 -1.3755 -1.3755
-0.00245706 -1.36962 -1.36962
-0.00247051 -1.37547 -1.37547
-0.0123426 -1.3813 -1.3813
-0.0123764 -1.39301 -1.39301
0.00735458 -1.39306 -1.39306
0.00737463 -1.38135 -1.38135
-0.0123596 -1.38716 -1.38716
-0.00251092 -1.39303 -1.39303
0.00736468 -1.3872 -1.3872
-0.00248397 -1.38132 -1.38132
-0.00249744 -1.38718 -1.38718
-0.0123764 -1.39301 -1.39301
-0.0124098 -1.40473 -1.40473
0.00733399 -1.40477 -1.40477
0.00735458 -1.39306 -1.39306
-0.0123932 -1.39887 -1.39887
-0.0025379 -1.40475 -1.40475
0.00734435 -1.39891 -1.39891
-0.00251092 -1.39303 -1.39303
-0.0025244 -1.39889 -1.39889
-0.0124098 -1.40473 -1.40473
-0.0124427 -1.41645 -1.41645
0.00731284 -1.4165 -1.4165
0.00733399 -1.40477 -1.40477
-0.0124263 -1.41059 -1.41059
-0.00256492 -1.41647 -1.41647
0.00732348 -1.41063 -1.41063
-0.0025379 -1.40475 -1.40475
-0.00255141 -1.41061 -1.41061
-0.0124427 -1.41645 -1.41645
-0.0124751 -1.42818 -1.42818
0.00729113 -1.42823 -1.42823
0.00731284 -1.4165 -1.4165
-0.0124589 -1.42231 -1.42231
-0.00259197 -1.4282 -1.4282
0.00730205 -1.42236 -1.42236
-0.00256492 -1.41647 -1.41647
-0.00257844 -1.42234 -1.42234
-0.0124751 -1.42818 -1.42818
-0.012507 -1.43992 -1.43992
0.00726886 -1.43996 -1.43996
0.00729113 -1.42823 -1.42823
-0.0124911 -1.43405 -1.43405
-0.00261905 -1.43994 -1.43994
0.00728007 -1.43409 -1.43409
-0.00259197 -1.4282 -1.4282
-0.0026055 -1.43407 -1.43407
-0.012507 -1.43992 -1.43992
-0.0125383 -1.45166 -1.45166
0.00724601 -1.4517 -1.4517
0.00726886 -1.43996 -1.43996
-0.0125227 -1.44579 -1.44579
-0.00264615 -1.45168 -1.45168
0.00725751 -1.44583 -1.44583
-0.00261905 -1.43994 -1.43994
-0.0026326 -1.44581 -1.44581
-0.0125383 -1.45166 -1.45166
-0.0125691 -1.46341 -1.46341
0.00722254 -1.46345 -1.46345
0.00724601 -1.4517 -1.4517
-0.0125538 -1.45753 -1.45753
-0.00267328 -1.46343 -1.46343
0.00723436 -1.45758 -1.45758
-0.00264615 -1.45168 -1.45168
-0.00265971 -1.45755 -1.45755
-0.0125691 -1.46341 -1.46341
-0.0125993 -1.47516 -1.47516
0.00719843 -1.4752 -1.4752
0.00722254 -1.46345 -1.46345
-0.0125843 -1.46928 -1.46928
-0.00270043 -1.47518 -1.47518
0.00721057 -1.46933 -1.46933
-0.00267328 -1.46343 -1.46343
-0.00268685 -1.4693 -1.4693
-0.0125993 -1.47516 -1.47516
-0.0126288 -1.48691 -1.48691
0.0071736 -1.48696 -1.48696
0.00719843 -1.4752 -1.4752
-0.0126141 -1.48103 -1.48103
-0.0027276 -1.48693 -1.48693
0.0071861 -1.48108 -1.48108
-0.00270043 -1.47518 -1.47518
-0.00271401 -1.48106 -1.48106
-0.0126288 -1.48691 -1.48691
-0.0126577 -1.49867 -1.49867
0.00714808 -1.49871 -1.49871
0.0071736 -1.48696 -1.48696
-0.0126433 -1.49279 -1.49279
-0.00275479 -1.49869 -1.49869
0.00716093 -1.49284 -1.49284
-0.0027276 -1.48693 -1.48693
-0.00274119 -1.49281 -1.49281
-0.0126577 -1.49867 -1.49867
-0.0126859 -1.51043 -1.51043
0.0071219 -1.51047 -1.51047
0.00714808 -1.49871 -1.49871
-0.0126718 -1.50455 -1.50455
-0.00278198 -1.51045 -1.51045
0.00713505 -1.50459 -1.50459
-0.00275479 -1.49869 -1.49869
-0.00276838 -1.50457 -1.50457
-0.0126859 -1.51043 -1.51043
-0.0127137 -1.52219 -1.52219
0.00709538 -1.52223 -1.52223
0.0071219 -1.51047 -1.51047
-0.0126998 -1.51631 -1.51631
-0.00280918 -1.52221 -1.52221
0.00710867 -1.51635 -1.51635
-0.00278198 -1.51045 -1.51045
-0.00279558 -1.51633 -1.51633
-0.0127137 -1.52219 -1.52219
-0.0127415 -1.53395 -1.53395
0.00706877 -1.53399 -1.53399
0.00709538 -1.52223 -1.52223
-0.0127276 -1.52807 -1.52807
-0.00283636 -1.53397 -1.53397
0.00708205 -1.52811 -1.52811
-0.00280918 -1.52221 -1.52221
-0.00282277 -1.52809 -1.52809
-0.0127415 -1.53395 -1.53395
-0.0127698 -1.5457 -1.5457
0.00704274 -1.54574 -1.54574
0.00706877 -1.53399 -1.53399
-0.0127556 -1.53982 -1.53982
-0.0028635 -1.54572 -1.54572
0.00705567 -1.53987 -1.53987
-0.00283636 -1.53397 -1.53397
-0.00284994 -1.53985 -1.53985
0 0 0
8.75564e-05 1.42026e-05 1.42026e-05
0.000266346 -2.75242e-05 -2.75242e-05
0 0 0
4.35799e-05 2.86378e-05 2.86378e-05
0.000176286 -1.46205e-06 -1.46205e-06
0.000129122 8.05365e-06 8.05365e-06
0 0 0
8.55667e-05 2.16293e-05 2.16293e-05
8.75564e-05 1.42026e-05 1.42026e-05
0.000182374 -0.000134855 -0.000134855
0.000553051 -0.000207378 -0.000207378
0.000266346 -2.75242e-05 -2.75242e-05
0.000134081 -4.12097e-05 -4.12097e-05
0.000366024 -0.000161133 -0.000161133
0.000407911 -0.000100209 -0.000100209
0.000176286 -1.46205e-06 -1.46205e-06
0.000269964 -6.30791e-05 -6.30791e-05
0.000182374 -0.000134855 -0.000134855
0.000280591 -0.000427143 -0.000427143
0.000851687 -0.00051846 -0.00051846
0.000553051 -0.000207378 -0.000207378
0.000231221 -0.000264067 -0.000264067
0.000563741 -0.000460803 -0.000460803
0.000701462 -0.00034737 -0.00034737
0.000366024 -0.000161133 -0.000161133
0.000464185 -0.000294375 -0.000294375
0.000280591 -0.000427143 -0.000427143
0.000380922 -0.000849611 -0.000849611
0.00115274 -0.000949154 -0.000949154
0.000851687 -0.00051846 -0.00051846
0.00033062 -0.000622693 -0.000622693
0.000764403 -0.000886692 -0.000886692
0.00100225 -0.000719181 -0.000719181
0.000563741 -0.000460803 -0.000460803
0.000663955 -0.000658506 -0.000658506
0.000380922 -0.000849611 -0.000849611
0.000481069 -0.00139419 -0.00139419
0.00145273 -0.00149629 -0.00149629
0.00115274 -0.000949154 -0.000949154
0.00043108 -0.00110696 -0.00110696
0.000964831 -0.00143254 -0.00143254
0.001303 -0.00120826 -0.00120826
0.000764403 -0.000886692 -0.000886692
0.000864766 -0.00114486 -0.00114486
0.000481069 -0.00139419 -0.00139419
0.000580581 -0.00205677 -0.00205677
0.00174986 -0.00215866 -0.00215866
0.00145273 -0.00149629 -0.00149629
0.000530932 -0.00171089 -0.00171089
0.00116356 -0.0020951 -0.0020951
0.00160167 -0.0018131 -0.0018131
0.000964831 -0.00143254 -0.00143254
0.00106444 -0.00174934 -0.00174934
0.000580581 -0.00205677 -0.00205677
0.000679001 -0.00283518 -0.00283518
0.00204427 -0.00293606 -0.00293606
0.00174986 -0.00215866 -0.00215866
0.000629928 -0.00243157 -0.00243157
0.00136029 -0.00287315 -0.00287315
0.00189739 -0.002533 -0.002533
0.00116356 -0.0020951 -0.0020951
0.00126217 -0.00246975 -0.00246975
0.000679001 -0.00283518 -0.00283518
0.000776467 -0.00372835 -0.00372835
0.00233611 -0.00382808 -0.00382808
0.00204427 -0.00293606 -0.00293606
0.000727847 -0.00326746 -0.00326746
0.00155517 -0.00376587 -0.00376587
0.00219049 -0.00336776 -0.00336776
0.00136029 -0.00287315 -0.00287315
0.00145795 -0.00330521 -0.00330521
0.000776467 -0.00372835 -0.00372835
0.000873037 -0.00473559 -0.00473559
0.00262576 -0.00483434 -0.00483434
0.00233611 -0.00382808 -0.00382808
0.000824857 -0.00421774 -0.00421774
0.00174841 -0.00477273 -0.00477273
0.00248119 -0.00431696 -0.00431696
0.00155517 -0.00376587 -0.00376587
0.00165198 -0.00425506 -0.00425506
0.000873037 -0.00473559 -0.00473559
0.000968849 -0.00585639 -0.00585639
0.00291344 -0.00595432 -0.00595432
0.00262576 -0.00483434 -0.00483434
0.000921032 -0.00528183 -0.00528183
0.00194023 -0.00589321 -0.00589321
0.00276984 -0.00538015 -0.00538015
0.00174841 -0.00477273 -0.00477273
0.00184449 -0.0053188 -0.0053188
0.000968849 -0.00585639 -0.00585639
0.00106397 -0.00709022 -0.00709022
0.00319932 -0.00718749 -0.00718749
0.00291344 -0.00595432 -0.00595432
0.00101649 -0.00645921 -0.00645921
0.00213077 -0.0071268 -0.0071268
0.0030566 -0.0065568 -0.0065568
0.00194023 -0.00589321 -0.00589321
0.00203566 -0.0064959 -0.0064959
0.00106397 -0.00709022 -0.00709022
0.00115845 -0.00843655 -0.00843655
0.00348349 -0.00853327 -0.00853327
0.00319932 -0.00718749 -0.00718749
0.00111129 -0.00774936 -0.00774936
0.00232012 -0.00847292 -0.00847292
0.00334161 -0.00784634 -0.00784634
0.00213077 -0.0071268 -0.0071268
0.00222559 -0.00778583 -0.00778583
0.00115845 -0.00843655 -0.00843655
0.00125232 -0.00989483 -0.00989483
0.003766 -0.00999107 -0.00999107
0.00348349 -0.00853327 -0.00853327
0.00120546 -0.00915173 -0.00915173
0.00250833 -0.00993103 -0.00993103
0.00362495 -0.00924821 -0.00924821
0.00232012 -0.00847292 -0.00847292
0.00241437 -0.00918802 -0.00918802
0.00125232 -0.00989483 -0.00989483
0.0013456 -0.0114645 -0.0114645
0.00404689 -0.0115603 -0.0115603
0.003766 -0.00999107 -0.00999107
0.00129904 -0.0106658 -0.0106658
0.00269542 -0.0115005 -0.0115005
0.00390665 -0.0107618 -0.0107618
0.00250833 -0.00993103 -0.00993103
0.00260201 -0.0107019 -0.0107019
0.0013456 -0.0114645 -0.0114645
0.00143829 -0.0131449 -0.0131449
0.00432617 -0.0132403 -0.0132403
0.00404689 -0.0115603 -0.0115603
0.00139202 -0.0122909 -0.0122909
0.0028814 -0.0131808 -0.0131808
0.00418673 -0.0123865 -0.0123865
0.00269542 -0.0115005 -0.0115005
0.00278855 -0.0123269 -0.0123269
0.00143829 -0.0131449 -0.0131449
0.00153039 -0.0149356 -0.0149356
0.00460382 -0.0150305 -0.0150305
0.00432617 -0.0132403 -0.0132403
0.00148442 -0.0140265 -0.0140265
0.00306628 -0.0149713 -0.0149713
0.0044652 -0.0141217 -0.0141217
0.0028814 -0.0131808 -0.0131808
0.00297398 -0.0140623 -0.0140623
0.00153039 -0.0149356 -0.0149356
0.0016219 -0.0168358 -0.0168358
0.00487987 -0.0169304 -0.0169304
0.00460382 -0.0150305 -0.0150305
0.00157622 -0.015872 -0.015872
0.00325006 -0.0168714 -0.0168714
0.00474205 -0.0159668 -0.0159668
0.00306628 -0.0149713 -0.0149713
0.00315831 -0.0159077 -0.0159077
0.0016219 -0.0168358 -0.0168358
0.00171281 -0.018845 -0.018845
0.0051543 -0.0189392 -0.0189392
0.00487987 -0.0169304 -0.0169304
0.00166743 -0.0178268 -0.0178268
0.00343273 -0.0188805 -0.0188805
0.00501729 -0.0179212 -0.0179212
0.00325006 -0.0168714 -0.0168714
0.00334153 -0.0178624 -0.0178624
0.00171281 -0.018845 -0.018845
0.00180313 -0.0209626 -0.0209626
0.00542711 -0.0210564 -0.0210564
0.0051543 -0.0189392 -0.0189392
0.00175805 -0.0198903 -0.0198903
0.00361429 -0.020998 -0.020998
0.00529091 -0.0199843 -0.0199843
0.00343273 -0.0188805 -0.0188805
0.00352365 -0.0199257 -0.0199257
0.00180313 -0.0209626 -0.0209626
0.00189284 -0.023188 -0.023188
0.00569829 -0.0232815 -0.0232815
0.00542711 -0.0210564 -0.0210564
0.00184806 -0.0220618 -0.0220618
0.00379474 -0.0232232 -0.0232232
0.0055629 -0.0221555 -0.0221555
0.00361429 -0.020998 -0.020998
0.00370465 -0.0220972 -0.0220972
0.00189284 -0.023188 -0.023188
0.00198195 -0.0255205 -0.0255205
0.00596785 -0.0256136 -0.0256136
0.00569829 -0.0232815 -0.0232815
0.00193747 -0.0243409 -0.0243409
0.00397407 -0.0255557 -0.0255557
0.00583327 -0.0244342 -0.0244342
0.00379474 -0.0232232 -0.0232232
0.00388454 -0.0243761 -0.0243761
0.00198195 -0.0255205 -0.0255205
0.00207044 -0.0279596 -0.0279596
0.00623577 -0.0280524 -0.0280524
0.00596785 -0.0256136 -0.0256136
0.00202627 -0.0267268 -0.0267268
0.00415228 -0.0279947 -0.0279947
0.00610201 -0.0268197 -0.0268197
0.00397407 -0.0255557 -0.0255557
0.00406332 -0.0267619 -0.0267619
0.00207044 -0.0279596 -0.0279596
0.00215832 -0.0305047 -0.0305047
0.00650206 -0.0305972 -0.0305972
0.00623577 -0.0280524 -0.0280524
0.00211446 -0.029219 -0.029219
0.00432937 -0.0305397 -0.0305397
0.00636912 -0.0293116 -0.0293116
0.00415228 -0.0279947 -0.0279947
0.00424096 -0.029254 -0.029254
0.00215832 -0.0305047 -0.0305047
0.00224559 -0.0331551 -0.0331551
0.0067667 -0.0332473 -0.0332473
0.00650206 -0.0305972 -0.0305972
0.00220203 -0.0318168 -0.0318168
0.00450532 -0.03319 -0.03319
0.00663459 -0.0319091 -0.0319091
0.00432937 -0.0305397 -0.0305397
0.00441748 -0.0318517 -0.0318517
0.00224559 -0.0331551 -0.0331551
0.00233223 -0.0359103 -0.0359103
0.00702971 -0.0360021 -0.0360021
0.0067667 -0.0332473 -0.0332473
0.00228899 -0.0345197 -0.0345197
0.00468014 -0.0359451 -0.0359451
0.00689841 -0.0346116 -0.0346116
0.00450532 -0.03319 -0.03319
0.00459287 -0.0345545 -0.0345545
0.00233223 -0.0359103 -0.0359103
0.00241825 -0.0387697 -0.0387697
0.00729106 -0.0388611 -0.0388611
0.00702971 -0.0360021 -0.0360021
0.00237532 -0.037327 -0.037327
0.00485383 -0.0388043 -0.0388043
0.00716059 -0.0374186 -0.0374186
0.00468014 -0.0359451 -0.0359451
0.00476713 -0.0373617 -0.0373617
0.00241825 -0.0387697 -0.0387697
0.00250363 -0.0417325 -0.0417325
0.00755076 -0.0418237 -0.0418237
0.00729106 -0.0388611 -0.0388611
0.00246102 -0.0402382 -0.0402382
0.00502638 -0.0417671 -0.0417671
0.00742112 -0.0403295 -0.0403295
0.00485383 -0.0388043 -0.0388043
0.00494024 -0.0402728 -0.0402728
0.00250363 -0.0417325 -0.0417325
0.00258839 -0.0447983 -0.0447983
0.00780881 -0.0448892 -0.0448892
0.00755076 -0.0418237 -0.0418237
0.00254609 -0.0432526 -0.0432526
0.00519778 -0.0448328 -0.0448328
0.00768 -0.0433436 -0.0433436
0.00502638 -0.0417671 -0.0417671
0.00511222 -0.0432871 -0.0432871
0.00258839 -0.0447983 -0.0447983
0.00267251 -0.0479665 -0.0479665
0.0080652 -0.048057 -0.048057
0.00780881 -0.0448892 -0.0448892
0.00263053 -0.0463697 -0.0463697
0.00536803 -0.0480009 -0.0480009
0.00793722 -0.0464603 -0.0464603
0.00519778 -0.0448328 -0.0448328
0.00528305 -0.0464041 -0.0464041
0.00267251 -0.0479665 -0.0479665
0.00275599 -0.0512363 -0.0512363
0.00831993 -0.0513266 -0.0513266
0.0080652 -0.048057 -0.048057
0.00271433 -0.0495887 -0.0495887
0.00553714 -0.0512706 -0.0512706
0.00819278 -0.0496791 -0.0496791
0.00536803 -0.0480009 -0.0480009
0.00545273 -0.0496231 -0.0496231
0.00275599 -0.0512363 -0.0512363
0.00283883 -0.0546073 -0.0546073
0.008573 -0.0546972 -0.0546972
0.00831993 -0.0513266 -0.0513266
0.00279749 -0.0529092 -0.0529092
0.00570509 -0.0546415 -0.0546415
0.00844667 -0.0529993 -0.0529993
0.00553714 -0.0512706 -0.0512706
0.00562126 -0.0529435 -0.0529435
0.00283883 -0.0546073 -0.0546073
0.00292102 -0.0580788 -0.0580788
0.00882439 -0.0581684 -0.0581684
0.008573 -0.0546972 -0.0546972
0.00288001 -0.0563305 -0.0563305
0.00587188 -0.0581129 -0.0581129
0.0086989 -0.0564203 -0.0564203
0.00570509 -0.0546415 -0.0546415
0.00578863 -0.0563647 -0.0563647
0.00292102 -0.0580788 -0.0580788
0.00300256 -0.0616502 -0.0616502
0.00907412 -0.0617395 -0.0617395
0.00882439 -0.0581684 -0.0581684
0.00296187 -0.059852 -0.059852
0.00603752 -0.0616842 -0.0616842
0.00894946 -0.0599415 -0.0599415
0.00587188 -0.0581129 -0.0581129
0.00595485 -0.0598861 -0.0598861
0.00300256 -0.0616502 -0.0616502
0.00308346 -0.0653209 -0.0653209
0.00932217 -0.06541 -0.06541
0.00907412 -0.0617395 -0.0617395
0.00304309 -0.0634732 -0.0634732
0.00620199 -0.0653549 -0.0653549
0.00919835 -0.0635624 -0.0635624
0.00603752 -0.0616842 -0.0616842
0.0061199 -0.0635072 -0.0635072
0.00308346 -0.0653209 -0.0653209
0.00316369 -0.0690903 -0.0690903
0.00956854 -0.0691791 -0.0691791
0.00932217 -0.06541 -0.06541
0.00312366 -0.0671933 -0.0671933
0.00636529 -0.0691242 -0.0691242
0.00944556 -0.0672822 -0.0672822
0.00620199 -0.0653549 -0.0653549
0.00628379 -0.0672272 -0.0672272
0.00316369 -0.0690903 -0.0690903
0.00324327 -0.0729578 -0.0729578
0.00981323 -0.0730463 -0.0730463
0.00956854 -0.0691791 -0.0691791
0.00320356 -0.0710118 -0.0710118
0.00652743 -0.0729916 -0.0729916
0.0096911 -0.0711005 -0.0711005
0.00636529 -0.0691242 -0.0691242
0.00644651 -0.0710457 -0.0710457
0.00324327 -0.0729578 -0.0729578
0.00332219 -0.0769227 -0.0769227
0.0100562 -0.077011 -0.077011
0.00981323 -0.0730463 -0.0730463
0.00328281 -0.0749281 -0.0749281
0.00668839 -0.0769565 -0.0769565
0.00993495 -0.0750165 -0.0750165
0.00652743 -0.0729916 -0.0729916
0.00660806 -0.0749619 -0.0749619
0.00332219 -0.0769227 -0.0769227
0.00340044 -0.0809846 -0.0809846
0.0102976 -0.0810726 -0.0810726
0.0100562 -0.077011 -0.077011
0.0033614 -0.0789416 -0.0789416
0.00684818 -0.0810183 -0.0810183
0.0101771 -0.0790297 -0.0790297
0.00668839 -0.0769565 -0.0769565
0.00676844 -0.0789753 -0.0789753
0.00340044 -0.0809846 -0.0809846
0.00347803 -0.0851427 -0.0851427
0.0105372 -0.0852304 -0.0852304
0.0102976 -0.0810726 -0.0810726
0.00343932 -0.0830516 -0.0830516
0.0070068 -0.0851763 -0.0851763
0.0104176 -0.0831395 -0.0831395
0.00684818 -0.0810183 -0.0810183
0.00692764 -0.0830853 -0.0830853
0.00347803 -0.0851427 -0.0851427
0.00355495 -0.0893965 -0.0893965
0.0107751 -0.089484 -0.089484
0.0105372 -0.0852304 -0.0852304
0.00351658 -0.0872577 -0.0872577
0.00716423 -0.0894301 -0.0894301
0.0106564 -0.0873453 -0.0873453
0.0070068 -0.0851763 -0.0851763
0.00708566 -0.0872913 -0.0872913
0.00355495 -0.0893965 -0.0893965
0.0036312 -0.0937453 -0.0937453
0.0110114 -0.0938326 -0.0938326
0.0107751 -0.089484 -0.089484
0.00359316 -0.0915591 -0.0915591
0.00732048 -0.0937789 -0.0937789
0.0108935 -0.0916464 -0.0916464
0.00716423 -0.0894301 -0.0894301
0.0072425 -0.0915926 -0.0915926
0.0036312 -0.0937453 -0.0937453
0.00370678 -0.0981886 -0.0981886
0.011246 -0.0982756 -0.0982756
0.0110114 -0.0938326 -0.0938326
0.00366907 -0.0959552 -0.0959552
0.00747555 -0.0982221 -0.0982221
0.0111289 -0.0960423 -0.0960423
0.00732048 -0.0937789 -0.0937789
0.00739816 -0.0959887 -0.0959887
0.00370678 -0.0981886 -0.0981886
0.00378167 -0.102726 -0.102726
0.0114788 -0.102813 -0.102813
0.011246 -0.0982756 -0.0982756
0.00374431 -0.100446 -0.100446
0.00762942 -0.102759 -0.102759
0.0113626 -0.100532 -0.100532
0.00747555 -0.0982221 -0.0982221
0.00755263 -0.100479 -0.100479
0.00378167 -0.102726 -0.102726
0.00385589 -0.107356 -0.107356
0.01171 -0.107443 -0.107443
0.0114788 -0.102813 -0.102813
0.00381887 -0.105029 -0.105029
0.00778211 -0.10739 -0.10739
0.0115946 -0.105116 -0.105116
0.00762942 -0.102759 -0.102759
0.00770592 -0.105063 -0.105063
0.00385589 -0.107356 -0.107356
0.00392943 -0.112079 -0.112079
0.0119394 -0.112166 -0.112166
0.01171 -0.107443 -0.107443
0.00389275 -0.109706 -0.109706
0.00793361 -0.112113 -0.112113
0.0118249 -0.109793 -0.109793
0.00778211 -0.10739 -0.10739
0.00785801 -0.10974 -0.10974
0.00392943 -0.112079 -0.112079
0.00400229 -0.116894 -0.116894
0.0121672 -0.11698 -0.11698
0.0119394 -0.112166 -0.112166
0.00396595 -0.114475 -0.114475
0.00808391 -0.116928 -0.116928
0.0120535 -0.114562 -0.114562
0.00793361 -0.112113 -0.112113
0.00800891 -0.114509 -0.114509
0.00400229 -0.116894 -0.116894
0.00407446 -0.121801 -0.121801
0.0123932 -0.121887 -0.121887
0.0121672 -0.11698 -0.11698
0.00403846 -0.119336 -0.119336
0.00823301 -0.121834 -0.121834
0.0122804 -0.119422 -0.119422
0.00808391 -0.116928 -0.116928
0.00815861 -0.119369 -0.119369
0.00407446 -0.121801 -0.121801
0.00414594 -0.126798 -0.126798
0.0126175 -0.126884 -0.126884
0.0123932 -0.121887 -0.121887
0.00411029 -0.124288 -0.124288
0.00838092 -0.126831 -0.126831
0.0125056 -0.124374 -0.124374
0.00823301 -0.121834 -0.121834
0.00830712 -0.124321 -0.124321
0.00414594 -0.126798 -0.126798
0.00421674 -0.131886 -0.131886
0.0128402 -0.131971 -0.131971
0.0126175 -0.126884 -0.126884
0.00418143 -0.129331 -0.129331
0.00852762 -0.131919 -0.131919
0.0127291 -0.129416 -0.129416
0.00838092 -0.126831 -0.126831
0.00845442 -0.129364 -0.129364
0.00421674 -0.131886 -0.131886
0.00428684 -0.137063 -0.137063
0.0130611 -0.137148 -0.137148
0.0128402 -0.131971 -0.131971
0.00425187 -0.134463 -0.134463
0.00867313 -0.137096 -0.137096
0.0129508 -0.134548 -0.134548
0.00852762 -0.131919 -0.131919
0.00860053 -0.134496 -0.134496
0.00428684 -0.137063 -0.137063
0.00435625 -0.142329 -0.142329
0.0132802 -0.142414 -0.142414
0.0130611 -0.137148 -0.137148
0.00432163 -0.139685 -0.139685
0.00881743 -0.142362 -0.142362
0.0131709 -0.13977 -0.13977
0.00867313 -0.137096 -0.137096
0.00874543 -0.139718 -0.139718
0.00435625 -0.142329 -0.142329
0.00442496 -0.147684 -0.147684
0.0134977 -0.147768 -0.147768
0.0132802 -0.142414 -0.142414
0.00439069 -0.144995 -0.144995
0.00896052 -0.147717 -0.147717
0.0133892 -0.14508 -0.14508
0.00881743 -0.142362 -0.142362
0.00888912 -0.145028 -0.145028
0.00442496 -0.147684 -0.147684
0.00449298 -0.153126 -0.153126
0.0137135 -0.153211 -0.153211
0.0134977 -0.147768 -0.147768
0.00445906 -0.150394 -0.150394
0.0091024 -0.153159 -0.153159
0.0136058 -0.150479 -0.150479
0.00896052 -0.147717 -0.147717
0.00903161 -0.150427 -0.150427
0.00449298 -0.153126 -0.153126
0.00456029 -0.158656 -0.158656
0.0139275 -0.15874 -0.15874
0.0137135 -0.153211 -0.153211
0.00452672 -0.15588 -0.15588
0.00924308 -0.158688 -0.158688
0.0138207 -0.155964 -0.155964
0.0091024 -0.153159 -0.153159
0.00917289 -0.155913 -0.155913
0.00456029 -0.158656 -0.158656
0.00462691 -0.164272 -0.164272
0.0141398 -0.164356 -0.164356
0.0139275 -0.15874 -0.15874
0.00459369 -0.161453 -0.161453
0.00938254 -0.164305 -0.164305
0.0140339 -0.161537 -0.161537
0.00924308 -0.158688 -0.158688
0.00931296 -0.161486 -0.161486
0.00462691 -0.164272 -0.164272
0.00469283 -0.169974 -0.169974
0.0143504 -0.170058 -0.170058
0.0141398 -0.164356 -0.164356
0.00465996 -0.167112 -0.167112
0.00952079 -0.170007 -0.170007
0.0142453 -0.167196 -0.167196
0.00938254 -0.164305 -0.164305
0.00945181 -0.167145 -0.167145
0.00469283 -0.169974 -0.169974
0.00475804 -0.175761 -0.175761
0.0145592 -0.175845 -0.175845
0.0143504 -0.170058 -0.170058
0.00472552 -0.172857 -0.172857
0.00965782 -0.175794 -0.175794
0.014455 -0.172941 -0.172941
0.00952079 -0.170007 -0.170007
0.00958946 -0.17289 -0.17289
0.00475804 -0.175761 -0.175761
0.00482255 -0.181634 -0.181634
0.0147664 -0.181717 -0.181717
0.0145592 -0.175845 -0.175845
0.00479038 -0.178687 -0.178687
0.00979364 -0.181666 -0.181666
0.014663 -0.178771 -0.178771
0.00965782 -0.175794 -0.175794
0.00972588 -0.17872 -0.17872
0.00482255 -0.181634 -0.181634
0.00488635 -0.18759 -0.18759
0.0149718 -0.187673 -0.187673
0.0147664 -0.181717 -0.181717
0.00485453 -0.184601 -0.184601
0.00992824 -0.187623 -0.187623
0.0148693 -0.184685 -0.184685
0.00979364 -0.181666 -0.181666
0.00986109 -0.184634 -0.184634
0.00488635 -0.18759 -0.18759
0.00494944 -0.19363 -0.19363
0.0151754 -0.193713 -0.193713
0.0149718 -0.187673 -0.187673
0.00491798 -0.1906 -0.1906
0.0100616 -0.193663 -0.193663
0.0150738 -0.190683 -0.190683
0.00992824 -0.187623 -0.187623
0.00999508 -0.190632 -0.190632
0.00494944 -0.19363 -0.19363
0.00501182 -0.199753 -0.199753
0.0153774 -0.199836 -0.199836
0.0151754 -0.193713 -0.193713
0.00498072 -0.196681 -0.196681
0.0101938 -0.199786 -0.199786
0.0152766 -0.196764 -0.196764
0.0100616 -0.193663 -0.193663
0.0101279 -0.196714 -0.196714
0.00501182 -0.199753 -0.199753
0.0050735 -0.205958 -0.205958
0.0155776 -0.206041 -0.206041
0.0153774 -0.199836 -0.199836
0.00504275 -0.202845 -0.202845
0.0103247 -0.205991 -0.205991
0.0154777 -0.202928 -0.202928
0.0101938 -0.199786 -0.199786
0.0102594 -0.202878 -0.202878
0.0050735 -0.205958 -0.205958
0.00513446 -0.212245 -0.212245
0.0157761 -0.212328 -0.212328
0.0155776 -0.206041 -0.206041
0.00510407 -0.209091 -0.209091
0.0104544 -0.212278 -0.212278
0.015677 -0.209174 -0.209174
0.0103247 -0.205991 -0.205991
0.0103897 -0.209124 -0.209124
0.00513446 -0.212245 -0.212245
0.00519471 -0.218613 -0.218613
0.0159728 -0.218696 -0.218696
0.0157761 -0.212328 -0.212328
0.00516467 -0.215419 -0.215419
0.0105829 -0.218646 -0.218646
0.0158746 -0.215502 -0.215502
0.0104544 -0.212278 -0.212278
0.0105188 -0.215452 -0.215452
0.00519471 -0.218613 -0.218613
0.00525424 -0.225062 -0.225062
0.0161678 -0.225144 -0.225144
0.0159728 -0.218696 -0.218696
0.00522456 -0.221828 -0.221828
0.0107102 -0.225095 -0.225095
0.0160705 -0.22191 -0.22191
0.0105829 -0.218646 -0.218646
0.0106467 -0.22186 -0.22186
0.00525424 -0.225062 -0.225062
0.00531306 -0.231591 -0.231591
0.0163611 -0.231673 -0.231673
0.0161678 -0.225144 -0.225144
0.00528374 -0.228316 -0.228316
0.0108362 -0.231623 -0.231623
0.0162646 -0.228399 -0.228399
0.0107102 -0.225095 -0.225095
0.0107734 -0.228349 -0.228349
0.00531306 -0.231591 -0.231591
0.00537117 -0.238199 -0.238199
0.0165526 -0.23828 -0.23828
0.0163611 -0.231673 -0.231673
0.00534221 -0.234885 -0.234885
0.0109611 -0.238231 -0.238231
0.016457 -0.234967 -0.234967
0.0108362 -0.231623 -0.231623
0.0108988 -0.234917 -0.234917
0.00537117 -0.238199 -0.238199
0.00542856 -0.244885 -0.244885
0.0167424 -0.244967 -0.244967
0.0165526 -0.23828 -0.23828
0.00539995 -0.241532 -0.241532
0.0110847 -0.244918 -0.244918
0.0166477 -0.241614 -0.241614
0.0109611 -0.238231 -0.238231
0.011023 -0.241565 -0.241565
0.00542856 -0.244885 -0.244885
0.00548523 -0.25165 -0.25165
0.0169304 -0.251732 -0.251732
0.0167424 -0.244967 -0.244967
0.00545698 -0.248258 -0.248258
0.011207 -0.251682 -0.251682
0.0168366 -0.24834 -0.24834
0.0110847 -0.244918 -0.244918
0.011146 -0.24829 -0.24829
0.00548523 -0.25165 -0.25165
0.00554118 -0.258492 -0.258492
0.0171167 -0.258574 -0.258574
0.0169304 -0.251732 -0.251732
0.0055133 -0.255061 -0.255061
0.0113281 -0.258525 -0.258525
0.0170238 -0.255143 -0.255143
0.011207 -0.251682 -0.251682
0.0112677 -0.255094 -0.255094
0.00554118 -0.258492 -0.258492
0.00559642 -0.265411 -0.265411
0.0173013 -0.265493 -0.265493
0.0171167 -0.258574 -0.258574
0.00556889 -0.261942 -0.261942
0.011448 -0.265444 -0.265444
0.0172092 -0.262024 -0.262024
0.0113281 -0.258525 -0.258525
0.0113882 -0.261975 -0.261975
0.00559642 -0.265411 -0.265411
0.00565093 -0.272407 -0.272407
0.0174841 -0.272488 -0.272488
0.0173013 -0.265493 -0.265493
0.00562377 -0.268899 -0.268899
0.0115667 -0.272439 -0.272439
0.0173929 -0.268981 -0.268981
0.011448 -0.265444 -0.265444
0.0115075 -0.268932 -0.268932
0.00565093 -0.272407 -0.272407
0.00570473 -0.279478 -0.279478
0.0176652 -0.279559 -0.279559
0.0174841 -0.272488 -0.272488
0.00567792 -0.275933 -0.275933
0.0116842 -0.27951 -0.27951
0.0175749 -0.276014 -0.276014
0.0115667 -0.272439 -0.272439
0.0116256 -0.275965 -0.275965
0.00570473 -0.279478 -0.279478
0.0057578 -0.286624 -0.286624
0.0178445 -0.286705 -0.286705
0.0176652 -0.279559 -0.279559
0.00573136 -0.283042 -0.283042
0.0118004 -0.286656 -0.286656
0.0177551 -0.283122 -0.283122
0.0116842 -0.27951 -0.27951
0.0117424 -0.283074 -0.283074
0.0057578 -0.286624 -0.286624
0.00581016 -0.293845 -0.293845
0.0180221 -0.293925 -0.293925
0.0178445 -0.286705 -0.286705
0.00578407 -0.290225 -0.290225
0.0119153 -0.293877 -0.293877
0.0179336 -0.290306 -0.290306
0.0118004 -0.286656 -0.286656
0.011858 -0.290258 -0.290258
0.00581016 -0.293845 -0.293845
0.00586179 -0.301139 -0.301139
0.018198 -0.30122 -0.30122
0.0180221 -0.293925 -0.293925
0.00583606 -0.297483 -0.297483
0.0120291 -0.301172 -0.301172
0.0181103 -0.297563 -0.297563
0.0119153 -0.293877 -0.293877
0.0119724 -0.297515 -0.297515
0.00586179 -0.301139 -0.301139
0.0059127 -0.308507 -0.308507
0.0183721 -0.308587 -0.308587
0.018198 -0.30122 -0.30122
0.00588734 -0.304814 -0.304814
0.0121416 -0.308539 -0.308539
0.0182853 -0.304894 -0.304894
0.0120291 -0.301172 -0.301172
0.0120855 -0.304846 -0.304846
0.0059127 -0.308507 -0.308507
0.00596289 -0.315947 -0.315947
0.0185445 -0.316028 -0.316028
0.0183721 -0.308587 -0.308587
0.00593788 -0.312218 -0.312218
0.0122529 -0.31598 -0.31598
0.0184585 -0.312298 -0.312298
0.0121416 -0.308539 -0.308539
0.0121974 -0.312251 -0.312251
0.00596289 -0.315947 -0.315947
0.00601235 -0.32346 -0.32346
0.0187151 -0.32354 -0.32354
0.0185445 -0.316028 -0.316028
0.00598771 -0.319695 -0.319695
0.0123629 -0.323492 -0.323492
0.01863 -0.319775 -0.319775
0.0122529 -0.31598 -0.31598
0.012308 -0.319727 -0.319727
0.00601235 -0.32346 -0.32346
0.0060611 -0.331044 -0.331044
0.018884 -0.331124 -0.331124
0.0187151 -0.32354 -0.32354
0.00603681 -0.327243 -0.327243
0.0124717 -0.331076 -0.331076
0.0187997 -0.327323 -0.327323
0.0123629 -0.323492 -0.323492
0.0124175 -0.327275 -0.327275
0.0060611 -0.331044 -0.331044
0.00610911 -0.338699 -0.338699
0.0190511 -0.338778 -0.338778
0.018884 -0.331124 -0.331124
0.0060852 -0.334863 -0.334863
0.0125793 -0.338731 -0.338731
0.0189677 -0.334942 -0.334942
0.0124717 -0.331076 -0.331076
0.0125257 -0.334895 -0.334895
0.00610911 -0.338699 -0.338699
0.00615641 -0.346424 -0.346424
0.0192165 -0.346503 -0.346503
0.0190511 -0.338778 -0.338778
0.00613285 -0.342553 -0.342553
0.0126856 -0.346456 -0.346456
0.019134 -0.342632 -0.342632
0.0125793 -0.338731 -0.338731
0.0126326 -0.342585 -0.342585
0.00615641 -0.346424 -0.346424
0.00620298 -0.354218 -0.354218
0.0193801 -0.354298 -0.354298
0.0192165 -0.346503 -0.346503
0.00617979 -0.350312 -0.350312
0.0127907 -0.354251 -0.354251
0.0192985 -0.350392 -0.350392
0.0126856 -0.346456 -0.346456
0.0127383 -0.350345 -0.350345
0.00620298 -0.354218 -0.354218
0.00624883 -0.362082 -0.362082
0.019542 -0.362161 -0.362161
0.0193801 -0.354298 -0.354298
0.006226 -0.358142 -0.358142
0.0128946 -0.362114 -0.362114
0.0194613 -0.358221 -0.358221
0.0127907 -0.354251 -0.354251
0.0128428 -0.358174 -0.358174
0.00624883 -0.362082 -0.362082
0.00629396 -0.370014 -0.370014
0.0197021 -0.370093 -0.370093
0.019542 -0.362161 -0.362161
0.00627149 -0.36604 -0.36604
0.0129972 -0.370046 -0.370046
0.0196223 -0.366119 -0.366119
0.0128946 -0.362114 -0.362114
0.0129461 -0.366072 -0.366072
0.00629396 -0.370014 -0.370014
0.00633836 -0.378014 -0.378014
0.0198605 -0.378093 -0.378093
0.0197021 -0.370093 -0.370093
0.00631625 -0.374006 -0.374006
0.0130986 -0.378046 -0.378046
0.0197816 -0.374085 -0.374085
0.0129972 -0.370046 -0.370046
0.0130481 -0.374038 -0.374038
0.00633836 -0.378014 -0.378014
0.00638204 -0.386081 -0.386081
0.0200172 -0.38616 -0.38616
0.0198605 -0.378093 -0.378093
0.00636029 -0.382039 -0.382039
0.0131988 -0.386114 -0.386114
0.0199391 -0.382118 -0.382118
0.0130986 -0.378046 -0.378046
0.0131489 -0.382072 -0.382072
0.00638204 -0.386081 -0.386081
0.006425 -0.394215 -0.394215
0.0201721 -0.394294 -0.394294
0.0200172 -0.38616 -0.38616
0.00640361 -0.39014 -0.39014
0.0132977 -0.394247 -0.394247
0.0200949 -0.390218 -0.390218
0.0131988 -0.386114 -0.386114
0.0132484 -0.390172 -0.390172
0.006425 -0.394215 -0.394215
0.00646723 -0.402415 -0.402415
0.0203253 -0.402493 -0.402493
0.0201721 -0.394294 -0.394294
0.00644621 -0.398307 -0.398307
0.0133954 -0.402447 -0.402447
0.0202489 -0.398385 -0.398385
0.0132977 -0.394247 -0.394247
0.0133467 -0.398339 -0.398339
0.00646723 -0.402415 -0.402415
0.00650874 -0.41068 -0.41068
0.0204767 -0.410758 -0.410758
0.0203253 -0.402493 -0.402493
0.00648808 -0.406539 -0.406539
0.0134919 -0.410712 -0.410712
0.0204012 -0.406617 -0.406617
0.0133954 -0.402447 -0.402447
0.0134438 -0.406571 -0.406571
0.00650874 -0.41068 -0.41068
0.00654953 -0.41901 -0.41901
0.0206264 -0.419088 -0.419088
0.0204767 -0.410758 -0.410758
0.00652923 -0.414837 -0.414837
0.0135871 -0.419042 -0.419042
0.0205517 -0.414915 -0.414915
0.0134919 -0.410712 -0.410712
0.0135397 -0.414869 -0.414869
0.00654953 -0.41901 -0.41901
0.0065896 -0.427404 -0.427404
0.0207743 -0.427482 -0.427482
0.0206264 -0.419088 -0.419088
0.00656966 -0.423199 -0.423199
0.0136811 -0.427436 -0.427436
0.0207005 -0.423277 -0.423277
0.0135871 -0.419042 -0.419042
0.0136343 -0.423231 -0.423231
0.0065896 -0.427404 -0.427404
0.00662895 -0.435861 -0.435861
0.0209205 -0.435939 -0.435939
0.0207743 -0.427482 -0.427482
0.00660936 -0.431625 -0.431625
0.0137739 -0.435894 -0.435894
0.0208476 -0.431703 -0.431703
0.0136811 -0.427436 -0.427436
0.0137277 -0.431657 -0.431657
0.00662895 -0.435861 -0.435861
0.00666757 -0.444382 -0.444382
0.0210649 -0.44446 -0.44446
0.0209205 -0.435939 -0.435939
0.00664835 -0.440114 -0.440114
0.0138654 -0.444414 -0.444414
0.0209929 -0.440192 -0.440192
0.0137739 -0.435894 -0.435894
0.0138198 -0.440146 -0.440146
0.00666757 -0.444382 -0.444382
0.00670548 -0.452965 -0.452965
0.0212076 -0.453043 -0.453043
0.0210649 -0.44446 -0.44446
0.00668661 -0.448666 -0.448666
0.0139557 -0.452997 -0.452997
0.0211365 -0.448743 -0.448743
0.0138654 -0.444414 -0.444414
0.0139107 -0.448698 -0.448698
0.00670548 -0.452965 -0.452965
0.00674266 -0.46161 -0.46161
0.0213486 -0.461687 -0.461687
0.0212076 -0.453043 -0.453043
0.00672416 -0.45728 -0.45728
0.0140448 -0.461642 -0.461642
0.0212783 -0.457357 -0.457357
0.0139557 -0.452997 -0.452997
0.0140004 -0.457312 -0.457312
0.00674266 -0.46161 -0.46161
0.00677912 -0.470316 -0.470316
0.0214878 -0.470393 -0.470393
0.0213486 -0.461687 -0.461687
0.00676098 -0.465955 -0.465955
0.0141326 -0.470348 -0.470348
0.0214184 -0.466032 -0.466032
0.0140448 -0.461642 -0.461642
0.0140889 -0.465987 -0.465987
0.00677912 -0.470316 -0.470316
0.00681487 -0.479082 -0.479082
0.0216253 -0.479159 -0.479159
0.0214878 -0.470393 -0.470393
0.00679709 -0.474691 -0.474691
0.0142192 -0.479114 -0.479114
0.0215567 -0.474768 -0.474768
0.0141326 -0.470348 -0.470348
0.0141761 -0.474723 -0.474723
0.00681487 -0.479082 -0.479082
0.0068499 -0.487909 -0.487909
0.021761 -0.487985 -0.487985
0.0216253 -0.479159 -0.479159
0.00683247 -0.483488 -0.483488
0.0143046 -0.487941 -0.487941
0.0216933 -0.483565 -0.483565
0.0142192 -0.479114 -0.479114
0.0142621 -0.48352 -0.48352
0.0068499 -0.487909 -0.487909
0.00688421 -0.496794 -0.496794
0.021895 -0.496871 -0.496871
0.021761 -0.487985 -0.487985
0.00686714 -0.492344 -0.492344
0.0143888 -0.496826 -0.496826
0.0218282 -0.492421 -0.492421
0.0143046 -0.487941 -0.487941
0.0143469 -0.492376 -0.492376
0.00688421 -0.496794 -0.496794
0.0069178 -0.505739 -0.505739
0.0220272 -0.505815 -0.505815
0.021895 -0.496871 -0.496871
0.00690109 -0.501259 -0.501259
0.0144717 -0.505771 -0.505771
0.0219613 -0.501336 -0.501336
0.0143888 -0.496826 -0.496826
0.0144304 -0.501291 -0.501291
0.0069178 -0.505739 -0.505739
0.00695068 -0.514741 -0.514741
0.0221578 -0.514818 -0.514818
0.0220272 -0.505815 -0.505815
0.00693433 -0.510233 -0.510233
0.0145534 -0.514773 -0.514773
0.0220927 -0.510309 -0.510309
0.0144717 -0.505771 -0.505771
0.0145127 -0.510265 -0.510265
0.00695068 -0.514741 -0.514741
0.00698284 -0.523801 -0.523801
0.0222865 -0.523877 -0.523877
0.0221578 -0.514818 -0.514818
0.00696685 -0.519264 -0.519264
0.0146339 -0.523833 -0.523833
0.0222224 -0.51934 -0.51934
0.0145534 -0.514773 -0.514773
0.0145938 -0.519296 -0.519296
0.00698284 -0.523801 -0.523801
0.00701429 -0.532918 -0.532918
0.0224136 -0.532994 -0.532994
0.0222865 -0.523877 -0.523877
0.00699865 -0.528353 -0.528353
0.0147131 -0.53295 -0.53295
0.0223503 -0.528429 -0.528429
0.0146339 -0.523833 -0.523833
0.0146736 -0.528385 -0.528385
0.00701429 -0.532918 -0.532918
0.00704502 -0.542092 -0.542092
0.0225389 -0.542167 -0.542167
0.0224136 -0.532994 -0.532994
0.00702974 -0.537498 -0.537498
0.0147911 -0.542124 -0.542124
0.0224764 -0.537574 -0.537574
0.0147131 -0.53295 -0.53295
0.0147523 -0.53753 -0.53753
0.00704502 -0.542092 -0.542092
0.00707504 -0.551321 -0.551321
0.0226624 -0.551396 -0.551396
0.0225389 -0.542167 -0.542167
0.00706012 -0.546699 -0.546699
0.0148679 -0.551353 -0.551353
0.0226009 -0.546775 -0.546775
0.0147911 -0.542124 -0.542124
0.0148297 -0.546731 -0.546731
0.00707504 -0.551321 -0.551321
0.00710435 -0.560605 -0.560605
0.0227843 -0.56068 -0.56068
0.0226624 -0.551396 -0.551396
0.00708979 -0.555956 -0.555956
0.0149435 -0.560637 -0.560637
0.0227236 -0.556031 -0.556031
0.0148679 -0.551353 -0.551353
0.0149059 -0.555988 -0.555988
0.00710435 -0.560605 -0.560605
0.00713295 -0.569944 -0.569944
0.0229044 -0.570019 -0.570019
0.0227843 -0.56068 -0.56068
0.00711874 -0.565267 -0.565267
0.0150179 -0.569975 -0.569975
0.0228446 -0.565343 -0.565343
0.0149435 -0.560637 -0.560637
0.0149808 -0.565299 -0.565299
0.00713295 -0.569944 -0.569944
0.00716084 -0.579336 -0.579336
0.0230228 -0.579411 -0.579411
0.0229044 -0.570019 -0.570019
0.00714699 -0.574633 -0.574633
0.015091 -0.579368 -0.579368
0.0229638 -0.574708 -0.574708
0.0150179 -0.569975 -0.569975
0.0150546 -0.574665 -0.574665
0.00716084 -0.579336 -0.579336
0.00718803 -0.588782 -0.588782
0.0231394 -0.588857 -0.588857
0.0230228 -0.579411 -0.579411
0.00717452 -0.584052 -0.584052
0.0151629 -0.588814 -0.588814
0.0230813 -0.584127 -0.584127
0.015091 -0.579368 -0.579368
0.0151271 -0.584084 -0.584084
0.00718803 -0.588782 -0.588782
0.0072145 -0.59828 -0.59828
0.0232543 -0.598355 -0.598355
0.0231394 -0.588857 -0.588857
0.00720135 -0.593524 -0.593524
0.0152336 -0.598312 -0.598312
0.0231971 -0.593599 -0.593599
0.0151629 -0.588814 -0.588814
0.0151984 -0.593556 -0.593556
0.0072145 -0.59828 -0.59828
0.00724027 -0.607831 -0.607831
0.0233675 -0.607905 -0.607905
0.0232543 -0.598355 -0.598355
0.00722747 -0.603049 -0.603049
0.0153031 -0.607862 -0.607862
0.0233111 -0.603124 -0.603124
0.0152336 -0.598312 -0.598312
0.0152685 -0.603081 -0.603081
0.00724027 -0.607831 -0.607831
0.00726533 -0.617433 -0.617433
0.023479 -0.617507 -0.617507
0.0233675 -0.607905 -0.607905
0.00725289 -0.612625 -0.612625
0.0153713 -0.617464 -0.617464
0.0234234 -0.6127 -0.6127
0.0153031 -0.607862 -0.607862
0.0153374 -0.612657 -0.612657
0.00726533 -0.617433 -0.617433
0.0072897 -0.627086 -0.627086
0.0235887 -0.62716 -0.62716
0.023479 -0.617507 -0.617507
0.0072776 -0.622253 -0.622253
0.0154384 -0.627117 -0.627117
0.023534 -0.622327 -0.622327
0.0153713 -0.617464 -0.617464
0.015405 -0.622284 -0.622284
0.0072897 -0.627086 -0.627086
0.00731335 -0.636789 -0.636789
0.0236967 -0.636862 -0.636862
0.0235887 -0.62716 -0.62716
0.00730161 -0.631931 -0.631931
0.0155042 -0.63682 -0.63682
0.0236429 -0.632005 -0.632005
0.0154384 -0.627117 -0.627117
0.0154714 -0.631963 -0.631963
0.00731335 -0.636789 -0.636789
0.00733631 -0.646541 -0.646541
0.023803 -0.646615 -0.646615
0.0236967 -0.636862 -0.636862
0.00732492 -0.641659 -0.641659
0.0155688 -0.646573 -0.646573
0.0237501 -0.641733 -0.641733
0.0155042 -0.63682 -0.63682
0.0155367 -0.64169 -0.64169
0.00733631 -0.646541 -0.646541
0.00735857 -0.656343 -0.656343
0.0239075 -0.656417 -0.656417
0.023803 -0.646615 -0.646615
0.00734753 -0.651436 -0.651436
0.0156322 -0.656375 -0.656375
0.0238555 -0.65151 -0.65151
0.0155688 -0.646573 -0.646573
0.0156007 -0.651468 -0.651468
0.00735857 -0.656343 -0.656343
0.00738013 -0.666193 -0.666193
0.0240104 -0.666267 -0.666267
0.0239075 -0.656417 -0.656417
0.00736944 -0.661262 -0.661262
0.0156944 -0.666225 -0.666225
0.0239592 -0.661336 -0.661336
0.0156322 -0.656375 -0.656375
0.0156635 -0.661294 -0.661294
0.00738013 -0.666193 -0.666193
0.00740099 -0.676092 -0.676092
0.0241115 -0.676165 -0.676165
0.0240104 -0.666267 -0.666267
0.00739065 -0.671137 -0.671137
0.0157554 -0.676123 -0.676123
0.0240612 -0.67121 -0.67121
0.0156944 -0.666225 -0.666225
0.0157251 -0.671168 -0.671168
0.00740099 -0.676092 -0.676092
0.00742116 -0.686037 -0.686037
0.0242109 -0.68611 -0.68611
0.0241115 -0.676165 -0.676165
0.00741117 -0.681058 -0.681058
0.0158152 -0.686068 -0.686068
0.0241614 -0.681131 -0.681131
0.0157554 -0.676123 -0.676123
0.0157855 -0.68109 -0.68109
0.00742116 -0.686037 -0.686037
0.00744064 -0.696029 -0.696029
0.0243086 -0.696101 -0.696101
0.0242109 -0.68611 -0.68611
0.00743099 -0.691027 -0.691027
0.0158738 -0.69606 -0.69606
0.02426 -0.6911 -0.6911
0.0158152 -0.686068 -0.686068
0.0158447 -0.691058 -0.691058
0.00744064 -0.696029 -0.696029
0.00745942 -0.706067 -0.706067
0.0244046 -0.706139 -0.706139
0.0243086 -0.696101 -0.696101
0.00745011 -0.701042 -0.701042
0.0159312 -0.706098 -0.706098
0.0243568 -0.701114 -0.701114
0.0158738 -0.69606 -0.69606
0.0159026 -0.701073 -0.701073
0.00745942 -0.706067 -0.706067
0.00747751 -0.71615 -0.71615
0.0244988 -0.716222 -0.716222
0.0244046 -0.706139 -0.706139
0.00746855 -0.711103 -0.711103
0.0159874 -0.716181 -0.716181
0.0244519 -0.711175 -0.711175
0.0159312 -0.706098 -0.706098
0.0159594 -0.711134 -0.711134
0.00747751 -0.71615 -0.71615
0.00749491 -0.726278 -0.726278
0.0245914 -0.72635 -0.72635
0.0244988 -0.716222 -0.716222
0.0074863 -0.721208 -0.721208
0.0160423 -0.726309 -0.726309
0.0245453 -0.72128 -0.72128
0.0159874 -0.716181 -0.716181
0.016015 -0.72124 -0.72124
0.00749491 -0.726278 -0.726278
0.00751163 -0.73645 -0.73645
0.0246822 -0.736522 -0.736522
0.0245914 -0.72635 -0.72635
0.00750336 -0.731359 -0.731359
0.0160961 -0.736482 -0.736482
0.024637 -0.731431 -0.731431
0.0160423 -0.726309 -0.726309
0.0160694 -0.73139 -0.73139
0.00751163 -0.73645 -0.73645
0.00752766 -0.746666 -0.746666
0.0247714 -0.746738 -0.746738
0.0246822 -0.736522 -0.736522
0.00751973 -0.741553 -0.741553
0.0161487 -0.746697 -0.746697
0.024727 -0.741625 -0.741625
0.0160961 -0.736482 -0.736482
0.0161225 -0.741584 -0.741584
0.00752766 -0.746666 -0.746666
0.007543 -0.756925 -0.756925
0.0248588 -0.756996 -0.756996
0.0247714 -0.746738 -0.746738
0.00753542 -0.75179 -0.75179
0.0162001 -0.756956 -0.756956
0.0248153 -0.751862 -0.751862
0.0161487 -0.746697 -0.746697
0.0161745 -0.751822 -0.751822
0.007543 -0.756925 -0.756925
0.00755767 -0.767227 -0.767227
0.0249445 -0.767298 -0.767298
0.0248588 -0.756996 -0.756996
0.00755042 -0.762071 -0.762071
0.0162503 -0.767258 -0.767258
0.0249018 -0.762142 -0.762142
0.0162001 -0.756956 -0.756956
0.0162253 -0.762102 -0.762102
0.00755767 -0.767227 -0.767227
0.00757165 -0.77757 -0.77757
0.0250285 -0.77764 -0.77764
0.0249445 -0.767298 -0.767298
0.00756474 -0.772393 -0.772393
0.0162993 -0.777601 -0.777601
0.0249867 -0.772464 -0.772464
0.0162503 -0.767258 -0.767258
0.0162749 -0.772424 -0.772424
0.00757165 -0.77757 -0.77757
0.00758495 -0.787954 -0.787954
0.0251108 -0.788024 -0.788024
0.0250285 -0.77764 -0.77764
0.00757839 -0.782757 -0.782757
0.0163471 -0.787985 -0.787985
0.0250699 -0.782827 -0.782827
0.0162993 -0.777601 -0.777601
0.0163233 -0.782788 -0.782788
0.00758495 -0.787954 -0.787954
0.00759758 -0.798379 -0.798379
0.0251914 -0.798449 -0.798449
0.0251108 -0.788024 -0.788024
0.00759135 -0.793161 -0.793161
0.0163937 -0.798409 -0.798409
0.0251513 -0.793232 -0.793232
0.0163471 -0.787985 -0.787985
0.0163705 -0.793192 -0.793192
0.00759758 -0.798379 -0.798379
0.00760953 -0.808843 -0.808843
0.0252704 -0.808913 -0.808913
0.0251914 -0.798449 -0.798449
0.00760364 -0.803606 -0.803606
0.0164391 -0.808874 -0.808874
0.0252311 -0.803676 -0.803676
0.0163937 -0.798409 -0.798409
0.0164166 -0.803637 -0.803637
0.00760953 -0.808843 -0.808843
0.00762081 -0.819347 -0.819347
0.0253476 -0.819417 -0.819417
0.0252704 -0.808913 -0.808913
0.00761526 -0.814091 -0.814091
0.0164834 -0.819378 -0.819378
0.0253092 -0.81416 -0.81416
0.0164391 -0.808874 -0.808874
0.0164614 -0.814121 -0.814121
0.00762081 -0.819347 -0.819347
0.00763142 -0.82989 -0.82989
0.0254231 -0.82996 -0.82996
0.0253476 -0.819417 -0.819417
0.0076262 -0.824614 -0.824614
0.0165264 -0.829921 -0.829921
0.0253856 -0.824684 -0.824684
0.0164834 -0.819378 -0.819378
0.0165051 -0.824645 -0.824645
0.00763142 -0.82989 -0.82989
0.00764136 -0.840471 -0.840471
0.025497 -0.840541 -0.840541
0.0254231 -0.82996 -0.82996
0.00763647 -0.835176 -0.835176
0.0165683 -0.840502 -0.840502
0.0254602 -0.835246 -0.835246
0.0165264 -0.829921 -0.829921
0.0165475 -0.835207 -0.835207
0.00764136 -0.840471 -0.840471
0.00765063 -0.85109 -0.85109
0.0255691 -0.851159 -0.851159
0.025497 -0.840541 -0.840541
0.00764607 -0.845776 -0.845776
0.016609 -0.85112 -0.85112
0.0255332 -0.845845 -0.845845
0.0165683 -0.840502 -0.840502
0.0165888 -0.845807 -0.845807
0.00765063 -0.85109 -0.85109
0.00765923 -0.861745 -0.861745
0.0256396 -0.861814 -0.861814
0.0255691 -0.851159 -0.851159
0.00765501 -0.856413 -0.856413
0.0166486 -0.861776 -0.861776
0.0256045 -0.856482 -0.856482
0.016609 -0.85112 -0.85112
0.016629 -0.856444 -0.856444
0.00765923 -0.861745 -0.861745
0.00766717 -0.872437 -0.872437
0.0257083 -0.872506 -0.872506
0.0256396 -0.861814 -0.861814
0.00766328 -0.867087 -0.867087
0.0166869 -0.872468 -0.872468
0.0256742 -0.867155 -0.867155
0.0166486 -0.861776 -0.861776
0.0166679 -0.867117 -0.867117
0.00766717 -0.872437 -0.872437
0.00767445 -0.883165 -0.883165
0.0257754 -0.883233 -0.883233
0.0257083 -0.872506 -0.872506
0.00767089 -0.877797 -0.877797
0.0167241 -0.883195 -0.883195
0.0257421 -0.877865 -0.877865
0.0166869 -0.872468 -0.872468
0.0167057 -0.877827 -0.877827
0.00767445 -0.883165 -0.883165
0.00768107 -0.893927 -0.893927
0.0258408 -0.893995 -0.893995
0.0257754 -0.883233 -0.883233
0.00767784 -0.888542 -0.888542
0.0167601 -0.893958 -0.893958
0.0258083 -0.88861 -0.88861
0.0167241 -0.883195 -0.883195
0.0167423 -0.888572 -0.888572
0.00768107 -0.893927 -0.893927
0.00768703 -0.904724 -0.904724
0.0259046 -0.904792 -0.904792
0.0258408 -0.893995 -0.893995
0.00768413 -0.899322 -0.899322
0.016795 -0.904755 -0.904755
0.0258729 -0.899389 -0.899389
0.0167601 -0.893958 -0.893958
0.0167777 -0.899352 -0.899352
0.00768703 -0.904724 -0.904724
0.00769234 -0.915556 -0.915556
0.0259666 -0.915623 -0.915623
0.0259046 -0.904792 -0.904792
0.00768977 -0.910136 -0.910136
0.0168287 -0.915586 -0.915586
0.0259358 -0.910203 -0.910203
0.016795 -0.904755 -0.904755
0.016812 -0.910166 -0.910166
0.00769234 -0.915556 -0.915556
0.007697 -0.92642 -0.92642
0.026027 -0.926487 -0.926487
0.0259666 -0.915623 -0.915623
0.00769475 -0.920984 -0.920984
0.0168612 -0.92645 -0.92645
0.025997 -0.921051 -0.921051
0.0168287 -0.915586 -0.915586
0.0168451 -0.921014 -0.921014
0.007697 -0.92642 -0.92642
0.007701 -0.937317 -0.937317
0.0260857 -0.937384 -0.937384
0.026027 -0.926487 -0.926487
0.00769908 -0.931864 -0.931864
0.0168925 -0.937347 -0.937347
0.0260566 -0.931931 -0.931931
0.0168612 -0.92645 -0.92645
0.016877 -0.931894 -0.931894
0.007701 -0.937317 -0.937317
0.00770435 -0.948246 -0.948246
0.0261427 -0.948313 -0.948313
0.0260857 -0.937384 -0.937384
0.00770276 -0.942778 -0.942778
0.0169227 -0.948276 -0.948276
0.0261144 -0.942844 -0.942844
0.0168925 -0.937347 -0.937347
0.0169078 -0.942807 -0.942807
0.00770435 -0.948246 -0.948246
0.00770706 -0.959207 -0.959207
0.0261981 -0.959273 -0.959273
0.0261427 -0.948313 -0.948313
0.00770579 -0.953722 -0.953722
0.0169518 -0.959237 -0.959237
0.0261706 -0.953789 -0.953789
0.0169227 -0.948276 -0.948276
0.0169374 -0.953752 -0.953752
0.00770706 -0.959207 -0.959207
0.00770913 -0.970198 -0.970198
0.0262518 -0.970264 -0.970264
0.0261981 -0.959273 -0.959273
0.00770817 -0.964699 -0.964699
0.0169796 -0.970228 -0.970228
0.0262252 -0.964765 -0.964765
0.0169518 -0.959237 -0.959237
0.0169658 -0.964728 -0.964728
0.00770913 -0.970198 -0.970198
0.00771055 -0.98122 -0.98122
0.0263038 -0.981286 -0.981286
0.0262518 -0.970264 -0.970264
0.00770992 -0.975705 -0.975705
0.0170064 -0.98125 -0.98125
0.026278 -0.975771 -0.975771
0.0169796 -0.970228 -0.970228
0.0169931 -0.975735 -0.975735
0.00771055 -0.98122 -0.98122
0.00771133 -0.992271 -0.992271
0.0263542 -0.992337 -0.992337
0.0263038 -0.981286 -0.981286
0.00771102 -0.986742 -0.986742
0.0170319 -0.992301 -0.992301
0.0263292 -0.986808 -0.986808
0.0170064 -0.98125 -0.98125
0.0170193 -0.986772 -0.986772
0.00771133 -0.992271 -0.992271
0.00771147 -1.00335 -1.00335
0.0264029 -1.00342 -1.00342
0.0263542 -0.992337 -0.992337
0.00771148 -0.997808 -0.997808
0.0170564 -1.00338 -1.00338
0.0263788 -0.997873 -0.997873
0.0170319 -0.992301 -0.992301
0.0170443 -0.997838 -0.997838
0.00771147 -1.00335 -1.00335
0.00771098 -1.01446 -1.01446
0.02645 -1.01453 -1.01453
0.0264029 -1.00342 -1.00342
0.00771131 -1.0089 -1.0089
0.0170796 -1.01449 -1.01449
0.0264266 -1.00897 -1.00897
0.0170564 -1.00338 -1.00338
0.0170681 -1.00893 -1.00893
0.00771098 -1.01446 -1.01446
0.00770986 -1.0256 -1.0256
0.0264954 -1.02566 -1.02566
0.02645 -1.01453 -1.01453
0.0077105 -1.02003 -1.02003
0.0171018 -1.02563 -1.02563
0.0264729 -1.02009 -1.02009
0.0170796 -1.01449 -1.01449
0.0170909 -1.02006 -1.02006
0.00770986 -1.0256 -1.0256
0.00770811 -1.03676 -1.03676
0.0265391 -1.03683 -1.03683
0.0264954 -1.02566 -1.02566
0.00770906 -1.03118 -1.03118
0.0171228 -1.03679 -1.03679
0.0265174 -1.03124 -1.03124
0.0171018 -1.02563 -1.02563
0.0171124 -1.03121 -1.03121
0.00770811 -1.03676 -1.03676
0.00770572 -1.04795 -1.04795
0.0265812 -1.04802 -1.04802
0.0265391 -1.03683 -1.03683
0.00770699 -1.04235 -1.04235
0.0171426 -1.04798 -1.04798
0.0265603 -1.04242 -1.04242
0.0171228 -1.03679 -1.03679
0.0171328 -1.04238 -1.04238
0.00770572 -1.04795 -1.04795
0.00770272 -1.05917 -1.05917
0.0266216 -1.05923 -1.05923
0.0265812 -1.04802 -1.04802
0.0077043 -1.05356 -1.05356
0.0171613 -1.0592 -1.0592
0.0266016 -1.05362 -1.05362
0.0171426 -1.04798 -1.04798
0.0171521 -1.05359 -1.05359
0.00770272 -1.05917 -1.05917
0.00769908 -1.07041 -1.07041
0.0266604 -1.07047 -1.07047
0.0266216 -1.05923 -1.05923
0.00770098 -1.06479 -1.06479
0.0171789 -1.07044 -1.07044
0.0266412 -1.06485 -1.06485
0.0171613 -1.0592 -1.0592
0.0171703 -1.06482 -1.06482
0.00769908 -1.07041 -1.07041
0.00769483 -1.08168 -1.08168
0.0266976 -1.08174 -1.08174
0.0266604 -1.07047 -1.07047
0.00769704 -1.07604 -1.07604
0.0171954 -1.08171 -1.08171
0.0266792 -1.0761 -1.0761
0.0171789 -1.07044 -1.07044
0.0171873 -1.07607 -1.07607
0.00769483 -1.08168 -1.08168
0.00768996 -1.09297 -1.09297
0.0267331 -1.09303 -1.09303
0.0266976 -1.08174 -1.08174
0.00769247 -1.08732 -1.08732
0.0172107 -1.093 -1.093
0.0267156 -1.08738 -1.08738
0.0171954 -1.08171 -1.08171
0.0172032 -1.08735 -1.08735
0.00768996 -1.09297 -1.09297
0.00768447 -1.10428 -1.10428
0.026767 -1.10435 -1.10435
0.0267331 -1.09303 -1.09303
0.00768729 -1.09862 -1.09862
0.0172249 -1.10431 -1.10431
0.0267502 -1.09869 -1.09869
0.0172107 -1.093 -1.093
0.0172179 -1.09865 -1.09865
0.00768447 -1.10428 -1.10428
0.00767837 -1.11562 -1.11562
0.0267992 -1.11568 -1.11568
0.026767 -1.10435 -1.10435
0.0076815 -1.10995 -1.10995
0.017238 -1.11565 -1.11565
0.0267833 -1.11001 -1.11001
0.0172249 -1.10431 -1.10431
0.0172316 -1.10998 -1.10998
0.00767837 -1.11562 -1.11562
0.00767166 -1.12698 -1.12698
0.0268298 -1.12704 -1.12704
0.0267992 -1.11568 -1.11568
0.00767509 -1.1213 -1.1213
0.0172499 -1.12701 -1.12701
0.0268147 -1.12136 -1.12136
0.017238 -1.11565 -1.11565
0.0172441 -1.12133 -1.12133
0.00767166 -1.12698 -1.12698
0.00766434 -1.13836 -1.13836
0.0268588 -1.13843 -1.13843
0.0268298 -1.12704 -1.12704
0.00766808 -1.13267 -1.13267
0.0172607 -1.13839 -1.13839
0.0268445 -1.13273 -1.13273
0.0172499 -1.12701 -1.12701
0.0172555 -1.1327 -1.1327
0.00766434 -1.13836 -1.13836
0.00765642 -1.14977 -1.14977
0.0268862 -1.14983 -1.14983
0.0268588 -1.13843 -1.13843
0.00766045 -1.14406 -1.14406
0.0172705 -1.1498 -1.1498
0.0268727 -1.14412 -1.14412
0.0172607 -1.13839 -1.13839
0.0172657 -1.14409 -1.14409
0.00765642 -1.14977 -1.14977
0.00764789 -1.16119 -1.16119
0.0269119 -1.16125 -1.16125
0.0268862 -1.14983 -1.14983
0.00765223 -1.15548 -1.15548
0.0172791 -1.16122 -1.16122
0.0268992 -1.15554 -1.15554
0.0172705 -1.1498 -1.1498
0.0172749 -1.1555 -1.1555
0.00764789 -1.16119 -1.16119
0.00763875 -1.17263 -1.17263
0.026936 -1.17269 -1.17269
0.0269119 -1.16125 -1.16125
0.0076434 -1.16691 -1.16691
0.0172865 -1.17266 -1.17266
0.0269241 -1.16697 -1.16697
0.0172791 -1.16122 -1.16122
0.0172829 -1.16694 -1.16694
0.00763875 -1.17263 -1.17263
0.00762903 -1.1841 -1.1841
0.0269585 -1.18416 -1.18416
0.026936 -1.17269 -1.17269
0.00763396 -1.17836 -1.17836
0.0172929 -1.18413 -1.18413
0.0269474 -1.17842 -1.17842
0.0172865 -1.17266 -1.17266
0.0172899 -1.17839 -1.17839
0.00762903 -1.1841 -1.1841
0.0076187 -1.19558 -1.19558
0.0269793 -1.19564 -1.19564
0.0269585 -1.18416 -1.18416
0.00762394 -1.18984 -1.18984
0.0172982 -1.19561 -1.19561
0.0269691 -1.1899 -1.1899
0.0172929 -1.18413 -1.18413
0.0172957 -1.18986 -1.18986
0.0076187 -1.19558 -1.19558
0.00760778 -1.20708 -1.20708
0.0269986 -1.20714 -1.20714
0.0269793 -1.19564 -1.19564
0.00761332 -1.20133 -1.20133
0.0173023 -1.20711 -1.20711
0.0269891 -1.20139 -1.20139
0.0172982 -1.19561 -1.19561
0.0173004 -1.20136 -1.20136
0.00760778 -1.20708 -1.20708
0.00759627 -1.2186 -1.2186
0.0270162 -1.21866 -1.21866
0.0269986 -1.20714 -1.20714
0.0076021 -1.21284 -1.21284
0.0173054 -1.21862 -1.21862
0.0270076 -1.2129 -1.2129
0.0173023 -1.20711 -1.20711
0.017304 -1.21286 -1.21286
0.00759627 -1.2186 -1.2186
0.00758418 -1.23013 -1.23013
0.0270322 -1.23019 -1.23019
0.0270162 -1.21866 -1.21866
0.0075903 -1.22436 -1.22436
0.0173074 -1.23016 -1.23016
0.0270244 -1.22442 -1.22442
0.0173054 -1.21862 -1.21862
0.0173065 -1.22439 -1.22439
0.00758418 -1.23013 -1.23013
0.0075715 -1.24168 -1.24168
0.0270466 -1.24174 -1.24174
0.0270322 -1.23019 -1.23019
0.00757791 -1.23591 -1.23591
0.0173082 -1.24171 -1.24171
0.0270396 -1.23596 -1.23596
0.0173074 -1.23016 -1.23016
0.0173079 -1.23593 -1.23593
0.0075715 -1.24168 -1.24168
0.00755823 -1.25325 -1.25325
0.0270594 -1.25331 -1.25331
0.0270466 -1.24174 -1.24174
0.00756494 -1.24746 -1.24746
0.017308 -1.25328 -1.25328
0.0270532 -1.24752 -1.24752
0.0173082 -1.24171 -1.24171
0.0173083 -1.24749 -1.24749
0.00755823 -1.25325 -1.25325
0.00754439 -1.26483 -1.26483
0.0270706 -1.26489 -1.26489
0.0270594 -1.25331 -1.25331
0.00755138 -1.25904 -1.25904
0.0173067 -1.26486 -1.26486
0.0270652 -1.2591 -1.2591
0.017308 -1.25328 -1.25328
0.0173075 -1.25907 -1.25907
0.00754439 -1.26483 -1.26483
0.00752996 -1.27643 -1.27643
0.0270802 -1.27648 -1.27648
0.0270706 -1.26489 -1.26489
0.00753725 -1.27063 -1.27063
0.0173043 -1.27645 -1.27645
0.0270756 -1.27068 -1.27068
0.0173067 -1.26486 -1.26486
0.0173056 -1.27065 -1.27065
0.00752996 -1.27643 -1.27643
0.00751497 -1.28804 -1.28804
0.0270883 -1.28809 -1.28809
0.0270802 -1.27648 -1.27648
0.00752254 -1.28223 -1.28223
0.0173008 -1.28806 -1.28806
0.0270844 -1.28229 -1.28229
0.0173043 -1.27645 -1.27645
0.0173027 -1.28226 -1.28226
0.00751497 -1.28804 -1.28804
0.0074994 -1.29966 -1.29966
0.0270947 -1.29972 -1.29972
0.0270883 -1.28809 -1.28809
0.00750726 -1.29385 -1.29385
0.0172962 -1.29969 -1.29969
0.0270917 -1.2939 -1.2939
0.0173008 -1.28806 -1.28806
0.0172986 -1.29387 -1.29387
0.0074994 -1.29966 -1.29966
0.00748326 -1.3113 -1.3113
0.0270995 -1.31135 -1.31135
0.0270947 -1.29972 -1.29972
0.0074914 -1.30548 -1.30548
0.0172905 -1.31132 -1.31132
0.0270973 -1.30553 -1.30553
0.0172962 -1.29969 -1.29969
0.0172935 -1.3055 -1.3055
0.00748326 -1.3113 -1.3113
0.00746656 -1.32295 -1.32295
0.0271027 -1.323 -1.323
0.0270995 -1.31135 -1.31135
0.00747498 -1.31712 -1.31712
0.0172838 -1.32297 -1.32297
0.0271013 -1.31718 -1.31718
0.0172905 -1.31132 -1.31132
0.0172873 -1.31715 -1.31715
0.00746656 -1.32295 -1.32295
0.00744929 -1.33461 -1.33461
0.0271044 -1.33466 -1.33466
0.0271027 -1.323 -1.323
0.00745799 -1.32877 -1.32877
0.017276 -1.33463 -1.33463
0.0271037 -1.32883 -1.32883
0.0172838 -1.32297 -1.32297
0.01728 -1.3288 -1.3288
0.00744929 -1.33461 -1.33461
0.00743146 -1.34628 -1.34628
0.0271044 -1.34633 -1.34633
0.0271044 -1.33466 -1.33466
0.00744044 -1.34044 -1.34044
0.0172671 -1.3463 -1.3463
0.0271046 -1.34049 -1.34049
0.017276 -1.33463 -1.33463
0.0172717 -1.34047 -1.34047
0.00743146 -1.34628 -1.34628
0.00741307 -1.35796 -1.35796
0.0271029 -1.35801 -1.35801
0.0271044 -1.34633 -1.34633
0.00742234 -1.35212 -1.35212
0.0172572 -1.35798 -1.35798
0.0271039 -1.35217 -1.35217
0.0172671 -1.3463 -1.3463
0.0172623 -1.35214 -1.35214
0.00741307 -1.35796 -1.35796
0.00739413 -1.36965 -1.36965
0.0270998 -1.3697 -1.3697
0.0271029 -1.35801 -1.35801
0.00740367 -1.3638 -1.3638
0.0172461 -1.36967 -1.36967
0.0271016 -1.36386 -1.36386
0.0172572 -1.35798 -1.35798
0.0172518 -1.36383 -1.36383
0.00739413 -1.36965 -1.36965
0.00737463 -1.38135 -1.38135
0.0270952 -1.3814 -1.3814
0.0270998 -1.3697 -1.3697
0.00738445 -1.3755 -1.3755
0.0172341 -1.38137 -1.38137
0.0270977 -1.37555 -1.37555
0.0172461 -1.36967 -1.36967
0.0172402 -1.37552 -1.37552
0.00737463 -1.38135 -1.38135
0.00735458 -1.39306 -1.39306
0.0270889 -1.39311 -1.39311
0.0270952 -1.3814 -1.3814
0.00736468 -1.3872 -1.3872
0.0172209 -1.39308 -1.39308
0.0270922 -1.38725 -1.38725
0.0172341 -1.38137 -1.38137
0.0172276 -1.38723 -1.38723
0.00735458 -1.39306 -1.39306
0.00733399 -1.40477 -1.40477
0.0270811 -1.40482 -1.40482
0.0270889 -1.39311 -1.39311
0.00734435 -1.39891 -1.39891
0.0172067 -1.4048 -1.4048
0.0270852 -1.39897 -1.39897
0.0172209 -1.39308 -1.39308
0.0172139 -1.39894 -1.39894
0.00733399 -1.40477 -1.40477
0.00731284 -1.4165 -1.4165
0.0270717 -1.41655 -1.41655
0.0270811 -1.40482 -1.40482
0.00732348 -1.41063 -1.41063
0.0171914 -1.41652 -1.41652
0.0270766 -1.41068 -1.41068
0.0172067 -1.4048 -1.4048
0.0171992 -1.41066 -1.41066
0.00731284 -1.4165 -1.4165
0.00729113 -1.42823 -1.42823
0.0270607 -1.42828 -1.42828
0.0270717 -1.41655 -1.41655
0.00730205 -1.42236 -1.42236
0.0171751 -1.42825 -1.42825
0.0270664 -1.42241 -1.42241
0.0171914 -1.41652 -1.41652
0.0171834 -1.42239 -1.42239
0.00729113 -1.42823 -1.42823
0.00726886 -1.43996 -1.43996
0.0270481 -1.44001 -1.44001
0.0270607 -1.42828 -1.42828
0.00728007 -1.43409 -1.43409
0.0171576 -1.43999 -1.43999
0.0270546 -1.43414 -1.43414
0.0171751 -1.42825 -1.42825
0.0171665 -1.43412 -1.43412
0.00726886 -1.43996 -1.43996
0.00724601 -1.4517 -1.4517
0.0270339 -1.45175 -1.45175
0.0270481 -1.44001 -1.44001
0.00725751 -1.44583 -1.44583
0.0171391 -1.45173 -1.45173
0.0270412 -1.44588 -1.44588
0.0171576 -1.43999 -1.43999
0.0171485 -1.44586 -1.44586
0.00724601 -1.4517 -1.4517
0.00722254 -1.46345 -1.46345
0.027018 -1.4635 -1.4635
0.0270339 -1.45175 -1.45175
0.00723436 -1.45758 -1.45758
0.0171193 -1.46347 -1.46347
0.0270262 -1.45763 -1.45763
0.0171391 -1.45173 -1.45173
0.0171294 -1.4576 -1.4576
0.00722254 -1.46345 -1.46345
0.00719843 -1.4752 -1.4752
0.0270003 -1.47525 -1.47525
0.027018 -1.4635 -1.4635
0.00721057 -1.46933 -1.46933
0.0170983 -1.47523 -1.47523
0.0270094 -1.46937 -1.46937
0.0171193 -1.46347 -1.46347
0.017109 -1.46935 -1.46935
0.00719843 -1.4752 -1.4752
0.0071736 -1.48696 -1.48696
0.0269807 -1.487 -1.487
0.0270003 -1.47525 -1.47525
0.0071861 -1.48108 -1.48108
0.017076 -1.48698 -1.48698
0.0269907 -1.48113 -1.48113
0.0170983 -1.47523 -1.47523
0.0170873 -1.4811 -1.4811
0.0071736 -1.48696 -1.48696
0.00714808 -1.49871 -1.49871
0.0269589 -1.49876 -1.49876
0.0269807 -1.487 -1.487
0.00716093 -1.49284 -1.49284
0.0170522 -1.49874 -1.49874
0.0269701 -1.49288 -1.49288
0.017076 -1.48698 -1.48698
0.0170643 -1.49286 -1.49286
0.00714808 -1.49871 -1.49871
0.0071219 -1.51047 -1.51047
0.0269352 -1.51052 -1.51052
0.0269589 -1.49876 -1.49876
0.00713505 -1.50459 -1.50459
0.0170271 -1.5105 -1.5105
0.0269473 -1.50464 -1.50464
0.0170522 -1.49874 -1.49874
0.0170398 -1.50462 -1.50462
0.0071219 -1.51047 -1.51047
0.00709538 -1.52223 -1.52223
0.0269097 -1.52228 -1.52228
0.0269352 -1.51052 -1.51052
0.00710867 -1.51635 -1.51635
0.0170012 -1.52226 -1.52226
0.0269226 -1.5164 -1.5164
0.0170271 -1.5105 -1.5105
0.0170142 -1.51638 -1.51638
0.00709538 -1.52223 -1.52223
0.00706877 -1.53399 -1.53399
0.026884 -1.53405 -1.53405
0.0269097 -1.52228 -1.52228
0.00708205 -1.52811 -1.52811
0.0169752 -1.53402 -1.53402
0.0268968 -1.52817 -1.52817
0.0170012 -1.52226 -1.52226
0.0169881 -1.52814 -1.52814
0.00706877 -1.53399 -1.53399
0.00704274 -1.54574 -1.54574
0.0268594 -1.5458 -1.5458
0.026884 -1.53405 -1.53405
0.00705567 -1.53987 -1.53987
0.0169498 -1.54577 -1.54577
0.0268715 -1.53993 -1.53993
0.0169752 -1.53402 -1.53402
0.0169624 -1.5399 -1.5399
0 0 0
0.000266346 -2.75242e-05 -2.75242e-05
0.000458189 -0.000130043 -0.000130043
0 0 0
0.000129122 8.05365e-06 8.05365e-06
0.000358722 -6.63659e-05 -6.63659e-05
0.000222352 -4.66509e-05 -4.66509e-05
0 0 0
0.000176633 -1.41413e-05 -1.41413e-05
0.000266346 -2.75242e-05 -2.75242e-05
0.000553051 -0.000207378 -0.000207378
0.000954249 -0.000375312 -0.000375312
0.000458189 -0.000130043 -0.000130043
0.000407911 -0.000100209 -0.000100209
0.000746872 -0.000276922 -0.000276922
0.000703861 -0.000240835 -0.000240835
0.000358722 -6.63659e-05 -6.63659e-05
0.000549693 -0.000155566 -0.000155566
0.000553051 -0.000207378 -0.000207378
0.000851687 -0.00051846 -0.00051846
0.00145476 -0.000712248 -0.000712248
0.000954249 -0.000375312 -0.000375312
0.000701462 -0.00034737 -0.00034737
0.00114731 -0.000601821 -0.000601821
0.00120481 -0.000531933 -0.000531933
0.000746872 -0.000276922 -0.000276922
0.000946588 -0.000425777 -0.000425777
0.000851687 -0.00051846 -0.00051846
0.00115274 -0.000949154 -0.000949154
0.00195271 -0.00115098 -0.00115098
0.00145476 -0.000712248 -0.000712248
0.00100225 -0.000719181 -0.000719181
0.00154843 -0.00103749 -0.00103749
0.00170418 -0.000918295 -0.000918295
0.00114731 -0.000601821 -0.000601821
0.00134811 -0.000805696 -0.000805696
0.00115274 -0.000949154 -0.000949154
0.00145273 -0.00149629 -0.00149629
0.00244634 -0.00169877 -0.00169877
0.00195271 -0.00115098 -0.00115098
0.001303 -0.00120826 -0.00120826
0.00194638 -0.00158526 -0.00158526
0.00220003 -0.00141093 -0.00141093
0.00154843 -0.00103749 -0.00103749
0.00174786 -0.00129724 -0.00129724
0.00145273 -0.00149629 -0.00149629
0.00174986 -0.00215866 -0.00215866
0.00293662 -0.00235982 -0.00235982
0.00244634 -0.00169877 -0.00169877
0.00160167 -0.0018131 -0.0018131
0.0023408 -0.0022471 -0.0022471
0.00269187 -0.00201502 -0.00201502
0.00194638 -0.00158526 -0.00158526
0.00214401 -0.00190186 -0.00190186
0.00174986 -0.00215866 -0.00215866
0.00204427 -0.00293606 -0.00293606
0.00342374 -0.00313533 -0.00313533
0.00293662 -0.00235982 -0.00235982
0.00189739 -0.002533 -0.002533
0.00273195 -0.00302357 -0.00302357
0.00318056 -0.00273324 -0.00273324
0.0023408 -0.0022471 -0.0022471
0.00253676 -0.002621 -0.002621
0.00204427 -0.00293606 -0.00293606
0.00233611 -0.00382808 -0.00382808
0.00390805 -0.00402563 -0.00402563
0.00342374 -0.00313533 -0.00313533
0.00219049 -0.00336776 -0.00336776
0.00312023 -0.00391474 -0.00391474
0.00366624 -0.00356614 -0.00356614
0.00273195 -0.00302357 -0.00302357
0.00292642 -0.00345483 -0.00345483
0.00233611 -0.00382808 -0.00382808
0.00262576 -0.00483434 -0.00483434
0.00438965 -0.00503037 -0.00503037
0.00390805 -0.00402563 -0.00402563
0.00248119 -0.00431696 -0.00431696
0.00350596 -0.00492026 -0.00492026
0.00414919 -0.00451373 -0.00451373
0.00312023 -0.00391474 -0.00391474
0.0033134 -0.00440323 -0.00440323
0.00262576 -0.00483434 -0.00483434
0.00291344 -0.00595432 -0.00595432
0.0048686 -0.00614906 -0.00614906
0.00438965 -0.00503037 -0.00503037
0.00276984 -0.00538015 -0.00538015
0.00388932 -0.00603963 -0.00603963
0.00462945 -0.00557551 -0.00557551
0.00350596 -0.00492026 -0.00492026
0.00369792 -0.00546575 -0.00546575
0.00291344 -0.00595432 -0.00595432
0.00319932 -0.00718749 -0.00718749
0.00534492 -0.00738108 -0.00738108
0.0048686 -0.00614906 -0.00614906
0.0030566 -0.0065568 -0.0065568
0.00427044 -0.00727227 -0.00727227
0.00510708 -0.00675094 -0.00675094
0.00388932 -0.00603963 -0.00603963
0.00408015 -0.00664183 -0.00664183
0.00319932 -0.00718749 -0.00718749
0.00348349 -0.00853327 -0.00853327
0.00581862 -0.00872581 -0.00872581
0.00534492 -0.00738108 -0.00738108
0.00334161 -0.00784634 -0.00784634
0.00464939 -0.00861757 -0.00861757
0.0055821 -0.0080394 -0.0080394
0.00427044 -0.00727227 -0.00727227
0.00446018 -0.00793088 -0.00793088
0.00348349 -0.00853327 -0.00853327
0.003766 -0.00999107 -0.00999107
0.00628971 -0.0101826 -0.0101826
0.00581862 -0.00872581 -0.00872581
0.00362495 -0.00924821 -0.00924821
0.00502619 -0.0100749 -0.0100749
0.00605449 -0.00944024 -0.00944024
0.00464939 -0.00861757 -0.00861757
0.00483805 -0.00933229 -0.00933229
0.003766 -0.00999107 -0.00999107
0.00404689 -0.0115603 -0.0115603
0.00675818 -0.0117509 -0.0117509
0.00628971 -0.0101826 -0.0101826
0.00390665 -0.0107618 -0.0107618
0.00540087 -0.0116437 -0.0116437
0.00652427 -0.0109529 -0.0109529
0.00502619 -0.0100749 -0.0100749
0.0052138 -0.0108454 -0.0108454
0.00404689 -0.0115603 -0.0115603
0.00432617 -0.0132403 -0.0132403
0.00722402 -0.01343 -0.01343
0.00675818 -0.0117509 -0.0117509
0.00418673 -0.0123865 -0.0123865
0.00577343 -0.0133234 -0.0133234
0.00699143 -0.0125766 -0.0125766
0.00540087 -0.0116437 -0.0116437
0.00558741 -0.0124697 -0.0124697
0.00432617 -0.0132403 -0.0132403
0.00460382 -0.0150305 -0.0150305
0.00768724 -0.0152193 -0.0152193
0.00722402 -0.01343 -0.01343
0.0044652 -0.0141217 -0.0141217
0.00614387 -0.0151132 -0.0151132
0.00745596 -0.0143109 -0.0143109
0.00577343 -0.0133234 -0.0133234
0.00595891 -0.0142045 -0.0142045
0.00460382 -0.0150305 -0.0150305
0.00487987 -0.0169304 -0.0169304
0.00814782 -0.0171182 -0.0171182
0.00768724 -0.0152193 -0.0152193
0.00474205 -0.0159668 -0.0159668
0.00651218 -0.0170126 -0.0170126
0.00791786 -0.0161551 -0.0161551
0.00614387 -0.0151132 -0.0151132
0.00632829 -0.0160493 -0.0160493
0.00487987 -0.0169304 -0.0169304
0.0051543 -0.0189392 -0.0189392
0.00860576 -0.0191262 -0.0191262
0.00814782 -0.0171182 -0.0171182
0.00501729 -0.0179212 -0.0179212
0.00687837 -0.0190211 -0.0190211
0.00837712 -0.0181086 -0.0181086
0.00651218 -0.0170126 -0.0170126
0.00669554 -0.0180033 -0.0180033
0.0051543 -0.0189392 -0.0189392
0.00542711 -0.0210564 -0.0210564
0.00906106 -0.0212425 -0.0212425
0.00860576 -0.0191262 -0.0191262
0.00529091 -0.0199843 -0.0199843
0.00724242 -0.0211379 -0.0211379
0.00883374 -0.0201708 -0.0201708
0.00687837 -0.0190211 -0.0190211
0.00706066 -0.020066 -0.020066
0.00542711 -0.0210564 -0.0210564
0.00569829 -0.0232815 -0.0232815
0.00951372 -0.0234666 -0.0234666
0.00906106 -0.0212425 -0.0212425
0.0055629 -0.0221555 -0.0221555
0.00760434 -0.0233626 -0.0233626
0.00928772 -0.0223411 -0.0223411
0.00724242 -0.0211379 -0.0211379
0.00742365 -0.0222368 -0.0222368
0.00569829 -0.0232815 -0.0232815
0.00596785 -0.0256136 -0.0256136
0.00996372 -0.025798 -0.025798
0.00951372 -0.0234666 -0.0234666
0.00583327 -0.0244342 -0.0244342
0.00796412 -0.0256944 -0.0256944
0.00973905 -0.0246189 -0.0246189
0.00760434 -0.0233626 -0.0233626
0.0077845 -0.0245151 -0.0245151
0.00596785 -0.0256136 -0.0256136
0.00623577 -0.0280524 -0.0280524
0.0104111 -0.0282359 -0.0282359
0.00996372 -0.025798 -0.025798
0.00610201 -0.0268197 -0.0268197
0.00832175 -0.0281328 -0.0281328
0.0101877 -0.0270036 -0.0270036
0.00796412 -0.0256944 -0.0256944
0.0081432 -0.0269003 -0.0269003
0.00623577 -0.0280524 -0.0280524
0.00650206 -0.0305972 -0.0305972
0.0108558 -0.0307797 -0.0307797
0.0104111 -0.0282359 -0.0282359
0.00636912 -0.0293116 -0.0293116
0.00867724 -0.0306772 -0.0306772
0.0106337 -0.0294946 -0.0294946
0.00832175 -0.0281328 -0.0281328
0.00849977 -0.0293918 -0.0293918
0.00650206 -0.0305972 -0.0305972
0.0067667 -0.0332473 -0.0332473
0.0112978 -0.033429 -0.033429
0.0108558 -0.0307797 -0.0307797
0.00663459 -0.0319091 -0.0319091
0.00903058 -0.0333269 -0.0333269
0.0110771 -0.0320912 -0.0320912
0.00867724 -0.0306772 -0.0306772
0.00885418 -0.0319889 -0.0319889
0.0067667 -0.0332473 -0.0332473
0.00702971 -0.0360021 -0.0360021
0.0117371 -0.036183 -0.036183
0.0112978 -0.033429 -0.033429
0.00689841 -0.0346116 -0.0346116
0.00938176 -0.0360814 -0.0360814
0.0115178 -0.0347929 -0.0347929
0.00903058 -0.0333269 -0.0333269
0.00920644 -0.0346911 -0.0346911
0.00702971 -0.0360021 -0.0360021
0.00729106 -0.0388611 -0.0388611
0.0121738 -0.0390412 -0.0390412
0.0117371 -0.036183 -0.036183
0.00716059 -0.0374186 -0.0374186
0.00973078 -0.0389401 -0.0389401
0.0119558 -0.0375991 -0.0375991
0.00938176 -0.0360814 -0.0360814
0.00955654 -0.0374978 -0.0374978
0.00729106 -0.0388611 -0.0388611
0.00755076 -0.0418237 -0.0418237
0.0126078 -0.0420029 -0.0420029
0.0121738 -0.0390412 -0.0390412
0.00742112 -0.0403295 -0.0403295
0.0100776 -0.0419023 -0.0419023
0.0123912 -0.0405091 -0.0405091
0.00973078 -0.0389401 -0.0389401
0.00990448 -0.0404083 -0.0404083
0.00755076 -0.0418237 -0.0418237
0.00780881 -0.0448892 -0.0448892
0.0130392 -0.0450676 -0.0450676
0.0126078 -0.0420029 -0.0420029
0.00768 -0.0433436 -0.0433436
0.0104223 -0.0449674 -0.0449674
0.0128238 -0.0435224 -0.0435224
0.0100776 -0.0419023 -0.0419023
0.0102503 -0.043422 -0.043422
0.00780881 -0.0448892 -0.0448892
0.0080652 -0.048057 -0.048057
0.0134678 -0.0482346 -0.0482346
0.0130392 -0.0450676 -0.0450676
0.00793722 -0.0464603 -0.0464603
0.0107649 -0.0481349 -0.0481349
0.0132538 -0.0466383 -0.0466383
0.0104223 -0.0449674 -0.0449674
0.0105939 -0.0465384 -0.0465384
0.0080652 -0.048057 -0.048057
0.00831993 -0.0513266 -0.0513266
0.0138938 -0.0515033 -0.0515033
0.0134678 -0.0482346 -0.0482346
0.00819278 -0.0496791 -0.0496791
0.0111052 -0.0514041 -0.0514041
0.0136812 -0.0498563 -0.0498563
0.0107649 -0.0481349 -0.0481349
0.0109353 -0.0497568 -0.0497568
0.00831993 -0.0513266 -0.0513266
0.008573 -0.0546972 -0.0546972
0.0143171 -0.0548732 -0.0548732
0.0138938 -0.0515033 -0.0515033
0.00844667 -0.0529993 -0.0529993
0.0114434 -0.0547745 -0.0547745
0.0141058 -0.0531756 -0.0531756
0.0111052 -0.0514041 -0.0514041
0.0112746 -0.0530767 -0.0530767
0.008573 -0.0546972 -0.0546972
0.00882439 -0.0581684 -0.0581684
0.0147377 -0.0583436 -0.0583436
0.0143171 -0.0548732 -0.0548732
0.0086989 -0.0564203 -0.0564203
0.0117794 -0.0582453 -0.0582453
0.0145277 -0.0565958 -0.0565958
0.0114434 -0.0547745 -0.0547745
0.0116117 -0.0564974 -0.0564974
0.00882439 -0.0581684 -0.0581684
0.00907412 -0.0617395 -0.0617395
0.0151556 -0.0619139 -0.0619139
0.0147377 -0.0583436 -0.0583436
0.00894946 -0.0599415 -0.0599415
0.0121132 -0.0618161 -0.0618161
0.014947 -0.0601163 -0.0601163
0.0117794 -0.0582453 -0.0582453
0.0119466 -0.0600182 -0.0600182
0.00907412 -0.0617395 -0.0617395
0.00932217 -0.06541 -0.06541
0.0155708 -0.0655835 -0.0655835
0.0151556 -0.0619139 -0.0619139
0.00919835 -0.0635624 -0.0635624
0.0124448 -0.0654862 -0.0654862
0.0153635 -0.0637363 -0.0637363
0.0121132 -0.0618161 -0.0618161
0.0122793 -0.0636388 -0.0636388
0.00932217 -0.06541 -0.06541
0.00956854 -0.0691791 -0.0691791
0.0159833 -0.0693518 -0.0693518
0.0155708 -0.0655835 -0.0655835
0.00944556 -0.0672822 -0.0672822
0.0127743 -0.069255 -0.069255
0.0157774 -0.0674554 -0.0674554
0.0124448 -0.0654862 -0.0654862
0.0126098 -0.0673583 -0.0673583
0.00956854 -0.0691791 -0.0691791
0.00981323 -0.0730463 -0.0730463
0.0163931 -0.0732182 -0.0732182
0.0159833 -0.0693518 -0.0693518
0.0096911 -0.0711005 -0.0711005
0.0131015 -0.0731218 -0.0731218
0.0161886 -0.0712728 -0.0712728
0.0127743 -0.069255 -0.069255
0.0129382 -0.0711762 -0.0711762
0.00981323 -0.0730463 -0.0730463
0.0100562 -0.077011 -0.077011
0.0168002 -0.0771822 -0.0771822
0.0163931 -0.0732182 -0.0732182
0.00993495 -0.0750165 -0.0750165
0.0134266 -0.0770862 -0.0770862
0.016597 -0.0751881 -0.0751881
0.0131015 -0.0731218 -0.0731218
0.0132643 -0.0750919 -0.0750919
0.0100562 -0.077011 -0.077011
0.0102976 -0.0810726 -0.0810726
0.0172046 -0.081243 -0.081243
0.0168002 -0.0771822 -0.0771822
0.0101771 -0.0790297 -0.0790297
0.0137494 -0.0811475 -0.0811475
0.0170028 -0.0792005 -0.0792005
0.0134266 -0.0770862 -0.0770862
0.0135883 -0.0791048 -0.0791048
0.0102976 -0.0810726 -0.0810726
0.0105372 -0.0852304 -0.0852304
0.0176063 -0.0854001 -0.0854001
0.0172046 -0.081243 -0.081243
0.0104176 -0.0831395 -0.0831395
0.0140701 -0.085305 -0.085305
0.0174058 -0.0833095 -0.0833095
0.0137494 -0.0811475 -0.0811475
0.01391 -0.0832143 -0.0832143
0.0105372 -0.0852304 -0.0852304
0.0107751 -0.089484 -0.089484
0.0180053 -0.0896528 -0.0896528
0.0176063 -0.0854001 -0.0854001
0.0106564 -0.0873453 -0.0873453
0.0143885 -0.0895582 -0.0895582
0.0178061 -0.0875145 -0.0875145
0.0140701 -0.085305 -0.085305
0.0142296 -0.0874197 -0.0874197
0.0107751 -0.089484 -0.089484
0.0110114 -0.0938326 -0.0938326
0.0184015 -0.0940007 -0.0940007
0.0180053 -0.0896528 -0.0896528
0.0108935 -0.0916464 -0.0916464
0.0147048 -0.0939065 -0.0939065
0.0182037 -0.0918149 -0.0918149
0.0143885 -0.0895582 -0.0895582
0.0145469 -0.0917205 -0.0917205
0.0110114 -0.0938326 -0.0938326
0.011246 -0.0982756 -0.0982756
0.018795 -0.098443 -0.098443
0.0184015 -0.0940007 -0.0940007
0.0111289 -0.0960423 -0.0960423
0.0150188 -0.0983493 -0.0983493
0.0185986 -0.09621 -0.09621
0.0147048 -0.0939065 -0.0939065
0.0148621 -0.0961161 -0.0961161
0.011246 -0.0982756 -0.0982756
0.0114788 -0.102813 -0.102813
0.0191859 -0.102979 -0.102979
0.018795 -0.098443 -0.098443
0.0113626 -0.100532 -0.100532
0.0153307 -0.102886 -0.102886
0.0189908 -0.100699 -0.100699
0.0150188 -0.0983493 -0.0983493
0.015175 -0.100606 -0.100606
0.0114788 -0.102813 -0.102813
0.01171 -0.107443 -0.107443
0.0195739 -0.107609 -0.107609
0.0191859 -0.102979 -0.102979
0.0115946 -0.105116 -0.105116
0.0156403 -0.107516 -0.107516
0.0193802 -0.105282 -0.105282
0.0153307 -0.102886 -0.102886
0.0154858 -0.105189 -0.105189
0.01171 -0.107443 -0.107443
0.0119394 -0.112166 -0.112166
0.0199593 -0.112331 -0.112331
0.0195739 -0.107609 -0.107609
0.0118249 -0.109793 -0.109793
0.0159477 -0.112238 -0.112238
0.019767 -0.109958 -0.109958
0.0156403 -0.107516 -0.107516
0.0157943 -0.109865 -0.109865
0.0119394 -0.112166 -0.112166
0.0121672 -0.11698 -0.11698
0.0203419 -0.117145 -0.117145
0.0199593 -0.112331 -0.112331
0.0120535 -0.114562 -0.114562
0.0162529 -0.117053 -0.117053
0.020151 -0.114726 -0.114726
0.0159477 -0.112238 -0.112238
0.0161006 -0.114634 -0.114634
0.0121672 -0.11698 -0.11698
0.0123932 -0.121887 -0.121887
0.0207219 -0.12205 -0.12205
0.0203419 -0.117145 -0.117145
0.0122804 -0.119422 -0.119422
0.0165559 -0.121959 -0.121959
0.0205322 -0.119586 -0.119586
0.0162529 -0.117053 -0.117053
0.0164047 -0.119494 -0.119494
0.0123932 -0.121887 -0.121887
0.0126175 -0.126884 -0.126884
0.021099 -0.127047 -0.127047
0.0207219 -0.12205 -0.12205
0.0125056 -0.124374 -0.124374
0.0168566 -0.126956 -0.126956
0.0209108 -0.124537 -0.124537
0.0165559 -0.121959 -0.121959
0.0167065 -0.124446 -0.124446
0.0126175 -0.126884 -0.126884
0.0128402 -0.131971 -0.131971
0.0214735 -0.132133 -0.132133
0.021099 -0.127047 -0.127047
0.0127291 -0.129416 -0.129416
0.0171552 -0.132043 -0.132043
0.0212866 -0.129579 -0.129579
0.0168566 -0.126956 -0.126956
0.0170062 -0.129488 -0.129488
0.0128402 -0.131971 -0.131971
0.0130611 -0.137148 -0.137148
0.0218452 -0.137309 -0.137309
0.0214735 -0.132133 -0.132133
0.0129508 -0.134548 -0.134548
0.0174515 -0.137219 -0.137219
0.0216597 -0.13471 -0.13471
0.0171552 -0.132043 -0.132043
0.0173036 -0.13462 -0.13462
0.0130611 -0.137148 -0.137148
0.0132802 -0.142414 -0.142414
0.0222141 -0.142575 -0.142575
0.0218452 -0.137309 -0.137309
0.0131709 -0.13977 -0.13977
0.0177455 -0.142485 -0.142485
0.02203 -0.139931 -0.139931
0.0174515 -0.137219 -0.137219
0.0175988 -0.139841 -0.139841
0.0132802 -0.142414 -0.142414
0.0134977 -0.147768 -0.147768
0.0225804 -0.147928 -0.147928
0.0222141 -0.142575 -0.142575
0.0133892 -0.14508 -0.14508
0.0180374 -0.147839 -0.147839
0.0223976 -0.14524 -0.14524
0.0177455 -0.142485 -0.142485
0.0178917 -0.145151 -0.145151
0.0134977 -0.147768 -0.147768
0.0137135 -0.153211 -0.153211
0.0229438 -0.15337 -0.15337
0.0225804 -0.147928 -0.147928
0.0136058 -0.150479 -0.150479
0.018327 -0.153281 -0.153281
0.0227624 -0.150638 -0.150638
0.0180374 -0.147839 -0.147839
0.0181825 -0.150549 -0.150549
0.0137135 -0.153211 -0.153211
0.0139275 -0.15874 -0.15874
0.0233046 -0.158898 -0.158898
0.0229438 -0.15337 -0.15337
0.0138207 -0.155964 -0.155964
0.0186144 -0.15881 -0.15881
0.0231246 -0.156123 -0.156123
0.018327 -0.153281 -0.153281
0.018471 -0.156034 -0.156034
0.0139275 -0.15874 -0.15874
0.0141398 -0.164356 -0.164356
0.0236626 -0.164514 -0.164514
0.0233046 -0.158898 -0.158898
0.0140339 -0.161537 -0.161537
0.0188995 -0.164426 -0.164426
0.0234839 -0.161695 -0.161695
0.0186144 -0.15881 -0.15881
0.0187572 -0.161607 -0.161607
0.0141398 -0.164356 -0.164356
0.0143504 -0.170058 -0.170058
0.0240178 -0.170215 -0.170215
0.0236626 -0.164514 -0.164514
0.0142453 -0.167196 -0.167196
0.0191824 -0.170127 -0.170127
0.0238405 -0.167354 -0.167354
0.0188995 -0.164426 -0.164426
0.0190413 -0.167266 -0.167266
0.0143504 -0.170058 -0.170058
0.0145592 -0.175845 -0.175845
0.0243703 -0.176001 -0.176001
0.0240178 -0.170215 -0.170215
0.014455 -0.172941 -0.172941
0.0194631 -0.175914 -0.175914
0.0241944 -0.173097 -0.173097
0.0191824 -0.170127 -0.170127
0.0193231 -0.17301 -0.17301
0.0145592 -0.175845 -0.175845
0.0147664 -0.181717 -0.181717
0.0247201 -0.181873 -0.181873
0.0243703 -0.176001 -0.176001
0.014663 -0.178771 -0.178771
0.0197416 -0.181786 -0.181786
0.0245455 -0.178927 -0.178927
0.0194631 -0.175914 -0.175914
0.0196026 -0.178839 -0.178839
0.0147664 -0.181717 -0.181717
0.0149718 -0.187673 -0.187673
0.0250671 -0.187828 -0.187828
0.0247201 -0.181873 -0.181873
0.0148693 -0.184685 -0.184685
0.0200178 -0.187742 -0.187742
0.0248939 -0.18484 -0.18484
0.0197416 -0.181786 -0.181786
0.0198799 -0.184753 -0.184753
0.0149718 -0.187673 -0.187673
0.0151754 -0.193713 -0.193713
0.0254113 -0.193867 -0.193867
0.0250671 -0.187828 -0.187828
0.0150738 -0.190683 -0.190683
0.0202917 -0.193781 -0.193781
0.0252395 -0.190837 -0.190837
0.0200178 -0.187742 -0.187742
0.020155 -0.190751 -0.190751
0.0151754 -0.193713 -0.193713
0.0153774 -0.199836 -0.199836
0.0257528 -0.199989 -0.199989
0.0254113 -0.193867 -0.193867
0.0152766 -0.196764 -0.196764
0.0205634 -0.199904 -0.199904
0.0255824 -0.196918 -0.196918
0.0202917 -0.193781 -0.193781
0.0204279 -0.196832 -0.196832
0.0153774 -0.199836 -0.199836
0.0155776 -0.206041 -0.206041
0.0260916 -0.206194 -0.206194
0.0257528 -0.199989 -0.199989
0.0154777 -0.202928 -0.202928
0.0208329 -0.206109 -0.206109
0.0259225 -0.203081 -0.203081
0.0205634 -0.199904 -0.199904
0.0206985 -0.202996 -0.202996
0.0155776 -0.206041 -0.206041
0.0157761 -0.212328 -0.212328
0.0264275 -0.21248 -0.21248
0.0260916 -0.206194 -0.206194
0.015677 -0.209174 -0.209174
0.0211001 -0.212395 -0.212395
0.0262599 -0.209327 -0.209327
0.0208329 -0.206109 -0.206109
0.0209668 -0.209242 -0.209242
0.0157761 -0.212328 -0.212328
0.0159728 -0.218696 -0.218696
0.0267608 -0.218847 -0.218847
0.0264275 -0.21248 -0.21248
0.0158746 -0.215502 -0.215502
0.0213651 -0.218763 -0.218763
0.0265945 -0.215654 -0.215654
0.0211001 -0.212395 -0.212395
0.0212329 -0.215569 -0.215569
0.0159728 -0.218696 -0.218696
0.0161678 -0.225144 -0.225144
0.0270912 -0.225295 -0.225295
0.0267608 -0.218847 -0.218847
0.0160705 -0.22191 -0.22191
0.0216279 -0.225211 -0.225211
0.0269263 -0.222061 -0.222061
0.0213651 -0.218763 -0.218763
0.0214968 -0.221977 -0.221977
0.0161678 -0.225144 -0.225144
0.0163611 -0.231673 -0.231673
0.0274189 -0.231823 -0.231823
0.0270912 -0.225295 -0.225295
0.0162646 -0.228399 -0.228399
0.0218883 -0.231739 -0.231739
0.0272554 -0.228549 -0.228549
0.0216279 -0.225211 -0.225211
0.0217584 -0.228465 -0.228465
0.0163611 -0.231673 -0.231673
0.0165526 -0.23828 -0.23828
0.0277439 -0.23843 -0.23843
0.0274189 -0.231823 -0.231823
0.016457 -0.234967 -0.234967
0.0221466 -0.238347 -0.238347
0.0275818 -0.235116 -0.235116
0.0218883 -0.231739 -0.231739
0.0220177 -0.235033 -0.235033
0.0165526 -0.23828 -0.23828
0.0167424 -0.244967 -0.244967
0.0280661 -0.245116 -0.245116
0.0277439 -0.23843 -0.23843
0.0166477 -0.241614 -0.241614
0.0224026 -0.245033 -0.245033
0.0279053 -0.241763 -0.241763
0.0221466 -0.238347 -0.238347
0.0222749 -0.24168 -0.24168
0.0167424 -0.244967 -0.244967
0.0169304 -0.251732 -0.251732
0.0283855 -0.25188 -0.25188
0.0280661 -0.245116 -0.245116
0.0168366 -0.24834 -0.24834
0.0226563 -0.251797 -0.251797
0.0282261 -0.248488 -0.248488
0.0224026 -0.245033 -0.245033
0.0225297 -0.248405 -0.248405
0.0169304 -0.251732 -0.251732
0.0171167 -0.258574 -0.258574
0.0287022 -0.258721 -0.258721
0.0283855 -0.25188 -0.25188
0.0170238 -0.255143 -0.255143
0.0229078 -0.258639 -0.258639
0.0285442 -0.255291 -0.255291
0.0226563 -0.251797 -0.251797
0.0227823 -0.255208 -0.255208
0.0171167 -0.258574 -0.258574
0.0173013 -0.265493 -0.265493
0.0290161 -0.265639 -0.265639
0.0287022 -0.258721 -0.258721
0.0172092 -0.262024 -0.262024
0.023157 -0.265558 -0.265558
0.0288595 -0.26217 -0.26217
0.0229078 -0.258639 -0.258639
0.0230327 -0.262089 -0.262089
0.0173013 -0.265493 -0.265493
0.0174841 -0.272488 -0.272488
0.0293272 -0.272634 -0.272634
0.0290161 -0.265639 -0.265639
0.0173929 -0.268981 -0.268981
0.023404 -0.272553 -0.272553
0.029172 -0.269127 -0.269127
0.023157 -0.265558 -0.265558
0.0232808 -0.269046 -0.269046
0.0174841 -0.272488 -0.272488
0.0176652 -0.279559 -0.279559
0.0296356 -0.279704 -0.279704
0.0293272 -0.272634 -0.272634
0.0175749 -0.276014 -0.276014
0.0236487 -0.279623 -0.279623
0.0294817 -0.276159 -0.276159
0.023404 -0.272553 -0.272553
0.0235266 -0.276079 -0.276079
0.0176652 -0.279559 -0.279559
0.0178445 -0.286705 -0.286705
0.0299412 -0.286849 -0.286849
0.0296356 -0.279704 -0.279704
0.0177551 -0.283122 -0.283122
0.0238912 -0.286769 -0.286769
0.0297887 -0.283267 -0.283267
0.0236487 -0.279623 -0.279623
0.0237702 -0.283187 -0.283187
0.0178445 -0.286705 -0.286705
0.0180221 -0.293925 -0.293925
0.030244 -0.294069 -0.294069
0.0299412 -0.286849 -0.286849
0.0179336 -0.290306 -0.290306
0.0241314 -0.293989 -0.293989
0.0300929 -0.29045 -0.29045
0.0238912 -0.286769 -0.286769
0.0240116 -0.29037 -0.29037
0.0180221 -0.293925 -0.293925
0.018198 -0.30122 -0.30122
0.0305441 -0.301363 -0.301363
0.030244 -0.294069 -0.294069
0.0181103 -0.297563 -0.297563
0.0243694 -0.301283 -0.301283
0.0303944 -0.297707 -0.297707
0.0241314 -0.293989 -0.293989
0.0242507 -0.297627 -0.297627
0.018198 -0.30122 -0.30122
0.0183721 -0.308587 -0.308587
0.0308414 -0.30873 -0.30873
0.0305441 -0.301363 -0.301363
0.0182853 -0.304894 -0.304894
0.0246051 -0.308651 -0.308651
0.0306931 -0.305037 -0.305037
0.0243694 -0.301283 -0.301283
0.0244875 -0.304958 -0.304958
0.0183721 -0.308587 -0.308587
0.0185445 -0.316028 -0.316028
0.0311359 -0.316169 -0.316169
0.0308414 -0.30873 -0.30873
0.0184585 -0.312298 -0.312298
0.0248385 -0.316091 -0.316091
0.030989 -0.312441 -0.312441
0.0246051 -0.308651 -0.308651
0.0247221 -0.312362 -0.312362
0.0185445 -0.316028 -0.316028
0.0187151 -0.32354 -0.32354
0.0314277 -0.323681 -0.323681
0.0311359 -0.316169 -0.316169
0.01863 -0.319775 -0.319775
0.0250697 -0.323603 -0.323603
0.0312821 -0.319916 -0.319916
0.0248385 -0.316091 -0.316091
0.0249544 -0.319838 -0.319838
0.0187151 -0.32354 -0.32354
0.018884 -0.331124 -0.331124
0.0317167 -0.331264 -0.331264
0.0314277 -0.323681 -0.323681
0.0187997 -0.327323 -0.327323
0.0252987 -0.331186 -0.331186
0.0315725 -0.327464 -0.327464
0.0250697 -0.323603 -0.323603
0.0251845 -0.327386 -0.327386
0.018884 -0.331124 -0.331124
0.0190511 -0.338778 -0.338778
0.0320029 -0.338918 -0.338918
0.0317167 -0.331264 -0.331264
0.0189677 -0.334942 -0.334942
0.0255253 -0.338841 -0.338841
0.0318602 -0.335082 -0.335082
0.0252987 -0.331186 -0.331186
0.0254123 -0.335005 -0.335005
0.0190511 -0.338778 -0.338778
0.0192165 -0.346503 -0.346503
0.0322864 -0.346642 -0.346642
0.0320029 -0.338918 -0.338918
0.019134 -0.342632 -0.342632
0.0257498 -0.346565 -0.346565
0.032145 -0.342772 -0.342772
0.0255253 -0.338841 -0.338841
0.0256378 -0.342694 -0.342694
0.0192165 -0.346503 -0.346503
0.0193801 -0.354298 -0.354298
0.0325671 -0.354436 -0.354436
0.0322864 -0.346642 -0.346642
0.0192985 -0.350392 -0.350392
0.0259719 -0.35436 -0.35436
0.0324271 -0.350531 -0.350531
0.0257498 -0.346565 -0.346565
0.0258611 -0.350454 -0.350454
0.0193801 -0.354298 -0.354298
0.019542 -0.362161 -0.362161
0.032845 -0.362299 -0.362299
0.0325671 -0.354436 -0.354436
0.0194613 -0.358221 -0.358221
0.0261919 -0.362223 -0.362223
0.0327064 -0.358359 -0.358359
0.0259719 -0.35436 -0.35436
0.0260822 -0.358283 -0.358283
0.019542 -0.362161 -0.362161
0.0197021 -0.370093 -0.370093
0.0331202 -0.37023 -0.37023
0.032845 -0.362299 -0.362299
0.0196223 -0.366119 -0.366119
0.0264095 -0.370155 -0.370155
0.032983 -0.366256 -0.366256
0.0261919 -0.362223 -0.362223
0.026301 -0.36618 -0.36618
0.0197021 -0.370093 -0.370093
0.0198605 -0.378093 -0.378093
0.0333926 -0.378229 -0.378229
0.0331202 -0.37023 -0.37023
0.0197816 -0.374085 -0.374085
0.0266249 -0.378154 -0.378154
0.0332567 -0.374221 -0.374221
0.0264095 -0.370155 -0.370155
0.0265175 -0.374146 -0.374146
0.0198605 -0.378093 -0.378093
0.0200172 -0.38616 -0.38616
0.0336622 -0.386296 -0.386296
0.0333926 -0.378229 -0.378229
0.0199391 -0.382118 -0.382118
0.026838 -0.386221 -0.386221
0.0335277 -0.382254 -0.382254
0.0266249 -0.378154 -0.378154
0.0267318 -0.382179 -0.382179
0.0200172 -0.38616 -0.38616
0.0201721 -0.394294 -0.394294
0.0339291 -0.394429 -0.394429
0.0336622 -0.386296 -0.386296
0.0200949 -0.390218 -0.390218
0.0270489 -0.394354 -0.394354
0.033796 -0.390354 -0.390354
0.026838 -0.386221 -0.386221
0.0269438 -0.390279 -0.390279
0.0201721 -0.394294 -0.394294
0.0203253 -0.402493 -0.402493
0.0341932 -0.402627 -0.402627
0.0339291 -0.394429 -0.394429
0.0202489 -0.398385 -0.398385
0.0272576 -0.402553 -0.402553
0.0340615 -0.39852 -0.39852
0.0270489 -0.394354 -0.394354
0.0271535 -0.398445 -0.398445
0.0203253 -0.402493 -0.402493
0.0204767 -0.410758 -0.410758
0.0344545 -0.410892 -0.410892
0.0341932 -0.402627 -0.402627
0.0204012 -0.406617 -0.406617
0.0274639 -0.410818 -0.410818
0.0343242 -0.406751 -0.406751
0.0272576 -0.402553 -0.402553
0.027361 -0.406678 -0.406678
0.0204767 -0.410758 -0.410758
0.0206264 -0.419088 -0.419088
0.034713 -0.419221 -0.419221
0.0344545 -0.410892 -0.410892
0.0205517 -0.414915 -0.414915
0.027668 -0.419147 -0.419147
0.0345841 -0.415048 -0.415048
0.0274639 -0.410818 -0.410818
0.0275663 -0.414975 -0.414975
0.0206264 -0.419088 -0.419088
0.0207743 -0.427482 -0.427482
0.0349688 -0.427614 -0.427614
0.034713 -0.419221 -0.419221
0.0207005 -0.423277 -0.423277
0.0278699 -0.427541 -0.427541
0.0348413 -0.423409 -0.423409
0.027668 -0.419147 -0.419147
0.0277693 -0.423336 -0.423336
0.0207743 -0.427482 -0.427482
0.0209205 -0.435939 -0.435939
0.0352219 -0.436071 -0.436071
0.0349688 -0.427614 -0.427614
0.0208476 -0.431703 -0.431703
0.0280695 -0.435998 -0.435998
0.0350957 -0.431835 -0.431835
0.0278699 -0.427541 -0.427541
0.02797 -0.431762 -0.431762
0.0209205 -0.435939 -0.435939
0.0210649 -0.44446 -0.44446
0.0354721 -0.444591 -0.444591
0.0352219 -0.436071 -0.436071
0.0209929 -0.440192 -0.440192
0.0282669 -0.444518 -0.444518
0.0353473 -0.440323 -0.440323
0.0280695 -0.435998 -0.435998
0.0281685 -0.440251 -0.440251
0.0210649 -0.44446 -0.44446
0.0212076 -0.453043 -0.453043
0.0357196 -0.453173 -0.453173
0.0354721 -0.444591 -0.444591
0.0211365 -0.448743 -0.448743
0.028462 -0.453101 -0.453101
0.0355962 -0.448874 -0.448874
0.0282669 -0.444518 -0.444518
0.0283647 -0.448802 -0.448802
0.0212076 -0.453043 -0.453043
0.0213486 -0.461687 -0.461687
0.0359644 -0.461817 -0.461817
0.0357196 -0.453173 -0.453173
0.0212783 -0.457357 -0.457357
0.0286548 -0.461745 -0.461745
0.0358423 -0.457487 -0.457487
0.028462 -0.453101 -0.453101
0.0285587 -0.457416 -0.457416
0.0213486 -0.461687 -0.461687
0.0214878 -0.470393 -0.470393
0.0362063 -0.470522 -0.470522
0.0359644 -0.461817 -0.461817
0.0214184 -0.466032 -0.466032
0.0288454 -0.470451 -0.470451
0.0360857 -0.466162 -0.466162
0.0286548 -0.461745 -0.461745
0.0287504 -0.46609 -0.46609
0.0214878 -0.470393 -0.470393
0.0216253 -0.479159 -0.479159
0.0364455 -0.479287 -0.479287
0.0362063 -0.470522 -0.470522
0.0215567 -0.474768 -0.474768
0.0290337 -0.479217 -0.479217
0.0363263 -0.474897 -0.474897
0.0288454 -0.470451 -0.470451
0.0289398 -0.474826 -0.474826
0.0216253 -0.479159 -0.479159
0.021761 -0.487985 -0.487985
0.036682 -0.488113 -0.488113
0.0364455 -0.479287 -0.479287
0.0216933 -0.483565 -0.483565
0.0292198 -0.488043 -0.488043
0.0365641 -0.483693 -0.483693
0.0290337 -0.479217 -0.479217
0.0291271 -0.483622 -0.483622
0.021761 -0.487985 -0.487985
0.021895 -0.496871 -0.496871
0.0369156 -0.496998 -0.496998
0.036682 -0.488113 -0.488113
0.0218282 -0.492421 -0.492421
0.0294037 -0.496928 -0.496928
0.0367991 -0.492548 -0.492548
0.0292198 -0.488043 -0.488043
0.029312 -0.492478 -0.492478
0.021895 -0.496871 -0.496871
0.0220272 -0.505815 -0.505815
0.0371466 -0.505941 -0.505941
0.0369156 -0.496998 -0.496998
0.0219613 -0.501336 -0.501336
0.0295852 -0.505872 -0.505872
0.0370314 -0.501462 -0.501462
0.0294037 -0.496928 -0.496928
0.0294947 -0.501393 -0.501393
0.0220272 -0.505815 -0.505815
0.0221578 -0.514818 -0.514818
0.0373747 -0.514943 -0.514943
0.0371466 -0.505941 -0.505941
0.0220927 -0.510309 -0.510309
0.0297646 -0.514874 -0.514874
0.037261 -0.510435 -0.510435
0.0295852 -0.505872 -0.505872
0.0296752 -0.510366 -0.510366
0.0221578 -0.514818 -0.514818
0.0222865 -0.523877 -0.523877
0.0376001 -0.524002 -0.524002
0.0373747 -0.514943 -0.514943
0.0222224 -0.51934 -0.51934
0.0299417 -0.523934 -0.523934
0.0374877 -0.519465 -0.519465
0.0297646 -0.514874 -0.514874
0.0298534 -0.519397 -0.519397
0.0222865 -0.523877 -0.523877
0.0224136 -0.532994 -0.532994
0.0378227 -0.533118 -0.533118
0.0376001 -0.524002 -0.524002
0.0223503 -0.528429 -0.528429
0.0301165 -0.53305 -0.53305
0.0377118 -0.528553 -0.528553
0.0299417 -0.523934 -0.523934
0.0300294 -0.528485 -0.528485
0.0224136 -0.532994 -0.532994
0.0225389 -0.542167 -0.542167
0.0380426 -0.542291 -0.542291
0.0378227 -0.533118 -0.533118
0.0224764 -0.537574 -0.537574
0.0302891 -0.542223 -0.542223
0.037933 -0.537698 -0.537698
0.0301165 -0.53305 -0.53305
0.0302031 -0.53763 -0.53763
0.0225389 -0.542167 -0.542167
0.0226624 -0.551396 -0.551396
0.0382597 -0.551519 -0.551519
0.0380426 -0.542291 -0.542291
0.0226009 -0.546775 -0.546775
0.0304594 -0.551452 -0.551452
0.0381515 -0.546898 -0.546898
0.0302891 -0.542223 -0.542223
0.0303745 -0.546831 -0.546831
0.0226624 -0.551396 -0.551396
0.0227843 -0.56068 -0.56068
0.0384741 -0.560802 -0.560802
0.0382597 -0.551519 -0.551519
0.0227236 -0.556031 -0.556031
0.0306275 -0.560735 -0.560735
0.0383673 -0.556154 -0.556154
0.0304594 -0.551452 -0.551452
0.0305438 -0.556087 -0.556087
0.0227843 -0.56068 -0.56068
0.0229044 -0.570019 -0.570019
0.0386857 -0.57014 -0.57014
0.0384741 -0.560802 -0.560802
0.0228446 -0.565343 -0.565343
0.0307934 -0.570074 -0.570074
0.0385803 -0.565464 -0.565464
0.0306275 -0.560735 -0.560735
0.0307107 -0.565398 -0.565398
0.0229044 -0.570019 -0.570019
0.0230228 -0.579411 -0.579411
0.0388946 -0.579532 -0.579532
0.0386857 -0.57014 -0.57014
0.0229638 -0.574708 -0.574708
0.030957 -0.579466 -0.579466
0.0387905 -0.574829 -0.574829
0.0307934 -0.570074 -0.570074
0.0308755 -0.574763 -0.574763
0.0230228 -0.579411 -0.579411
0.0231394 -0.588857 -0.588857
0.0391007 -0.588976 -0.588976
0.0388946 -0.579532 -0.579532
0.0230813 -0.584127 -0.584127
0.0311184 -0.588911 -0.588911
0.038998 -0.584247 -0.584247
0.030957 -0.579466 -0.579466
0.031038 -0.584182 -0.584182
0.0231394 -0.588857 -0.588857
0.0232543 -0.598355 -0.598355
0.039304 -0.598474 -0.598474
0.0391007 -0.588976 -0.588976
0.0231971 -0.593599 -0.593599
0.0312775 -0.598409 -0.598409
0.0392027 -0.593719 -0.593719
0.0311184 -0.588911 -0.588911
0.0311982 -0.593653 -0.593653
0.0232543 -0.598355 -0.598355
0.0233675 -0.607905 -0.607905
0.0395046 -0.608024 -0.608024
0.039304 -0.598474 -0.598474
0.0233111 -0.603124 -0.603124
0.0314344 -0.607959 -0.607959
0.0394047 -0.603242 -0.603242
0.0312775 -0.598409 -0.598409
0.0313562 -0.603177 -0.603177
0.0233675 -0.607905 -0.607905
0.023479 -0.617507 -0.617507
0.0397025 -0.617625 -0.617625
0.0395046 -0.608024 -0.608024
0.0234234 -0.6127 -0.6127
0.0315891 -0.61756 -0.61756
0.0396039 -0.612818 -0.612818
0.0314344 -0.607959 -0.607959
0.031512 -0.612753 -0.612753
0.023479 -0.617507 -0.617507
0.0235887 -0.62716 -0.62716
0.0398976 -0.627277 -0.627277
0.0397025 -0.617625 -0.617625
0.023534 -0.622327 -0.622327
0.0317415 -0.627213 -0.627213
0.0398004 -0.622444 -0.622444
0.0315891 -0.61756 -0.61756
0.0316655 -0.62238 -0.62238
0.0235887 -0.62716 -0.62716
0.0236967 -0.636862 -0.636862
0.0400899 -0.636979 -0.636979
0.0398976 -0.627277 -0.627277
0.0236429 -0.632005 -0.632005
0.0318917 -0.636915 -0.636915
0.0399941 -0.632121 -0.632121
0.0317415 -0.627213 -0.627213
0.0318168 -0.632058 -0.632058
0.0236967 -0.636862 -0.636862
0.023803 -0.646615 -0.646615
0.0402795 -0.646731 -0.646731
0.0400899 -0.636979 -0.636979
0.0237501 -0.641733 -0.641733
0.0320396 -0.646668 -0.646668
0.0401851 -0.641849 -0.641849
0.0318917 -0.636915 -0.636915
0.0319659 -0.641785 -0.641785
0.023803 -0.646615 -0.646615
0.0239075 -0.656417 -0.656417
0.0404664 -0.656532 -0.656532
0.0402795 -0.646731 -0.646731
0.0238555 -0.65151 -0.65151
0.0321853 -0.656469 -0.656469
0.0403733 -0.651625 -0.651625
0.0320396 -0.646668 -0.646668
0.0321127 -0.651562 -0.651562
0.0239075 -0.656417 -0.656417
0.0240104 -0.666267 -0.666267
0.0406505 -0.666381 -0.666381
0.0404664 -0.656532 -0.656532
0.0239592 -0.661336 -0.661336
0.0323288 -0.666319 -0.666319
0.0405588 -0.66145 -0.66145
0.0321853 -0.656469 -0.656469
0.0322573 -0.661388 -0.661388
0.0240104 -0.666267 -0.666267
0.0241115 -0.676165 -0.676165
0.0408319 -0.676278 -0.676278
0.0406505 -0.666381 -0.666381
0.0240612 -0.67121 -0.67121
0.03247 -0.676216 -0.676216
0.0407416 -0.671323 -0.671323
0.0323288 -0.666319 -0.666319
0.0323997 -0.671261 -0.671261
0.0241115 -0.676165 -0.676165
0.0242109 -0.68611 -0.68611
0.0410106 -0.686222 -0.686222
0.0408319 -0.676278 -0.676278
0.0241614 -0.681131 -0.681131
0.0326091 -0.686161 -0.686161
0.0409216 -0.681244 -0.681244
0.03247 -0.676216 -0.676216
0.0325398 -0.681183 -0.681183
0.0242109 -0.68611 -0.68611
0.0243086 -0.696101 -0.696101
0.0411865 -0.696213 -0.696213
0.0410106 -0.686222 -0.686222
0.02426 -0.6911 -0.6911
0.0327459 -0.696152 -0.696152
0.0410988 -0.691212 -0.691212
0.0326091 -0.686161 -0.686161
0.0326777 -0.691151 -0.691151
0.0243086 -0.696101 -0.696101
0.0244046 -0.706139 -0.706139
0.0413596 -0.70625 -0.70625
0.0411865 -0.696213 -0.696213
0.0243568 -0.701114 -0.701114
0.0328804 -0.70619 -0.70619
0.0412734 -0.701226 -0.701226
0.0327459 -0.696152 -0.696152
0.0328134 -0.701165 -0.701165
0.0244046 -0.706139 -0.706139
0.0244988 -0.716222 -0.716222
0.0415301 -0.716333 -0.716333
0.0413596 -0.70625 -0.70625
0.0244519 -0.711175 -0.711175
0.0330128 -0.716273 -0.716273
0.0414452 -0.711286 -0.711286
0.0328804 -0.70619 -0.70619
0.0329469 -0.711225 -0.711225
0.0244988 -0.716222 -0.716222
0.0245914 -0.72635 -0.72635
0.0416977 -0.72646 -0.72646
0.0415301 -0.716333 -0.716333
0.0245453 -0.72128 -0.72128
0.0331429 -0.7264 -0.7264
0.0416142 -0.721391 -0.721391
0.0330128 -0.716273 -0.716273
0.0330781 -0.721331 -0.721331
0.0245914 -0.72635 -0.72635
0.0246822 -0.736522 -0.736522
0.0418627 -0.736631 -0.736631
0.0416977 -0.72646 -0.72646
0.024637 -0.731431 -0.731431
0.0332708 -0.736572 -0.736572
0.0417806 -0.73154 -0.73154
0.0331429 -0.7264 -0.7264
0.0332071 -0.731481 -0.731481
0.0246822 -0.736522 -0.736522
0.0247714 -0.746738 -0.746738
0.0420249 -0.746846 -0.746846
0.0418627 -0.736631 -0.736631
0.024727 -0.741625 -0.741625
0.0333965 -0.746787 -0.746787
0.0419442 -0.741733 -0.741733
0.0332708 -0.736572 -0.736572
0.0333339 -0.741674 -0.741674
0.0247714 -0.746738 -0.746738
0.0248588 -0.756996 -0.756996
0.0421845 -0.757104 -0.757104
0.0420249 -0.746846 -0.746846
0.0248153 -0.751862 -0.751862
0.03352 -0.757046 -0.757046
0.042105 -0.75197 -0.75197
0.0333965 -0.746787 -0.746787
0.0334585 -0.751911 -0.751911
0.0248588 -0.756996 -0.756996
0.0249445 -0.767298 -0.767298
0.0423412 -0.767404 -0.767404
0.0421845 -0.757104 -0.757104
0.0249018 -0.762142 -0.762142
0.0336412 -0.767346 -0.767346
0.0422632 -0.762249 -0.762249
0.03352 -0.757046 -0.757046
0.0335809 -0.762191 -0.762191
0.0249445 -0.767298 -0.767298
0.0250285 -0.77764 -0.77764
0.0424953 -0.777746 -0.777746
0.0423412 -0.767404 -0.767404
0.0249867 -0.772464 -0.772464
0.0337602 -0.777689 -0.777689
0.0424186 -0.77257 -0.77257
0.0336412 -0.767346 -0.767346
0.033701 -0.772513 -0.772513
0.0250285 -0.77764 -0.77764
0.0251108 -0.788024 -0.788024
0.0426466 -0.78813 -0.78813
0.0424953 -0.777746 -0.777746
0.0250699 -0.782827 -0.782827
0.0338771 -0.788073 -0.788073
0.0425713 -0.782933 -0.782933
0.0337602 -0.777689 -0.777689
0.0338189 -0.782876 -0.782876
0.0251108 -0.788024 -0.788024
0.0251914 -0.798449 -0.798449
0.0427952 -0.798553 -0.798553
0.0426466 -0.78813 -0.78813
0.0251513 -0.793232 -0.793232
0.0339917 -0.798497 -0.798497
0.0427213 -0.793337 -0.793337
0.0338771 -0.788073 -0.788073
0.0339346 -0.79328 -0.79328
0.0251914 -0.798449 -0.798449
0.0252704 -0.808913 -0.808913
0.0429411 -0.809017 -0.809017
0.0427952 -0.798553 -0.798553
0.0252311 -0.803676 -0.803676
0.0341041 -0.808961 -0.808961
0.0428685 -0.80378 -0.80378
0.0339917 -0.798497 -0.798497
0.0340482 -0.803724 -0.803724
0.0252704 -0.808913 -0.808913
0.0253476 -0.819417 -0.819417
0.0430843 -0.81952 -0.81952
0.0429411 -0.809017 -0.809017
0.0253092 -0.81416 -0.81416
0.0342143 -0.819465 -0.819465
0.043013 -0.814264 -0.814264
0.0341041 -0.808961 -0.808961
0.0341595 -0.814208 -0.814208
0.0253476 -0.819417 -0.819417
0.0254231 -0.82996 -0.82996
0.0432247 -0.830062 -0.830062
0.0430843 -0.81952 -0.81952
0.0253856 -0.824684 -0.824684
0.0343223 -0.830007 -0.830007
0.0431549 -0.824786 -0.824786
0.0342143 -0.819465 -0.819465
0.0342685 -0.824731 -0.824731
0.0254231 -0.82996 -0.82996
0.025497 -0.840541 -0.840541
0.0433625 -0.840642 -0.840642
0.0432247 -0.830062 -0.830062
0.0254602 -0.835246 -0.835246
0.0344281 -0.840587 -0.840587
0.0432939 -0.835347 -0.835347
0.0343223 -0.830007 -0.830007
0.0343754 -0.835292 -0.835292
0.025497 -0.840541 -0.840541
0.0255691 -0.851159 -0.851159
0.0434975 -0.85126 -0.85126
0.0433625 -0.840642 -0.840642
0.0255332 -0.845845 -0.845845
0.0345316 -0.851205 -0.851205
0.0434303 -0.845946 -0.845946
0.0344281 -0.840587 -0.840587
0.0344801 -0.845892 -0.845892
0.0255691 -0.851159 -0.851159
0.0256396 -0.861814 -0.861814
0.0436298 -0.861914 -0.861914
0.0434975 -0.85126 -0.85126
0.0256045 -0.856482 -0.856482
0.034633 -0.86186 -0.86186
0.043564 -0.856582 -0.856582
0.0345316 -0.851205 -0.851205
0.0345826 -0.856528 -0.856528
0.0256396 -0.861814 -0.861814
0.0257083 -0.872506 -0.872506
0.0437594 -0.872605 -0.872605
0.0436298 -0.861914 -0.861914
0.0256742 -0.867155 -0.867155
0.0347322 -0.872551 -0.872551
0.043695 -0.867255 -0.867255
0.034633 -0.86186 -0.86186
0.0346829 -0.867201 -0.867201
0.0257083 -0.872506 -0.872506
0.0257754 -0.883233 -0.883233
0.0438863 -0.883331 -0.883331
0.0437594 -0.872605 -0.872605
0.0257421 -0.877865 -0.877865
0.0348292 -0.883278 -0.883278
0.0438232 -0.877964 -0.877964
0.0347322 -0.872551 -0.872551
0.034781 -0.87791 -0.87791
0.0257754 -0.883233 -0.883233
0.0258408 -0.893995 -0.893995
0.0440105 -0.894093 -0.894093
0.0438863 -0.883331 -0.883331
0.0258083 -0.88861 -0.88861
0.034924 -0.89404 -0.89404
0.0439488 -0.888708 -0.888708
0.0348292 -0.883278 -0.883278
0.0348769 -0.888655 -0.888655
0.0258408 -0.893995 -0.893995
0.0259046 -0.904792 -0.904792
0.044132 -0.904889 -0.904889
0.0440105 -0.894093 -0.894093
0.0258729 -0.899389 -0.899389
0.0350166 -0.904837 -0.904837
0.0440716 -0.899487 -0.899487
0.034924 -0.89404 -0.89404
0.0349706 -0.899434 -0.899434
0.0259046 -0.904792 -0.904792
0.0259666 -0.915623 -0.915623
0.0442508 -0.915719 -0.915719
0.044132 -0.904889 -0.904889
0.0259358 -0.910203 -0.910203
0.0351071 -0.915667 -0.915667
0.0441918 -0.9103 -0.9103
0.0350166 -0.904837 -0.904837
0.0350621 -0.910248 -0.910248
0.0259666 -0.915623 -0.915623
0.026027 -0.926487 -0.926487
0.0443669 -0.926582 -0.926582
0.0442508 -0.915719 -0.915719
0.025997 -0.921051 -0.921051
0.0351953 -0.926531 -0.926531
0.0443092 -0.921146 -0.921146
0.0351071 -0.915667 -0.915667
0.0351515 -0.921095 -0.921095
0.026027 -0.926487 -0.926487
0.0260857 -0.937384 -0.937384
0.0444803 -0.937478 -0.937478
0.0443669 -0.926582 -0.926582
0.0260566 -0.931931 -0.931931
0.0352814 -0.937428 -0.937428
0.044424 -0.932026 -0.932026
0.0351953 -0.926531 -0.926531
0.0352386 -0.931975 -0.931975
0.0260857 -0.937384 -0.937384
0.0261427 -0.948313 -0.948313
0.044591 -0.948406 -0.948406
0.0444803 -0.937478 -0.937478
0.0261144 -0.942844 -0.942844
0.0353652 -0.948356 -0.948356
0.044536 -0.942938 -0.942938
0.0352814 -0.937428 -0.937428
0.0353236 -0.942888 -0.942888
0.0261427 -0.948313 -0.948313
0.0261981 -0.959273 -0.959273
0.0446991 -0.959366 -0.959366
0.044591 -0.948406 -0.948406
0.0261706 -0.953789 -0.953789
0.0354469 -0.959316 -0.959316
0.0446454 -0.953882 -0.953882
0.0353652 -0.948356 -0.948356
0.0354063 -0.953832 -0.953832
0.0261981 -0.959273 -0.959273
0.0262518 -0.970264 -0.970264
0.0448044 -0.970356 -0.970356
0.0446991 -0.959366 -0.959366
0.0262252 -0.964765 -0.964765
0.0355264 -0.970307 -0.970307
0.0447521 -0.964857 -0.964857
0.0354469 -0.959316 -0.959316
0.0354869 -0.964808 -0.964808
0.0262518 -0.970264 -0.970264
0.0263038 -0.981286 -0.981286
0.044907 -0.981377 -0.981377
0.0448044 -0.970356 -0.970356
0.026278 -0.975771 -0.975771
0.0356038 -0.981328 -0.981328
0.0448561 -0.975863 -0.975863
0.0355264 -0.970307 -0.970307
0.0355654 -0.975814 -0.975814
0.0263038 -0.981286 -0.981286
0.0263542 -0.992337 -0.992337
0.045007 -0.992427 -0.992427
0.044907 -0.981377 -0.981377
0.0263292 -0.986808 -0.986808
0.0356789 -0.992379 -0.992379
0.0449574 -0.986898 -0.986898
0.0356038 -0.981328 -0.981328
0.0356416 -0.98685 -0.98685
0.0263542 -0.992337 -0.992337
0.0264029 -1.00342 -1.00342
0.0451043 -1.00351 -1.00351
0.045007 -0.992427 -0.992427
0.0263788 -0.997873 -0.997873
0.0357519 -1.00346 -1.00346
0.045056 -0.997963 -0.997963
0.0356789 -0.992379 -0.992379
0.0357157 -0.997915 -0.997915
0.0264029 -1.00342 -1.00342
0.02645 -1.01453 -1.01453
0.0451989 -1.01461 -1.01461
0.0451043 -1.00351 -1.00351
0.0264266 -1.00897 -1.00897
0.0358228 -1.01457 -1.01457
0.0451519 -1.00906 -1.00906
0.0357519 -1.00346 -1.00346
0.0357876 -1.00901 -1.00901
0.02645 -1.01453 -1.01453
0.0264954 -1.02566 -1.02566
0.0452908 -1.02575 -1.02575
0.0451989 -1.01461 -1.01461
0.0264729 -1.02009 -1.02009
0.0358914 -1.0257 -1.0257
0.0452452 -1.02018 -1.02018
0.0358228 -1.01457 -1.01457
0.0358574 -1.02013 -1.02013
0.0264954 -1.02566 -1.02566
0.0265391 -1.03683 -1.03683
0.04538 -1.03691 -1.03691
0.0452908 -1.02575 -1.02575
0.0265174 -1.03124 -1.03124
0.0359579 -1.03687 -1.03687
0.0453357 -1.03133 -1.03133
0.0358914 -1.0257 -1.0257
0.0359249 -1.03128 -1.03128
0.0265391 -1.03683 -1.03683
0.0265812 -1.04802 -1.04802
0.0454666 -1.0481 -1.0481
0.04538 -1.03691 -1.03691
0.0265603 -1.04242 -1.04242
0.0360222 -1.04806 -1.04806
0.0454237 -1.0425 -1.0425
0.0359579 -1.03687 -1.03687
0.0359903 -1.04246 -1.04246
0.0265812 -1.04802 -1.04802
0.0266216 -1.05923 -1.05923
0.0455505 -1.05932 -1.05932
0.0454666 -1.0481 -1.0481
0.0266016 -1.05362 -1.05362
0.0360844 -1.05927 -1.05927
0.0455089 -1.05371 -1.05371
0.0360222 -1.04806 -1.04806
0.0360536 -1.05366 -1.05366
0.0266216 -1.05923 -1.05923
0.0266604 -1.07047 -1.07047
0.0456317 -1.07056 -1.07056
0.0455505 -1.05932 -1.05932
0.0266412 -1.06485 -1.06485
0.0361444 -1.07051 -1.07051
0.0455915 -1.06494 -1.06494
0.0360844 -1.05927 -1.05927
0.0361147 -1.06489 -1.06489
0.0266604 -1.07047 -1.07047
0.0266976 -1.08174 -1.08174
0.0457103 -1.08182 -1.08182
0.0456317 -1.07056 -1.07056
0.0266792 -1.0761 -1.0761
0.0362023 -1.08178 -1.08178
0.0456714 -1.07619 -1.07619
0.0361444 -1.07051 -1.07051
0.0361736 -1.07614 -1.07614
0.0266976 -1.08174 -1.08174
0.0267331 -1.09303 -1.09303
0.0457862 -1.09311 -1.09311
0.0457103 -1.08182 -1.08182
0.0267156 -1.08738 -1.08738
0.036258 -1.09307 -1.09307
0.0457486 -1.08747 -1.08747
0.0362023 -1.08178 -1.08178
0.0362304 -1.08742 -1.08742
0.0267331 -1.09303 -1.09303
0.026767 -1.10435 -1.10435
0.0458595 -1.10443 -1.10443
0.0457862 -1.09311 -1.09311
0.0267502 -1.09869 -1.09869
0.0363116 -1.10438 -1.10438
0.0458232 -1.09877 -1.09877
0.036258 -1.09307 -1.09307
0.036285 -1.09872 -1.09872
0.026767 -1.10435 -1.10435
0.0267992 -1.11568 -1.11568
0.04593 -1.11576 -1.11576
0.0458595 -1.10443 -1.10443
0.0267833 -1.11001 -1.11001
0.036363 -1.11572 -1.11572
0.0458951 -1.11009 -1.11009
0.0363116 -1.10438 -1.10438
0.0363375 -1.11005 -1.11005
0.0267992 -1.11568 -1.11568
0.0268298 -1.12704 -1.12704
0.045998 -1.12712 -1.12712
0.04593 -1.11576 -1.11576
0.0268147 -1.12136 -1.12136
0.0364122 -1.12708 -1.12708
0.0459643 -1.12144 -1.12144
0.036363 -1.11572 -1.11572
0.0363879 -1.1214 -1.1214
0.0268298 -1.12704 -1.12704
0.0268588 -1.13843 -1.13843
0.0460632 -1.1385 -1.1385
0.045998 -1.12712 -1.12712
0.0268445 -1.13273 -1.13273
0.0364594 -1.13846 -1.13846
0.0460309 -1.13281 -1.13281
0.0364122 -1.12708 -1.12708
0.0364361 -1.13277 -1.13277
0.0268588 -1.13843 -1.13843
0.0268862 -1.14983 -1.14983
0.0461259 -1.14991 -1.14991
0.0460632 -1.1385 -1.1385
0.0268727 -1.14412 -1.14412
0.0365043 -1.14987 -1.14987
0.0460949 -1.1442 -1.1442
0.0364594 -1.13846 -1.13846
0.0364821 -1.14416 -1.14416
0.0268862 -1.14983 -1.14983
0.0269119 -1.16125 -1.16125
0.0461858 -1.16133 -1.16133
0.0461259 -1.14991 -1.14991
0.0268992 -1.15554 -1.15554
0.0365472 -1.16129 -1.16129
0.0461562 -1.15562 -1.15562
0.0365043 -1.14987 -1.14987
0.036526 -1.15557 -1.15557
0.0269119 -1.16125 -1.16125
0.026936 -1.17269 -1.17269
0.0462432 -1.17277 -1.17277
0.0461858 -1.16133 -1.16133
0.0269241 -1.16697 -1.16697
0.0365879 -1.17273 -1.17273
0.0462148 -1.16705 -1.16705
0.0365472 -1.16129 -1.16129
0.0365678 -1.16701 -1.16701
0.026936 -1.17269 -1.17269
0.0269585 -1.18416 -1.18416
0.0462979 -1.18423 -1.18423
0.0462432 -1.17277 -1.17277
0.0269474 -1.17842 -1.17842
0.0366265 -1.18419 -1.18419
0.0462708 -1.1785 -1.1785
0.0365879 -1.17273 -1.17273
0.0366075 -1.17846 -1.17846
0.0269585 -1.18416 -1.18416
0.0269793 -1.19564 -1.19564
0.0463499 -1.19571 -1.19571
0.0462979 -1.18423 -1.18423
0.0269691 -1.1899 -1.1899
0.0366629 -1.19567 -1.19567
0.0463242 -1.18997 -1.18997
0.0366265 -1.18419 -1.18419
0.036645 -1.18993 -1.18993
0.0269793 -1.19564 -1.19564
0.0269986 -1.20714 -1.20714
0.0463993 -1.20721 -1.20721
0.0463499 -1.19571 -1.19571
0.0269891 -1.20139 -1.20139
0.0366973 -1.20717 -1.20717
0.0463749 -1.20146 -1.20146
0.0366629 -1.19567 -1.19567
0.0366804 -1.20142 -1.20142
0.0269986 -1.20714 -1.20714
0.0270162 -1.21866 -1.21866
0.0464461 -1.21873 -1.21873
0.0463993 -1.20721 -1.20721
0.0270076 -1.2129 -1.2129
0.0367295 -1.21869 -1.21869
0.046423 -1.21297 -1.21297
0.0366973 -1.20717 -1.20717
0.0367136 -1.21293 -1.21293
0.0270162 -1.21866 -1.21866
0.0270322 -1.23019 -1.23019
0.0464902 -1.23026 -1.23026
0.0464461 -1.21873 -1.21873
0.0270244 -1.22442 -1.22442
0.0367596 -1.23022 -1.23022
0.0464685 -1.22449 -1.22449
0.0367295 -1.21869 -1.21869
0.0367448 -1.22446 -1.22446
0.0270322 -1.23019 -1.23019
0.0270466 -1.24174 -1.24174
0.0465317 -1.24181 -1.24181
0.0464902 -1.23026 -1.23026
0.0270396 -1.23596 -1.23596
0.0367875 -1.24177 -1.24177
0.0465113 -1.23604 -1.23604
0.0367596 -1.23022 -1.23022
0.0367738 -1.236 -1.236
0.0270466 -1.24174 -1.24174
0.0270594 -1.25331 -1.25331
0.0465706 -1.25338 -1.25338
0.0465317 -1.24181 -1.24181
0.0270532 -1.24752 -1.24752
0.0368134 -1.25334 -1.25334
0.0465515 -1.24759 -1.24759
0.0367875 -1.24177 -1.24177
0.0368007 -1.24756 -1.24756
0.0270594 -1.25331 -1.25331
0.0270706 -1.26489 -1.26489
0.0466069 -1.26496 -1.26496
0.0465706 -1.25338 -1.25338
0.0270652 -1.2591 -1.2591
0.0368371 -1.26492 -1.26492
0.0465891 -1.25917 -1.25917
0.0368134 -1.25334 -1.25334
0.0368255 -1.25913 -1.25913
0.0270706 -1.26489 -1.26489
0.0270802 -1.27648 -1.27648
0.0466405 -1.27655 -1.27655
0.0466069 -1.26496 -1.26496
0.0270756 -1.27068 -1.27068
0.0368587 -1.27652 -1.27652
0.046624 -1.27075 -1.27075
0.0368371 -1.26492 -1.26492
0.0368482 -1.27072 -1.27072
0.0270802 -1.27648 -1.27648
0.0270883 -1.28809 -1.28809
0.0466715 -1.28816 -1.28816
0.0466405 -1.27655 -1.27655
0.0270844 -1.28229 -1.28229
0.0368782 -1.28813 -1.28813
0.0466564 -1.28236 -1.28236
0.0368587 -1.27652 -1.27652
0.0368687 -1.28232 -1.28232
0.0270883 -1.28809 -1.28809
0.0270947 -1.29972 -1.29972
0.0466999 -1.29978 -1.29978
0.0466715 -1.28816 -1.28816
0.0270917 -1.2939 -1.2939
0.0368956 -1.29975 -1.29975
0.0466861 -1.29397 -1.29397
0.0368782 -1.28813 -1.28813
0.0368872 -1.29394 -1.29394
0.0270947 -1.29972 -1.29972
0.0270995 -1.31135 -1.31135
0.0467257 -1.31142 -1.31142
0.0466999 -1.29978 -1.29978
0.0270973 -1.30553 -1.30553
0.0369109 -1.31138 -1.31138
0.0467132 -1.3056 -1.3056
0.0368956 -1.29975 -1.29975
0.0369035 -1.30557 -1.30557
0.0270995 -1.31135 -1.31135
0.0271027 -1.323 -1.323
0.0467489 -1.32307 -1.32307
0.0467257 -1.31142 -1.31142
0.0271013 -1.31718 -1.31718
0.0369241 -1.32303 -1.32303
0.0467376 -1.31724 -1.31724
0.0369109 -1.31138 -1.31138
0.0369178 -1.31721 -1.31721
0.0271027 -1.323 -1.323
0.0271044 -1.33466 -1.33466
0.0467695 -1.33472 -1.33472
0.0467489 -1.32307 -1.32307
0.0271037 -1.32883 -1.32883
0.0369353 -1.33469 -1.33469
0.0467595 -1.32889 -1.32889
0.0369241 -1.32303 -1.32303
0.03693 -1.32886 -1.32886
0.0271044 -1.33466 -1.33466
0.0271044 -1.34633 -1.34633
0.0467874 -1.34639 -1.34639
0.0467695 -1.33472 -1.33472
0.0271046 -1.34049 -1.34049
0.0369443 -1.34636 -1.34636
0.0467788 -1.34056 -1.34056
0.0369353 -1.33469 -1.33469
0.03694 -1.34052 -1.34052
0.0271044 -1.34633 -1.34633
0.0271029 -1.35801 -1.35801
0.0468028 -1.35807 -1.35807
0.0467874 -1.34639 -1.34639
0.0271039 -1.35217 -1.35217
0.0369512 -1.35804 -1.35804
0.0467954 -1.35223 -1.35223
0.0369443 -1.34636 -1.34636
0.036948 -1.3522 -1.3522
0.0271029 -1.35801 -1.35801
0.0270998 -1.3697 -1.3697
0.0468155 -1.36976 -1.36976
0.0468028 -1.35807 -1.35807
0.0271016 -1.36386 -1.36386
0.036956 -1.36973 -1.36973
0.0468095 -1.36392 -1.36392
0.0369512 -1.35804 -1.35804
0.0369539 -1.36388 -1.36388
0.0270998 -1.3697 -1.3697
0.0270952 -1.3814 -1.3814
0.0468257 -1.38146 -1.38146
0.0468155 -1.36976 -1.36976
0.0270977 -1.37555 -1.37555
0.0369588 -1.38143 -1.38143
0.046821 -1.37561 -1.37561
0.036956 -1.36973 -1.36973
0.0369576 -1.37558 -1.37558
0.0270952 -1.3814 -1.3814
0.0270889 -1.39311 -1.39311
0.0468333 -1.39317 -1.39317
0.0468257 -1.38146 -1.38146
0.0270922 -1.38725 -1.38725
0.0369594 -1.39314 -1.39314
0.0468298 -1.38731 -1.38731
0.0369588 -1.38143 -1.38143
0.0369594 -1.38728 -1.38728
0.0270889 -1.39311 -1.39311
0.0270811 -1.40482 -1.40482
0.0468382 -1.40488 -1.40488
0.0468333 -1.39317 -1.39317
0.0270852 -1.39897 -1.39897
0.036958 -1.40485 -1.40485
0.0468361 -1.39902 -1.39902
0.0369594 -1.39314 -1.39314
0.036959 -1.39899 -1.39899
0.0270811 -1.40482 -1.40482
0.0270717 -1.41655 -1.41655
0.0468406 -1.4166 -1.4166
0.0468382 -1.40488 -1.40488
0.0270766 -1.41068 -1.41068
0.0369545 -1.41658 -1.41658
0.0468398 -1.41074 -1.41074
0.036958 -1.40485 -1.40485
0.0369565 -1.41071 -1.41071
0.0270717 -1.41655 -1.41655
0.0270607 -1.42828 -1.42828
0.0468404 -1.42833 -1.42833
0.0468406 -1.4166 -1.4166
0.0270664 -1.42241 -1.42241
0.0369489 -1.4283 -1.4283
0.0468409 -1.42247 -1.42247
0.0369545 -1.41658 -1.41658
0.036952 -1.42244 -1.42244
0.0270607 -1.42828 -1.42828
0.0270481 -1.44001 -1.44001
0.0468376 -1.44007 -1.44007
0.0468404 -1.42833 -1.42833
0.0270546 -1.43414 -1.43414
0.0369412 -1.44004 -1.44004
0.0468394 -1.4342 -1.4342
0.0369489 -1.4283 -1.4283
0.0369453 -1.43417 -1.43417
0.0270481 -1.44001 -1.44001
0.0270339 -1.45175 -1.45175
0.0468323 -1.45181 -1.45181
0.0468376 -1.44007 -1.44007
0.0270412 -1.44588 -1.44588
0.0369314 -1.45178 -1.45178
0.0468353 -1.44594 -1.44594
0.0369412 -1.44004 -1.44004
0.0369366 -1.44591 -1.44591
0.0270339 -1.45175 -1.45175
0.027018 -1.4635 -1.4635
0.0468243 -1.46355 -1.46355
0.0468323 -1.45181 -1.45181
0.0270262 -1.45763 -1.45763
0.0369194 -1.46353 -1.46353
0.0468286 -1.45768 -1.45768
0.0369314 -1.45178 -1.45178
0.0369257 -1.45765 -1.45765
0.027018 -1.4635 -1.4635
0.0270003 -1.47525 -1.47525
0.0468137 -1.4753 -1.4753
0.0468243 -1.46355 -1.46355
0.0270094 -1.46937 -1.46937
0.0369052 -1.47528 -1.47528
0.0468193 -1.46943 -1.46943
0.0369194 -1.46353 -1.46353
0.0369126 -1.4694 -1.4694
0.0270003 -1.47525 -1.47525
0.0269807 -1.487 -1.487
0.0468005 -1.48705 -1.48705
0.0468137 -1.4753 -1.4753
0.0269907 -1.48113 -1.48113
0.0368886 -1.48703 -1.48703
0.0468074 -1.48118 -1.48118
0.0369052 -1.47528 -1.47528
0.0368972 -1.48115 -1.48115
0.0269807 -1.487 -1.487
0.0269589 -1.49876 -1.49876
0.0467844 -1.49881 -1.49881
0.0468005 -1.48705 -1.48705
0.0269701 -1.49288 -1.49288
0.0368694 -1.49879 -1.49879
0.0467928 -1.49293 -1.49293
0.0368886 -1.48703 -1.48703
0.0368794 -1.49291 -1.49291
0.0269589 -1.49876 -1.49876
0.0269352 -1.51052 -1.51052
0.0467653 -1.51057 -1.51057
0.0467844 -1.49881 -1.49881
0.0269473 -1.50464 -1.50464
0.0368475 -1.51055 -1.51055
0.0467753 -1.50469 -1.50469
0.0368694 -1.49879 -1.49879
0.0368588 -1.50467 -1.50467
0.0269352 -1.51052 -1.51052
0.0269097 -1.52228 -1.52228
0.0467428 -1.52233 -1.52233
0.0467653 -1.51057 -1.51057
0.0269226 -1.5164 -1.5164
0.0368228 -1.52231 -1.52231
0.0467545 -1.51645 -1.51645
0.0368475 -1.51055 -1.51055
0.0368355 -1.51643 -1.51643
0.0269097 -1.52228 -1.52228
0.026884 -1.53405 -1.53405
0.0467171 -1.5341 -1.5341
0.0467428 -1.52233 -1.52233
0.0268968 -1.52817 -1.52817
0.0367967 -1.53408 -1.53408
0.0467302 -1.52822 -1.52822
0.0368228 -1.52231 -1.52231
0.0368096 -1.52819 -1.52819
0.026884 -1.53405 -1.53405
0.0268594 -1.5458 -1.5458
0.0466934 -1.54588 -1.54588
0.0467171 -1.5341 -1.5341
0.0268715 -1.53993 -1.53993
0.0367736 -1.54584 -1.54584
0.0467044 -1.53999 -1.53999
0.0367967 -1.53408 -1.53408
0.0367846 -1.53996 -1.53996
0 0 0
0.000458189 -0.000130043 -0.000130043
0.000768824 -0.000384318 -0.000384318
0 0 0
0.000222352 -4.66509e-05 -4.66509e-05
0.000578911 -0.000232344 -0.000232344
0.000418275 -0.000239443 -0.000239443
0 0 0
0.00027612 -0.000102382 -0.000102382
0.000458189 -0.000130043 -0.000130043
0.000954249 -0.000375312 -0.000375312
0.00143405 -0.000667818 -0.000667818
0.000768824 -0.000384318 -0.000384318
0.000703861 -0.000240835 -0.000240835
0.00118203 -0.000506746 -0.000506746
0.00110244 -0.000520719 -0.000520719
0.000578911 -0.000232344 -0.000232344
0.000882172 -0.000365402 -0.000365402
0.000954249 -0.000375312 -0.000375312
0.00145476 -0.000712248 -0.000712248
0.00210497 -0.00100978 -0.00100978
0.00143405 -0.000667818 -0.000667818
0.00120481 -0.000531933 -0.000531933
0.00177626 -0.000849814 -0.000849814
0.00176834 -0.000828794 -0.000828794
0.00118203 -0.000506746 -0.000506746
0.00147993 -0.000667121 -0.000667121
0.00145476 -0.000712248 -0.000712248
0.00195271 -0.00115098 -0.00115098
0.00278126 -0.00144967 -0.00144967
0.00210497 -0.00100978 -0.00100978
0.00170418 -0.000918295 -0.000918295
0.00236531 -0.00128863 -0.00128863
0.00244263 -0.00121645 -0.00121645
0.00177626 -0.000849814 -0.000849814
0.00207122 -0.00105635 -0.00105635
0.00195271 -0.00115098 -0.00115098
0.00244634 -0.00169877 -0.00169877
0.00346103 -0.00199659 -0.00199659
0.00278126 -0.00144967 -0.00144967
0.00220003 -0.00141093 -0.00141093
0.00295225 -0.00183609 -0.00183609
0.0031209 -0.00170938 -0.00170938
0.00236531 -0.00128863 -0.00128863
0.002659 -0.00154838 -0.00154838
0.00244634 -0.00169877 -0.00169877
0.00293662 -0.00235982 -0.00235982
0.00414093 -0.00265668 -0.00265668
0.00346103 -0.00199659 -0.00199659
0.00269187 -0.00201502 -0.00201502
0.00353709 -0.00249631 -0.00249631
0.00380108 -0.00231235 -0.00231235
0.00295225 -0.00183609 -0.00183609
0.00324494 -0.00215198 -0.00215198
0.00293662 -0.00235982 -0.00235982
0.00342374 -0.00313533 -0.00313533
0.00481976 -0.00343081 -0.00343081
0.00414093 -0.00265668 -0.00265668
0.00318056 -0.00273324 -0.00273324
0.00411979 -0.00327107 -0.00327107
0.00448056 -0.00302945 -0.00302945
0.00353709 -0.00249631 -0.00249631
0.00382873 -0.00286933 -0.00286933
0.00342374 -0.00313533 -0.00313533
0.00390805 -0.00402563 -0.00402563
0.00549624 -0.00431974 -0.00431974
0.00481976 -0.00343081 -0.00343081
0.00366624 -0.00356614 -0.00356614
0.00469997 -0.00416059 -0.00416059
0.00515834 -0.00386093 -0.00386093
0.00411979 -0.00327107 -0.00327107
0.00441021 -0.00370149 -0.00370149
0.00390805 -0.00402563 -0.00402563
0.00438965 -0.00503037 -0.00503037
0.00616984 -0.00532301 -0.00532301
0.00549624 -0.00431974 -0.00431974
0.00414919 -0.00451373 -0.00451373
0.00527743 -0.0051646 -0.0051646
0.00583342 -0.00480711 -0.00480711
0.00469997 -0.00416059 -0.00416059
0.00498905 -0.00464831 -0.00464831
0.00438965 -0.00503037 -0.00503037
0.0048686 -0.00614906 -0.00614906
0.00684017 -0.00644025 -0.00644025
0.00616984 -0.00532301 -0.00532301
0.00462945 -0.00557551 -0.00557551
0.00585197 -0.00628258 -0.00628258
0.00650543 -0.00586742 -0.00586742
0.00527743 -0.0051646 -0.0051646
0.00556507 -0.00570939 -0.00570939
0.0048686 -0.00614906 -0.00614906
0.00534492 -0.00738108 -0.00738108
0.00750704 -0.0076708 -0.0076708
0.00684017 -0.00644025 -0.00644025
0.00510708 -0.00675094 -0.00675094
0.00642352 -0.00751392 -0.00751392
0.00717404 -0.0070414 -0.0070414
0.00585197 -0.00628258 -0.00628258
0.00613813 -0.00688412 -0.00688412
0.00534492 -0.00738108 -0.00738108
0.00581862 -0.00872581 -0.00872581
0.00817035 -0.00901407 -0.00901407
0.00750704 -0.0076708 -0.0076708
0.0055821 -0.0080394 -0.0080394
0.00699201 -0.00885797 -0.00885797
0.00783915 -0.00832839 -0.00832839
0.00642352 -0.00751392 -0.00751392
0.00670815 -0.00817189 -0.00817189
0.00581862 -0.00872581 -0.00872581
0.00628971 -0.0101826 -0.0101826
0.00883006 -0.0104694 -0.0104694
0.00817035 -0.00901407 -0.00901407
0.00605449 -0.00944024 -0.00944024
0.00755739 -0.0103141 -0.0103141
0.00850066 -0.00972778 -0.00972778
0.00699201 -0.00885797 -0.00885797
0.00727509 -0.00957207 -0.00957207
0.00628971 -0.0101826 -0.0101826
0.00675818 -0.0117509 -0.0117509
0.00948614 -0.0120362 -0.0120362
0.00883006 -0.0104694 -0.0104694
0.00652427 -0.0109529 -0.0109529
0.00811966 -0.0118817 -0.0118817
0.00915855 -0.0112389 -0.0112389
0.00755739 -0.0103141 -0.0103141
0.00783891 -0.011084 -0.011084
0.00675818 -0.0117509 -0.0117509
0.00722402 -0.01343 -0.01343
0.0101386 -0.0137139 -0.0137139
0.00948614 -0.0120362 -0.0120362
0.00699143 -0.0125766 -0.0125766
0.00867879 -0.0135602 -0.0135602
0.00981281 -0.0128613 -0.0128613
0.00811966 -0.0118817 -0.0118817
0.00839961 -0.0127071 -0.0127071
0.00722402 -0.01343 -0.01343
0.00768724 -0.0152193 -0.0152193
0.0107873 -0.0155018 -0.0155018
0.0101386 -0.0137139 -0.0137139
0.00745596 -0.0143109 -0.0143109
0.00923478 -0.0153488 -0.0153488
0.0104634 -0.0145941 -0.0145941
0.00867879 -0.0135602 -0.0135602
0.00895718 -0.0144408 -0.0144408
0.00768724 -0.0152193 -0.0152193
0.00814782 -0.0171182 -0.0171182
0.0114325 -0.0173993 -0.0173993
0.0107873 -0.0155018 -0.0155018
0.00791786 -0.0161551 -0.0161551
0.00978763 -0.0172471 -0.0172471
0.0111104 -0.0164369 -0.0164369
0.00923478 -0.0153488 -0.0153488
0.0095116 -0.0162843 -0.0162843
0.00814782 -0.0171182 -0.0171182
0.00860576 -0.0191262 -0.0191262
0.0120739 -0.0194059 -0.0194059
0.0114325 -0.0173993 -0.0173993
0.00837712 -0.0181086 -0.0181086
0.0103373 -0.0192544 -0.0192544
0.0117536 -0.018389 -0.018389
0.00978763 -0.0172471 -0.0172471
0.0100629 -0.0182372 -0.0182372
0.00860576 -0.0191262 -0.0191262
0.00906106 -0.0212425 -0.0212425
0.0127117 -0.0215208 -0.0215208
0.0120739 -0.0194059 -0.0194059
0.00883374 -0.0201708 -0.0201708
0.0108839 -0.0213701 -0.0213701
0.0123933 -0.0204498 -0.0204498
0.0103373 -0.0192544 -0.0192544
0.010611 -0.0202988 -0.0202988
0.00906106 -0.0212425 -0.0212425
0.00951372 -0.0234666 -0.0234666
0.0133458 -0.0237435 -0.0237435
0.0127117 -0.0215208 -0.0215208
0.00928772 -0.0223411 -0.0223411
0.0114273 -0.0235936 -0.0235936
0.0130292 -0.0226187 -0.0226187
0.0108839 -0.0213701 -0.0213701
0.011156 -0.0224684 -0.0224684
0.00951372 -0.0234666 -0.0234666
0.00996372 -0.025798 -0.025798
0.0139763 -0.0260735 -0.0260735
0.0133458 -0.0237435 -0.0237435
0.00973905 -0.0246189 -0.0246189
0.0119675 -0.0259243 -0.0259243
0.0136615 -0.0248951 -0.0248951
0.0114273 -0.0235936 -0.0235936
0.0116978 -0.0247456 -0.0247456
0.00996372 -0.025798 -0.025798
0.0104111 -0.0282359 -0.0282359
0.014603 -0.02851 -0.02851
0.0139763 -0.0260735 -0.0260735
0.0101877 -0.0270036 -0.0270036
0.0125045 -0.0283616 -0.0283616
0.0142901 -0.0272784 -0.0272784
0.0119675 -0.0259243 -0.0259243
0.0122364 -0.0271297 -0.0271297
0.0104111 -0.0282359 -0.0282359
0.0108558 -0.0307797 -0.0307797
0.0152261 -0.0310525 -0.0310525
0.014603 -0.02851 -0.02851
0.0106337 -0.0294946 -0.0294946
0.0130384 -0.0309048 -0.0309048
0.014915 -0.029768 -0.029768
0.0125045 -0.0283616 -0.0283616
0.0127719 -0.02962 -0.02962
0.0108558 -0.0307797 -0.0307797
0.0112978 -0.033429 -0.033429
0.0158455 -0.0337004 -0.0337004
0.0152261 -0.0310525 -0.0310525
0.0110771 -0.0320912 -0.0320912
0.0135691 -0.0335535 -0.0335535
0.0155363 -0.0323633 -0.0323633
0.0130384 -0.0309048 -0.0309048
0.0133042 -0.032216 -0.032216
0.0112978 -0.033429 -0.033429
0.0117371 -0.036183 -0.036183
0.0164612 -0.036453 -0.036453
0.0158455 -0.0337004 -0.0337004
0.0115178 -0.0347929 -0.0347929
0.0140967 -0.0363069 -0.0363069
0.0161538 -0.0350636 -0.0350636
0.0135691 -0.0335535 -0.0335535
0.0138333 -0.0349171 -0.0349171
0.0117371 -0.036183 -0.036183
0.0121738 -0.0390412 -0.0390412
0.0170733 -0.0393098 -0.0393098
0.0164612 -0.036453 -0.036453
0.0119558 -0.0375991 -0.0375991
0.014621 -0.0391644 -0.0391644
0.0167677 -0.0378684 -0.0378684
0.0140967 -0.0363069 -0.0363069
0.0143593 -0.0377227 -0.0377227
0.0121738 -0.0390412 -0.0390412
0.0126078 -0.0420029 -0.0420029
0.0176816 -0.0422702 -0.0422702
0.0170733 -0.0393098 -0.0393098
0.0123912 -0.0405091 -0.0405091
0.0151422 -0.0421255 -0.0421255
0.0173779 -0.0407771 -0.0407771
0.014621 -0.0391644 -0.0391644
0.014882 -0.0406321 -0.0406321
0.0126078 -0.0420029 -0.0420029
0.0130392 -0.0450676 -0.0450676
0.0182862 -0.0453335 -0.0453335
0.0176816 -0.0422702 -0.0422702
0.0128238 -0.0435224 -0.0435224
0.0156602 -0.0451896 -0.0451896
0.0179844 -0.043789 -0.043789
0.0151422 -0.0421255 -0.0421255
0.0154016 -0.0436447 -0.0436447
0.0130392 -0.0450676 -0.0450676
0.0134678 -0.0482346 -0.0482346
0.0188871 -0.0484992 -0.0484992
0.0182862 -0.0453335 -0.0453335
0.0132538 -0.0466383 -0.0466383
0.016175 -0.048356 -0.048356
0.0185871 -0.0469036 -0.0469036
0.0156602 -0.0451896 -0.0451896
0.015918 -0.04676 -0.04676
0.0134678 -0.0482346 -0.0482346
0.0138938 -0.0515033 -0.0515033
0.0194843 -0.0517666 -0.0517666
0.0188871 -0.0484992 -0.0484992
0.0136812 -0.0498563 -0.0498563
0.0166866 -0.0516241 -0.0516241
0.0191862 -0.0501202 -0.0501202
0.016175 -0.048356 -0.048356
0.0164312 -0.0499774 -0.0499774
0.0138938 -0.0515033 -0.0515033
0.0143171 -0.0548732 -0.0548732
0.0200779 -0.0551351 -0.0551351
0.0194843 -0.0517666 -0.0517666
0.0141058 -0.0531756 -0.0531756
0.017195 -0.0549934 -0.0549934
0.0197816 -0.0534382 -0.0534382
0.0166866 -0.0516241 -0.0516241
0.0169412 -0.0532962 -0.0532962
0.0143171 -0.0548732 -0.0548732
0.0147377 -0.0583436 -0.0583436
0.0206676 -0.0586042 -0.0586042
0.0200779 -0.0551351 -0.0551351
0.0145277 -0.0565958 -0.0565958
0.0177002 -0.0584632 -0.0584632
0.0203732 -0.0568571 -0.0568571
0.017195 -0.0549934 -0.0549934
0.017448 -0.0567158 -0.0567158
0.0147377 -0.0583436 -0.0583436
0.0151556 -0.0619139 -0.0619139
0.0212537 -0.0621732 -0.0621732
0.0206676 -0.0586042 -0.0586042
0.014947 -0.0601163 -0.0601163
0.0182022 -0.0620329 -0.0620329
0.0209612 -0.0603762 -0.0603762
0.0177002 -0.0584632 -0.0584632
0.0179516 -0.0602356 -0.0602356
0.0151556 -0.0619139 -0.0619139
0.0155708 -0.0655835 -0.0655835
0.0218361 -0.0658415 -0.0658415
0.0212537 -0.0621732 -0.0621732
0.0153635 -0.0637363 -0.0637363
0.018701 -0.0657019 -0.0657019
0.0215454 -0.0639949 -0.0639949
0.0182022 -0.0620329 -0.0620329
0.018452 -0.063855 -0.063855
0.0155708 -0.0655835 -0.0655835
0.0159833 -0.0693518 -0.0693518
0.0224147 -0.0696085 -0.0696085
0.0218361 -0.0658415 -0.0658415
0.0157774 -0.0674554 -0.0674554
0.0191965 -0.0694697 -0.0694697
0.0221259 -0.0677127 -0.0677127
0.018701 -0.0657019 -0.0657019
0.0189491 -0.0675735 -0.0675735
0.0159833 -0.0693518 -0.0693518
0.0163931 -0.0732182 -0.0732182
0.0229896 -0.0734736 -0.0734736
0.0224147 -0.0696085 -0.0696085
0.0161886 -0.0712728 -0.0712728
0.0196889 -0.0733355 -0.0733355
0.0227027 -0.0715288 -0.0715288
0.0191965 -0.0694697 -0.0694697
0.0194431 -0.0713904 -0.0713904
0.0163931 -0.0732182 -0.0732182
0.0168002 -0.0771822 -0.0771822
0.0235608 -0.0774362 -0.0774362
0.0229896 -0.0734736 -0.0734736
0.016597 -0.0751881 -0.0751881
0.020178 -0.0772988 -0.0772988
0.0232757 -0.0754428 -0.0754428
0.0196889 -0.0733355 -0.0733355
0.0199339 -0.075305 -0.075305
0.0168002 -0.0771822 -0.0771822
0.0172046 -0.081243 -0.081243
0.0241283 -0.0814957 -0.0814957
0.0235608 -0.0774362 -0.0774362
0.0170028 -0.0792005 -0.0792005
0.020664 -0.0813591 -0.0813591
0.023845 -0.0794539 -0.0794539
0.020178 -0.0772988 -0.0772988
0.0204214 -0.0793169 -0.0793169
0.0172046 -0.081243 -0.081243
0.0176063 -0.0854001 -0.0854001
0.024692 -0.0856515 -0.0856515
0.0241283 -0.0814957 -0.0814957
0.0174058 -0.0833095 -0.0833095
0.0211467 -0.0855156 -0.0855156
0.0244106 -0.0835617 -0.0835617
0.020664 -0.0813591 -0.0813591
0.0209057 -0.0834253 -0.0834253
0.0176063 -0.0854001 -0.0854001
0.0180053 -0.0896528 -0.0896528
0.025252 -0.089903 -0.089903
0.024692 -0.0856515 -0.0856515
0.0178061 -0.0875145 -0.0875145
0.0216261 -0.0897678 -0.0897678
0.0249725 -0.0877654 -0.0877654
0.0211467 -0.0855156 -0.0855156
0.0213868 -0.0876297 -0.0876297
0.0180053 -0.0896528 -0.0896528
0.0184015 -0.0940007 -0.0940007
0.0258082 -0.0942496 -0.0942496
0.025252 -0.089903 -0.089903
0.0182037 -0.0918149 -0.0918149
0.0221024 -0.094115 -0.094115
0.0255306 -0.0920645 -0.0920645
0.0216261 -0.0897678 -0.0897678
0.0218647 -0.0919295 -0.0919295
0.0184015 -0.0940007 -0.0940007
0.018795 -0.098443 -0.098443
0.0263608 -0.0986906 -0.0986906
0.0258082 -0.0942496 -0.0942496
0.0185986 -0.09621 -0.09621
0.0225754 -0.0985568 -0.0985568
0.026085 -0.0964583 -0.0964583
0.0221024 -0.094115 -0.094115
0.0223393 -0.0963241 -0.0963241
0.018795 -0.098443 -0.098443
0.0191859 -0.102979 -0.102979
0.0269095 -0.103226 -0.103226
0.0263608 -0.0986906 -0.0986906
0.0189908 -0.100699 -0.100699
0.0230452 -0.103092 -0.103092
0.0266356 -0.100946 -0.100946
0.0225754 -0.0985568 -0.0985568
0.0228107 -0.100813 -0.100813
0.0191859 -0.102979 -0.102979
0.0195739 -0.107609 -0.107609
0.0274545 -0.107854 -0.107854
0.0269095 -0.103226 -0.103226
0.0193802 -0.105282 -0.105282
0.0235118 -0.107721 -0.107721
0.0271825 -0.105528 -0.105528
0.0230452 -0.103092 -0.103092
0.0232789 -0.105395 -0.105395
0.0195739 -0.107609 -0.107609
0.0199593 -0.112331 -0.112331
0.0279958 -0.112574 -0.112574
0.0274545 -0.107854 -0.107854
0.019767 -0.109958 -0.109958
0.0239751 -0.112443 -0.112443
0.0277256 -0.110203 -0.110203
0.0235118 -0.107721 -0.107721
0.0237438 -0.11007 -0.11007
0.0199593 -0.112331 -0.112331
0.0203419 -0.117145 -0.117145
0.0285333 -0.117387 -0.117387
0.0279958 -0.112574 -0.112574
0.020151 -0.114726 -0.114726
0.0244351 -0.117256 -0.117256
0.028265 -0.114969 -0.114969
0.0239751 -0.112443 -0.112443
0.0242055 -0.114838 -0.114838
0.0203419 -0.117145 -0.117145
0.0207219 -0.12205 -0.12205
0.0290671 -0.122292 -0.122292
0.0285333 -0.117387 -0.117387
0.0205322 -0.119586 -0.119586
0.024892 -0.122161 -0.122161
0.0288007 -0.119828 -0.119828
0.0244351 -0.117256 -0.117256
0.024664 -0.119697 -0.119697
0.0207219 -0.12205 -0.12205
0.021099 -0.127047 -0.127047
0.0295971 -0.127287 -0.127287
0.0290671 -0.122292 -0.122292
0.0209108 -0.124537 -0.124537
0.0253456 -0.127157 -0.127157
0.0293326 -0.124778 -0.124778
0.024892 -0.122161 -0.122161
0.0251192 -0.124648 -0.124648
0.021099 -0.127047 -0.127047
0.0214735 -0.132133 -0.132133
0.0301234 -0.132372 -0.132372
0.0295971 -0.127287 -0.127287
0.0212866 -0.129579 -0.129579
0.0257959 -0.132243 -0.132243
0.0298607 -0.129818 -0.129818
0.0253456 -0.127157 -0.127157
0.0255712 -0.129689 -0.129689
0.0214735 -0.132133 -0.132133
0.0218452 -0.137309 -0.137309
0.0306459 -0.137547 -0.137547
0.0301234 -0.132372 -0.132372
0.0216597 -0.13471 -0.13471
0.026243 -0.137419 -0.137419
0.0303851 -0.134948 -0.134948
0.0257959 -0.132243 -0.132243
0.0260199 -0.13482 -0.13482
0.0218452 -0.137309 -0.137309
0.0222141 -0.142575 -0.142575
0.0311646 -0.142811 -0.142811
0.0306459 -0.137547 -0.137547
0.02203 -0.139931 -0.139931
0.0266869 -0.142683 -0.142683
0.0309057 -0.140168 -0.140168
0.026243 -0.137419 -0.137419
0.0264654 -0.14004 -0.14004
0.0222141 -0.142575 -0.142575
0.0225804 -0.147928 -0.147928
0.0316796 -0.148163 -0.148163
0.0311646 -0.142811 -0.142811
0.0223976 -0.14524 -0.14524
0.0271275 -0.148036 -0.148036
0.0314226 -0.145476 -0.145476
0.0266869 -0.142683 -0.142683
0.0269076 -0.145349 -0.145349
0.0225804 -0.147928 -0.147928
0.0229438 -0.15337 -0.15337
0.0321908 -0.153604 -0.153604
0.0316796 -0.148163 -0.148163
0.0227624 -0.150638 -0.150638
0.0275648 -0.153477 -0.153477
0.0319357 -0.150873 -0.150873
0.0271275 -0.148036 -0.148036
0.0273466 -0.150746 -0.150746
0.0229438 -0.15337 -0.15337
0.0233046 -0.158898 -0.158898
0.0326983 -0.159131 -0.159131
0.0321908 -0.153604 -0.153604
0.0231246 -0.156123 -0.156123
0.0279989 -0.159005 -0.159005
0.032445 -0.156356 -0.156356
0.0275648 -0.153477 -0.153477
0.0277823 -0.156231 -0.156231
0.0233046 -0.158898 -0.158898
0.0236626 -0.164514 -0.164514
0.033202 -0.164745 -0.164745
0.0326983 -0.159131 -0.159131
0.0234839 -0.161695 -0.161695
0.0284298 -0.16462 -0.16462
0.0329506 -0.161927 -0.161927
0.0279989 -0.159005 -0.159005
0.0282148 -0.161802 -0.161802
0.0236626 -0.164514 -0.164514
0.0240178 -0.170215 -0.170215
0.0337019 -0.170445 -0.170445
0.033202 -0.164745 -0.164745
0.0238405 -0.167354 -0.167354
0.0288574 -0.170321 -0.170321
0.0334524 -0.167584 -0.167584
0.0284298 -0.16462 -0.16462
0.028644 -0.16746 -0.16746
0.0240178 -0.170215 -0.170215
0.0243703 -0.176001 -0.176001
0.034198 -0.17623 -0.17623
0.0337019 -0.170445 -0.170445
0.0241944 -0.173097 -0.173097
0.0292817 -0.176107 -0.176107
0.0339504 -0.173327 -0.173327
0.0288574 -0.170321 -0.170321
0.0290699 -0.173203 -0.173203
0.0243703 -0.176001 -0.176001
0.0247201 -0.181873 -0.181873
0.0346904 -0.1821 -0.1821
0.034198 -0.17623 -0.17623
0.0245455 -0.178927 -0.178927
0.0297027 -0.181978 -0.181978
0.0344447 -0.179155 -0.179155
0.0292817 -0.176107 -0.176107
0.0294926 -0.179032 -0.179032
0.0247201 -0.181873 -0.181873
0.0250671 -0.187828 -0.187828
0.035179 -0.188055 -0.188055
0.0346904 -0.1821 -0.1821
0.0248939 -0.18484 -0.18484
0.0301205 -0.187933 -0.187933
0.0349351 -0.185067 -0.185067
0.0297027 -0.181978 -0.181978
0.029912 -0.184945 -0.184945
0.0250671 -0.187828 -0.187828
0.0254113 -0.193867 -0.193867
0.0356638 -0.194093 -0.194093
0.035179 -0.188055 -0.188055
0.0252395 -0.190837 -0.190837
0.0305351 -0.193971 -0.193971
0.0354219 -0.191063 -0.191063
0.0301205 -0.187933 -0.187933
0.0303282 -0.190941 -0.190941
0.0254113 -0.193867 -0.193867
0.0257528 -0.199989 -0.199989
0.0361448 -0.200213 -0.200213
0.0356638 -0.194093 -0.194093
0.0255824 -0.196918 -0.196918
0.0309463 -0.200093 -0.200093
0.0359048 -0.197143 -0.197143
0.0305351 -0.193971 -0.193971
0.0307411 -0.197022 -0.197022
0.0257528 -0.199989 -0.199989
0.0260916 -0.206194 -0.206194
0.0366221 -0.206417 -0.206417
0.0361448 -0.200213 -0.200213
0.0259225 -0.203081 -0.203081
0.0313543 -0.206296 -0.206296
0.036384 -0.203305 -0.203305
0.0309463 -0.200093 -0.200093
0.0311507 -0.203184 -0.203184
0.0260916 -0.206194 -0.206194
0.0264275 -0.21248 -0.21248
0.0370956 -0.212702 -0.212702
0.0366221 -0.206417 -0.206417
0.0262599 -0.209327 -0.209327
0.0317591 -0.212582 -0.212582
0.0368593 -0.209549 -0.209549
0.0313543 -0.206296 -0.206296
0.0315571 -0.209429 -0.209429
0.0264275 -0.21248 -0.21248
0.0267608 -0.218847 -0.218847
0.0375653 -0.219068 -0.219068
0.0370956 -0.212702 -0.212702
0.0265945 -0.215654 -0.215654
0.0321605 -0.218949 -0.218949
0.0373309 -0.215874 -0.215874
0.0317591 -0.212582 -0.212582
0.0319602 -0.215755 -0.215755
0.0267608 -0.218847 -0.218847
0.0270912 -0.225295 -0.225295
0.0380312 -0.225514 -0.225514
0.0375653 -0.219068 -0.219068
0.0269263 -0.222061 -0.222061
0.0325587 -0.225396 -0.225396
0.0377988 -0.222281 -0.222281
0.0321605 -0.218949 -0.218949
0.0323601 -0.222162 -0.222162
0.0270912 -0.225295 -0.225295
0.0274189 -0.231823 -0.231823
0.0384934 -0.232041 -0.232041
0.0380312 -0.225514 -0.225514
0.0272554 -0.228549 -0.228549
0.0329537 -0.231923 -0.231923
0.0382628 -0.228768 -0.228768
0.0325587 -0.225396 -0.225396
0.0327566 -0.22865 -0.22865
0.0274189 -0.231823 -0.231823
0.0277439 -0.23843 -0.23843
0.0389518 -0.238647 -0.238647
0.0384934 -0.232041 -0.232041
0.0275818 -0.235116 -0.235116
0.0333453 -0.23853 -0.23853
0.0387231 -0.235334 -0.235334
0.0329537 -0.231923 -0.231923
0.0331499 -0.235217 -0.235217
0.0277439 -0.23843 -0.23843
0.0280661 -0.245116 -0.245116
0.0394063 -0.245331 -0.245331
0.0389518 -0.238647 -0.238647
0.0279053 -0.241763 -0.241763
0.0337337 -0.245215 -0.245215
0.0391795 -0.241979 -0.241979
0.0333453 -0.23853 -0.23853
0.0335399 -0.241863 -0.241863
0.0280661 -0.245116 -0.245116
0.0283855 -0.25188 -0.25188
0.0398571 -0.252094 -0.252094
0.0394063 -0.245331 -0.245331
0.0282261 -0.248488 -0.248488
0.0341188 -0.251978 -0.251978
0.0396322 -0.248703 -0.248703
0.0337337 -0.245215 -0.245215
0.0339267 -0.248587 -0.248587
0.0283855 -0.25188 -0.25188
0.0287022 -0.258721 -0.258721
0.0403042 -0.258934 -0.258934
0.0398571 -0.252094 -0.252094
0.0285442 -0.255291 -0.255291
0.0345007 -0.258819 -0.258819
0.0400811 -0.255504 -0.255504
0.0341188 -0.251978 -0.251978
0.0343102 -0.255389 -0.255389
0.0287022 -0.258721 -0.258721
0.0290161 -0.265639 -0.265639
0.0407474 -0.265851 -0.265851
0.0403042 -0.258934 -0.258934
0.0288595 -0.26217 -0.26217
0.0348792 -0.265737 -0.265737
0.0405263 -0.262383 -0.262383
0.0345007 -0.258819 -0.258819
0.0346904 -0.262269 -0.262269
0.0290161 -0.265639 -0.265639
0.0293272 -0.272634 -0.272634
0.0411868 -0.272845 -0.272845
0.0407474 -0.265851 -0.265851
0.029172 -0.269127 -0.269127
0.0352545 -0.272731 -0.272731
0.0409676 -0.269338 -0.269338
0.0348792 -0.265737 -0.265737
0.0350673 -0.269225 -0.269225
0.0293272 -0.272634 -0.272634
0.0296356 -0.279704 -0.279704
0.0416225 -0.279914 -0.279914
0.0411868 -0.272845 -0.272845
0.0294817 -0.276159 -0.276159
0.0356265 -0.279801 -0.279801
0.0414051 -0.27637 -0.27637
0.0352545 -0.272731 -0.272731
0.0354409 -0.276256 -0.276256
0.0296356 -0.279704 -0.279704
0.0299412 -0.286849 -0.286849
0.0420544 -0.287058 -0.287058
0.0416225 -0.279914 -0.279914
0.0297887 -0.283267 -0.283267
0.0359953 -0.286946 -0.286946
0.0418389 -0.283476 -0.283476
0.0356265 -0.279801 -0.279801
0.0358113 -0.283364 -0.283364
0.0299412 -0.286849 -0.286849
0.030244 -0.294069 -0.294069
0.0424824 -0.294276 -0.294276
0.0420544 -0.287058 -0.287058
0.0300929 -0.29045 -0.29045
0.0363607 -0.294165 -0.294165
0.0422689 -0.290658 -0.290658
0.0359953 -0.286946 -0.286946
0.0361784 -0.290546 -0.290546
0.030244 -0.294069 -0.294069
0.0305441 -0.301363 -0.301363
0.0429067 -0.301569 -0.301569
0.0424824 -0.294276 -0.294276
0.0303944 -0.297707 -0.297707
0.0367229 -0.301458 -0.301458
0.0426951 -0.297913 -0.297913
0.0363607 -0.294165 -0.294165
0.0365422 -0.297802 -0.297802
0.0305441 -0.301363 -0.301363
0.0308414 -0.30873 -0.30873
0.0433272 -0.308935 -0.308935
0.0429067 -0.301569 -0.301569
0.0306931 -0.305037 -0.305037
0.0370818 -0.308824 -0.308824
0.0431175 -0.305243 -0.305243
0.0367229 -0.301458 -0.301458
0.0369028 -0.305132 -0.305132
0.0308414 -0.30873 -0.30873
0.0311359 -0.316169 -0.316169
0.0437439 -0.316373 -0.316373
0.0433272 -0.308935 -0.308935
0.030989 -0.312441 -0.312441
0.0374374 -0.316264 -0.316264
0.0435361 -0.312645 -0.312645
0.0370818 -0.308824 -0.308824
0.03726 -0.312535 -0.312535
0.0311359 -0.316169 -0.316169
0.0314277 -0.323681 -0.323681
0.0441569 -0.323883 -0.323883
0.0437439 -0.316373 -0.316373
0.0312821 -0.319916 -0.319916
0.0377898 -0.323775 -0.323775
0.0439509 -0.320119 -0.320119
0.0374374 -0.316264 -0.316264
0.037614 -0.32001 -0.32001
0.0314277 -0.323681 -0.323681
0.0317167 -0.331264 -0.331264
0.044566 -0.331465 -0.331465
0.0441569 -0.323883 -0.323883
0.0315725 -0.327464 -0.327464
0.0381389 -0.331357 -0.331357
0.0443619 -0.327666 -0.327666
0.0377898 -0.323775 -0.323775
0.0379647 -0.327557 -0.327557
0.0317167 -0.331264 -0.331264
0.0320029 -0.338918 -0.338918
0.0449713 -0.339118 -0.339118
0.044566 -0.331465 -0.331465
0.0318602 -0.335082 -0.335082
0.0384846 -0.339011 -0.339011
0.0447691 -0.335283 -0.335283
0.0381389 -0.331357 -0.331357
0.0383122 -0.335175 -0.335175
0.0320029 -0.338918 -0.338918
0.0322864 -0.346642 -0.346642
0.0453729 -0.346841 -0.346841
0.0449713 -0.339118 -0.339118
0.032145 -0.342772 -0.342772
0.0388272 -0.346734 -0.346734
0.0451726 -0.342971 -0.342971
0.0384846 -0.339011 -0.339011
0.0386563 -0.342864 -0.342864
0.0322864 -0.346642 -0.346642
0.0325671 -0.354436 -0.354436
0.0457707 -0.354634 -0.354634
0.0453729 -0.346841 -0.346841
0.0324271 -0.350531 -0.350531
0.0391664 -0.354528 -0.354528
0.0455723 -0.350729 -0.350729
0.0388272 -0.346734 -0.346734
0.0389972 -0.350622 -0.350622
0.0325671 -0.354436 -0.354436
0.032845 -0.362299 -0.362299
0.0461646 -0.362495 -0.362495
0.0457707 -0.354634 -0.354634
0.0327064 -0.358359 -0.358359
0.0395023 -0.36239 -0.36239
0.0459681 -0.358556 -0.358556
0.0391664 -0.354528 -0.354528
0.0393348 -0.35845 -0.35845
0.032845 -0.362299 -0.362299
0.0331202 -0.37023 -0.37023
0.0465548 -0.370426 -0.370426
0.0461646 -0.362495 -0.362495
0.032983 -0.366256 -0.366256
0.039835 -0.370321 -0.370321
0.0463602 -0.366452 -0.366452
0.0395023 -0.36239 -0.36239
0.0396691 -0.366347 -0.366347
0.0331202 -0.37023 -0.37023
0.0333926 -0.378229 -0.378229
0.0469412 -0.378423 -0.378423
0.0465548 -0.370426 -0.370426
0.0332567 -0.374221 -0.374221
0.0401644 -0.378319 -0.378319
0.0467485 -0.374416 -0.374416
0.039835 -0.370321 -0.370321
0.0400001 -0.374312 -0.374312
0.0333926 -0.378229 -0.378229
0.0336622 -0.386296 -0.386296
0.0473238 -0.386488 -0.386488
0.0469412 -0.378423 -0.378423
0.0335277 -0.382254 -0.382254
0.0404905 -0.386385 -0.386385
0.047133 -0.382448 -0.382448
0.0401644 -0.378319 -0.378319
0.0403279 -0.382344 -0.382344
0.0336622 -0.386296 -0.386296
0.0339291 -0.394429 -0.394429
0.0477026 -0.39462 -0.39462
0.0473238 -0.386488 -0.386488
0.033796 -0.390354 -0.390354
0.0408134 -0.394517 -0.394517
0.0475137 -0.390546 -0.390546
0.0404905 -0.386385 -0.386385
0.0406523 -0.390443 -0.390443
0.0339291 -0.394429 -0.394429
0.0341932 -0.402627 -0.402627
0.0480776 -0.402818 -0.402818
0.0477026 -0.39462 -0.39462
0.0340615 -0.39852 -0.39852
0.0411329 -0.402716 -0.402716
0.0478906 -0.398711 -0.398711
0.0408134 -0.394517 -0.394517
0.0409735 -0.398608 -0.398608
0.0341932 -0.402627 -0.402627
0.0344545 -0.410892 -0.410892
0.0484489 -0.411081 -0.411081
0.0480776 -0.402818 -0.402818
0.0343242 -0.406751 -0.406751
0.0414492 -0.410979 -0.410979
0.0482637 -0.406941 -0.406941
0.0411329 -0.402716 -0.402716
0.0412915 -0.406839 -0.406839
0.0344545 -0.410892 -0.410892
0.034713 -0.419221 -0.419221
0.0488163 -0.419409 -0.419409
0.0484489 -0.411081 -0.411081
0.0345841 -0.415048 -0.415048
0.0417622 -0.419308 -0.419308
0.0486331 -0.415237 -0.415237
0.0414492 -0.410979 -0.410979
0.0416061 -0.415136 -0.415136
0.034713 -0.419221 -0.419221
0.0349688 -0.427614 -0.427614
0.04918 -0.427801 -0.427801
0.0488163 -0.419409 -0.419409
0.0348413 -0.423409 -0.423409
0.0420719 -0.427701 -0.427701
0.0489986 -0.423597 -0.423597
0.0417622 -0.419308 -0.419308
0.0419175 -0.423496 -0.423496
0.0349688 -0.427614 -0.427614
0.0352219 -0.436071 -0.436071
0.0495398 -0.436256 -0.436256
0.04918 -0.427801 -0.427801
0.0350957 -0.431835 -0.431835
0.0423784 -0.436157 -0.436157
0.0493604 -0.432021 -0.432021
0.0420719 -0.427701 -0.427701
0.0422255 -0.431921 -0.431921
0.0352219 -0.436071 -0.436071
0.0354721 -0.444591 -0.444591
0.0498959 -0.444775 -0.444775
0.0495398 -0.436256 -0.436256
0.0353473 -0.440323 -0.440323
0.0426815 -0.444676 -0.444676
0.0497184 -0.440508 -0.440508
0.0423784 -0.436157 -0.436157
0.0425304 -0.440409 -0.440409
0.0354721 -0.444591 -0.444591
0.0357196 -0.453173 -0.453173
0.0502482 -0.453356 -0.453356
0.0498959 -0.444775 -0.444775
0.0355962 -0.448874 -0.448874
0.0429814 -0.453258 -0.453258
0.0500725 -0.449058 -0.449058
0.0426815 -0.444676 -0.444676
0.0428319 -0.448959 -0.448959
0.0357196 -0.453173 -0.453173
0.0359644 -0.461817 -0.461817
0.0505967 -0.461999 -0.461999
0.0502482 -0.453356 -0.453356
0.0358423 -0.457487 -0.457487
0.043278 -0.461901 -0.461901
0.0504229 -0.45767 -0.45767
0.0429814 -0.453258 -0.453258
0.0431301 -0.457572 -0.457572
0.0359644 -0.461817 -0.461817
0.0362063 -0.470522 -0.470522
0.0509414 -0.470703 -0.470703
0.0505967 -0.461999 -0.461999
0.0360857 -0.466162 -0.466162
0.0435714 -0.470606 -0.470606
0.0507695 -0.466343 -0.466343
0.043278 -0.461901 -0.461901
0.0434251 -0.466246 -0.466246
0.0362063 -0.470522 -0.470522
0.0364455 -0.479287 -0.479287
0.0512824 -0.479467 -0.479467
0.0509414 -0.470703 -0.470703
0.0363263 -0.474897 -0.474897
0.0438614 -0.479371 -0.479371
0.0511124 -0.475077 -0.475077
0.0435714 -0.470606 -0.470606
0.0437168 -0.474981 -0.474981
0.0364455 -0.479287 -0.479287
0.036682 -0.488113 -0.488113
0.0516195 -0.488291 -0.488291
0.0512824 -0.479467 -0.479467
0.0365641 -0.483693 -0.483693
0.0441482 -0.488196 -0.488196
0.0514514 -0.483872 -0.483872
0.0438614 -0.479371 -0.479371
0.0440053 -0.483776 -0.483776
0.036682 -0.488113 -0.488113
0.0369156 -0.496998 -0.496998
0.0519529 -0.497175 -0.497175
0.0516195 -0.488291 -0.488291
0.0367991 -0.492548 -0.492548
0.0444318 -0.49708 -0.49708
0.0517867 -0.492726 -0.492726
0.0441482 -0.488196 -0.488196
0.0442904 -0.49263 -0.49263
0.0369156 -0.496998 -0.496998
0.0371466 -0.505941 -0.505941
0.0522825 -0.506117 -0.506117
0.0519529 -0.497175 -0.497175
0.0370314 -0.501462 -0.501462
0.044712 -0.506023 -0.506023
0.0521181 -0.501639 -0.501639
0.0444318 -0.49708 -0.49708
0.0445723 -0.501544 -0.501544
0.0371466 -0.505941 -0.505941
0.0373747 -0.514943 -0.514943
0.0526082 -0.515118 -0.515118
0.0522825 -0.506117 -0.506117
0.037261 -0.510435 -0.510435
0.044989 -0.515024 -0.515024
0.0524458 -0.51061 -0.51061
0.044712 -0.506023 -0.506023
0.0448509 -0.510516 -0.510516
0.0373747 -0.514943 -0.514943
0.0376001 -0.524002 -0.524002
0.0529303 -0.524176 -0.524176
0.0526082 -0.515118 -0.515118
0.0374877 -0.519465 -0.519465
0.0452627 -0.524083 -0.524083
0.0527697 -0.51964 -0.51964
0.044989 -0.515024 -0.515024
0.0451262 -0.519546 -0.519546
0.0376001 -0.524002 -0.524002
0.0378227 -0.533118 -0.533118
0.0532485 -0.533291 -0.533291
0.0529303 -0.524176 -0.524176
0.0377118 -0.528553 -0.528553
0.0455331 -0.533199 -0.533199
0.0530898 -0.528726 -0.528726
0.0452627 -0.524083 -0.524083
0.0453983 -0.528634 -0.528634
0.0378227 -0.533118 -0.533118
0.0380426 -0.542291 -0.542291
0.0535629 -0.542462 -0.542462
0.0532485 -0.533291 -0.533291
0.037933 -0.537698 -0.537698
0.0458003 -0.54237 -0.54237
0.0534062 -0.537869 -0.537869
0.0455331 -0.533199 -0.533199
0.0456671 -0.537777 -0.537777
0.0380426 -0.542291 -0.542291
0.0382597 -0.551519 -0.551519
0.0538736 -0.551689 -0.551689
0.0535629 -0.542462 -0.542462
0.0381515 -0.546898 -0.546898
0.0460642 -0.551598 -0.551598
0.0537188 -0.547068 -0.547068
0.0458003 -0.54237 -0.54237
0.0459326 -0.546977 -0.546977
0.0382597 -0.551519 -0.551519
0.0384741 -0.560802 -0.560802
0.0541805 -0.560971 -0.560971
0.0538736 -0.551689 -0.551689
0.0383673 -0.556154 -0.556154
0.0463248 -0.560881 -0.560881
0.0540275 -0.556323 -0.556323
0.0460642 -0.551598 -0.551598
0.0461949 -0.556233 -0.556233
0.0384741 -0.560802 -0.560802
0.0386857 -0.57014 -0.57014
0.0544836 -0.570307 -0.570307
0.0541805 -0.560971 -0.560971
0.0385803 -0.565464 -0.565464
0.0465822 -0.570218 -0.570218
0.0543325 -0.565632 -0.565632
0.0463248 -0.560881 -0.560881
0.0464539 -0.565543 -0.565543
0.0386857 -0.57014 -0.57014
0.0388946 -0.579532 -0.579532
0.054783 -0.579698 -0.579698
0.0544836 -0.570307 -0.570307
0.0387905 -0.574829 -0.574829
0.0468363 -0.579609 -0.579609
0.0546338 -0.574996 -0.574996
0.0465822 -0.570218 -0.570218
0.0467096 -0.574907 -0.574907
0.0388946 -0.579532 -0.579532
0.0391007 -0.588976 -0.588976
0.0550785 -0.589141 -0.589141
0.054783 -0.579698 -0.579698
0.038998 -0.584247 -0.584247
0.0470871 -0.589053 -0.589053
0.0549312 -0.584413 -0.584413
0.0468363 -0.579609 -0.579609
0.0469621 -0.584325 -0.584325
0.0391007 -0.588976 -0.588976
0.039304 -0.598474 -0.598474
0.0553703 -0.598638 -0.598638
0.0550785 -0.589141 -0.589141
0.0392027 -0.593719 -0.593719
0.0473347 -0.59855 -0.59855
0.0552249 -0.593883 -0.593883
0.0470871 -0.589053 -0.589053
0.0472113 -0.593795 -0.593795
0.039304 -0.598474 -0.598474
0.0395046 -0.608024 -0.608024
0.0556583 -0.608186 -0.608186
0.0553703 -0.598638 -0.598638
0.0394047 -0.603242 -0.603242
0.047579 -0.608099 -0.608099
0.0555148 -0.603406 -0.603406
0.0473347 -0.59855 -0.59855
0.0474572 -0.603318 -0.603318
0.0395046 -0.608024 -0.608024
0.0397025 -0.617625 -0.617625
0.0559426 -0.617786 -0.617786
0.0556583 -0.608186 -0.608186
0.0396039 -0.612818 -0.612818
0.04782 -0.6177 -0.6177
0.0558009 -0.61298 -0.61298
0.047579 -0.608099 -0.608099
0.0476999 -0.612893 -0.612893
0.0397025 -0.617625 -0.617625
0.0398976 -0.627277 -0.627277
0.0562231 -0.627437 -0.627437
0.0559426 -0.617786 -0.617786
0.0398004 -0.622444 -0.622444
0.0480578 -0.627351 -0.627351
0.0560833 -0.622605 -0.622605
0.04782 -0.6177 -0.6177
0.0479393 -0.622519 -0.622519
0.0398976 -0.627277 -0.627277
0.0400899 -0.636979 -0.636979
0.0564998 -0.637138 -0.637138
0.0562231 -0.627437 -0.627437
0.0399941 -0.632121 -0.632121
0.0482924 -0.637053 -0.637053
0.0563619 -0.632281 -0.632281
0.0480578 -0.627351 -0.627351
0.0481755 -0.632196 -0.632196
0.0400899 -0.636979 -0.636979
0.0402795 -0.646731 -0.646731
0.0567727 -0.646888 -0.646888
0.0564998 -0.637138 -0.637138
0.0401851 -0.641849 -0.641849
0.0485236 -0.646804 -0.646804
0.0566367 -0.642007 -0.642007
0.0482924 -0.637053 -0.637053
0.0484084 -0.641922 -0.641922
0.0402795 -0.646731 -0.646731
0.0404664 -0.656532 -0.656532
0.0570419 -0.656688 -0.656688
0.0567727 -0.646888 -0.646888
0.0403733 -0.651625 -0.651625
0.0487516 -0.656605 -0.656605
0.0569078 -0.651782 -0.651782
0.0485236 -0.646804 -0.646804
0.048638 -0.651698 -0.651698
0.0404664 -0.656532 -0.656532
0.0406505 -0.666381 -0.666381
0.0573073 -0.666536 -0.666536
0.0570419 -0.656688 -0.656688
0.0405588 -0.66145 -0.66145
0.0489764 -0.666453 -0.666453
0.057175 -0.661606 -0.661606
0.0487516 -0.656605 -0.656605
0.0488644 -0.661523 -0.661523
0.0406505 -0.666381 -0.666381
0.0408319 -0.676278 -0.676278
0.0575689 -0.676432 -0.676432
0.0573073 -0.666536 -0.666536
0.0407416 -0.671323 -0.671323
0.0491979 -0.67635 -0.67635
0.0574386 -0.671478 -0.671478
0.0489764 -0.666453 -0.666453
0.0490876 -0.671396 -0.671396
0.0408319 -0.676278 -0.676278
0.0410106 -0.686222 -0.686222
0.0578268 -0.686375 -0.686375
0.0575689 -0.676432 -0.676432
0.0409216 -0.681244 -0.681244
0.0494162 -0.686294 -0.686294
0.0576983 -0.681398 -0.681398
0.0491979 -0.67635 -0.67635
0.0493075 -0.681316 -0.681316
0.0410106 -0.686222 -0.686222
0.0411865 -0.696213 -0.696213
0.0580809 -0.696365 -0.696365
0.0578268 -0.686375 -0.686375
0.0410988 -0.691212 -0.691212
0.0496312 -0.696284 -0.696284
0.0579543 -0.691364 -0.691364
0.0494162 -0.686294 -0.686294
0.0495241 -0.691283 -0.691283
0.0411865 -0.696213 -0.696213
0.0413596 -0.70625 -0.70625
0.0583313 -0.7064 -0.7064
0.0580809 -0.696365 -0.696365
0.0412734 -0.701226 -0.701226
0.049843 -0.70632 -0.70632
0.0582066 -0.701377 -0.701377
0.0496312 -0.696284 -0.696284
0.0497375 -0.701297 -0.701297
0.0413596 -0.70625 -0.70625
0.0415301 -0.716333 -0.716333
0.0585779 -0.716482 -0.716482
0.0583313 -0.7064 -0.7064
0.0414452 -0.711286 -0.711286
0.0500515 -0.716402 -0.716402
0.0584551 -0.711435 -0.711435
0.049843 -0.70632 -0.70632
0.0499476 -0.711356 -0.711356
0.0415301 -0.716333 -0.716333
0.0416977 -0.72646 -0.72646
0.0588207 -0.726607 -0.726607
0.0585779 -0.716482 -0.716482
0.0416142 -0.721391 -0.721391
0.0502567 -0.726529 -0.726529
0.0586998 -0.721539 -0.721539
0.0500515 -0.716402 -0.716402
0.0501545 -0.72146 -0.72146
0.0416977 -0.72646 -0.72646
0.0418627 -0.736631 -0.736631
0.0590598 -0.736778 -0.736778
0.0588207 -0.726607 -0.726607
0.0417806 -0.73154 -0.73154
0.0504588 -0.7367 -0.7367
0.0589407 -0.731687 -0.731687
0.0502567 -0.726529 -0.726529
0.0503582 -0.731609 -0.731609
0.0418627 -0.736631 -0.736631
0.0420249 -0.746846 -0.746846
0.0592952 -0.746991 -0.746991
0.0590598 -0.736778 -0.736778
0.0419442 -0.741733 -0.741733
0.0506576 -0.746914 -0.746914
0.059178 -0.741879 -0.741879
0.0504588 -0.7367 -0.7367
0.0505586 -0.741801 -0.741801
0.0420249 -0.746846 -0.746846
0.0421845 -0.757104 -0.757104
0.0595267 -0.757248 -0.757248
0.0592952 -0.746991 -0.746991
0.042105 -0.75197 -0.75197
0.0508531 -0.757171 -0.757171
0.0594114 -0.752114 -0.752114
0.0506576 -0.746914 -0.746914
0.0507557 -0.752037 -0.752037
0.0421845 -0.757104 -0.757104
0.0423412 -0.767404 -0.767404
0.0597546 -0.767547 -0.767547
0.0595267 -0.757248 -0.757248
0.0422632 -0.762249 -0.762249
0.0510454 -0.767471 -0.767471
0.0596411 -0.762392 -0.762392
0.0508531 -0.757171 -0.757171
0.0509497 -0.762316 -0.762316
0.0423412 -0.767404 -0.767404
0.0424953 -0.777746 -0.777746
0.0599787 -0.777888 -0.777888
0.0597546 -0.767547 -0.767547
0.0424186 -0.77257 -0.77257
0.0512345 -0.777813 -0.777813
0.0598671 -0.772712 -0.772712
0.0510454 -0.767471 -0.767471
0.0511404 -0.772637 -0.772637
0.0424953 -0.777746 -0.777746
0.0426466 -0.78813 -0.78813
0.060199 -0.78827 -0.78827
0.0599787 -0.777888 -0.777888
0.0425713 -0.782933 -0.782933
0.0514203 -0.788195 -0.788195
0.0600893 -0.783074 -0.783074
0.0512345 -0.777813 -0.777813
0.0513278 -0.782999 -0.782999
0.0426466 -0.78813 -0.78813
0.0427952 -0.798553 -0.798553
0.0604156 -0.798692 -0.798692
0.060199 -0.78827 -0.78827
0.0427213 -0.793337 -0.793337
0.0516029 -0.798619 -0.798619
0.0603078 -0.793476 -0.793476
0.0514203 -0.788195 -0.788195
0.051512 -0.793402 -0.793402
0.0427952 -0.798553 -0.798553
0.0429411 -0.809017 -0.809017
0.0606285 -0.809155 -0.809155
0.0604156 -0.798692 -0.798692
0.0428685 -0.80378 -0.80378
0.0517823 -0.809082 -0.809082
0.0605225 -0.803919 -0.803919
0.0516029 -0.798619 -0.798619
0.051693 -0.803845 -0.803845
0.0429411 -0.809017 -0.809017
0.0430843 -0.81952 -0.81952
0.0608376 -0.819657 -0.819657
0.0606285 -0.809155 -0.809155
0.043013 -0.814264 -0.814264
0.0519584 -0.819584 -0.819584
0.0607335 -0.814401 -0.814401
0.0517823 -0.809082 -0.809082
0.0518708 -0.814328 -0.814328
0.0430843 -0.81952 -0.81952
0.0432247 -0.830062 -0.830062
0.061043 -0.830197 -0.830197
0.0608376 -0.819657 -0.819657
0.0431549 -0.824786 -0.824786
0.0521314 -0.830126 -0.830126
0.0609408 -0.824922 -0.824922
0.0519584 -0.819584 -0.819584
0.0520453 -0.82485 -0.82485
0.0432247 -0.830062 -0.830062
0.0433625 -0.840642 -0.840642
0.0612446 -0.840776 -0.840776
0.061043 -0.830197 -0.830197
0.0432939 -0.835347 -0.835347
0.0523011 -0.840705 -0.840705
0.0611443 -0.835482 -0.835482
0.0521314 -0.830126 -0.830126
0.0522166 -0.835411 -0.835411
0.0433625 -0.840642 -0.840642
0.0434975 -0.85126 -0.85126
0.0614425 -0.851392 -0.851392
0.0612446 -0.840776 -0.840776
0.0434303 -0.845946 -0.845946
0.0524675 -0.851322 -0.851322
0.0613441 -0.846079 -0.846079
0.0523011 -0.840705 -0.840705
0.0523847 -0.846009 -0.846009
0.0434975 -0.85126 -0.85126
0.0436298 -0.861914 -0.861914
0.0616367 -0.862045 -0.862045
0.0614425 -0.851392 -0.851392
0.043564 -0.856582 -0.856582
0.0526308 -0.861976 -0.861976
0.0615401 -0.856714 -0.856714
0.0524675 -0.851322 -0.851322
0.0525496 -0.856644 -0.856644
0.0436298 -0.861914 -0.861914
0.0437594 -0.872605 -0.872605
0.0618272 -0.872735 -0.872735
0.0616367 -0.862045 -0.862045
0.043695 -0.867255 -0.867255
0.0527908 -0.872666 -0.872666
0.0617324 -0.867385 -0.867385
0.0526308 -0.861976 -0.861976
0.0527112 -0.867316 -0.867316
0.0437594 -0.872605 -0.872605
0.0438863 -0.883331 -0.883331
0.0620139 -0.88346 -0.88346
0.0618272 -0.872735 -0.872735
0.0438232 -0.877964 -0.877964
0.0529476 -0.883392 -0.883392
0.061921 -0.878093 -0.878093
0.0527908 -0.872666 -0.872666
0.0528696 -0.878024 -0.878024
0.0438863 -0.883331 -0.883331
0.0440105 -0.894093 -0.894093
0.0621969 -0.89422 -0.89422
0.0620139 -0.88346 -0.88346
0.0439488 -0.888708 -0.888708
0.0531012 -0.894153 -0.894153
0.0621058 -0.888836 -0.888836
0.0529476 -0.883392 -0.883392
0.0530248 -0.888768 -0.888768
0.0440105 -0.894093 -0.894093
0.044132 -0.904889 -0.904889
0.0623761 -0.905015 -0.905015
0.0621969 -0.89422 -0.89422
0.0440716 -0.899487 -0.899487
0.0532516 -0.904948 -0.904948
0.062287 -0.899613 -0.899613
0.0531012 -0.894153 -0.894153
0.0531768 -0.899546 -0.899546
0.044132 -0.904889 -0.904889
0.0442508 -0.915719 -0.915719
0.0625517 -0.915844 -0.915844
0.0623761 -0.905015 -0.905015
0.0441918 -0.9103 -0.9103
0.0533988 -0.915778 -0.915778
0.0624644 -0.910425 -0.910425
0.0532516 -0.904948 -0.904948
0.0533256 -0.910359 -0.910359
0.0442508 -0.915719 -0.915719
0.0443669 -0.926582 -0.926582
0.0627235 -0.926705 -0.926705
0.0625517 -0.915844 -0.915844
0.0443092 -0.921146 -0.921146
0.0535427 -0.92664 -0.92664
0.0626381 -0.92127 -0.92127
0.0533988 -0.915778 -0.915778
0.0534711 -0.921205 -0.921205
0.0443669 -0.926582 -0.926582
0.0444803 -0.937478 -0.937478
0.0628916 -0.9376 -0.9376
0.0627235 -0.926705 -0.926705
0.044424 -0.932026 -0.932026
0.0536835 -0.937536 -0.937536
0.062808 -0.932149 -0.932149
0.0535427 -0.92664 -0.92664
0.0536135 -0.932084 -0.932084
0.0444803 -0.937478 -0.937478
0.044591 -0.948406 -0.948406
0.063056 -0.948527 -0.948527
0.0628916 -0.9376 -0.9376
0.044536 -0.942938 -0.942938
0.053821 -0.948463 -0.948463
0.0629743 -0.943059 -0.943059
0.0536835 -0.937536 -0.937536
0.0537527 -0.942995 -0.942995
0.044591 -0.948406 -0.948406
0.0446991 -0.959366 -0.959366
0.0632167 -0.959485 -0.959485
0.063056 -0.948527 -0.948527
0.0446454 -0.953882 -0.953882
0.0539554 -0.959422 -0.959422
0.0631368 -0.954002 -0.954002
0.053821 -0.948463 -0.948463
0.0538886 -0.953939 -0.953939
0.0446991 -0.959366 -0.959366
0.0448044 -0.970356 -0.970356
0.0633737 -0.970474 -0.970474
0.0632167 -0.959485 -0.959485
0.0447521 -0.964857 -0.964857
0.0540865 -0.970412 -0.970412
0.0632956 -0.964976 -0.964976
0.0539554 -0.959422 -0.959422
0.0540214 -0.964913 -0.964913
0.0448044 -0.970356 -0.970356
0.044907 -0.981377 -0.981377
0.0635269 -0.981493 -0.981493
0.0633737 -0.970474 -0.970474
0.0448561 -0.975863 -0.975863
0.0542145 -0.981432 -0.981432
0.0634507 -0.97598 -0.97598
0.0540865 -0.970412 -0.970412
0.0541509 -0.975918 -0.975918
0.044907 -0.981377 -0.981377
0.045007 -0.992427 -0.992427
0.0636765 -0.992542 -0.992542
0.0635269 -0.981493 -0.981493
0.0449574 -0.986898 -0.986898
0.0543392 -0.992482 -0.992482
0.0636022 -0.987014 -0.987014
0.0542145 -0.981432 -0.981432
0.0542773 -0.986953 -0.986953
0.045007 -0.992427 -0.992427
0.0451043 -1.00351 -1.00351
0.0638223 -1.00362 -1.00362
0.0636765 -0.992542 -0.992542
0.045056 -0.997963 -0.997963
0.0544608 -1.00356 -1.00356
0.0637498 -0.998078 -0.998078
0.0543392 -0.992482 -0.992482
0.0544004 -0.998017 -0.998017
0.0451043 -1.00351 -1.00351
0.0451989 -1.01461 -1.01461
0.0639645 -1.01473 -1.01473
0.0638223 -1.00362 -1.00362
0.0451519 -1.00906 -1.00906
0.0545792 -1.01467 -1.01467
0.0638938 -1.00917 -1.00917
0.0544608 -1.00356 -1.00356
0.0545204 -1.00911 -1.00911
0.0451989 -1.01461 -1.01461
0.0452908 -1.02575 -1.02575
0.0641029 -1.02586 -1.02586
0.0639645 -1.01473 -1.01473
0.0452452 -1.02018 -1.02018
0.0546943 -1.0258 -1.0258
0.0640341 -1.02029 -1.02029
0.0545792 -1.01467 -1.01467
0.0546372 -1.02023 -1.02023
0.0452908 -1.02575 -1.02575
0.04538 -1.03691 -1.03691
0.0642376 -1.03702 -1.03702
0.0641029 -1.02586 -1.02586
0.0453357 -1.03133 -1.03133
0.0548063 -1.03696 -1.03696
0.0641707 -1.03144 -1.03144
0.0546943 -1.0258 -1.0258
0.0547507 -1.03138 -1.03138
0.04538 -1.03691 -1.03691
0.0454666 -1.0481 -1.0481
0.0643687 -1.04821 -1.04821
0.0642376 -1.03702 -1.03702
0.0454237 -1.0425 -1.0425
0.0549151 -1.04815 -1.04815
0.0643036 -1.04261 -1.04261
0.0548063 -1.03696 -1.03696
0.0548611 -1.04256 -1.04256
0.0454666 -1.0481 -1.0481
0.0455505 -1.05932 -1.05932
0.0644961 -1.05942 -1.05942
0.0643687 -1.04821 -1.04821
0.0455089 -1.05371 -1.05371
0.0550208 -1.05937 -1.05937
0.0644328 -1.05381 -1.05381
0.0549151 -1.04815 -1.04815
0.0549684 -1.05376 -1.05376
0.0455505 -1.05932 -1.05932
0.0456317 -1.07056 -1.07056
0.0646197 -1.07066 -1.07066
0.0644961 -1.05942 -1.05942
0.0455915 -1.06494 -1.06494
0.0551232 -1.07061 -1.07061
0.0645583 -1.06504 -1.06504
0.0550208 -1.05937 -1.05937
0.0550724 -1.06499 -1.06499
0.0456317 -1.07056 -1.07056
0.0457103 -1.08182 -1.08182
0.0647397 -1.08193 -1.08193
0.0646197 -1.07066 -1.07066
0.0456714 -1.07619 -1.07619
0.0552225 -1.08187 -1.08187
0.0646802 -1.07629 -1.07629
0.0551232 -1.07061 -1.07061
0.0551733 -1.07624 -1.07624
0.0457103 -1.08182 -1.08182
0.0457862 -1.09311 -1.09311
0.064856 -1.09322 -1.09322
0.0647397 -1.08193 -1.08193
0.0457486 -1.08747 -1.08747
0.0553186 -1.09316 -1.09316
0.0647983 -1.08757 -1.08757
0.0552225 -1.08187 -1.08187
0.0552709 -1.08752 -1.08752
0.0457862 -1.09311 -1.09311
0.0458595 -1.10443 -1.10443
0.0649686 -1.10453 -1.10453
0.064856 -1.09322 -1.09322
0.0458232 -1.09877 -1.09877
0.0554115 -1.10448 -1.10448
0.0649128 -1.09887 -1.09887
0.0553186 -1.09316 -1.09316
0.0553655 -1.09882 -1.09882
0.0458595 -1.10443 -1.10443
0.04593 -1.11576 -1.11576
0.0650775 -1.11587 -1.11587
0.0649686 -1.10453 -1.10453
0.0458951 -1.11009 -1.11009
0.0555013 -1.11581 -1.11581
0.0650235 -1.11019 -1.11019
0.0554115 -1.10448 -1.10448
0.0554568 -1.11014 -1.11014
0.04593 -1.11576 -1.11576
0.045998 -1.12712 -1.12712
0.0651828 -1.12722 -1.12722
0.0650775 -1.11587 -1.11587
0.0459643 -1.12144 -1.12144
0.0555879 -1.12717 -1.12717
0.0651306 -1.12154 -1.12154
0.0555013 -1.11581 -1.11581
0.055545 -1.12149 -1.12149
0.045998 -1.12712 -1.12712
0.0460632 -1.1385 -1.1385
0.0652844 -1.1386 -1.1386
0.0651828 -1.12722 -1.12722
0.0460309 -1.13281 -1.13281
0.0556713 -1.13855 -1.13855
0.065234 -1.13291 -1.13291
0.0555879 -1.12717 -1.12717
0.05563 -1.13286 -1.13286
0.0460632 -1.1385 -1.1385
0.0461259 -1.14991 -1.14991
0.0653823 -1.15 -1.15
0.0652844 -1.1386 -1.1386
0.0460949 -1.1442 -1.1442
0.0557516 -1.14995 -1.14995
0.0653338 -1.1443 -1.1443
0.0556713 -1.13855 -1.13855
0.0557118 -1.14425 -1.14425
0.0461259 -1.14991 -1.14991
0.0461858 -1.16133 -1.16133
0.0654765 -1.16142 -1.16142
0.0653823 -1.15 -1.15
0.0461562 -1.15562 -1.15562
0.0558287 -1.16137 -1.16137
0.0654298 -1.15571 -1.15571
0.0557516 -1.14995 -1.14995
0.0557905 -1.15566 -1.15566
0.0461858 -1.16133 -1.16133
0.0462432 -1.17277 -1.17277
0.0655671 -1.17286 -1.17286
0.0654765 -1.16142 -1.16142
0.0462148 -1.16705 -1.16705
0.0559026 -1.17282 -1.17282
0.0655222 -1.16714 -1.16714
0.0558287 -1.16137 -1.16137
0.055866 -1.16709 -1.16709
0.0462432 -1.17277 -1.17277
0.0462979 -1.18423 -1.18423
0.065654 -1.18433 -1.18433
0.0655671 -1.17286 -1.17286
0.0462708 -1.1785 -1.1785
0.0559734 -1.18428 -1.18428
0.065611 -1.17859 -1.17859
0.0559026 -1.17282 -1.17282
0.0559384 -1.17854 -1.17854
0.0462979 -1.18423 -1.18423
0.0463499 -1.19571 -1.19571
0.0657372 -1.1958 -1.1958
0.065654 -1.18433 -1.18433
0.0463242 -1.18997 -1.18997
0.056041 -1.19576 -1.19576
0.065696 -1.19006 -1.19006
0.0559734 -1.18428 -1.18428
0.0560076 -1.19001 -1.19001
0.0463499 -1.19571 -1.19571
0.0463993 -1.20721 -1.20721
0.0658168 -1.2073 -1.2073
0.0657372 -1.1958 -1.1958
0.0463749 -1.20146 -1.20146
0.0561055 -1.20726 -1.20726
0.0657774 -1.20155 -1.20155
0.056041 -1.19576 -1.19576
0.0560737 -1.2015 -1.2015
0.0463993 -1.20721 -1.20721
0.0464461 -1.21873 -1.21873
0.0658927 -1.21882 -1.21882
0.0658168 -1.2073 -1.2073
0.046423 -1.21297 -1.21297
0.0561669 -1.21877 -1.21877
0.0658552 -1.21306 -1.21306
0.0561055 -1.20726 -1.20726
0.0561366 -1.21301 -1.21301
0.0464461 -1.21873 -1.21873
0.0464902 -1.23026 -1.23026
0.065965 -1.23035 -1.23035
0.0658927 -1.21882 -1.21882
0.0464685 -1.22449 -1.22449
0.0562251 -1.2303 -1.2303
0.0659293 -1.22458 -1.22458
0.0561669 -1.21877 -1.21877
0.0561964 -1.22454 -1.22454
0.0464902 -1.23026 -1.23026
0.0465317 -1.24181 -1.24181
0.0660336 -1.2419 -1.2419
0.065965 -1.23035 -1.23035
0.0465113 -1.23604 -1.23604
0.0562801 -1.24185 -1.24185
0.0659997 -1.23612 -1.23612
0.0562251 -1.2303 -1.2303
0.056253 -1.23608 -1.23608
0.0465317 -1.24181 -1.24181
0.0465706 -1.25338 -1.25338
0.0660985 -1.25346 -1.25346
0.0660336 -1.2419 -1.2419
0.0465515 -1.24759 -1.24759
0.0563321 -1.25342 -1.25342
0.0660665 -1.24768 -1.24768
0.0562801 -1.24185 -1.24185
0.0563065 -1.24763 -1.24763
0.0465706 -1.25338 -1.25338
0.0466069 -1.26496 -1.26496
0.0661598 -1.26504 -1.26504
0.0660985 -1.25346 -1.25346
0.0465891 -1.25917 -1.25917
0.0563809 -1.265 -1.265
0.0661296 -1.25925 -1.25925
0.0563321 -1.25342 -1.25342
0.0563569 -1.25921 -1.25921
0.0466069 -1.26496 -1.26496
0.0466405 -1.27655 -1.27655
0.0662175 -1.27663 -1.27663
0.0661598 -1.26504 -1.26504
0.046624 -1.27075 -1.27075
0.0564265 -1.27659 -1.27659
0.0661891 -1.27083 -1.27083
0.0563809 -1.265 -1.265
0.0564041 -1.27079 -1.27079
0.0466405 -1.27655 -1.27655
0.0466715 -1.28816 -1.28816
0.0662715 -1.28824 -1.28824
0.0662175 -1.27663 -1.27663
0.0466564 -1.28236 -1.28236
0.056469 -1.2882 -1.2882
0.066245 -1.28244 -1.28244
0.0564265 -1.27659 -1.27659
0.0564482 -1.28239 -1.28239
0.0466715 -1.28816 -1.28816
0.0466999 -1.29978 -1.29978
0.0663219 -1.29986 -1.29986
0.0662715 -1.28824 -1.28824
0.0466861 -1.29397 -1.29397
0.0565084 -1.29982 -1.29982
0.0662972 -1.29405 -1.29405
0.056469 -1.2882 -1.2882
0.0564891 -1.29401 -1.29401
0.0466999 -1.29978 -1.29978
0.0467257 -1.31142 -1.31142
0.0663687 -1.31149 -1.31149
0.0663219 -1.29986 -1.29986
0.0467132 -1.3056 -1.3056
0.0565447 -1.31146 -1.31146
0.0663458 -1.30568 -1.30568
0.0565084 -1.29982 -1.29982
0.056527 -1.30564 -1.30564
0.0467257 -1.31142 -1.31142
0.0467489 -1.32307 -1.32307
0.0664118 -1.32314 -1.32314
0.0663687 -1.31149 -1.31149
0.0467376 -1.31724 -1.31724
0.0565778 -1.3231 -1.3231
0.0663907 -1.31732 -1.31732
0.0565447 -1.31146 -1.31146
0.0565617 -1.31728 -1.31728
0.0467489 -1.32307 -1.32307
0.0467695 -1.33472 -1.33472
0.0664513 -1.3348 -1.3348
0.0664118 -1.32314 -1.32314
0.0467595 -1.32889 -1.32889
0.0566079 -1.33476 -1.33476
0.066432 -1.32897 -1.32897
0.0565778 -1.3231 -1.3231
0.0565932 -1.32893 -1.32893
0.0467695 -1.33472 -1.33472
0.0467874 -1.34639 -1.34639
0.0664871 -1.34647 -1.34647
0.0664513 -1.3348 -1.3348
0.0467788 -1.34056 -1.34056
0.0566348 -1.34643 -1.34643
0.0664697 -1.34063 -1.34063
0.0566079 -1.33476 -1.33476
0.0566217 -1.34059 -1.34059
0.0467874 -1.34639 -1.34639
0.0468028 -1.35807 -1.35807
0.0665194 -1.35814 -1.35814
0.0664871 -1.34647 -1.34647
0.0467954 -1.35223 -1.35223
0.0566586 -1.35811 -1.35811
0.0665037 -1.3523 -1.3523
0.0566348 -1.34643 -1.34643
0.0566471 -1.35227 -1.35227
0.0468028 -1.35807 -1.35807
0.0468155 -1.36976 -1.36976
0.066548 -1.36983 -1.36983
0.0665194 -1.35814 -1.35814
0.0468095 -1.36392 -1.36392
0.0566793 -1.3698 -1.3698
0.0665341 -1.36399 -1.36399
0.0566586 -1.35811 -1.35811
0.0566693 -1.36395 -1.36395
0.0468155 -1.36976 -1.36976
0.0468257 -1.38146 -1.38146
0.066573 -1.38153 -1.38153
0.066548 -1.36983 -1.36983
0.046821 -1.37561 -1.37561
0.0566968 -1.38149 -1.38149
0.0665609 -1.37568 -1.37568
0.0566793 -1.3698 -1.3698
0.0566884 -1.37564 -1.37564
0.0468257 -1.38146 -1.38146
0.0468333 -1.39317 -1.39317
0.0665944 -1.39323 -1.39323
0.066573 -1.38153 -1.38153
0.0468298 -1.38731 -1.38731
0.0567113 -1.3932 -1.3932
0.0665841 -1.38738 -1.38738
0.0566968 -1.38149 -1.38149
0.0567045 -1.38735 -1.38735
0.0468333 -1.39317 -1.39317
0.0468382 -1.40488 -1.40488
0.0666121 -1.40495 -1.40495
0.0665944 -1.39323 -1.39323
0.0468361 -1.39902 -1.39902
0.0567227 -1.40491 -1.40491
0.0666037 -1.39909 -1.39909
0.0567113 -1.3932 -1.3932
0.0567174 -1.39906 -1.39906
0.0468382 -1.40488 -1.40488
0.0468406 -1.4166 -1.4166
0.0666263 -1.41667 -1.41667
0.0666121 -1.40495 -1.40495
0.0468398 -1.41074 -1.41074
0.0567309 -1.41663 -1.41663
0.0666196 -1.41081 -1.41081
0.0567227 -1.40491 -1.40491
0.0567272 -1.41077 -1.41077
0.0468406 -1.4166 -1.4166
0.0468404 -1.42833 -1.42833
0.0666368 -1.42839 -1.42839
0.0666263 -1.41667 -1.41667
0.0468409 -1.42247 -1.42247
0.0567361 -1.42836 -1.42836
0.066632 -1.42253 -1.42253
0.0567309 -1.41663 -1.41663
0.0567339 -1.4225 -1.4225
0.0468404 -1.42833 -1.42833
0.0468376 -1.44007 -1.44007
0.0666438 -1.44013 -1.44013
0.0666368 -1.42839 -1.42839
0.0468394 -1.4342 -1.4342
0.0567382 -1.4401 -1.4401
0.0666407 -1.43426 -1.43426
0.0567361 -1.42836 -1.42836
0.0567376 -1.43423 -1.43423
0.0468376 -1.44007 -1.44007
0.0468323 -1.45181 -1.45181
0.0666472 -1.45187 -1.45187
0.0666438 -1.44013 -1.44013
0.0468353 -1.44594 -1.44594
0.0567373 -1.45184 -1.45184
0.0666459 -1.446 -1.446
0.0567382 -1.4401 -1.4401
0.0567381 -1.44597 -1.44597
0.0468323 -1.45181 -1.45181
0.0468243 -1.46355 -1.46355
0.0666471 -1.46361 -1.46361
0.0666472 -1.45187 -1.45187
0.0468286 -1.45768 -1.45768
0.0567333 -1.46358 -1.46358
0.0666476 -1.45774 -1.45774
0.0567373 -1.45184 -1.45184
0.0567357 -1.45771 -1.45771
0.0468243 -1.46355 -1.46355
0.0468137 -1.4753 -1.4753
0.0666437 -1.47536 -1.47536
0.0666471 -1.46361 -1.46361
0.0468193 -1.46943 -1.46943
0.0567264 -1.47533 -1.47533
0.0666458 -1.46948 -1.46948
0.0567333 -1.46358 -1.46358
0.0567302 -1.46945 -1.46945
0.0468137 -1.4753 -1.4753
0.0468005 -1.48705 -1.48705
0.0666372 -1.48711 -1.48711
0.0666437 -1.47536 -1.47536
0.0468074 -1.48118 -1.48118
0.0567167 -1.48708 -1.48708
0.0666409 -1.48123 -1.48123
0.0567264 -1.47533 -1.47533
0.0567219 -1.4812 -1.4812
0.0468005 -1.48705 -1.48705
0.0467844 -1.49881 -1.49881
0.0666281 -1.49886 -1.49886
0.0666372 -1.48711 -1.48711
0.0467928 -1.49293 -1.49293
0.0567042 -1.49884 -1.49884
0.0666329 -1.49298 -1.49298
0.0567167 -1.48708 -1.48708
0.0567108 -1.49296 -1.49296
0.0467844 -1.49881 -1.49881
0.0467653 -1.51057 -1.51057
0.066617 -1.51062 -1.51062
0.0666281 -1.49886 -1.49886
0.0467753 -1.50469 -1.50469
0.0566892 -1.51059 -1.51059
0.0666227 -1.50474 -1.50474
0.0567042 -1.49884 -1.49884
0.056697 -1.50471 -1.50471
0.0467653 -1.51057 -1.51057
0.0467428 -1.52233 -1.52233
0.0666056 -1.52238 -1.52238
0.066617 -1.51062 -1.51062
0.0467545 -1.51645 -1.51645
0.0566713 -1.52236 -1.52236
0.0666112 -1.5165 -1.5165
0.0566892 -1.51059 -1.51059
0.0566806 -1.51648 -1.51648
0.0467428 -1.52233 -1.52233
0.0467171 -1.5341 -1.5341
0.0665972 -1.53416 -1.53416
0.0666056 -1.52238 -1.52238
0.0467302 -1.52822 -1.52822
0.0566495 -1.53413 -1.53413
0.0666007 -1.52827 -1.52827
0.0566713 -1.52236 -1.52236
0.0566611 -1.52824 -1.52824
0.0467171 -1.5341 -1.5341
0.0466934 -1.54588 -1.54588
0.0665907 -1.54598 -1.54598
0.0665972 -1.53416 -1.53416
0.0467044 -1.53999 -1.53999
0.0566243 -1.54593 -1.54593
0.0665952 -1.54006 -1.54006
0.0566495 -1.53413 -1.53413
0.0566362 -1.54003 -1.54003
      </DataArray> 
      <DataArray type="Float64" NumberOfComponents="4" Name="CauchyStress" format="ascii">
-817.39 -245.301 0 -194.379
-527.336 9.95682 0 7.50794
-393.356 -42.5032 0 -21.7867
-371.528 -111.496 0 -14.9251
-586.507 11.4602 0 -27.3396
-490.515 -30.1402 0 -28.2156
-385.985 -80.1605 0 -25.2922
-436.721 -131.063 0 -47.2181
-484.338 -66.1544 0 -44.2603
-527.336 9.95682 0 7.50794
-522.33 5.73638 0 2.38266
-399.252 -12.6399 0 -10.3516
-393.356 -42.5032 0 -21.7867
-523.032 -1.74357 0 3.32812
-472.048 -4.35211 0 -4.69865
-398.91 -21.8496 0 -15.7007
-490.515 -30.1402 0 -28.2156
-477.998 -10.8113 0 -11.4094
-522.33 5.73638 0 2.38266
-531.977 -1.76722 0 1.15774
-394.232 -2.26044 0 -3.81704
-399.252 -12.6399 0 -10.3516
-527.894 3.72093 0 2.41791
-465.827 -0.0621654 0 -0.427588
-396.238 -6.21634 0 -6.06504
-472.048 -4.35211 0 -4.69865
-468.658 -1.59529 0 -2.24927
-531.977 -1.76722 0 1.15774
-534.296 0.60552 0 -0.0198181
-390.785 -0.0073415 0 -2.34755
-394.232 -2.26044 0 -3.81704
-533.28 -1.6252 0 -0.120919
-462.939 0.515254 0 0.209481
-392.705 -0.622812 0 -2.83218
-465.827 -0.0621654 0 -0.427588
-463.833 0.531456 0 0.383362
-534.296 0.60552 0 -0.0198181
-536.192 -0.543926 0 0.210446
-387.334 0.831087 0 -2.26611
-390.785 -0.0073415 0 -2.34755
-535.66 0.442848 0 0.322503
-461.598 0.471253 0 -0.398521
-388.78 0.534256 0 -2.16266
-462.939 0.515254 0 0.209481
-462.403 0.44217 0 -0.185601
-536.192 -0.543926 0 0.210446
-535.392 0.153435 0 0.0749402
-384.947 0.688969 0 -2.74288
-387.334 0.831087 0 -2.26611
-535.843 -0.37798 0 0.00853097
-459.952 0.361036 0 -0.956585
-386.178 0.803651 0 -2.51719
-461.598 0.471253 0 -0.398521
-460.726 0.452239 0 -0.645009
-535.392 0.153435 0 0.0749402
-534.15 -0.0654751 0 0.179057
-382.643 0.542501 0 -3.14114
-384.947 0.688969 0 -2.74288
-534.927 0.13487 0 0.186953
-458.207 0.235754 0 -1.3923
-383.724 0.620124 0 -2.94248
-459.952 0.361036 0 -0.956585
-459.15 0.278321 0 -1.21807
-534.15 -0.0654751 0 0.179057
-531.985 0.0905066 0 0.173552
-380.593 0.342223 0 -3.46294
-382.643 0.542501 0 -3.14114
-533.097 -0.0235488 0 0.144952
-456.165 0.164742 0 -1.66606
-381.63 0.436034 0 -3.3243
-458.207 0.235754 0 -1.3923
-457.191 0.203373 0 -1.53939
-531.985 0.0905066 0 0.173552
-529.6 0.0489902 0 0.218293
-378.546 0.219587 0 -3.65232
-380.593 0.342223 0 -3.46294
-530.838 0.0891629 0 0.210783
-453.998 0.110303 0 -1.82078
-379.555 0.275284 0 -3.5677
-456.165 0.164742 0 -1.66606
-455.108 0.131111 0 -1.75883
-529.6 0.0489902 0 0.218293
-526.95 0.080442 0 0.236817
-376.544 0.131491 0 -3.76608
-378.546 0.219587 0 -3.65232
-528.286 0.0575257 0 0.220395
-451.705 0.0837778 0 -1.90182
-377.549 0.169766 0 -3.71936
-453.998 0.110303 0 -1.82078
-452.856 0.0966051 0 -1.86773
-526.95 0.080442 0 0.236817
-524.228 0.0727265 0 0.264236
-374.534 0.0830192 0 -3.81996
-376.544 0.131491 0 -3.76608
-525.6 0.0806783 0 0.254116
-449.361 0.0662672 0 -1.93492
-375.537 0.104108 0 -3.7978
-451.705 0.0837778 0 -1.90182
-450.542 0.0730799 0 -1.9231
-524.228 0.0727265 0 0.264236
-521.442 0.0781061 0 0.285804
-372.529 0.0544936 0 -3.84287
-374.534 0.0830192 0 -3.81996
-522.838 0.0739843 0 0.273514
-446.977 0.0584645 0 -1.9435
-373.533 0.0664002 0 -3.83481
-449.361 0.0662672 0 -1.93492
-448.171 0.0620421 0 -1.94142
-521.442 0.0781061 0 0.285804
-518.638 0.0764455 0 0.308279
-370.52 0.0402719 0 -3.84618
-372.529 0.0544936 0 -3.84287
-520.042 0.0781113 0 0.297892
-444.578 0.0539409 0 -1.93768
-371.524 0.0462368 0 -3.84606
-446.977 0.0584645 0 -1.9435
-445.78 0.0556552 0 -1.94182
-518.638 0.0764455 0 0.308279
-515.823 0.0769015 0 0.32935
-368.51 0.0331047 0 -3.84024
-370.52 0.0402719 0 -3.84618
-517.231 0.0763898 0 0.318557
-442.168 0.0521609 0 -1.92545
-369.515 0.0359585 0 -3.84411
-444.578 0.0539409 0 -1.93768
-443.374 0.0529506 0 -1.93211
-515.823 0.0769015 0 0.32935
-513.004 0.0762903 0 0.350115
-366.498 0.0301098 0 -3.82929
-368.51 0.0331047 0 -3.84024
-514.414 0.0767531 0 0.339948
-439.755 0.0513099 0 -1.90996
-367.504 0.0312818 0 -3.83513
-442.168 0.0521609 0 -1.92545
-440.962 0.0515986 0 -1.91794
-513.004 0.0762903 0 0.350115
-510.185 0.0759778 0 0.37035
-364.485 0.0290349 0 -3.81635
-366.498 0.0301098 0 -3.82929
-511.595 0.0760782 0 0.360227
-437.34 0.0510922 0 -1.89337
-365.492 0.0293905 0 -3.82299
-439.755 0.0513099 0 -1.90996
-438.547 0.0511821 0 -1.90173
-510.185 0.0759778 0 0.37035
-507.365 0.0755659 0 0.390185
-362.472 0.0289429 0 -3.80259
-364.485 0.0290349 0 -3.81635
-508.775 0.0757963 0 0.380345
-434.924 0.0510737 0 -1.87646
-363.479 0.0289175 0 -3.80951
-437.34 0.0510922 0 -1.89337
-436.132 0.0510546 0 -1.88492
-507.365 0.0755659 0 0.390185
-504.546 0.0751894 0 0.409641
-360.459 0.0292466 0 -3.78872
-362.472 0.0289429 0 -3.80259
-505.956 0.0753667 0 0.399952
-432.508 0.0511627 0 -1.8597
-361.466 0.0290607 0 -3.79565
-434.924 0.0510737 0 -1.87646
-433.716 0.0511177 0 -1.86805
-504.546 0.0751894 0 0.409641
-501.728 0.0748278 0 0.428721
-358.446 0.0297156 0 -3.77499
-360.459 0.0292466 0 -3.78872
-503.137 0.0750105 0 0.419231
-430.092 0.0512755 0 -1.84321
-359.453 0.0294716 0 -3.78183
-432.508 0.0511627 0 -1.8597
-431.3 0.051215 0 -1.85142
-501.728 0.0748278 0 0.428721
-498.909 0.0744708 0 0.447443
-356.432 0.0302285 0 -3.76151
-358.446 0.0297156 0 -3.77499
-500.318 0.074647 0 0.438126
-427.676 0.0513942 0 -1.82706
-357.439 0.0299693 0 -3.76821
-430.092 0.0512755 0 -1.84321
-428.884 0.0513363 0 -1.83509
-498.909 0.0744708 0 0.447443
-496.091 0.0741276 0 0.465805
-354.419 0.0307461 0 -3.74831
-356.432 0.0302285 0 -3.76151
-497.5 0.0742984 0 0.456669
-425.26 0.0515088 0 -1.81125
-355.426 0.0304883 0 -3.75487
-427.676 0.0513942 0 -1.82706
-426.468 0.0514515 0 -1.81911
-496.091 0.0741276 0 0.465805
-493.272 0.0737868 0 0.483813
-352.405 0.0312534 0 -3.73539
-354.419 0.0307461 0 -3.74831
-494.681 0.0739565 0 0.474853
-422.844 0.0516187 0 -1.79577
-353.412 0.0310011 0 -3.74181
-425.26 0.0515088 0 -1.81125
-424.052 0.0515645 0 -1.80346
-493.272 0.0737868 0 0.483813
-490.454 0.0734532 0 0.501468
-350.392 0.0317494 0 -3.72274
-352.405 0.0312534 0 -3.73539
-491.863 0.0736193 0 0.492685
-420.428 0.0517251 0 -1.78061
-351.399 0.0315028 0 -3.72903
-422.844 0.0516187 0 -1.79577
-421.636 0.0516722 0 -1.78815
-490.454 0.0734532 0 0.501468
-487.636 0.0731222 0 0.518772
-348.378 0.0322363 0 -3.71037
-350.392 0.0317494 0 -3.72274
-489.045 0.0732873 0 0.510164
-418.012 0.0518293 0 -1.76576
-349.385 0.0319938 0 -3.71652
-420.428 0.0517251 0 -1.78061
-419.22 0.0517774 0 -1.77315
-487.636 0.0731222 0 0.518772
-484.817 0.0727955 0 0.535728
-346.365 0.0327166 0 -3.69825
-348.378 0.0322363 0 -3.71037
-486.227 0.0729584 0 0.527294
-415.596 0.0519326 0 -1.75122
-347.372 0.0324771 0 -3.70428
-418.012 0.0518293 0 -1.76576
-416.804 0.051881 0 -1.75845
-484.817 0.0727955 0 0.535728
-481.999 0.0724716 0 0.552337
-344.351 0.0331927 0 -3.68638
-346.365 0.0327166 0 -3.69825
-483.408 0.0726332 0 0.544076
-413.18 0.0520358 0 -1.73699
-345.358 0.0329551 0 -3.69228
-415.596 0.0519326 0 -1.75122
-414.388 0.0519842 0 -1.74407
-481.999 0.0724716 0 0.552337
-479.181 0.072151 0 0.568601
-342.338 0.033666 0 -3.67477
-344.351 0.0331927 0 -3.68638
-480.59 0.0723109 0 0.560512
-410.764 0.0521393 0 -1.72305
-343.345 0.0334296 0 -3.68054
-413.18 0.0520358 0 -1.73699
-411.972 0.0520874 0 -1.72998
-479.181 0.072151 0 0.568601
-476.363 0.0718333 0 0.584521
-340.324 0.0341374 0 -3.6634
-342.338 0.033666 0 -3.67477
-477.772 0.0719918 0 0.576604
-408.348 0.0522434 0 -1.7094
-341.331 0.0339019 0 -3.66905
-410.764 0.0521393 0 -1.72305
-409.556 0.0521912 0 -1.71619
-476.363 0.0718333 0 0.584521
-473.544 0.0715185 0 0.600101
-338.311 0.0346075 0 -3.65227
-340.324 0.0341374 0 -3.6634
-474.953 0.0716756 0 0.592354
-405.932 0.0523482 0 -1.69605
-339.318 0.0343726 0 -3.6578
-408.348 0.0522434 0 -1.7094
-407.14 0.0522957 0 -1.70269
-473.544 0.0715185 0 0.600101
-470.726 0.0712066 0 0.615343
-336.297 0.0350765 0 -3.64139
-338.311 0.0346075 0 -3.65227
-472.135 0.0713622 0 0.607764
-403.516 0.0524539 0 -1.68299
-337.304 0.0348421 0 -3.6468
-405.932 0.0523482 0 -1.69605
-404.724 0.0524009 0 -1.68948
-470.726 0.0712066 0 0.615343
-467.907 0.0708976 0 0.630247
-334.284 0.0355445 0 -3.63074
-336.297 0.0350765 0 -3.64139
-469.317 0.0710518 0 0.622837
-401.1 0.0525604 0 -1.67021
-335.29 0.0353106 0 -3.63603
-403.516 0.0524539 0 -1.68299
-402.308 0.052507 0 -1.67656
-467.907 0.0708976 0 0.630247
-465.089 0.0705913 0 0.644816
-332.27 0.0360116 0 -3.62034
-334.284 0.0355445 0 -3.63074
-466.498 0.0707441 0 0.637573
-398.684 0.0526676 0 -1.65773
-333.277 0.0357782 0 -3.62551
-401.1 0.0525604 0 -1.67021
-399.892 0.0526139 0 -1.66393
-465.089 0.0705913 0 0.644816
-462.271 0.0702879 0 0.659053
-330.256 0.0364778 0 -3.61017
-332.27 0.0360116 0 -3.62034
-463.68 0.0704393 0 0.651976
-396.268 0.0527756 0 -1.64553
-331.263 0.0362448 0 -3.61523
-398.684 0.0526676 0 -1.65773
-397.476 0.0527215 0 -1.65159
-462.271 0.0702879 0 0.659053
-459.452 0.0699871 0 0.672958
-328.243 0.036943 0 -3.60024
-330.256 0.0364778 0 -3.61017
-460.862 0.0701372 0 0.666047
-393.852 0.0528844 0 -1.63361
-329.25 0.0367105 0 -3.60518
-396.268 0.0527756 0 -1.64553
-395.06 0.0528299 0 -1.63953
-459.452 0.0699871 0 0.672958
-456.634 0.0696891 0 0.686535
-326.229 0.0374071 0 -3.59055
-328.243 0.036943 0 -3.60024
-458.043 0.0698378 0 0.679787
-391.436 0.0529938 0 -1.62197
-327.236 0.0371752 0 -3.59537
-393.852 0.0528844 0 -1.63361
-392.644 0.052939 0 -1.62776
-456.634 0.0696891 0 0.686535
-453.816 0.0693938 0 0.699785
-324.216 0.0378702 0 -3.58109
-326.229 0.0374071 0 -3.59055
-455.225 0.0695411 0 0.693201
-389.02 0.0531039 0 -1.61062
-325.222 0.0376388 0 -3.58579
-391.436 0.0529938 0 -1.62197
-390.228 0.0530487 0 -1.61626
-453.816 0.0693938 0 0.699785
-450.997 0.0691011 0 0.71271
-322.202 0.0383321 0 -3.57186
-324.216 0.0378702 0 -3.58109
-452.406 0.0692472 0 0.706288
-386.604 0.0532145 0 -1.59954
-323.209 0.0381013 0 -3.57644
-389.02 0.0531039 0 -1.61062
-387.812 0.0531591 0 -1.60504
-450.997 0.0691011 0 0.71271
-448.179 0.0688111 0 0.725312
-320.188 0.0387929 0 -3.56286
-322.202 0.0383321 0 -3.57186
-449.588 0.0689558 0 0.719051
-384.188 0.0533257 0 -1.58874
-321.195 0.0385627 0 -3.56733
-386.604 0.0532145 0 -1.59954
-385.396 0.0532701 0 -1.59411
-448.179 0.0688111 0 0.725312
-445.36 0.0685236 0 0.737594
-318.175 0.0392525 0 -3.55409
-320.188 0.0387929 0 -3.56286
-446.769 0.068667 0 0.731493
-381.772 0.0534375 0 -1.57821
-319.182 0.0390229 0 -3.55844
-384.188 0.0533257 0 -1.58874
-382.98 0.0533816 0 -1.58344
-445.36 0.0685236 0 0.737594
-442.542 0.0682387 0 0.749556
-316.161 0.0397108 0 -3.54554
-318.175 0.0392525 0 -3.55409
-443.951 0.0683808 0 0.743615
-379.356 0.0535497 0 -1.56796
-317.168 0.0394818 0 -3.54979
-381.772 0.0534375 0 -1.57821
-380.564 0.0534935 0 -1.57305
-442.542 0.0682387 0 0.749556
-439.723 0.0679563 0 0.761202
-314.148 0.0401678 0 -3.53723
-316.161 0.0397108 0 -3.54554
-441.132 0.0680972 0 0.755419
-376.94 0.0536624 0 -1.55798
-315.154 0.0399394 0 -3.54136
-379.356 0.0535497 0 -1.56796
-378.148 0.053606 0 -1.56294
-439.723 0.0679563 0 0.761202
-436.905 0.0676763 0 0.772534
-312.134 0.0406234 0 -3.52914
-314.148 0.0401678 0 -3.53723
-438.314 0.067816 0 0.766907
-374.523 0.0537754 0 -1.54827
-313.141 0.0403958 0 -3.53315
-376.94 0.0536624 0 -1.55798
-375.731 0.0537188 0 -1.55309
-436.905 0.0676763 0 0.772534
-434.086 0.0673988 0 0.783552
-310.12 0.0410776 0 -3.52127
-312.134 0.0406234 0 -3.52914
-435.495 0.0675373 0 0.778082
-372.107 0.0538888 0 -1.53883
-311.127 0.0408507 0 -3.52517
-374.523 0.0537754 0 -1.54827
-373.315 0.0538321 0 -1.54352
-434.086 0.0673988 0 0.783552
-431.268 0.0671237 0 0.79426
-308.107 0.0415304 0 -3.51362
-310.12 0.0410776 0 -3.52127
-432.677 0.067261 0 0.788945
-369.691 0.0540025 0 -1.52965
-309.113 0.0413042 0 -3.51742
-372.107 0.0538888 0 -1.53883
-370.899 0.0539456 0 -1.53421
-431.268 0.0671237 0 0.79426
-428.449 0.066851 0 0.804659
-306.093 0.0419817 0 -3.5062
-308.107 0.0415304 0 -3.51362
-429.858 0.0669871 0 0.799498
-367.275 0.0541165 0 -1.52074
-307.1 0.0417562 0 -3.50988
-369.691 0.0540025 0 -1.52965
-368.483 0.0540595 0 -1.52516
-428.449 0.066851 0 0.804659
-425.631 0.0665806 0 0.814752
-304.079 0.0424314 0 -3.49899
-306.093 0.0419817 0 -3.5062
-427.04 0.0667155 0 0.809744
-364.859 0.0542308 0 -1.51209
-305.086 0.0422067 0 -3.50257
-367.275 0.0541165 0 -1.52074
-366.067 0.0541736 0 -1.51638
-425.631 0.0665806 0 0.814752
-422.812 0.0663125 0 0.82454
-302.066 0.0428795 0 -3.492
-304.079 0.0424314 0 -3.49899
-424.221 0.0664463 0 0.819684
-362.443 0.0543452 0 -1.5037
-303.072 0.0426557 0 -3.49547
-364.859 0.0542308 0 -1.51209
-363.651 0.054288 0 -1.50787
-422.812 0.0663125 0 0.82454
-419.994 0.0660467 0 0.834025
-300.052 0.043326 0 -3.48523
-302.066 0.0428795 0 -3.492
-421.403 0.0661793 0 0.82932
-360.027 0.0544598 0 -1.49558
-301.059 0.043103 0 -3.48859
-362.443 0.0543452 0 -1.5037
-361.235 0.0544025 0 -1.49961
-419.994 0.0660467 0 0.834025
-417.175 0.0657831 0 0.84321
-298.038 0.0437709 0 -3.47867
-300.052 0.043326 0 -3.48523
-418.584 0.0659146 0 0.838655
-357.611 0.0545745 0 -1.4877
-299.045 0.0435487 0 -3.48192
-360.027 0.0544598 0 -1.49558
-358.819 0.0545171 0 -1.49161
-417.175 0.0657831 0 0.84321
-414.356 0.0655217 0 0.852096
-296.025 0.044214 0 -3.47233
-298.038 0.0437709 0 -3.47867
-415.766 0.0656521 0 0.84769
-355.194 0.0546892 0 -1.48009
-297.031 0.0439927 0 -3.47547
-357.611 0.0545745 0 -1.4877
-356.402 0.0546318 0 -1.48387
-414.356 0.0655217 0 0.852096
-411.538 0.0652624 0 0.860685
-294.011 0.0446553 0 -3.46619
-296.025 0.044214 0 -3.47233
-412.947 0.0653918 0 0.856427
-352.778 0.054804 0 -1.47273
-295.018 0.0444348 0 -3.46923
-355.194 0.0546892 0 -1.48009
-353.986 0.0547466 0 -1.47638
-411.538 0.0652624 0 0.860685
-408.719 0.0650052 0 0.86898
-291.997 0.0450948 0 -3.46027
-294.011 0.0446553 0 -3.46619
-410.129 0.0651336 0 0.864869
-350.362 0.0549187 0 -1.46562
-293.004 0.0448752 0 -3.46321
-352.778 0.054804 0 -1.47273
-351.57 0.0548614 0 -1.46914
-408.719 0.0650052 0 0.86898
-405.901 0.0647502 0 0.876982
-289.983 0.0455324 0 -3.45456
-291.997 0.0450948 0 -3.46027
-407.31 0.0648774 0 0.873018
-347.946 0.0550334 0 -1.45876
-290.99 0.0453138 0 -3.45739
-350.362 0.0549187 0 -1.46562
-349.154 0.0549761 0 -1.46216
-405.901 0.0647502 0 0.876982
-403.082 0.0644971 0 0.884694
-287.97 0.0459681 0 -3.44905
-289.983 0.0455324 0 -3.45456
-404.491 0.0646234 0 0.880874
-345.53 0.055148 0 -1.45216
-288.977 0.0457505 0 -3.45178
-347.946 0.0550334 0 -1.45876
-346.738 0.0550907 0 -1.45543
-403.082 0.0644971 0 0.884694
-400.263 0.0642461 0 0.892117
-285.956 0.0464018 0 -3.44375
-287.97 0.0459681 0 -3.44905
-401.673 0.0643713 0 0.888442
-343.113 0.0552625 0 -1.44579
-286.963 0.0461852 0 -3.44638
-345.53 0.055148 0 -1.45216
-344.321 0.0552053 0 -1.44894
-400.263 0.0642461 0 0.892117
-397.445 0.063997 0 0.899254
-283.942 0.0468336 0 -3.43866
-285.956 0.0464018 0 -3.44375
-398.854 0.0641213 0 0.895721
-340.697 0.0553767 0 -1.43968
-284.949 0.046618 0 -3.44118
-343.113 0.0552625 0 -1.44579
-341.905 0.0553196 0 -1.44271
-397.445 0.063997 0 0.899254
-394.626 0.0637498 0 0.906106
-281.929 0.0472632 0 -3.43377
-283.942 0.0468336 0 -3.43866
-396.035 0.0638731 0 0.902716
-338.281 0.0554908 0 -1.43381
-282.935 0.0470487 0 -3.43619
-340.697 0.0553767 0 -1.43968
-339.489 0.0554338 0 -1.43671
-394.626 0.0637498 0 0.906106
-391.807 0.0635045 0 0.912676
-279.915 0.0476908 0 -3.42908
-281.929 0.0472632 0 -3.43377
-393.217 0.0636269 0 0.909427
-335.865 0.0556045 0 -1.42818
-280.922 0.0474773 0 -3.4314
-338.281 0.0554908 0 -1.43381
-337.073 0.0555477 0 -1.43096
-391.807 0.0635045 0 0.912676
-388.989 0.0632611 0 0.918966
-277.901 0.0481163 0 -3.42459
-279.915 0.0476908 0 -3.42908
-390.398 0.0633826 0 0.915856
-333.448 0.055718 0 -1.42279
-278.908 0.0479038 0 -3.42681
-335.865 0.0556045 0 -1.42818
-334.657 0.0556613 0 -1.42545
-388.989 0.0632611 0 0.918966
-386.17 0.0630194 0 0.924977
-275.887 0.0485395 0 -3.42029
-277.901 0.0481163 0 -3.42459
-387.579 0.06314 0 0.922006
-331.032 0.055831 0 -1.41764
-276.894 0.0483281 0 -3.42242
-333.448 0.055718 0 -1.42279
-332.24 0.0557745 0 -1.42018
-386.17 0.0630194 0 0.924977
-383.351 0.0627795 0 0.930711
-273.874 0.0489605 0 -3.4162
-275.887 0.0485395 0 -3.42029
-384.761 0.0628993 0 0.927878
-328.616 0.0559437 0 -1.41273
-274.88 0.0487503 0 -3.41822
-331.032 0.055831 0 -1.41764
-329.824 0.0558874 0 -1.41515
-383.351 0.0627795 0 0.930711
-380.533 0.0625414 0 0.936171
-271.86 0.0493792 0 -3.4123
-273.874 0.0489605 0 -3.4162
-381.942 0.0626602 0 0.933475
-326.2 0.056056 0 -1.40805
-272.867 0.0491701 0 -3.41423
-328.616 0.0559437 0 -1.41273
-327.408 0.0559999 0 -1.41036
-380.533 0.0625414 0 0.936171
-377.714 0.0623049 0 0.941359
-269.846 0.0497955 0 -3.4086
-271.86 0.0493792 0 -3.4123
-379.123 0.0624229 0 0.938799
-323.783 0.0561677 0 -1.4036
-270.853 0.0495877 0 -3.41043
-326.2 0.056056 0 -1.40805
-324.992 0.0561119 0 -1.4058
-377.714 0.0623049 0 0.941359
-374.895 0.0620701 0 0.946276
-267.832 0.0502095 0 -3.40509
-269.846 0.0497955 0 -3.4086
-376.305 0.0621873 0 0.943851
-321.367 0.0562789 0 -1.39939
-268.839 0.0500028 0 -3.40682
-323.783 0.0561677 0 -1.4036
-322.575 0.0562234 0 -1.40147
-374.895 0.0620701 0 0.946276
-372.077 0.0618368 0 0.950926
-265.819 0.0506211 0 -3.40177
-267.832 0.0502095 0 -3.40509
-373.486 0.0619532 0 0.948634
-318.951 0.0563896 0 -1.39541
-266.825 0.0504156 0 -3.40341
-321.367 0.0562789 0 -1.39939
-320.159 0.0563343 0 -1.39737
-372.077 0.0618368 0 0.950925
-369.258 0.0616052 0 0.955308
-263.805 0.0510302 0 -3.39865
-265.819 0.0506211 0 -3.40177
-370.667 0.0617208 0 0.95315
-316.535 0.0564996 0 -1.39165
-264.812 0.050826 0 -3.40019
-318.951 0.0563896 0 -1.39541
-317.743 0.0564447 0 -1.3935
-369.258 0.0616052 0 0.955308
-366.439 0.061375 0 0.959427
-261.791 0.0514367 0 -3.39571
-263.805 0.0510302 0 -3.39865
-367.848 0.0614899 0 0.9574
-314.118 0.056609 0 -1.38812
-262.798 0.0512338 0 -3.39715
-316.535 0.0564996 0 -1.39165
-315.327 0.0565544 0 -1.38986
-366.439 0.061375 0 0.959427
-363.62 0.0611464 0 0.963283
-259.777 0.0518407 0 -3.39295
-261.791 0.0514367 0 -3.39571
-365.03 0.0612605 0 0.961387
-311.702 0.0567176 0 -1.38482
-260.784 0.0516391 0 -3.39431
-314.118 0.056609 0 -1.38812
-312.91 0.0566634 0 -1.38644
-363.62 0.0611464 0 0.963283
-360.802 0.0609191 0 0.966879
-257.763 0.0522421 0 -3.39039
-259.777 0.0518407 0 -3.39295
-362.211 0.0610326 0 0.965113
-309.286 0.0568256 0 -1.38174
-258.77 0.0520418 0 -3.39165
-311.702 0.0567176 0 -1.38482
-310.494 0.0567717 0 -1.38325
-360.802 0.0609191 0 0.966878
-357.983 0.0606933 0 0.970216
-255.75 0.0526409 0 -3.38801
-257.763 0.0522421 0 -3.39039
-359.392 0.0608061 0 0.968579
-306.869 0.0569327 0 -1.37888
-256.757 0.0524418 0 -3.38918
-309.286 0.0568256 0 -1.38174
-308.078 0.0568792 0 -1.38028
-357.983 0.0606933 0 0.970216
-355.164 0.0604689 0 0.973297
-253.736 0.0530369 0 -3.38581
-255.75 0.0526409 0 -3.38801
-356.573 0.0605809 0 0.971789
-304.453 0.057039 0 -1.37624
-254.743 0.0528392 0 -3.38689
-306.869 0.0569327 0 -1.37888
-305.661 0.0569859 0 -1.37753
-355.164 0.0604689 0 0.973297
-352.345 0.0602457 0 0.976124
-251.722 0.0534301 0 -3.38379
-253.736 0.0530369 0 -3.38581
-353.755 0.0603571 0 0.974743
-302.037 0.0571444 0 -1.37382
-252.729 0.0532339 0 -3.38478
-304.453 0.057039 0 -1.37624
-303.245 0.0570918 0 -1.375
-352.345 0.0602457 0 0.976124
-349.526 0.0600239 0 0.978699
-249.708 0.0538206 0 -3.38196
-251.722 0.0534301 0 -3.38379
-350.936 0.0601346 0 0.977443
-299.621 0.0572489 0 -1.37162
-250.715 0.0536257 0 -3.38285
-302.037 0.0571444 0 -1.37382
-300.829 0.0571967 0 -1.37269
-349.526 0.0600239 0 0.978699
-346.708 0.0598032 0 0.981024
-247.694 0.0542082 0 -3.3803
-249.708 0.0538206 0 -3.38196
-348.117 0.0599134 0 0.979893
-297.204 0.0573524 0 -1.36962
-248.701 0.0540148 0 -3.38111
-299.621 0.0572489 0 -1.37162
-298.412 0.0573008 0 -1.37059
-346.708 0.0598032 0 0.981024
-343.889 0.0595838 0 0.9831
-245.681 0.054593 0 -3.37882
-247.694 0.0542082 0 -3.3803
-345.298 0.0596934 0 0.982093
-294.788 0.0574549 0 -1.36785
-246.688 0.054401 0 -3.37954
-297.204 0.0573524 0 -1.36962
-295.996 0.0574038 0 -1.36871
-343.889 0.0595838 0 0.9831
-341.07 0.0593655 0 0.984931
-243.667 0.0549748 0 -3.37751
-245.681 0.054593 0 -3.37882
-342.479 0.0594745 0 0.984046
-292.372 0.0575564 0 -1.36628
-244.674 0.0547842 0 -3.37814
-294.788 0.0574549 0 -1.36785
-293.58 0.0575058 0 -1.36704
-341.07 0.0593655 0 0.984931
-338.251 0.0591484 0 0.986517
-241.653 0.0553536 0 -3.37638
-243.667 0.0549748 0 -3.37751
-339.661 0.0592568 0 0.985754
-289.955 0.0576567 0 -1.36492
-242.66 0.0551646 0 -3.37693
-292.372 0.0575564 0 -1.36628
-291.163 0.0576067 0 -1.36558
-338.251 0.0591484 0 0.986517
-335.432 0.0589323 0 0.987861
-239.639 0.0557294 0 -3.37543
-241.653 0.0553536 0 -3.37638
-336.842 0.0590402 0 0.987219
-287.539 0.057756 0 -1.36377
-240.646 0.0555419 0 -3.37588
-289.955 0.0576567 0 -1.36492
-288.747 0.0577065 0 -1.36432
-335.432 0.0589323 0 0.987861
-332.613 0.0587172 0 0.988965
-237.625 0.0561021 0 -3.37464
-239.639 0.0557294 0 -3.37543
-334.023 0.0588246 0 0.988443
-285.122 0.057854 0 -1.36283
-238.632 0.0559161 0 -3.37501
-287.539 0.057756 0 -1.36377
-286.331 0.0578051 0 -1.36327
-332.613 0.0587172 0 0.988965
-329.795 0.0585031 0 0.989831
-235.612 0.0564717 0 -3.37403
-237.625 0.0561021 0 -3.37464
-331.204 0.0586101 0 0.989427
-282.706 0.0579508 0 -1.36209
-236.618 0.0562873 0 -3.37431
-285.122 0.057854 0 -1.36283
-283.914 0.0579026 0 -1.36243
-329.795 0.0585031 0 0.989831
-326.976 0.05829 0 0.99046
-233.598 0.0568381 0 -3.37358
-235.612 0.0564717 0 -3.37403
-328.385 0.0583965 0 0.990175
-280.29 0.0580464 0 -1.36155
-234.605 0.0566553 0 -3.37378
-282.706 0.0579508 0 -1.36209
-281.498 0.0579987 0 -1.36179
-326.976 0.05829 0 0.99046
-324.157 0.0580778 0 0.990856
-231.584 0.0572014 0 -3.3733
-233.598 0.0568381 0 -3.37358
-325.566 0.0581838 0 0.990687
-277.873 0.0581406 0 -1.36121
-232.591 0.0570202 0 -3.37342
-280.29 0.0580464 0 -1.36155
-279.082 0.0580937 0 -1.36136
-324.157 0.0580778 0 0.990856
-321.338 0.0578664 0 0.99102
-229.57 0.0575613 0 -3.37319
-231.584 0.0572014 0 -3.3733
-322.747 0.057972 0 0.990967
-275.457 0.0582335 0 -1.36107
-230.577 0.0573818 0 -3.37322
-277.873 0.0581406 0 -1.36121
-276.665 0.0581872 0 -1.36112
-321.338 0.0578664 0 0.99102
-318.519 0.0576559 0 0.990953
-227.556 0.057918 0 -3.37324
-229.57 0.0575613 0 -3.37319
-319.929 0.0577611 0 0.991015
-273.041 0.0583249 0 -1.36113
-228.563 0.0577401 0 -3.37319
-275.457 0.0582335 0 -1.36107
-274.249 0.0582794 0 -1.36108
-318.519 0.0576559 0 0.990953
-315.7 0.0574461 0 0.990659
-225.542 0.0582713 0 -3.37345
-227.556 0.057918 0 -3.37324
-317.11 0.0575509 0 0.990834
-270.624 0.058415 0 -1.36139
-226.549 0.0580951 0 -3.37332
-273.041 0.0583249 0 -1.36113
-271.832 0.0583701 0 -1.36124
-315.7 0.0574461 0 0.990659
-312.881 0.0572371 0 0.990138
-223.529 0.0586213 0 -3.37382
-225.542 0.0582713 0 -3.37345
-314.291 0.0573415 0 0.990427
-268.208 0.0585035 0 -1.36184
-224.535 0.0584467 0 -3.37362
-270.624 0.0584149 0 -1.36139
-269.416 0.0584594 0 -1.36159
-312.881 0.0572371 0 0.990138
-310.062 0.0570288 0 0.989394
-221.515 0.0589678 0 -3.37436
-223.529 0.0586213 0 -3.37382
-311.472 0.0571329 0 0.989794
-265.791 0.0585905 0 -1.36248
-222.522 0.0587949 0 -3.37407
-268.208 0.0585035 0 -1.36184
-267 0.0585472 0 -1.36213
-310.062 0.0570288 0 0.989394
-307.243 0.0568211 0 0.988428
-219.501 0.0593108 0 -3.37505
-221.515 0.0589678 0 -3.37436
-308.653 0.0569249 0 0.988938
-263.375 0.0586759 0 -1.36331
-220.508 0.0591397 0 -3.37468
-265.791 0.0585905 0 -1.36248
-264.583 0.0586334 0 -1.36287
-307.243 0.0568211 0 0.988427
-304.425 0.056614 0 0.987241
-217.487 0.0596503 0 -3.3759
-219.501 0.0593108 0 -3.37505
-305.834 0.0567175 0 0.987862
-260.959 0.0587597 0 -1.36433
-218.494 0.059481 0 -3.37546
-263.375 0.0586759 0 -1.36331
-262.167 0.058718 0 -1.36379
-304.425 0.056614 0 0.987241
-301.606 0.0564075 0 0.985837
-215.473 0.0599862 0 -3.37691
-217.487 0.0596503 0 -3.3759
-303.015 0.0565107 0 0.986566
-258.542 0.0588419 0 -1.36553
-216.48 0.0598187 0 -3.37639
-260.959 0.0587597 0 -1.36433
-259.75 0.058801 0 -1.36491
-301.606 0.0564075 0 0.985837
-298.787 0.0562016 0 0.984217
-213.459 0.0603185 0 -3.37807
-215.473 0.0599862 0 -3.37691
-300.196 0.0563045 0 0.985054
-256.126 0.0589223 0 -1.36692
-214.466 0.0601528 0 -3.37747
-258.542 0.0588419 0 -1.36553
-257.334 0.0588823 0 -1.3662
-298.787 0.0562016 0 0.984217
-295.968 0.0559961 0 0.982383
-211.445 0.0606472 0 -3.37938
-213.459 0.0603185 0 -3.37807
-297.377 0.0560988 0 0.983326
-253.709 0.059001 0 -1.3685
-212.452 0.0604833 0 -3.37871
-256.126 0.0589223 0 -1.36692
-254.918 0.0589619 0 -1.36769
-295.968 0.0559961 0 0.982383
-293.149 0.055791 0 0.980337
-209.432 0.0609721 0 -3.38085
-211.445 0.0606472 0 -3.37938
-294.558 0.0558935 0 0.981386
-251.293 0.0590779 0 -1.37025
-210.438 0.0608101 0 -3.38009
-253.709 0.059001 0 -1.3685
-252.501 0.0590397 0 -1.36935
-293.149 0.055791 0 0.980337
-290.33 0.0555864 0 0.978081
-207.418 0.0612933 0 -3.38246
-209.432 0.0609721 0 -3.38085
-291.739 0.0556887 0 0.979235
-248.876 0.059153 0 -1.37219
-208.425 0.0611332 0 -3.38163
-251.293 0.0590779 0 -1.37025
-250.085 0.0591157 0 -1.3712
-290.33 0.0555864 0 0.978081
-287.511 0.0553821 0 0.975617
-205.404 0.0616108 0 -3.38422
-207.418 0.0612933 0 -3.38246
-288.92 0.0554842 0 0.976875
-246.46 0.0592261 0 -1.3743
-206.411 0.0614525 0 -3.38332
-248.876 0.059153 0 -1.37219
-247.668 0.0591898 0 -1.37322
-287.511 0.0553821 0 0.975617
-284.692 0.0551781 0 0.972948
-203.39 0.0619243 0 -3.38613
-205.404 0.0616108 0 -3.38422
-286.101 0.0552801 0 0.974308
-244.044 0.0592974 0 -1.37659
-204.397 0.061768 0 -3.38516
-246.46 0.0592261 0 -1.3743
-245.252 0.059262 0 -1.37542
-284.692 0.0551781 0 0.972948
-281.873 0.0549744 0 0.970075
-201.376 0.0622341 0 -3.38819
-203.39 0.0619243 0 -3.38613
-283.282 0.0550763 0 0.971537
-241.627 0.0593667 0 -1.37906
-202.383 0.0620797 0 -3.38714
-244.044 0.0592974 0 -1.37659
-242.835 0.0593323 0 -1.3778
-281.873 0.0549744 0 0.970075
-279.054 0.054771 0 0.967
-199.362 0.0625398 0 -3.39039
-201.376 0.0622341 0 -3.38819
-280.463 0.0548727 0 0.968562
-239.211 0.059434 0 -1.38169
-200.369 0.0623874 0 -3.38927
-241.627 0.0593667 0 -1.37906
-240.419 0.0594006 0 -1.38035
-279.054 0.054771 0 0.967
-276.235 0.0545677 0 0.963725
-197.348 0.0628417 0 -3.39273
-199.362 0.0625398 0 -3.39039
-277.644 0.0546693 0 0.965387
-236.794 0.0594993 0 -1.3845
-198.355 0.0626912 0 -3.39154
-239.211 0.059434 0 -1.38169
-238.002 0.0594669 0 -1.38308
-276.235 0.0545677 0 0.963725
-273.416 0.0543646 0 0.960252
-195.334 0.0631395 0 -3.39521
-197.348 0.0628417 0 -3.39273
-274.825 0.0544661 0 0.962013
-234.378 0.0595624 0 -1.38748
-196.341 0.0629911 0 -3.39395
-236.794 0.0594993 0 -1.3845
-235.586 0.0595311 0 -1.38597
-273.416 0.0543646 0 0.960252
-270.597 0.0541616 0 0.956584
-193.321 0.0634333 0 -3.39784
-195.334 0.0631395 0 -3.39521
-272.006 0.0542631 0 0.958442
-231.961 0.0596234 0 -1.39063
-194.328 0.0632869 0 -3.39651
-234.378 0.0595624 0 -1.38748
-233.17 0.0595932 0 -1.38903
-270.597 0.0541616 0 0.956584
-267.778 0.0539586 0 0.952722
-191.307 0.0637229 0 -3.4006
-193.321 0.0634333 0 -3.39784
-269.187 0.0540601 0 0.954677
-229.545 0.0596823 0 -1.39394
-192.314 0.0635786 0 -3.3992
-231.961 0.0596234 0 -1.39063
-230.753 0.0596531 0 -1.39226
-267.778 0.0539586 0 0.952722
-264.959 0.0537557 0 0.948668
-189.293 0.0640085 0 -3.4035
-191.307 0.0637229 0 -3.4006
-266.368 0.0538572 0 0.950719
-227.128 0.0597389 0 -1.39742
-190.3 0.0638662 0 -3.40203
-229.545 0.0596823 0 -1.39394
-228.337 0.0597109 0 -1.39566
-264.959 0.0537557 0 0.948668
-262.14 0.0535527 0 0.944425
-187.279 0.0642898 0 -3.40653
-189.293 0.0640085 0 -3.4035
-263.549 0.0536542 0 0.94657
-224.712 0.0597933 0 -1.40106
-188.286 0.0641497 0 -3.405
-227.128 0.0597389 0 -1.39742
-225.92 0.0597664 0 -1.39922
-262.14 0.0535527 0 0.944425
-259.321 0.0533497 0 0.939993
-185.265 0.064567 0 -3.4097
-187.279 0.0642898 0 -3.40653
-260.73 0.0534512 0 0.942232
-222.295 0.0598454 0 -1.40486
-186.272 0.0644289 0 -3.4081
-224.712 0.0597933 0 -1.40106
-223.504 0.0598196 0 -1.40294
-259.321 0.0533497 0 0.939993
-256.502 0.0531466 0 0.935377
-183.251 0.0648399 0 -3.413
-185.265 0.064567 0 -3.4097
-257.911 0.0532482 0 0.937708
-219.879 0.0598951 0 -1.40882
-184.258 0.064704 0 -3.41133
-222.295 0.0598454 0 -1.40486
-221.087 0.0598705 0 -1.40682
-256.502 0.0531466 0 0.935377
-253.683 0.0529434 0 0.930576
-181.237 0.0651085 0 -3.41643
-183.251 0.0648399 0 -3.413
-255.092 0.053045 0 0.932999
-217.462 0.0599424 0 -1.41293
-182.244 0.0649747 0 -3.4147
-219.879 0.0598951 0 -1.40882
-218.671 0.0599191 0 -1.41086
-253.683 0.0529434 0 0.930576
-250.864 0.0527399 0 0.925594
-179.223 0.0653727 0 -3.41999
-181.237 0.0651085 0 -3.41643
-252.273 0.0528417 0 0.928108
-215.046 0.0599873 0 -1.41721
-180.23 0.0652411 0 -3.4182
-217.462 0.0599424 0 -1.41293
-216.254 0.0599652 0 -1.41505
-250.864 0.0527399 0 0.925594
-248.045 0.0525363 0 0.920433
-177.209 0.0656326 0 -3.42368
-179.223 0.0653727 0 -3.41999
-249.454 0.0526381 0 0.923036
-212.629 0.0600298 0 -1.42163
-178.216 0.0655032 0 -3.42182
-215.046 0.0599873 0 -1.41721
-213.838 0.0600089 0 -1.4194
-248.045 0.0525363 0 0.920433
-245.226 0.0523324 0 0.915093
-175.196 0.065888 0 -3.4275
-177.209 0.0656326 0 -3.42368
-246.635 0.0524344 0 0.917785
-210.213 0.0600697 0 -1.42621
-176.203 0.0657608 0 -3.42558
-212.629 0.0600298 0 -1.42163
-211.421 0.0600501 0 -1.4239
-245.226 0.0523324 0 0.915093
-242.406 0.0521281 0 0.909578
-173.182 0.0661389 0 -3.43144
-175.196 0.065888 0 -3.4275
-243.816 0.0522303 0 0.912358
-207.796 0.0601071 0 -1.43094
-174.189 0.066014 0 -3.42946
-210.213 0.0600697 0 -1.42621
-209.005 0.0600887 0 -1.42856
-242.406 0.0521281 0 0.909578
-239.587 0.0519235 0 0.90389
-171.168 0.0663854 0 -3.43551
-173.182 0.0661389 0 -3.43144
-240.997 0.0520259 0 0.906756
-205.38 0.0601419 0 -1.43582
-172.175 0.0662627 0 -3.43346
-207.796 0.0601071 0 -1.43094
-206.588 0.0601248 0 -1.43336
-239.587 0.0519235 0 0.90389
-236.768 0.0517186 0 0.89803
-169.154 0.0666273 0 -3.4397
-171.168 0.0663854 0 -3.43551
-238.178 0.0518211 0 0.900982
-202.963 0.0601741 0 -1.44084
-170.161 0.0665069 0 -3.43759
-205.38 0.0601419 0 -1.43582
-204.172 0.0601583 0 -1.43831
-236.768 0.0517186 0 0.89803
-233.949 0.0515132 0 0.892001
-167.14 0.0668646 0 -3.44401
-169.154 0.0666273 0 -3.4397
-235.359 0.0516159 0 0.895037
-200.547 0.0602036 0 -1.44601
-168.147 0.0667465 0 -3.44184
-202.963 0.0601741 0 -1.44084
-201.755 0.0601892 0 -1.44341
-233.949 0.0515132 0 0.892001
-231.13 0.0513073 0 0.885804
-165.126 0.0670973 0 -3.44844
-167.14 0.0668646 0 -3.44401
-232.54 0.0514103 0 0.888923
-198.13 0.0602304 0 -1.45133
-166.133 0.0669815 0 -3.44621
-200.547 0.0602036 0 -1.44601
-199.339 0.0602173 0 -1.44865
-231.13 0.0513073 0 0.885804
-228.311 0.0511009 0 0.879441
-163.112 0.0673253 0 -3.45298
-165.126 0.0670973 0 -3.44844
-229.721 0.0512042 0 0.882643
-195.714 0.0602544 0 -1.45678
-164.119 0.0672118 0 -3.4507
-198.13 0.0602304 0 -1.45133
-196.922 0.0602427 0 -1.45404
-228.311 0.0511009 0 0.879442
-225.492 0.050894 0 0.872916
-161.098 0.0675486 0 -3.45765
-163.112 0.0673253 0 -3.45298
-226.901 0.0509975 0 0.876199
-193.297 0.0602756 0 -1.46238
-162.105 0.0674375 0 -3.4553
-195.714 0.0602544 0 -1.45678
-194.506 0.0602653 0 -1.45956
-225.492 0.050894 0 0.872916
-222.673 0.0506864 0 0.866228
-159.084 0.0677671 0 -3.46243
-161.098 0.0675486 0 -3.45765
-224.082 0.0507903 0 0.869592
-190.881 0.060294 0 -1.46811
-160.091 0.0676584 0 -3.46002
-193.297 0.0602756 0 -1.46238
-192.089 0.0602852 0 -1.46523
-222.673 0.0506864 0 0.866228
-219.854 0.0504782 0 0.859382
-157.07 0.0679809 0 -3.46732
-159.084 0.0677671 0 -3.46243
-221.263 0.0505824 0 0.862825
-188.464 0.0603095 0 -1.47398
-158.077 0.0678746 0 -3.46486
-190.881 0.060294 0 -1.46811
-189.673 0.0603021 0 -1.47103
-219.854 0.0504782 0 0.859382
-217.035 0.0502694 0 0.852377
-155.057 0.0681898 0 -3.47233
-157.07 0.0679809 0 -3.46732
-218.444 0.0503739 0 0.855899
-186.048 0.0603221 0 -1.47999
-156.063 0.0680859 0 -3.46981
-188.464 0.0603095 0 -1.47398
-187.256 0.0603162 0 -1.47697
-217.035 0.0502694 0 0.852377
-214.215 0.0500599 0 0.845218
-153.043 0.0683939 0 -3.47745
-155.057 0.0681898 0 -3.47233
-215.625 0.0501647 0 0.848817
-183.631 0.0603318 0 -1.48613
-154.05 0.0682924 0 -3.47487
-186.048 0.0603221 0 -1.47999
-184.839 0.0603273 0 -1.48304
-214.215 0.0500599 0 0.845218
-211.396 0.0498496 0 0.837905
-151.029 0.068593 0 -3.48267
-153.043 0.0683939 0 -3.47745
-212.806 0.0499548 0 0.84158
-181.215 0.0603385 0 -1.4924
-152.036 0.0684941 0 -3.48005
-183.631 0.0603318 0 -1.48613
-182.423 0.0603355 0 -1.48925
-211.396 0.0498496 0 0.837905
-208.577 0.0496385 0 0.830441
-149.015 0.0687872 0 -3.48801
-151.029 0.068593 0 -3.48267
-209.987 0.0497441 0 0.834192
-178.798 0.0603421 0 -1.4988
-150.022 0.0686907 0 -3.48533
-181.215 0.0603385 0 -1.4924
-180.006 0.0603407 0 -1.49558
-208.577 0.0496385 0 0.830441
-205.758 0.0494266 0 0.822827
-147.001 0.0689765 0 -3.49345
-149.015 0.0687872 0 -3.48801
-207.168 0.0495326 0 0.826652
-176.382 0.0603427 0 -1.50533
-148.008 0.0688825 0 -3.49072
-178.798 0.0603421 0 -1.4988
-177.59 0.0603428 0 -1.50205
-205.758 0.0494265 0 0.822827
-202.939 0.0492137 0 0.815066
-144.987 0.0691607 0 -3.499
-147.001 0.0689765 0 -3.49345
-204.348 0.0493203 0 0.818965
-173.965 0.0603402 0 -1.51198
-145.994 0.0690692 0 -3.49621
-176.382 0.0603427 0 -1.50533
-175.173 0.0603418 0 -1.50864
-202.939 0.0492137 0 0.815066
-200.12 0.0490001 0 0.80716
-142.973 0.0693398 0 -3.50465
-144.987 0.0691607 0 -3.499
-201.529 0.049107 0 0.811131
-171.548 0.0603345 0 -1.51876
-143.98 0.0692509 0 -3.50181
-173.965 0.0603402 0 -1.51198
-172.757 0.0603377 0 -1.51536
-200.12 0.0490001 0 0.80716
-197.3 0.0487854 0 0.79911
-140.959 0.0695139 0 -3.5104
-142.973 0.0693398 0 -3.50465
-198.71 0.0488928 0 0.803153
-169.132 0.0603256 0 -1.52566
-141.966 0.0694275 0 -3.50751
-171.548 0.0603345 0 -1.51876
-170.34 0.0603304 0 -1.5222
-197.3 0.0487854 0 0.79911
-194.481 0.0485697 0 0.790919
-138.945 0.0696828 0 -3.51625
-140.959 0.0695139 0 -3.5104
-195.891 0.0486777 0 0.795032
-166.715 0.0603135 0 -1.53269
-139.952 0.069599 0 -3.51331
-169.132 0.0603256 0 -1.52566
-167.924 0.06032 0 -1.52916
-194.481 0.0485697 0 0.790919
-191.662 0.0483531 0 0.782589
-136.931 0.0698466 0 -3.52221
-138.945 0.0696828 0 -3.51625
-193.072 0.0484615 0 0.786772
-164.299 0.0602982 0 -1.53983
-137.938 0.0697653 0 -3.51922
-166.715 0.0603135 0 -1.53269
-165.507 0.0603063 0 -1.53624
-191.662 0.0483531 0 0.782589
-188.843 0.0481353 0 0.774122
-134.917 0.0700051 0 -3.52826
-136.931 0.0698466 0 -3.52221
-190.253 0.0482443 0 0.778373
-161.882 0.0602795 0 -1.54709
-135.924 0.0699265 0 -3.52522
-164.299 0.0602982 0 -1.53983
-163.09 0.0602893 0 -1.54344
-188.843 0.0481353 0 0.774122
-186.024 0.0479165 0 0.765519
-132.903 0.0701584 0 -3.53441
-134.917 0.0700051 0 -3.52826
-187.433 0.048026 0 0.769837
-159.466 0.0602575 0 -1.55446
-133.91 0.0700824 0 -3.53132
-161.882 0.0602795 0 -1.54709
-160.674 0.060269 0 -1.55076
-186.024 0.0479165 0 0.765519
-183.205 0.0476965 0 0.756783
-130.889 0.0703065 0 -3.54065
-132.903 0.0701584 0 -3.53441
-184.614 0.0478066 0 0.761168
-157.049 0.0602322 0 -1.56195
-131.896 0.0702331 0 -3.53752
-159.466 0.0602575 0 -1.55446
-158.257 0.0602453 0 -1.55819
-183.205 0.0476965 0 0.756783
-180.385 0.0474753 0 0.747917
-128.876 0.0704492 0 -3.54699
-130.889 0.0703065 0 -3.54065
-181.795 0.0475861 0 0.752366
-154.632 0.0602034 0 -1.56956
-129.883 0.0703785 0 -3.54381
-157.049 0.0602322 0 -1.56195
-155.841 0.0602183 0 -1.56574
-180.385 0.0474753 0 0.747917
-177.566 0.047253 0 0.73892
-126.862 0.0705865 0 -3.55342
-128.876 0.0704492 0 -3.54699
-178.976 0.0473643 0 0.743434
-152.216 0.0601712 0 -1.57727
-127.869 0.0705185 0 -3.55019
-154.632 0.0602034 0 -1.56956
-153.424 0.0601878 0 -1.5734
-177.566 0.047253 0 0.73892
-174.747 0.0470293 0 0.729797
-124.848 0.0707185 0 -3.55994
-126.862 0.0705865 0 -3.55342
-176.157 0.0471413 0 0.734374
-149.799 0.0601355 0 -1.58509
-125.855 0.0706532 0 -3.55666
-152.216 0.0601712 0 -1.57727
-151.008 0.0601538 0 -1.58117
-174.747 0.0470293 0 0.729797
-171.928 0.0468044 0 0.720549
-122.834 0.0708451 0 -3.56655
-124.848 0.0707185 0 -3.55994
-173.337 0.046917 0 0.725188
-147.383 0.0600963 0 -1.59302
-123.841 0.0707825 0 -3.56323
-149.799 0.0601355 0 -1.58509
-148.591 0.0601164 0 -1.58904
-171.928 0.0468044 0 0.720549
-169.108 0.0465782 0 0.711177
-120.82 0.0709662 0 -3.57324
-122.834 0.0708451 0 -3.56655
-170.518 0.0466915 0 0.715878
-144.966 0.0600536 0 -1.60106
-121.827 0.0709063 0 -3.56988
-147.383 0.0600963 0 -1.59302
-146.174 0.0600754 0 -1.59703
-169.108 0.0465782 0 0.711177
-166.289 0.0463506 0 0.701684
-118.806 0.0710818 0 -3.58003
-120.82 0.0709662 0 -3.57324
-167.699 0.0464645 0 0.706446
-142.55 0.0600072 0 -1.60919
-119.813 0.0710247 0 -3.57662
-144.966 0.0600536 0 -1.60106
-143.758 0.0600309 0 -1.60511
-166.289 0.0463506 0 0.701684
-163.47 0.0461215 0 0.692073
-116.792 0.0711919 0 -3.5869
-118.806 0.0710818 0 -3.58003
-164.88 0.0462362 0 0.696893
-140.133 0.0599573 0 -1.61744
-117.799 0.0711376 0 -3.58345
-142.55 0.0600072 0 -1.60919
-141.341 0.0599827 0 -1.6133
-163.47 0.0461215 0 0.692073
-160.651 0.0458911 0 0.682344
-114.778 0.0712964 0 -3.59385
-116.792 0.0711919 0 -3.5869
-162.06 0.0460065 0 0.687223
-137.716 0.0599036 0 -1.62578
-115.785 0.0712449 0 -3.59036
-140.133 0.0599573 0 -1.61744
-138.925 0.0599309 0 -1.62159
-160.651 0.0458911 0 0.682344
-157.832 0.0456591 0 0.6725
-112.764 0.0713954 0 -3.60088
-114.778 0.0712964 0 -3.59385
-159.241 0.0457753 0 0.677436
-135.3 0.0598463 0 -1.63422
-113.771 0.0713466 0 -3.59736
-137.716 0.0599036 0 -1.62578
-136.508 0.0598754 0 -1.62998
-157.832 0.0456591 0 0.6725
-155.012 0.0454257 0 0.662543
-110.75 0.0714887 0 -3.608
-112.764 0.0713954 0 -3.60088
-156.422 0.0455426 0 0.667536
-132.883 0.0597852 0 -1.64275
-111.757 0.0714428 0 -3.60443
-135.3 0.0598463 0 -1.63422
-134.091 0.0598162 0 -1.63847
-155.012 0.0454257 0 0.662543
-152.193 0.0451907 0 0.652475
-108.736 0.0715764 0 -3.61519
-110.75 0.0714887 0 -3.608
-153.603 0.0453084 0 0.657523
-130.467 0.0597204 0 -1.65139
-109.743 0.0715333 0 -3.61159
-132.883 0.0597852 0 -1.64275
-131.675 0.0597533 0 -1.64706
-152.193 0.0451907 0 0.652475
-149.374 0.0449542 0 0.642298
-106.722 0.0716584 0 -3.62247
-108.736 0.0715764 0 -3.61519
-150.783 0.0450726 0 0.6474
-128.05 0.0596518 0 -1.66011
-107.729 0.0716181 0 -3.61882
-130.467 0.0597204 0 -1.65139
-129.258 0.0596866 0 -1.65574
-149.374 0.0449542 0 0.642298
-146.554 0.044716 0 0.632014
-104.708 0.0717346 0 -3.62982
-106.722 0.0716584 0 -3.62247
-147.964 0.0448353 0 0.63717
-125.633 0.0595794 0 -1.66893
-105.715 0.0716972 0 -3.62613
-128.05 0.0596518 0 -1.66011
-126.842 0.0596161 0 -1.66451
-146.554 0.044716 0 0.632014
-143.735 0.0444761 0 0.621626
-102.694 0.0718051 0 -3.63724
-104.708 0.0717346 0 -3.62981
-145.145 0.0445962 0 0.626833
-123.217 0.0595031 0 -1.67784
-103.701 0.0717706 0 -3.63352
-125.633 0.0595794 0 -1.66893
-124.425 0.0595417 0 -1.67337
-143.735 0.0444761 0 0.621626
-140.916 0.0442346 0 0.611134
-100.681 0.0718699 0 -3.64474
-102.694 0.0718051 0 -3.63724
-142.326 0.0443556 0 0.616392
-120.8 0.0594228 0 -1.68683
-101.687 0.0718382 0 -3.64098
-123.217 0.0595031 0 -1.67784
-122.008 0.0594634 0 -1.68232
-140.916 0.0442346 0 0.611134
-138.097 0.0439913 0 0.600541
-98.6666 0.0719288 0 -3.65231
-100.681 0.0718699 0 -3.64474
-139.506 0.0441132 0 0.60585
-118.383 0.0593387 0 -1.69591
-99.6735 0.0719001 0 -3.64851
-120.8 0.0594228 0 -1.68683
-119.592 0.0593813 0 -1.69136
-138.097 0.0439913 0 0.600541
-135.277 0.0437463 0 0.589849
-96.6526 0.0719818 0 -3.65995
-98.6666 0.0719288 0 -3.65231
-136.687 0.0438691 0 0.595207
-115.967 0.0592506 0 -1.70508
-97.6596 0.071956 0 -3.65612
-118.383 0.0593387 0 -1.69591
-117.175 0.0592951 0 -1.70049
-135.277 0.0437463 0 0.589849
-132.458 0.0434996 0 0.579061
-94.6387 0.072029 0 -3.66766
-96.6526 0.0719818 0 -3.65995
-133.868 0.0436232 0 0.584467
-113.55 0.0591585 0 -1.71433
-95.6457 0.0720062 0 -3.66379
-115.967 0.0592506 0 -1.70508
-114.759 0.0592051 0 -1.70969
-132.458 0.0434996 0 0.579061
-129.639 0.0432509 0 0.568177
-92.6248 0.0720703 0 -3.67543
-94.6387 0.072029 0 -3.66766
-131.048 0.0433755 0 0.573631
-111.134 0.0590624 0 -1.72366
-93.6317 0.0720504 0 -3.67154
-113.55 0.0591585 0 -1.71433
-112.342 0.0591109 0 -1.71898
-129.639 0.043251 0 0.568177
-126.819 0.0430004 0 0.557201
-90.6108 0.0721056 0 -3.68328
-92.6248 0.0720703 0 -3.67543
-128.229 0.0431259 0 0.562701
-108.717 0.0589622 0 -1.73307
-91.6178 0.0720887 0 -3.67935
-111.134 0.0590624 0 -1.72366
-109.925 0.0590128 0 -1.72836
-126.819 0.0430004 0 0.557201
-124 0.0427481 0 0.546134
-88.5969 0.072135 0 -3.69119
-90.6108 0.0721056 0 -3.68328
-125.41 0.0428745 0 0.551679
-106.3 0.0588579 0 -1.74256
-89.6038 0.0721211 0 -3.68722
-108.717 0.0589622 0 -1.73307
-107.509 0.0589106 0 -1.7378
-124 0.0427481 0 0.546134
-121.181 0.0424938 0 0.534978
-86.5829 0.0721584 0 -3.69916
-88.5969 0.072135 0 -3.69119
-122.59 0.0426212 0 0.540567
-103.884 0.0587495 0 -1.75212
-87.5899 0.0721474 0 -3.69516
-106.3 0.0588579 0 -1.74256
-105.092 0.0588042 0 -1.74733
-121.181 0.0424938 0 0.534978
-118.362 0.0422376 0 0.523736
-84.569 0.0721757 0 -3.70719
-86.5829 0.0721584 0 -3.69916
-119.771 0.042366 0 0.529368
-101.467 0.058637 0 -1.76176
-85.576 0.0721678 0 -3.70317
-103.884 0.0587495 0 -1.75212
-102.675 0.0586938 0 -1.75693
-118.362 0.0422376 0 0.523736
-115.542 0.0419794 0 0.512408
-82.555 0.072187 0 -3.71529
-84.569 0.0721757 0 -3.70719
-116.952 0.0421087 0 0.518082
-99.0504 0.0585202 0 -1.77147
-83.562 0.0721821 0 -3.71123
-101.467 0.058637 0 -1.76176
-100.259 0.0585791 0 -1.76661
-115.542 0.0419794 0 0.512408
-112.723 0.0417191 0 0.500998
-80.5411 0.0721922 0 -3.72344
-82.555 0.072187 0 -3.71529
-114.133 0.0418495 0 0.506713
-96.6337 0.0583993 0 -1.78126
-81.5481 0.0721903 0 -3.71936
-99.0504 0.0585202 0 -1.77147
-97.842 0.0584603 0 -1.77636
-112.723 0.0417191 0 0.500998
-109.904 0.0414569 0 0.489507
-78.5271 0.0721913 0 -3.73165
-80.5411 0.0721922 0 -3.72344
-111.313 0.0415883 0 0.495262
-94.2171 0.0582741 0 -1.79111
-79.5341 0.0721925 0 -3.72754
-96.6337 0.0583993 0 -1.78126
-95.4254 0.0583372 0 -1.78617
-109.904 0.0414569 0 0.489507
-107.084 0.0411925 0 0.477937
-76.5132 0.0721842 0 -3.73992
-78.5271 0.0721913 0 -3.73165
-108.494 0.0413249 0 0.483732
-91.8004 0.0581446 0 -1.80103
-77.5202 0.0721885 0 -3.73578
-94.2171 0.0582741 0 -1.79111
-93.0087 0.0582099 0 -1.79606
-107.084 0.0411925 0 0.477937
-104.265 0.040926 0 0.466291
-74.4993 0.072171 0 -3.74824
-76.5132 0.0721842 0 -3.73992
-105.674 0.0410595 0 0.472123
-89.3838 0.0580109 0 -1.81101
-75.5062 0.0721784 0 -3.74407
-91.8004 0.0581446 0 -1.80103
-90.5921 0.0580783 0 -1.80601
-104.265 0.040926 0 0.466291
-101.445 0.0406574 0 0.454569
-72.4853 0.0721516 0 -3.75662
-74.4993 0.072171 0 -3.74824
-102.855 0.040792 0 0.460439
-86.9671 0.0578728 0 -1.82106
-73.4923 0.0721621 0 -3.75242
-89.3838 0.0580109 0 -1.81101
-88.1754 0.0579424 0 -1.81603
-101.445 0.0406574 0 0.454569
-98.6261 0.0403866 0 0.442775
-70.4714 0.072126 0 -3.76505
-72.4853 0.0721516 0 -3.75662
-100.036 0.0405223 0 0.448681
-84.5504 0.0577303 0 -1.83117
-71.4783 0.0721396 0 -3.76083
-86.9671 0.0578728 0 -1.82106
-85.7588 0.0578021 0 -1.82611
-98.6261 0.0403866 0 0.442775
-95.8067 0.0401136 0 0.430911
-68.4574 0.0720941 0 -3.77352
-70.4714 0.072126 0 -3.76505
-97.2164 0.0402504 0 0.436852
-82.1338 0.0575835 0 -1.84135
-69.4644 0.0721108 0 -3.76928
-84.5504 0.0577303 0 -1.83117
-83.3421 0.0576575 0 -1.83625
-95.8067 0.0401136 0 0.430911
-92.9873 0.0398383 0 0.418978
-66.4435 0.072056 0 -3.78205
-68.4574 0.0720941 0 -3.77352
-94.397 0.0399763 0 0.424953
-79.7171 0.0574322 0 -1.85158
-67.4504 0.0720758 0 -3.77778
-82.1338 0.0575835 0 -1.84135
-80.9254 0.0575084 0 -1.84645
-92.9873 0.0398383 0 0.418978
-90.168 0.0395608 0 0.406978
-64.4295 0.0720115 0 -3.79063
-66.4435 0.072056 0 -3.78205
-91.5777 0.0396999 0 0.412986
-77.3004 0.0572766 0 -1.86186
-65.4365 0.0720345 0 -3.78633
-79.7171 0.0574322 0 -1.85158
-78.5088 0.057355 0 -1.85671
-90.168 0.0395608 0 0.406978
-87.3486 0.0392811 0 0.394914
-62.4156 0.0719607 0 -3.79925
-64.4295 0.0720115 0 -3.79063
-88.7583 0.0394213 0 0.400954
-74.8838 0.0571164 0 -1.87221
-63.4225 0.0719869 0 -3.79493
-77.3004 0.0572766 0 -1.86186
-76.0921 0.057197 0 -1.86703
-87.3486 0.0392811 0 0.394914
-84.5292 0.0389989 0 0.382787
-60.4016 0.0719035 0 -3.80791
-62.4156 0.0719607 0 -3.79925
-85.9389 0.0391403 0 0.388858
-72.4671 0.0569517 0 -1.8826
-61.4086 0.0719329 0 -3.80358
-74.8838 0.0571164 0 -1.87221
-73.6754 0.0570346 0 -1.8774
-84.5292 0.0389989 0 0.382787
-81.7098 0.0387145 0 0.370599
-58.3877 0.0718399 0 -3.81662
-60.4016 0.0719035 0 -3.80791
-83.1195 0.038857 0 0.3767
-70.0504 0.0567825 0 -1.89305
-59.3946 0.0718725 0 -3.81226
-72.4671 0.0569517 0 -1.8826
-71.2587 0.0568677 0 -1.88782
-81.7098 0.0387145 0 0.370599
-78.8904 0.0384277 0 0.358353
-56.3737 0.07177 0 -3.82537
-58.3877 0.0718399 0 -3.81662
-80.3001 0.0385714 0 0.364483
-67.6337 0.0566088 0 -1.90355
-57.3807 0.0718058 0 -3.82099
-70.0504 0.0567825 0 -1.89305
-68.8421 0.0566962 0 -1.8983
-78.8904 0.0384277 0 0.358353
-76.071 0.0381384 0 0.34605
-54.3598 0.0716936 0 -3.83416
-56.3737 0.07177 0 -3.82537
-77.4807 0.0382833 0 0.352209
-65.217 0.0564304 0 -1.9141
-55.3667 0.0717326 0 -3.82976
-67.6337 0.0566088 0 -1.90355
-66.4254 0.0565202 0 -1.90882
-76.071 0.0381384 0 0.34605
-73.2516 0.0378468 0 0.333693
-52.3458 0.071611 0 -3.84299
-54.3598 0.0716936 0 -3.83416
-74.6613 0.0379929 0 0.339878
-62.8004 0.0562475 0 -1.92469
-53.3528 0.0716531 0 -3.83857
-65.217 0.0564304 0 -1.9141
-64.0087 0.0563395 0 -1.91939
-73.2516 0.0378468 0 0.333693
-70.4322 0.0375526 0 0.321284
-50.3319 0.0715222 0 -3.85186
-52.3458 0.071611 0 -3.84299
-71.8419 0.0377 0 0.327495
-60.3837 0.0560601 0 -1.93533
-51.3388 0.0715673 0 -3.84742
-62.8004 0.0562475 0 -1.92469
-61.592 0.0561543 0 -1.93001
-70.4322 0.0375526 0 0.321284
-67.6128 0.0372561 0 0.308823
-48.3179 0.0714275 0 -3.86077
-50.3319 0.0715222 0 -3.85186
-69.0225 0.0374047 0 0.31506
-57.967 0.0558682 0 -1.94602
-49.3249 0.0714755 0 -3.85631
-60.3837 0.0560601 0 -1.93533
-59.1753 0.0559647 0 -1.94067
-67.6128 0.0372561 0 0.308823
-64.7933 0.0369568 0 0.296315
-46.3039 0.0713275 0 -3.86971
-48.3179 0.0714275 0 -3.86077
-66.203 0.0371067 0 0.302575
-55.5503 0.055672 0 -1.95674
-47.3109 0.0713781 0 -3.86523
-57.967 0.0558682 0 -1.94602
-56.7586 0.0557706 0 -1.95137
-64.7933 0.0369568 0 0.296315
-61.9739 0.036655 0 0.28376
-44.29 0.0712232 0 -3.87868
-46.3039 0.0713275 0 -3.86971
-63.3836 0.0368062 0 0.290043
-53.1336 0.0554719 0 -1.96751
-45.297 0.0712758 0 -3.87419
-55.5503 0.055672 0 -1.95674
-54.3419 0.0555724 0 -1.96212
-61.9739 0.036655 0 0.28376
-59.1544 0.03635 0 0.271161
-42.276 0.0711156 0 -3.88769
-44.29 0.0712232 0 -3.87868
-60.5642 0.0365029 0 0.277466
-50.7169 0.0552682 0 -1.97832
-43.283 0.0711697 0 -3.88318
-53.1336 0.0554719 0 -1.96751
-51.9252 0.0553704 0 -1.97291
-59.1544 0.03635 0 0.271161
-56.335 0.0360423 0 0.258519
-40.2621 0.0710063 0 -3.89675
-42.276 0.0711156 0 -3.88769
-57.7447 0.0361966 0 0.264845
-48.3001 0.0550617 0 -1.98917
-41.2691 0.071061 0 -3.89222
-50.7169 0.0552682 0 -1.97832
-49.5085 0.0551653 0 -1.98374
-56.335 0.0360423 0 0.258519
-53.5155 0.0357301 0 0.245837
-38.2481 0.0708956 0 -3.90584
-40.2621 0.0710063 0 -3.89675
-54.9252 0.0358869 0 0.252183
-45.8834 0.0548533 0 -2.00007
-39.2551 0.0709512 0 -3.90129
-48.3001 0.0550617 0 -1.98917
-47.0918 0.0549576 0 -1.99461
-53.5155 0.0357301 0 0.245837
-50.6959 0.0354142 0 0.233117
-36.2342 0.0707812 0 -3.91497
-38.2481 0.0708956 0 -3.90584
-52.1057 0.0355724 0 0.239482
-43.4666 0.0546427 0 -2.01102
-37.2412 0.0708392 0 -3.9104
-45.8834 0.0548533 0 -2.00007
-44.675 0.0547485 0 -2.00554
-50.6959 0.0354142 0 0.233117
-47.8762 0.0350924 0 0.220358
-34.2203 0.0706502 0 -3.92413
-36.2342 0.0707812 0 -3.91497
-49.2861 0.0352553 0 0.226741
-41.0499 0.0544296 0 -2.02201
-35.2272 0.0707196 0 -3.91955
-43.4666 0.0546427 0 -2.01102
-42.2583 0.0545362 0 -2.01651
-47.8762 0.0350924 0 0.220358
-45.0565 0.0347599 0 0.207561
-32.2064 0.0704705 0 -3.9333
-34.2203 0.0706502 0 -3.92413
-46.4664 0.0349242 0 0.213969
-38.6331 0.0542032 0 -2.03304
-33.2133 0.0705694 0 -3.92872
-41.0499 0.0544296 0 -2.02201
-39.8414 0.0543196 0 -2.02752
-45.0565 0.0347599 0 0.207561
-42.2365 0.0344354 0 0.19473
-30.1926 0.0701538 0 -3.94238
-32.2064 0.0704705 0 -3.9333
-43.6465 0.0346052 0 0.201143
-36.2163 0.0539523 0 -2.04404
-31.1995 0.0703393 0 -3.93786
-38.6331 0.0542032 0 -2.03304
-37.4247 0.0540808 0 -2.03855
-42.2365 0.0344354 0 0.19473
-39.4165 0.0340549 0 0.181836
-28.179 0.0695323 0 -3.95119
-30.1926 0.0701538 0 -3.94238
-40.8265 0.0342279 0 0.18831
-33.7997 0.0536094 0 -2.05492
-29.1858 0.0698963 0 -3.94684
-36.2163 0.0539523 0 -2.04404
-35.0079 0.0538003 0 -2.04951
-39.4165 0.0340549 0 0.181836
-36.5964 0.0338187 0 0.16893
-26.1657 0.0681996 0 -3.95922
-28.179 0.0695323 0 -3.95119
-38.0064 0.0339718 0 0.175351
-31.3835 0.0531096 0 -2.06533
-27.1722 0.0689952 0 -3.95535
-33.7997 0.0536094 0 -2.05492
-32.5915 0.0533792 0 -2.06021
-36.5964 0.0338187 0 0.16893
-33.7776 0.0332527 0 0.155819
-24.1527 0.0655247 0 -3.96567
-26.1657 0.0681996 0 -3.95922
-35.1867 0.0334315 0 0.16248
-28.9689 0.052156 0 -2.0747
-25.1592 0.0670894 0 -3.96271
-31.3835 0.0531096 0 -2.06533
-30.1759 0.0527267 0 -2.07022
-33.7776 0.0332527 0 0.155819
-30.9609 0.0337002 0 0.142868
-22.1407 0.0599828 0 -3.96853
-24.1527 0.0655247 0 -3.96567
-32.369 0.0336548 0 0.149171
-26.5568 0.0504853 0 -2.0816
-23.1464 0.063239 0 -3.96774
-28.9689 0.052156 0 -2.0747
-27.7625 0.0513955 0 -2.07854
-30.9609 0.0337002 0 0.142868
-28.1536 0.0322735 0 0.129061
-20.1287 0.0498241 0 -3.96506
-22.1407 0.0599829 0 -3.96853
-29.5555 0.0324248 0 0.136404
-24.1517 0.0470397 0 -2.08372
-21.135 0.0556812 0 -3.9678
-26.5568 0.0504853 0 -2.0816
-25.3529 0.0491573 0 -2.08359
-28.1536 0.0322735 0 0.129061
-25.3587 0.0365665 0 0.116382
-18.119 0.0301164 0 -3.94867
-20.1287 0.0498241 0 -3.96506
-26.7543 0.0353721 0 0.121887
-21.7573 0.0409291 0 -2.07624
-19.123 0.0414315 0 -3.95913
-24.1517 0.0470397 0 -2.08372
-22.9532 0.044151 0 -2.08134
-25.3587 0.0365665 0 0.116382
-22.6085 0.0309474 0 0.100179
-16.104 -0.00166458 0 -3.91266
-18.119 0.0301164 0 -3.94867
-23.9756 0.0308497 0 0.11013
-19.3882 0.0290342 0 -2.05135
-17.1135 0.0163639 0 -3.93355
-21.7573 0.0409291 0 -2.07624
-20.5676 0.036517 0 -2.06733
-22.6085 0.0309474 0 0.100179
-19.9105 0.0543404 0 0.0895735
-14.0904 -0.0595234 0 -3.83989
-16.104 -0.00166458 0 -3.91266
-21.2516 0.0477201 0 0.0909899
-17.0526 0.00863195 0 -1.99669
-15.0952 -0.0274148 0 -3.88256
-19.3882 0.0290342 0 -2.05135
-18.2174 0.0187342 0 -2.02742
-19.9105 0.0543404 0 0.0895735
-17.3832 0.0291357 0 0.0654253
-12.0372 -0.134234 0 -3.72392
-14.0904 -0.0595234 0 -3.83989
-18.6186 0.0270442 0 0.0855361
-14.7947 -0.027623 0 -1.88929
-13.0747 -0.0928172 0 -3.78732
-17.0526 0.00863195 0 -1.99669
-15.9067 -0.0038079 0 -1.95499
-17.3832 0.0291357 0 0.0654253
-15.0354 0.140937 0 0.0650135
-9.95655 -0.258384 0 -3.53894
-12.0372 -0.134234 0 -3.72392
-16.179 0.111426 0 0.047078
-12.6044 -0.0868545 0 -1.7127
-10.995 -0.195364 0 -3.64238
-14.7947 -0.027623 0 -1.88929
-13.7006 -0.0607069 0 -1.80409
-15.0354 0.140937 0 0.0650135
-13.2407 0.0272969 0 0.0197078
-7.66499 -0.316076 0 -3.33974
-9.95655 -0.258384 0 -3.53894
-14.0604 0.0125629 0 0.0774643
-10.594 -0.179162 0 -1.41392
-8.86118 -0.290599 0 -3.43504
-12.6044 -0.0868545 0 -1.7127
-11.551 -0.113479 0 -1.59872
-13.2407 0.0272969 0 0.0197078
-12.0524 0.471122 0 0.125254
-5.17881 -0.308071 0 -3.21598
-7.66499 -0.316076 0 -3.33974
-12.5083 0.397114 0 -0.0317595
-8.50602 -0.302756 0 -1.08874
-6.43251 -0.366649 0 -3.25519
-10.594 -0.179162 0 -1.41392
-9.62159 -0.266279 0 -1.21326
-12.0524 0.471122 0 0.125254
-12.9806 -0.362686 0 0.462426
-1.99457 0.718198 0 -3.77182
-5.17881 -0.308071 0 -3.21598
-12.2638 -0.234773 0 0.343277
-6.22244 -0.242325 0 -0.893321
-3.73775 0.0480466 0 -3.35018
-8.50602 -0.302756 0 -1.08874
-7.33832 -0.281624 0 -1.01706
-12.9806 -0.362686 0 0.462426
-18.0786 -1.8988 0 3.21795
0.565226 4.83338 0 -5.76827
-1.99457 0.718198 0 -3.77182
-14.3615 0.60578 0 0.91636
-0.685469 2.7277 0 -3.3325
-0.514553 1.8011 0 -4.48914
-6.22244 -0.242325 0 -0.893321
-4.36817 0.271828 0 -1.36129
-18.0786 -1.8988 0 3.21795
-2.57351 26.0374 0 -15.6874
-0.251188 20.2089 0 -5.76127
0.565226 4.83338 0 -5.76827
-18.8925 -4.58212 0 1.45078
1.9539 25.5582 0 -9.30646
0.945444 11.1716 0 -6.77457
-0.685469 2.7277 0 -3.3325
1.8709 8.80886 0 -6.19016
-371.528 -111.496 0 -14.9251
-393.356 -42.5032 0 -21.7867
-232.566 -40.6381 0 -0.67043
-214.124 -64.2487 0 19.6469
-385.985 -80.1605 0 -25.2922
-307.988 -46.8365 0 -9.02914
-226.648 -51.6189 0 7.37396
-304.119 -91.261 0 3.04799
-300.944 -65.0336 0 -2.89725
-393.356 -42.5032 0 -21.7867
-399.252 -12.6399 0 -10.3516
-236.985 -17.8028 0 -6.98219
-232.566 -40.6381 0 -0.67043
-398.91 -21.8496 0 -15.7007
-318.999 -18.3277 0 -10.5259
-234.538 -28.382 0 -4.74023
-307.988 -46.8365 0 -9.02914
-316.487 -31.5141 0 -11.8356
-399.252 -12.6399 0 -10.3516
-394.232 -2.26044 0 -3.81704
-239.249 -6.28277 0 -8.1878
-236.985 -17.8028 0 -6.98219
-396.238 -6.21634 0 -6.06504
-318.254 -5.31866 0 -7.04791
-239.142 -10.8795 0 -8.08182
-318.999 -18.3277 0 -10.5259
-318.848 -9.93614 0 -8.31104
-394.232 -2.26044 0 -3.81704
-390.785 -0.0073415 0 -2.34755
-237.441 -0.945875 0 -7.55756
-239.249 -6.28277 0 -8.1878
-392.705 -0.622812 0 -2.83218
-315.231 -0.328782 0 -5.33349
-238.262 -2.97695 0 -7.83575
-318.254 -5.31866 0 -7.04791
-316.96 -2.27078 0 -6.12658
-390.785 -0.0073415 0 -2.34755
-387.334 0.831087 0 -2.26611
-235.318 0.608121 0 -7.12628
-237.441 -0.945875 0 -7.55756
-388.78 0.534256 0 -2.16266
-311.978 0.882134 0 -4.78768
-236.558 0.0887141 0 -7.34348
-315.231 -0.328782 0 -5.33349
-313.465 0.598875 0 -4.88298
-387.334 0.831087 0 -2.26611
-384.947 0.688969 0 -2.74288
-232.863 0.985445 0 -6.8345
-235.318 0.608121 0 -7.12628
-386.178 0.803651 0 -2.51719
-309.27 1.03617 0 -4.81434
-233.972 0.908534 0 -6.93649
-311.978 0.882134 0 -4.78768
-310.595 1.00553 0 -4.79931
-384.947 0.688969 0 -2.74288
-382.643 0.542501 0 -3.14114
-230.882 0.792474 0 -6.73828
-232.863 0.985445 0 -6.8345
-383.724 0.620124 0 -2.94248
-306.95 0.779155 0 -4.98671
-231.875 0.910898 0 -6.78224
-309.27 1.03617 0 -4.81434
-308.048 0.93976 0 -4.87938
-382.643 0.542501 0 -3.14114
-380.593 0.342223 0 -3.46294
-229.096 0.558371 0 -6.69127
-230.882 0.792474 0 -6.73828
-381.63 0.436034 0 -3.3243
-304.94 0.52712 0 -5.15887
-229.933 0.679274 0 -6.70485
-306.95 0.779155 0 -4.98671
-305.923 0.641094 0 -5.08531
-380.593 0.342223 0 -3.46294
-378.546 0.219587 0 -3.65232
-227.578 0.33756 0 -6.68322
-229.096 0.558371 0 -6.69127
-379.555 0.275284 0 -3.5677
-303.108 0.317948 0 -5.28367
-228.326 0.438339 0 -6.68759
-304.94 0.52712 0 -5.15887
-304.004 0.417081 0 -5.22459
-378.546 0.219587 0 -3.65232
-376.544 0.131491 0 -3.76608
-226.179 0.192584 0 -6.67808
-227.578 0.33756 0 -6.68322
-377.549 0.169766 0 -3.71936
-301.384 0.184249 0 -5.36002
-226.859 0.258249 0 -6.67932
-303.108 0.317948 0 -5.28367
-302.238 0.241654 0 -5.32885
-376.544 0.131491 0 -3.76608
-374.534 0.0830192 0 -3.81996
-224.878 0.0976233 0 -6.6761
-226.179 0.192584 0 -6.67808
-375.537 0.104108 0 -3.7978
-299.718 0.100445 0 -5.40095
-225.524 0.138524 0 -6.67771
-301.384 0.184249 0 -5.36002
-300.546 0.137474 0 -5.38348
-374.534 0.0830192 0 -3.81996
-372.529 0.0544936 0 -3.84287
-223.62 0.0445253 0 -6.6715
-224.878 0.0976233 0 -6.6761
-373.533 0.0664002 0 -3.83481
-298.081 0.0540463 0 -5.41821
-224.243 0.0674003 0 -6.67382
-299.718 0.100445 0 -5.40095
-298.897 0.0733674 0 -5.41218
-372.529 0.0544936 0 -3.84287
-370.52 0.0402719 0 -3.84618
-222.39 0.0149685 0 -6.66582
-223.62 0.0445253 0 -6.6715
-371.524 0.0462368 0 -3.84606
-296.46 0.0289289 0 -5.42176
-223.003 0.0271968 0 -6.66895
-298.081 0.0540463 0 -5.41821
-297.269 0.039534 0 -5.42113
-370.52 0.0402719 0 -3.84618
-368.51 0.0331047 0 -3.84024
-221.171 0.000550009 0 -6.65871
-222.39 0.0149685 0 -6.66582
-369.515 0.0359585 0 -3.84411
-294.845 0.0167385 0 -5.41752
-221.779 0.00647245 0 -6.66235
-296.46 0.0289289 0 -5.42176
-295.652 0.0216065 0 -5.4204
-368.51 0.0331047 0 -3.84024
-366.498 0.0301098 0 -3.82929
-219.959 -0.00613192 0 -6.65099
-221.171 0.000550009 0 -6.65871
-367.504 0.0312818 0 -3.83513
-293.233 0.0112239 0 -5.40937
-220.565 -0.00355412 0 -6.65494
-294.845 0.0167385 0 -5.41752
-294.039 0.0133989 0 -5.41375
-366.498 0.0301098 0 -3.82929
-364.485 0.0290349 0 -3.81635
-218.75 -0.00850292 0 -6.64286
-219.959 -0.00613192 0 -6.65099
-365.492 0.0293905 0 -3.82299
-291.622 0.00926392 0 -5.39934
-219.354 -0.00766703 0 -6.64695
-293.233 0.0112239 0 -5.40937
-292.428 0.00992941 0 -5.40452
-364.485 0.0290349 0 -3.81635
-362.472 0.0289429 0 -3.80259
-217.541 -0.0088861 0 -6.63463
-218.75 -0.00850292 0 -6.64286
-363.479 0.0289175 0 -3.80951
-290.012 0.00895421 0 -5.38856
-218.146 -0.00887648 0 -6.63875
-291.622 0.00926392 0 -5.39934
-290.817 0.00897449 0 -5.39399
-362.472 0.0289429 0 -3.80259
-360.459 0.0292466 0 -3.78872
-216.333 -0.00830273 0 -6.62639
-217.541 -0.0088861 0 -6.63463
-361.466 0.0290607 0 -3.79565
-288.401 0.00940687 0 -5.37758
-216.937 -0.00866607 0 -6.6305
-290.012 0.00895421 0 -5.38856
-289.206 0.00911918 0 -5.38307
-360.459 0.0292466 0 -3.78872
-358.446 0.0297156 0 -3.77499
-215.125 -0.00734504 0 -6.61825
-216.333 -0.00830273 0 -6.62639
-359.453 0.0294716 0 -3.78183
-286.79 0.0101532 0 -5.36665
-215.729 -0.00785461 0 -6.62231
-288.401 0.00940687 0 -5.37758
-287.596 0.00975953 0 -5.3721
-358.446 0.0297156 0 -3.77499
-356.432 0.0302285 0 -3.76151
-213.917 -0.00624651 0 -6.61023
-215.125 -0.00734504 0 -6.61825
-357.439 0.0299693 0 -3.76821
-285.179 0.0109988 0 -5.3559
-214.521 -0.00680324 0 -6.61423
-286.79 0.0101532 0 -5.36665
-285.985 0.0105703 0 -5.36125
-356.432 0.0302285 0 -3.76151
-354.419 0.0307461 0 -3.74831
-212.708 -0.00512247 0 -6.60236
-213.917 -0.00624651 0 -6.61023
-355.426 0.0304883 0 -3.75487
-283.569 0.0118581 0 -5.34535
-213.313 -0.00568519 0 -6.60628
-285.179 0.0109988 0 -5.3559
-284.374 0.0114292 0 -5.3506
-354.419 0.0307461 0 -3.74831
-352.405 0.0312534 0 -3.73539
-211.5 -0.00400707 0 -6.59464
-212.708 -0.00512247 0 -6.60236
-353.412 0.0310011 0 -3.74181
-281.958 0.012705 0 -5.33502
-212.104 -0.00456241 0 -6.59848
-283.569 0.0118581 0 -5.34535
-282.763 0.0122837 0 -5.34016
-352.405 0.0312534 0 -3.73539
-350.392 0.0317494 0 -3.72274
-210.292 -0.00291139 0 -6.58707
-211.5 -0.00400707 0 -6.59464
-351.399 0.0315028 0 -3.72903
-280.347 0.0135338 0 -5.32491
-210.896 -0.00345687 0 -6.59083
-281.958 0.012705 0 -5.33502
-281.152 0.0131216 0 -5.32994
-350.392 0.0317494 0 -3.72274
-348.378 0.0322363 0 -3.71037
-209.083 -0.00183343 0 -6.57965
-210.292 -0.00291139 0 -6.58707
-349.385 0.0319938 0 -3.71652
-278.736 0.0143469 0 -5.31501
-209.687 -0.00237035 0 -6.58334
-280.347 0.0135338 0 -5.32491
-279.541 0.0139421 0 -5.31993
-348.378 0.0322363 0 -3.71037
-346.365 0.0327166 0 -3.69825
-207.875 -0.000769509 0 -6.57238
-209.083 -0.00183343 0 -6.57965
-347.372 0.0324771 0 -3.70428
-277.125 0.0151485 0 -5.30531
-208.479 -0.00129998 0 -6.576
-278.736 0.0143469 0 -5.31501
-277.93 0.0147489 0 -5.31013
-346.365 0.0327166 0 -3.69825
-344.351 0.0331927 0 -3.68638
-206.666 0.000284287 0 -6.56526
-207.875 -0.000769509 0 -6.57238
-345.358 0.0329551 0 -3.69228
-275.514 0.015942 0 -5.29582
-207.271 -0.000241525 0 -6.5688
-277.125 0.0151485 0 -5.30531
-276.319 0.0155461 0 -5.30054
-344.351 0.0331927 0 -3.68638
-342.338 0.033666 0 -3.67477
-205.458 0.00133073 0 -6.5583
-206.666 0.000284287 0 -6.56526
-343.345 0.0334296 0 -3.68054
-273.902 0.0167299 0 -5.28653
-206.062 0.000808296 0 -6.56176
-275.514 0.015942 0 -5.29582
-274.708 0.0163366 0 -5.29115
-342.338 0.033666 0 -3.67477
-340.324 0.0341374 0 -3.6634
-204.249 0.00237167 0 -6.55147
-205.458 0.00133073 0 -6.5583
-341.331 0.0339019 0 -3.66905
-272.291 0.0175137 0 -5.27743
-204.854 0.00185181 0 -6.55487
-273.902 0.0167299 0 -5.28653
-273.097 0.0171223 0 -5.28195
-340.324 0.0341374 0 -3.6634
-338.311 0.0346075 0 -3.65227
-203.041 0.00340819 0 -6.5448
-204.249 0.00237167 0 -6.55147
-339.318 0.0343726 0 -3.6578
-270.68 0.0182944 0 -5.26853
-203.645 0.00289044 0 -6.54812
-272.291 0.0175137 0 -5.27743
-271.486 0.0179044 0 -5.27296
-338.311 0.0346075 0 -3.65227
-336.297 0.0350765 0 -3.64139
-201.832 0.0044409 0 -6.53827
-203.041 0.00340819 0 -6.5448
-337.304 0.0348421 0 -3.6468
-269.069 0.0190725 0 -5.25982
-202.437 0.003925 0 -6.54152
-270.68 0.0182944 0 -5.26853
-269.875 0.0186838 0 -5.26415
-336.297 0.0350765 0 -3.64139
-334.284 0.0355445 0 -3.63074
-200.624 0.00547008 0 -6.53188
-201.832 0.0044409 0 -6.53827
-335.29 0.0353106 0 -3.63603
-267.458 0.0198481 0 -5.25131
-201.228 0.00495592 0 -6.53506
-269.069 0.0190725 0 -5.25982
-268.264 0.0194606 0 -5.25554
-334.284 0.0355445 0 -3.63074
-332.27 0.0360116 0 -3.62034
-199.415 0.00649585 0 -6.52564
-200.624 0.00547008 0 -6.53188
-333.277 0.0357782 0 -3.62551
-265.847 0.0206213 0 -5.24299
-200.02 0.00598339 0 -6.52874
-267.458 0.0198481 0 -5.25131
-266.653 0.020235 0 -5.24713
-332.27 0.0360116 0 -3.62034
-330.256 0.0364778 0 -3.61017
-198.207 0.00751824 0 -6.51954
-199.415 0.00649585 0 -6.52564
-331.263 0.0362448 0 -3.61523
-264.236 0.0213923 0 -5.23486
-198.811 0.00700747 0 -6.52257
-265.847 0.0206213 0 -5.24299
-265.042 0.0210071 0 -5.2389
-330.256 0.0364778 0 -3.61017
-328.243 0.036943 0 -3.60024
-196.998 0.00853722 0 -6.51358
-198.207 0.00751824 0 -6.51954
-329.25 0.0367105 0 -3.60518
-262.625 0.0221609 0 -5.22691
-197.603 0.00802816 0 -6.51655
-264.236 0.0213923 0 -5.23486
-263.431 0.0217769 0 -5.23086
-328.243 0.036943 0 -3.60024
-326.229 0.0374071 0 -3.59055
-195.79 0.00955274 0 -6.50777
-196.998 0.00853722 0 -6.51358
-327.236 0.0371752 0 -3.59537
-261.014 0.022927 0 -5.21916
-196.394 0.00904542 0 -6.51066
-262.625 0.0221609 0 -5.22691
-261.819 0.0225443 0 -5.22301
-326.229 0.0374071 0 -3.59055
-324.216 0.0378702 0 -3.58109
-194.581 0.0105647 0 -6.50209
-195.79 0.00955274 0 -6.50777
-325.222 0.0376388 0 -3.58579
-259.403 0.0236908 0 -5.21159
-195.186 0.0100592 0 -6.50491
-261.014 0.022927 0 -5.21916
-260.208 0.0233092 0 -5.21535
-324.216 0.0378702 0 -3.58109
-322.202 0.0383321 0 -3.57186
-193.373 0.0115731 0 -6.49655
-194.581 0.0105647 0 -6.50209
-323.209 0.0381013 0 -3.57644
-257.792 0.024452 0 -5.2042
-193.977 0.0110694 0 -6.49931
-259.403 0.0236908 0 -5.21159
-258.597 0.0240717 0 -5.20787
-322.202 0.0383321 0 -3.57186
-320.188 0.0387929 0 -3.56286
-192.164 0.0125779 0 -6.49115
-193.373 0.0115731 0 -6.49655
-321.195 0.0385627 0 -3.56733
-256.181 0.0252106 0 -5.197
-192.769 0.012076 0 -6.49384
-257.792 0.024452 0 -5.2042
-256.986 0.0248316 0 -5.20058
-320.188 0.0387929 0 -3.56286
-318.175 0.0392525 0 -3.55409
-190.956 0.0135789 0 -6.48589
-192.164 0.0125779 0 -6.49115
-319.182 0.0390229 0 -3.55844
-254.57 0.0259666 0 -5.18999
-191.56 0.0130789 0 -6.48851
-256.181 0.0252106 0 -5.197
-255.375 0.0255889 0 -5.19347
-318.175 0.0392525 0 -3.55409
-316.161 0.0397108 0 -3.54554
-189.747 0.0145762 0 -6.48077
-190.956 0.0135789 0 -6.48589
-317.168 0.0394818 0 -3.54979
-252.958 0.0267199 0 -5.18316
-190.352 0.014078 0 -6.48331
-254.57 0.0259666 0 -5.18999
-253.764 0.0263436 0 -5.18655
-316.161 0.0397108 0 -3.54554
-314.148 0.0401678 0 -3.53723
-188.539 0.0155696 0 -6.47578
-189.747 0.0145762 0 -6.48077
-315.154 0.0399394 0 -3.54136
-251.347 0.0274705 0 -5.1765
-189.143 0.0150734 0 -6.47826
-252.958 0.0267199 0 -5.18316
-252.153 0.0270955 0 -5.17981
-314.148 0.0401678 0 -3.53723
-312.134 0.0406234 0 -3.52914
-187.33 0.0165592 0 -6.47092
-188.539 0.0155696 0 -6.47578
-313.141 0.0403958 0 -3.53315
-249.736 0.0282183 0 -5.17003
-187.934 0.0160649 0 -6.47333
-251.347 0.0274705 0 -5.1765
-250.542 0.0278447 0 -5.17324
-312.134 0.0406234 0 -3.52914
-310.12 0.0410776 0 -3.52127
-186.122 0.0175447 0 -6.4662
-187.33 0.0165592 0 -6.47092
-311.127 0.0408507 0 -3.52517
-248.125 0.0289632 0 -5.16374
-186.726 0.0170524 0 -6.46855
-249.736 0.0282183 0 -5.17003
-248.931 0.0285911 0 -5.16686
-310.12 0.0410776 0 -3.52127
-308.107 0.0415304 0 -3.51362
-184.913 0.0185263 0 -6.46162
-186.122 0.0175447 0 -6.4662
-309.113 0.0413042 0 -3.51742
-246.514 0.0297053 0 -5.15762
-185.517 0.018036 0 -6.46389
-248.125 0.0289632 0 -5.16374
-247.319 0.0293346 0 -5.16066
-308.107 0.0415304 0 -3.51362
-306.093 0.0419817 0 -3.5062
-183.705 0.0195038 0 -6.45716
-184.913 0.0185263 0 -6.46162
-307.1 0.0417562 0 -3.50988
-244.903 0.0304444 0 -5.15168
-184.309 0.0190156 0 -6.45937
-246.514 0.0297053 0 -5.15762
-245.708 0.0300752 0 -5.15463
-306.093 0.0419817 0 -3.5062
-304.079 0.0424314 0 -3.49899
-182.496 0.0204771 0 -6.45284
-183.705 0.0195038 0 -6.45716
-305.086 0.0422067 0 -3.50257
-243.292 0.0311805 0 -5.14592
-183.1 0.019991 0 -6.45498
-244.903 0.0304444 0 -5.15168
-244.097 0.0308128 0 -5.14878
-304.079 0.0424314 0 -3.49899
-302.066 0.0428795 0 -3.492
-181.287 0.0214463 0 -6.44864
-182.496 0.0204771 0 -6.45284
-303.072 0.0426557 0 -3.49547
-241.68 0.0319135 0 -5.14032
-181.892 0.0209623 0 -6.45072
-243.292 0.0311805 0 -5.14592
-242.486 0.0315474 0 -5.1431
-302.066 0.0428796 0 -3.492
-300.052 0.043326 0 -3.48523
-180.079 0.0224113 0 -6.44458
-181.287 0.0214463 0 -6.44864
-301.059 0.043103 0 -3.48859
-240.069 0.0326435 0 -5.13491
-180.683 0.0219293 0 -6.4466
-241.68 0.0319135 0 -5.14032
-240.875 0.0322789 0 -5.13759
-300.052 0.043326 0 -3.48523
-298.038 0.0437709 0 -3.47867
-178.87 0.0233719 0 -6.44065
-180.079 0.0224113 0 -6.44458
-299.045 0.0435487 0 -3.48192
-238.458 0.0333703 0 -5.12966
-179.475 0.0228921 0 -6.4426
-240.069 0.0326435 0 -5.13491
-239.264 0.0330073 0 -5.13226
-298.038 0.0437709 0 -3.47867
-296.025 0.044214 0 -3.47233
-177.662 0.0243282 0 -6.43684
-178.87 0.0233719 0 -6.44065
-297.031 0.0439927 0 -3.47547
-236.847 0.0340939 0 -5.12459
-178.266 0.0238506 0 -6.43873
-238.458 0.0333703 0 -5.12966
-237.653 0.0337325 0 -5.1271
-296.025 0.044214 0 -3.47233
-294.011 0.0446553 0 -3.46619
-176.453 0.0252801 0 -6.43316
-177.662 0.0243282 0 -6.43684
-295.018 0.0444348 0 -3.46923
-235.236 0.0348143 0 -5.11968
-177.058 0.0248047 0 -6.43498
-236.847 0.0340939 0 -5.12459
-236.041 0.0344545 0 -5.12211
-294.011 0.0446553 0 -3.46619
-291.997 0.0450948 0 -3.46027
-175.245 0.0262275 0 -6.42961
-176.453 0.0252801 0 -6.43316
-293.004 0.0448752 0 -3.46321
-233.625 0.0355313 0 -5.11494
-175.849 0.0257544 0 -6.43137
-235.236 0.0348143 0 -5.11968
-234.43 0.0351732 0 -5.11729
-291.997 0.0450948 0 -3.46027
-289.983 0.0455324 0 -3.45456
-174.036 0.0271705 0 -6.42618
-175.245 0.0262275 0 -6.42961
-290.99 0.0453138 0 -3.45739
-232.014 0.036245 0 -5.11037
-174.64 0.0266996 0 -6.42788
-233.625 0.0355313 0 -5.11494
-232.819 0.0358886 0 -5.11264
-289.983 0.0455324 0 -3.45456
-287.97 0.0459681 0 -3.44905
-172.828 0.0281088 0 -6.42288
-174.036 0.0271705 0 -6.42618
-288.977 0.0457505 0 -3.45178
-230.402 0.0369553 0 -5.10597
-173.432 0.0276402 0 -6.42451
-232.014 0.036245 0 -5.11037
-231.208 0.0366006 0 -5.10815
-287.97 0.0459681 0 -3.44905
-285.956 0.0464018 0 -3.44375
-171.619 0.0290425 0 -6.4197
-172.828 0.0281088 0 -6.42288
-286.963 0.0461852 0 -3.44638
-228.791 0.0376621 0 -5.10173
-172.223 0.0285762 0 -6.42127
-230.402 0.0369553 0 -5.10597
-229.597 0.0373092 0 -5.10383
-285.956 0.0464018 0 -3.44375
-283.942 0.0468336 0 -3.43866
-170.41 0.0299716 0 -6.41664
-171.619 0.0290425 0 -6.4197
-284.949 0.046618 0 -3.44118
-227.18 0.0383655 0 -5.09765
-171.015 0.0295076 0 -6.41815
-228.791 0.0376621 0 -5.10173
-227.986 0.0380142 0 -5.09967
-283.942 0.0468336 0 -3.43866
-281.929 0.0472632 0 -3.43377
-169.202 0.0308959 0 -6.4137
-170.41 0.0299716 0 -6.41664
-282.935 0.0470487 0 -3.43619
-225.569 0.0390652 0 -5.09374
-169.806 0.0304343 0 -6.41516
-227.18 0.0383655 0 -5.09765
-226.374 0.0387158 0 -5.09568
-281.929 0.0472632 0 -3.43377
-279.915 0.0476908 0 -3.42908
-167.993 0.0318154 0 -6.41089
-169.202 0.0308959 0 -6.4137
-280.922 0.0474773 0 -3.4314
-223.958 0.0397614 0 -5.08999
-168.598 0.0313562 0 -6.41228
-225.569 0.0390652 0 -5.09374
-224.763 0.0394138 0 -5.09184
-279.915 0.0476908 0 -3.42908
-277.901 0.0481163 0 -3.42459
-166.785 0.0327301 0 -6.4082
-167.993 0.0318154 0 -6.41089
-278.908 0.0479038 0 -3.42681
-222.346 0.0404539 0 -5.0864
-167.389 0.0322733 0 -6.40953
-223.958 0.0397614 0 -5.08999
-223.152 0.0401081 0 -5.08817
-277.901 0.0481163 0 -3.42459
-275.887 0.0485395 0 -3.42029
-165.576 0.0336398 0 -6.40562
-166.785 0.0327301 0 -6.4082
-276.894 0.0483281 0 -3.42242
-220.735 0.0411427 0 -5.08297
-166.18 0.0331855 0 -6.4069
-222.346 0.0404539 0 -5.0864
-221.541 0.0407988 0 -5.08466
-275.887 0.0485395 0 -3.42029
-273.874 0.0489605 0 -3.4162
-164.368 0.0345447 0 -6.40317
-165.576 0.0336398 0 -6.40562
-274.88 0.0487503 0 -3.41822
-219.124 0.0418277 0 -5.07969
-164.972 0.0340929 0 -6.40438
-220.735 0.0411427 0 -5.08297
-219.93 0.0414857 0 -5.08131
-273.874 0.0489605 0 -3.4162
-271.86 0.0493792 0 -3.4123
-163.159 0.0354445 0 -6.40083
-164.368 0.0345447 0 -6.40317
-272.867 0.0491701 0 -3.41423
-217.513 0.042509 0 -5.07657
-163.763 0.0349952 0 -6.40198
-219.124 0.0418277 0 -5.07969
-218.318 0.0421688 0 -5.07811
-271.86 0.0493792 0 -3.4123
-269.846 0.0497955 0 -3.4086
-161.95 0.0363392 0 -6.39861
-163.159 0.0354445 0 -6.40083
-270.853 0.0495877 0 -3.41043
-215.902 0.0431863 0 -5.07361
-162.555 0.0358925 0 -6.3997
-217.513 0.042509 0 -5.07657
-216.707 0.0428481 0 -5.07507
-269.846 0.0497955 0 -3.4086
-267.832 0.0502095 0 -3.40509
-160.742 0.0372289 0 -6.3965
-161.95 0.0363392 0 -6.39861
-268.839 0.0500028 0 -3.40682
-214.29 0.0438598 0 -5.0708
-161.346 0.0367847 0 -6.39754
-215.902 0.0431863 0 -5.07361
-215.096 0.0435236 0 -5.07219
-267.832 0.0502095 0 -3.40509
-265.819 0.0506211 0 -3.40177
-159.533 0.0381134 0 -6.39451
-160.742 0.0372289 0 -6.3965
-266.825 0.0504156 0 -3.40341
-212.679 0.0445293 0 -5.06815
-160.137 0.0376718 0 -6.39549
-214.29 0.0438598 0 -5.0708
-213.485 0.0441951 0 -5.06946
-265.819 0.0506211 0 -3.40177
-263.805 0.0510302 0 -3.39865
-158.325 0.0389927 0 -6.39263
-159.533 0.0381134 0 -6.39451
-264.812 0.0508259 0 -3.40019
-211.068 0.0451948 0 -5.06565
-158.929 0.0385537 0 -6.39356
-212.679 0.0445293 0 -5.06815
-211.874 0.0448626 0 -5.06688
-263.805 0.0510302 0 -3.39865
-261.791 0.0514367 0 -3.39571
-157.116 0.0398667 0 -6.39087
-158.325 0.0389927 0 -6.39263
-262.798 0.0512338 0 -3.39715
-209.457 0.0458563 0 -5.0633
-157.72 0.0394304 0 -6.39174
-211.068 0.0451948 0 -5.06565
-210.262 0.0455261 0 -5.06445
-261.791 0.0514367 0 -3.39571
-259.777 0.0518407 0 -3.39295
-155.907 0.0407354 0 -6.38922
-157.116 0.0398667 0 -6.39087
-260.784 0.0516391 0 -3.39431
-207.846 0.0465136 0 -5.0611
-156.512 0.0403017 0 -6.39003
-209.457 0.0458563 0 -5.0633
-208.651 0.0461855 0 -5.06218
-259.777 0.0518407 0 -3.39295
-257.763 0.0522421 0 -3.39039
-154.699 0.0415987 0 -6.38768
-155.907 0.0407354 0 -6.38922
-258.77 0.0520418 0 -3.39165
-206.234 0.0471668 0 -5.05905
-155.303 0.0411677 0 -6.38844
-207.846 0.0465136 0 -5.0611
-207.04 0.0468407 0 -5.06005
-257.763 0.0522421 0 -3.39039
-255.75 0.0526409 0 -3.38801
-153.49 0.0424566 0 -6.38625
-154.699 0.0415987 0 -6.38768
-256.757 0.0524418 0 -3.38918
-204.623 0.0478158 0 -5.05714
-154.095 0.0420283 0 -6.38695
-206.234 0.0471668 0 -5.05905
-205.429 0.0474918 0 -5.05807
-255.75 0.0526409 0 -3.38801
-253.736 0.0530369 0 -3.38581
-152.282 0.043309 0 -6.38493
-153.49 0.0424566 0 -6.38625
-254.743 0.0528392 0 -3.38689
-203.012 0.0484605 0 -5.05538
-152.886 0.0428835 0 -6.38558
-204.623 0.0478158 0 -5.05714
-203.818 0.0481387 0 -5.05624
-253.736 0.0530369 0 -3.38581
-251.722 0.0534301 0 -3.38379
-151.073 0.0441559 0 -6.38373
-152.282 0.043309 0 -6.38493
-252.729 0.0532339 0 -3.38478
-201.401 0.0491009 0 -5.05377
-151.677 0.0437332 0 -6.38432
-203.012 0.0484605 0 -5.05538
-202.206 0.0487813 0 -5.05456
-251.722 0.0534301 0 -3.38379
-249.708 0.0538206 0 -3.38196
-149.864 0.0449973 0 -6.38262
-151.073 0.0441559 0 -6.38373
-250.715 0.0536257 0 -3.38285
-199.79 0.049737 0 -5.0523
-150.469 0.0445773 0 -6.38316
-201.401 0.0491009 0 -5.05377
-200.595 0.0494195 0 -5.05302
-249.708 0.0538206 0 -3.38196
-247.694 0.0542082 0 -3.3803
-148.656 0.0458329 0 -6.38163
-149.864 0.0449973 0 -6.38262
-248.701 0.0540148 0 -3.38111
-198.178 0.0503687 0 -5.05098
-149.26 0.0454158 0 -6.38211
-199.79 0.049737 0 -5.0523
-198.984 0.0500534 0 -5.05162
-247.694 0.0542082 0 -3.3803
-245.681 0.054593 0 -3.37882
-147.447 0.046663 0 -6.38074
-148.656 0.0458329 0 -6.38163
-246.688 0.054401 0 -3.37954
-196.567 0.0509959 0 -5.04979
-148.052 0.0462487 0 -6.38117
-198.178 0.0503687 0 -5.05098
-197.373 0.0506829 0 -5.05037
-245.681 0.054593 0 -3.37882
-243.667 0.0549748 0 -3.37751
-146.239 0.0474872 0 -6.37996
-147.447 0.046663 0 -6.38074
-244.674 0.0547842 0 -3.37814
-194.956 0.0516187 0 -5.04875
-146.843 0.0470758 0 -6.38034
-196.567 0.0509959 0 -5.04979
-195.761 0.0513079 0 -5.04925
-243.667 0.0549748 0 -3.37751
-241.653 0.0553536 0 -3.37638
-145.03 0.0483057 0 -6.37928
-146.239 0.0474872 0 -6.37996
-242.66 0.0551646 0 -3.37693
-193.345 0.0522369 0 -5.04785
-145.634 0.0478972 0 -6.37961
-194.956 0.0516187 0 -5.04875
-194.15 0.0519284 0 -5.04828
-241.653 0.0553536 0 -3.37638
-239.639 0.0557294 0 -3.37543
-143.821 0.0491184 0 -6.37871
-145.03 0.0483057 0 -6.37928
-240.646 0.0555419 0 -3.37588
-191.733 0.0528505 0 -5.04708
-144.426 0.0487128 0 -6.37898
-193.345 0.0522369 0 -5.04785
-192.539 0.0525443 0 -5.04745
-239.639 0.0557294 0 -3.37543
-237.625 0.0561021 0 -3.37464
-142.613 0.0499252 0 -6.37824
-143.821 0.0491184 0 -6.37871
-238.632 0.0559161 0 -3.37501
-190.122 0.0534595 0 -5.04645
-143.217 0.0495226 0 -6.37846
-191.733 0.0528505 0 -5.04708
-190.928 0.0531556 0 -5.04675
-237.625 0.0561021 0 -3.37464
-235.612 0.0564717 0 -3.37403
-141.404 0.0507261 0 -6.37787
-142.613 0.0499252 0 -6.37824
-236.618 0.0562873 0 -3.37431
-188.511 0.0540637 0 -5.04596
-142.009 0.0503264 0 -6.37804
-190.122 0.0534595 0 -5.04645
-189.317 0.0537622 0 -5.04619
-235.612 0.0564717 0 -3.37403
-233.598 0.0568381 0 -3.37358
-140.196 0.051521 0 -6.3776
-141.404 0.0507261 0 -6.37787
-234.605 0.0566553 0 -3.37378
-186.9 0.0546633 0 -5.0456
-140.8 0.0511243 0 -6.37772
-188.511 0.0540638 0 -5.04596
-187.705 0.0543641 0 -5.04576
-233.598 0.0568381 0 -3.37358
-231.584 0.0572014 0 -3.3733
-138.987 0.0523098 0 -6.37743
-140.196 0.051521 0 -6.3776
-232.591 0.0570202 0 -3.37342
-185.288 0.0552581 0 -5.04538
-139.591 0.0519161 0 -6.3775
-186.9 0.0546633 0 -5.0456
-186.094 0.0549613 0 -5.04547
-231.584 0.0572014 0 -3.3733
-229.57 0.0575613 0 -3.37319
-137.779 0.0530926 0 -6.37736
-138.987 0.0523098 0 -6.37743
-230.577 0.0573818 0 -3.37322
-183.677 0.055848 0 -5.04529
-138.383 0.052702 0 -6.37739
-185.288 0.0552581 0 -5.04538
-184.483 0.0555536 0 -5.04532
-229.57 0.0575613 0 -3.37319
-227.556 0.057918 0 -3.37324
-136.57 0.0538693 0 -6.37739
-137.779 0.0530926 0 -6.37736
-228.563 0.0577401 0 -3.37319
-182.066 0.0564331 0 -5.04533
-137.174 0.0534817 0 -6.37737
-183.677 0.055848 0 -5.04529
-182.872 0.0561412 0 -5.04529
-227.556 0.057918 0 -3.37324
-225.542 0.0582713 0 -3.37345
-135.361 0.0546398 0 -6.37752
-136.57 0.0538693 0 -6.37739
-226.549 0.0580951 0 -3.37332
-180.455 0.0570132 0 -5.0455
-135.966 0.0542553 0 -6.37745
-182.066 0.0564331 0 -5.04533
-181.26 0.0567238 0 -5.0454
-225.542 0.0582713 0 -3.37345
-223.529 0.0586213 0 -3.37382
-134.153 0.055404 0 -6.37775
-135.361 0.0546398 0 -6.37752
-224.535 0.0584467 0 -3.37362
-178.843 0.0575884 0 -5.0458
-134.757 0.0550227 0 -6.37762
-180.455 0.0570132 0 -5.0455
-179.649 0.0573014 0 -5.04564
-223.529 0.0586213 0 -3.37382
-221.515 0.0589678 0 -3.37436
-132.944 0.056162 0 -6.37807
-134.153 0.055404 0 -6.37775
-222.522 0.0587949 0 -3.37407
-177.232 0.0581586 0 -5.04623
-133.548 0.0557838 0 -6.3779
-178.843 0.0575884 0 -5.0458
-178.038 0.0578741 0 -5.046
-221.515 0.0589678 0 -3.37436
-219.501 0.0593108 0 -3.37505
-131.736 0.0569137 0 -6.37849
-132.944 0.056162 0 -6.37807
-220.508 0.0591397 0 -3.37468
-175.621 0.0587237 0 -5.04678
-132.34 0.0565387 0 -6.37827
-177.232 0.0581586 0 -5.04623
-176.427 0.0584418 0 -5.04649
-219.501 0.0593108 0 -3.37505
-217.487 0.0596503 0 -3.3759
-130.527 0.057659 0 -6.379
-131.736 0.0569137 0 -6.37849
-218.494 0.059481 0 -3.37546
-174.01 0.0592837 0 -5.04747
-131.131 0.0572872 0 -6.37873
-175.621 0.0587237 0 -5.04678
-174.815 0.0590043 0 -5.04711
-217.487 0.0596503 0 -3.3759
-215.473 0.0599862 0 -3.37691
-129.318 0.0583979 0 -6.3796
-130.527 0.057659 0 -6.379
-216.48 0.0598187 0 -3.37639
-172.399 0.0598385 0 -5.04827
-129.923 0.0580293 0 -6.37929
-174.01 0.0592837 0 -5.04747
-173.204 0.0595618 0 -5.04785
-215.473 0.0599862 0 -3.37691
-213.459 0.0603185 0 -3.37807
-128.11 0.0591304 0 -6.3803
-129.318 0.0583979 0 -6.3796
-214.466 0.0601528 0 -3.37747
-170.787 0.0603882 0 -5.0492
-128.714 0.058765 0 -6.37994
-172.399 0.0598385 0 -5.04827
-171.593 0.060114 0 -5.04872
-213.459 0.0603185 0 -3.37807
-211.445 0.0606472 0 -3.37938
-126.901 0.0598563 0 -6.38108
-128.11 0.0591304 0 -6.3803
-212.452 0.0604833 0 -3.37871
-169.176 0.0609326 0 -5.05025
-127.505 0.0594942 0 -6.38068
-170.787 0.0603882 0 -5.0492
-169.982 0.060661 0 -5.04971
-211.445 0.0606472 0 -3.37938
-209.432 0.0609721 0 -3.38085
-125.693 0.0605757 0 -6.38196
-126.901 0.0598563 0 -6.38108
-210.438 0.0608101 0 -3.38009
-167.565 0.0614717 0 -5.05142
-126.297 0.0602169 0 -6.38151
-169.176 0.0609326 0 -5.05025
-168.37 0.0612028 0 -5.05082
-209.432 0.0609721 0 -3.38085
-207.418 0.0612933 0 -3.38246
-124.484 0.0612886 0 -6.38293
-125.693 0.0605757 0 -6.38196
-208.425 0.0611332 0 -3.38163
-165.954 0.0620055 0 -5.05271
-125.088 0.060933 0 -6.38244
-167.565 0.0614717 0 -5.05142
-166.759 0.0617393 0 -5.05205
-207.418 0.0612933 0 -3.38246
-205.404 0.0616108 0 -3.38422
-123.275 0.0619947 0 -6.38399
-124.484 0.0612886 0 -6.38293
-206.411 0.0614525 0 -3.38332
-164.342 0.0625339 0 -5.05413
-123.88 0.0616425 0 -6.38345
-165.954 0.0620055 0 -5.05271
-165.148 0.0622704 0 -5.05341
-205.404 0.0616108 0 -3.38422
-203.39 0.0619243 0 -3.38613
-122.067 0.0626942 0 -6.38514
-123.275 0.0619947 0 -6.38399
-204.397 0.061768 0 -3.38516
-162.731 0.0630569 0 -5.05565
-122.671 0.0623453 0 -6.38455
-164.342 0.0625339 0 -5.05413
-163.537 0.0627961 0 -5.05487
-203.39 0.0619243 0 -3.38613
-201.376 0.0622341 0 -3.38819
-120.858 0.0633869 0 -6.38637
-122.067 0.0626942 0 -6.38514
-202.383 0.0620797 0 -3.38714
-161.12 0.0635744 0 -5.0573
-121.462 0.0630414 0 -6.38574
-162.731 0.0630569 0 -5.05565
-161.925 0.0633163 0 -5.05646
-201.376 0.0622341 0 -3.38819
-199.362 0.0625398 0 -3.39039
-119.65 0.0640729 0 -6.38769
-120.858 0.063387 0 -6.38637
-200.369 0.0623874 0 -3.38927
-159.508 0.0640864 0 -5.05906
-120.254 0.0637308 0 -6.38702
-161.12 0.0635744 0 -5.0573
-160.314 0.0638311 0 -5.05816
-199.362 0.0625398 0 -3.39039
-197.348 0.0628417 0 -3.39273
-118.441 0.0647521 0 -6.3891
-119.65 0.0640729 0 -6.38769
-198.355 0.0626913 0 -3.39154
-157.897 0.0645929 0 -5.06093
-119.045 0.0644134 0 -6.38838
-159.508 0.0640864 0 -5.05906
-158.703 0.0643404 0 -5.05998
-197.348 0.0628417 0 -3.39273
-195.334 0.0631395 0 -3.39521
-117.232 0.0654244 0 -6.39059
-118.441 0.0647521 0 -6.3891
-196.341 0.0629911 0 -3.39395
-156.286 0.0650938 0 -5.06292
-117.837 0.0650891 0 -6.38983
-157.897 0.0645929 0 -5.06093
-157.092 0.064844 0 -5.06191
-195.334 0.0631395 0 -3.39521
-193.321 0.0634333 0 -3.39784
-116.024 0.0660897 0 -6.39216
-117.232 0.0654244 0 -6.39059
-194.328 0.0632869 0 -3.39651
-154.675 0.065589 0 -5.06502
-116.628 0.0657579 0 -6.39136
-156.286 0.0650938 0 -5.06292
-155.48 0.0653421 0 -5.06396
-193.321 0.0634333 0 -3.39784
-191.307 0.0637229 0 -3.4006
-114.815 0.0667482 0 -6.39382
-116.024 0.0660897 0 -6.39216
-192.314 0.0635786 0 -3.3992
-153.063 0.0660785 0 -5.06723
-115.42 0.0664198 0 -6.39298
-154.675 0.065589 0 -5.06502
-153.869 0.0658345 0 -5.06611
-191.307 0.0637229 0 -3.4006
-189.293 0.0640085 0 -3.4035
-113.607 0.0673996 0 -6.39556
-114.815 0.0667482 0 -6.39382
-190.3 0.0638662 0 -3.40203
-151.452 0.0665623 0 -5.06955
-114.211 0.0670747 0 -6.39468
-153.063 0.0660785 0 -5.06723
-152.258 0.0663211 0 -5.06838
-189.293 0.0640085 0 -3.4035
-187.279 0.0642898 0 -3.40653
-112.398 0.068044 0 -6.39738
-113.607 0.0673996 0 -6.39556
-188.286 0.0641497 0 -3.405
-149.841 0.0670404 0 -5.07198
-113.002 0.0677227 0 -6.39646
-151.452 0.0665623 0 -5.06955
-150.647 0.0668021 0 -5.07075
-187.279 0.0642898 0 -3.40653
-185.265 0.064567 0 -3.4097
-111.189 0.0686813 0 -6.39928
-112.398 0.068044 0 -6.39738
-186.272 0.0644289 0 -3.4081
-148.23 0.0675126 0 -5.07451
-111.794 0.0683635 0 -6.39832
-149.841 0.0670404 0 -5.07198
-149.035 0.0672772 0 -5.07323
-185.265 0.064567 0 -3.4097
-183.251 0.0648399 0 -3.413
-109.981 0.0693115 0 -6.40126
-111.189 0.0686813 0 -6.39928
-184.258 0.064704 0 -3.41133
-146.618 0.067979 0 -5.07715
-110.585 0.0689973 0 -6.40026
-148.23 0.0675126 0 -5.07451
-147.424 0.0677465 0 -5.07582
-183.251 0.0648399 0 -3.413
-181.237 0.0651085 0 -3.41643
-108.772 0.0699345 0 -6.40332
-109.981 0.0693115 0 -6.40126
-182.244 0.0649747 0 -3.4147
-145.007 0.0684394 0 -5.0799
-109.377 0.0696239 0 -6.40228
-146.618 0.067979 0 -5.07715
-145.813 0.0682099 0 -5.07851
-181.237 0.0651085 0 -3.41643
-179.223 0.0653727 0 -3.41999
-107.564 0.0705503 0 -6.40546
-108.772 0.0699345 0 -6.40332
-180.23 0.0652411 0 -3.4182
-143.396 0.068894 0 -5.08275
-108.168 0.0702433 0 -6.40438
-145.007 0.0684394 0 -5.0799
-144.202 0.0686675 0 -5.08131
-179.223 0.0653727 0 -3.41999
-177.209 0.0656325 0 -3.42368
-106.355 0.0711588 0 -6.40767
-107.564 0.0705503 0 -6.40546
-178.216 0.0655032 0 -3.42182
-141.785 0.0693425 0 -5.0857
-106.959 0.0708555 0 -6.40656
-143.396 0.068894 0 -5.08275
-142.59 0.069119 0 -5.08421
-177.209 0.0656325 0 -3.42368
-175.196 0.065888 0 -3.4275
-105.147 0.0717601 0 -6.40996
-106.355 0.0711588 0 -6.40767
-176.203 0.0657608 0 -3.42558
-140.173 0.0697851 0 -5.08876
-105.751 0.0714604 0 -6.40881
-141.785 0.0693425 0 -5.0857
-140.979 0.0695646 0 -5.08722
-175.196 0.065888 0 -3.4275
-173.182 0.0661389 0 -3.43144
-103.938 0.072354 0 -6.41233
-105.147 0.0717601 0 -6.40996
-174.189 0.066014 0 -3.42946
-138.562 0.0702215 0 -5.09191
-104.542 0.072058 0 -6.41114
-140.173 0.0697851 0 -5.08876
-139.368 0.0700041 0 -5.09032
-173.182 0.0661389 0 -3.43144
-171.168 0.0663854 0 -3.43551
-102.729 0.0729406 0 -6.41477
-103.938 0.072354 0 -6.41233
-172.175 0.0662627 0 -3.43346
-136.951 0.0706519 0 -5.09517
-103.334 0.0726483 0 -6.41354
-138.562 0.0702215 0 -5.09191
-137.757 0.0704375 0 -5.09353
-171.168 0.0663854 0 -3.43551
-169.154 0.0666273 0 -3.4397
-101.521 0.0735198 0 -6.41729
-102.729 0.0729406 0 -6.41477
-170.161 0.0665069 0 -3.43759
-135.34 0.0710761 0 -5.09852
-102.125 0.0732311 0 -6.41602
-136.951 0.0706519 0 -5.09517
-136.145 0.0708648 0 -5.09683
-169.154 0.0666273 0 -3.4397
-167.14 0.0668646 0 -3.44401
-100.312 0.0740915 0 -6.41987
-101.521 0.0735198 0 -6.41729
-168.147 0.0667465 0 -3.44184
-133.728 0.0714942 0 -5.10197
-100.917 0.0738066 0 -6.41857
-135.34 0.0710761 0 -5.09852
-134.534 0.0712859 0 -5.10023
-167.14 0.0668646 0 -3.44401
-165.126 0.0670973 0 -3.44844
-99.1037 0.0746557 0 -6.42253
-100.312 0.0740915 0 -6.41987
-166.133 0.0669815 0 -3.44621
-132.117 0.071906 0 -5.10551
-99.708 0.0743745 0 -6.42119
-133.728 0.0714942 0 -5.10197
-132.923 0.0717009 0 -5.10373
-165.126 0.0670973 0 -3.44844
-163.112 0.0673253 0 -3.45298
-97.8951 0.0752123 0 -6.42526
-99.1037 0.0746557 0 -6.42253
-164.119 0.0672118 0 -3.4507
-130.506 0.0723115 0 -5.10915
-98.4994 0.0749349 0 -6.42389
-132.117 0.071906 0 -5.10551
-131.312 0.0721095 0 -5.10732
-163.112 0.0673253 0 -3.45298
-161.098 0.0675486 0 -3.45765
-96.6865 0.0757614 0 -6.42806
-97.8951 0.0752123 0 -6.42526
-162.105 0.0674375 0 -3.4553
-128.895 0.0727108 0 -5.11288
-97.2908 0.0754878 0 -6.42665
-130.506 0.0723115 0 -5.10915
-129.7 0.072512 0 -5.111
-161.098 0.0675486 0 -3.45765
-159.084 0.0677671 0 -3.46243
-95.478 0.0763029 0 -6.43093
-96.6865 0.0757614 0 -6.42806
-160.091 0.0676584 0 -3.46002
-127.283 0.0731037 0 -5.11671
-96.0822 0.0760331 0 -6.42948
-128.895 0.0727108 0 -5.11288
-128.089 0.072908 0 -5.11478
-159.084 0.0677671 0 -3.46243
-157.07 0.0679809 0 -3.46732
-94.2694 0.0768368 0 -6.43386
-95.478 0.0763029 0 -6.43093
-158.077 0.0678746 0 -3.46486
-125.672 0.0734902 0 -5.12062
-94.8737 0.0765708 0 -6.43239
-127.283 0.0731037 0 -5.11671
-126.478 0.0732978 0 -5.11865
-157.07 0.0679809 0 -3.46732
-155.057 0.0681898 0 -3.47233
-93.0608 0.0773629 0 -6.43687
-94.2694 0.0768368 0 -6.43386
-156.063 0.0680859 0 -3.46981
-124.061 0.0738703 0 -5.12463
-93.6651 0.0771008 0 -6.43536
-125.672 0.0734902 0 -5.12062
-124.867 0.0736811 0 -5.12261
-155.057 0.0681898 0 -3.47233
-153.043 0.0683939 0 -3.47745
-91.8523 0.0778813 0 -6.43994
-93.0608 0.0773629 0 -6.43687
-154.05 0.0682924 0 -3.47487
-122.45 0.074244 0 -5.12872
-92.4565 0.0776231 0 -6.4384
-124.061 0.0738703 0 -5.12463
-123.255 0.074058 0 -5.12666
-153.043 0.0683939 0 -3.47745
-151.029 0.068593 0 -3.48267
-90.6437 0.078392 0 -6.44308
-91.8523 0.0778813 0 -6.43994
-152.036 0.0684941 0 -3.48005
-120.838 0.0746111 0 -5.1329
-91.248 0.0781376 0 -6.4415
-122.45 0.074244 0 -5.12872
-121.644 0.0744284 0 -5.1308
-151.029 0.068593 0 -3.48267
-149.015 0.0687872 0 -3.48801
-89.4351 0.0788949 0 -6.44628
-90.6437 0.078392 0 -6.44308
-150.022 0.0686907 0 -3.48533
-119.227 0.0749718 0 -5.13717
-90.0394 0.0786444 0 -6.44467
-120.838 0.0746111 0 -5.1329
-120.033 0.0747923 0 -5.13503
-149.015 0.0687872 0 -3.48801
-147.001 0.0689765 0 -3.49345
-88.2266 0.0793899 0 -6.44954
-89.4351 0.0788949 0 -6.44628
-148.008 0.0688825 0 -3.49072
-117.616 0.0753258 0 -5.14153
-88.8309 0.0791434 0 -6.4479
-119.227 0.0749718 0 -5.13717
-118.421 0.0751496 0 -5.13934
-147.001 0.0689765 0 -3.49345
-144.987 0.0691607 0 -3.499
-87.018 0.0798771 0 -6.45287
-88.2266 0.0793899 0 -6.44954
-145.994 0.0690692 0 -3.49621
-116.005 0.0756733 0 -5.14596
-87.6223 0.0796345 0 -6.4512
-117.616 0.0753258 0 -5.14153
-116.81 0.0755004 0 -5.14373
-144.987 0.0691607 0 -3.499
-142.973 0.0693398 0 -3.50465
-85.8095 0.0803563 0 -6.45626
-87.018 0.0798771 0 -6.45287
-143.98 0.0692509 0 -3.50181
-114.393 0.0760141 0 -5.15049
-86.4138 0.0801177 0 -6.45456
-116.005 0.0756733 0 -5.14596
-115.199 0.0758445 0 -5.14821
-142.973 0.0693398 0 -3.50465
-140.959 0.0695139 0 -3.5104
-84.6009 0.0808276 0 -6.45972
-85.8095 0.0803563 0 -6.45626
-141.966 0.0694275 0 -3.50751
-112.782 0.0763482 0 -5.15509
-85.2052 0.080593 0 -6.45798
-114.393 0.0760141 0 -5.15049
-113.588 0.0761819 0 -5.15278
-140.959 0.0695139 0 -3.5104
-138.945 0.0696828 0 -3.51625
-83.3924 0.0812909 0 -6.46323
-84.6009 0.0808276 0 -6.45972
-139.952 0.069599 0 -3.51331
-111.171 0.0766756 0 -5.15977
-83.9966 0.0810603 0 -6.46146
-112.782 0.0763482 0 -5.15509
-111.976 0.0765127 0 -5.15742
-138.945 0.0696828 0 -3.51625
-136.931 0.0698466 0 -3.52221
-82.1838 0.0817463 0 -6.4668
-83.3924 0.0812909 0 -6.46323
-137.938 0.0697653 0 -3.51922
-109.56 0.0769962 0 -5.16454
-82.7881 0.0815196 0 -6.46501
-111.171 0.0766756 0 -5.15977
-110.365 0.0768367 0 -5.16214
-136.931 0.0698466 0 -3.52221
-134.917 0.0700051 0 -3.52826
-80.9753 0.0821935 0 -6.47043
-82.1838 0.0817463 0 -6.4668
-135.924 0.0699265 0 -3.52522
-107.948 0.0773101 0 -5.16938
-81.5796 0.0819709 0 -6.46861
-109.56 0.0769962 0 -5.16454
-108.754 0.077154 0 -5.16695
-134.917 0.0700051 0 -3.52826
-132.903 0.0701584 0 -3.53441
-79.7667 0.0826327 0 -6.47412
-80.9753 0.0821935 0 -6.47043
-133.91 0.0700824 0 -3.53132
-106.337 0.0776171 0 -5.1743
-80.371 0.0824141 0 -6.47227
-107.948 0.0773101 0 -5.16938
-107.143 0.0774644 0 -5.17183
-132.903 0.0701584 0 -3.53441
-130.889 0.0703065 0 -3.54065
-78.5582 0.0830638 0 -6.47787
-79.7667 0.0826327 0 -6.47412
-131.896 0.0702331 0 -3.53752
-104.726 0.0779173 0 -5.17929
-79.1625 0.0828492 0 -6.47599
-106.337 0.0776171 0 -5.1743
-105.531 0.077768 0 -5.17679
-130.889 0.0703065 0 -3.54065
-128.876 0.0704492 0 -3.54699
-77.3497 0.0834867 0 -6.48167
-78.5582 0.0830638 0 -6.47787
-129.883 0.0703785 0 -3.54381
-103.115 0.0782105 0 -5.18436
-77.9539 0.0832762 0 -6.47976
-104.726 0.0779173 0 -5.17929
-103.92 0.0780648 0 -5.18182
-128.876 0.0704492 0 -3.54699
-126.862 0.0705865 0 -3.55342
-76.1411 0.0839014 0 -6.48553
-77.3497 0.0834867 0 -6.48167
-127.869 0.0705185 0 -3.55019
-101.503 0.0784969 0 -5.18951
-76.7454 0.083695 0 -6.48359
-103.115 0.0782105 0 -5.18436
-102.309 0.0783546 0 -5.18693
-126.862 0.0705865 0 -3.55342
-124.848 0.0707185 0 -3.55994
-74.9326 0.0843079 0 -6.48944
-76.1411 0.0839014 0 -6.48553
-125.855 0.0706532 0 -3.55666
-99.8921 0.0787762 0 -5.19472
-75.5368 0.0841057 0 -6.48748
-101.503 0.0784969 0 -5.18951
-100.698 0.0786374 0 -5.19211
-124.848 0.0707185 0 -3.55994
-122.834 0.0708451 0 -3.56655
-73.724 0.0847061 0 -6.49341
-74.9326 0.0843079 0 -6.48944
-123.841 0.0707825 0 -3.56323
-98.2809 0.0790486 0 -5.20001
-74.3283 0.084508 0 -6.49142
-99.8921 0.0787762 0 -5.19472
-99.0865 0.0789133 0 -5.19736
-122.834 0.0708451 0 -3.56655
-120.82 0.0709662 0 -3.57324
-72.5155 0.0850961 0 -6.49743
-73.724 0.0847061 0 -6.49341
-121.827 0.0709063 0 -3.56988
-96.6696 0.079314 0 -5.20537
-73.1198 0.0849022 0 -6.49541
-98.2809 0.0790486 0 -5.20001
-97.4753 0.0791822 0 -5.20268
-120.82 0.0709662 0 -3.57324
-118.806 0.0710818 0 -3.58003
-71.307 0.0854778 0 -6.5015
-72.5155 0.0850961 0 -6.49743
-119.813 0.0710247 0 -3.57662
-95.0584 0.0795723 0 -5.2108
-71.9112 0.085288 0 -6.49946
-96.6696 0.079314 0 -5.20537
-95.864 0.079444 0 -5.20808
-118.806 0.0710818 0 -3.58003
-116.792 0.0711919 0 -3.5869
-70.0985 0.0858511 0 -6.50562
-71.307 0.0854778 0 -6.5015
-117.799 0.0711375 0 -3.58345
-93.4472 0.0798235 0 -5.21629
-70.7027 0.0856655 0 -6.50356
-95.0584 0.0795723 0 -5.2108
-94.2528 0.0796987 0 -5.21354
-116.792 0.0711919 0 -3.5869
-114.778 0.0712964 0 -3.59385
-68.8899 0.086216 0 -6.5098
-70.0985 0.0858511 0 -6.50562
-115.785 0.0712449 0 -3.59036
-91.8359 0.0800675 0 -5.22186
-69.4942 0.0860346 0 -6.5077
-93.4472 0.0798235 0 -5.21629
-92.6415 0.0799464 0 -5.21907
-114.778 0.0712964 0 -3.59385
-112.764 0.0713954 0 -3.60088
-67.6814 0.0865725 0 -6.51402
-68.8899 0.086216 0 -6.5098
-113.771 0.0713466 0 -3.59736
-90.2247 0.0803044 0 -5.22749
-68.2857 0.0863953 0 -6.5119
-91.8359 0.0800675 0 -5.22186
-91.0303 0.0801869 0 -5.22466
-112.764 0.0713954 0 -3.60088
-110.75 0.0714887 0 -3.608
-66.4729 0.0869206 0 -6.51829
-67.6814 0.0865725 0 -6.51402
-111.757 0.0714428 0 -3.60443
-88.6134 0.0805341 0 -5.23318
-67.0771 0.0867476 0 -6.51615
-90.2247 0.0803044 0 -5.22749
-89.4191 0.0804202 0 -5.23033
-110.75 0.0714887 0 -3.608
-108.736 0.0715764 0 -3.61519
-65.2644 0.0872602 0 -6.5226
-66.4729 0.0869206 0 -6.51829
-109.743 0.0715333 0 -3.61159
-87.0022 0.0807566 0 -5.23894
-65.8686 0.0870914 0 -6.52044
-88.6134 0.0805341 0 -5.23318
-87.8078 0.0806462 0 -5.23605
-108.736 0.0715764 0 -3.61519
-106.722 0.0716584 0 -3.62247
-64.0558 0.0875913 0 -6.52697
-65.2644 0.0872602 0 -6.5226
-107.729 0.0716181 0 -3.61882
-85.391 0.0809718 0 -5.24476
-64.6601 0.0874268 0 -6.52478
-87.0022 0.0807566 0 -5.23894
-86.1966 0.0808651 0 -5.24184
-106.722 0.0716584 0 -3.62247
-104.708 0.0717346 0 -3.62981
-62.8473 0.0879139 0 -6.53138
-64.0558 0.0875913 0 -6.52697
-105.715 0.0716972 0 -3.62613
-83.7797 0.0811798 0 -5.25064
-63.4516 0.0877537 0 -6.52917
-85.391 0.0809718 0 -5.24476
-84.5853 0.0810767 0 -5.24769
-104.708 0.0717346 0 -3.62981
-102.694 0.0718051 0 -3.63724
-61.6388 0.0882279 0 -6.53584
-62.8473 0.0879139 0 -6.53138
-103.701 0.0717706 0 -3.63352
-82.1685 0.0813804 0 -5.25658
-62.2431 0.088072 0 -6.5336
-83.7797 0.0811797 0 -5.25064
-82.9741 0.081281 0 -5.2536
-102.694 0.0718051 0 -3.63724
-100.681 0.0718699 0 -3.64474
-60.4303 0.0885334 0 -6.54033
-61.6388 0.0882279 0 -6.53584
-101.687 0.0718382 0 -3.64098
-80.5572 0.0815736 0 -5.26257
-61.0346 0.0883817 0 -6.53808
-82.1685 0.0813804 0 -5.25658
-81.3629 0.0814779 0 -5.25957
-100.681 0.0718699 0 -3.64474
-98.6666 0.0719288 0 -3.65231
-59.2218 0.0888302 0 -6.54488
-60.4303 0.0885334 0 -6.54033
-99.6735 0.0719 0 -3.64851
-78.946 0.0817595 0 -5.26863
-59.8261 0.0886829 0 -6.5426
-80.5572 0.0815736 0 -5.26257
-79.7516 0.0816675 0 -5.2656
-98.6666 0.0719288 0 -3.65231
-96.6526 0.0719818 0 -3.65995
-58.0133 0.0891184 0 -6.54946
-59.2218 0.0888302 0 -6.54488
-97.6596 0.071956 0 -3.65612
-77.3348 0.081938 0 -5.27474
-58.6175 0.0889753 0 -6.54716
-78.946 0.0817595 0 -5.26863
-78.1404 0.0818497 0 -5.27168
-96.6526 0.0719818 0 -3.65995
-94.6387 0.072029 0 -3.66766
-56.8048 0.0893979 0 -6.55409
-58.0133 0.0891184 0 -6.54946
-95.6457 0.0720062 0 -3.66379
-75.7236 0.0821091 0 -5.28091
-57.409 0.0892592 0 -6.55177
-77.3348 0.081938 0 -5.27474
-76.5292 0.0820245 0 -5.27782
-94.6387 0.072029 0 -3.66766
-92.6248 0.0720703 0 -3.67543
-55.5963 0.0896687 0 -6.55876
-56.8048 0.0893979 0 -6.55409
-93.6317 0.0720504 0 -3.67154
-74.1123 0.0822727 0 -5.28714
-56.2005 0.0895344 0 -6.55642
-75.7236 0.0821091 0 -5.28091
-74.9179 0.0821918 0 -5.28402
-92.6248 0.0720703 0 -3.67543
-90.6108 0.0721056 0 -3.68328
-54.3878 0.0899308 0 -6.56346
-55.5963 0.0896687 0 -6.55876
-91.6178 0.0720887 0 -3.67935
-72.5011 0.0824288 0 -5.29341
-54.992 0.0898008 0 -6.56111
-74.1123 0.0822727 0 -5.28714
-73.3067 0.0823516 0 -5.29027
-90.6108 0.0721056 0 -3.68328
-88.5969 0.072135 0 -3.69119
-53.1793 0.0901841 0 -6.56821
-54.3878 0.0899308 0 -6.56346
-89.6038 0.072121 0 -3.68722
-70.8899 0.0825773 0 -5.29974
-53.7835 0.0900585 0 -6.56583
-72.5011 0.0824288 0 -5.29341
-71.6955 0.082504 0 -5.29657
-88.5969 0.072135 0 -3.69119
-86.5829 0.0721584 0 -3.69916
-51.9708 0.0904287 0 -6.57299
-53.1793 0.0901841 0 -6.56821
-87.5899 0.0721474 0 -3.69516
-69.2786 0.0827184 0 -5.30612
-52.5751 0.0903075 0 -6.5706
-70.8899 0.0825773 0 -5.29974
-70.0843 0.0826488 0 -5.30292
-86.5829 0.0721584 0 -3.69916
-84.569 0.0721757 0 -3.70719
-50.7623 0.0906645 0 -6.57782
-51.9708 0.0904287 0 -6.57299
-85.576 0.0721678 0 -3.70317
-67.6674 0.0828518 0 -5.31255
-51.3666 0.0905477 0 -6.5754
-69.2786 0.0827184 0 -5.30612
-68.473 0.082786 0 -5.30933
-84.569 0.0721757 0 -3.70719
-82.555 0.072187 0 -3.71529
-49.5538 0.0908914 0 -6.58267
-50.7623 0.0906645 0 -6.57782
-83.562 0.0721821 0 -3.71123
-66.0562 0.0829776 0 -5.31902
-50.1581 0.090779 0 -6.58024
-67.6674 0.0828518 0 -5.31255
-66.8618 0.0829157 0 -5.31578
-82.555 0.072187 0 -3.71529
-80.5411 0.0721922 0 -3.72344
-48.3453 0.0911095 0 -6.58757
-49.5538 0.0908914 0 -6.58267
-81.5481 0.0721904 0 -3.71936
-64.445 0.0830959 0 -5.32555
-48.9496 0.0910016 0 -6.58512
-66.0562 0.0829776 0 -5.31902
-65.2506 0.0830377 0 -5.32228
-80.5411 0.0721922 0 -3.72344
-78.5271 0.0721913 0 -3.73165
-47.1369 0.0913187 0 -6.5925
-48.3453 0.0911095 0 -6.58757
-79.5341 0.0721925 0 -3.72754
-62.8337 0.0832064 0 -5.33212
-47.7411 0.0912152 0 -6.59003
-64.445 0.0830959 0 -5.32555
-63.6394 0.0831521 0 -5.32883
-78.5271 0.0721913 0 -3.73165
-76.5132 0.0721842 0 -3.73992
-45.9284 0.091519 0 -6.59746
-47.1369 0.0913187 0 -6.5925
-77.5202 0.0721885 0 -3.73578
-61.2225 0.0833093 0 -5.33873
-46.5326 0.09142 0 -6.59497
-62.8337 0.0832064 0 -5.33212
-62.0281 0.0832588 0 -5.33542
-76.5132 0.0721842 0 -3.73992
-74.4993 0.072171 0 -3.74824
-44.7199 0.0917104 0 -6.60245
-45.9284 0.091519 0 -6.59746
-75.5062 0.0721784 0 -3.74407
-59.6113 0.0834045 0 -5.34539
-45.3241 0.0916158 0 -6.59995
-61.2225 0.0833093 0 -5.33873
-60.4169 0.0833579 0 -5.34206
-74.4993 0.072171 0 -3.74824
-72.4853 0.0721516 0 -3.75662
-43.5114 0.0918928 0 -6.60748
-44.7199 0.0917104 0 -6.60245
-73.4923 0.0721621 0 -3.75242
-58.0001 0.0834919 0 -5.35209
-44.1157 0.0918027 0 -6.60496
-59.6113 0.0834045 0 -5.34539
-58.8057 0.0834492 0 -5.34874
-72.4853 0.0721516 0 -3.75662
-70.4714 0.072126 0 -3.76505
-42.3029 0.0920663 0 -6.61254
-43.5114 0.0918928 0 -6.60748
-71.4783 0.0721396 0 -3.76083
-56.3889 0.0835716 0 -5.35884
-42.9072 0.0919807 0 -6.61
-58.0001 0.0834919 0 -5.35209
-57.1945 0.0835327 0 -5.35546
-70.4714 0.072126 0 -3.76505
-68.4574 0.0720941 0 -3.77352
-41.0945 0.0922307 0 -6.61762
-42.3029 0.0920663 0 -6.61254
-69.4644 0.0721108 0 -3.76928
-54.7776 0.0836435 0 -5.36562
-41.6987 0.0921496 0 -6.61508
-56.3889 0.0835716 0 -5.35884
-55.5833 0.0836085 0 -5.36222
-68.4574 0.0720941 0 -3.77352
-66.4435 0.072056 0 -3.78205
-39.886 0.0923862 0 -6.62274
-41.0945 0.0922307 0 -6.61762
-67.4504 0.0720758 0 -3.77778
-53.1664 0.0837075 0 -5.37244
-40.4902 0.0923096 0 -6.62018
-54.7776 0.0836435 0 -5.36562
-53.972 0.0836765 0 -5.36903
-66.4435 0.072056 0 -3.78205
-64.4295 0.0720115 0 -3.79063
-38.6775 0.0925325 0 -6.62789
-39.886 0.0923862 0 -6.62274
-65.4365 0.0720345 0 -3.78633
-51.5552 0.0837637 0 -5.3793
-39.2818 0.0924605 0 -6.62531
-53.1664 0.0837075 0 -5.37244
-52.3608 0.0837366 0 -5.37587
-64.4295 0.0720115 0 -3.79063
-62.4156 0.0719607 0 -3.79925
-37.4691 0.0926697 0 -6.63306
-38.6775 0.0925325 0 -6.62789
-63.4225 0.0719869 0 -3.79493
-49.944 0.0838121 0 -5.3862
-38.0733 0.0926022 0 -6.63047
-51.5552 0.0837637 0 -5.3793
-50.7496 0.0837889 0 -5.38275
-62.4156 0.0719607 0 -3.79925
-60.4016 0.0719035 0 -3.80791
-36.2606 0.0927978 0 -6.63826
-37.4691 0.0926697 0 -6.63306
-61.4086 0.0719329 0 -3.80358
-48.3328 0.0838525 0 -5.39313
-36.8648 0.0927349 0 -6.63566
-49.944 0.0838121 0 -5.3862
-49.1384 0.0838333 0 -5.38966
-60.4016 0.0719035 0 -3.80791
-58.3877 0.0718399 0 -3.81662
-35.0522 0.0929168 0 -6.64349
-36.2606 0.0927978 0 -6.63826
-59.3946 0.0718725 0 -3.81226
-46.7216 0.083885 0 -5.4001
-35.6564 0.0928584 0 -6.64087
-48.3328 0.0838525 0 -5.39313
-47.5272 0.0838697 0 -5.39661
-58.3877 0.0718399 0 -3.81662
-56.3737 0.07177 0 -3.82537
-33.8437 0.0930266 0 -6.64874
-35.0522 0.0929168 0 -6.64349
-57.3807 0.0718058 0 -3.82099
-45.1104 0.0839095 0 -5.4071
-34.4479 0.0929728 0 -6.64611
-46.7216 0.083885 0 -5.4001
-45.916 0.0838982 0 -5.4036
-56.3737 0.07177 0 -3.82537
-54.3598 0.0716936 0 -3.83416
-32.6352 0.0931273 0 -6.65402
-33.8437 0.0930266 0 -6.64874
-55.3667 0.0717326 0 -3.82976
-43.4992 0.0839262 0 -5.41414
-33.2395 0.0930781 0 -6.65137
-45.1104 0.0839095 0 -5.4071
-44.3048 0.0839189 0 -5.41062
-54.3598 0.0716936 0 -3.83416
-52.3458 0.071611 0 -3.84299
-31.4268 0.0932191 0 -6.65931
-32.6352 0.0931273 0 -6.65402
-53.3528 0.0716531 0 -3.83857
-41.8879 0.0839351 0 -5.4212
-32.031 0.0931743 0 -6.65666
-43.4992 0.0839262 0 -5.41414
-42.6936 0.0839316 0 -5.41767
-52.3458 0.071611 0 -3.84299
-50.3319 0.0715222 0 -3.85186
-30.2183 0.0933023 0 -6.66463
-31.4268 0.0932191 0 -6.65931
-51.3388 0.0715673 0 -3.84742
-40.2767 0.0839366 0 -5.4283
-30.8226 0.0932617 0 -6.66197
-41.8879 0.0839351 0 -5.4212
-41.0823 0.0839367 0 -5.42475
-50.3319 0.0715222 0 -3.85186
-48.3179 0.0714275 0 -3.86077
-29.0099 0.0933775 0 -6.66998
-30.2183 0.0933023 0 -6.66463
-49.3249 0.0714755 0 -3.85631
-38.6655 0.0839311 0 -5.43542
-29.6141 0.0933408 0 -6.6673
-40.2767 0.0839366 0 -5.4283
-39.4711 0.0839346 0 -5.43186
-48.3179 0.0714275 0 -3.86077
-46.3039 0.0713275 0 -3.86971
-27.8015 0.0934458 0 -6.67534
-29.0099 0.0933775 0 -6.66998
-47.3109 0.0713781 0 -3.86523
-37.0543 0.0839196 0 -5.44257
-28.4057 0.0934124 0 -6.67266
-38.6655 0.0839311 0 -5.43542
-37.8599 0.083926 0 -5.43899
-46.3039 0.0713275 0 -3.86971
-44.29 0.0712232 0 -3.87868
-26.593 0.0935088 0 -6.68072
-27.8015 0.0934458 0 -6.67534
-45.297 0.0712758 0 -3.87419
-35.4431 0.0839036 0 -5.44975
-27.1972 0.0934779 0 -6.67803
-37.0543 0.0839196 0 -5.44257
-36.2487 0.0839121 0 -5.44616
-44.29 0.0712232 0 -3.87868
-42.276 0.0711156 0 -3.88769
-25.3846 0.0935686 0 -6.68613
-26.593 0.0935088 0 -6.68072
-43.283 0.0711697 0 -3.88318
-33.8319 0.0838849 0 -5.45696
-25.9888 0.093539 0 -6.68342
-35.4431 0.0839036 0 -5.44975
-34.6375 0.0838944 0 -5.45336
-42.276 0.0711156 0 -3.88769
-40.2621 0.0710063 0 -3.89675
-24.1762 0.0936266 0 -6.69155
-25.3846 0.0935686 0 -6.68613
-41.2691 0.071061 0 -3.89222
-32.2208 0.0838653 0 -5.4642
-24.7804 0.0935978 0 -6.68883
-33.8319 0.0838849 0 -5.45696
-33.0264 0.0838751 0 -5.46058
-40.2621 0.0710063 0 -3.89675
-38.2481 0.0708956 0 -3.90584
-22.9678 0.0936824 0 -6.69698
-24.1762 0.0936266 0 -6.69155
-39.2551 0.0709512 0 -3.90129
-30.6096 0.0838452 0 -5.47147
-23.572 0.093655 0 -6.69426
-32.2208 0.0838653 0 -5.4642
-31.4152 0.0838556 0 -5.46783
-38.2481 0.0708956 0 -3.90584
-36.2342 0.0707812 0 -3.91497
-21.7595 0.0937255 0 -6.70243
-22.9678 0.0936824 0 -6.69698
-37.2412 0.0708391 0 -3.9104
-28.9985 0.0838177 0 -5.47877
-22.3636 0.093707 0 -6.69971
-30.6096 0.0838452 0 -5.47147
-29.804 0.0838332 0 -5.47512
-36.2342 0.0707812 0 -3.91497
-34.2203 0.0706502 0 -3.92413
-20.5511 0.0937278 0 -6.70789
-21.7595 0.0937255 0 -6.70243
-35.2272 0.0707196 0 -3.91955
-27.3874 0.0837605 0 -5.48608
-21.1553 0.0937351 0 -6.70516
-28.9985 0.0838177 0 -5.47877
-28.1929 0.083796 0 -5.48242
-34.2203 0.0706502 0 -3.92413
-32.2064 0.0704706 0 -3.9333
-19.3428 0.0936042 0 -6.71334
-20.5511 0.0937278 0 -6.70789
-33.2133 0.0705694 0 -3.92872
-25.7763 0.0836081 0 -5.49337
-19.947 0.0936912 0 -6.71062
-27.3874 0.0837605 0 -5.48608
-26.5818 0.0837022 0 -5.48973
-32.2064 0.0704706 0 -3.9333
-30.1926 0.0701538 0 -3.94238
-18.1345 0.0931867 0 -6.71877
-19.3428 0.0936042 0 -6.71334
-31.1995 0.0703393 0 -3.93786
-24.1653 0.0832188 0 -5.50056
-18.7387 0.0934497 0 -6.71606
-25.7763 0.0836081 0 -5.49337
-24.9708 0.0834608 0 -5.49699
-30.1926 0.0701538 0 -3.94238
-28.179 0.0695323 0 -3.95119
-16.9258 0.092068 0 -6.72411
-18.1345 0.0931867 0 -6.71877
-29.1858 0.0698963 0 -3.94684
-22.5542 0.0822614 0 -5.50747
-17.5302 0.0927563 0 -6.72146
-24.1653 0.0832188 0 -5.50056
-23.3598 0.0828376 0 -5.50407
-28.179 0.0695323 0 -3.95119
-26.1657 0.0681996 0 -3.95922
-15.7163 0.0895596 0 -6.72933
-16.9258 0.092068 0 -6.72411
-27.1722 0.0689952 0 -3.95535
-20.9428 0.0801334 0 -5.51373
-16.3213 0.0910557 0 -6.72674
-22.5542 0.0822615 0 -5.50747
-21.7486 0.0814193 0 -5.51073
-26.1657 0.0681996 0 -3.95922
-24.1527 0.0655247 0 -3.96567
-14.5051 0.084138 0 -6.73424
-15.7163 0.0895596 0 -6.72933
-25.1592 0.0670894 0 -3.96271
-19.3306 0.0755484 0 -5.51859
-15.1109 0.0873542 0 -6.73184
-20.9428 0.0801334 0 -5.51373
-20.1369 0.0782316 0 -5.51637
-24.1527 0.0655247 0 -3.96567
-22.1407 0.0599828 0 -3.96853
-13.289 0.0736424 0 -6.73881
-14.5051 0.084138 0 -6.73424
-23.1464 0.063239 0 -3.96774
-17.7161 0.0665205 0 -5.52074
-13.898 0.0797333 0 -6.73655
-19.3306 0.0755484 0 -5.51859
-18.5237 0.0718607 0 -5.52017
-22.1407 0.0599828 0 -3.96853
-20.1287 0.0498241 0 -3.96506
-12.0649 0.0534716 0 -6.74262
-13.289 0.0736424 0 -6.73881
-21.135 0.0556812 0 -3.9678
-16.0965 0.0489891 0 -5.51785
-12.678 0.0651358 0 -6.74088
-17.7161 0.0665205 0 -5.52074
-16.9072 0.0589795 0 -5.52
-20.1287 0.0498241 0 -3.96506
-18.119 0.0301164 0 -3.94867
-10.8218 0.0189501 0 -6.74639
-12.0649 0.0534716 0 -6.74262
-19.123 0.0414315 0 -3.95913
-14.4665 0.0181238 0 -5.50633
-11.447 0.0384641 0 -6.74437
-16.0965 0.0489891 0 -5.51785
-15.283 0.0360637 0 -5.51373
-18.119 0.0301164 0 -3.94867
-16.104 -0.00166458 0 -3.91266
-9.55071 -0.0402035 0 -6.74972
-10.8218 0.0189501 0 -6.74639
-17.1135 0.0163639 0 -3.93355
-12.8149 -0.036016 0 -5.48122
-10.1897 -0.00702358 0 -6.74827
-14.4665 0.0181238 0 -5.50633
-13.6447 -0.00620317 0 -5.49531
-16.104 -0.00166458 0 -3.91266
-14.0904 -0.0595234 0 -3.83989
-8.21872 -0.124916 0 -6.75861
-9.55071 -0.0402035 0 -6.74972
-15.0952 -0.0274149 0 -3.88256
-11.125 -0.118387 0 -5.43688
-8.89628 -0.0790952 0 -6.75261
-12.8149 -0.036016 0 -5.48122
-11.9751 -0.071475 0 -5.46298
-14.0904 -0.0595234 0 -3.83989
-12.0372 -0.134234 0 -3.72392
-6.81395 -0.243321 0 -6.7768
-8.21872 -0.124916 0 -6.75861
-13.0747 -0.0928172 0 -3.78732
-9.35877 -0.241793 0 -5.37337
-7.52364 -0.181452 0 -6.76659
-11.125 -0.118387 0 -5.43688
-10.2568 -0.178657 0 -5.40486
-12.0372 -0.134234 0 -3.72392
-9.95655 -0.258384 0 -3.53894
-5.26661 -0.336456 0 -6.83611
-6.81395 -0.243321 0 -6.7768
-10.995 -0.195364 0 -3.64238
-7.47833 -0.371135 0 -5.30406
-6.06811 -0.297176 0 -6.79745
-9.35877 -0.241793 0 -5.37337
-8.43093 -0.302009 0 -5.3424
-9.95655 -0.258384 0 -3.53894
-7.66499 -0.316076 0 -3.33974
-3.63217 -0.328945 0 -6.95771
-5.26661 -0.336456 0 -6.83611
-8.86118 -0.290599 0 -3.43504
-5.37734 -0.447434 0 -5.29775
-4.4469 -0.362519 0 -6.88836
-7.47833 -0.371135 0 -5.30406
-6.47498 -0.441876 0 -5.27621
-7.66499 -0.316076 0 -3.33974
-5.17881 -0.308071 0 -3.21598
-1.89618 0.183375 0 -7.21442
-3.63217 -0.328945 0 -6.95771
-6.43251 -0.366649 0 -3.25519
-3.06768 -0.0912991 0 -5.50087
-2.79092 -0.165342 0 -7.06252
-5.37734 -0.447434 0 -5.29775
-4.22572 -0.338668 0 -5.377
-5.17881 -0.308071 0 -3.21598
-1.99457 0.718198 0 -3.77182
-0.590541 1.74722 0 -7.40304
-1.89618 0.183375 0 -7.21442
-3.73775 0.0480466 0 -3.35018
-0.576061 1.53797 0 -6.19772
-1.12275 0.749074 0 -7.34608
-3.06768 -0.0912991 0 -5.50087
-1.88606 0.400611 0 -5.73146
-1.99457 0.718198 0 -3.77182
0.565226 4.83338 0 -5.76827
0.165488 5.63903 0 -6.78383
-0.590541 1.74722 0 -7.40304
-0.514553 1.8011 0 -4.48914
0.293981 6.43531 0 -6.72736
-0.167355 3.4232 0 -7.28925
-0.576061 1.53797 0 -6.19772
0.34458 3.54762 0 -6.66767
0.565226 4.83338 0 -5.76827
-0.251188 20.2089 0 -5.76127
0.289869 10.0874 0 -3.55607
0.165488 5.63903 0 -6.78383
0.945444 11.1716 0 -6.77457
-0.672844 14.445 0 -3.34021
0.365364 8.07578 0 -5.59185
0.293981 6.43531 0 -6.72736
-0.152809 10.311 0 -5.80191
-214.124 -64.2487 0 19.6469
-232.566 -40.6381 0 -0.67043
-75.1086 -12.8099 0 10.2134
-76.9596 -23.087 0 30.816
-226.648 -51.6189 0 7.37396
-153.795 -26.694 0 6.01683
-73.7773 -18.009 0 19.4377
-142.374 -42.7158 0 28.142
-150.487 -35.8923 0 13.9351
-232.566 -40.6381 0 -0.67043
-236.985 -17.8028 0 -6.98219
-79.1573 -7.7318 0 -2.12214
-75.1086 -12.8099 0 10.2134
-234.538 -28.382 0 -4.74023
-157.456 -13.8818 0 -3.85917
-78.2367 -9.98364 0 2.9596
-153.795 -26.694 0 6.01683
-155.455 -19.2719 0 0.667836
-236.985 -17.8028 0 -6.98219
-239.249 -6.28277 0 -8.1878
-79.4329 -3.13587 0 -7.70884
-79.1573 -7.7318 0 -2.12214
-239.142 -10.8795 0 -8.08182
-159.357 -5.55091 0 -8.10578
-79.0126 -5.19364 0 -5.49071
-157.456 -13.8818 0 -3.85917
-158.926 -9.31017 0 -6.7945
-239.249 -6.28277 0 -8.1878
-237.441 -0.945875 0 -7.55756
-79.6608 -0.990791 0 -9.69756
-79.4329 -3.13587 0 -7.70884
-238.262 -2.97695 0 -7.83575
-158.868 -1.43724 0 -9.03701
-79.8977 -1.87893 0 -9.04212
-159.357 -5.55091 0 -8.10578
-159.241 -3.01746 0 -8.69159
-237.441 -0.945875 0 -7.55756
-235.318 0.608121 0 -7.12628
-78.8095 0.124711 0 -9.90456
-79.6608 -0.990791 0 -9.69756
-236.558 0.0887141 0 -7.34348
-157.423 0.302419 0 -8.88502
-79.1312 -0.284052 0 -9.91192
-158.868 -1.43724 0 -9.03701
-158.232 -0.368153 0 -9.07202
-235.318 0.608121 0 -7.12628
-232.863 0.985445 0 -6.8345
-78.0949 0.333436 0 -9.54714
-78.8095 0.124711 0 -9.90456
-233.972 0.908534 0 -6.93649
-155.761 0.705159 0 -8.50428
-78.531 0.276658 0 -9.76186
-157.423 0.302419 0 -8.88502
-156.565 0.619871 0 -8.66929
-232.863 0.985445 0 -6.8345
-230.882 0.792474 0 -6.73828
-77.2542 0.344109 0 -9.08722
-78.0949 0.333436 0 -9.54714
-231.875 0.910898 0 -6.78224
-154.26 0.657418 0 -8.16471
-77.6198 0.3656 0 -9.30768
-155.761 0.705159 0 -8.50428
-154.988 0.706748 0 -8.33583
-230.882 0.792474 0 -6.73828
-229.096 0.558371 0 -6.69127
-76.6074 0.226659 0 -8.72171
-77.2542 0.344109 0 -9.08722
-229.933 0.679274 0 -6.70485
-152.97 0.462511 0 -7.9246
-76.9388 0.284839 0 -8.89094
-154.26 0.657418 0 -8.16471
-153.585 0.567977 0 -8.02549
-229.096 0.558371 0 -6.69127
-227.578 0.33756 0 -6.68322
-76.0107 0.135549 0 -8.468
-76.6074 0.226659 0 -8.72171
-228.326 0.438339 0 -6.68759
-151.864 0.287439 0 -7.76984
-76.2868 0.180637 0 -8.58015
-152.97 0.462511 0 -7.9246
-152.399 0.368363 0 -7.84102
-227.578 0.33756 0 -6.68322
-226.179 0.192584 0 -6.67808
-75.5109 0.0587237 0 -8.31105
-76.0107 0.135549 0 -8.468
-226.859 0.258249 0 -6.67932
-150.885 0.156139 0 -7.67731
-75.7593 0.0925108 0 -8.37982
-151.864 0.287439 0 -7.76984
-151.361 0.216181 0 -7.7159
-226.179 0.192584 0 -6.67808
-224.878 0.0976233 0 -6.6761
-75.0453 0.0136207 0 -8.2186
-75.5109 0.0587237 0 -8.31105
-225.524 0.138524 0 -6.67771
-149.984 0.0732503 0 -7.62306
-75.2708 0.0338303 0 -8.25817
-150.885 0.156139 0 -7.67731
-150.427 0.109181 0 -7.6472
-224.878 0.0976233 0 -6.6761
-223.62 0.0445253 0 -6.6715
-74.6138 -0.0147298 0 -8.16722
-75.0453 0.0136207 0 -8.2186
-224.243 0.0674003 0 -6.67382
-149.13 0.0238183 0 -7.59203
-74.8284 -0.00286551 0 -8.18915
-149.984 0.0732503 0 -7.62306
-149.553 0.0451553 0 -7.60511
-223.62 0.0445253 0 -6.6715
-222.39 0.0149685 0 -6.66582
-74.1946 -0.0290084 0 -8.13922
-74.6138 -0.0147298 0 -8.16722
-223.003 0.0271968 0 -6.66895
-148.301 -0.0028967 0 -7.57351
-74.4022 -0.0229707 0 -8.15104
-149.13 0.0238183 0 -7.59203
-148.713 0.00820855 0 -7.5818
-222.39 0.0149685 0 -6.66582
-221.171 0.000550009 0 -6.65871
-73.7852 -0.0362613 0 -8.12418
-74.1946 -0.0290084 0 -8.13922
-221.779 0.00647245 0 -6.66235
-147.485 -0.0164605 0 -7.56181
-73.9896 -0.0334341 0 -8.13059
-148.301 -0.0028967 0 -7.57351
-147.892 -0.0109076 0 -7.56701
-221.171 0.000550009 0 -6.65871
-219.959 -0.00613192 0 -6.65099
-73.379 -0.0389243 0 -8.11577
-73.7852 -0.0362613 0 -8.12418
-220.565 -0.00355412 0 -6.65494
-146.675 -0.0224814 0 -7.55345
-73.5816 -0.0379485 0 -8.1194
-147.485 -0.0164605 0 -7.56181
-147.079 -0.0201657 0 -7.55738
-219.959 -0.00613192 0 -6.65099
-218.75 -0.00850292 0 -6.64286
-72.975 -0.0394576 0 -8.11065
-73.379 -0.0389243 0 -8.11577
-219.354 -0.00766703 0 -6.64695
-145.867 -0.0245958 0 -7.54675
-73.1769 -0.0394102 0 -8.11295
-146.675 -0.0224814 0 -7.55345
-146.271 -0.0238823 0 -7.54995
-218.75 -0.00850292 0 -6.64286
-217.541 -0.0088861 0 -6.63463
-72.5716 -0.0387995 0 -8.10704
-72.975 -0.0394576 0 -8.11065
-218.146 -0.00887648 0 -6.63875
-145.061 -0.0247342 0 -7.54081
-72.7732 -0.0392158 0 -8.10873
-145.867 -0.0245958 0 -7.54675
-145.464 -0.0248348 0 -7.54373
-217.541 -0.0088861 0 -6.63463
-216.333 -0.00830273 0 -6.62639
-72.1686 -0.0376519 0 -8.10409
-72.5716 -0.0387995 0 -8.10704
-216.937 -0.00866607 0 -6.6305
-144.256 -0.0239682 0 -7.53523
-72.3701 -0.0382721 0 -8.10552
-145.061 -0.0247342 0 -7.54081
-144.659 -0.0244246 0 -7.53799
-216.333 -0.00830273 0 -6.62639
-215.125 -0.00734504 0 -6.61825
-71.7656 -0.0362751 0 -8.1014
-72.1686 -0.0376519 0 -8.10409
-215.729 -0.00785461 0 -6.62231
-143.45 -0.0228152 0 -7.52983
-71.9671 -0.0369775 0 -8.10273
-144.256 -0.0239682 0 -7.53523
-143.853 -0.0234212 0 -7.53251
-215.125 -0.00734504 0 -6.61825
-213.917 -0.00624651 0 -6.61023
-71.3626 -0.0348313 0 -8.09881
-71.7656 -0.0362751 0 -8.1014
-214.521 -0.00680324 0 -6.61423
-142.645 -0.0215248 0 -7.52454
-71.5641 -0.0355585 0 -8.1001
-143.45 -0.0228152 0 -7.52983
-143.047 -0.0221788 0 -7.52717
-213.917 -0.00624651 0 -6.61023
-212.708 -0.00512247 0 -6.60236
-70.9595 -0.0333717 0 -8.09627
-71.3626 -0.0348313 0 -8.09881
-213.313 -0.00568519 0 -6.60628
-141.839 -0.0202016 0 -7.51933
-71.1611 -0.0341008 0 -8.09754
-142.645 -0.0215248 0 -7.52454
-142.242 -0.020864 0 -7.52192
-212.708 -0.00512247 0 -6.60236
-211.5 -0.00400707 0 -6.59464
-70.5565 -0.0319225 0 -8.09375
-70.9595 -0.0333717 0 -8.09627
-212.104 -0.00456241 0 -6.59848
-141.033 -0.0188854 0 -7.51422
-70.758 -0.0326456 0 -8.09501
-141.839 -0.0202016 0 -7.51933
-141.436 -0.0195416 0 -7.51677
-211.5 -0.00400707 0 -6.59464
-210.292 -0.00291139 0 -6.58707
-70.1534 -0.0304872 0 -8.09127
-70.5565 -0.0319225 0 -8.09375
-210.896 -0.00345687 0 -6.59083
-140.227 -0.0175868 0 -7.50919
-70.3549 -0.0312029 0 -8.09251
-141.033 -0.0188854 0 -7.51422
-140.63 -0.0182338 0 -7.5117
-210.292 -0.00291139 0 -6.58707
-209.083 -0.00183343 0 -6.57965
-69.7503 -0.0290658 0 -8.08882
-70.1534 -0.0304872 0 -8.09127
-209.687 -0.00237035 0 -6.58334
-139.421 -0.0163055 0 -7.50426
-69.9518 -0.029775 0 -8.09004
-140.227 -0.0175868 0 -7.50919
-139.824 -0.0169441 0 -7.50672
-209.083 -0.00183343 0 -6.57965
-207.875 -0.000769509 0 -6.57238
-69.3471 -0.0276556 0 -8.08641
-69.7503 -0.0290658 0 -8.08882
-208.479 -0.00129998 0 -6.576
-138.616 -0.0150382 0 -7.49942
-69.5487 -0.0283594 0 -8.08761
-139.421 -0.0163055 0 -7.50426
-139.019 -0.0156703 0 -7.50183
-207.875 -0.000769509 0 -6.57238
-206.666 0.000284287 0 -6.56526
-68.944 -0.0262541 0 -8.08404
-69.3471 -0.0276556 0 -8.08641
-207.271 -0.000241525 0 -6.5688
-137.81 -0.0137814 0 -7.49468
-69.1456 -0.0269539 0 -8.08522
-138.616 -0.0150382 0 -7.49942
-138.213 -0.0144087 0 -7.49704
-206.666 0.000284287 0 -6.56526
-205.458 0.00133073 0 -6.5583
-68.5409 -0.0248597 0 -8.08172
-68.944 -0.0262541 0 -8.08404
-206.062 0.000808296 0 -6.56176
-137.004 -0.0125326 0 -7.49004
-68.7425 -0.0255561 0 -8.08287
-137.81 -0.0137814 0 -7.49468
-137.407 -0.0131561 0 -7.49235
-205.458 0.00133073 0 -6.5583
-204.249 0.00237167 0 -6.55147
-68.1378 -0.0234711 0 -8.07945
-68.5409 -0.0248597 0 -8.08172
-204.854 0.00185181 0 -6.55487
-136.198 -0.01129 0 -7.48549
-68.3393 -0.0241647 0 -8.08058
-137.004 -0.0125326 0 -7.49004
-136.601 -0.0119106 0 -7.48775
-204.249 0.00237167 0 -6.55147
-203.041 0.00340819 0 -6.5448
-67.7346 -0.0220876 0 -8.07722
-68.1378 -0.0234711 0 -8.07945
-203.645 0.00289044 0 -6.54812
-135.392 -0.0100525 0 -7.48104
-67.9362 -0.0227787 0 -8.07833
-136.198 -0.01129 0 -7.48549
-135.795 -0.0106706 0 -7.48325
-203.041 0.00340819 0 -6.5448
-201.832 0.0044409 0 -6.53827
-67.3315 -0.0207088 0 -8.07504
-67.7346 -0.0220876 0 -8.07722
-202.437 0.003925 0 -6.54152
-134.586 -0.00881949 0 -7.47669
-67.533 -0.0213976 0 -8.07613
-135.392 -0.0100525 0 -7.48104
-134.989 -0.00943544 0 -7.47885
-201.832 0.0044409 0 -6.53827
-200.624 0.00547008 0 -6.53188
-66.9283 -0.0193345 0 -8.07291
-67.3315 -0.0207088 0 -8.07504
-201.228 0.00495592 0 -6.53506
-133.781 -0.00759075 0 -7.47243
-67.1299 -0.0200211 0 -8.07397
-134.586 -0.00881949 0 -7.47669
-134.184 -0.0082046 0 -7.47455
-200.624 0.00547008 0 -6.53188
-199.415 0.00649585 0 -6.52564
-66.5252 -0.0179647 0 -8.07083
-66.9283 -0.0193345 0 -8.07291
-200.02 0.00598339 0 -6.52874
-132.975 -0.00636613 0 -7.46827
-66.7268 -0.0186491 0 -8.07187
-133.781 -0.00759075 0 -7.47243
-133.378 -0.00697793 0 -7.47034
-199.415 0.00649585 0 -6.52564
-198.207 0.00751824 0 -6.51954
-66.122 -0.0165994 0 -8.0688
-66.5252 -0.0179647 0 -8.07083
-198.811 0.00700747 0 -6.52257
-132.169 -0.00514561 0 -7.4642
-66.3236 -0.0172815 0 -8.06981
-132.975 -0.00636613 0 -7.46827
-132.572 -0.00575536 0 -7.46622
-198.207 0.00751824 0 -6.51954
-196.998 0.00853722 0 -6.51358
-65.7189 -0.0152386 0 -8.06681
-66.122 -0.0165994 0 -8.0688
-197.603 0.00802816 0 -6.51655
-131.363 -0.00392924 0 -7.46023
-65.9205 -0.0159185 0 -8.0678
-132.169 -0.00514561 0 -7.4642
-131.766 -0.00453691 0 -7.4622
-196.998 0.00853722 0 -6.51358
-195.79 0.00955274 0 -6.50777
-65.3157 -0.0138825 0 -8.06487
-65.7189 -0.0152386 0 -8.06681
-196.394 0.00904542 0 -6.51066
-130.557 -0.00271706 0 -7.45635
-65.5173 -0.01456 0 -8.06584
-131.363 -0.00392924 0 -7.46023
-130.96 -0.00332262 0 -7.45828
-195.79 0.00955274 0 -6.50777
-194.581 0.0105647 0 -6.50209
-64.9126 -0.012531 0 -8.06298
-65.3157 -0.0138825 0 -8.06487
-195.186 0.0100592 0 -6.50491
-129.751 -0.00150915 0 -7.45257
-65.1141 -0.0132062 0 -8.06392
-130.557 -0.00271706 0 -7.45635
-130.154 -0.00211257 0 -7.45445
-194.581 0.0105647 0 -6.50209
-193.373 0.0115731 0 -6.49655
-64.5094 -0.0111843 0 -8.06113
-64.9126 -0.012531 0 -8.06298
-193.977 0.0110694 0 -6.49931
-128.945 -0.000305575 0 -7.44887
-64.711 -0.0118571 0 -8.06205
-129.751 -0.00150915 0 -7.45257
-129.348 -0.000906817 0 -7.45071
-193.373 0.0115731 0 -6.49655
-192.164 0.0125779 0 -6.49115
-64.1063 -0.00984244 0 -8.05933
-64.5094 -0.0111843 0 -8.06113
-192.769 0.012076 0 -6.49384
-128.14 0.000893596 0 -7.44527
-64.3078 -0.0105128 0 -8.06023
-128.945 -0.000305575 0 -7.44887
-128.542 0.000294566 0 -7.44706
-192.164 0.0125779 0 -6.49115
-190.956 0.0135789 0 -6.48589
-63.7031 -0.0085055 0 -8.05758
-64.1063 -0.00984244 0 -8.05933
-191.56 0.0130789 0 -6.48851
-127.334 0.00208828 0 -7.44177
-63.9047 -0.00917335 0 -8.05845
-128.14 0.000893595 0 -7.44527
-127.737 0.0014915 0 -7.44351
-190.956 0.0135789 0 -6.48589
-189.747 0.0145762 0 -6.48077
-63.2999 -0.00717355 0 -8.05587
-63.7031 -0.0085055 0 -8.05758
-190.352 0.014078 0 -6.48331
-126.528 0.00327842 0 -7.43835
-63.5015 -0.0078389 0 -8.05671
-127.334 0.00208828 0 -7.44177
-126.931 0.00268392 0 -7.44005
-189.747 0.0145762 0 -6.48077
-188.539 0.0155696 0 -6.47578
-62.8968 -0.00584667 0 -8.0542
-63.2999 -0.00717355 0 -8.05587
-189.143 0.0150734 0 -6.47826
-125.722 0.00446395 0 -7.43502
-63.0984 -0.00650947 0 -8.05503
-126.528 0.00327842 0 -7.43835
-126.125 0.00387177 0 -7.43667
-188.539 0.0155696 0 -6.47578
-187.33 0.0165592 0 -6.47092
-62.4936 -0.00452492 0 -8.05258
-62.8968 -0.00584667 0 -8.0542
-187.934 0.0160649 0 -6.47333
-124.916 0.0056448 0 -7.43178
-62.6952 -0.00518515 0 -8.05339
-125.722 0.00446395 0 -7.43502
-125.319 0.00505496 0 -7.43339
-187.33 0.0165592 0 -6.47092
-186.122 0.0175447 0 -6.4662
-62.0904 -0.00320839 0 -8.05101
-62.4936 -0.00452492 0 -8.05258
-186.726 0.0170524 0 -6.46855
-124.11 0.0068209 0 -7.42864
-62.292 -0.003866 0 -8.05179
-124.916 0.0056448 0 -7.43178
-124.513 0.00623345 0 -7.4302
-186.122 0.0175447 0 -6.4662
-184.913 0.0185263 0 -6.46162
-61.6873 -0.00189713 0 -8.04948
-62.0904 -0.00320838 0 -8.05101
-185.517 0.018036 0 -6.46389
-123.304 0.00799219 0 -7.42558
-61.8889 -0.00255209 0 -8.05024
-124.11 0.0068209 0 -7.42864
-123.707 0.00740715 0 -7.4271
-184.913 0.0185263 0 -6.46162
-183.705 0.0195038 0 -6.45716
-61.2841 -0.000591217 0 -8.04799
-61.6873 -0.00189713 0 -8.04948
-184.309 0.0190156 0 -6.45937
-122.498 0.00915862 0 -7.42261
-61.4857 -0.0012435 0 -8.04873
-123.304 0.00799219 0 -7.42558
-122.901 0.00857602 0 -7.42408
-183.705 0.0195038 0 -6.45716
-182.496 0.0204771 0 -6.45284
-60.8809 0.000709281 0 -8.04655
-61.2841 -0.000591218 0 -8.04799
-183.1 0.019991 0 -6.45498
-121.692 0.0103201 0 -7.41972
-61.0825 5.97139e-05 0 -8.04726
-122.498 0.00915862 0 -7.42261
-122.095 0.00973999 0 -7.42115
-182.496 0.0204771 0 -6.45284
-181.287 0.0214463 0 -6.44864
-60.4778 0.0020043 0 -8.04515
-60.8809 0.000709281 0 -8.04655
-181.892 0.0209623 0 -6.45072
-120.887 0.0114766 0 -7.41693
-60.6793 0.00135748 0 -8.04584
-121.692 0.0103201 0 -7.41972
-121.29 0.010899 0 -7.41832
-181.287 0.0214463 0 -6.44864
-180.079 0.0224113 0 -6.44458
-60.0746 0.00329378 0 -8.04379
-60.4778 0.0020043 0 -8.04515
-180.683 0.0219293 0 -6.4466
-120.081 0.0126281 0 -7.41422
-60.2762 0.00264974 0 -8.04447
-120.887 0.0114766 0 -7.41693
-120.484 0.012053 0 -7.41556
-180.079 0.0224113 0 -6.44458
-178.87 0.0233719 0 -6.44065
-59.6714 0.00457766 0 -8.04248
-60.0746 0.00329378 0 -8.04379
-179.475 0.0228921 0 -6.4426
-119.275 0.0137744 0 -7.4116
-59.873 0.00393642 0 -8.04313
-120.081 0.0126281 0 -7.41422
-119.678 0.0132019 0 -7.4129
-178.87 0.0233719 0 -6.44065
-177.662 0.0243282 0 -6.43684
-59.2682 0.00585585 0 -8.04121
-59.6714 0.00457765 0 -8.04248
-178.266 0.0238506 0 -6.43873
-118.469 0.0149156 0 -7.40906
-59.4698 0.00521747 0 -8.04184
-119.275 0.0137744 0 -7.4116
-118.872 0.0143456 0 -7.41032
-177.662 0.0243282 0 -6.43684
-176.453 0.0252801 0 -6.43316
-58.8651 0.0071283 0 -8.03998
-59.2682 0.00585585 0 -8.04121
-177.058 0.0248047 0 -6.43498
-117.663 0.0160515 0 -7.4066
-59.0666 0.0064928 0 -8.04059
-118.469 0.0149156 0 -7.40906
-118.066 0.0154842 0 -7.40782
-176.453 0.0252801 0 -6.43316
-175.245 0.0262275 0 -6.42961
-58.4619 0.00839496 0 -8.0388
-58.8651 0.0071283 0 -8.03998
-175.849 0.0257544 0 -6.43137
-116.857 0.0171821 0 -7.40423
-58.6635 0.00776236 0 -8.03938
-117.663 0.0160515 0 -7.4066
-117.26 0.0166175 0 -7.40541
-175.245 0.0262275 0 -6.42961
-174.036 0.0271705 0 -6.42618
-58.0587 0.00965575 0 -8.03765
-58.4619 0.00839496 0 -8.0388
-174.64 0.0266996 0 -6.42788
-116.051 0.0183074 0 -7.40195
-58.2603 0.00902609 0 -8.03822
-116.857 0.0171821 0 -7.40423
-116.454 0.0177454 0 -7.40308
-174.036 0.0271705 0 -6.42618
-172.828 0.0281088 0 -6.42288
-57.6555 0.0109106 0 -8.03655
-58.0587 0.00965575 0 -8.03765
-173.432 0.0276402 0 -6.42451
-115.245 0.0194273 0 -7.39975
-57.8571 0.0102839 0 -8.0371
-116.051 0.0183074 0 -7.40195
-115.648 0.018868 0 -7.40084
-172.828 0.0281088 0 -6.42288
-171.619 0.0290425 0 -6.4197
-57.2523 0.0121595 0 -8.03549
-57.6555 0.0109106 0 -8.03655
-172.223 0.0285762 0 -6.42127
-114.439 0.0205417 0 -7.39763
-57.4539 0.0115358 0 -8.03601
-115.245 0.0194273 0 -7.39975
-114.842 0.0199852 0 -7.39868
-171.619 0.0290425 0 -6.4197
-170.41 0.0299716 0 -6.41664
-56.8492 0.0134023 0 -8.03447
-57.2523 0.0121595 0 -8.03549
-171.015 0.0295076 0 -6.41815
-113.633 0.0216505 0 -7.39559
-57.0508 0.0127816 0 -8.03497
-114.439 0.0205417 0 -7.39763
-114.036 0.0210968 0 -7.3966
-170.41 0.0299716 0 -6.41664
-169.202 0.0308959 0 -6.4137
-56.446 0.014639 0 -8.03349
-56.8492 0.0134023 0 -8.03447
-169.806 0.0304343 0 -6.41516
-112.828 0.0227538 0 -7.39363
-56.6476 0.0140214 0 -8.03397
-113.633 0.0216505 0 -7.39559
-113.231 0.0222029 0 -7.3946
-169.202 0.0308959 0 -6.4137
-167.993 0.0318154 0 -6.41089
-56.0428 0.0158695 0 -8.03255
-56.446 0.014639 0 -8.03349
-168.598 0.0313562 0 -6.41228
-112.022 0.0238515 0 -7.39175
-56.2444 0.015255 0 -8.03301
-112.828 0.0227538 0 -7.39363
-112.425 0.0233034 0 -7.39268
-167.993 0.0318154 0 -6.41089
-166.785 0.0327301 0 -6.4082
-55.6396 0.0170938 0 -8.03165
-56.0428 0.0158695 0 -8.03255
-167.389 0.0322733 0 -6.40953
-111.216 0.0249434 0 -7.38996
-55.8412 0.0164824 0 -8.03209
-112.022 0.0238515 0 -7.39175
-111.619 0.0243981 0 -7.39085
-166.785 0.0327301 0 -6.4082
-165.576 0.0336398 0 -6.40562
-55.2365 0.0183118 0 -8.03079
-55.6396 0.0170938 0 -8.03165
-166.18 0.0331855 0 -6.4069
-110.41 0.0260296 0 -7.38824
-55.438 0.0177036 0 -8.03122
-111.216 0.0249434 0 -7.38996
-110.813 0.0254872 0 -7.38909
-165.576 0.0336398 0 -6.40562
-164.368 0.0345447 0 -6.40317
-54.8333 0.0195234 0 -8.02997
-55.2365 0.0183118 0 -8.03079
-164.972 0.0340929 0 -6.40438
-109.604 0.0271099 0 -7.3866
-55.0349 0.0189184 0 -8.03038
-110.41 0.0260296 0 -7.38824
-110.007 0.0265705 0 -7.38741
-164.368 0.0345447 0 -6.40317
-163.159 0.0354445 0 -6.40083
-54.4301 0.0207286 0 -8.02919
-54.8333 0.0195234 0 -8.02997
-163.763 0.0349952 0 -6.40198
-108.798 0.0281844 0 -7.38504
-54.6317 0.0201268 0 -8.02958
-109.604 0.0271099 0 -7.3866
-109.201 0.0276479 0 -7.38581
-163.159 0.0354445 0 -6.40083
-161.95 0.0363392 0 -6.39861
-54.0269 0.0219273 0 -8.02845
-54.4301 0.0207286 0 -8.02919
-162.555 0.0358925 0 -6.3997
-107.992 0.0292529 0 -7.38356
-54.2285 0.0213288 0 -8.02881
-108.798 0.0281844 0 -7.38504
-108.395 0.0287194 0 -7.38429
-161.95 0.0363392 0 -6.39861
-160.742 0.0372289 0 -6.3965
-53.6237 0.0231195 0 -8.02774
-54.0269 0.0219273 0 -8.02845
-161.346 0.0367847 0 -6.39754
-107.186 0.0303155 0 -7.38216
-53.8253 0.0225242 0 -8.02809
-107.992 0.0292529 0 -7.38356
-107.589 0.029785 0 -7.38285
-160.742 0.0372289 0 -6.3965
-159.533 0.0381134 0 -6.39451
-53.2205 0.0243051 0 -8.02708
-53.6237 0.0231195 0 -8.02774
-160.137 0.0376718 0 -6.39549
-106.38 0.031372 0 -7.38083
-53.4221 0.0237131 0 -8.02741
-107.186 0.0303155 0 -7.38216
-106.783 0.0308445 0 -7.38148
-159.533 0.0381134 0 -6.39451
-158.325 0.0389927 0 -6.39263
-52.8174 0.025484 0 -8.02645
-53.2205 0.0243051 0 -8.02708
-158.929 0.0385537 0 -6.39356
-105.574 0.0324224 0 -7.37958
-53.019 0.0248953 0 -8.02676
-106.38 0.031372 0 -7.38083
-105.977 0.031898 0 -7.38019
-158.325 0.0389927 0 -6.39263
-157.116 0.0398667 0 -6.39087
-52.4142 0.0266562 0 -8.02586
-52.8174 0.025484 0 -8.02645
-157.72 0.0394304 0 -6.39174
-104.768 0.0334667 0 -7.3784
-52.6158 0.0260709 0 -8.02615
-105.574 0.0324224 0 -7.37958
-105.171 0.0329453 0 -7.37898
-157.116 0.0398667 0 -6.39087
-155.907 0.0407354 0 -6.38922
-52.011 0.0278216 0 -8.02531
-52.4142 0.0266562 0 -8.02586
-156.512 0.0403017 0 -6.39003
-103.963 0.0345048 0 -7.3773
-52.2126 0.0272397 0 -8.02558
-104.768 0.0334667 0 -7.3784
-104.365 0.0339865 0 -7.37784
-155.907 0.0407354 0 -6.38922
-154.699 0.0415987 0 -6.38768
-51.6078 0.0289802 0 -8.0248
-52.011 0.0278216 0 -8.02531
-155.303 0.0411677 0 -6.38844
-103.157 0.0355365 0 -7.37627
-51.8094 0.0284017 0 -8.02505
-103.963 0.0345048 0 -7.3773
-103.56 0.0350214 0 -7.37678
-154.699 0.0415987 0 -6.38768
-153.49 0.0424566 0 -6.38625
-51.2047 0.0301319 0 -8.02432
-51.6078 0.0289802 0 -8.0248
-154.095 0.0420283 0 -6.38695
-102.351 0.036562 0 -7.37532
-51.4062 0.0295569 0 -8.02455
-103.157 0.0355365 0 -7.37627
-102.754 0.0360501 0 -7.37579
-153.49 0.0424566 0 -6.38625
-152.282 0.043309 0 -6.38493
-50.8015 0.0312766 0 -8.02388
-51.2047 0.0301319 0 -8.02432
-152.886 0.0428835 0 -6.38558
-101.545 0.0375811 0 -7.37444
-51.0031 0.0307051 0 -8.02409
-102.351 0.036562 0 -7.37532
-101.948 0.0370724 0 -7.37487
-152.282 0.043309 0 -6.38493
-151.073 0.0441559 0 -6.38373
-50.3983 0.0324144 0 -8.02347
-50.8015 0.0312766 0 -8.02388
-151.677 0.0437332 0 -6.38432
-100.739 0.0385938 0 -7.37363
-50.5999 0.0318464 0 -8.02367
-101.545 0.0375811 0 -7.37444
-101.142 0.0380883 0 -7.37403
-151.073 0.0441559 0 -6.38373
-149.864 0.0449973 0 -6.38262
-49.9951 0.033545 0 -8.0231
-50.3983 0.0324144 0 -8.02347
-150.469 0.0445773 0 -6.38316
-99.933 0.0396 0 -7.3729
-50.1967 0.0329806 0 -8.02328
-100.739 0.0385938 0 -7.37363
-100.336 0.0390977 0 -7.37326
-149.864 0.0449973 0 -6.38262
-148.656 0.0458329 0 -6.38163
-49.5919 0.0346686 0 -8.02277
-49.9951 0.033545 0 -8.0231
-149.26 0.0454158 0 -6.38211
-99.1271 0.0405996 0 -7.37224
-49.7935 0.0341077 0 -8.02293
-99.933 0.0396 0 -7.3729
-99.53 0.0401006 0 -7.37256
-148.656 0.0458329 0 -6.38163
-147.447 0.046663 0 -6.38074
-49.1888 0.035785 0 -8.02247
-49.5919 0.0346686 0 -8.02277
-148.052 0.0462487 0 -6.38117
-98.3212 0.0415927 0 -7.37164
-49.3904 0.0352277 0 -8.02262
-99.1271 0.0405996 0 -7.37224
-98.7241 0.041097 0 -7.37193
-147.447 0.046663 0 -6.38074
-146.239 0.0474872 0 -6.37996
-48.7856 0.0368942 0 -8.02221
-49.1888 0.035785 0 -8.02247
-146.843 0.0470758 0 -6.38034
-97.5153 0.0425791 0 -7.37112
-48.9872 0.0363405 0 -8.02234
-98.3212 0.0415927 0 -7.37164
-97.9182 0.0420867 0 -7.37137
-146.239 0.0474872 0 -6.37996
-145.03 0.0483057 0 -6.37928
-48.3824 0.0379961 0 -8.02198
-48.7856 0.0368942 0 -8.02221
-145.634 0.0478972 0 -6.37961
-96.7093 0.0435589 0 -7.37067
-48.584 0.037446 0 -8.02209
-97.5153 0.0425791 0 -7.37112
-97.1123 0.0430698 0 -7.37089
-145.03 0.0483057 0 -6.37928
-143.821 0.0491184 0 -6.37871
-47.9792 0.0390906 0 -8.02179
-48.3824 0.0379961 0 -8.02198
-144.426 0.0487128 0 -6.37898
-95.9034 0.0445318 0 -7.37029
-48.1808 0.0385443 0 -8.02188
-96.7093 0.0435589 0 -7.37067
-96.3064 0.0440462 0 -7.37047
-143.821 0.0491184 0 -6.37871
-142.613 0.0499252 0 -6.37824
-47.5761 0.0401778 0 -8.02163
-47.9792 0.0390906 0 -8.02179
-143.217 0.0495226 0 -6.37846
-95.0975 0.045498 0 -7.36997
-47.7777 0.0396351 0 -8.02171
-95.9034 0.0445318 0 -7.37029
-95.5005 0.0450158 0 -7.37012
-142.613 0.0499252 0 -6.37824
-141.404 0.0507261 0 -6.37787
-47.1729 0.0412575 0 -8.02151
-47.5761 0.0401778 0 -8.02163
-142.009 0.0503264 0 -6.37804
-94.2916 0.0464574 0 -7.36972
-47.3745 0.0407186 0 -8.02157
-95.0975 0.045498 0 -7.36997
-94.6946 0.0459786 0 -7.36984
-141.404 0.0507261 0 -6.37787
-140.196 0.051521 0 -6.3776
-46.7697 0.0423298 0 -8.02142
-47.1729 0.0412575 0 -8.02151
-140.8 0.0511243 0 -6.37772
-93.4857 0.0474098 0 -7.36955
-46.9713 0.0417946 0 -8.02146
-94.2916 0.0464574 0 -7.36972
-93.8887 0.0469345 0 -7.36963
-140.196 0.051521 0 -6.3776
-138.987 0.0523098 0 -6.37743
-46.3666 0.0433944 0 -8.02136
-46.7697 0.0423298 0 -8.02142
-139.591 0.0519161 0 -6.3775
-92.6798 0.0483553 0 -7.36943
-46.5682 0.042863 0 -8.02139
-93.4857 0.0474098 0 -7.36955
-93.0828 0.0478835 0 -7.36948
-138.987 0.0523098 0 -6.37743
-137.779 0.0530926 0 -6.37736
-45.9634 0.0444515 0 -8.02134
-46.3666 0.0433944 0 -8.02136
-138.383 0.052702 0 -6.37739
-91.8739 0.0492938 0 -7.36939
-46.165 0.0439239 0 -8.02134
-92.6798 0.0483553 0 -7.36943
-92.2768 0.0488255 0 -7.3694
-137.779 0.0530926 0 -6.37736
-136.57 0.0538693 0 -6.37739
-45.5602 0.0455009 0 -8.02135
-45.9634 0.0444515 0 -8.02134
-137.174 0.0534817 0 -6.37737
-91.068 0.0502253 0 -7.36941
-45.7618 0.0449772 0 -8.02134
-91.8739 0.0492938 0 -7.36939
-91.4709 0.0497604 0 -7.36939
-136.57 0.0538693 0 -6.37739
-135.361 0.0546398 0 -6.37752
-45.1571 0.0465427 0 -8.02139
-45.5602 0.0455009 0 -8.02135
-135.966 0.0542553 0 -6.37745
-90.2621 0.0511496 0 -7.36949
-45.3587 0.0460228 0 -8.02136
-91.068 0.0502253 0 -7.36941
-90.665 0.0506883 0 -7.36944
-135.361 0.0546398 0 -6.37752
-134.153 0.055404 0 -6.37775
-44.7539 0.0475766 0 -8.02146
-45.1571 0.0465427 0 -8.02139
-134.757 0.0550227 0 -6.37762
-89.4562 0.0520668 0 -7.36964
-44.9555 0.0470606 0 -8.02142
-90.2621 0.0511496 0 -7.36949
-89.8591 0.0516091 0 -7.36956
-134.153 0.055404 0 -6.37775
-132.944 0.056162 0 -6.37807
-44.3507 0.0486028 0 -8.02157
-44.7539 0.0475766 0 -8.02146
-133.548 0.0557838 0 -6.3779
-88.6503 0.0529768 0 -7.36986
-44.5523 0.0480907 0 -8.02151
-89.4562 0.0520668 0 -7.36964
-89.0532 0.0525227 0 -7.36974
-132.944 0.056162 0 -6.37807
-131.736 0.0569137 0 -6.37849
-43.9476 0.0496211 0 -8.0217
-44.3507 0.0486028 0 -8.02157
-132.34 0.0565387 0 -6.37827
-87.8444 0.0538796 0 -7.37013
-44.1492 0.049113 0 -8.02163
-88.6503 0.0529768 0 -7.36986
-88.2473 0.0534291 0 -7.36999
-131.736 0.0569137 0 -6.37849
-130.527 0.057659 0 -6.379
-43.5444 0.0506315 0 -8.02187
-43.9476 0.0496211 0 -8.0217
-131.131 0.0572872 0 -6.37873
-87.0385 0.054775 0 -7.37047
-43.746 0.0501273 0 -8.02178
-87.8444 0.0538796 0 -7.37013
-87.4414 0.0543282 0 -7.37029
-130.527 0.057659 0 -6.379
-129.318 0.0583979 0 -6.3796
-43.1413 0.051634 0 -8.02207
-43.5444 0.0506315 0 -8.02187
-129.923 0.0580293 0 -6.37929
-86.2326 0.0556631 0 -7.37087
-43.3428 0.0511338 0 -8.02197
-87.0385 0.054775 0 -7.37047
-86.6355 0.05522 0 -7.37067
-129.318 0.0583979 0 -6.3796
-128.11 0.0591304 0 -6.3803
-42.7381 0.0526285 0 -8.0223
-43.1413 0.051634 0 -8.02207
-128.714 0.058765 0 -6.37994
-85.4267 0.0565439 0 -7.37134
-42.9397 0.0521322 0 -8.02218
-86.2326 0.0556631 0 -7.37087
-85.8296 0.0561044 0 -7.3711
-128.11 0.0591304 0 -6.3803
-126.901 0.0598563 0 -6.38108
-42.335 0.0536148 0 -8.02256
-42.7381 0.0526285 0 -8.0223
-127.505 0.0594942 0 -6.38068
-84.6208 0.0574172 0 -7.37186
-42.5365 0.0531227 0 -8.02243
-85.4267 0.0565439 0 -7.37134
-85.0237 0.0569814 0 -7.37159
-126.901 0.0598563 0 -6.38108
-125.693 0.0605757 0 -6.38196
-41.9318 0.0545931 0 -8.02285
-42.335 0.0536148 0 -8.02256
-126.297 0.0602169 0 -6.38151
-83.8149 0.0582829 0 -7.37245
-42.1334 0.054105 0 -8.02271
-84.6208 0.0574171 0 -7.37186
-84.2178 0.057851 0 -7.37215
-125.693 0.0605757 0 -6.38196
-124.484 0.0612886 0 -6.38293
-41.5287 0.0555633 0 -8.02318
-41.9318 0.0545931 0 -8.02285
-125.088 0.060933 0 -6.38244
-83.009 0.0591412 0 -7.37309
-41.7302 0.0550792 0 -8.02301
-83.8149 0.0582829 0 -7.37245
-83.4119 0.058713 0 -7.37276
-124.484 0.0612886 0 -6.38293
-123.275 0.0619947 0 -6.38399
-41.1255 0.0565253 0 -8.02353
-41.5287 0.0555633 0 -8.02318
-123.88 0.0616425 0 -6.38345
-82.2031 0.0599919 0 -7.3738
-41.3271 0.0560453 0 -8.02335
-83.009 0.0591412 0 -7.37309
-82.606 0.0595675 0 -7.37344
-123.275 0.0619947 0 -6.38399
-122.067 0.0626942 0 -6.38514
-40.7224 0.057479 0 -8.02391
-41.1255 0.0565253 0 -8.02353
-122.671 0.0623453 0 -6.38455
-81.3972 0.0608349 0 -7.37456
-40.9239 0.0570031 0 -8.02371
-82.2031 0.0599919 0 -7.3738
-81.8002 0.0604144 0 -7.37417
-122.067 0.0626942 0 -6.38514
-120.858 0.0633869 0 -6.38637
-40.3192 0.0584244 0 -8.02432
-40.7224 0.057479 0 -8.02391
-121.462 0.0630414 0 -6.38574
-80.5913 0.0616703 0 -7.37538
-40.5208 0.0579527 0 -8.02411
-81.3972 0.0608349 0 -7.37456
-80.9943 0.0612536 0 -7.37497
-120.858 0.063387 0 -6.38637
-119.65 0.0640729 0 -6.38769
-39.9161 0.0593615 0 -8.02476
-40.3192 0.0584244 0 -8.02432
-120.254 0.0637308 0 -6.38702
-79.7854 0.062498 0 -7.37626
-40.1176 0.058894 0 -8.02453
-80.5913 0.0616703 0 -7.37538
-80.1884 0.0620851 0 -7.37582
-119.65 0.0640729 0 -6.38769
-118.441 0.0647521 0 -6.3891
-39.5129 0.0602902 0 -8.02522
-39.9161 0.0593615 0 -8.02476
-119.045 0.0644134 0 -6.38838
-78.9795 0.0633179 0 -7.3772
-39.7145 0.0598269 0 -8.02499
-79.7854 0.062498 0 -7.37626
-79.3825 0.0629089 0 -7.37672
-118.441 0.0647521 0 -6.3891
-117.232 0.0654244 0 -6.39059
-39.1098 0.0612105 0 -8.02572
-39.5129 0.0602902 0 -8.02522
-117.837 0.0650891 0 -6.38983
-78.1737 0.06413 0 -7.37819
-39.3114 0.0607514 0 -8.02547
-78.9795 0.0633179 0 -7.3772
-78.5766 0.0637249 0 -7.37769
-117.232 0.0654244 0 -6.39059
-116.024 0.0660897 0 -6.39216
-38.7067 0.0621223 0 -8.02624
-39.1098 0.0612105 0 -8.02572
-116.628 0.0657579 0 -6.39136
-77.3678 0.0649342 0 -7.37924
-38.9082 0.0616674 0 -8.02598
-78.1737 0.06413 0 -7.37819
-77.7707 0.0645331 0 -7.37871
-116.024 0.0660897 0 -6.39216
-114.815 0.0667482 0 -6.39382
-38.3035 0.0630256 0 -8.02679
-38.7067 0.0621223 0 -8.02624
-115.42 0.0664198 0 -6.39298
-76.5619 0.0657306 0 -7.38035
-38.5051 0.062575 0 -8.02651
-77.3678 0.0649342 0 -7.37924
-76.9648 0.0653334 0 -7.37979
-114.815 0.0667482 0 -6.39382
-113.607 0.0673996 0 -6.39556
-37.9004 0.0639203 0 -8.02737
-38.3035 0.0630256 0 -8.02679
-114.211 0.0670747 0 -6.39468
-75.756 0.066519 0 -7.38151
-38.102 0.063474 0 -8.02708
-76.5619 0.0657306 0 -7.38035
-76.159 0.0661257 0 -7.38092
-113.607 0.0673996 0 -6.39556
-112.398 0.068044 0 -6.39738
-37.4973 0.0648064 0 -8.02798
-37.9004 0.0639203 0 -8.02737
-113.002 0.0677227 0 -6.39646
-74.9501 0.0672994 0 -7.38272
-37.6988 0.0643644 0 -8.02767
-75.756 0.066519 0 -7.38151
-75.3531 0.0669102 0 -7.38211
-112.398 0.068044 0 -6.39738
-111.189 0.0686813 0 -6.39928
-37.0941 0.0656839 0 -8.02861
-37.4973 0.0648064 0 -8.02798
-111.794 0.0683635 0 -6.39832
-74.1443 0.0680718 0 -7.38399
-37.2957 0.0652463 0 -8.02829
-74.9501 0.0672994 0 -7.38272
-74.5472 0.0676866 0 -7.38335
-111.189 0.0686813 0 -6.39928
-109.981 0.0693115 0 -6.40126
-36.691 0.0665527 0 -8.02927
-37.0941 0.0656839 0 -8.02861
-110.585 0.0689973 0 -6.40026
-73.3384 0.0688361 0 -7.38531
-36.8926 0.0661194 0 -8.02894
-74.1443 0.0680718 0 -7.38399
-73.7413 0.0684549 0 -7.38464
-109.981 0.0693115 0 -6.40126
-108.772 0.0699345 0 -6.40332
-36.2879 0.0674127 0 -8.02995
-36.691 0.0665527 0 -8.02927
-109.377 0.0696239 0 -6.40228
-72.5325 0.0695923 0 -7.38668
-36.4895 0.0669838 0 -8.02961
-73.3384 0.0688361 0 -7.38531
-72.9355 0.0692152 0 -7.38599
-108.772 0.0699345 0 -6.40332
-107.564 0.0705503 0 -6.40546
-35.8848 0.068264 0 -8.03067
-36.2879 0.0674127 0 -8.02995
-108.168 0.0702433 0 -6.40438
-71.7266 0.0703404 0 -7.3881
-36.0863 0.0678395 0 -8.03031
-72.5325 0.0695923 0 -7.38668
-72.1296 0.0699673 0 -7.38739
-107.564 0.0705503 0 -6.40546
-106.355 0.0711588 0 -6.40767
-35.4817 0.0691065 0 -8.0314
-35.8848 0.068264 0 -8.03067
-106.959 0.0708555 0 -6.40656
-70.9208 0.0710802 0 -7.38958
-35.6832 0.0686864 0 -8.03103
-71.7266 0.0703404 0 -7.3881
-71.3237 0.0707113 0 -7.38884
-106.355 0.0711588 0 -6.40767
-105.147 0.0717601 0 -6.40996
-35.0785 0.0699401 0 -8.03216
-35.4817 0.0691065 0 -8.0314
-105.751 0.0714604 0 -6.40881
-70.1149 0.0718118 0 -7.39111
-35.2801 0.0695244 0 -8.03178
-70.9208 0.0710802 0 -7.38958
-70.5178 0.0714471 0 -7.39034
-105.147 0.0717601 0 -6.40996
-103.938 0.072354 0 -6.41233
-34.6754 0.0707648 0 -8.03295
-35.0785 0.0699401 0 -8.03216
-104.542 0.072058 0 -6.41114
-69.3091 0.0725352 0 -7.39268
-34.877 0.0703536 0 -8.03255
-70.1149 0.0718118 0 -7.39111
-69.712 0.0721746 0 -7.39189
-103.938 0.072354 0 -6.41233
-102.729 0.0729406 0 -6.41477
-34.2723 0.0715806 0 -8.03376
-34.6754 0.0707648 0 -8.03295
-103.334 0.0726483 0 -6.41354
-68.5032 0.0732502 0 -7.39431
-34.4739 0.0711738 0 -8.03335
-69.3091 0.0725352 0 -7.39268
-68.9061 0.0728937 0 -7.39349
-102.729 0.0729406 0 -6.41477
-101.521 0.0735198 0 -6.41729
-33.8692 0.0723874 0 -8.0346
-34.2723 0.0715806 0 -8.03376
-102.125 0.0732311 0 -6.41602
-67.6973 0.0739569 0 -7.39599
-34.0708 0.0719851 0 -8.03418
-68.5032 0.0732502 0 -7.39431
-68.1003 0.0736046 0 -7.39514
-101.521 0.0735198 0 -6.41729
-100.312 0.0740915 0 -6.41987
-33.4661 0.0731851 0 -8.03546
-33.8692 0.0723874 0 -8.0346
-100.917 0.0738066 0 -6.41857
-66.8915 0.0746552 0 -7.39771
-33.6677 0.0727874 0 -8.03503
-67.6973 0.0739569 0 -7.39599
-67.2944 0.0743071 0 -7.39684
-100.312 0.0740915 0 -6.41987
-99.1037 0.0746557 0 -6.42253
-33.063 0.0739738 0 -8.03635
-33.4661 0.0731851 0 -8.03546
-99.708 0.0743745 0 -6.42119
-66.0856 0.075345 0 -7.39948
-33.2646 0.0735806 0 -8.0359
-66.8915 0.0746552 0 -7.39771
-66.4885 0.0750011 0 -7.39859
-99.1037 0.0746557 0 -6.42253
-97.8951 0.0752123 0 -6.42526
-32.6599 0.0747534 0 -8.03725
-33.063 0.0739738 0 -8.03635
-98.4994 0.0749349 0 -6.42389
-65.2798 0.0760263 0 -7.4013
-32.8615 0.0743648 0 -8.0368
-66.0856 0.075345 0 -7.39948
-65.6827 0.0756867 0 -7.40038
-97.8951 0.0752123 0 -6.42526
-96.6865 0.0757614 0 -6.42806
-32.2568 0.0755239 0 -8.03819
-32.6599 0.0747534 0 -8.03725
-97.2908 0.0754878 0 -6.42665
-64.4739 0.0766992 0 -7.40317
-32.4584 0.0751398 0 -8.03772
-65.2798 0.0760263 0 -7.4013
-64.8768 0.0763638 0 -7.40223
-96.6865 0.0757614 0 -6.42806
-95.478 0.0763029 0 -6.43093
-31.8537 0.0762852 0 -8.03914
-32.2568 0.0755239 0 -8.03819
-96.0822 0.0760331 0 -6.42948
-63.6681 0.0773635 0 -7.40508
-32.0553 0.0759057 0 -8.03866
-64.4739 0.0766992 0 -7.40317
-64.071 0.0770324 0 -7.40412
-95.478 0.0763029 0 -6.43093
-94.2694 0.0768368 0 -6.43386
-31.4506 0.0770373 0 -8.04012
-31.8537 0.0762852 0 -8.03914
-94.8737 0.0765708 0 -6.43239
-62.8622 0.0780192 0 -7.40704
-31.6522 0.0766624 0 -8.03963
-63.6681 0.0773635 0 -7.40508
-63.2651 0.0776924 0 -7.40605
-94.2694 0.0768368 0 -6.43386
-93.0608 0.0773629 0 -6.43687
-31.0475 0.0777801 0 -8.04112
-31.4506 0.0770373 0 -8.04012
-93.6651 0.0771008 0 -6.43536
-62.0564 0.0786662 0 -7.40904
-31.2491 0.0774099 0 -8.04062
-62.8622 0.0780192 0 -7.40704
-62.4593 0.0783438 0 -7.40803
-93.0608 0.0773629 0 -6.43687
-91.8523 0.0778813 0 -6.43994
-30.6445 0.0785137 0 -8.04214
-31.0475 0.0777801 0 -8.04112
-92.4565 0.0776231 0 -6.4384
-61.2505 0.0793046 0 -7.41108
-30.846 0.0781481 0 -8.04163
-62.0564 0.0786662 0 -7.40904
-61.6535 0.0789865 0 -7.41006
-91.8523 0.0778813 0 -6.43994
-90.6437 0.078392 0 -6.44308
-30.2414 0.0792379 0 -8.04319
-30.6445 0.0785137 0 -8.04214
-91.248 0.0781376 0 -6.4415
-60.4447 0.0799343 0 -7.41318
-30.4429 0.078877 0 -8.04266
-61.2505 0.0793046 0 -7.41108
-60.8476 0.0796206 0 -7.41212
-90.6437 0.078392 0 -6.44308
-89.4351 0.0788949 0 -6.44628
-29.8383 0.0799528 0 -8.04425
-30.2414 0.0792379 0 -8.04319
-90.0394 0.0786444 0 -6.44467
-59.6389 0.0805553 0 -7.41531
-30.0398 0.0795965 0 -8.04372
-60.4447 0.0799343 0 -7.41318
-60.0418 0.0802459 0 -7.41424
-89.4351 0.0788949 0 -6.44628
-88.2266 0.0793899 0 -6.44954
-29.4352 0.0806583 0 -8.04534
-29.8383 0.0799528 0 -8.04425
-88.8309 0.0791434 0 -6.4479
-58.833 0.0811674 0 -7.41749
-29.6368 0.0803067 0 -8.04479
-59.6389 0.0805553 0 -7.41531
-59.236 0.0808625 0 -7.41639
-88.2266 0.0793899 0 -6.44954
-87.018 0.0798771 0 -6.45287
-29.0321 0.0813543 0 -8.04645
-29.4352 0.0806583 0 -8.04534
-87.6223 0.0796345 0 -6.4512
-58.0272 0.0817708 0 -7.4197
-29.2337 0.0810075 0 -8.04589
-58.833 0.0811674 0 -7.41749
-58.4301 0.0814702 0 -7.41859
-87.018 0.0798771 0 -6.45287
-85.8095 0.0803563 0 -6.45626
-28.6291 0.0820409 0 -8.04758
-29.0321 0.0813544 0 -8.04645
-86.4138 0.0801177 0 -6.45456
-57.2214 0.0823653 0 -7.42197
-28.8306 0.0816988 0 -8.04701
-58.0272 0.0817708 0 -7.4197
-57.6243 0.0820692 0 -7.42083
-85.8095 0.0803563 0 -6.45626
-84.6009 0.0808276 0 -6.45972
-28.226 0.082718 0 -8.04873
-28.6291 0.0820409 0 -8.04758
-85.2052 0.080593 0 -6.45798
-56.4156 0.0829509 0 -7.42427
-28.4275 0.0823807 0 -8.04815
-57.2214 0.0823653 0 -7.42197
-56.8185 0.0826593 0 -7.42311
-84.6009 0.0808276 0 -6.45972
-83.3924 0.0812909 0 -6.46323
-27.8229 0.0833856 0 -8.0499
-28.226 0.082718 0 -8.04873
-83.9966 0.0810603 0 -6.46146
-55.6097 0.0835277 0 -7.42661
-28.0245 0.083053 0 -8.04931
-56.4156 0.0829509 0 -7.42427
-56.0126 0.0832404 0 -7.42543
-83.3924 0.0812909 0 -6.46323
-82.1838 0.0817463 0 -6.4668
-27.4199 0.0840436 0 -8.05109
-27.8229 0.0833856 0 -8.0499
-82.7881 0.0815196 0 -6.46501
-54.8039 0.0840954 0 -7.42899
-27.6214 0.0837158 0 -8.05049
-55.6097 0.0835277 0 -7.42661
-55.2068 0.0838127 0 -7.42779
-82.1838 0.0817463 0 -6.4668
-80.9753 0.0821935 0 -6.47043
-27.0168 0.084692 0 -8.0523
-27.4199 0.0840436 0 -8.05109
-81.5796 0.0819709 0 -6.46861
-53.9981 0.0846542 0 -7.43141
-27.2184 0.084369 0 -8.05169
-54.8039 0.0840954 0 -7.42899
-54.401 0.084376 0 -7.4302
-80.9753 0.0821935 0 -6.47043
-79.7667 0.0826327 0 -6.47412
-26.6138 0.0853308 0 -8.05352
-27.0168 0.084692 0 -8.0523
-80.371 0.0824141 0 -6.47227
-53.1923 0.085204 0 -7.43387
-26.8153 0.0850126 0 -8.05291
-53.9981 0.0846542 0 -7.43141
-53.5952 0.0849302 0 -7.43264
-79.7667 0.0826327 0 -6.47412
-78.5582 0.0830638 0 -6.47787
-26.2107 0.0859599 0 -8.05477
-26.6138 0.0853308 0 -8.05352
-79.1625 0.0828492 0 -6.47599
-52.3865 0.0857447 0 -7.43637
-26.4123 0.0856465 0 -8.05415
-53.1923 0.085204 0 -7.43387
-52.7894 0.0854754 0 -7.43511
-78.5582 0.0830638 0 -6.47787
-77.3497 0.0834867 0 -6.48167
-25.8077 0.0865793 0 -8.05604
-26.2107 0.0859599 0 -8.05477
-77.9539 0.0832762 0 -6.47976
-51.5807 0.0862763 0 -7.4389
-26.0092 0.0862708 0 -8.0554
-52.3865 0.0857447 0 -7.43637
-51.9836 0.0860116 0 -7.43763
-77.3497 0.0834867 0 -6.48167
-76.1411 0.0839014 0 -6.48553
-25.4046 0.087189 0 -8.05732
-25.8077 0.0865793 0 -8.05604
-76.7454 0.083695 0 -6.48359
-50.7749 0.0867988 0 -7.44147
-25.6062 0.0868854 0 -8.05668
-51.5807 0.0862763 0 -7.4389
-51.1778 0.0865387 0 -7.44018
-76.1411 0.0839014 0 -6.48553
-74.9326 0.0843079 0 -6.48944
-25.0016 0.0877889 0 -8.05863
-25.4046 0.087189 0 -8.05732
-75.5368 0.0841057 0 -6.48748
-49.9691 0.0873122 0 -7.44408
-25.2031 0.0874902 0 -8.05797
-50.7749 0.0867988 0 -7.44147
-50.372 0.0870566 0 -7.44277
-74.9326 0.0843079 0 -6.48944
-73.724 0.0847061 0 -6.49341
-24.5986 0.0883791 0 -8.05995
-25.0016 0.0877889 0 -8.05863
-74.3283 0.084508 0 -6.49142
-49.1633 0.0878163 0 -7.44673
-24.8001 0.0880852 0 -8.05929
-49.9691 0.0873122 0 -7.44408
-49.5662 0.0875654 0 -7.4454
-73.724 0.0847061 0 -6.49341
-72.5155 0.0850961 0 -6.49743
-24.1955 0.0889594 0 -8.06129
-24.5986 0.0883791 0 -8.05995
-73.1198 0.0849022 0 -6.49541
-48.3575 0.0883113 0 -7.44941
-24.397 0.0886705 0 -8.06062
-49.1633 0.0878163 0 -7.44673
-48.7604 0.088065 0 -7.44806
-72.5155 0.0850961 0 -6.49743
-71.307 0.0854778 0 -6.5015
-23.7925 0.0895299 0 -8.06264
-24.1955 0.0889594 0 -8.06129
-71.9112 0.085288 0 -6.49946
-47.5517 0.088797 0 -7.45212
-23.994 0.0892459 0 -8.06196
-48.3575 0.0883113 0 -7.44941
-47.9546 0.0885553 0 -7.45076
-71.307 0.0854778 0 -6.5015
-70.0985 0.0858511 0 -6.50562
-23.3895 0.0900906 0 -8.06402
-23.7925 0.0895299 0 -8.06264
-70.7027 0.0856655 0 -6.50356
-46.7459 0.0892735 0 -7.45487
-23.591 0.0898115 0 -8.06333
-47.5517 0.088797 0 -7.45212
-47.1488 0.0890364 0 -7.45349
-70.0985 0.0858511 0 -6.50562
-68.8899 0.086216 0 -6.5098
-22.9864 0.0906413 0 -8.06541
-23.3895 0.0900906 0 -8.06402
-69.4942 0.0860346 0 -6.5077
-45.9401 0.0897406 0 -7.45765
-23.188 0.0903671 0 -8.06471
-46.7459 0.0892735 0 -7.45487
-46.343 0.0895082 0 -7.45625
-68.8899 0.086216 0 -6.5098
-67.6814 0.0865725 0 -6.51402
-22.5834 0.091182 0 -8.06681
-22.9864 0.0906413 0 -8.06541
-68.2857 0.0863953 0 -6.5119
-45.1343 0.0901984 0 -7.46046
-22.7849 0.0909129 0 -8.06611
-45.9401 0.0897406 0 -7.45765
-45.5372 0.0899707 0 -7.45905
-67.6814 0.0865725 0 -6.51402
-66.4729 0.0869206 0 -6.51829
-22.1804 0.0917129 0 -8.06824
-22.5834 0.091182 0 -8.06681
-67.0771 0.0867476 0 -6.51615
-44.3285 0.0906469 0 -7.46331
-22.3819 0.0914487 0 -8.06752
-45.1343 0.0901984 0 -7.46046
-44.7314 0.0904238 0 -7.46188
-66.4729 0.0869206 0 -6.51829
-65.2644 0.0872602 0 -6.5226
-21.7774 0.0922337 0 -8.06967
-22.1804 0.0917129 0 -8.06824
-65.8686 0.0870914 0 -6.52044
-43.5228 0.0910859 0 -7.46619
-21.9789 0.0919746 0 -8.06895
-44.3285 0.0906469 0 -7.46331
-43.9257 0.0908676 0 -7.46474
-65.2644 0.0872602 0 -6.5226
-64.0558 0.0875913 0 -6.52697
-21.3744 0.0927445 0 -8.07113
-21.7774 0.0922337 0 -8.06967
-64.6601 0.0874268 0 -6.52478
-42.717 0.0915156 0 -7.4691
-21.5759 0.0924904 0 -8.0704
-43.5228 0.0910859 0 -7.46619
-43.1199 0.0913019 0 -7.46764
-64.0558 0.0875913 0 -6.52697
-62.8473 0.0879139 0 -6.53138
-20.9714 0.0932453 0 -8.0726
-21.3744 0.0927445 0 -8.07113
-63.4516 0.0877537 0 -6.52917
-41.9112 0.0919358 0 -7.47204
-21.1729 0.0929962 0 -8.07186
-42.717 0.0915156 0 -7.4691
-42.3141 0.0917269 0 -7.47056
-62.8473 0.0879139 0 -6.53138
-61.6388 0.0882279 0 -6.53584
-20.5684 0.0937361 0 -8.07408
-20.9714 0.0932453 0 -8.0726
-62.2431 0.088072 0 -6.5336
-41.1055 0.0923465 0 -7.47501
-20.7699 0.093492 0 -8.07334
-41.9112 0.0919358 0 -7.47204
-41.5083 0.0921424 0 -7.47352
-61.6388 0.0882279 0 -6.53584
-60.4303 0.0885334 0 -6.54033
-20.1654 0.0942167 0 -8.07558
-20.5684 0.0937361 0 -8.07408
-61.0346 0.0883817 0 -6.53808
-40.2997 0.0927477 0 -7.47801
-20.3669 0.0939776 0 -8.07483
-41.1055 0.0923465 0 -7.47501
-40.7026 0.0925483 0 -7.4765
-60.4303 0.0885334 0 -6.54033
-59.2218 0.0888302 0 -6.54488
-19.7624 0.0946872 0 -8.07709
-20.1654 0.0942167 0 -8.07558
-59.8261 0.0886829 0 -6.5426
-39.4939 0.0931394 0 -7.48103
-19.9639 0.0944532 0 -8.07634
-40.2997 0.0927477 0 -7.47801
-39.8968 0.0929448 0 -7.47952
-59.2218 0.0888302 0 -6.54488
-58.0133 0.0891184 0 -6.54946
-19.3594 0.0951476 0 -8.07862
-19.7624 0.0946872 0 -8.07709
-58.6175 0.0889753 0 -6.54716
-38.6882 0.0935216 0 -7.48409
-19.5609 0.0949187 0 -8.07786
-39.4939 0.0931394 0 -7.48103
-39.091 0.0933317 0 -7.48256
-58.0133 0.0891184 0 -6.54946
-56.8048 0.0893979 0 -6.55409
-18.9564 0.0955978 0 -8.08016
-19.3594 0.0951476 0 -8.07862
-57.409 0.0892592 0 -6.55177
-37.8824 0.0938941 0 -7.48718
-19.1579 0.095374 0 -8.07939
-38.6882 0.0935216 0 -7.48409
-38.2853 0.0937091 0 -7.48563
-56.8048 0.0893979 0 -6.55409
-55.5963 0.0896687 0 -6.55876
-18.5534 0.0960378 0 -8.08172
-18.9564 0.0955978 0 -8.08016
-56.2005 0.0895344 0 -6.55642
-37.0767 0.0942571 0 -7.49029
-18.7549 0.0958191 0 -8.08094
-37.8824 0.0938941 0 -7.48718
-37.4795 0.0940768 0 -7.48873
-55.5963 0.0896687 0 -6.55876
-54.3878 0.0899308 0 -6.56346
-18.1505 0.0964676 0 -8.08329
-18.5534 0.0960378 0 -8.08172
-54.992 0.0898008 0 -6.56111
-36.2709 0.0946104 0 -7.49343
-18.3519 0.096254 0 -8.0825
-37.0767 0.0942571 0 -7.49029
-36.6738 0.094435 0 -7.49185
-54.3878 0.0899308 0 -6.56346
-53.1793 0.0901841 0 -6.56821
-17.7475 0.0968872 0 -8.08487
-18.1505 0.0964676 0 -8.08329
-53.7835 0.0900585 0 -6.56583
-35.4652 0.0949541 0 -7.49659
-17.949 0.0966787 0 -8.08408
-36.2709 0.0946104 0 -7.49343
-35.868 0.0947835 0 -7.495
-53.1793 0.0901841 0 -6.56821
-51.9708 0.0904287 0 -6.57299
-17.3445 0.0972966 0 -8.08646
-17.7475 0.0968872 0 -8.08487
-52.5751 0.0903075 0 -6.5706
-34.6594 0.0952881 0 -7.49978
-17.546 0.0970932 0 -8.08566
-35.4652 0.0949541 0 -7.49659
-35.0623 0.0951223 0 -7.49818
-51.9708 0.0904287 0 -6.57299
-50.7623 0.0906645 0 -6.57782
-16.9415 0.0976956 0 -8.08807
-17.3445 0.0972966 0 -8.08646
-51.3666 0.0905477 0 -6.5754
-33.8537 0.0956124 0 -7.50299
-17.143 0.0974974 0 -8.08726
-34.6594 0.0952881 0 -7.49978
-34.2566 0.0954515 0 -7.50138
-50.7623 0.0906645 0 -6.57782
-49.5538 0.0908914 0 -6.58267
-16.5386 0.0980843 0 -8.08969
-16.9415 0.0976956 0 -8.08807
-50.1581 0.090779 0 -6.58024
-33.048 0.095927 0 -7.50623
-16.7401 0.0978912 0 -8.08888
-33.8537 0.0956124 0 -7.50299
-33.4508 0.0957709 0 -7.50461
-49.5538 0.0908914 0 -6.58267
-48.3453 0.0911095 0 -6.58757
-16.1356 0.0984627 0 -8.09132
-16.5386 0.0980843 0 -8.08969
-48.9496 0.0910016 0 -6.58512
-32.2422 0.0962318 0 -7.50949
-16.3371 0.0982748 0 -8.0905
-33.048 0.095927 0 -7.50623
-32.6451 0.0960806 0 -7.50786
-48.3453 0.0911095 0 -6.58757
-47.1369 0.0913187 0 -6.5925
-15.7327 0.0988308 0 -8.09296
-16.1356 0.0984627 0 -8.09132
-47.7411 0.0912152 0 -6.59003
-31.4365 0.0965269 0 -7.51278
-15.9341 0.0986481 0 -8.09214
-32.2422 0.0962318 0 -7.50949
-31.8394 0.0963806 0 -7.51113
-47.1369 0.0913187 0 -6.5925
-45.9284 0.091519 0 -6.59746
-15.3297 0.0991885 0 -8.09461
-15.7327 0.0988308 0 -8.09296
-46.5326 0.09142 0 -6.59497
-30.6308 0.0968121 0 -7.51609
-15.5312 0.099011 0 -8.09378
-31.4365 0.0965269 0 -7.51278
-31.0336 0.0966707 0 -7.51443
-45.9284 0.091519 0 -6.59746
-44.7199 0.0917104 0 -6.60245
-14.9268 0.0995359 0 -8.09628
-15.3297 0.0991885 0 -8.09461
-45.3241 0.0916158 0 -6.59995
-29.8251 0.0970876 0 -7.51942
-15.1282 0.0993635 0 -8.09544
-30.6308 0.0968121 0 -7.51609
-30.2279 0.0969511 0 -7.51775
-44.7199 0.0917104 0 -6.60245
-43.5114 0.0918928 0 -6.60748
-14.5238 0.0998728 0 -8.09795
-14.9268 0.0995359 0 -8.09628
-44.1157 0.0918027 0 -6.60496
-29.0193 0.0973531 0 -7.52277
-14.7253 0.0997056 0 -8.09711
-29.8251 0.0970876 0 -7.51942
-29.4222 0.0972216 0 -7.52109
-43.5114 0.0918928 0 -6.60748
-42.3029 0.0920663 0 -6.61254
-14.1209 0.100199 0 -8.09964
-14.5238 0.0998728 0 -8.09795
-42.9072 0.0919807 0 -6.61
-28.2136 0.0976089 0 -7.52614
-14.3224 0.100037 0 -8.09879
-29.0193 0.0973531 0 -7.52277
-28.6165 0.0974822 0 -7.52445
-42.3029 0.0920663 0 -6.61254
-41.0945 0.0922307 0 -6.61762
-13.718 0.100515 0 -8.10133
-14.1209 0.100199 0 -8.09964
-41.6987 0.0921496 0 -6.61508
-27.4079 0.0978547 0 -7.52953
-13.9194 0.100359 0 -8.10048
-28.2136 0.0976089 0 -7.52614
-27.8108 0.097733 0 -7.52783
-41.0945 0.0922307 0 -6.61762
-39.886 0.0923862 0 -6.62274
-13.315 0.100821 0 -8.10304
-13.718 0.100515 0 -8.10133
-40.4902 0.0923096 0 -6.62018
-26.6022 0.0980906 0 -7.53294
-13.5165 0.100669 0 -8.10218
-27.4079 0.0978547 0 -7.52953
-27.0051 0.0979739 0 -7.53123
-39.886 0.0923862 0 -6.62274
-38.6775 0.0925325 0 -6.62789
-12.9121 0.101116 0 -8.10475
-13.315 0.100821 0 -8.10304
-39.2818 0.0924605 0 -6.62531
-25.7965 0.0983165 0 -7.53637
-13.1136 0.10097 0 -8.1039
-26.6022 0.0980906 0 -7.53294
-26.1993 0.0982048 0 -7.53466
-38.6775 0.0925325 0 -6.62789
-37.4691 0.0926697 0 -6.63306
-12.5092 0.1014 0 -8.10648
-12.9121 0.101116 0 -8.10475
-38.0733 0.0926022 0 -6.63047
-24.9908 0.0985325 0 -7.53982
-12.7106 0.101259 0 -8.10561
-25.7965 0.0983165 0 -7.53637
-25.3936 0.0984257 0 -7.5381
-37.4691 0.0926697 0 -6.63306
-36.2606 0.0927978 0 -6.63826
-12.1062 0.101674 0 -8.10821
-12.5092 0.1014 0 -8.10648
-36.8648 0.0927349 0 -6.63566
-24.1851 0.0987384 0 -7.54329
-12.3077 0.101538 0 -8.10734
-24.9908 0.0985325 0 -7.53982
-24.5879 0.0986367 0 -7.54155
-36.2606 0.0927978 0 -6.63826
-35.0522 0.0929168 0 -6.64349
-11.7033 0.101937 0 -8.10995
-12.1062 0.101674 0 -8.10821
-35.6564 0.0928584 0 -6.64087
-23.3794 0.0989342 0 -7.54677
-11.9048 0.101807 0 -8.10908
-24.1851 0.0987384 0 -7.54329
-23.7823 0.0988375 0 -7.54503
-35.0522 0.0929168 0 -6.64349
-33.8437 0.0930266 0 -6.64874
-11.3004 0.10219 0 -8.1117
-11.7033 0.101937 0 -8.10995
-34.4479 0.0929728 0 -6.64611
-22.5737 0.09912 0 -7.55027
-11.5019 0.102065 0 -8.11083
-23.3794 0.0989342 0 -7.54677
-22.9766 0.0990284 0 -7.54852
-33.8437 0.0930266 0 -6.64874
-32.6352 0.0931273 0 -6.65402
-10.8975 0.102432 0 -8.11346
-11.3004 0.10219 0 -8.1117
-33.2395 0.0930781 0 -6.65137
-21.768 0.0992958 0 -7.55379
-11.099 0.102312 0 -8.11258
-22.5737 0.09912 0 -7.55027
-22.1709 0.0992092 0 -7.55203
-32.6352 0.0931273 0 -6.65402
-31.4268 0.0932191 0 -6.65931
-10.4946 0.102663 0 -8.11523
-10.8975 0.102432 0 -8.11346
-32.031 0.0931743 0 -6.65666
-20.9623 0.0994617 0 -7.55732
-10.6961 0.102549 0 -8.11434
-21.768 0.0992958 0 -7.55379
-21.3652 0.09938 0 -7.55556
-31.4268 0.0932191 0 -6.65931
-30.2183 0.0933023 0 -6.66463
-10.0917 0.102884 0 -8.117
-10.4946 0.102663 0 -8.11523
-30.8226 0.0932617 0 -6.66197
-20.1567 0.0996181 0 -7.56087
-10.2932 0.102775 0 -8.11611
-20.9623 0.0994617 0 -7.55732
-20.5595 0.099541 0 -7.55909
-30.2183 0.0933023 0 -6.66463
-29.0099 0.0933775 0 -6.66998
-9.68881 0.103095 0 -8.11878
-10.0917 0.102884 0 -8.117
-29.6141 0.0933408 0 -6.6673
-19.351 0.0997655 0 -7.56443
-9.89026 0.10299 0 -8.11789
-20.1567 0.0996181 0 -7.56087
-19.7538 0.0996928 0 -7.56265
-29.0099 0.0933775 0 -6.66998
-27.8015 0.0934458 0 -6.67534
-9.28592 0.103296 0 -8.12056
-9.68881 0.103095 0 -8.11878
-28.4057 0.0934124 0 -6.67266
-18.5453 0.0999049 0 -7.568
-9.48736 0.103196 0 -8.11967
-19.351 0.0997655 0 -7.56443
-18.9482 0.0998361 0 -7.56622
-27.8015 0.0934458 0 -6.67534
-26.593 0.0935088 0 -6.68072
-8.88303 0.103489 0 -8.12234
-9.28592 0.103296 0 -8.12056
-27.1972 0.0934779 0 -6.67803
-17.7397 0.100038 0 -7.57159
-9.08447 0.103393 0 -8.12145
-18.5453 0.0999049 0 -7.568
-18.1425 0.0999721 0 -7.56979
-26.593 0.0935088 0 -6.68072
-25.3846 0.0935686 0 -6.68613
-8.48015 0.103675 0 -8.12413
-8.88303 0.103489 0 -8.12234
-25.9888 0.093539 0 -6.68342
-16.934 0.100166 0 -7.57518
-8.68159 0.103583 0 -8.12324
-17.7397 0.100038 0 -7.57159
-17.3368 0.100102 0 -7.57338
-25.3846 0.0935686 0 -6.68613
-24.1762 0.0936266 0 -6.69155
-8.07729 0.103855 0 -8.12591
-8.48015 0.103675 0 -8.12413
-24.7804 0.0935978 0 -6.68883
-16.1284 0.100291 0 -7.57878
-8.27872 0.103766 0 -8.12502
-16.934 0.100166 0 -7.57518
-16.5312 0.100229 0 -7.57698
-24.1762 0.0936266 0 -6.69155
-22.9678 0.0936824 0 -6.69698
-7.67443 0.104029 0 -8.12769
-8.07729 0.103855 0 -8.12591
-23.572 0.093655 0 -6.69426
-15.3228 0.100411 0 -7.58238
-7.87586 0.103943 0 -8.1268
-16.1284 0.100291 0 -7.57878
-15.7256 0.100352 0 -7.58058
-22.9678 0.0936824 0 -6.69698
-21.7595 0.0937255 0 -6.70243
-7.27159 0.104193 0 -8.12946
-7.67443 0.104029 0 -8.12769
-22.3636 0.093707 0 -6.69971
-14.5172 0.100517 0 -7.58599
-7.47301 0.104112 0 -8.12858
-15.3228 0.100411 0 -7.58238
-14.92 0.100467 0 -7.58419
-21.7595 0.0937255 0 -6.70243
-20.5511 0.0937278 0 -6.70789
-6.86877 0.104328 0 -8.13125
-7.27159 0.104193 0 -8.12946
-21.1553 0.0937351 0 -6.70516
-13.7116 0.100577 0 -7.58961
-7.07018 0.104266 0 -8.13035
-14.5172 0.100517 0 -7.58599
-14.1144 0.100556 0 -7.5878
-20.5511 0.0937278 0 -6.70789
-19.3428 0.0936042 0 -6.71334
-6.46594 0.104399 0 -8.1331
-6.86877 0.104328 0 -8.13125
-19.947 0.0936912 0 -6.71062
-12.906 0.100516 0 -7.59325
-6.66736 0.104375 0 -8.13216
-13.7116 0.100577 0 -7.58961
-13.3088 0.100571 0 -7.59142
-19.3428 0.0936042 0 -6.71334
-18.1345 0.0931867 0 -6.71877
-6.06306 0.104296 0 -8.13513
-6.46594 0.104399 0 -8.1331
-18.7387 0.0934497 0 -6.71606
-12.1004 0.10016 0 -7.59698
-6.2645 0.104381 0 -8.13408
-12.906 0.100516 0 -7.59325
-12.5032 0.100392 0 -7.5951
-18.1345 0.0931867 0 -6.71877
-16.9258 0.092068 0 -6.72411
-5.6599 0.103849 0 -8.13765
-6.06306 0.104296 0 -8.13513
-17.5302 0.0927563 0 -6.72146
-11.2944 0.0991579 0 -7.60094
-5.86154 0.104133 0 -8.1363
-12.1004 0.10016 0 -7.59698
-11.6974 0.0997782 0 -7.59892
-16.9258 0.092068 0 -6.72411
-15.7163 0.0895596 0 -6.72933
-5.25629 0.102602 0 -8.14125
-5.6599 0.103849 0 -8.13765
-16.3213 0.0910557 0 -6.72674
-10.4875 0.0967975 0 -7.60542
-5.45815 0.103369 0 -8.13926
-11.2944 0.0991579 0 -7.60094
-10.8911 0.0982087 0 -7.60308
-15.7163 0.0895596 0 -6.72933
-14.5051 0.084138 0 -6.73424
-4.85116 0.0999794 0 -8.14716
-5.25629 0.102602 0 -8.14125
-15.1109 0.0873542 0 -6.73184
-9.67859 0.0918496 0 -7.61108
-5.05405 0.101522 0 -8.1438
-10.4875 0.0967975 0 -7.60542
-10.0834 0.0947824 0 -7.60808
-14.5051 0.084138 0 -6.73424
-13.289 0.0736424 0 -6.73881
-4.44377 0.0944495 0 -8.15761
-4.85116 0.0999794 0 -8.14716
-13.898 0.0797333 0 -6.73655
-8.86531 0.0820199 0 -7.6191
-4.6477 0.0977029 0 -8.15163
-9.67859 0.0918496 0 -7.61108
-9.27269 0.087707 0 -7.61463
-13.289 0.0736424 0 -6.73881
-12.0649 0.0534716 0 -6.74262
-4.03014 0.0846964 0 -8.17671
-4.44377 0.0944495 0 -8.15761
-12.678 0.0651358 0 -6.74088
-8.0433 0.0640475 0 -7.63179
-4.23824 0.0902459 0 -8.16571
-8.86531 0.0820199 0 -7.6191
-8.45571 0.0744302 0 -7.62479
-12.0649 0.0534716 0 -6.74262
-10.8218 0.0189501 0 -6.74639
-3.6085 0.0666736 0 -8.21087
-4.03014 0.0846964 0 -8.17671
-11.447 0.0384641 0 -6.74437
-7.20487 0.0324627 0 -7.65307
-3.82008 0.0769502 0 -8.19141
-8.0433 0.0640475 0 -7.63179
-7.62681 0.0501605 0 -7.64077
-10.8218 0.0189501 0 -6.74639
-9.55071 -0.0402035 0 -6.74972
-3.16665 0.0400491 0 -8.27055
-3.6085 0.0666736 0 -8.21087
-10.1897 -0.00702358 0 -6.74827
-6.33758 -0.0173109 0 -7.68949
-3.39178 0.0545816 0 -8.23664
-7.20487 0.0324627 0 -7.65307
-6.77561 0.0105626 0 -7.66937
-9.55071 -0.0402035 0 -6.74972
-8.21872 -0.124916 0 -6.75861
-2.70468 -0.0017596 0 -8.36775
-3.16665 0.0400491 0 -8.27055
-8.89628 -0.0790952 0 -6.75261
-5.42242 -0.0905016 0 -7.75095
-2.93675 0.020859 0 -8.31371
-6.33758 -0.0173109 0 -7.68949
-5.88785 -0.0519497 0 -7.71527
-8.21872 -0.124916 0 -6.75861
-6.81395 -0.243321 0 -6.7768
-2.19478 -0.041514 0 -8.51582
-2.70468 -0.0017596 0 -8.36775
-7.52364 -0.181452 0 -6.76659
-4.43848 -0.172647 0 -7.85019
-2.46033 -0.0228787 0 -8.43447
-5.42242 -0.0905016 0 -7.75095
-4.93961 -0.130628 0 -7.79692
-6.81395 -0.243321 0 -6.7768
-5.26661 -0.336456 0 -6.83611
-1.66626 -0.0719258 0 -8.70756
-2.19478 -0.041514 0 -8.51582
-6.06811 -0.297176 0 -6.79745
-3.36616 -0.227937 0 -7.99911
-1.92581 -0.0619197 0 -8.60804
-4.43848 -0.172647 0 -7.85019
-3.91666 -0.212675 0 -7.91392
-5.26661 -0.336456 0 -6.83611
-3.63217 -0.328945 0 -6.95771
-1.08784 0.0191404 0 -8.89635
-1.66626 -0.0719258 0 -8.70756
-4.4469 -0.362519 0 -6.88836
-2.23832 -0.114089 0 -8.1886
-1.39321 -0.0480872 0 -8.80722
-3.36616 -0.227937 0 -7.99911
-2.80141 -0.199538 0 -8.09774
-3.63217 -0.328945 0 -6.95771
-1.89618 0.183375 0 -7.21442
-0.615415 0.300731 0 -8.90526
-1.08784 0.0191404 0 -8.89635
-2.79092 -0.165342 0 -7.06252
-1.15783 0.384443 0 -8.32805
-0.812509 0.122234 0 -8.94135
-2.23832 -0.114089 0 -8.1886
-1.69115 0.0537351 0 -8.26233
-1.89618 0.183375 0 -7.21442
-0.590541 1.74722 0 -7.40304
-0.18348 1.02764 0 -8.40798
-0.615415 0.300731 0 -8.90526
-1.12275 0.749074 0 -7.34608
-0.443898 1.64376 0 -8.0621
-0.420381 0.617578 0 -8.74613
-1.15783 0.384443 0 -8.32805
-0.709598 0.927737 0 -8.30608
-0.590541 1.74722 0 -7.40304
0.165488 5.63903 0 -6.78383
-0.109011 1.82001 0 -6.8662
-0.18348 1.02764 0 -8.40798
-0.167355 3.4232 0 -7.28925
-0.0621969 3.64852 0 -6.69739
-0.0434344 1.4289 0 -7.80367
-0.443898 1.64376 0 -8.0621
-0.263367 2.53846 0 -7.52737
0.165488 5.63903 0 -6.78383
0.289869 10.0874 0 -3.55607
-0.267982 2.86263 0 -3.91745
-0.109011 1.82001 0 -6.8662
0.365364 8.07578 0 -5.59185
0.17433 6.2073 0 -3.9479
-0.228659 2.28809 0 -5.57979
-0.0621969 3.64852 0 -6.69739
0.11427 4.93621 0 -5.53323
-76.9596 -23.087 0 30.816
-75.1086 -12.8099 0 10.2134
74.9599 12.7306 0 10.2038
76.8018 23.0414 0 30.8071
-73.7773 -18.009 0 19.4377
-0.0789563 -0.0405398 0 11.5729
73.6248 17.9437 0 19.4301
-0.0842942 -0.0227164 0 31.4512
-0.080741 -0.0339955 0 21.7594
-75.1086 -12.8099 0 10.2134
-79.1573 -7.7318 0 -2.12214
79.0132 7.63614 0 -2.13913
74.9599 12.7306 0 10.2038
-78.2367 -9.98364 0 2.9596
-0.0771572 -0.0487529 0 -1.48278
78.0908 9.89472 0 2.94627
-0.0789563 -0.0405398 0 11.5729
-0.0781553 -0.0451857 0 3.5347
-79.1573 -7.7318 0 -2.12214
-79.4329 -3.13587 0 -7.70884
79.2914 3.03089 0 -7.7338
79.0132 7.63614 0 -2.13913
-79.0126 -5.19364 0 -5.49071
-0.0760812 -0.0540452 0 -7.53342
78.8697 5.09287 0 -5.51159
-0.0771572 -0.0487529 0 -1.48278
-0.0763967 -0.0516665 0 -4.92149
-79.4329 -3.13587 0 -7.70884
-79.6608 -0.990791 0 -9.69756
79.5217 0.8783 0 -9.72999
79.2914 3.03089 0 -7.7338
-79.8977 -1.87893 0 -9.04212
-0.0751924 -0.057626 0 -9.8711
79.7574 1.77004 0 -9.07096
-0.0760812 -0.0540452 0 -7.53342
-0.0757811 -0.0559747 0 -9.13957
-79.6608 -0.990791 0 -9.69756
-78.8095 0.124711 0 -9.90456
78.6726 -0.243167 0 -9.94364
79.5217 0.8783 0 -9.72999
-79.1312 -0.284052 0 -9.91192
-0.074143 -0.0605034 0 -10.27
78.9933 0.168349 0 -9.94776
-0.0751924 -0.057626 0 -9.8711
-0.074599 -0.0591612 0 -10.1687
-78.8095 0.124711 0 -9.90456
-78.0949 0.333436 0 -9.54714
77.9595 -0.455952 0 -9.5923
78.6726 -0.243167 0 -9.94364
-78.531 0.276658 0 -9.76186
-0.0732944 -0.0624144 0 -9.92406
78.395 -0.397397 0 -9.80402
-0.074143 -0.0605034 0 -10.27
-0.0737183 -0.0615798 0 -10.1648
-78.0949 0.333436 0 -9.54714
-77.2542 0.344109 0 -9.08722
77.1196 -0.468627 0 -9.13837
77.9595 -0.455952 0 -9.5923
-77.6198 0.3656 0 -9.30768
-0.0727484 -0.0634407 0 -9.43433
77.4849 -0.489368 0 -9.35582
-0.0732944 -0.0624144 0 -9.92406
-0.0729601 -0.0630425 0 -9.66287
-77.2542 0.344109 0 -9.08722
-76.6074 0.226659 0 -8.72171
76.473 -0.351392 0 -8.77892
77.1196 -0.468627 0 -9.13837
-76.9388 0.284839 0 -8.89094
-0.0725018 -0.0635667 0 -9.02049
76.8044 -0.409663 0 -8.9451
-0.0727484 -0.0634407 0 -9.43433
-0.072604 -0.0636042 0 -9.21826
-76.6074 0.226659 0 -8.72171
-76.0107 0.135549 0 -8.468
75.8763 -0.259125 0 -8.53141
76.473 -0.351392 0 -8.77892
-76.2868 0.180637 0 -8.58015
-0.0724517 -0.0630215 0 -8.73261
76.1525 -0.304938 0 -8.64045
-0.0725018 -0.0635667 0 -9.02049
-0.072454 -0.0633675 0 -8.8578
-76.0107 0.135549 0 -8.468
-75.5109 0.0587237 0 -8.31105
75.3763 -0.180196 0 -8.38074
75.8763 -0.259125 0 -8.53141
-75.7593 0.0925108 0 -8.37982
-0.0724958 -0.0619768 0 -8.55131
75.6248 -0.21513 0 -8.44637
-0.0724517 -0.0630215 0 -8.73261
-0.0724707 -0.0625492 0 -8.63196
-75.5109 0.0587237 0 -8.31105
-75.0453 0.0136207 0 -8.2186
74.9104 -0.132394 0 -8.29459
75.3763 -0.180196 0 -8.38074
-75.2708 0.0338303 0 -8.25817
-0.0725558 -0.0606231 0 -8.44602
75.136 -0.15401 0 -8.33101
-0.0724958 -0.0619768 0 -8.55131
-0.0725267 -0.06133 0 -8.49036
-75.0453 0.0136207 0 -8.2186
-74.6138 -0.0147298 0 -8.16722
74.4788 -0.101006 0 -8.24946
74.9104 -0.132394 0 -8.29459
-74.8284 -0.00286551 0 -8.18915
-0.0725816 -0.0590856 0 -8.3881
74.6935 -0.114419 0 -8.26827
-0.0725558 -0.0606231 0 -8.44602
-0.0725758 -0.0598706 0 -8.41289
-74.6138 -0.0147298 0 -8.16722
-74.1946 -0.0290084 0 -8.13922
74.0597 -0.0835282 0 -8.22764
74.4788 -0.101006 0 -8.24946
-74.4022 -0.0229707 0 -8.15104
-0.0725507 -0.05746 0 -8.35821
74.2672 -0.0911781 0 -8.23638
-0.0725816 -0.0590856 0 -8.3881
-0.0725739 -0.0582797 0 -8.37044
-74.1946 -0.0290084 0 -8.13922
-73.7852 -0.0362613 0 -8.12418
73.6504 -0.0730215 0 -8.21867
74.0597 -0.0835282 0 -8.22764
-73.9896 -0.0334341 0 -8.13059
-0.0724561 -0.055802 0 -8.34354
73.8547 -0.0774778 0 -8.22206
-0.0725507 -0.05746 0 -8.35821
-0.0725115 -0.0566325 0 -8.3496
-73.7852 -0.0362613 0 -8.12418
-73.379 -0.0389243 0 -8.11577
73.2444 -0.0671111 0 -8.21622
73.6504 -0.0730215 0 -8.21867
-73.5816 -0.0379485 0 -8.1194
-0.0723023 -0.0541456 0 -8.33689
73.4469 -0.0697075 0 -8.21689
-0.0724561 -0.055802 0 -8.34354
-0.0723861 -0.0549724 0 -8.3395
-73.379 -0.0389243 0 -8.11577
-72.975 -0.0394576 0 -8.11065
72.8408 -0.0633669 0 -8.21693
73.2444 -0.0671111 0 -8.21622
-73.1769 -0.0394102 0 -8.11295
-0.0720976 -0.0525068 0 -8.33412
73.0426 -0.0650142 0 -8.21632
-0.0723023 -0.0541456 0 -8.33689
-0.0722057 -0.0533234 0 -8.3352
-72.975 -0.0394576 0 -8.11065
-72.5716 -0.0387995 0 -8.10704
72.4379 -0.0608614 0 -8.21903
72.8408 -0.0633669 0 -8.21693
-72.7732 -0.0392158 0 -8.10873
-0.0718523 -0.0508921 0 -8.33315
72.6392 -0.0620207 0 -8.21787
-0.0720976 -0.0525068 0 -8.33412
-0.0719794 -0.0516963 0 -8.33349
-72.5716 -0.0387995 0 -8.10704
-72.1686 -0.0376519 0 -8.10409
72.0353 -0.0588933 0 -8.22167
72.4379 -0.0608614 0 -8.21903
-72.3701 -0.0382721 0 -8.10552
-0.0715759 -0.049302 0 -8.33291
72.2366 -0.0598252 0 -8.22032
-0.0718523 -0.0508921 0 -8.33315
-0.0717175 -0.0500941 0 -8.33298
-72.1686 -0.0376519 0 -8.10409
-71.7656 -0.0362751 0 -8.1014
71.6328 -0.0571975 0 -8.22446
72.0353 -0.0588933 0 -8.22167
-71.9671 -0.0369775 0 -8.10273
-0.0712765 -0.0477344 0 -8.33295
71.8341 -0.0580264 0 -8.22306
-0.0715759 -0.049302 0 -8.33291
-0.0714287 -0.0485156 0 -8.33291
-71.7656 -0.0362751 0 -8.1014
-71.3626 -0.0348313 0 -8.09881
71.2304 -0.0556055 0 -8.22724
71.6328 -0.0571975 0 -8.22446
-71.5641 -0.0355585 0 -8.1001
-0.0709605 -0.0461859 0 -8.33305
71.4316 -0.056392 0 -8.22585
-0.0712765 -0.0477344 0 -8.33295
-0.0711203 -0.046958 0 -8.333
-71.3626 -0.0348313 0 -8.09881
-70.9595 -0.0333717 0 -8.09627
70.828 -0.0540592 0 -8.22995
71.2304 -0.0556055 0 -8.22724
-71.1611 -0.0341008 0 -8.09754
-0.0706327 -0.044653 0 -8.33315
71.0292 -0.0548297 0 -8.2286
-0.0709605 -0.0461859 0 -8.33305
-0.0707978 -0.0454177 0 -8.3331
-70.9595 -0.0333717 0 -8.09627
-70.5565 -0.0319225 0 -8.09375
70.4255 -0.0525266 0 -8.23258
70.828 -0.0540592 0 -8.22995
-70.758 -0.0326456 0 -8.09501
-0.0702965 -0.0431328 0 -8.33322
70.6267 -0.0532917 0 -8.23128
-0.0706327 -0.044653 0 -8.33315
-0.0704655 -0.0438915 0 -8.33319
-70.5565 -0.0319225 0 -8.09375
-70.1534 -0.0304872 0 -8.09127
70.023 -0.0509993 0 -8.23514
70.4255 -0.0525266 0 -8.23258
-70.3549 -0.0312029 0 -8.09251
-0.0699543 -0.0416227 0 -8.33326
70.2242 -0.0517627 0 -8.23387
-0.0702965 -0.0431328 0 -8.33322
-0.070126 -0.0423766 0 -8.33324
-70.1534 -0.0304872 0 -8.09127
-69.7503 -0.0290658 0 -8.08882
69.6205 -0.0494738 0 -8.23764
70.023 -0.0509993 0 -8.23514
-69.9518 -0.029775 0 -8.09004
-0.0696077 -0.0401207 0 -8.33329
69.8218 -0.0502363 0 -8.2364
-0.0699543 -0.0416227 0 -8.33326
-0.0697815 -0.0408708 0 -8.33328
-69.7503 -0.0290658 0 -8.08882
-69.3471 -0.0276556 0 -8.08641
69.218 -0.0479502 0 -8.24007
69.6205 -0.0494738 0 -8.23764
-69.5487 -0.0283594 0 -8.08761
-0.0692577 -0.0386256 0 -8.3333
69.4193 -0.0487118 0 -8.23886
-0.0696077 -0.0401207 0 -8.33329
-0.069433 -0.0393724 0 -8.33329
-69.3471 -0.0276556 0 -8.08641
-68.944 -0.0262541 0 -8.08404
68.8155 -0.0464289 0 -8.24245
69.218 -0.0479502 0 -8.24007
-69.1456 -0.0269539 0 -8.08522
-0.0689049 -0.0371363 0 -8.33331
69.0168 -0.0471892 0 -8.24127
-0.0692577 -0.0386256 0 -8.3333
-0.0690816 -0.0378803 0 -8.3333
-68.944 -0.0262541 0 -8.08404
-68.5409 -0.0248597 0 -8.08172
68.413 -0.0449106 0 -8.24477
68.8155 -0.0464289 0 -8.24245
-68.7425 -0.0255561 0 -8.08287
-0.0685497 -0.0356522 0 -8.33331
68.6143 -0.0456694 0 -8.24362
-0.0689049 -0.0371363 0 -8.33331
-0.0687276 -0.0363937 0 -8.33331
-68.5409 -0.0248597 0 -8.08172
-68.1378 -0.0234711 0 -8.07945
68.0105 -0.0433956 0 -8.24705
68.413 -0.0449106 0 -8.24477
-68.3393 -0.0241647 0 -8.08058
-0.0681923 -0.0341729 0 -8.33331
68.2118 -0.0441526 0 -8.24592
-0.0685497 -0.0356522 0 -8.33331
-0.0683712 -0.034912 0 -8.33331
-68.1378 -0.0234711 0 -8.07945
-67.7346 -0.0220876 0 -8.07722
67.608 -0.0418843 0 -8.24927
68.0105 -0.0433956 0 -8.24705
-67.9362 -0.0227787 0 -8.07833
-0.0678328 -0.0326982 0 -8.33331
67.8093 -0.0426394 0 -8.24816
-0.0681923 -0.0341729 0 -8.33331
-0.0680128 -0.033435 0 -8.33331
-67.7346 -0.0220876 0 -8.07722
-67.3315 -0.0207088 0 -8.07504
67.2056 -0.0403769 0 -8.25144
67.608 -0.0418843 0 -8.24927
-67.533 -0.0213976 0 -8.07613
-0.0674713 -0.031228 0 -8.33331
67.4068 -0.0411301 0 -8.25036
-0.0678328 -0.0326982 0 -8.33331
-0.0676523 -0.0319625 0 -8.33331
-67.3315 -0.0207088 0 -8.07504
-66.9283 -0.0193345 0 -8.07291
66.8031 -0.0388735 0 -8.25357
67.2056 -0.0403769 0 -8.25144
-67.1299 -0.0200211 0 -8.07397
-0.0671079 -0.0297622 0 -8.33331
67.0043 -0.0396247 0 -8.25251
-0.0674713 -0.031228 0 -8.33331
-0.0672899 -0.0304945 0 -8.33331
-66.9283 -0.0193345 0 -8.07291
-66.5252 -0.0179647 0 -8.07083
66.4006 -0.0373743 0 -8.25565
66.8031 -0.0388735 0 -8.25357
-66.7268 -0.0186491 0 -8.07187
-0.0667425 -0.0283009 0 -8.3333
66.6018 -0.0381234 0 -8.25462
-0.0671079 -0.0297622 0 -8.33331
-0.0669255 -0.029031 0 -8.33331
-66.5252 -0.0179647 0 -8.07083
-66.122 -0.0165994 0 -8.0688
65.9981 -0.0358794 0 -8.25768
66.4006 -0.0373743 0 -8.25565
-66.3236 -0.0172815 0 -8.06981
-0.0663753 -0.0268441 0 -8.3333
66.1993 -0.0366263 0 -8.25667
-0.0667425 -0.0283009 0 -8.3333
-0.0665591 -0.0275719 0 -8.3333
-66.122 -0.0165994 0 -8.0688
-65.7189 -0.0152386 0 -8.06681
65.5956 -0.0343888 0 -8.25966
65.9981 -0.0358794 0 -8.25768
-65.9205 -0.0159185 0 -8.0678
-0.0660062 -0.0253919 0 -8.3333
65.7969 -0.0351335 0 -8.25868
-0.0663753 -0.0268441 0 -8.3333
-0.066191 -0.0261174 0 -8.3333
-65.7189 -0.0152386 0 -8.06681
-65.3157 -0.0138825 0 -8.06487
65.1931 -0.0329027 0 -8.2616
65.5956 -0.0343888 0 -8.25966
-65.5173 -0.01456 0 -8.06584
-0.0656353 -0.0239445 0 -8.3333
65.3944 -0.0336452 0 -8.26064
-0.0660062 -0.0253919 0 -8.3333
-0.0658209 -0.0246676 0 -8.3333
-65.3157 -0.0138825 0 -8.06487
-64.9126 -0.012531 0 -8.06298
64.7907 -0.0314212 0 -8.26349
65.1931 -0.0329027 0 -8.2616
-65.1141 -0.0132062 0 -8.06392
-0.0652626 -0.0225018 0 -8.3333
64.9919 -0.0321614 0 -8.26255
-0.0656353 -0.0239445 0 -8.3333
-0.0654492 -0.0232225 0 -8.3333
-64.9126 -0.012531 0 -8.06298
-64.5094 -0.0111843 0 -8.06113
64.3882 -0.0299444 0 -8.26533
64.7907 -0.0314212 0 -8.26349
-64.711 -0.0118571 0 -8.06205
-0.0648883 -0.021064 0 -8.3333
64.5894 -0.0306822 0 -8.26442
-0.0652626 -0.0225018 0 -8.3333
-0.0650757 -0.0217823 0 -8.3333
-64.5094 -0.0111843 0 -8.06113
-64.1063 -0.00984244 0 -8.05933
63.9857 -0.0284722 0 -8.26713
64.3882 -0.0299444 0 -8.26533
-64.3078 -0.0105128 0 -8.06023
-0.0645123 -0.0196311 0 -8.33329
64.1869 -0.0292077 0 -8.26624
-0.0648883 -0.021064 0 -8.3333
-0.0647005 -0.0203469 0 -8.33329
-64.1063 -0.00984244 0 -8.05933
-63.7031 -0.0085055 0 -8.05758
63.5832 -0.027005 0 -8.26888
63.9857 -0.0284722 0 -8.26713
-63.9047 -0.00917335 0 -8.05845
-0.0641348 -0.0182033 0 -8.33329
63.7845 -0.027738 0 -8.26801
-0.0645124 -0.0196311 0 -8.33329
-0.0643238 -0.0189166 0 -8.33329
-63.7031 -0.0085055 0 -8.05758
-63.2999 -0.00717355 0 -8.05587
63.1808 -0.0255426 0 -8.27059
63.5832 -0.027005 0 -8.26888
-63.5015 -0.00783889 0 -8.05671
-0.0637558 -0.0167806 0 -8.33329
63.382 -0.0262732 0 -8.26974
-0.0641348 -0.0182033 0 -8.33329
-0.0639455 -0.0174913 0 -8.33329
-63.2999 -0.00717355 0 -8.05587
-62.8968 -0.00584666 0 -8.0542
62.7783 -0.0240853 0 -8.27225
63.1808 -0.0255426 0 -8.27059
-63.0984 -0.00650947 0 -8.05503
-0.0633754 -0.0153631 0 -8.33329
62.9795 -0.0248133 0 -8.27143
-0.0637558 -0.0167806 0 -8.33329
-0.0635658 -0.0160712 0 -8.33329
-62.8968 -0.00584666 0 -8.0542
-62.4936 -0.00452492 0 -8.05258
62.3758 -0.022633 0 -8.27387
62.7783 -0.0240853 0 -8.27225
-62.6952 -0.00518515 0 -8.05339
-0.0629937 -0.0139509 0 -8.33329
62.5771 -0.0233585 0 -8.27306
-0.0633754 -0.0153631 0 -8.33329
-0.0631847 -0.0146564 0 -8.33329
-62.4936 -0.00452492 0 -8.05258
-62.0904 -0.00320839 0 -8.05101
61.9734 -0.0211859 0 -8.27544
62.3758 -0.022633 0 -8.27387
-62.292 -0.003866 0 -8.05179
-0.0626106 -0.0125441 0 -8.33328
62.1746 -0.0219088 0 -8.27466
-0.0629937 -0.0139509 0 -8.33329
-0.0628023 -0.0132468 0 -8.33329
-62.0904 -0.00320838 0 -8.05101
-61.6873 -0.00189713 0 -8.04948
61.5709 -0.019744 0 -8.27696
61.9734 -0.0211859 0 -8.27544
-61.8889 -0.00255209 0 -8.05024
-0.0622264 -0.0111426 0 -8.33328
61.7721 -0.0204643 0 -8.27621
-0.0626107 -0.0125441 0 -8.33328
-0.0624187 -0.0118427 0 -8.33328
-61.6873 -0.00189713 0 -8.04948
-61.2841 -0.000591216 0 -8.04799
61.1684 -0.0183075 0 -8.27845
61.5709 -0.019744 0 -8.27696
-61.4857 -0.0012435 0 -8.04873
-0.0618411 -0.00974667 0 -8.33328
61.3697 -0.0190251 0 -8.27771
-0.0622264 -0.0111426 0 -8.33328
-0.0620339 -0.010444 0 -8.33328
-61.2841 -0.000591219 0 -8.04799
-60.8809 0.000709282 0 -8.04655
60.766 -0.0168764 0 -8.27988
61.1684 -0.0183075 0 -8.27845
-61.0825 5.97091e-05 0 -8.04726
-0.0614546 -0.0083563 0 -8.33328
60.9672 -0.0175913 0 -8.27917
-0.0618411 -0.00974667 0 -8.33328
-0.061648 -0.00905079 0 -8.33328
-60.8809 0.000709282 0 -8.04655
-60.4778 0.0020043 0 -8.04515
60.3635 -0.0154507 0 -8.28128
60.766 -0.0168764 0 -8.27988
-60.6793 0.00135748 0 -8.04584
-0.0610672 -0.00697156 0 -8.33328
60.5647 -0.0161629 0 -8.28059
-0.0614546 -0.0083563 0 -8.33328
-0.0612611 -0.00766322 0 -8.33328
-60.4778 0.0020043 0 -8.04515
-60.0746 0.00329378 0 -8.04379
59.9611 -0.0140306 0 -8.28263
60.3635 -0.0154507 0 -8.28128
-60.2762 0.00264974 0 -8.04447
-0.0606789 -0.00559253 0 -8.33327
60.1623 -0.01474 0 -8.28196
-0.0610672 -0.00697156 0 -8.33328
-0.0608732 -0.00628132 0 -8.33327
-60.0746 0.00329378 0 -8.04379
-59.6714 0.00457766 0 -8.04248
59.5586 -0.0126162 0 -8.28394
59.9611 -0.0140306 0 -8.28263
-59.873 0.00393642 0 -8.04313
-0.0602897 -0.00421928 0 -8.33327
59.7598 -0.0133227 0 -8.28329
-0.0606789 -0.00559253 0 -8.33327
-0.0604844 -0.00490518 0 -8.33327
-59.6714 0.00457766 0 -8.04248
-59.2682 0.00585585 0 -8.04121
59.1561 -0.0112074 0 -8.28521
59.5586 -0.0126162 0 -8.28394
-59.4698 0.00521747 0 -8.04184
-0.0598998 -0.00285188 0 -8.33327
59.3574 -0.0119111 0 -8.28458
-0.0602897 -0.00421928 0 -8.33327
-0.0600948 -0.00353484 0 -8.33327
-59.2682 0.00585585 0 -8.04121
-58.8651 0.0071283 0 -8.03998
58.7537 -0.00980438 0 -8.28643
59.1561 -0.0112074 0 -8.28521
-59.0666 0.0064928 0 -8.04059
-0.0595091 -0.0014904 0 -8.33327
58.9549 -0.0105052 0 -8.28582
-0.0598998 -0.00285188 0 -8.33327
-0.0597045 -0.00217039 0 -8.33327
-58.8651 0.0071283 0 -8.03998
-58.4619 0.00839496 0 -8.0388
58.3512 -0.00840724 0 -8.28761
58.7537 -0.00980438 0 -8.28643
-58.6635 0.00776236 0 -8.03938
-0.0591178 -0.000134903 0 -8.33326
58.5525 -0.00910508 0 -8.28702
-0.0595091 -0.0014904 0 -8.33327
-0.0593135 -0.000811898 0 -8.33327
-58.4619 0.00839496 0 -8.0388
-58.0587 0.00965575 0 -8.03765
57.9488 -0.007016 0 -8.28875
58.3512 -0.00840724 0 -8.28761
-58.2603 0.00902609 0 -8.03822
-0.0587259 0.00121455 0 -8.33326
58.15 -0.00771088 0 -8.28819
-0.0591178 -0.000134904 0 -8.33326
-0.0589219 0.00054058 0 -8.33326
-58.0587 0.00965575 0 -8.03765
-57.6555 0.0109106 0 -8.03655
57.5463 -0.00563075 0 -8.28985
57.9488 -0.007016 0 -8.28875
-57.8571 0.0102839 0 -8.0371
-0.0583335 0.00255787 0 -8.33326
57.7475 -0.00632262 0 -8.2893
-0.0587259 0.00121454 0 -8.33326
-0.0585298 0.00188698 0 -8.33326
-57.6555 0.0109106 0 -8.03655
-57.2523 0.0121595 0 -8.03549
57.1439 -0.00425157 0 -8.2909
57.5463 -0.00563075 0 -8.28985
-57.4539 0.0115358 0 -8.03601
-0.0579407 0.00389499 0 -8.33326
57.3451 -0.0049404 0 -8.29038
-0.0583335 0.00255787 0 -8.33326
-0.0581372 0.00322721 0 -8.33326
-57.2523 0.0121595 0 -8.03549
-56.8492 0.0134023 0 -8.03447
56.7414 -0.00287851 0 -8.29192
57.1439 -0.00425157 0 -8.2909
-57.0508 0.0127816 0 -8.03497
-0.0575475 0.00522588 0 -8.33326
56.9426 -0.00356427 0 -8.29142
-0.0579407 0.00389499 0 -8.33326
-0.0577442 0.00456122 0 -8.33326
-56.8492 0.0134023 0 -8.03447
-56.446 0.014639 0 -8.03349
56.339 -0.00151166 0 -8.2929
56.7414 -0.00287851 0 -8.29192
-56.6476 0.0140214 0 -8.03397
-0.057154 0.00655043 0 -8.33325
56.5402 -0.00219431 0 -8.29241
-0.0575475 0.00522588 0 -8.33326
-0.0573508 0.00588895 0 -8.33325
-56.446 0.014639 0 -8.03349
-56.0428 0.0158695 0 -8.03255
55.9365 -0.000151085 0 -8.29383
56.339 -0.00151166 0 -8.2929
-56.2444 0.015255 0 -8.03301
-0.0567603 0.00786859 0 -8.33325
56.1377 -0.000830585 0 -8.29337
-0.057154 0.00655043 0 -8.33325
-0.0569572 0.00721031 0 -8.33325
-56.0428 0.0158695 0 -8.03255
-55.6396 0.0170938 0 -8.03165
55.5341 0.00120316 0 -8.29473
55.9365 -0.000151085 0 -8.29383
-55.8412 0.0164824 0 -8.03209
-0.0563664 0.00918031 0 -8.33325
55.7353 0.000526835 0 -8.29428
-0.0567603 0.00786859 0 -8.33325
-0.0565633 0.00852527 0 -8.33325
-55.6396 0.0170938 0 -8.03165
-55.2365 0.0183118 0 -8.03079
55.1316 0.00255099 0 -8.29558
55.5341 0.00120316 0 -8.29473
-55.438 0.0177036 0 -8.03122
-0.0559723 0.0104855 0 -8.33325
55.3328 0.00187788 0 -8.29516
-0.0563664 0.00918031 0 -8.33325
-0.0561694 0.00983373 0 -8.33325
-55.2365 0.0183118 0 -8.03079
-54.8333 0.0195234 0 -8.02997
54.7292 0.00389235 0 -8.2964
55.1316 0.00255099 0 -8.29558
-55.0349 0.0189184 0 -8.03038
-0.0555783 0.0117841 0 -8.33324
54.9304 0.00322249 0 -8.29599
-0.0559723 0.0104855 0 -8.33325
-0.0557753 0.0111357 0 -8.33325
-54.8333 0.0195234 0 -8.02997
-54.4301 0.0207286 0 -8.02919
54.3267 0.00522716 0 -8.29717
54.7292 0.00389235 0 -8.2964
-54.6317 0.0201268 0 -8.02958
-0.0551842 0.0130761 0 -8.33324
54.5279 0.00456057 0 -8.29679
-0.0555783 0.0117841 0 -8.33324
-0.0553812 0.012431 0 -8.33324
-54.4301 0.0207286 0 -8.02919
-54.0269 0.0219273 0 -8.02845
53.9243 0.00655536 0 -8.29791
54.3267 0.00522716 0 -8.29717
-54.2285 0.0213288 0 -8.02881
-0.0547902 0.0143614 0 -8.33324
54.1255 0.00589209 0 -8.29755
-0.0551842 0.0130761 0 -8.33324
-0.0549872 0.0137196 0 -8.33324
-54.0269 0.0219273 0 -8.02845
-53.6237 0.0231195 0 -8.02774
53.5218 0.00787689 0 -8.29861
53.9243 0.00655536 0 -8.29791
-53.8253 0.0225242 0 -8.02809
-0.0543964 0.0156399 0 -8.33324
53.723 0.00721696 0 -8.29826
-0.0547902 0.0143614 0 -8.33324
-0.0545933 0.0150015 0 -8.33324
-53.6237 0.0231195 0 -8.02774
-53.2205 0.0243051 0 -8.02708
53.1194 0.00919167 0 -8.29927
53.5218 0.00787689 0 -8.29861
-53.4221 0.0237131 0 -8.02741
-0.0540028 0.0169115 0 -8.33323
53.3206 0.00853512 0 -8.29894
-0.0543964 0.0156399 0 -8.33324
-0.0541996 0.0162766 0 -8.33324
-53.2205 0.024305 0 -8.02708
-52.8174 0.025484 0 -8.02645
52.7169 0.0104997 0 -8.29989
53.1194 0.00919167 0 -8.29927
-53.019 0.0248953 0 -8.02676
-0.0536094 0.0181763 0 -8.33323
52.9181 0.00984651 0 -8.29958
-0.0540028 0.0169115 0 -8.33323
-0.0538061 0.0175448 0 -8.33323
-52.8174 0.025484 0 -8.02645
-52.4142 0.0266562 0 -8.02586
52.3145 0.0118008 0 -8.30047
52.7169 0.0104997 0 -8.29989
-52.6158 0.0260709 0 -8.02615
-0.0532164 0.0194341 0 -8.33323
52.5157 0.0111511 0 -8.30019
-0.0536094 0.0181763 0 -8.33323
-0.0534129 0.0188061 0 -8.33323
-52.4142 0.0266562 0 -8.02586
-52.011 0.0278216 0 -8.02531
51.912 0.0130949 0 -8.30102
52.3145 0.0118008 0 -8.30047
-52.2126 0.0272397 0 -8.02558
-0.0528238 0.0206849 0 -8.33323
52.1132 0.0124487 0 -8.30075
-0.0532164 0.0194341 0 -8.33323
-0.05302 0.0200604 0 -8.33323
-52.011 0.0278216 0 -8.02531
-51.6078 0.0289802 0 -8.0248
51.5096 0.0143821 0 -8.30153
51.912 0.0130949 0 -8.30102
-51.8094 0.0284017 0 -8.02505
-0.0524316 0.0219286 0 -8.33322
51.7108 0.0137394 0 -8.30128
-0.0528237 0.0206849 0 -8.33323
-0.0526276 0.0213077 0 -8.33323
-51.6078 0.0289802 0 -8.0248
-51.2047 0.0301319 0 -8.02432
51.1071 0.0156622 0 -8.302
51.5096 0.0143821 0 -8.30153
-51.4062 0.0295569 0 -8.02455
-0.0520399 0.0231652 0 -8.33322
51.3083 0.0150231 0 -8.30177
-0.0524316 0.0219286 0 -8.33322
-0.0522357 0.0225478 0 -8.33322
-51.2047 0.0301319 0 -8.02432
-50.8015 0.0312766 0 -8.02388
50.7047 0.0169352 0 -8.30244
51.1071 0.0156622 0 -8.302
-51.0031 0.0307051 0 -8.02409
-0.0516488 0.0243946 0 -8.33322
50.9059 0.0162996 0 -8.30223
-0.0520399 0.0231652 0 -8.33322
-0.0518443 0.0237808 0 -8.33322
-50.8015 0.0312766 0 -8.02388
-50.3983 0.0324144 0 -8.02347
50.3022 0.018201 0 -8.30284
50.7047 0.0169352 0 -8.30244
-50.5999 0.0318464 0 -8.02367
-0.0512583 0.0256167 0 -8.33322
50.5034 0.017569 0 -8.30264
-0.0516488 0.0243946 0 -8.33322
-0.0514535 0.0250065 0 -8.33322
-50.3983 0.0324144 0 -8.02347
-49.9951 0.033545 0 -8.0231
49.8998 0.0194596 0 -8.3032
50.3022 0.018201 0 -8.30284
-50.1967 0.0329806 0 -8.02328
-0.0508685 0.0268315 0 -8.33321
50.101 0.0188312 0 -8.30303
-0.0512583 0.0256167 0 -8.33322
-0.0510633 0.026225 0 -8.33322
-49.9951 0.033545 0 -8.0231
-49.5919 0.0346686 0 -8.02277
49.4973 0.0207108 0 -8.30353
49.8998 0.0194596 0 -8.3032
-49.7935 0.0341077 0 -8.02293
-0.0504795 0.0280389 0 -8.33321
49.6985 0.0200861 0 -8.30337
-0.0508685 0.0268315 0 -8.33321
-0.0506739 0.0274362 0 -8.33321
-49.5919 0.0346686 0 -8.02277
-49.1888 0.035785 0 -8.02247
49.0949 0.0219547 0 -8.30382
49.4973 0.0207108 0 -8.30353
-49.3904 0.0352277 0 -8.02262
-0.0500912 0.029239 0 -8.33321
49.2961 0.0213337 0 -8.30368
-0.0504795 0.0280389 0 -8.33321
-0.0502853 0.0286399 0 -8.33321
-49.1888 0.035785 0 -8.02247
-48.7856 0.0368942 0 -8.02221
48.6924 0.0231912 0 -8.30408
49.0949 0.0219547 0 -8.30382
-48.9872 0.0363405 0 -8.02234
-0.0497038 0.0304315 0 -8.33321
48.8936 0.0225739 0 -8.30396
-0.0500912 0.029239 0 -8.33321
-0.0498974 0.0298361 0 -8.33321
-48.7856 0.0368942 0 -8.02221
-48.3824 0.0379961 0 -8.02198
48.29 0.0244202 0 -8.3043
48.6924 0.0231912 0 -8.30408
-48.584 0.037446 0 -8.02209
-0.0493174 0.0316164 0 -8.3332
48.4912 0.0238066 0 -8.3042
-0.0497038 0.0304315 0 -8.33321
-0.0495105 0.0310249 0 -8.33321
-48.3824 0.0379961 0 -8.02198
-47.9792 0.0390906 0 -8.02179
47.8875 0.0256416 0 -8.30449
48.29 0.0244202 0 -8.3043
-48.1808 0.0385443 0 -8.02188
-0.0489319 0.0327938 0 -8.3332
48.0887 0.0250318 0 -8.3044
-0.0493174 0.0316164 0 -8.3332
-0.0491245 0.0322061 0 -8.3332
-47.9792 0.0390906 0 -8.02179
-47.5761 0.0401778 0 -8.02163
47.4851 0.0268554 0 -8.30464
47.8875 0.0256416 0 -8.30449
-47.7777 0.0396351 0 -8.02171
-0.0485474 0.0339635 0 -8.3332
47.6863 0.0262495 0 -8.30457
-0.0489319 0.0327938 0 -8.3332
-0.0487396 0.0333796 0 -8.3332
-47.5761 0.0401778 0 -8.02163
-47.1729 0.0412575 0 -8.02151
47.0826 0.0280616 0 -8.30476
47.4851 0.0268554 0 -8.30464
-47.3745 0.0407186 0 -8.02157
-0.0481641 0.0351255 0 -8.3332
47.2838 0.0274595 0 -8.30471
-0.0485474 0.0339635 0 -8.3332
-0.0483556 0.0345455 0 -8.3332
-47.1729 0.0412575 0 -8.02151
-46.7697 0.0423298 0 -8.02142
46.6802 0.0292601 0 -8.30485
47.0826 0.0280616 0 -8.30476
-46.9713 0.0417946 0 -8.02146
-0.0477818 0.0362798 0 -8.33319
46.8814 0.0286618 0 -8.30481
-0.0481641 0.0351255 0 -8.3332
-0.0479728 0.0357036 0 -8.33319
-46.7697 0.0423298 0 -8.02142
-46.3666 0.0433944 0 -8.02136
46.2777 0.0304508 0 -8.3049
46.6802 0.0292601 0 -8.30485
-46.5682 0.042863 0 -8.02139
-0.0474008 0.0374262 0 -8.33319
46.4789 0.0298564 0 -8.30488
-0.0477818 0.0362798 0 -8.33319
-0.0475912 0.0368539 0 -8.33319
-46.3666 0.0433944 0 -8.02136
-45.9634 0.0444515 0 -8.02134
45.8752 0.0316336 0 -8.30492
46.2777 0.0304508 0 -8.3049
-46.165 0.0439239 0 -8.02134
-0.047021 0.0385647 0 -8.33319
46.0765 0.0310432 0 -8.30492
-0.0474008 0.0374262 0 -8.33319
-0.0472108 0.0379964 0 -8.33319
-45.9634 0.0444515 0 -8.02134
-45.5602 0.0455009 0 -8.02135
45.4728 0.0328086 0 -8.30491
45.8752 0.0316336 0 -8.30492
-45.7618 0.0449772 0 -8.02134
-0.0466425 0.0396953 0 -8.33319
45.674 0.0322221 0 -8.30492
-0.047021 0.0385647 0 -8.33319
-0.0468316 0.039131 0 -8.33319
-45.5602 0.0455009 0 -8.02135
-45.1571 0.0465427 0 -8.02139
45.0703 0.0339756 0 -8.30486
45.4728 0.0328086 0 -8.30491
-45.3587 0.0460228 0 -8.02136
-0.0462654 0.0408179 0 -8.33318
45.2716 0.0333931 0 -8.30489
-0.0466425 0.0396953 0 -8.33319
-0.0464538 0.0402576 0 -8.33318
-45.1571 0.0465427 0 -8.02139
-44.7539 0.0475766 0 -8.02146
44.6679 0.0351347 0 -8.30478
45.0703 0.0339756 0 -8.30486
-44.9555 0.0470606 0 -8.02142
-0.0458897 0.0419325 0 -8.33318
44.8691 0.0345562 0 -8.30483
-0.0462654 0.0408179 0 -8.33318
-0.0460774 0.0413762 0 -8.33318
-44.7539 0.0475766 0 -8.02146
-44.3507 0.0486028 0 -8.02157
44.2654 0.0362857 0 -8.30467
44.6679 0.0351347 0 -8.30478
-44.5523 0.0480907 0 -8.02151
-0.0455154 0.043039 0 -8.33318
44.4666 0.0357112 0 -8.30473
-0.0458897 0.0419325 0 -8.33318
-0.0457024 0.0424868 0 -8.33318
-44.3507 0.0486028 0 -8.02157
-43.9476 0.0496211 0 -8.0217
43.8629 0.0374286 0 -8.30453
44.2654 0.0362857 0 -8.30467
-44.1492 0.049113 0 -8.02163
-0.0451427 0.0441374 0 -8.33318
44.0642 0.0368582 0 -8.3046
-0.0455154 0.043039 0 -8.33318
-0.0453289 0.0435892 0 -8.33318
-43.9476 0.0496211 0 -8.0217
-43.5444 0.0506315 0 -8.02187
43.4605 0.0385634 0 -8.30436
43.8629 0.0374286 0 -8.30453
-43.746 0.0501273 0 -8.02178
-0.0447715 0.0452276 0 -8.33317
43.6617 0.037997 0 -8.30445
-0.0451427 0.0441374 0 -8.33318
-0.0449569 0.0446835 0 -8.33317
-43.5444 0.0506315 0 -8.02187
-43.1413 0.051634 0 -8.02207
43.058 0.0396899 0 -8.30415
43.4605 0.0385634 0 -8.30436
-43.3428 0.0511338 0 -8.02197
-0.0444019 0.0463095 0 -8.33317
43.2593 0.0391277 0 -8.30426
-0.0447715 0.0452276 0 -8.33317
-0.0445865 0.0457696 0 -8.33317
-43.1413 0.051634 0 -8.02207
-42.7381 0.0526284 0 -8.0223
42.6556 0.0408082 0 -8.30392
43.058 0.0396899 0 -8.30415
-42.9397 0.0521322 0 -8.02218
-0.044034 0.0473832 0 -8.33317
42.8568 0.0402501 0 -8.30404
-0.0444019 0.0463095 0 -8.33317
-0.0442177 0.0468474 0 -8.33317
-42.7381 0.0526284 0 -8.0223
-42.335 0.0536148 0 -8.02256
42.2531 0.0419182 0 -8.30365
42.6556 0.0408082 0 -8.30392
-42.5365 0.0531227 0 -8.02243
-0.0436678 0.0484485 0 -8.33317
42.4543 0.0413643 0 -8.30379
-0.044034 0.0473832 0 -8.33317
-0.0438507 0.0479169 0 -8.33317
-42.335 0.0536148 0 -8.02256
-41.9318 0.0545931 0 -8.02285
41.8506 0.0430199 0 -8.30335
42.2531 0.0419182 0 -8.30365
-42.1334 0.054105 0 -8.02271
-0.0433034 0.0495054 0 -8.33316
42.0519 0.0424701 0 -8.3035
-0.0436678 0.0484485 0 -8.33317
-0.0434854 0.048978 0 -8.33316
-41.9318 0.0545931 0 -8.02285
-41.5287 0.0555633 0 -8.02318
41.4482 0.0441131 0 -8.30303
41.8506 0.0430199 0 -8.30335
-41.7302 0.0550792 0 -8.02301
-0.0429407 0.0505539 0 -8.33316
41.6494 0.0435675 0 -8.30319
-0.0433034 0.0495054 0 -8.33316
-0.0431218 0.0500307 0 -8.33316
-41.5287 0.0555633 0 -8.02318
-41.1255 0.0565253 0 -8.02353
41.0457 0.0451979 0 -8.30267
41.4482 0.0441131 0 -8.30303
-41.3271 0.0560453 0 -8.02335
-0.04258 0.0515939 0 -8.33316
41.2469 0.0446566 0 -8.30285
-0.0429407 0.0505539 0 -8.33316
-0.0427601 0.0510749 0 -8.33316
-41.1255 0.0565253 0 -8.02353
-40.7224 0.057479 0 -8.02391
40.6432 0.0462742 0 -8.30228
41.0457 0.0451979 0 -8.30267
-40.9239 0.0570031 0 -8.02371
-0.0422211 0.0526253 0 -8.33316
40.8445 0.0457371 0 -8.30248
-0.04258 0.0515939 0 -8.33316
-0.0424003 0.0521107 0 -8.33316
-40.7224 0.057479 0 -8.02391
-40.3192 0.0584244 0 -8.02432
40.2407 0.0473419 0 -8.30187
40.6432 0.0462742 0 -8.30228
-40.5208 0.0579527 0 -8.02411
-0.0418642 0.0536482 0 -8.33315
40.442 0.0468091 0 -8.30208
-0.0422211 0.0526253 0 -8.33316
-0.0420424 0.0531378 0 -8.33315
-40.3192 0.0584244 0 -8.02432
-39.9161 0.0593615 0 -8.02476
39.8383 0.0484011 0 -8.30143
40.2407 0.0473419 0 -8.30187
-40.1176 0.058894 0 -8.02453
-0.0415093 0.0546624 0 -8.33315
40.0395 0.0478726 0 -8.30165
-0.0418642 0.0536482 0 -8.33315
-0.0416865 0.0541564 0 -8.33315
-39.9161 0.0593615 0 -8.02476
-39.5129 0.0602902 0 -8.02522
39.4358 0.0494516 0 -8.30095
39.8383 0.0484011 0 -8.30143
-39.7145 0.0598269 0 -8.02499
-0.0411564 0.055668 0 -8.33315
39.637 0.0489274 0 -8.30119
-0.0415093 0.0546624 0 -8.33315
-0.0413326 0.0551663 0 -8.33315
-39.5129 0.0602902 0 -8.02522
-39.1098 0.0612105 0 -8.02572
39.0333 0.0504934 0 -8.30045
39.4358 0.0494516 0 -8.30095
-39.3114 0.0607514 0 -8.02547
-0.0408057 0.0566649 0 -8.33315
39.2346 0.0499736 0 -8.30071
-0.0411564 0.055668 0 -8.33315
-0.0409808 0.0561675 0 -8.33315
-39.1098 0.0612105 0 -8.02572
-38.7067 0.0621223 0 -8.02624
38.6308 0.0515265 0 -8.29992
39.0333 0.0504934 0 -8.30045
-38.9082 0.0616674 0 -8.02598
-0.0404571 0.0576529 0 -8.33314
38.8321 0.051011 0 -8.30019
-0.0408057 0.0566649 0 -8.33315
-0.0406311 0.05716 0 -8.33314
-38.7067 0.0621223 0 -8.02624
-38.3035 0.0630256 0 -8.02679
38.2284 0.0525507 0 -8.29937
38.6308 0.0515265 0 -8.29992
-38.5051 0.062575 0 -8.02651
-0.0401106 0.0586322 0 -8.33314
38.4296 0.0520397 0 -8.29965
-0.040457 0.0576529 0 -8.33314
-0.0402836 0.0581437 0 -8.33314
-38.3035 0.0630256 0 -8.02679
-37.9004 0.0639203 0 -8.02737
37.8259 0.0535662 0 -8.29879
38.2284 0.0525507 0 -8.29937
-38.102 0.063474 0 -8.02708
-0.0397664 0.0596026 0 -8.33314
38.0271 0.0530596 0 -8.29908
-0.0401106 0.0586322 0 -8.33314
-0.0399382 0.0591185 0 -8.33314
-37.9004 0.0639203 0 -8.02737
-37.4973 0.0648064 0 -8.02798
37.4234 0.0545728 0 -8.29818
37.8259 0.0535662 0 -8.29879
-37.6988 0.0643644 0 -8.02767
-0.0394245 0.0605642 0 -8.33314
37.6246 0.0540706 0 -8.29848
-0.0397664 0.0596026 0 -8.33314
-0.0395951 0.0600845 0 -8.33314
-37.4973 0.0648064 0 -8.02798
-37.0941 0.0656839 0 -8.02861
37.0209 0.0555704 0 -8.29754
37.4234 0.0545728 0 -8.29818
-37.2957 0.0652462 0 -8.02829
-0.0390849 0.0615167 0 -8.33313
37.2221 0.0550727 0 -8.29786
-0.0394245 0.0605642 0 -8.33314
-0.0392544 0.0610416 0 -8.33313
-37.0941 0.0656839 0 -8.02861
-36.691 0.0665527 0 -8.02927
36.6184 0.0565591 0 -8.29687
37.0209 0.0555704 0 -8.29754
-36.8926 0.0661194 0 -8.02894
-0.0387476 0.0624603 0 -8.33313
36.8197 0.0560659 0 -8.29721
-0.0390849 0.0615167 0 -8.33313
-0.038916 0.0619896 0 -8.33313
-36.691 0.0665527 0 -8.02927
-36.2879 0.0674127 0 -8.02995
36.2159 0.0575389 0 -8.29618
36.6184 0.0565591 0 -8.29687
-36.4895 0.0669838 0 -8.02961
-0.0384128 0.0633949 0 -8.33313
36.4172 0.0570501 0 -8.29653
-0.0387476 0.0624603 0 -8.33313
-0.0385799 0.0629287 0 -8.33313
-36.2879 0.0674127 0 -8.02995
-35.8848 0.068264 0 -8.03067
35.8134 0.0585095 0 -8.29547
36.2159 0.0575389 0 -8.29618
-36.0863 0.0678395 0 -8.03031
-0.0380803 0.0643203 0 -8.33313
36.0147 0.0580253 0 -8.29583
-0.0384128 0.0633949 0 -8.33313
-0.0382462 0.0638587 0 -8.33313
-35.8848 0.068264 0 -8.03067
-35.4817 0.0691065 0 -8.0314
35.4109 0.0594711 0 -8.29473
35.8134 0.0585095 0 -8.29547
-35.6832 0.0686864 0 -8.03103
-0.0377504 0.0652367 0 -8.33312
35.6122 0.0589914 0 -8.2951
-0.0380803 0.0643203 0 -8.33313
-0.0379151 0.0647797 0 -8.33312
-35.4817 0.0691065 0 -8.0314
-35.0785 0.0699401 0 -8.03216
35.0084 0.0604235 0 -8.29396
35.4109 0.0594711 0 -8.29473
-35.2801 0.0695244 0 -8.03178
-0.037423 0.0661439 0 -8.33312
35.2097 0.0599484 0 -8.29435
-0.0377504 0.0652367 0 -8.33312
-0.0375864 0.0656915 0 -8.33312
-35.0785 0.0699401 0 -8.03216
-34.6754 0.0707648 0 -8.03295
34.6059 0.0613668 0 -8.29317
35.0084 0.0604235 0 -8.29396
-34.877 0.0703536 0 -8.03255
-0.0370982 0.0670419 0 -8.33312
34.8072 0.0608963 0 -8.29357
-0.037423 0.0661439 0 -8.33312
-0.0372603 0.0665941 0 -8.33312
-34.6754 0.0707648 0 -8.03295
-34.2723 0.0715806 0 -8.03376
34.2034 0.0623009 0 -8.29235
34.6059 0.0613668 0 -8.29317
-34.4739 0.0711738 0 -8.03335
-0.036776 0.0679307 0 -8.33312
34.4047 0.061835 0 -8.29276
-0.0370982 0.0670419 0 -8.33312
-0.0369368 0.0674875 0 -8.33312
-34.2723 0.0715806 0 -8.03376
-33.8692 0.0723874 0 -8.0346
33.8009 0.0632257 0 -8.29151
34.2034 0.0623009 0 -8.29235
-34.0708 0.0719851 0 -8.03418
-0.0364564 0.0688102 0 -8.33311
34.0022 0.0627644 0 -8.29193
-0.036776 0.0679307 0 -8.33312
-0.0366159 0.0683716 0 -8.33312
-33.8692 0.0723874 0 -8.0346
-33.4661 0.0731851 0 -8.03546
33.3984 0.0641412 0 -8.29064
33.8009 0.0632257 0 -8.29151
-33.6677 0.0727874 0 -8.03503
-0.0361396 0.0696804 0 -8.33311
33.5997 0.0636846 0 -8.29108
-0.0364564 0.0688102 0 -8.33311
-0.0362976 0.0692465 0 -8.33311
-33.4661 0.0731851 0 -8.03546
-33.063 0.0739738 0 -8.03635
32.9959 0.0650474 0 -8.28975
33.3984 0.0641412 0 -8.29064
-33.2646 0.0735806 0 -8.0359
-0.0358254 0.0705412 0 -8.33311
33.1972 0.0645955 0 -8.2902
-0.0361396 0.0696804 0 -8.33311
-0.0359821 0.070112 0 -8.33311
-33.063 0.0739738 0 -8.03635
-32.6599 0.0747534 0 -8.03725
32.5934 0.0659442 0 -8.28884
32.9959 0.0650474 0 -8.28975
-32.8615 0.0743648 0 -8.0368
-0.0355141 0.0713927 0 -8.33311
32.7947 0.065497 0 -8.2893
-0.0358254 0.0705412 0 -8.33311
-0.0356694 0.0709681 0 -8.33311
-32.6599 0.0747534 0 -8.03725
-32.2568 0.0755239 0 -8.03819
32.1909 0.0668317 0 -8.28791
32.5934 0.0659442 0 -8.28884
-32.4584 0.0751398 0 -8.03772
-0.0352055 0.0722347 0 -8.3331
32.3921 0.0663891 0 -8.28838
-0.0355141 0.0713927 0 -8.33311
-0.0353594 0.0718148 0 -8.33311
-32.2568 0.0755239 0 -8.03819
-31.8537 0.0762852 0 -8.03914
31.7884 0.0677097 0 -8.28695
32.1909 0.0668317 0 -8.28791
-32.0553 0.0759057 0 -8.03866
-0.0348997 0.0730672 0 -8.3331
31.9896 0.0672718 0 -8.28743
-0.0352055 0.0722347 0 -8.3331
-0.0350523 0.0726521 0 -8.3331
-31.8537 0.0762852 0 -8.03914
-31.4506 0.0770373 0 -8.04012
31.3859 0.0685782 0 -8.28596
31.7884 0.0677097 0 -8.28695
-31.6522 0.0766624 0 -8.03963
-0.0345969 0.0738902 0 -8.3331
31.5871 0.0681451 0 -8.28646
-0.0348997 0.0730672 0 -8.3331
-0.034748 0.0734799 0 -8.3331
-31.4506 0.0770373 0 -8.04012
-31.0475 0.0777801 0 -8.04112
30.9833 0.0694372 0 -8.28496
31.3859 0.0685782 0 -8.28596
-31.2491 0.0774099 0 -8.04062
-0.034297 0.0747037 0 -8.3331
31.1846 0.0690089 0 -8.28546
-0.0345969 0.0738902 0 -8.3331
-0.0344466 0.0742982 0 -8.3331
-31.0475 0.0777801 0 -8.04112
-30.6445 0.0785137 0 -8.04214
30.5808 0.0702866 0 -8.28393
30.9833 0.0694372 0 -8.28496
-30.846 0.0781481 0 -8.04163
-0.034 0.0755076 0 -8.3331
30.7821 0.0698631 0 -8.28445
-0.034297 0.0747037 0 -8.3331
-0.0341481 0.0751069 0 -8.3331
-30.6445 0.0785137 0 -8.04214
-30.2414 0.0792379 0 -8.04319
30.1783 0.0711265 0 -8.28288
30.5808 0.0702866 0 -8.28393
-30.4429 0.078877 0 -8.04266
-0.033706 0.0763019 0 -8.33309
30.3796 0.0707078 0 -8.28341
-0.034 0.0755076 0 -8.3331
-0.0338526 0.075906 0 -8.33309
-30.2414 0.0792379 0 -8.04319
-29.8383 0.0799528 0 -8.04425
29.7758 0.0719567 0 -8.28181
30.1783 0.0711265 0 -8.28288
-30.0398 0.0795965 0 -8.04372
-0.0334151 0.0770866 0 -8.33309
29.977 0.0715428 0 -8.28235
-0.033706 0.0763019 0 -8.33309
-0.0335602 0.0766954 0 -8.33309
-29.8383 0.0799528 0 -8.04425
-29.4352 0.0806583 0 -8.04534
29.3732 0.0727773 0 -8.28072
29.7758 0.0719567 0 -8.28181
-29.6368 0.0803067 0 -8.04479
-0.0331271 0.0778615 0 -8.33309
29.5745 0.0723682 0 -8.28127
-0.0334151 0.0770866 0 -8.33309
-0.0332707 0.0774752 0 -8.33309
-29.4352 0.0806583 0 -8.04534
-29.0321 0.0813543 0 -8.04645
28.9707 0.0735882 0 -8.27961
29.3732 0.0727773 0 -8.28072
-29.2337 0.0810075 0 -8.04589
-0.0328423 0.0786267 0 -8.33309
29.172 0.073184 0 -8.28017
-0.0331271 0.0778615 0 -8.33309
-0.0329843 0.0782453 0 -8.33309
-29.0321 0.0813543 0 -8.04645
-28.6291 0.0820409 0 -8.04758
28.5682 0.0743894 0 -8.27848
28.9707 0.0735882 0 -8.27961
-28.8306 0.0816988 0 -8.04701
-0.0325606 0.0793822 0 -8.33309
28.7694 0.07399 0 -8.27904
-0.0328423 0.0786268 0 -8.33309
-0.0327011 0.0790057 0 -8.33309
-28.6291 0.0820409 0 -8.04758
-28.226 0.082718 0 -8.04873
28.1656 0.0751809 0 -8.27732
28.5682 0.0743894 0 -8.27848
-28.4275 0.0823807 0 -8.04815
-0.0322821 0.0801279 0 -8.33308
28.3669 0.0747864 0 -8.2779
-0.0325606 0.0793822 0 -8.33309
-0.032421 0.0797563 0 -8.33308
-28.226 0.082718 0 -8.04873
-27.8229 0.0833856 0 -8.0499
27.7631 0.0759625 0 -8.27615
28.1656 0.0751809 0 -8.27732
-28.0245 0.083053 0 -8.04931
-0.0320068 0.0808638 0 -8.33308
27.9644 0.0755729 0 -8.27674
-0.0322821 0.0801279 0 -8.33308
-0.032144 0.0804971 0 -8.33308
-27.8229 0.0833856 0 -8.0499
-27.4199 0.0840436 0 -8.05109
27.3605 0.0767343 0 -8.27495
27.7631 0.0759625 0 -8.27615
-27.6214 0.0837158 0 -8.05049
-0.0317346 0.0815898 0 -8.33308
27.5618 0.0763497 0 -8.27555
-0.0320068 0.0808638 0 -8.33308
-0.0318703 0.081228 0 -8.33308
-27.4199 0.0840436 0 -8.05109
-27.0168 0.084692 0 -8.0523
26.958 0.0774963 0 -8.27374
27.3605 0.0767343 0 -8.27495
-27.2184 0.084369 0 -8.05169
-0.0314658 0.082306 0 -8.33308
27.1593 0.0771165 0 -8.27435
-0.0317347 0.0815898 0 -8.33308
-0.0315998 0.0819491 0 -8.33308
-27.0168 0.084692 0 -8.0523
-26.6138 0.0853308 0 -8.05352
26.5554 0.0782484 0 -8.27251
26.958 0.0774963 0 -8.27374
-26.8153 0.0850126 0 -8.05291
-0.0312002 0.0830122 0 -8.33308
26.7567 0.0778736 0 -8.27313
-0.0314658 0.082306 0 -8.33308
-0.0313326 0.0826603 0 -8.33308
-26.6138 0.0853308 0 -8.05352
-26.2107 0.0859599 0 -8.05477
26.1529 0.0789906 0 -8.27126
26.5554 0.0782484 0 -8.27251
-26.4123 0.0856466 0 -8.05415
-0.030938 0.0837085 0 -8.33307
26.3542 0.0786208 0 -8.27188
-0.0312002 0.0830122 0 -8.33308
-0.0310687 0.0833616 0 -8.33307
-26.2107 0.0859599 0 -8.05477
-25.8077 0.0865793 0 -8.05604
25.7503 0.0797229 0 -8.26999
26.1529 0.0789906 0 -8.27126
-26.0092 0.0862708 0 -8.0554
-0.0306791 0.0843948 0 -8.33307
25.9516 0.079358 0 -8.27062
-0.030938 0.0837085 0 -8.33307
-0.0308081 0.0840529 0 -8.33307
-25.8077 0.0865793 0 -8.05604
-25.4046 0.087189 0 -8.05732
25.3478 0.0804452 0 -8.2687
25.7503 0.0797229 0 -8.26999
-25.6062 0.0868854 0 -8.05668
-0.0304236 0.0850711 0 -8.33307
25.5491 0.0800853 0 -8.26934
-0.0306791 0.0843948 0 -8.33307
-0.0305509 0.0847342 0 -8.33307
-25.4046 0.087189 0 -8.05732
-25.0016 0.0877889 0 -8.05863
24.9452 0.0811575 0 -8.26739
25.3478 0.0804452 0 -8.2687
-25.2031 0.0874902 0 -8.05797
-0.0301715 0.0857373 0 -8.33307
25.1465 0.0808026 0 -8.26805
-0.0304236 0.0850711 0 -8.33307
-0.0302971 0.0854054 0 -8.33307
-25.0016 0.0877889 0 -8.05863
-24.5986 0.0883791 0 -8.05995
24.5426 0.0818598 0 -8.26606
24.9452 0.0811575 0 -8.26739
-24.8001 0.0880852 0 -8.05929
-0.0299228 0.0863935 0 -8.33307
24.7439 0.0815099 0 -8.26673
-0.0301715 0.0857373 0 -8.33307
-0.0300467 0.0860667 0 -8.33307
-24.5986 0.0883791 0 -8.05995
-24.1955 0.0889594 0 -8.06129
24.1401 0.082552 0 -8.26472
24.5426 0.0818598 0 -8.26606
-24.397 0.0886705 0 -8.06062
-0.0296776 0.0870396 0 -8.33306
24.3414 0.0822071 0 -8.2654
-0.0299228 0.0863935 0 -8.33307
-0.0297998 0.0867178 0 -8.33306
-24.1955 0.0889594 0 -8.06129
-23.7925 0.0895299 0 -8.06264
23.7375 0.0832342 0 -8.26336
24.1401 0.082552 0 -8.26472
-23.994 0.0892459 0 -8.06196
-0.0294359 0.0876756 0 -8.33306
23.9388 0.0828943 0 -8.26404
-0.0296776 0.0870396 0 -8.33306
-0.0295564 0.0873588 0 -8.33306
-23.7925 0.0895299 0 -8.06264
-23.3895 0.0900906 0 -8.06402
23.3349 0.0839062 0 -8.26199
23.7375 0.0832342 0 -8.26336
-23.591 0.0898115 0 -8.06333
-0.0291978 0.0883014 0 -8.33306
23.5362 0.0835714 0 -8.26268
-0.0294359 0.0876756 0 -8.33306
-0.0293164 0.0879897 0 -8.33306
-23.3895 0.0900906 0 -8.06402
-22.9864 0.0906413 0 -8.06541
22.9324 0.0845681 0 -8.26059
23.3349 0.0839062 0 -8.26199
-23.188 0.0903672 0 -8.06471
-0.0289632 0.088917 0 -8.33306
23.1336 0.0842384 0 -8.26129
-0.0291978 0.0883014 0 -8.33306
-0.02908 0.0886105 0 -8.33306
-22.9864 0.0906413 0 -8.06541
-22.5834 0.091182 0 -8.06681
22.5298 0.0852199 0 -8.25918
22.9324 0.0845681 0 -8.26059
-22.7849 0.0909129 0 -8.06611
-0.0287321 0.0895225 0 -8.33306
22.7311 0.0848953 0 -8.25989
-0.0289631 0.088917 0 -8.33306
-0.0288472 0.089221 0 -8.33306
-22.5834 0.091182 0 -8.06681
-22.1804 0.0917129 0 -8.06824
22.1272 0.0858615 0 -8.25776
22.5298 0.0852199 0 -8.25918
-22.3819 0.0914487 0 -8.06752
-0.0285047 0.0901177 0 -8.33305
22.3285 0.0855419 0 -8.25847
-0.0287321 0.0895225 0 -8.33306
-0.0286179 0.0898213 0 -8.33306
-22.1804 0.0917129 0 -8.06824
-21.7774 0.0922337 0 -8.06967
21.7246 0.0864928 0 -8.25631
22.1272 0.0858615 0 -8.25776
-21.9789 0.0919745 0 -8.06895
-0.0282809 0.0907026 0 -8.33305
21.9259 0.0861784 0 -8.25704
-0.0285047 0.0901177 0 -8.33305
-0.0283923 0.0904114 0 -8.33305
-21.7774 0.0922337 0 -8.06967
-21.3744 0.0927445 0 -8.07113
21.322 0.087114 0 -8.25486
21.7246 0.0864928 0 -8.25631
-21.5759 0.0924904 0 -8.0704
-0.0280607 0.0912773 0 -8.33305
21.5233 0.0868047 0 -8.25559
-0.0282809 0.0907026 0 -8.33305
-0.0281704 0.0909912 0 -8.33305
-21.3744 0.0927445 0 -8.07113
-20.9714 0.0932453 0 -8.0726
20.9194 0.0877249 0 -8.25338
21.322 0.087114 0 -8.25486
-21.1729 0.0929962 0 -8.07186
-0.0278442 0.0918416 0 -8.33305
21.1207 0.0874207 0 -8.25412
-0.0280607 0.0912773 0 -8.33305
-0.027952 0.0915607 0 -8.33305
-20.9714 0.0932453 0 -8.0726
-20.5684 0.0937361 0 -8.07408
20.5168 0.0883255 0 -8.2519
20.9194 0.0877249 0 -8.25338
-20.7699 0.093492 0 -8.07334
-0.0276315 0.0923956 0 -8.33305
20.7181 0.0880265 0 -8.25264
-0.0278442 0.0918416 0 -8.33305
-0.0277374 0.0921199 0 -8.33305
-20.5684 0.0937361 0 -8.07408
-20.1654 0.0942167 0 -8.07558
20.1142 0.0889158 0 -8.25039
20.5168 0.0883255 0 -8.2519
-20.3669 0.0939776 0 -8.07483
-0.0274225 0.0929393 0 -8.33305
20.3155 0.088622 0 -8.25115
-0.0276315 0.0923956 0 -8.33305
-0.0275265 0.0926688 0 -8.33305
-20.1654 0.0942167 0 -8.07558
-19.7624 0.0946872 0 -8.07709
19.7116 0.0894958 0 -8.24888
20.1142 0.0889158 0 -8.25039
-19.9639 0.0944532 0 -8.07634
-0.0272172 0.0934726 0 -8.33304
19.9129 0.0892071 0 -8.24964
-0.0274225 0.0929393 0 -8.33305
-0.0273194 0.0932072 0 -8.33305
-19.7624 0.0946872 0 -8.07709
-19.3594 0.0951476 0 -8.07862
19.309 0.0900655 0 -8.24735
19.7116 0.0894958 0 -8.24888
-19.5609 0.0949187 0 -8.07786
-0.0270157 0.0939955 0 -8.33304
19.5103 0.0897819 0 -8.24811
-0.0272172 0.0934726 0 -8.33304
-0.027116 0.0937353 0 -8.33304
-19.3594 0.0951476 0 -8.07862
-18.9564 0.0955978 0 -8.08016
18.9064 0.0906248 0 -8.2458
19.309 0.0900655 0 -8.24735
-19.1579 0.095374 0 -8.07939
-0.026818 0.0945079 0 -8.33304
19.1077 0.0903464 0 -8.24658
-0.0270157 0.0939955 0 -8.33304
-0.0269164 0.094253 0 -8.33304
-18.9564 0.0955978 0 -8.08016
-18.5534 0.0960378 0 -8.08172
18.5038 0.0911737 0 -8.24424
18.9064 0.0906248 0 -8.2458
-18.7549 0.0958191 0 -8.08094
-0.0266241 0.0950099 0 -8.33304
18.7051 0.0909005 0 -8.24503
-0.026818 0.0945079 0 -8.33304
-0.0267206 0.0947602 0 -8.33304
-18.5534 0.0960378 0 -8.08172
-18.1505 0.0964676 0 -8.08329
18.1012 0.0917122 0 -8.24267
18.5038 0.0911737 0 -8.24424
-18.3519 0.096254 0 -8.0825
-0.0264341 0.0955015 0 -8.33304
18.3025 0.0914443 0 -8.24346
-0.0266241 0.0950099 0 -8.33304
-0.0265286 0.095257 0 -8.33304
-18.1505 0.0964676 0 -8.08329
-17.7475 0.0968872 0 -8.08487
17.6985 0.0922403 0 -8.24109
18.1012 0.0917122 0 -8.24267
-17.949 0.0966787 0 -8.08408
-0.0262479 0.0959825 0 -8.33304
17.8999 0.0919775 0 -8.24188
-0.0264341 0.0955015 0 -8.33304
-0.0263405 0.0957433 0 -8.33304
-17.7475 0.0968872 0 -8.08487
-17.3445 0.0972966 0 -8.08646
17.2959 0.0927579 0 -8.23949
17.6985 0.0922403 0 -8.24109
-17.546 0.0970932 0 -8.08566
-0.0260656 0.0964531 0 -8.33304
17.4972 0.0925004 0 -8.24029
-0.0262479 0.0959825 0 -8.33304
-0.0261563 0.0962191 0 -8.33304
-17.3445 0.0972965 0 -8.08646
-16.9415 0.0976956 0 -8.08807
16.8933 0.0932651 0 -8.23788
17.2959 0.0927579 0 -8.23949
-17.143 0.0974974 0 -8.08726
-0.0258872 0.0969131 0 -8.33303
17.0946 0.0930128 0 -8.23869
-0.0260656 0.0964531 0 -8.33304
-0.0259759 0.0966844 0 -8.33304
-16.9415 0.0976956 0 -8.08807
-16.5386 0.0980843 0 -8.08969
16.4907 0.0937618 0 -8.23626
16.8933 0.0932651 0 -8.23788
-16.7401 0.0978913 0 -8.08888
-0.0257128 0.0973625 0 -8.33303
16.692 0.0935148 0 -8.23707
-0.0258872 0.0969131 0 -8.33303
-0.0257995 0.0971391 0 -8.33303
-16.5386 0.0980843 0 -8.08969
-16.1356 0.0984628 0 -8.09132
16.088 0.094248 0 -8.23463
16.4907 0.0937618 0 -8.23626
-16.3371 0.0982748 0 -8.0905
-0.0255423 0.0978014 0 -8.33303
16.2893 0.0940062 0 -8.23545
-0.0257128 0.0973625 0 -8.33303
-0.0256271 0.0975833 0 -8.33303
-16.1356 0.0984628 0 -8.09132
-15.7327 0.0988308 0 -8.09296
15.6854 0.0947237 0 -8.23298
16.088 0.094248 0 -8.23463
-15.9341 0.0986481 0 -8.09214
-0.0253758 0.0982297 0 -8.33303
15.8867 0.0944872 0 -8.23381
-0.0255423 0.0978014 0 -8.33303
-0.0254585 0.0980169 0 -8.33303
-15.7327 0.0988308 0 -8.09296
-15.3297 0.0991885 0 -8.09461
15.2827 0.0951889 0 -8.23133
15.6854 0.0947237 0 -8.23298
-15.5312 0.099011 0 -8.09378
-0.0252132 0.0986474 0 -8.33303
15.4841 0.0949576 0 -8.23216
-0.0253758 0.0982297 0 -8.33303
-0.025294 0.0984398 0 -8.33303
-15.3297 0.0991885 0 -8.09461
-14.9268 0.0995359 0 -8.09628
14.8801 0.0956435 0 -8.22966
15.2827 0.0951889 0 -8.23133
-15.1282 0.0993635 0 -8.09544
-0.0250546 0.0990544 0 -8.33303
15.0814 0.0954175 0 -8.2305
-0.0252132 0.0986474 0 -8.33303
-0.0251334 0.0988522 0 -8.33303
-14.9268 0.0995359 0 -8.09628
-14.5238 0.0998728 0 -8.09795
14.4774 0.0960875 0 -8.22798
14.8801 0.0956435 0 -8.22966
-14.7253 0.0997056 0 -8.09711
-0.0249001 0.0994508 0 -8.33303
14.6788 0.0958669 0 -8.22882
-0.0250546 0.0990544 0 -8.33303
-0.0249769 0.099254 0 -8.33303
-14.5238 0.0998728 0 -8.09795
-14.1209 0.100199 0 -8.09964
14.0748 0.096521 0 -8.2263
14.4774 0.0960875 0 -8.22798
-14.3224 0.100037 0 -8.09879
-0.0247496 0.0998365 0 -8.33303
14.2761 0.0963056 0 -8.22714
-0.0249001 0.0994508 0 -8.33303
-0.0248244 0.099645 0 -8.33303
-14.1209 0.100199 0 -8.09964
-13.718 0.100515 0 -8.10133
13.6721 0.0969438 0 -8.2246
14.0748 0.096521 0 -8.2263
-13.9194 0.100359 0 -8.10048
-0.0246032 0.100212 0 -8.33302
13.8735 0.0967337 0 -8.22545
-0.0247496 0.0998365 0 -8.33303
-0.0246759 0.100025 0 -8.33303
-13.718 0.100515 0 -8.10133
-13.315 0.100821 0 -8.10304
13.2695 0.097356 0 -8.22289
13.6721 0.0969438 0 -8.2246
-13.5165 0.100669 0 -8.10218
-0.0244608 0.100576 0 -8.33302
13.4708 0.0971513 0 -8.22375
-0.0246032 0.100212 0 -8.33302
-0.0245315 0.100395 0 -8.33302
-13.315 0.100821 0 -8.10304
-12.9121 0.101116 0 -8.10475
12.8668 0.0977576 0 -8.22117
13.2695 0.097356 0 -8.22289
-13.1136 0.10097 0 -8.1039
-0.0243225 0.100929 0 -8.33302
13.0681 0.0975581 0 -8.22203
-0.0244608 0.100576 0 -8.33302
-0.0243911 0.100754 0 -8.33302
-12.9121 0.101116 0 -8.10475
-12.5092 0.1014 0 -8.10648
12.4641 0.0981484 0 -8.21945
12.8668 0.0977576 0 -8.22117
-12.7106 0.101259 0 -8.10561
-0.0241882 0.101272 0 -8.33302
12.6655 0.0979543 0 -8.22031
-0.0243225 0.100929 0 -8.33302
-0.0242548 0.101102 0 -8.33302
-12.5092 0.1014 0 -8.10648
-12.1062 0.101674 0 -8.10821
12.0615 0.0985285 0 -8.21771
12.4641 0.0981484 0 -8.21945
-12.3077 0.101538 0 -8.10734
-0.024058 0.101604 0 -8.33302
12.2628 0.0983398 0 -8.21858
-0.0241882 0.101272 0 -8.33302
-0.0241226 0.101439 0 -8.33302
-12.1062 0.101674 0 -8.10821
-11.7033 0.101937 0 -8.10995
11.6588 0.0988977 0 -8.21597
12.0615 0.0985285 0 -8.21771
-11.9048 0.101807 0 -8.10908
-0.0239317 0.101925 0 -8.33302
11.8601 0.0987145 0 -8.21684
-0.024058 0.101604 0 -8.33302
-0.0239943 0.101766 0 -8.33302
-11.7033 0.101937 0 -8.10995
-11.3004 0.10219 0 -8.1117
11.2561 0.0992561 0 -8.21422
11.6588 0.0988977 0 -8.21597
-11.5019 0.102065 0 -8.11083
-0.0238094 0.102235 0 -8.33302
11.4575 0.0990783 0 -8.21509
-0.0239317 0.101925 0 -8.33302
-0.0238701 0.102081 0 -8.33302
-11.3004 0.10219 0 -8.1117
-10.8975 0.102432 0 -8.11346
10.8534 0.0996035 0 -8.21246
11.2561 0.0992561 0 -8.21422
-11.099 0.102312 0 -8.11258
-0.0236911 0.102534 0 -8.33302
11.0548 0.0994312 0 -8.21334
-0.0238094 0.102235 0 -8.33302
-0.0237498 0.102386 0 -8.33302
-10.8975 0.102432 0 -8.11346
-10.4946 0.102663 0 -8.11523
10.4507 0.0999397 0 -8.21069
10.8534 0.0996034 0 -8.21246
-10.6961 0.102549 0 -8.11434
-0.0235766 0.102822 0 -8.33302
10.6521 0.099773 0 -8.21157
-0.0236911 0.102534 0 -8.33302
-0.0236333 0.102679 0 -8.33302
-10.4946 0.102663 0 -8.11523
-10.0917 0.102884 0 -8.117
10.048 0.100265 0 -8.20891
10.4507 0.0999397 0 -8.21069
-10.2932 0.102775 0 -8.11611
-0.0234657 0.103099 0 -8.33301
10.2494 0.100104 0 -8.2098
-0.0235766 0.102822 0 -8.33302
-0.0235207 0.102962 0 -8.33302
-10.0917 0.102884 0 -8.117
-9.68881 0.103095 0 -8.11878
9.64536 0.100578 0 -8.20713
10.048 0.100265 0 -8.20891
-9.89026 0.10299 0 -8.11789
-0.0233584 0.103365 0 -8.33301
9.8467 0.100423 0 -8.20802
-0.0234657 0.103099 0 -8.33301
-0.0234116 0.103233 0 -8.33301
-9.68881 0.103095 0 -8.11878
-9.28592 0.103296 0 -8.12056
9.24266 0.100879 0 -8.20534
9.64536 0.100578 0 -8.20713
-9.48736 0.103196 0 -8.11967
-0.0232545 0.10362 0 -8.333
9.44401 0.10073 0 -8.20623
-0.0233584 0.103365 0 -8.33301
-0.023306 0.103494 0 -8.33301
-9.28592 0.103296 0 -8.12056
-8.88303 0.103489 0 -8.12234
8.83997 0.101169 0 -8.20353
9.24266 0.100879 0 -8.20534
-9.08447 0.103393 0 -8.12145
-0.0231539 0.103865 0 -8.33299
9.04132 0.101025 0 -8.20444
-0.0232545 0.10362 0 -8.333
-0.0232038 0.103744 0 -8.333
-8.88303 0.103489 0 -8.12234
-8.48015 0.103675 0 -8.12413
8.43728 0.101445 0 -8.20172
8.83997 0.101169 0 -8.20353
-8.68159 0.103583 0 -8.12324
-0.0230565 0.1041 0 -8.33298
8.63862 0.101308 0 -8.20263
-0.0231539 0.103865 0 -8.33299
-0.0231048 0.103984 0 -8.33299
-8.48015 0.103675 0 -8.12413
-8.07729 0.103855 0 -8.12591
8.03459 0.101711 0 -8.19988
8.43728 0.101445 0 -8.20172
-8.27872 0.103766 0 -8.12502
-0.0229626 0.104326 0 -8.33295
8.23593 0.101579 0 -8.2008
-0.0230565 0.1041 0 -8.33298
-0.0230091 0.104214 0 -8.33296
-8.07729 0.103855 0 -8.12591
-7.67443 0.104029 0 -8.12769
7.6319 0.101968 0 -8.19803
8.03459 0.101711 0 -8.19988
-7.87586 0.103943 0 -8.1268
-0.0228726 0.104545 0 -8.33291
7.83324 0.10184 0 -8.19896
-0.0229626 0.104326 0 -8.33295
-0.022917 0.104436 0 -8.33293
-7.67443 0.104029 0 -8.12769
-7.27159 0.104193 0 -8.12946
7.22923 0.102227 0 -8.19617
7.6319 0.101968 0 -8.19803
-7.47301 0.104112 0 -8.12858
-0.0227876 0.10476 0 -8.33285
7.43057 0.102096 0 -8.1971
-0.0228726 0.104545 0 -8.33291
-0.0228294 0.104653 0 -8.33288
-7.27159 0.104193 0 -8.12946
-6.86877 0.104328 0 -8.13125
6.82656 0.102512 0 -8.1943
7.22923 0.102227 0 -8.19617
-7.07018 0.104266 0 -8.13035
-0.0227099 0.104975 0 -8.33281
7.02789 0.102363 0 -8.19523
-0.0227876 0.10476 0 -8.33285
-0.0227477 0.104867 0 -8.33283
-6.86877 0.104328 0 -8.13125
-6.46594 0.104399 0 -8.1331
6.42385 0.102872 0 -8.19247
6.82656 0.102512 0 -8.1943
-6.66736 0.104375 0 -8.13216
-0.0226435 0.105195 0 -8.33284
6.62521 0.102678 0 -8.19338
-0.0227099 0.104975 0 -8.33281
-0.022675 0.105083 0 -8.33281
-6.46594 0.104399 0 -8.1331
-6.06306 0.104296 0 -8.13513
6.02106 0.103431 0 -8.19081
6.42385 0.102872 0 -8.19247
-6.2645 0.104381 0 -8.13408
-0.0225955 0.105429 0 -8.3331
6.22246 0.103113 0 -8.19161
-0.0226435 0.105195 0 -8.33284
-0.0226167 0.10531 0 -8.33293
-6.06306 0.104296 0 -8.13513
-5.6599 0.103849 0 -8.13765
5.61795 0.104383 0 -8.1896
6.02106 0.103431 0 -8.19081
-5.86154 0.104133 0 -8.1363
-0.0225776 0.105691 0 -8.33392
5.81958 0.103839 0 -8.19013
-0.0225955 0.105429 0 -8.3331
-0.0225819 0.105556 0 -8.3334
-5.6599 0.103849 0 -8.13765
-5.25629 0.102602 0 -8.14125
5.2143 0.106218 0 -8.18943
5.61795 0.104383 0 -8.1896
-5.45815 0.103369 0 -8.13926
-0.0226092 0.105997 0 -8.33605
5.41619 0.105145 0 -8.18933
-0.0225776 0.105691 0 -8.33392
-0.0225859 0.105837 0 -8.33477
-5.25629 0.102602 0 -8.14125
-4.85116 0.0999794 0 -8.14716
4.80897 0.109559 0 -8.1915
5.2143 0.106218 0 -8.18943
-5.05405 0.101522 0 -8.1438
-0.0227213 0.106376 0 -8.34091
5.01198 0.107638 0 -8.19007
-0.0226092 0.105997 0 -8.33605
-0.0226525 0.106175 0 -8.33798
-4.85116 0.0999794 0 -8.14716
-4.44377 0.0944495 0 -8.15761
4.40116 0.116003 0 -8.198
4.80897 0.109559 0 -8.1915
-4.6477 0.0977029 0 -8.15163
-0.0229632 0.106863 0 -8.3512
4.60534 0.112263 0 -8.19401
-0.0227213 0.106376 0 -8.34091
-0.0228227 0.106603 0 -8.3452
-4.44377 0.0944495 0 -8.15761
-4.03014 0.0846964 0 -8.17671
3.98675 0.126962 0 -8.21299
4.40116 0.116003 0 -8.198
-4.23824 0.0902459 0 -8.16571
-0.0234094 0.107512 0 -8.37156
4.1953 0.120766 0 -8.20408
-0.0229632 0.106863 0 -8.3512
-0.0231536 0.107162 0 -8.3596
-4.03014 0.0846964 0 -8.17671
-3.6085 0.0666737 0 -8.21087
3.56378 0.146602 0 -8.24282
3.98675 0.126962 0 -8.21299
-3.82008 0.0769502 0 -8.19141
-0.0241688 0.108393 0 -8.40965
3.7761 0.135457 0 -8.22555
-0.0234094 0.107512 0 -8.37156
-0.0237442 0.107921 0 -8.38802
-3.6085 0.0666737 0 -8.21087
-3.16665 0.0400491 0 -8.27055
3.11976 0.175413 0 -8.29781
3.56378 0.146602 0 -8.24282
-3.39178 0.0545816 0 -8.23664
-0.0253874 0.109592 0 -8.47667
3.34609 0.159704 0 -8.2663
-0.0241688 0.108393 0 -8.40965
-0.0247045 0.108944 0 -8.43816
-3.16665 0.0400491 0 -8.27055
-2.70468 -0.0017596 0 -8.36775
2.6545 0.220095 0 -8.38992
3.11976 0.175413 0 -8.29781
-2.93675 0.020859 0 -8.31371
-0.0272275 0.111168 0 -8.58641
2.88837 0.195951 0 -8.33846
-0.0253874 0.109592 0 -8.47667
-0.0262294 0.110338 0 -8.52625
-2.70468 -0.00175961 0 -8.36775
-2.19478 -0.041514 0 -8.51582
2.13988 0.263422 0 -8.53249
2.6545 0.220095 0 -8.38992
-2.46033 -0.0228787 0 -8.43447
-0.0298009 0.113101 0 -8.74921
2.40799 0.242917 0 -8.45398
-0.0272275 0.111168 0 -8.58641
-0.0283983 0.112083 0 -8.65886
-2.19478 -0.041514 0 -8.51582
-1.66626 -0.0719258 0 -8.70756
1.60543 0.297555 0 -8.71876
2.13988 0.263422 0 -8.53249
-1.92581 -0.0619197 0 -8.60804
-0.0329492 0.115032 0 -8.95392
1.86806 0.285742 0 -8.62186
-0.0298009 0.113101 0 -8.74921
-0.0313649 0.114135 0 -8.85196
-1.66626 -0.0719258 0 -8.70756
-1.08784 0.0191404 0 -8.89635
1.02092 0.208771 0 -8.9031
1.60543 0.297555 0 -8.71876
-1.39321 -0.0480872 0 -8.80722
-0.0358702 0.11596 0 -9.12854
1.32925 0.275188 0 -8.81607
-0.0329492 0.115032 0 -8.95392
-0.034453 0.115668 0 -9.04612
-1.08784 0.0191404 0 -8.89635
-0.615415 0.300731 0 -8.90526
0.546021 -0.0762277 0 -8.91091
1.02092 0.208771 0 -8.9031
-0.812509 0.122234 0 -8.94135
-0.0364732 0.11361 0 -9.08303
0.743518 0.105091 0 -8.94675
-0.0358702 0.11596 0 -9.12854
-0.0367701 0.115485 0 -9.16243
-0.615415 0.300731 0 -8.90526
-0.18348 1.02764 0 -8.40798
0.121916 -0.819335 0 -8.41777
0.546021 -0.0762278 0 -8.91091
-0.420381 0.617578 0 -8.74613
-0.0315381 0.104676 0 -8.49869
0.353083 -0.399058 0 -8.75353
-0.0364731 0.11361 0 -9.08303
-0.0347169 0.110007 0 -8.86066
-0.18348 1.02764 0 -8.40798
-0.109011 1.82001 0 -6.8662
0.076251 -1.65039 0 -6.8846
0.121916 -0.819335 0 -8.41777
-0.0434344 1.4289 0 -7.80367
-0.0169395 0.0852322 0 -6.96938
-0.00708116 -1.2366 0 -7.81678
-0.0315381 0.104676 0 -8.49869
-0.0260814 0.0968582 0 -7.91547
-0.109011 1.82001 0 -6.8662
-0.267982 2.86263 0 -3.91745
0.291683 -2.75777 0 -3.94497
0.076251 -1.65039 0 -6.8846
-0.228659 2.28809 0 -5.57979
0.0148651 0.0529397 0 -3.81771
0.220488 -2.1477 0 -5.60368
-0.0169395 0.0852322 0 -6.96938
-0.0035104 0.0697194 0 -5.602
76.8018 23.0414 0 30.8071
74.9599 12.7306 0 10.2038
232.496 40.5716 0 -0.705664
214.036 64.1992 0 19.6264
73.6248 17.9437 0 19.4301
153.675 26.6197 0 5.99491
226.571 51.5564 0 7.34633
142.244 42.6696 0 28.1288
150.362 35.8301 0 13.918
74.9599 12.7306 0 10.2038
79.0132 7.63614 0 -2.13913
236.925 17.7309 0 -7.03862
232.496 40.5716 0 -0.705664
78.0908 9.89472 0 2.94627
157.342 13.7938 0 -3.89415
234.472 28.3131 0 -4.78491
153.675 26.6197 0 5.99491
155.339 19.1895 0 0.640081
79.0132 7.63614 0 -2.13913
79.2914 3.03089 0 -7.7338
239.196 6.19999 0 -8.26667
236.925 17.7309 0 -7.03862
78.8697 5.09287 0 -5.51159
159.248 5.45446 0 -8.15665
239.086 10.8026 0 -8.15003
157.342 13.7938 0 -3.89415
158.815 9.21773 0 -6.83746
79.2914 3.03089 0 -7.7338
79.5217 0.8783 0 -9.72999
237.393 0.853015 0 -7.65577
239.196 6.19999 0 -8.26667
79.7574 1.77004 0 -9.07096
158.763 1.33237 0 -9.1022
238.212 2.88878 0 -7.92455
159.248 5.45446 0 -8.15665
159.135 2.91673 0 -8.7499
79.5217 0.8783 0 -9.72999
78.6726 -0.243167 0 -9.94364
235.27 -0.708186 0 -7.24225
237.393 0.853015 0 -7.65577
78.9933 0.168349 0 -9.94776
157.32 -0.413702 0 -8.96294
236.51 -0.185572 0 -7.45067
158.763 1.33237 0 -9.1022
158.128 0.259771 0 -9.14372
78.6726 -0.243167 0 -9.94364
77.9595 -0.455952 0 -9.5923
232.816 -1.08936 0 -6.96818
235.27 -0.708186 0 -7.24225
78.395 -0.397397 0 -9.80402
155.659 -0.820682 0 -8.59417
233.925 -1.01091 0 -7.06125
157.32 -0.413702 0 -8.96294
156.463 -0.73357 0 -8.75323
77.9595 -0.455952 0 -9.5923
77.1196 -0.468627 0 -9.13837
230.833 -0.897768 0 -6.89015
232.816 -1.08936 0 -6.96818
77.4849 -0.489368 0 -9.35582
154.158 -0.774739 0 -8.2666
231.827 -1.01576 0 -6.92494
155.659 -0.820682 0 -8.59417
154.886 -0.82344 0 -8.4317
77.1196 -0.468627 0 -9.13837
76.473 -0.351392 0 -8.77892
229.046 -0.663305 0 -6.86184
230.833 -0.897768 0 -6.89015
76.8044 -0.409663 0 -8.9451
152.868 -0.57988 0 -8.03875
229.884 -0.784568 0 -6.86601
154.158 -0.774739 0 -8.2666
153.483 -0.685514 0 -8.13348
76.473 -0.351392 0 -8.77892
75.8763 -0.259125 0 -8.53141
227.527 -0.441035 0 -6.87282
229.046 -0.663305 0 -6.86184
76.1525 -0.304938 0 -8.64045
151.761 -0.403518 0 -7.8965
228.276 -0.542647 0 -6.86765
152.868 -0.57988 0 -8.03875
152.296 -0.485222 0 -7.96139
75.8763 -0.259125 0 -8.53141
75.3763 -0.180196 0 -8.38074
226.127 -0.293942 0 -6.88681
227.527 -0.441035 0 -6.87282
75.6248 -0.21513 0 -8.44637
150.781 -0.270103 0 -7.81659
226.808 -0.360728 0 -6.87848
151.761 -0.403518 0 -7.8965
151.258 -0.331284 0 -7.84887
75.3763 -0.180196 0 -8.38074
74.9104 -0.132394 0 -8.29459
224.826 -0.196499 0 -6.90389
226.127 -0.293942 0 -6.88681
75.136 -0.15401 0 -8.33101
149.88 -0.184579 0 -7.77499
225.471 -0.238672 0 -6.89599
150.781 -0.270103 0 -7.81659
150.324 -0.221875 0 -7.79281
74.9104 -0.132394 0 -8.29459
74.4788 -0.101006 0 -8.24946
223.567 -0.140739 0 -6.91813
224.826 -0.196499 0 -6.90389
74.6935 -0.114419 0 -8.26827
149.026 -0.132243 0 -7.75648
224.191 -0.16496 0 -6.91107
149.88 -0.184579 0 -7.77499
149.449 -0.155055 0 -7.76332
74.4788 -0.101006 0 -8.24946
74.0597 -0.0835282 0 -8.22764
222.336 -0.108451 0 -6.93098
223.567 -0.140739 0 -6.91813
74.2672 -0.0911781 0 -8.23638
148.197 -0.102497 0 -7.75032
222.95 -0.122049 0 -6.92488
149.026 -0.132243 0 -7.75648
148.609 -0.115127 0 -7.75246
74.0597 -0.0835282 0 -8.22764
73.6504 -0.0730215 0 -8.21867
221.118 -0.0912927 0 -6.94207
222.336 -0.108451 0 -6.93098
73.8547 -0.0774778 0 -8.22206
147.38 -0.0858698 0 -7.75076
221.726 -0.0985835 0 -6.93665
148.197 -0.102497 0 -7.75032
147.787 -0.092955 0 -7.74992
73.6504 -0.0730215 0 -8.21867
73.2444 -0.0671111 0 -8.21622
219.906 -0.0818944 0 -6.95217
221.118 -0.0912927 0 -6.94207
73.4469 -0.0697075 0 -8.21689
146.57 -0.0767991 0 -7.7543
220.511 -0.0858264 0 -6.94725
147.38 -0.0858698 0 -7.75076
146.975 -0.0806361 0 -7.75231
73.2444 -0.0671111 0 -8.21622
72.8408 -0.0633669 0 -8.21693
218.696 -0.0768428 0 -6.96151
219.906 -0.0818944 0 -6.95217
73.0426 -0.0650142 0 -8.21632
145.763 -0.0716724 0 -7.75926
219.3 -0.0790142 0 -6.95691
146.57 -0.0767991 0 -7.7543
146.167 -0.0738867 0 -7.75666
72.8408 -0.0633669 0 -8.21693
72.4379 -0.0608614 0 -8.21903
217.487 -0.0738173 0 -6.97038
218.696 -0.0768428 0 -6.96151
72.6392 -0.0620207 0 -8.21787
144.958 -0.068566 0 -7.76473
218.092 -0.0751434 0 -6.966
145.763 -0.0716724 0 -7.75926
145.36 -0.0699438 0 -7.76197
72.4379 -0.0608614 0 -8.21903
72.0353 -0.0588933 0 -8.22167
216.279 -0.0717938 0 -6.9789
217.487 -0.0738173 0 -6.97038
72.2366 -0.0598252 0 -8.22032
144.152 -0.0664074 0 -7.77033
216.883 -0.0727297 0 -6.97467
144.958 -0.068566 0 -7.76473
144.555 -0.0674082 0 -7.76753
72.0353 -0.0588933 0 -8.22167
71.6328 -0.0571975 0 -8.22446
215.071 -0.070175 0 -6.98717
216.279 -0.0717938 0 -6.9789
71.8341 -0.0580264 0 -8.22306
143.347 -0.0646744 0 -7.77588
215.675 -0.0709502 0 -6.98306
144.152 -0.0664074 0 -7.77033
143.75 -0.065507 0 -7.77312
71.6328 -0.0571975 0 -8.22446
71.2304 -0.0556055 0 -8.22724
213.863 -0.0687222 0 -6.99524
215.071 -0.070175 0 -6.98717
71.4316 -0.056392 0 -8.22585
142.542 -0.063111 0 -7.78131
214.467 -0.0694383 0 -6.99123
143.347 -0.0646744 0 -7.77588
142.944 -0.0638803 0 -7.77861
71.2304 -0.0556055 0 -8.22724
70.828 -0.0540592 0 -8.22995
212.654 -0.067315 0 -7.00313
213.863 -0.0687222 0 -6.99524
71.0292 -0.0548297 0 -8.2286
141.736 -0.0616066 0 -7.78662
213.258 -0.0680157 0 -6.9992
142.542 -0.063111 0 -7.78131
142.139 -0.062355 0 -7.78399
70.828 -0.0540592 0 -8.22995
70.4255 -0.0525266 0 -8.23258
211.446 -0.0659151 0 -7.01085
212.654 -0.067315 0 -7.00313
70.6267 -0.0532917 0 -8.23128
140.931 -0.0601162 0 -7.79181
212.05 -0.0666157 0 -7.00701
141.736 -0.0616066 0 -7.78662
141.334 -0.0608609 0 -7.78923
70.4255 -0.0525266 0 -8.23258
70.023 -0.0509993 0 -8.23514
210.238 -0.0645082 0 -7.01842
211.446 -0.0659151 0 -7.01085
70.2242 -0.0517627 0 -8.23387
140.125 -0.0586249 0 -7.79688
210.842 -0.0652126 0 -7.01466
140.931 -0.0601162 0 -7.79181
140.528 -0.059371 0 -7.79436
70.023 -0.0509993 0 -8.23514
69.6205 -0.0494738 0 -8.23764
209.029 -0.0630938 0 -7.02584
210.238 -0.0645082 0 -7.01842
69.8218 -0.0502363 0 -8.2364
139.32 -0.0571299 0 -7.80183
209.633 -0.0638019 0 -7.02215
140.125 -0.0586249 0 -7.79688
139.723 -0.0578779 0 -7.79937
69.6205 -0.0494738 0 -8.23764
69.218 -0.0479502 0 -8.24007
207.821 -0.0616738 0 -7.0331
209.029 -0.0630938 0 -7.02584
69.4193 -0.0487118 0 -8.23886
138.515 -0.0556322 0 -7.80668
208.425 -0.0623843 0 -7.02949
139.32 -0.0571299 0 -7.80183
138.917 -0.0563813 0 -7.80427
69.218 -0.0479502 0 -8.24007
68.8155 -0.0464289 0 -8.24245
206.612 -0.0602511 0 -7.04021
207.821 -0.0616738 0 -7.0331
69.0168 -0.0471892 0 -8.24127
137.709 -0.0541335 0 -7.81143
207.217 -0.0609627 0 -7.03668
138.515 -0.0556322 0 -7.80668
138.112 -0.0548829 0 -7.80907
68.8155 -0.0464289 0 -8.24245
68.413 -0.0449106 0 -8.24477
205.404 -0.0588276 0 -7.04718
206.612 -0.0602511 0 -7.04021
68.6143 -0.0456694 0 -8.24362
136.904 -0.0526357 0 -7.81607
206.008 -0.0595393 0 -7.04372
137.709 -0.0541335 0 -7.81143
137.307 -0.0533844 0 -7.81376
68.413 -0.0449106 0 -8.24477
68.0105 -0.0433956 0 -8.24705
204.195 -0.0574048 0 -7.054
205.404 -0.0588276 0 -7.04718
68.2118 -0.0441526 0 -8.24592
136.098 -0.0511396 0 -7.82062
204.8 -0.058116 0 -7.05061
136.904 -0.0526357 0 -7.81607
136.501 -0.0518874 0 -7.81836
68.0105 -0.0433956 0 -8.24705
67.608 -0.0418843 0 -8.24927
202.987 -0.0559835 0 -7.06067
204.195 -0.0574048 0 -7.054
67.8093 -0.0426394 0 -8.24816
135.293 -0.0496462 0 -7.82507
203.591 -0.0566939 0 -7.05736
136.098 -0.0511396 0 -7.82062
135.696 -0.0503926 0 -7.82286
67.608 -0.0418843 0 -8.24927
67.2056 -0.0403769 0 -8.25144
201.779 -0.0545643 0 -7.0672
202.987 -0.0559835 0 -7.06067
67.4068 -0.0411301 0 -8.25036
134.488 -0.0481559 0 -7.82942
202.383 -0.0552736 0 -7.06396
135.293 -0.0496462 0 -7.82507
134.89 -0.0489006 0 -7.82726
67.2056 -0.0403769 0 -8.25144
66.8031 -0.0388735 0 -8.25357
200.57 -0.0531476 0 -7.07359
201.779 -0.0545643 0 -7.0672
67.0043 -0.0396247 0 -8.25251
133.682 -0.0466689 0 -7.83368
201.174 -0.0538556 0 -7.07041
134.488 -0.0481559 0 -7.82942
134.085 -0.0474119 0 -7.83156
66.8031 -0.0388735 0 -8.25357
66.4006 -0.0373743 0 -8.25565
199.362 -0.0517335 0 -7.07983
200.57 -0.0531476 0 -7.07359
66.6018 -0.0381234 0 -8.25462
132.877 -0.0451854 0 -7.83783
199.966 -0.0524402 0 -7.07673
133.682 -0.0466689 0 -7.83368
133.279 -0.0459267 0 -7.83577
66.4006 -0.0373743 0 -8.25565
65.9981 -0.0358794 0 -8.25768
198.153 -0.0503222 0 -7.08593
199.362 -0.0517335 0 -7.07983
66.1993 -0.0366263 0 -8.25667
132.071 -0.0437057 0 -7.8419
198.758 -0.0510275 0 -7.0829
132.877 -0.0451854 0 -7.83783
132.474 -0.0444451 0 -7.83988
65.9981 -0.0358794 0 -8.25768
65.5956 -0.0343888 0 -8.25966
196.945 -0.0489139 0 -7.09188
198.153 -0.0503222 0 -7.08593
65.7969 -0.0351335 0 -8.25868
131.266 -0.0422297 0 -7.84587
197.549 -0.0496177 0 -7.08892
132.071 -0.0437057 0 -7.8419
131.669 -0.0429672 0 -7.8439
65.5956 -0.0343888 0 -8.25966
65.1931 -0.0329027 0 -8.2616
195.737 -0.0475086 0 -7.0977
196.945 -0.0489139 0 -7.09188
65.3944 -0.0336452 0 -8.26064
130.461 -0.0407577 0 -7.84974
196.341 -0.0482109 0 -7.09481
131.266 -0.0422297 0 -7.84587
130.863 -0.0414932 0 -7.84782
65.1931 -0.0329027 0 -8.2616
64.7907 -0.0314212 0 -8.26349
194.528 -0.0461065 0 -7.10337
195.737 -0.0475086 0 -7.0977
64.9919 -0.0321614 0 -8.26255
129.655 -0.0392897 0 -7.85353
195.133 -0.0468072 0 -7.10055
130.461 -0.0407577 0 -7.84974
130.058 -0.0400232 0 -7.85165
64.7907 -0.0314212 0 -8.26349
64.3882 -0.0299444 0 -8.26533
193.32 -0.0447077 0 -7.10891
194.528 -0.0461065 0 -7.10337
64.5894 -0.0306822 0 -8.26442
128.85 -0.0378258 0 -7.85722
193.924 -0.0454067 0 -7.10616
129.655 -0.0392897 0 -7.85353
129.252 -0.0385573 0 -7.85538
64.3882 -0.0299444 0 -8.26533
63.9857 -0.0284722 0 -8.26713
192.112 -0.0433122 0 -7.11431
193.32 -0.0447077 0 -7.10891
64.1869 -0.0292077 0 -8.26624
128.044 -0.0363662 0 -7.86081
192.716 -0.0440095 0 -7.11162
128.85 -0.0378258 0 -7.85722
128.447 -0.0370955 0 -7.85903
63.9857 -0.0284722 0 -8.26713
63.5832 -0.027005 0 -8.26888
190.903 -0.0419202 0 -7.11957
192.112 -0.0433122 0 -7.11431
63.7845 -0.027738 0 -8.26801
127.239 -0.0349108 0 -7.86432
191.507 -0.0426158 0 -7.11695
128.044 -0.0363662 0 -7.86081
127.642 -0.035638 0 -7.86258
63.5832 -0.027005 0 -8.26888
63.1808 -0.0255426 0 -8.27059
189.695 -0.0405317 0 -7.12469
190.903 -0.0419202 0 -7.11957
63.382 -0.0262732 0 -8.26974
126.434 -0.0334599 0 -7.86773
190.299 -0.0412255 0 -7.12214
127.239 -0.0349108 0 -7.86432
126.836 -0.0341848 0 -7.86604
63.1808 -0.0255426 0 -8.27059
62.7783 -0.0240853 0 -8.27225
188.486 -0.0391469 0 -7.12968
189.695 -0.0405317 0 -7.12469
62.9795 -0.0248133 0 -8.27143
125.628 -0.0320134 0 -7.87106
189.091 -0.0398389 0 -7.1272
126.434 -0.0334599 0 -7.86773
126.031 -0.0327361 0 -7.86941
62.7783 -0.0240853 0 -8.27225
62.3758 -0.022633 0 -8.27387
187.278 -0.0377658 0 -7.13453
188.486 -0.0391469 0 -7.12968
62.5771 -0.0233585 0 -8.27306
124.823 -0.0305715 0 -7.87429
187.882 -0.0384559 0 -7.13212
125.628 -0.0320134 0 -7.87106
125.226 -0.0312919 0 -7.87268
62.3758 -0.022633 0 -8.27387
61.9734 -0.0211859 0 -8.27544
186.07 -0.0363886 0 -7.13925
187.278 -0.0377658 0 -7.13453
62.1746 -0.0219088 0 -8.27466
124.017 -0.0291343 0 -7.87743
186.674 -0.0370767 0 -7.1369
124.823 -0.0305715 0 -7.87429
124.42 -0.0298523 0 -7.87587
61.9734 -0.0211859 0 -8.27544
61.5709 -0.019744 0 -8.27696
184.861 -0.0350152 0 -7.14383
186.07 -0.0363886 0 -7.13925
61.7721 -0.0204643 0 -8.27621
123.212 -0.0277018 0 -7.88049
185.466 -0.0357014 0 -7.14156
124.017 -0.0291343 0 -7.87743
123.615 -0.0284175 0 -7.87897
61.5709 -0.019744 0 -8.27696
61.1684 -0.0183075 0 -8.27845
183.653 -0.0336459 0 -7.14828
184.861 -0.0350152 0 -7.14383
61.3697 -0.0190251 0 -8.27771
122.407 -0.0262742 0 -7.88346
184.257 -0.0343301 0 -7.14607
123.212 -0.0277018 0 -7.88049
122.809 -0.0269874 0 -7.88198
61.1684 -0.0183075 0 -8.27845
60.766 -0.0168764 0 -8.27988
182.445 -0.0322807 0 -7.1526
183.653 -0.0336459 0 -7.14828
60.9672 -0.0175913 0 -8.27917
121.601 -0.0248514 0 -7.88634
183.049 -0.0329628 0 -7.15046
122.407 -0.0262742 0 -7.88346
122.004 -0.0255622 0 -7.88491
60.766 -0.0168764 0 -8.27988
60.3635 -0.0154507 0 -8.28128
181.236 -0.0309196 0 -7.15679
182.445 -0.0322807 0 -7.1526
60.5647 -0.0161629 0 -8.28059
120.796 -0.0234337 0 -7.88913
181.841 -0.0315996 0 -7.15472
121.601 -0.0248514 0 -7.88634
121.199 -0.0241419 0 -7.88774
60.3635 -0.0154507 0 -8.28128
59.9611 -0.0140306 0 -8.28263
180.028 -0.0295628 0 -7.16086
181.236 -0.0309196 0 -7.15679
60.1623 -0.01474 0 -8.28196
119.991 -0.022021 0 -7.89183
180.632 -0.0302407 0 -7.15884
120.796 -0.0234337 0 -7.88913
120.393 -0.0227267 0 -7.89049
59.9611 -0.0140306 0 -8.28263
59.5586 -0.0126162 0 -8.28394
178.82 -0.0282104 0 -7.16479
180.028 -0.0295628 0 -7.16086
59.7598 -0.0133227 0 -8.28329
119.185 -0.0206134 0 -7.89445
179.424 -0.028886 0 -7.16284
119.991 -0.022021 0 -7.89183
119.588 -0.0213166 0 -7.89315
59.5586 -0.0126162 0 -8.28394
59.1561 -0.0112074 0 -8.28521
177.611 -0.0268624 0 -7.16859
178.82 -0.0282104 0 -7.16479
59.3574 -0.0119111 0 -8.28458
118.38 -0.0192111 0 -7.89699
178.215 -0.0275358 0 -7.1667
119.185 -0.0206134 0 -7.89445
118.783 -0.0199116 0 -7.89573
59.1561 -0.0112074 0 -8.28521
58.7537 -0.00980438 0 -8.28643
176.403 -0.0255188 0 -7.17227
177.611 -0.0268624 0 -7.16859
58.9549 -0.0105052 0 -8.28582
117.575 -0.0178141 0 -7.89944
177.007 -0.02619 0 -7.17044
118.38 -0.0192111 0 -7.89699
117.977 -0.0185119 0 -7.89822
58.7537 -0.00980438 0 -8.28643
58.3512 -0.00840724 0 -8.28761
175.195 -0.0241799 0 -7.17582
176.403 -0.0255188 0 -7.17227
58.5525 -0.00910508 0 -8.28702
116.769 -0.0164225 0 -7.9018
175.799 -0.0248488 0 -7.17406
117.575 -0.0178141 0 -7.89944
117.172 -0.0171176 0 -7.90063
58.3512 -0.00840724 0 -8.28761
57.9488 -0.007016 0 -8.28875
173.986 -0.0228457 0 -7.17924
175.195 -0.0241799 0 -7.17582
58.15 -0.00771088 0 -8.28819
115.964 -0.0150363 0 -7.90409
174.59 -0.0235122 0 -7.17754
116.769 -0.0164225 0 -7.9018
116.366 -0.0157287 0 -7.90296
57.9488 -0.007016 0 -8.28875
57.5463 -0.00563075 0 -8.28985
172.778 -0.0215162 0 -7.18254
173.986 -0.0228457 0 -7.17924
57.7475 -0.00632262 0 -8.2893
115.158 -0.0136557 0 -7.90628
173.382 -0.0221803 0 -7.18091
115.964 -0.0150363 0 -7.90409
115.561 -0.0143453 0 -7.9052
57.5463 -0.00563075 0 -8.28985
57.1439 -0.00425157 0 -8.2909
171.57 -0.0201915 0 -7.18572
172.778 -0.0215162 0 -7.18254
57.3451 -0.0049404 0 -8.29038
114.353 -0.0122807 0 -7.9084
172.174 -0.0208533 0 -7.18415
115.158 -0.0136557 0 -7.90628
114.756 -0.0129675 0 -7.90735
57.1439 -0.00425157 0 -8.2909
56.7414 -0.00287851 0 -8.29192
170.361 -0.0188718 0 -7.18877
171.57 -0.0201915 0 -7.18572
56.9426 -0.00356427 0 -8.29142
113.548 -0.0109113 0 -7.91043
170.966 -0.019531 0 -7.18726
114.353 -0.0122807 0 -7.9084
113.95 -0.0115953 0 -7.90943
56.7414 -0.00287851 0 -8.29192
56.339 -0.00151166 0 -8.2929
169.153 -0.017557 0 -7.1917
170.361 -0.0188718 0 -7.18877
56.5402 -0.00219431 0 -8.29241
112.742 -0.00954772 0 -7.91239
169.757 -0.0182138 0 -7.19025
113.548 -0.0109113 0 -7.91043
113.145 -0.0102288 0 -7.91142
56.339 -0.00151166 0 -8.2929
55.9365 -0.000151085 0 -8.29383
167.945 -0.0162473 0 -7.19451
169.153 -0.017557 0 -7.1917
56.1377 -0.000830585 0 -8.29337
111.937 -0.00818997 0 -7.91426
168.549 -0.0169015 0 -7.19312
112.742 -0.00954773 0 -7.91239
112.34 -0.00886812 0 -7.91333
55.9365 -0.000151085 0 -8.29383
55.5341 0.00120316 0 -8.29473
166.736 -0.0149428 0 -7.1972
167.945 -0.0162473 0 -7.19451
55.7353 0.000526835 0 -8.29428
111.132 -0.00683812 0 -7.91605
167.341 -0.0155944 0 -7.19587
111.937 -0.00818997 0 -7.91426
111.534 -0.0075133 0 -7.91517
55.5341 0.00120316 0 -8.29473
55.1316 0.00255099 0 -8.29558
165.528 -0.0136435 0 -7.19977
166.736 -0.0149428 0 -7.1972
55.3328 0.00187788 0 -8.29516
110.326 -0.00549224 0 -7.91776
166.132 -0.0142925 0 -7.1985
111.132 -0.00683812 0 -7.91605
110.729 -0.00616443 0 -7.91692
55.1316 0.00255099 0 -8.29558
54.7292 0.00389235 0 -8.2964
164.32 -0.0123494 0 -7.20223
165.528 -0.0136435 0 -7.19977
54.9304 0.00322249 0 -8.29599
109.521 -0.00415242 0 -7.9194
164.924 -0.0129958 0 -7.20101
110.326 -0.00549225 0 -7.91776
109.924 -0.00482157 0 -7.91859
54.7292 0.00389235 0 -8.2964
54.3267 0.00522716 0 -8.29717
163.111 -0.0110608 0 -7.20456
164.32 -0.0123494 0 -7.20223
54.5279 0.00456057 0 -8.29679
108.716 -0.00281871 0 -7.92095
163.716 -0.0117044 0 -7.20341
109.521 -0.00415242 0 -7.9194
109.118 -0.00348479 0 -7.92019
54.3267 0.00522716 0 -8.29717
53.9243 0.00655536 0 -8.29791
161.903 -0.00977755 0 -7.20678
163.111 -0.0110608 0 -7.20456
54.1255 0.00589209 0 -8.29755
107.91 -0.00149119 0 -7.92243
162.507 -0.0104185 0 -7.20568
108.716 -0.00281871 0 -7.92095
108.313 -0.00215417 0 -7.9217
53.9243 0.00655536 0 -8.29791
53.5218 0.00787689 0 -8.29861
160.695 -0.00849983 0 -7.20888
161.903 -0.00977755 0 -7.20678
53.723 0.00721696 0 -8.29826
107.105 -0.000169918 0 -7.92383
161.299 -0.00913799 0 -7.20784
107.91 -0.00149119 0 -7.92243
107.508 -0.000829765 0 -7.92314
53.5218 0.00787689 0 -8.29861
53.1194 0.00919167 0 -8.29927
159.487 -0.00722771 0 -7.21087
160.695 -0.00849983 0 -7.20888
53.3206 0.00853512 0 -8.29894
106.3 0.00114502 0 -7.92515
160.091 -0.00786306 0 -7.20989
107.105 -0.000169917 0 -7.92383
106.702 0.000488344 0 -7.9245
53.1194 0.00919167 0 -8.29927
52.7169 0.0104997 0 -8.29989
158.278 -0.00596123 0 -7.21274
159.487 -0.0072277 0 -7.21087
52.9181 0.00984651 0 -8.29958
105.494 0.00245357 0 -7.9264
158.882 -0.00659376 0 -7.21182
106.3 0.00114501 0 -7.92515
105.897 0.00180009 0 -7.92579
52.7169 0.0104997 0 -8.29989
52.3145 0.0118008 0 -8.30047
157.07 -0.00470049 0 -7.2145
158.278 -0.00596123 0 -7.21274
52.5157 0.0111511 0 -8.30019
104.689 0.00375565 0 -7.92757
157.674 -0.00533014 0 -7.21363
105.494 0.00245357 0 -7.9264
105.092 0.00310543 0 -7.927
52.3145 0.0118008 0 -8.30047
51.912 0.0130949 0 -8.30102
155.862 -0.00344554 0 -7.21614
157.07 -0.00470049 0 -7.2145
52.1132 0.0124487 0 -8.30075
103.884 0.00505121 0 -7.92867
156.466 -0.00407228 0 -7.21534
104.689 0.00375565 0 -7.92757
104.286 0.00440425 0 -7.92813
51.912 0.0130949 0 -8.30102
51.5096 0.0143821 0 -8.30153
154.653 -0.00219646 0 -7.21768
155.862 -0.00344554 0 -7.21614
51.7108 0.0137394 0 -8.30128
103.078 0.00634018 0 -7.92969
155.258 -0.00282026 0 -7.21693
103.884 0.00505121 0 -7.92867
103.481 0.00569653 0 -7.92919
51.5096 0.0143821 0 -8.30153
51.1071 0.0156622 0 -8.302
153.445 -0.000953314 0 -7.2191
154.653 -0.00219646 0 -7.21768
51.3083 0.0150231 0 -8.30177
102.273 0.00762248 0 -7.93064
154.049 -0.00157414 0 -7.21841
103.078 0.00634017 0 -7.92969
102.675 0.00698217 0 -7.93017
51.1071 0.0156622 0 -8.302
50.7047 0.0169352 0 -8.30244
152.237 0.000283833 0 -7.22042
153.445 -0.000953314 0 -7.2191
50.9059 0.0162996 0 -8.30223
101.467 0.00889806 0 -7.93151
152.841 -0.000333987 0 -7.21977
102.273 0.00762248 0 -7.93064
101.87 0.00826111 0 -7.93109
50.7047 0.0169352 0 -8.30244
50.3022 0.018201 0 -8.30284
151.028 0.00151491 0 -7.22162
152.237 0.000283833 0 -7.22042
50.5034 0.017569 0 -8.30264
100.662 0.0101669 0 -7.93232
151.633 0.000900138 0 -7.22103
101.467 0.00889806 0 -7.93151
101.065 0.00953331 0 -7.93192
50.3022 0.018201 0 -8.30284
49.8998 0.0194596 0 -8.3032
149.82 0.00273985 0 -7.22272
151.028 0.00151491 0 -7.22162
50.101 0.0188312 0 -8.30303
99.8568 0.0114288 0 -7.93305
150.424 0.00212815 0 -7.22219
100.662 0.0101669 0 -7.93232
100.259 0.0107987 0 -7.93269
49.8998 0.0194596 0 -8.3032
49.4973 0.0207108 0 -8.30353
148.612 0.0039586 0 -7.22371
149.82 0.00273985 0 -7.22272
49.6985 0.0200861 0 -8.30337
99.0515 0.0126838 0 -7.93371
149.216 0.00335001 0 -7.22323
99.8568 0.0114288 0 -7.93305
99.4541 0.0120572 0 -7.93338
49.4973 0.0207108 0 -8.30353
49.0949 0.0219547 0 -8.30382
147.404 0.00517108 0 -7.22459
148.612 0.0039586 0 -7.22371
49.2961 0.0213337 0 -8.30368
98.2461 0.0139319 0 -7.93429
148.008 0.00456563 0 -7.22417
99.0515 0.0126838 0 -7.93371
98.6488 0.0133087 0 -7.93401
49.0949 0.0219547 0 -8.30382
48.6924 0.0231912 0 -8.30408
146.195 0.00637723 0 -7.22537
147.404 0.00517108 0 -7.22459
48.8936 0.0225739 0 -8.30396
97.4408 0.0151729 0 -7.93481
146.8 0.00577496 0 -7.225
98.2461 0.0139319 0 -7.93429
97.8434 0.0145532 0 -7.93456
48.6924 0.0231912 0 -8.30408
48.29 0.0244202 0 -8.3043
144.987 0.00757699 0 -7.22605
146.195 0.00637723 0 -7.22537
48.4912 0.0238066 0 -8.3042
96.6354 0.0164068 0 -7.93526
145.591 0.00697791 0 -7.22572
97.4408 0.0151729 0 -7.93481
97.0381 0.0157907 0 -7.93504
48.29 0.0244202 0 -8.3043
47.8875 0.0256416 0 -8.30449
143.779 0.0087703 0 -7.22662
144.987 0.00757699 0 -7.22605
48.0887 0.0250318 0 -8.3044
95.8301 0.0176335 0 -7.93564
144.383 0.00817445 0 -7.22634
96.6354 0.0164068 0 -7.93526
96.2328 0.017021 0 -7.93546
47.8875 0.0256416 0 -8.30449
47.4851 0.0268554 0 -8.30464
142.571 0.0099571 0 -7.22708
143.779 0.0087703 0 -7.22662
47.6863 0.0262495 0 -8.30457
95.0248 0.018853 0 -7.93595
143.175 0.00936451 0 -7.22686
95.8301 0.0176335 0 -7.93564
95.4274 0.0182442 0 -7.9358
47.4851 0.0268554 0 -8.30464
47.0826 0.0280616 0 -8.30476
141.362 0.0111373 0 -7.22745
142.571 0.0099571 0 -7.22708
47.2838 0.0274595 0 -8.30471
94.2194 0.0200653 0 -7.93619
141.966 0.010548 0 -7.22728
95.0248 0.018853 0 -7.93595
94.6221 0.0194601 0 -7.93608
47.0826 0.0280616 0 -8.30476
46.6802 0.0292601 0 -8.30485
140.154 0.0123109 0 -7.22771
141.362 0.0111373 0 -7.22745
46.8814 0.0286618 0 -8.30481
93.4141 0.0212702 0 -7.93636
140.758 0.0117249 0 -7.22759
94.2194 0.0200653 0 -7.93619
93.8167 0.0206687 0 -7.93628
46.6802 0.0292601 0 -8.30485
46.2777 0.0304508 0 -8.3049
138.946 0.0134778 0 -7.22787
140.154 0.0123109 0 -7.22771
46.4789 0.0298564 0 -8.30488
92.6087 0.0224677 0 -7.93647
139.55 0.0128952 0 -7.2278
93.4141 0.0212702 0 -7.93636
93.0114 0.0218699 0 -7.93642
46.2777 0.0304508 0 -8.3049
45.8752 0.0316336 0 -8.30492
137.737 0.0146379 0 -7.22794
138.946 0.0134778 0 -7.22787
46.0765 0.0310432 0 -8.30492
91.8034 0.0236578 0 -7.93651
138.342 0.0140587 0 -7.22792
92.6087 0.0224677 0 -7.93647
92.2061 0.0230637 0 -7.9365
45.8752 0.0316336 0 -8.30492
45.4728 0.0328086 0 -8.30491
136.529 0.0157912 0 -7.2279
137.737 0.0146379 0 -7.22794
45.674 0.0322221 0 -8.30492
90.9981 0.0248403 0 -7.93649
137.133 0.0152154 0 -7.22793
91.8034 0.0236578 0 -7.93651
91.4007 0.02425 0 -7.93651
45.4728 0.0328086 0 -8.30491
45.0703 0.0339756 0 -8.30486
135.321 0.0169376 0 -7.22777
136.529 0.0157912 0 -7.2279
45.2716 0.0333931 0 -8.30489
90.1927 0.0260153 0 -7.9364
135.925 0.0163653 0 -7.22785
90.9981 0.0248403 0 -7.93649
90.5954 0.0254288 0 -7.93645
45.0703 0.0339756 0 -8.30486
44.6679 0.0351347 0 -8.30478
134.113 0.0180771 0 -7.22754
135.321 0.0169376 0 -7.22777
44.8691 0.0345562 0 -8.30483
89.3874 0.0271826 0 -7.93624
134.717 0.0175082 0 -7.22767
90.1927 0.0260153 0 -7.9364
89.79 0.0265999 0 -7.93633
44.6679 0.0351347 0 -8.30478
44.2654 0.0362857 0 -8.30467
132.904 0.0192096 0 -7.22721
134.113 0.0180771 0 -7.22754
44.4666 0.0357112 0 -8.30473
88.582 0.0283423 0 -7.93602
133.508 0.0186442 0 -7.22739
89.3874 0.0271826 0 -7.93624
88.9847 0.0277634 0 -7.93614
44.2654 0.0362857 0 -8.30467
43.8629 0.0374286 0 -8.30453
131.696 0.0203351 0 -7.22679
132.904 0.0192096 0 -7.22721
44.0642 0.0368582 0 -8.3046
87.7767 0.0294943 0 -7.93574
132.3 0.0197732 0 -7.22701
88.582 0.0283423 0 -7.93602
88.1794 0.0289193 0 -7.93589
43.8629 0.0374286 0 -8.30453
43.4605 0.0385634 0 -8.30436
130.488 0.0214535 0 -7.22628
131.696 0.0203351 0 -7.22679
43.6617 0.037997 0 -8.30445
86.9714 0.0306384 0 -7.9354
131.092 0.0208952 0 -7.22655
87.7767 0.0294943 0 -7.93574
87.374 0.0300673 0 -7.93558
43.4605 0.0385634 0 -8.30436
43.058 0.0396899 0 -8.30415
129.28 0.0225647 0 -7.22567
130.488 0.0214535 0 -7.22628
43.2593 0.0391277 0 -8.30426
86.166 0.0317747 0 -7.93499
129.884 0.02201 0 -7.22598
86.9714 0.0306384 0 -7.9354
86.5687 0.0312076 0 -7.9352
43.058 0.0396899 0 -8.30415
42.6556 0.0408082 0 -8.30392
128.071 0.0236687 0 -7.22497
129.28 0.0225647 0 -7.22567
42.8568 0.0402501 0 -8.30404
85.3607 0.0329032 0 -7.93452
128.675 0.0231176 0 -7.22533
86.166 0.0317747 0 -7.93499
85.7633 0.03234 0 -7.93476
42.6556 0.0408082 0 -8.30392
42.2531 0.0419182 0 -8.30365
126.863 0.0247655 0 -7.22418
128.071 0.0236687 0 -7.22497
42.4543 0.0413643 0 -8.30379
84.5553 0.0340237 0 -7.93399
127.467 0.024218 0 -7.22458
85.3607 0.0329032 0 -7.93452
84.958 0.0334644 0 -7.93426
42.2531 0.0419182 0 -8.30365
41.8506 0.0430199 0 -8.30335
125.655 0.0258549 0 -7.22329
126.863 0.0247655 0 -7.22418
42.0519 0.0424701 0 -8.3035
83.75 0.0351362 0 -7.9334
126.259 0.0253111 0 -7.22374
84.5553 0.0340237 0 -7.93399
84.1527 0.0345809 0 -7.9337
41.8506 0.0430199 0 -8.30335
41.4482 0.0441131 0 -8.30303
124.447 0.026937 0 -7.22232
125.655 0.0258549 0 -7.22329
41.6494 0.0435675 0 -8.30319
82.9446 0.0362406 0 -7.93275
125.051 0.0263969 0 -7.22282
83.75 0.0351362 0 -7.9334
83.3473 0.0356894 0 -7.93308
41.4482 0.0441131 0 -8.30303
41.0457 0.0451979 0 -8.30267
123.238 0.0280117 0 -7.22126
124.447 0.026937 0 -7.22232
41.2469 0.0446566 0 -8.30285
82.1393 0.037337 0 -7.93204
123.842 0.0274753 0 -7.2218
82.9446 0.0362406 0 -7.93275
82.542 0.0367898 0 -7.9324
41.0457 0.0451979 0 -8.30267
40.6432 0.0462742 0 -8.30228
122.03 0.0290789 0 -7.2201
123.238 0.0280117 0 -7.22126
40.8445 0.0457371 0 -8.30248
81.334 0.0384252 0 -7.93127
122.634 0.0285462 0 -7.22069
82.1393 0.037337 0 -7.93204
81.7366 0.0378821 0 -7.93167
40.6432 0.0462742 0 -8.30228
40.2407 0.0473419 0 -8.30187
120.822 0.0301386 0 -7.21887
122.03 0.0290789 0 -7.2201
40.442 0.0468091 0 -8.30208
80.5286 0.0395052 0 -7.93045
121.426 0.0296097 0 -7.2195
81.334 0.0384252 0 -7.93127
80.9313 0.0389662 0 -7.93087
40.2407 0.0473419 0 -8.30187
39.8383 0.0484011 0 -8.30143
119.613 0.0311907 0 -7.21754
120.822 0.0301386 0 -7.21887
40.0395 0.0478726 0 -8.30165
79.7233 0.0405769 0 -7.92956
120.218 0.0306656 0 -7.21821
80.5286 0.0395052 0 -7.93045
80.1259 0.0400421 0 -7.93001
39.8383 0.0484011 0 -8.30143
39.4358 0.0494516 0 -8.30095
118.405 0.0322353 0 -7.21613
119.613 0.0311907 0 -7.21754
39.637 0.0489274 0 -8.30119
78.9179 0.0416404 0 -7.92862
119.009 0.0317139 0 -7.21685
79.7233 0.0405769 0 -7.92956
79.3206 0.0411097 0 -7.9291
39.4358 0.0494516 0 -8.30095
39.0333 0.0504934 0 -8.30045
117.197 0.0332721 0 -7.21464
118.405 0.0322353 0 -7.21613
39.2346 0.0499736 0 -8.30071
78.1126 0.0426956 0 -7.92762
117.801 0.0327546 0 -7.21539
78.9179 0.0416404 0 -7.92862
78.5152 0.042169 0 -7.92813
39.0333 0.0504934 0 -8.30045
38.6308 0.0515265 0 -8.29992
115.989 0.0343013 0 -7.21306
117.197 0.0332721 0 -7.21464
38.8321 0.051011 0 -8.30019
77.3072 0.0437423 0 -7.92657
116.593 0.0337876 0 -7.21386
78.1126 0.0426956 0 -7.92762
77.7099 0.04322 0 -7.9271
38.6308 0.0515265 0 -8.29992
38.2284 0.0525507 0 -8.29937
114.78 0.0353227 0 -7.21139
115.989 0.0343013 0 -7.21306
38.4296 0.0520397 0 -8.29965
76.5019 0.0447806 0 -7.92546
115.385 0.0348129 0 -7.21224
77.3072 0.0437423 0 -7.92657
76.9045 0.0442625 0 -7.92602
38.2284 0.0525507 0 -8.29937
37.8259 0.0535662 0 -8.29879
113.572 0.0363363 0 -7.20965
114.78 0.0353227 0 -7.21139
38.0271 0.0530596 0 -8.29908
75.6965 0.0458105 0 -7.9243
114.176 0.0358304 0 -7.21053
76.5019 0.0447806 0 -7.92546
76.0992 0.0452966 0 -7.92488
37.8259 0.0535662 0 -8.29879
37.4234 0.0545728 0 -8.29818
112.364 0.037342 0 -7.20782
113.572 0.0363363 0 -7.20965
37.6246 0.0540706 0 -8.29848
74.8912 0.0468318 0 -7.92308
112.968 0.0368401 0 -7.20875
75.6965 0.0458105 0 -7.9243
75.2938 0.0463222 0 -7.92369
37.4234 0.0545728 0 -8.29818
37.0209 0.0555704 0 -8.29754
111.156 0.0383399 0 -7.20592
112.364 0.037342 0 -7.20782
37.2221 0.0550727 0 -8.29786
74.0858 0.0478446 0 -7.92181
111.76 0.037842 0 -7.20688
74.8912 0.0468318 0 -7.92308
74.4885 0.0473393 0 -7.92245
37.0209 0.0555704 0 -8.29754
36.6184 0.0565591 0 -8.29687
109.947 0.0393299 0 -7.20393
111.156 0.0383399 0 -7.20592
36.8197 0.0560659 0 -8.29721
73.2805 0.0488488 0 -7.92048
110.552 0.0388359 0 -7.20494
74.0858 0.0478446 0 -7.92181
73.6831 0.0483478 0 -7.92115
36.6184 0.0565591 0 -8.29687
36.2159 0.0575389 0 -8.29618
108.739 0.0403118 0 -7.20187
109.947 0.0393299 0 -7.20393
36.4172 0.0570501 0 -8.29653
72.4751 0.0498443 0 -7.9191
109.343 0.0398218 0 -7.20291
73.2805 0.0488488 0 -7.92048
72.8778 0.0493476 0 -7.9198
36.2159 0.0575389 0 -8.29618
35.8134 0.0585095 0 -8.29547
107.531 0.0412858 0 -7.19973
108.739 0.0403118 0 -7.20187
36.0147 0.0580253 0 -8.29583
71.6697 0.0508311 0 -7.91767
108.135 0.0407998 0 -7.20081
72.4751 0.0498443 0 -7.9191
72.0724 0.0503388 0 -7.9184
35.8134 0.0585095 0 -8.29547
35.4109 0.0594711 0 -8.29473
106.323 0.0422517 0 -7.19751
107.531 0.0412858 0 -7.19973
35.6122 0.0589914 0 -8.2951
70.8644 0.0518092 0 -7.91619
106.927 0.0417697 0 -7.19863
71.6697 0.0508311 0 -7.91767
71.2671 0.0513212 0 -7.91694
35.4109 0.0594711 0 -8.29473
35.0084 0.0604235 0 -8.29396
105.114 0.0432094 0 -7.19521
106.323 0.0422517 0 -7.19751
35.2097 0.0599484 0 -8.29435
70.059 0.0527785 0 -7.91466
105.719 0.0427316 0 -7.19637
70.8644 0.0518092 0 -7.91619
70.4617 0.0522949 0 -7.91543
35.0084 0.0604235 0 -8.29396
34.6059 0.0613668 0 -8.29317
103.906 0.0441591 0 -7.19284
105.114 0.0432094 0 -7.19521
34.8072 0.0608963 0 -8.29357
69.2537 0.0537389 0 -7.91308
104.51 0.0436853 0 -7.19404
70.059 0.0527785 0 -7.91466
69.6564 0.0532598 0 -7.91388
34.6059 0.0613668 0 -8.29317
34.2034 0.0623009 0 -8.29235
102.698 0.0451006 0 -7.1904
103.906 0.0441591 0 -7.19284
34.4047 0.061835 0 -8.29276
68.4483 0.0546906 0 -7.91145
103.302 0.0446309 0 -7.19163
69.2537 0.0537389 0 -7.91308
68.851 0.0542159 0 -7.91227
34.2034 0.0623009 0 -8.29235
33.8009 0.0632257 0 -8.29151
101.49 0.0460338 0 -7.18788
102.698 0.0451006 0 -7.1904
34.0022 0.0627644 0 -8.29193
67.6429 0.0556333 0 -7.90977
102.094 0.0455682 0 -7.18915
68.4483 0.0546906 0 -7.91145
68.0456 0.0551631 0 -7.91062
33.8009 0.0632257 0 -8.29151
33.3984 0.0641412 0 -8.29064
100.281 0.0469588 0 -7.18529
101.49 0.0460338 0 -7.18788
33.5997 0.0636846 0 -8.29108
66.8376 0.0565671 0 -7.90804
100.885 0.0464973 0 -7.18659
67.6429 0.0556333 0 -7.90977
67.2403 0.0561013 0 -7.90891
33.3984 0.0641412 0 -8.29064
32.9959 0.0650474 0 -8.28975
99.0731 0.0478755 0 -7.18263
100.281 0.0469588 0 -7.18529
33.1972 0.0645955 0 -8.2902
66.0322 0.0574919 0 -7.90627
99.6772 0.0474182 0 -7.18397
66.8376 0.0565671 0 -7.90804
66.4349 0.0570306 0 -7.90716
32.9959 0.0650474 0 -8.28975
32.5934 0.0659442 0 -8.28884
97.8648 0.0487838 0 -7.17989
99.0731 0.0478755 0 -7.18263
32.7947 0.065497 0 -8.2893
65.2269 0.0584077 0 -7.90444
98.469 0.0483307 0 -7.18127
66.0322 0.0574919 0 -7.90627
65.6295 0.0579509 0 -7.90536
32.5934 0.0659442 0 -8.28884
32.1909 0.0668317 0 -8.28791
96.6566 0.0496838 0 -7.17709
97.8648 0.0487838 0 -7.17989
32.3921 0.0663891 0 -8.28838
64.4215 0.0593145 0 -7.90257
97.2607 0.0492348 0 -7.1785
65.2269 0.0584077 0 -7.90444
64.8242 0.0588622 0 -7.90351
32.1909 0.0668317 0 -8.28791
31.7884 0.0677097 0 -8.28695
95.4483 0.0505753 0 -7.17422
96.6566 0.0496838 0 -7.17709
31.9896 0.0672718 0 -8.28743
63.6161 0.0602121 0 -7.90066
96.0524 0.0501306 0 -7.17566
64.4215 0.0593145 0 -7.90257
64.0188 0.0597644 0 -7.90162
31.7884 0.0677097 0 -8.28695
31.3859 0.0685782 0 -8.28596
94.2401 0.0514585 0 -7.17127
95.4483 0.0505753 0 -7.17422
31.5871 0.0681451 0 -8.28646
62.8107 0.0611007 0 -7.89869
94.8442 0.051018 0 -7.17275
63.6161 0.0602121 0 -7.90066
63.2134 0.0606575 0 -7.89968
31.3859 0.0685782 0 -8.28596
30.9833 0.0694372 0 -8.28496
93.0318 0.0523331 0 -7.16827
94.2401 0.0514585 0 -7.17127
31.1846 0.0690089 0 -8.28546
62.0054 0.06198 0 -7.89669
93.6359 0.0518968 0 -7.16978
62.8107 0.0611007 0 -7.89869
62.4081 0.0615415 0 -7.8977
30.9833 0.0694372 0 -8.28496
30.5808 0.0702866 0 -8.28393
91.8235 0.0531992 0 -7.16519
93.0318 0.0523331 0 -7.16827
30.7821 0.0698631 0 -8.28445
61.2 0.0628502 0 -7.89464
92.4277 0.0527672 0 -7.16674
62.0054 0.0619801 0 -7.89669
61.6027 0.0624163 0 -7.89567
30.5808 0.0702866 0 -8.28393
30.1783 0.0711265 0 -8.28288
90.6153 0.0540568 0 -7.16205
91.8235 0.0531992 0 -7.16519
30.3796 0.0707078 0 -8.28341
60.3946 0.0637112 0 -7.89254
91.2194 0.0536291 0 -7.16363
61.2 0.0628502 0 -7.89464
60.7973 0.0632819 0 -7.89359
30.1783 0.0711265 0 -8.28288
29.7758 0.0719567 0 -8.28181
89.407 0.0549058 0 -7.15884
90.6153 0.0540568 0 -7.16205
29.977 0.0715428 0 -8.28235
59.5892 0.0645629 0 -7.8904
90.0112 0.0544823 0 -7.16045
60.3946 0.0637112 0 -7.89254
59.9919 0.0641382 0 -7.89148
29.7758 0.0719567 0 -8.28181
29.3732 0.0727773 0 -8.28072
88.1988 0.0557461 0 -7.15557
89.407 0.0549058 0 -7.15884
29.5745 0.0723682 0 -8.28127
58.7839 0.0654053 0 -7.88822
88.8029 0.055327 0 -7.15722
59.5892 0.0645629 0 -7.8904
59.1866 0.0649853 0 -7.88932
29.3732 0.0727773 0 -8.28072
28.9707 0.0735882 0 -8.27961
86.9905 0.0565779 0 -7.15224
88.1988 0.0557461 0 -7.15557
29.172 0.073184 0 -8.28017
57.9785 0.0662384 0 -7.886
87.5946 0.0561631 0 -7.15392
58.7839 0.0654053 0 -7.88822
58.3812 0.065823 0 -7.88711
28.9707 0.0735882 0 -8.27961
28.5682 0.0743894 0 -8.27848
85.7822 0.0574009 0 -7.14885
86.9905 0.0565779 0 -7.15224
28.7694 0.07399 0 -8.27904
57.1731 0.0670621 0 -7.88373
86.3864 0.0569905 0 -7.15055
57.9785 0.0662384 0 -7.886
57.5758 0.0666514 0 -7.88487
28.5682 0.0743894 0 -8.27848
28.1656 0.0751809 0 -8.27732
84.574 0.0582152 0 -7.14539
85.7822 0.0574009 0 -7.14885
28.3669 0.0747864 0 -8.2779
56.3677 0.0678764 0 -7.88143
85.1781 0.0578091 0 -7.14712
57.1731 0.0670621 0 -7.88373
56.7704 0.0674704 0 -7.88259
28.1656 0.0751809 0 -8.27732
27.7631 0.0759625 0 -8.27615
83.3657 0.0590208 0 -7.14187
84.574 0.0582152 0 -7.14539
27.9644 0.0755729 0 -8.27674
55.5623 0.0686813 0 -7.87908
83.9698 0.0586191 0 -7.14364
56.3677 0.0678764 0 -7.88143
55.965 0.06828 0 -7.88026
27.7631 0.0759625 0 -8.27615
27.3605 0.0767343 0 -8.27495
82.1574 0.0598176 0 -7.1383
83.3657 0.0590208 0 -7.14187
27.5618 0.0763497 0 -8.27555
54.7569 0.0694767 0 -7.8767
82.7616 0.0594203 0 -7.14009
55.5623 0.0686813 0 -7.87908
55.1596 0.0690802 0 -7.87789
27.3605 0.0767343 0 -8.27495
26.958 0.0774963 0 -8.27374
80.9492 0.0606057 0 -7.13466
82.1574 0.0598176 0 -7.1383
27.1593 0.0771165 0 -8.27435
53.9515 0.0702627 0 -7.87427
81.5533 0.0602128 0 -7.13648
54.7569 0.0694767 0 -7.8767
54.3542 0.0698709 0 -7.87549
26.958 0.0774963 0 -8.27374
26.5554 0.0782484 0 -8.27251
79.7409 0.0613848 0 -7.13097
80.9492 0.0606057 0 -7.13466
26.7567 0.0778736 0 -8.27313
53.1461 0.0710391 0 -7.87181
80.345 0.0609964 0 -7.13282
53.9515 0.0702627 0 -7.87427
53.5488 0.0706521 0 -7.87305
26.5554 0.0782484 0 -8.27251
26.1529 0.0789906 0 -8.27126
78.5326 0.0621552 0 -7.12722
79.7409 0.0613848 0 -7.13097
26.3542 0.0786208 0 -8.27188
52.3407 0.071806 0 -7.86931
79.1368 0.0617711 0 -7.1291
53.1461 0.0710391 0 -7.87181
52.7434 0.0714237 0 -7.87056
26.1529 0.0789906 0 -8.27126
25.7503 0.0797229 0 -8.26999
77.3244 0.0629166 0 -7.12341
78.5326 0.0621552 0 -7.12722
25.9516 0.079358 0 -8.27062
51.5353 0.0725633 0 -7.86677
77.9285 0.062537 0 -7.12532
52.3407 0.071806 0 -7.86931
51.938 0.0721858 0 -7.86804
25.7503 0.0797229 0 -8.26999
25.3478 0.0804452 0 -8.2687
76.1161 0.0636692 0 -7.11955
77.3244 0.0629166 0 -7.12341
25.5491 0.0800853 0 -8.26934
50.7299 0.073311 0 -7.86419
76.7202 0.063294 0 -7.12148
51.5353 0.0725633 0 -7.86677
51.1327 0.0729383 0 -7.86549
25.3478 0.0804452 0 -8.2687
24.9452 0.0811575 0 -8.26739
74.9078 0.0644128 0 -7.11563
76.1161 0.0636692 0 -7.11955
25.1465 0.0808026 0 -8.26805
49.9245 0.0740491 0 -7.86158
75.512 0.0640421 0 -7.1176
50.7299 0.073311 0 -7.86419
50.3272 0.0736812 0 -7.86289
24.9452 0.0811575 0 -8.26739
24.5426 0.0818598 0 -8.26606
73.6996 0.0651474 0 -7.11166
74.9078 0.0644128 0 -7.11563
24.7439 0.0815099 0 -8.26673
49.1191 0.0747775 0 -7.85893
74.3037 0.0647812 0 -7.11365
49.9245 0.0740491 0 -7.86158
49.5218 0.0744145 0 -7.86026
24.5426 0.0818598 0 -8.26606
24.1401 0.082552 0 -8.26472
72.4913 0.0658731 0 -7.10764
73.6996 0.0651474 0 -7.11166
24.3414 0.0822071 0 -8.2654
48.3137 0.0754962 0 -7.85625
73.0954 0.0655114 0 -7.10966
49.1191 0.0747775 0 -7.85893
48.7164 0.0751381 0 -7.8576
24.1401 0.082552 0 -8.26472
23.7375 0.0832342 0 -8.26336
71.283 0.0665897 0 -7.10356
72.4913 0.0658731 0 -7.10764
23.9388 0.0828943 0 -8.26404
47.5083 0.0762053 0 -7.85353
71.8872 0.0662325 0 -7.10561
48.3137 0.0754962 0 -7.85625
47.911 0.075852 0 -7.8549
23.7375 0.0832342 0 -8.26336
23.3349 0.0839062 0 -8.26199
70.0748 0.0672973 0 -7.09944
71.283 0.0665897 0 -7.10356
23.5362 0.0835714 0 -8.26268
46.7029 0.0769046 0 -7.85078
70.6789 0.0669446 0 -7.10151
47.5083 0.0762053 0 -7.85353
47.1056 0.0765562 0 -7.85216
23.3349 0.0839062 0 -8.26199
22.9324 0.0845681 0 -8.26059
68.8665 0.0679958 0 -7.09526
70.0748 0.0672973 0 -7.09944
23.1336 0.0842384 0 -8.26129
45.8975 0.0775942 0 -7.848
69.4706 0.0676477 0 -7.09735
46.7029 0.0769046 0 -7.85078
46.3002 0.0772506 0 -7.84939
22.9324 0.0845681 0 -8.26059
22.5298 0.0852199 0 -8.25918
67.6582 0.0686853 0 -7.09104
68.8665 0.0679958 0 -7.09526
22.7311 0.0848953 0 -8.25989
45.0921 0.0782739 0 -7.84518
68.2623 0.0683417 0 -7.09315
45.8975 0.0775941 0 -7.848
45.4948 0.0779353 0 -7.84659
22.5298 0.0852199 0 -8.25918
22.1272 0.0858615 0 -8.25776
66.4499 0.0693656 0 -7.08676
67.6582 0.0686853 0 -7.09104
22.3285 0.0855419 0 -8.25847
44.2867 0.0789439 0 -7.84233
67.0541 0.0690266 0 -7.0889
45.0921 0.0782739 0 -7.84518
44.6894 0.0786101 0 -7.84376
22.1272 0.0858615 0 -8.25776
21.7246 0.0864928 0 -8.25631
65.2416 0.0700369 0 -7.08244
66.4499 0.0693656 0 -7.08676
21.9259 0.0861784 0 -8.25704
43.4812 0.079604 0 -7.83945
65.8458 0.0697024 0 -7.08461
44.2867 0.0789439 0 -7.84233
43.884 0.0792752 0 -7.84089
21.7246 0.0864928 0 -8.25631
21.322 0.087114 0 -8.25486
64.0334 0.0706989 0 -7.07807
65.2416 0.0700369 0 -7.08244
21.5233 0.0868047 0 -8.25559
42.6758 0.0802543 0 -7.83653
64.6375 0.070369 0 -7.08026
43.4812 0.079604 0 -7.83945
43.0785 0.0799304 0 -7.83799
21.322 0.087114 0 -8.25486
20.9194 0.0877249 0 -8.25338
62.8251 0.0713518 0 -7.07366
64.0334 0.0706989 0 -7.07807
21.1207 0.0874207 0 -8.25412
41.8704 0.0808947 0 -7.83359
63.4292 0.0710265 0 -7.07587
42.6758 0.0802543 0 -7.83653
42.2731 0.0805757 0 -7.83507
20.9194 0.0877249 0 -8.25338
20.5168 0.0883255 0 -8.2519
61.6168 0.0719956 0 -7.0692
62.8251 0.0713518 0 -7.07366
20.7181 0.0880265 0 -8.25264
41.065 0.0815252 0 -7.83062
62.2209 0.0716748 0 -7.07144
41.8704 0.0808947 0 -7.83359
41.4677 0.0812112 0 -7.83211
20.5168 0.0883255 0 -8.2519
20.1142 0.0889158 0 -8.25039
60.4085 0.0726301 0 -7.0647
61.6168 0.0719956 0 -7.0692
20.3155 0.088622 0 -8.25115
40.2595 0.0821458 0 -7.82762
61.0127 0.072314 0 -7.06695
41.065 0.0815252 0 -7.83062
40.6622 0.0818368 0 -7.82912
20.1142 0.0889158 0 -8.25039
19.7116 0.0894958 0 -8.24888
59.2002 0.0732553 0 -7.06015
60.4085 0.0726301 0 -7.0647
19.9129 0.0892071 0 -8.24964
39.4541 0.0827565 0 -7.82458
59.8044 0.0729439 0 -7.06243
40.2595 0.0821458 0 -7.82762
39.8568 0.0824524 0 -7.8261
19.7116 0.0894958 0 -8.24888
19.309 0.0900655 0 -8.24735
57.992 0.0738714 0 -7.05556
59.2002 0.0732553 0 -7.06015
19.5103 0.0897819 0 -8.24811
38.6487 0.0833572 0 -7.82152
58.5961 0.0735645 0 -7.05786
39.4541 0.0827565 0 -7.82458
39.0514 0.0830581 0 -7.82306
19.309 0.0900655 0 -8.24735
18.9064 0.0906248 0 -8.2458
56.7837 0.0744781 0 -7.05093
57.992 0.0738714 0 -7.05556
19.1077 0.0903464 0 -8.24658
37.8432 0.0839479 0 -7.81844
57.3878 0.0741759 0 -7.05325
38.6487 0.0833572 0 -7.82152
38.2459 0.0836538 0 -7.81998
18.9064 0.0906248 0 -8.2458
18.5038 0.0911737 0 -8.24424
55.5754 0.0750756 0 -7.04626
56.7837 0.0744781 0 -7.05093
18.7051 0.0909005 0 -8.24503
37.0378 0.0845287 0 -7.81532
56.1795 0.074778 0 -7.0486
37.8432 0.0839479 0 -7.81844
37.4405 0.0842395 0 -7.81688
18.5038 0.0911737 0 -8.24424
18.1012 0.0917122 0 -8.24267
54.3671 0.0756638 0 -7.04155
55.5754 0.0750756 0 -7.04626
18.3025 0.0914443 0 -8.24346
36.2323 0.0850994 0 -7.81218
54.9712 0.0753709 0 -7.04391
37.0378 0.0845287 0 -7.81532
36.6351 0.0848153 0 -7.81376
18.1012 0.0917122 0 -8.24267
17.6985 0.0922403 0 -8.24109
53.1588 0.0762427 0 -7.0368
54.3671 0.0756638 0 -7.04155
17.8999 0.0919775 0 -8.24188
35.4269 0.0856601 0 -7.80901
53.7629 0.0759544 0 -7.03918
36.2323 0.0850994 0 -7.81218
35.8296 0.085381 0 -7.8106
17.6985 0.0922403 0 -8.24109
17.2959 0.0927579 0 -8.23949
51.9505 0.0768123 0 -7.03202
53.1588 0.0762427 0 -7.0368
17.4972 0.0925004 0 -8.24029
34.6214 0.0862107 0 -7.80582
52.5546 0.0765286 0 -7.03442
35.4269 0.0856601 0 -7.80901
35.0242 0.0859367 0 -7.80742
17.2959 0.0927579 0 -8.23949
16.8933 0.0932651 0 -8.23788
50.7422 0.0773725 0 -7.02719
51.9505 0.0768123 0 -7.03202
17.0946 0.0930128 0 -8.23869
33.816 0.0867513 0 -7.80261
51.3464 0.0770935 0 -7.02961
34.6214 0.0862107 0 -7.80582
34.2187 0.0864823 0 -7.80422
16.8933 0.0932651 0 -8.23788
16.4907 0.0937618 0 -8.23626
49.5339 0.0779233 0 -7.02233
50.7422 0.0773725 0 -7.02719
16.692 0.0935148 0 -8.23707
33.0105 0.0872818 0 -7.79936
50.1381 0.0776491 0 -7.02477
33.816 0.0867513 0 -7.80261
33.4133 0.0870179 0 -7.80099
16.4907 0.0937618 0 -8.23626
16.088 0.094248 0 -8.23463
48.3256 0.0784648 0 -7.01744
49.5339 0.0779233 0 -7.02233
16.2893 0.0940062 0 -8.23545
32.2051 0.0878022 0 -7.7961
48.9298 0.0781952 0 -7.01989
33.0105 0.0872818 0 -7.79936
32.6078 0.0875433 0 -7.79773
16.088 0.094248 0 -8.23463
15.6854 0.0947237 0 -8.23298
47.1173 0.0789969 0 -7.01251
48.3256 0.0784648 0 -7.01744
15.8867 0.0944872 0 -8.23381
31.3996 0.0883125 0 -7.79281
47.7215 0.078732 0 -7.01498
32.2051 0.0878022 0 -7.7961
31.8023 0.0880586 0 -7.79446
15.6854 0.0947237 0 -8.23298
15.2827 0.0951889 0 -8.23133
45.909 0.0795196 0 -7.00754
47.1173 0.0789969 0 -7.01251
15.4841 0.0949576 0 -8.23216
30.5941 0.0888127 0 -7.7895
46.5132 0.0792594 0 -7.01003
31.3996 0.0883125 0 -7.79281
30.9969 0.0885639 0 -7.79116
15.2827 0.0951889 0 -8.23133
14.8801 0.0956435 0 -8.22966
44.7007 0.0800328 0 -7.00255
45.909 0.0795195 0 -7.00754
15.0814 0.0954175 0 -8.2305
29.7887 0.0893027 0 -7.78617
45.3049 0.0797773 0 -7.00505
30.5941 0.0888127 0 -7.7895
30.1914 0.089059 0 -7.78784
14.8801 0.0956435 0 -8.22966
14.4774 0.0960875 0 -8.22798
43.4924 0.0805367 0 -6.99752
44.7007 0.0800328 0 -7.00255
14.6788 0.0958669 0 -8.22882
28.9832 0.0897826 0 -7.78282
44.0965 0.0802859 0 -7.00003
29.7887 0.0893027 0 -7.78617
29.3859 0.0895439 0 -7.7845
14.4774 0.0960875 0 -8.22798
14.0748 0.096521 0 -8.2263
42.2841 0.0810311 0 -6.99246
43.4924 0.0805367 0 -6.99752
14.2761 0.0963056 0 -8.22714
28.1777 0.0902523 0 -7.77944
42.8882 0.080785 0 -6.99499
28.9832 0.0897826 0 -7.78282
28.5805 0.0900187 0 -7.78113
14.0748 0.096521 0 -8.2263
13.6721 0.0969438 0 -8.2246
41.0758 0.081516 0 -6.98737
42.2841 0.0810311 0 -6.99246
13.8735 0.0967337 0 -8.22545
27.3723 0.0907117 0 -7.77605
41.6799 0.0812747 0 -6.98991
28.1777 0.0902523 0 -7.77944
27.775 0.0904833 0 -7.77775
13.6721 0.0969438 0 -8.2246
13.2695 0.097356 0 -8.22289
39.8675 0.0819915 0 -6.98225
41.0758 0.081516 0 -6.98737
13.4708 0.0971513 0 -8.22375
26.5668 0.091161 0 -7.77263
40.4716 0.0817549 0 -6.98481
27.3723 0.0907117 0 -7.77605
26.9695 0.0909376 0 -7.77434
13.2695 0.097356 0 -8.22289
12.8668 0.0977576 0 -8.22117
38.6592 0.0824574 0 -6.9771
39.8675 0.0819915 0 -6.98225
13.0681 0.0975581 0 -8.22203
25.7613 0.0916 0 -7.7692
39.2633 0.0822256 0 -6.97968
26.5668 0.091161 0 -7.77263
26.164 0.0913818 0 -7.77092
12.8668 0.0977576 0 -8.22117
12.4641 0.0981484 0 -8.21945
37.4508 0.0829139 0 -6.97192
38.6592 0.0824574 0 -6.9771
12.6655 0.0979543 0 -8.22031
24.9558 0.0920287 0 -7.76575
38.055 0.0826868 0 -6.97451
25.7613 0.0916 0 -7.7692
25.3586 0.0918157 0 -7.76748
12.4641 0.0981484 0 -8.21945
12.0615 0.0985285 0 -8.21771
36.2425 0.0833607 0 -6.96672
37.4508 0.0829139 0 -6.97192
12.2628 0.0983398 0 -8.21858
24.1503 0.0924471 0 -7.76228
36.8467 0.0831385 0 -6.96932
24.9558 0.0920287 0 -7.76575
24.5531 0.0922392 0 -7.76402
12.0615 0.0985285 0 -8.21771
11.6588 0.0988977 0 -8.21597
35.0342 0.083798 0 -6.96149
36.2425 0.0833607 0 -6.96672
11.8601 0.0987145 0 -8.21684
23.3448 0.0928551 0 -7.75879
35.6384 0.0835806 0 -6.96411
24.1503 0.0924471 0 -7.76228
23.7476 0.0926524 0 -7.76054
11.6588 0.0988977 0 -8.21597
11.2561 0.0992561 0 -8.21422
33.8259 0.0842255 0 -6.95624
35.0342 0.083798 0 -6.96149
11.4575 0.0990783 0 -8.21509
22.5393 0.0932527 0 -7.75529
34.43 0.084013 0 -6.95887
23.3448 0.0928551 0 -7.75879
22.9421 0.0930552 0 -7.75705
11.2561 0.0992561 0 -8.21422
10.8534 0.0996035 0 -8.21246
32.6176 0.0846432 0 -6.95096
33.8259 0.0842255 0 -6.95624
11.0548 0.0994312 0 -8.21334
21.7338 0.0936396 0 -7.75177
33.2217 0.0844356 0 -6.9536
22.5393 0.0932527 0 -7.75529
22.1366 0.0934474 0 -7.75353
10.8534 0.0996034 0 -8.21246
10.4507 0.0999397 0 -8.21069
31.4092 0.0850509 0 -6.94566
32.6176 0.0846432 0 -6.95096
10.6521 0.099773 0 -8.21157
20.9283 0.0940156 0 -7.74824
32.0134 0.0848483 0 -6.94831
21.7338 0.0936396 0 -7.75177
21.3311 0.093829 0 -7.75001
10.4507 0.0999397 0 -8.21069
10.048 0.100265 0 -8.20891
30.2009 0.0854481 0 -6.94034
31.4092 0.0850509 0 -6.94566
10.2494 0.100104 0 -8.2098
20.1228 0.0943805 0 -7.74469
30.8051 0.0852508 0 -6.943
20.9283 0.0940156 0 -7.74824
20.5256 0.0941995 0 -7.74647
10.048 0.100265 0 -8.20891
9.64536 0.100578 0 -8.20713
28.9926 0.0858343 0 -6.93499
30.2009 0.0854481 0 -6.94034
9.8467 0.100423 0 -8.20802
19.3173 0.0947338 0 -7.74113
29.5967 0.0856426 0 -6.93767
20.1228 0.0943805 0 -7.74469
19.7201 0.0945586 0 -7.74291
9.64536 0.100578 0 -8.20713
9.24266 0.100879 0 -8.20534
27.7843 0.0862086 0 -6.92963
28.9926 0.0858343 0 -6.93499
9.44401 0.10073 0 -8.20623
18.5118 0.0950746 0 -7.73755
28.3884 0.086023 0 -6.93232
19.3173 0.0947338 0 -7.74113
18.9146 0.0949058 0 -7.73934
9.24266 0.100879 0 -8.20534
8.83997 0.101169 0 -8.20353
26.5759 0.0865699 0 -6.92425
27.7843 0.0862086 0 -6.92963
9.04132 0.101025 0 -8.20444
17.7063 0.0954021 0 -7.73395
27.1801 0.086391 0 -6.92694
18.5118 0.0950746 0 -7.73755
18.1091 0.0952401 0 -7.73575
8.83997 0.101169 0 -8.20353
8.43728 0.101445 0 -8.20172
25.3676 0.0869169 0 -6.91885
26.5759 0.0865699 0 -6.92425
8.63862 0.101308 0 -8.20263
16.9008 0.0957156 0 -7.73034
25.9718 0.0867453 0 -6.92155
17.7063 0.0954021 0 -7.73395
17.3036 0.0955607 0 -7.73215
8.43728 0.101445 0 -8.20172
8.03459 0.101711 0 -8.19988
24.1593 0.0872494 0 -6.91343
25.3676 0.0869169 0 -6.91885
8.23593 0.101579 0 -8.2008
16.0953 0.0960156 0 -7.72671
24.7635 0.0870849 0 -6.91614
16.9008 0.0957156 0 -7.73034
16.4981 0.0958672 0 -7.72853
8.03459 0.101711 0 -8.19988
7.6319 0.101968 0 -8.19803
22.951 0.0875701 0 -6.90798
24.1593 0.0872494 0 -6.91343
7.83324 0.10184 0 -8.19896
15.2899 0.0963061 0 -7.72306
23.5552 0.0874108 0 -6.91071
16.0953 0.0960156 0 -7.72671
15.6926 0.0961614 0 -7.72489
7.6319 0.101968 0 -8.19803
7.22923 0.102227 0 -8.19617
21.7428 0.0878925 0 -6.90252
22.951 0.0875701 0 -6.90798
7.43057 0.102096 0 -8.1971
14.4844 0.0966012 0 -7.71939
22.3469 0.0877293 0 -6.90525
15.2899 0.0963061 0 -7.72306
14.8871 0.0964513 0 -7.72123
7.22923 0.102227 0 -8.19617
6.82656 0.102512 0 -8.1943
20.5346 0.0882498 0 -6.89702
21.7428 0.0878925 0 -6.90252
7.02789 0.102363 0 -8.19523
13.679 0.0969382 0 -7.7157
21.1387 0.0880631 0 -6.89977
14.4844 0.0966012 0 -7.71939
14.0817 0.0967605 0 -7.71755
6.82656 0.102512 0 -8.1943
6.42385 0.102872 0 -8.19247
19.3263 0.0887334 0 -6.89147
20.5346 0.0882498 0 -6.89702
6.62521 0.102678 0 -8.19338
12.8735 0.0974019 0 -7.712
19.9304 0.0884658 0 -6.89425
13.679 0.0969382 0 -7.7157
13.2763 0.0971446 0 -7.71385
6.42385 0.102872 0 -8.19247
6.02106 0.103431 0 -8.19081
18.118 0.0895205 0 -6.88584
19.3263 0.0887334 0 -6.89147
6.22246 0.103113 0 -8.19161
12.068 0.0981808 0 -7.70835
18.7222 0.0890708 0 -6.88867
12.8735 0.0974019 0 -7.712
12.4708 0.0977339 0 -7.71017
6.02106 0.103431 0 -8.19081
5.61795 0.104383 0 -8.1896
16.9095 0.0910295 0 -6.88005
18.118 0.0895205 0 -6.88584
5.81958 0.103839 0 -8.19013
11.262 0.0996423 0 -7.70487
17.5138 0.0901427 0 -6.88297
12.068 0.0981808 0 -7.70835
11.6651 0.0987862 0 -7.70658
5.61795 0.104383 0 -8.1896
5.2143 0.106218 0 -8.18943
15.7 0.0939632 0 -6.87402
16.9095 0.0910295 0 -6.88005
5.41619 0.105145 0 -8.18933
10.4552 0.102525 0 -7.70183
16.305 0.092249 0 -6.87707
11.262 0.0996423 0 -7.70487
10.8588 0.100843 0 -7.70325
5.2143 0.106218 0 -8.18943
4.80897 0.109559 0 -8.1915
14.4888 0.0998597 0 -6.86755
15.7 0.0939632 0 -6.87402
5.01198 0.107638 0 -8.19007
9.64615 0.108091 0 -7.69983
15.0947 0.0963991 0 -6.87087
10.4552 0.102525 0 -7.70183
10.051 0.104835 0 -7.70067
4.80897 0.109559 0 -8.1915
4.40116 0.116003 0 -8.198
13.2727 0.110898 0 -6.86051
14.4888 0.0998597 0 -6.86755
4.60534 0.112263 0 -8.19401
8.83263 0.11868 0 -7.70002
13.8817 0.104526 0 -6.86409
9.64615 0.108091 0 -7.69983
9.24016 0.112591 0 -7.6995
4.40116 0.116003 0 -8.198
3.98675 0.126962 0 -8.21299
12.0486 0.131689 0 -6.85238
13.2727 0.110898 0 -6.86051
4.1953 0.120766 0 -8.20408
8.01014 0.137614 0 -7.7046
12.6617 0.119706 0 -6.85666
8.83263 0.11868 0 -7.70002
8.42282 0.126723 0 -7.7017
3.98675 0.126962 0 -8.21299
3.56378 0.146602 0 -8.24282
10.8053 0.166931 0 -6.84369
12.0486 0.131689 0 -6.85238
3.7761 0.135457 0 -8.22555
7.17084 0.170444 0 -7.71734
11.4306 0.147041 0 -6.84798
8.01014 0.137614 0 -7.7046
7.59328 0.152079 0 -7.70937
3.56378 0.146602 0 -8.24282
3.11976 0.175413 0 -8.29781
9.53383 0.226892 0 -6.83386
10.8053 0.166931 0 -6.84369
3.34609 0.159704 0 -8.2663
6.30213 0.221838 0 -7.74464
10.173 0.193302 0 -6.83909
7.17084 0.170444 0 -7.71734
6.74095 0.193108 0 -7.72916
3.11976 0.175413 0 -8.29781
2.6545 0.220095 0 -8.38992
8.20113 0.312568 0 -6.82858
9.53383 0.226892 0 -6.83386
2.88837 0.195951 0 -8.33846
5.38471 0.297146 0 -7.79617
8.87912 0.266234 0 -6.82983
6.30213 0.221838 0 -7.74464
5.85142 0.257452 0 -7.76556
2.6545 0.220095 0 -8.38992
2.13988 0.263422 0 -8.53249
6.79513 0.432087 0 -6.83147
8.20113 0.312568 0 -6.82858
2.40799 0.242917 0 -8.45398
4.39735 0.381946 0 -7.88473
7.50551 0.369653 0 -6.82901
5.38471 0.297146 0 -7.79617
4.90031 0.338563 0 -7.83689
2.13988 0.263422 0 -8.53249
1.60543 0.297555 0 -8.71876
5.24525 0.526856 0 -6.87446
6.79513 0.432087 0 -6.83147
1.86806 0.285742 0 -8.62186
3.32015 0.440358 0 -8.02258
6.04828 0.486638 0 -6.84412
4.39735 0.381946 0 -7.88473
3.87337 0.423435 0 -7.9429
1.60543 0.297555 0 -8.71876
1.02092 0.208771 0 -8.9031
3.60637 0.521574 0 -6.98033
5.24525 0.526856 0 -6.87446
1.32925 0.275188 0 -8.81607
2.1862 0.32926 0 -8.2026
4.42357 0.553986 0 -6.91845
3.32015 0.440358 0 -8.02258
2.75231 0.413587 0 -8.1161
1.02092 0.208771 0 -8.9031
0.546021 -0.0762277 0 -8.91091
1.86244 0.0125022 0 -7.22628
3.60637 0.521574 0 -6.98033
0.743518 0.105091 0 -8.94675
1.10018 -0.169508 0 -8.33767
2.76175 0.359426 0 -7.07894
2.1862 0.32926 0 -8.2026
1.63625 0.161759 0 -8.27314
0.546021 -0.0762278 0 -8.91091
0.121916 -0.819335 0 -8.41777
0.549505 -1.55256 0 -7.41983
1.86244 0.0125022 0 -7.22628
0.353083 -0.399058 0 -8.75353
0.388754 -1.44013 0 -8.07912
1.0847 -0.552487 0 -7.35699
1.10018 -0.169508 0 -8.33767
0.650939 -0.715896 0 -8.31761
0.121916 -0.819335 0 -8.41777
0.076251 -1.65039 0 -6.8846
-0.19907 -5.46822 0 -6.83312
0.549505 -1.55256 0 -7.41983
-0.00708116 -1.2366 0 -7.81678
0.0306829 -3.48056 0 -6.73205
0.126438 -3.23556 0 -7.31952
0.388754 -1.44013 0 -8.07912
0.217273 -2.34958 0 -7.55239
0.076251 -1.65039 0 -6.8846
0.291683 -2.75777 0 -3.94497
-0.26864 -9.99893 0 -3.64716
-0.19907 -5.46822 0 -6.83312
0.220488 -2.1477 0 -5.60368
-0.160086 -6.10808 0 -4.00482
-0.379262 -7.93745 0 -5.6631
0.0306829 -3.48056 0 -6.73205
-0.125658 -4.79641 0 -5.57892
214.036 64.1992 0 19.6264
232.496 40.5716 0 -0.705664
393.458 42.4842 0 -21.868
371.605 111.444 0 -14.9784
226.571 51.5564 0 7.34633
307.987 46.7858 0 -9.07996
386.069 80.13 0 -25.3549
304.103 91.2057 0 3.00802
300.935 64.9786 0 -2.93681
232.496 40.5716 0 -0.705664
236.925 17.7309 0 -7.03862
399.378 12.6067 0 -10.4631
393.458 42.4842 0 -21.868
234.472 28.3131 0 -4.78491
319.016 18.2752 0 -10.6086
399.029 21.8276 0 -15.8
307.987 46.7858 0 -9.07996
316.494 31.4641 0 -11.9031
236.925 17.7309 0 -7.03862
239.196 6.19999 0 -8.26667
394.363 2.21217 0 -3.95064
399.378 12.6067 0 -10.4631
239.086 10.8026 0 -8.15003
318.282 5.25272 0 -7.15562
396.368 6.17443 0 -6.18726
319.016 18.2752 0 -10.6086
318.873 9.87765 0 -8.40698
239.196 6.19999 0 -8.26667
237.393 0.853015 0 -7.65577
390.913 -0.0512387 0 -2.50587
394.363 2.21217 0 -3.95064
238.212 2.88878 0 -7.92455
315.261 0.251829 0 -5.46353
392.835 0.568815 0 -2.97773
318.282 5.25272 0 -7.15562
316.99 2.19869 0 -6.24551
237.393 0.853015 0 -7.65577
235.27 -0.708186 0 -7.24225
387.457 -0.894162 0 -2.45283
390.913 -0.0512387 0 -2.50587
236.51 -0.185572 0 -7.45067
312.007 -0.966243 0 -4.94015
388.905 -0.595678 0 -2.33473
315.261 0.251829 0 -5.46353
313.496 -0.679897 0 -5.0241
235.27 -0.708186 0 -7.24225
232.816 -1.08936 0 -6.96818
385.067 -0.753744 0 -2.96049
387.457 -0.894162 0 -2.45283
233.925 -1.01091 0 -7.06125
309.297 -1.1233 0 -4.99059
386.299 -0.867813 0 -2.71915
312.007 -0.966243 0 -4.94015
310.623 -1.09156 0 -4.9635
232.816 -1.08936 0 -6.96818
230.833 -0.897768 0 -6.89015
382.76 -0.607159 0 -3.39094
385.067 -0.753744 0 -2.96049
231.827 -1.01576 0 -6.92494
306.975 -0.867071 0 -5.18777
383.842 -0.685018 0 -3.17607
309.297 -1.1233 0 -4.99059
308.074 -1.0275 0 -5.06794
230.833 -0.897768 0 -6.89015
229.046 -0.663305 0 -6.86184
380.709 -0.40588 0 -3.74543
382.76 -0.607159 0 -3.39094
229.884 -0.784568 0 -6.86601
304.963 -0.614254 0 -5.38545
381.746 -0.500256 0 -3.59043
306.975 -0.867071 0 -5.18777
305.947 -0.728761 0 -5.29907
229.046 -0.663305 0 -6.86184
227.527 -0.441035 0 -6.87282
378.66 -0.281809 0 -3.96752
380.709 -0.40588 0 -3.74543
228.276 -0.542647 0 -6.86765
303.13 -0.403544 0 -5.53603
379.669 -0.338264 0 -3.86657
304.963 -0.614254 0 -5.38545
304.026 -0.503516 0 -5.46405
227.527 -0.441035 0 -6.87282
226.127 -0.293942 0 -6.88681
376.657 -0.19208 0 -4.11368
378.66 -0.281809 0 -3.96752
226.808 -0.360728 0 -6.87848
301.405 -0.267848 0 -5.63814
377.662 -0.231182 0 -4.05081
303.13 -0.403544 0 -5.53603
302.259 -0.32629 0 -5.59411
226.127 -0.293942 0 -6.88681
224.826 -0.196499 0 -6.90389
374.646 -0.141911 0 -4.19949
376.657 -0.19208 0 -4.11368
225.471 -0.238672 0 -6.89599
299.737 -0.181855 0 -5.70458
375.649 -0.163854 0 -4.16143
301.405 -0.267848 0 -5.63814
300.565 -0.219994 0 -5.67439
224.826 -0.196499 0 -6.90389
223.567 -0.140739 0 -6.91813
372.64 -0.111673 0 -4.25378
374.646 -0.141911 0 -4.19949
224.191 -0.16496 0 -6.91107
298.1 -0.133177 0 -5.74698
373.644 -0.124434 0 -4.2301
299.737 -0.181855 0 -5.70458
298.916 -0.153644 0 -5.72843
223.567 -0.140739 0 -6.91813
222.336 -0.108451 0 -6.93098
370.629 -0.0957521 0 -4.28787
372.64 -0.111673 0 -4.25378
222.95 -0.122049 0 -6.92488
296.478 -0.105767 0 -5.77522
371.634 -0.102565 0 -4.27244
298.1 -0.133177 0 -5.74698
297.288 -0.117518 0 -5.7623
222.336 -0.108451 0 -6.93098
221.118 -0.0912927 0 -6.94207
368.618 -0.086905 0 -4.3121
370.629 -0.0957521 0 -4.28787
221.726 -0.0985835 0 -6.93665
294.862 -0.0912966 0 -5.79519
369.624 -0.0905959 0 -4.30096
296.478 -0.105767 0 -5.77522
295.67 -0.0973019 0 -5.78602
221.118 -0.0912927 0 -6.94207
219.906 -0.0818944 0 -6.95217
366.605 -0.0822511 0 -4.33073
368.618 -0.086905 0 -4.3121
220.511 -0.0858264 0 -6.94725
293.25 -0.0835297 0 -5.81077
367.612 -0.0842503 0 -4.32186
294.862 -0.0912966 0 -5.79519
294.056 -0.086827 0 -5.80335
219.906 -0.0818944 0 -6.95217
218.696 -0.0768428 0 -6.96151
364.592 -0.0795354 0 -4.34678
366.605 -0.0822511 0 -4.33073
219.3 -0.0790142 0 -6.95691
291.638 -0.0793475 0 -5.82398
365.599 -0.0807092 0 -4.339
293.25 -0.0835297 0 -5.81077
292.444 -0.0811204 0 -5.8176
218.696 -0.0768428 0 -6.96151
217.487 -0.0738173 0 -6.97038
362.578 -0.0778179 0 -4.36143
364.592 -0.0795354 0 -4.34678
218.092 -0.0751434 0 -6.966
290.027 -0.0768445 0 -5.83597
363.585 -0.0786036 0 -4.35421
291.638 -0.0793475 0 -5.82398
290.833 -0.077958 0 -5.83008
217.487 -0.0738173 0 -6.97038
216.279 -0.0717938 0 -6.9789
360.563 -0.0765079 0 -4.37542
362.578 -0.0778179 0 -4.36143
216.883 -0.0727297 0 -6.97467
288.416 -0.0751286 0 -5.8473
361.571 -0.0771276 0 -4.36849
290.027 -0.0768445 0 -5.83597
289.222 -0.0759224 0 -5.8417
216.279 -0.0717938 0 -6.9789
215.071 -0.070175 0 -6.98717
358.549 -0.0753722 0 -4.38899
360.563 -0.0765079 0 -4.37542
215.675 -0.0709502 0 -6.98306
286.805 -0.0737269 0 -5.85825
359.556 -0.0759296 0 -4.38224
288.416 -0.0751286 0 -5.8473
287.61 -0.0744049 0 -5.85281
215.071 -0.070175 0 -6.98717
213.863 -0.0687222 0 -6.99524
356.534 -0.0742869 0 -4.40229
358.549 -0.0753722 0 -4.38899
214.467 -0.0694383 0 -6.99123
285.193 -0.0724405 0 -5.86893
357.542 -0.0748261 0 -4.39568
286.805 -0.0737269 0 -5.85825
285.999 -0.0730762 0 -5.86362
213.863 -0.0687222 0 -6.99524
212.654 -0.067315 0 -7.00313
354.52 -0.0732109 0 -4.41535
356.534 -0.0742869 0 -4.40229
213.258 -0.0680157 0 -6.9992
283.582 -0.0711807 0 -5.87939
355.527 -0.0737495 0 -4.40885
285.193 -0.0724405 0 -5.86893
284.388 -0.07181 0 -5.87419
212.654 -0.067315 0 -7.00313
211.446 -0.0659151 0 -7.01085
352.505 -0.0721278 0 -4.42816
354.52 -0.0732109 0 -4.41535
212.05 -0.0666157 0 -7.00701
281.971 -0.0699182 0 -5.88966
353.512 -0.0726704 0 -4.42178
283.582 -0.0711807 0 -5.87939
282.776 -0.0705505 0 -5.88455
211.446 -0.0659151 0 -7.01085
210.238 -0.0645082 0 -7.01842
350.49 -0.0710355 0 -4.44075
352.505 -0.0721278 0 -4.42816
210.842 -0.0652126 0 -7.01466
280.359 -0.0686452 0 -5.89973
351.498 -0.0715828 0 -4.43449
281.971 -0.0699182 0 -5.88966
281.165 -0.069283 0 -5.89472
210.238 -0.0645082 0 -7.01842
209.029 -0.0630938 0 -7.02584
348.476 -0.0699354 0 -4.45309
350.49 -0.0710355 0 -4.44075
209.633 -0.0638019 0 -7.02215
278.748 -0.0673626 0 -5.9096
349.483 -0.0704863 0 -4.44695
280.359 -0.0686452 0 -5.89973
279.553 -0.0680049 0 -5.90469
209.029 -0.0630938 0 -7.02584
207.821 -0.0616738 0 -7.0331
346.461 -0.0688297 0 -4.4652
348.476 -0.0699354 0 -4.45309
208.425 -0.0623843 0 -7.02949
277.136 -0.0660735 0 -5.91928
347.468 -0.0693831 0 -4.45917
278.748 -0.0673626 0 -5.9096
277.942 -0.0667187 0 -5.91447
207.821 -0.0616738 0 -7.0331
206.612 -0.0602511 0 -7.04021
344.446 -0.0677204 0 -4.47705
346.461 -0.0688297 0 -4.4652
207.217 -0.0609627 0 -7.03668
275.525 -0.0647805 0 -5.92877
345.454 -0.0682754 0 -4.47116
277.136 -0.0660735 0 -5.91928
276.33 -0.0654273 0 -5.92405
206.612 -0.0602511 0 -7.04021
205.404 -0.0588276 0 -7.04718
342.432 -0.0666088 0 -4.48867
344.446 -0.0677204 0 -4.47705
206.008 -0.0595393 0 -7.04372
273.913 -0.0634858 0 -5.93806
343.439 -0.0671648 0 -4.48289
275.525 -0.0647805 0 -5.92877
274.719 -0.0641333 0 -5.93344
205.404 -0.0588276 0 -7.04718
204.195 -0.0574048 0 -7.054
340.417 -0.0654959 0 -4.50004
342.432 -0.0666088 0 -4.48867
204.8 -0.058116 0 -7.05061
272.302 -0.0621906 0 -5.94715
341.424 -0.0660525 0 -4.49439
273.913 -0.0634858 0 -5.93806
273.107 -0.0628382 0 -5.94263
204.195 -0.0574048 0 -7.054
202.987 -0.0559835 0 -7.06067
338.403 -0.0643822 0 -4.51117
340.417 -0.0654959 0 -4.50004
203.591 -0.0566939 0 -7.05736
270.69 -0.0608959 0 -5.95605
339.41 -0.0649391 0 -4.50564
272.302 -0.0621906 0 -5.94715
271.496 -0.0615432 0 -5.95163
202.987 -0.0559835 0 -7.06067
201.779 -0.0545643 0 -7.0672
336.388 -0.063268 0 -4.52206
338.403 -0.0643822 0 -4.51117
202.383 -0.0552736 0 -7.06396
269.079 -0.0596021 0 -5.96476
337.395 -0.0638251 0 -4.51664
270.69 -0.0608959 0 -5.95605
269.885 -0.0602489 0 -5.96043
201.779 -0.0545643 0 -7.0672
200.57 -0.0531476 0 -7.07359
334.373 -0.0621537 0 -4.5327
336.388 -0.063268 0 -4.52206
201.174 -0.0538556 0 -7.07041
267.467 -0.0583096 0 -5.97327
335.381 -0.0627109 0 -4.52741
269.079 -0.0596021 0 -5.96476
268.273 -0.0589557 0 -5.96904
200.57 -0.0531476 0 -7.07359
199.362 -0.0517335 0 -7.07983
332.359 -0.0610393 0 -4.54311
334.373 -0.0621537 0 -4.5327
199.966 -0.0524402 0 -7.07673
265.856 -0.0570185 0 -5.9816
333.366 -0.0615965 0 -4.53793
267.467 -0.0583096 0 -5.97327
266.662 -0.0576638 0 -5.97746
199.362 -0.0517335 0 -7.07983
198.153 -0.0503222 0 -7.08593
330.344 -0.059925 0 -4.55328
332.359 -0.0610393 0 -4.54311
198.758 -0.0510275 0 -7.0829
264.244 -0.0557291 0 -5.98973
331.351 -0.0604821 0 -4.54822
265.856 -0.0570185 0 -5.9816
265.05 -0.0563736 0 -5.98569
198.153 -0.0503222 0 -7.08593
196.945 -0.0489139 0 -7.09188
328.33 -0.058811 0 -4.56321
330.344 -0.059925 0 -4.55328
197.549 -0.0496177 0 -7.08892
262.633 -0.0544414 0 -5.99767
329.337 -0.059368 0 -4.55827
264.244 -0.0557291 0 -5.98973
263.439 -0.055085 0 -5.99372
196.945 -0.0489139 0 -7.09188
195.737 -0.0475086 0 -7.0977
326.315 -0.0576973 0 -4.5729
328.33 -0.058811 0 -4.56321
196.341 -0.0482109 0 -7.09481
261.022 -0.0531555 0 -6.00543
327.322 -0.0582541 0 -4.56809
262.633 -0.0544414 0 -5.99767
261.827 -0.0537982 0 -6.00157
195.737 -0.0475086 0 -7.0977
194.528 -0.0461065 0 -7.10337
324.3 -0.0565842 0 -4.58237
326.315 -0.0576973 0 -4.5729
195.133 -0.0468072 0 -7.10055
259.41 -0.0518717 0 -6.013
325.308 -0.0571407 0 -4.57767
261.022 -0.0531555 0 -6.00543
260.216 -0.0525134 0 -6.00924
194.528 -0.0461065 0 -7.10337
193.32 -0.0447077 0 -7.10891
322.286 -0.0554715 0 -4.5916
324.3 -0.0565842 0 -4.58237
193.924 -0.0454067 0 -7.10616
257.799 -0.05059 0 -6.02038
323.293 -0.0560278 0 -4.58701
259.41 -0.0518717 0 -6.013
258.604 -0.0512306 0 -6.01671
193.32 -0.0447077 0 -7.10891
192.112 -0.0433122 0 -7.11431
320.271 -0.0543596 0 -4.6006
322.286 -0.0554715 0 -4.5916
192.716 -0.0440095 0 -7.11162
256.187 -0.0493104 0 -6.02758
321.279 -0.0549155 0 -4.59613
257.799 -0.05059 0 -6.02038
256.993 -0.0499499 0 -6.024
192.112 -0.0433122 0 -7.11431
190.903 -0.0419202 0 -7.11957
318.257 -0.0532485 0 -4.60937
320.271 -0.0543596 0 -4.6006
191.507 -0.0426158 0 -7.11695
254.576 -0.0480331 0 -6.03459
319.264 -0.0538039 0 -4.60501
256.187 -0.0493104 0 -6.02758
255.382 -0.0486714 0 -6.03111
190.903 -0.0419202 0 -7.11957
189.695 -0.0405317 0 -7.12469
316.242 -0.0521382 0 -4.61791
318.257 -0.0532485 0 -4.60937
190.299 -0.0412255 0 -7.12214
252.964 -0.0467582 0 -6.04143
317.25 -0.0526932 0 -4.61367
254.576 -0.0480331 0 -6.03459
253.77 -0.0473953 0 -6.03803
189.695 -0.0405317 0 -7.12469
188.486 -0.0391469 0 -7.12968
314.228 -0.0510289 0 -4.62623
316.242 -0.0521382 0 -4.61791
189.091 -0.0398389 0 -7.1272
251.353 -0.0454858 0 -6.04808
315.235 -0.0515834 0 -4.6221
252.964 -0.0467582 0 -6.04143
252.159 -0.0461217 0 -6.04477
188.486 -0.0391469 0 -7.12968
187.278 -0.0377658 0 -7.13453
312.213 -0.0499208 0 -4.63432
314.228 -0.0510289 0 -4.62623
187.882 -0.0384559 0 -7.13212
249.742 -0.0442159 0 -6.05455
313.22 -0.0504747 0 -4.63031
251.353 -0.0454858 0 -6.04808
250.547 -0.0448505 0 -6.05134
187.278 -0.0377658 0 -7.13453
186.07 -0.0363886 0 -7.13925
310.199 -0.0488138 0 -4.64219
312.213 -0.0499208 0 -4.63432
186.674 -0.0370767 0 -7.1369
248.13 -0.0429488 0 -6.06084
311.206 -0.0493671 0 -4.63829
249.742 -0.0442159 0 -6.05455
248.936 -0.043582 0 -6.05772
186.07 -0.0363886 0 -7.13925
184.861 -0.0350152 0 -7.14383
308.184 -0.0477081 0 -4.64984
310.199 -0.0488138 0 -4.64219
185.466 -0.0357014 0 -7.14156
246.519 -0.0416844 0 -6.06696
309.191 -0.0482608 0 -4.64604
248.13 -0.0429488 0 -6.06084
247.324 -0.0423162 0 -6.06392
184.861 -0.0350152 0 -7.14383
183.653 -0.0336459 0 -7.14828
306.17 -0.0466038 0 -4.65726
308.184 -0.0477081 0 -4.64984
184.257 -0.0343301 0 -7.14607
244.907 -0.0404228 0 -6.0729
307.177 -0.0471558 0 -4.65358
246.519 -0.0416844 0 -6.06696
245.713 -0.0410532 0 -6.06995
183.653 -0.0336459 0 -7.14828
182.445 -0.0322807 0 -7.1526
304.155 -0.045501 0 -4.66447
306.17 -0.0466038 0 -4.65726
183.049 -0.0329628 0 -7.15046
243.296 -0.0391642 0 -6.07866
305.162 -0.0460522 0 -4.66089
244.907 -0.0404228 0 -6.0729
244.102 -0.0397931 0 -6.0758
182.445 -0.0322807 0 -7.1526
181.236 -0.0309196 0 -7.15679
302.141 -0.0443997 0 -4.67146
304.155 -0.045501 0 -4.66447
181.841 -0.0315996 0 -7.15472
241.685 -0.0379087 0 -6.08425
303.148 -0.0449502 0 -4.66799
243.296 -0.0391642 0 -6.07866
242.49 -0.0385361 0 -6.08148
181.236 -0.0309196 0 -7.15679
180.028 -0.0295628 0 -7.16086
300.126 -0.0433002 0 -4.67823
302.141 -0.0443998 0 -4.67146
180.632 -0.0302407 0 -7.15884
240.073 -0.0366562 0 -6.08966
301.133 -0.0438498 0 -4.67487
241.685 -0.0379087 0 -6.08425
240.879 -0.0372821 0 -6.08698
180.028 -0.0295628 0 -7.16086
178.82 -0.0282104 0 -7.16479
298.112 -0.0422024 0 -4.68479
300.126 -0.0433002 0 -4.67823
179.424 -0.028886 0 -7.16284
238.462 -0.0354071 0 -6.09491
299.119 -0.0427511 0 -4.68154
240.073 -0.0366562 0 -6.08966
239.268 -0.0360312 0 -6.09231
178.82 -0.0282104 0 -7.16479
177.611 -0.0268624 0 -7.16859
296.097 -0.0411065 0 -4.69113
298.112 -0.0422024 0 -4.68479
178.215 -0.0275358 0 -7.1667
236.85 -0.0341612 0 -6.09998
297.105 -0.0416542 0 -4.68799
238.462 -0.0354071 0 -6.09491
237.656 -0.0347837 0 -6.09747
177.611 -0.0268624 0 -7.16859
176.403 -0.0255188 0 -7.17227
294.083 -0.0400125 0 -4.69727
296.097 -0.0411065 0 -4.69113
177.007 -0.02619 0 -7.17044
235.239 -0.0329187 0 -6.10489
295.09 -0.0405592 0 -4.69423
236.85 -0.0341612 0 -6.09998
236.045 -0.0335395 0 -6.10245
176.403 -0.0255188 0 -7.17227
175.195 -0.0241799 0 -7.17582
292.068 -0.0389206 0 -4.70319
294.083 -0.0400125 0 -4.69727
175.799 -0.0248488 0 -7.17406
233.628 -0.0316796 0 -6.10962
293.076 -0.0394663 0 -4.70025
235.239 -0.0329187 0 -6.10489
234.433 -0.0322987 0 -6.10727
175.195 -0.0241799 0 -7.17582
173.986 -0.0228457 0 -7.17924
290.054 -0.0378308 0 -4.7089
292.068 -0.0389206 0 -4.70319
174.59 -0.0235122 0 -7.17754
232.016 -0.0304442 0 -6.11419
291.061 -0.0383754 0 -4.70607
233.628 -0.0316796 0 -6.10962
232.822 -0.0310615 0 -6.11193
173.986 -0.0228457 0 -7.17924
172.778 -0.0215162 0 -7.18254
288.04 -0.0367432 0 -4.7144
290.054 -0.0378308 0 -4.7089
173.382 -0.0221803 0 -7.18091
230.405 -0.0292124 0 -6.11859
289.047 -0.0372867 0 -4.71168
232.016 -0.0304442 0 -6.11419
231.211 -0.0298278 0 -6.11641
172.778 -0.0215162 0 -7.18254
171.57 -0.0201915 0 -7.18572
286.025 -0.0356579 0 -4.7197
288.04 -0.0367432 0 -4.7144
172.174 -0.0208533 0 -7.18415
228.794 -0.0279843 0 -6.12283
287.032 -0.0362002 0 -4.71708
230.405 -0.0292124 0 -6.11859
229.599 -0.0285979 0 -6.12073
171.57 -0.0201915 0 -7.18572
170.361 -0.0188718 0 -7.18877
284.011 -0.034575 0 -4.7248
286.025 -0.0356579 0 -4.7197
170.966 -0.019531 0 -7.18726
227.182 -0.02676 0 -6.1269
285.018 -0.0351161 0 -4.72228
228.794 -0.0279843 0 -6.12283
227.988 -0.0273717 0 -6.12488
170.361 -0.0188718 0 -7.18877
169.153 -0.017557 0 -7.1917
281.996 -0.0334946 0 -4.72969
284.011 -0.034575 0 -4.7248
169.757 -0.0182138 0 -7.19025
225.571 -0.0255397 0 -6.13081
283.003 -0.0340345 0 -4.72727
227.182 -0.02676 0 -6.1269
226.377 -0.0261494 0 -6.12888
169.153 -0.017557 0 -7.1917
167.945 -0.0162473 0 -7.19451
279.982 -0.0324168 0 -4.73438
281.996 -0.0334946 0 -4.72969
168.549 -0.0169015 0 -7.19312
223.96 -0.0243233 0 -6.13456
280.989 -0.0329554 0 -4.73206
225.571 -0.0255397 0 -6.13081
224.765 -0.024931 0 -6.13271
167.945 -0.0162473 0 -7.19451
166.736 -0.0149428 0 -7.1972
277.967 -0.0313416 0 -4.73886
279.982 -0.0324168 0 -4.73438
167.341 -0.0155944 0 -7.19587
222.348 -0.023111 0 -6.13815
278.975 -0.0318788 0 -4.73665
223.96 -0.0243233 0 -6.13456
223.154 -0.0237166 0 -6.13638
166.736 -0.0149428 0 -7.1972
165.528 -0.0136435 0 -7.19977
275.953 -0.0302691 0 -4.74315
277.967 -0.0313416 0 -4.73886
166.132 -0.0142925 0 -7.1985
220.737 -0.0219028 0 -6.14158
276.96 -0.030805 0 -4.74103
222.348 -0.023111 0 -6.13815
221.543 -0.0225064 0 -6.13988
165.528 -0.0136435 0 -7.19977
164.32 -0.0123494 0 -7.20223
273.939 -0.0291995 0 -4.74725
275.953 -0.0302691 0 -4.74315
164.924 -0.0129958 0 -7.20101
219.126 -0.0206988 0 -6.14485
274.946 -0.0297339 0 -4.74522
220.737 -0.0219028 0 -6.14158
219.931 -0.0213003 0 -6.14323
164.32 -0.0123494 0 -7.20223
163.111 -0.0110608 0 -7.20456
271.924 -0.0281327 0 -4.75114
273.939 -0.0291995 0 -4.74725
163.716 -0.0117044 0 -7.20341
217.514 -0.0194991 0 -6.14796
272.931 -0.0286657 0 -4.74922
219.126 -0.0206988 0 -6.14485
218.32 -0.0200984 0 -6.14643
163.111 -0.0110608 0 -7.20456
161.903 -0.00977755 0 -7.20678
269.91 -0.027069 0 -4.75484
271.924 -0.0281327 0 -4.75114
162.507 -0.0104185 0 -7.20568
215.903 -0.0183038 0 -6.15092
270.917 -0.0276005 0 -4.75302
217.514 -0.0194991 0 -6.14796
216.709 -0.0189009 0 -6.14946
161.903 -0.00977755 0 -7.20678
160.695 -0.00849983 0 -7.20888
267.895 -0.0260082 0 -4.75835
269.91 -0.027069 0 -4.75484
161.299 -0.00913799 0 -7.20784
214.292 -0.017113 0 -6.15373
268.903 -0.0265382 0 -4.75662
215.903 -0.0183038 0 -6.15092
215.097 -0.0177078 0 -6.15235
160.695 -0.00849983 0 -7.20888
159.487 -0.00722771 0 -7.21087
265.881 -0.0249506 0 -4.76167
267.895 -0.0260082 0 -4.75835
160.091 -0.00786306 0 -7.20989
212.68 -0.0159266 0 -6.15638
266.888 -0.025479 0 -4.76003
214.292 -0.017113 0 -6.15373
213.486 -0.0165192 0 -6.15507
159.487 -0.0072277 0 -7.21087
158.278 -0.00596123 0 -7.21274
263.867 -0.0238963 0 -4.76479
265.881 -0.0249506 0 -4.76167
158.882 -0.00659376 0 -7.21182
211.069 -0.0147449 0 -6.15888
264.874 -0.024423 0 -4.76325
212.68 -0.0159266 0 -6.15638
211.875 -0.0153352 0 -6.15765
158.278 -0.00596123 0 -7.21274
157.07 -0.00470049 0 -7.2145
261.852 -0.0228452 0 -4.76773
263.867 -0.0238963 0 -4.76479
157.674 -0.00533014 0 -7.21363
209.458 -0.0135678 0 -6.16122
262.859 -0.0233703 0 -4.76628
211.069 -0.0147449 0 -6.15888
210.263 -0.0141557 0 -6.16007
157.07 -0.00470049 0 -7.2145
155.862 -0.00344554 0 -7.21614
259.838 -0.0217974 0 -4.77048
261.852 -0.0228452 0 -4.76773
156.466 -0.00407228 0 -7.21534
207.846 -0.0123954 0 -6.16342
260.845 -0.0223209 0 -4.76913
209.458 -0.0135678 0 -6.16122
208.652 -0.012981 0 -6.16234
155.862 -0.00344554 0 -7.21614
154.653 -0.00219646 0 -7.21768
257.824 -0.0207531 0 -4.77304
259.838 -0.0217974 0 -4.77048
155.258 -0.00282026 0 -7.21693
206.235 -0.0112279 0 -6.16547
258.831 -0.0212748 0 -4.77178
207.846 -0.0123954 0 -6.16342
207.041 -0.0118111 0 -6.16447
154.653 -0.00219646 0 -7.21768
153.445 -0.000953314 0 -7.2191
255.809 -0.0197123 0 -4.77542
257.824 -0.0207531 0 -4.77304
154.049 -0.00157414 0 -7.21841
204.624 -0.0100653 0 -6.16737
256.816 -0.0202323 0 -4.77425
206.235 -0.0112279 0 -6.16547
205.43 -0.010646 0 -6.16644
153.445 -0.000953314 0 -7.2191
152.237 0.000283833 0 -7.22042
253.795 -0.0186751 0 -4.77761
255.809 -0.0197123 0 -4.77542
152.841 -0.000333987 0 -7.21977
203.013 -0.00890758 0 -6.16913
254.802 -0.0191933 0 -4.77654
204.624 -0.0100653 0 -6.16737
203.818 -0.0094858 0 -6.16827
152.237 0.000283833 0 -7.22042
151.028 0.00151491 0 -7.22162
251.781 -0.0176416 0 -4.77963
253.795 -0.0186751 0 -4.77761
151.633 0.000900138 0 -7.22103
201.401 -0.00775491 0 -6.17074
252.788 -0.0181579 0 -4.77864
203.013 -0.00890758 0 -6.16913
202.207 -0.00833061 0 -6.16995
151.028 0.00151491 0 -7.22162
149.82 0.00273985 0 -7.22272
249.766 -0.0166117 0 -4.78146
251.781 -0.0176416 0 -4.77963
150.424 0.00212815 0 -7.22219
199.79 -0.00660734 0 -6.1722
250.773 -0.0171262 0 -4.78057
201.401 -0.00775491 0 -6.17074
200.596 -0.00718049 0 -6.17149
149.82 0.00273985 0 -7.22272
148.612 0.0039586 0 -7.22371
247.752 -0.0155857 0 -4.78312
249.766 -0.0166117 0 -4.78146
149.216 0.00335001 0 -7.22323
198.179 -0.00546492 0 -6.17352
248.759 -0.0160982 0 -4.78231
199.79 -0.00660734 0 -6.1722
198.984 -0.00603548 0 -6.17288
148.612 0.0039586 0 -7.22371
147.404 0.00517108 0 -7.22459
245.738 -0.0145635 0 -4.78459
247.752 -0.0155857 0 -4.78312
148.008 0.00456563 0 -7.22417
196.567 -0.00432773 0 -6.1747
246.745 -0.0150741 0 -4.78388
198.179 -0.00546492 0 -6.17352
197.373 -0.00489566 0 -6.17413
147.404 0.00517108 0 -7.22459
146.195 0.00637723 0 -7.22537
243.723 -0.0135453 0 -4.7859
245.738 -0.0145635 0 -4.78459
146.8 0.00577496 0 -7.225
194.956 -0.00319584 0 -6.17574
244.73 -0.0140539 0 -4.78527
196.567 -0.00432773 0 -6.1747
195.762 -0.00376112 0 -6.17524
146.195 0.00637723 0 -7.22537
144.987 0.00757699 0 -7.22605
241.709 -0.012531 0 -4.78702
243.723 -0.0135453 0 -4.7859
145.591 0.00697791 0 -7.22572
193.345 -0.0020693 0 -6.17664
242.716 -0.0130377 0 -4.78648
194.956 -0.00319583 0 -6.17574
194.151 -0.00263189 0 -6.17621
144.987 0.00757699 0 -7.22605
143.779 0.0087703 0 -7.22662
239.695 -0.0115209 0 -4.78798
241.709 -0.012531 0 -4.78702
144.383 0.00817445 0 -7.22634
191.734 -0.000948182 0 -6.1774
240.702 -0.0120254 0 -4.78752
193.345 -0.0020693 0 -6.17664
192.539 -0.00150806 0 -6.17704
143.779 0.0087703 0 -7.22662
142.571 0.0099571 0 -7.22708
237.68 -0.0105148 0 -4.78876
239.695 -0.0115209 0 -4.78798
143.175 0.00936451 0 -7.22686
190.122 0.000167449 0 -6.17803
238.687 -0.0110173 0 -4.78839
191.734 -0.000948182 0 -6.1774
190.928 -0.000389676 0 -6.17773
142.571 0.0099571 0 -7.22708
141.362 0.0111373 0 -7.22745
235.666 -0.009513 0 -4.78937
237.68 -0.0105148 0 -4.78876
141.966 0.010548 0 -7.22728
188.511 0.00127752 0 -6.17852
236.673 -0.0100134 0 -4.78909
190.122 0.000167449 0 -6.17803
189.317 0.000723181 0 -6.17829
141.362 0.0111373 0 -7.22745
140.154 0.0123109 0 -7.22771
233.652 -0.00851542 0 -4.78982
235.666 -0.00951299 0 -4.78937
140.758 0.0117249 0 -7.22759
186.9 0.00238198 0 -6.17887
234.659 -0.00901368 0 -4.78961
188.511 0.00127752 0 -6.17852
187.705 0.00183045 0 -6.17871
140.154 0.0123109 0 -7.22771
138.946 0.0134778 0 -7.22787
231.637 -0.00752217 0 -4.79009
233.652 -0.00851542 0 -4.78982
139.55 0.0128952 0 -7.2278
185.289 0.00348077 0 -6.17909
232.645 -0.00801826 0 -4.78997
186.9 0.00238198 0 -6.17887
186.094 0.00293209 0 -6.179
138.946 0.0134778 0 -7.22787
137.737 0.0146379 0 -7.22794
229.623 -0.00653332 0 -4.7902
231.637 -0.00752217 0 -4.79009
138.342 0.0140587 0 -7.22792
183.677 0.00457383 0 -6.17917
230.63 -0.00702719 0 -4.79017
185.289 0.00348077 0 -6.17909
184.483 0.00402802 0 -6.17915
137.737 0.0146379 0 -7.22794
136.529 0.0157912 0 -7.2279
227.609 -0.00554891 0 -4.79015
229.623 -0.00653332 0 -4.7902
137.133 0.0152154 0 -7.22793
182.066 0.00566108 0 -6.17913
228.616 -0.00604056 0 -4.7902
183.677 0.00457383 0 -6.17917
182.872 0.00511819 0 -6.17917
136.529 0.0157912 0 -7.2279
135.321 0.0169376 0 -7.22777
225.595 -0.00456902 0 -4.78993
227.609 -0.00554891 0 -4.79015
135.925 0.0163653 0 -7.22785
180.455 0.00674249 0 -6.17895
226.602 -0.0050584 0 -4.79006
182.066 0.00566108 0 -6.17913
181.26 0.00620252 0 -6.17906
135.321 0.0169376 0 -7.22777
134.113 0.0180771 0 -7.22754
223.58 -0.00359369 0 -4.78955
225.595 -0.00456901 0 -4.78993
134.717 0.0175082 0 -7.22767
178.844 0.00781798 0 -6.17865
224.588 -0.00408078 0 -4.78976
180.455 0.00674249 0 -6.17895
179.649 0.00728098 0 -6.17882
134.113 0.0180771 0 -7.22754
132.904 0.0192096 0 -7.22721
221.566 -0.002623 0 -4.78902
223.58 -0.00359369 0 -4.78955
133.508 0.0186442 0 -7.22739
177.232 0.0088875 0 -6.17822
222.573 -0.00310777 0 -4.7893
178.844 0.00781798 0 -6.17865
178.038 0.00835349 0 -6.17845
132.904 0.0192096 0 -7.22721
131.696 0.0203351 0 -7.22679
219.552 -0.001657 0 -4.78832
221.566 -0.002623 0 -4.78902
132.3 0.0197732 0 -7.22701
175.621 0.00995099 0 -6.17766
220.559 -0.00213942 0 -4.78869
177.232 0.0088875 0 -6.17822
176.427 0.00942 0 -6.17795
131.696 0.0203351 0 -7.22679
130.488 0.0214535 0 -7.22628
217.538 -0.00069575 0 -4.78747
219.552 -0.001657 0 -4.78832
131.092 0.0208952 0 -7.22655
174.01 0.0110084 0 -6.17697
218.545 -0.00117578 0 -4.78791
175.621 0.00995099 0 -6.17766
174.816 0.0104805 0 -6.17733
130.488 0.0214535 0 -7.22628
129.28 0.0225647 0 -7.22567
215.523 0.000260702 0 -4.78646
217.538 -0.000695744 0 -4.78747
129.884 0.02201 0 -7.22598
172.399 0.0120597 0 -6.17616
216.53 -0.000216916 0 -4.78698
174.01 0.0110084 0 -6.17697
173.204 0.0115348 0 -6.17658
129.28 0.0225647 0 -7.22567
128.071 0.0236687 0 -7.22497
213.509 0.00121229 0 -4.78529
215.523 0.000260702 0 -4.78646
128.675 0.0231176 0 -7.22533
170.787 0.0131047 0 -6.17523
214.516 0.000737114 0 -4.78589
172.399 0.0120597 0 -6.17616
171.593 0.012583 0 -6.17571
128.071 0.0236687 0 -7.22497
126.863 0.0247655 0 -7.22418
211.495 0.00215897 0 -4.78397
213.509 0.00121229 0 -4.78529
127.467 0.024218 0 -7.22458
169.176 0.0141436 0 -6.17418
212.502 0.00168626 0 -4.78465
170.787 0.0131047 0 -6.17523
169.982 0.0136249 0 -6.17472
126.863 0.0247655 0 -7.22418
125.655 0.0258549 0 -7.22329
209.481 0.00310067 0 -4.78251
211.495 0.00215897 0 -4.78397
126.259 0.0253111 0 -7.22374
167.565 0.0151761 0 -6.173
210.488 0.00263045 0 -4.78326
169.176 0.0141436 0 -6.17418
168.371 0.0146606 0 -6.1736
125.655 0.0258549 0 -7.22329
124.447 0.026937 0 -7.22232
207.466 0.00403736 0 -4.78089
209.481 0.00310067 0 -4.78251
125.051 0.0263969 0 -7.22282
165.954 0.0162022 0 -6.1717
208.474 0.00356964 0 -4.78172
167.565 0.0151761 0 -6.173
166.759 0.01569 0 -6.17237
124.447 0.026937 0 -7.22232
123.238 0.0280117 0 -7.22126
205.452 0.00496897 0 -4.77912
207.466 0.00403736 0 -4.78089
123.842 0.0274753 0 -7.2218
164.343 0.017222 0 -6.17029
206.459 0.0045038 0 -4.78002
165.954 0.0162022 0 -6.1717
165.148 0.0167129 0 -6.17101
123.238 0.0280117 0 -7.22126
122.03 0.0290789 0 -7.2201
203.438 0.00589543 0 -4.77721
205.452 0.00496897 0 -4.77912
122.634 0.0285462 0 -7.22069
162.731 0.0182353 0 -6.16876
204.445 0.00543283 0 -4.77818
164.343 0.017222 0 -6.17029
163.537 0.0177295 0 -6.16954
122.03 0.0290789 0 -7.2201
120.822 0.0301386 0 -7.21887
201.424 0.00681673 0 -4.77515
203.438 0.00589543 0 -4.77721
121.426 0.0296097 0 -7.2195
161.12 0.0192421 0 -6.16711
202.431 0.00635674 0 -4.7762
162.731 0.0182353 0 -6.16876
161.926 0.0187395 0 -6.16795
120.822 0.0301386 0 -7.21887
119.613 0.0311907 0 -7.21754
199.41 0.0077328 0 -4.77295
201.424 0.00681673 0 -4.77515
120.218 0.0306656 0 -7.21821
159.509 0.0202423 0 -6.16534
200.417 0.00727542 0 -4.77407
161.12 0.0192421 0 -6.16711
160.314 0.019743 0 -6.16624
119.613 0.0311907 0 -7.21754
118.405 0.0322353 0 -7.21613
197.395 0.00864358 0 -4.7706
199.41 0.0077328 0 -4.77295
119.009 0.0317139 0 -7.21685
157.898 0.0212359 0 -6.16346
198.402 0.00818885 0 -4.77179
159.509 0.0202423 0 -6.16534
158.703 0.02074 0 -6.16442
118.405 0.0322353 0 -7.21613
117.197 0.0332721 0 -7.21464
195.381 0.00954904 0 -4.76811
197.395 0.00864358 0 -4.7706
117.801 0.0327546 0 -7.21539
156.286 0.0222229 0 -6.16147
196.388 0.00909698 0 -4.76937
157.898 0.0212359 0 -6.16346
157.092 0.0217303 0 -6.16248
117.197 0.0332721 0 -7.21464
115.989 0.0343013 0 -7.21306
193.367 0.0104491 0 -4.76549
195.381 0.00954904 0 -4.76811
116.593 0.0337876 0 -7.21386
154.675 0.0232032 0 -6.15937
194.374 0.00999976 0 -4.76682
156.286 0.0222229 0 -6.16147
155.481 0.0227139 0 -6.16043
115.989 0.0343013 0 -7.21306
114.78 0.0353227 0 -7.21139
191.353 0.0113438 0 -4.76272
193.367 0.0104491 0 -4.76549
115.385 0.0348129 0 -7.21224
153.064 0.0241767 0 -6.15715
192.36 0.0108971 0 -4.76412
154.675 0.0232032 0 -6.15937
153.87 0.0236908 0 -6.15827
114.78 0.0353227 0 -7.21139
113.572 0.0363363 0 -7.20965
189.339 0.012233 0 -4.75982
191.353 0.0113438 0 -4.76272
114.176 0.0358304 0 -7.21053
151.453 0.0251434 0 -6.15483
190.346 0.011789 0 -4.76129
153.064 0.0241767 0 -6.15715
152.258 0.0246609 0 -6.15601
113.572 0.0363363 0 -7.20965
112.364 0.037342 0 -7.20782
187.324 0.0131166 0 -4.75678
189.339 0.012233 0 -4.75982
112.968 0.0368401 0 -7.20875
149.842 0.0261033 0 -6.1524
188.331 0.0126755 0 -4.75831
151.453 0.0251434 0 -6.15483
150.647 0.0256242 0 -6.15363
112.364 0.037342 0 -7.20782
111.156 0.0383399 0 -7.20592
185.31 0.0139947 0 -4.75361
187.324 0.0131166 0 -4.75678
111.76 0.037842 0 -7.20688
148.23 0.0270563 0 -6.14986
186.317 0.0135564 0 -4.75521
149.842 0.0261033 0 -6.1524
149.036 0.0265807 0 -6.15114
111.156 0.0383399 0 -7.20592
109.947 0.0393299 0 -7.20393
183.296 0.0148672 0 -4.7503
185.31 0.0139947 0 -4.75361
110.552 0.0388359 0 -7.20494
146.619 0.0280023 0 -6.14721
184.303 0.0144317 0 -4.75197
148.23 0.0270563 0 -6.14986
147.425 0.0275302 0 -6.14855
109.947 0.0393299 0 -7.20393
108.739 0.0403118 0 -7.20187
181.282 0.0157341 0 -4.74687
183.296 0.0148672 0 -4.7503
109.343 0.0398218 0 -7.20291
145.008 0.0289414 0 -6.14446
182.289 0.0153014 0 -4.7486
146.619 0.0280023 0 -6.14721
145.814 0.0284727 0 -6.14585
108.739 0.0403118 0 -7.20187
107.531 0.0412858 0 -7.19973
179.268 0.0165952 0 -4.7433
181.282 0.0157341 0 -4.74687
108.135 0.0407998 0 -7.20081
143.397 0.0298735 0 -6.14161
180.275 0.0161654 0 -4.7451
145.008 0.0289414 0 -6.14446
144.202 0.0294083 0 -6.14305
107.531 0.0412858 0 -7.19973
106.323 0.0422517 0 -7.19751
177.253 0.0174506 0 -4.73961
179.268 0.0165952 0 -4.7433
106.927 0.0417697 0 -7.19863
141.786 0.0307985 0 -6.13865
178.261 0.0170237 0 -4.74147
143.397 0.0298735 0 -6.14161
142.591 0.0303369 0 -6.14014
106.323 0.0422517 0 -7.19751
105.114 0.0432094 0 -7.19521
175.239 0.0183003 0 -4.73578
177.253 0.0174507 0 -4.73961
105.719 0.0427316 0 -7.19637
140.174 0.0317164 0 -6.13559
176.246 0.0178762 0 -4.73771
141.786 0.0307985 0 -6.13865
140.98 0.0312583 0 -6.13713
105.114 0.0432094 0 -7.19521
103.906 0.0441591 0 -7.19284
173.225 0.0191441 0 -4.73184
175.239 0.0183003 0 -4.73578
104.51 0.0436853 0 -7.19404
138.563 0.0326271 0 -6.13243
174.232 0.0187229 0 -4.73383
140.174 0.0317164 0 -6.13559
139.369 0.0321726 0 -6.13403
103.906 0.0441591 0 -7.19284
102.698 0.0451006 0 -7.1904
171.211 0.0199821 0 -4.72777
173.225 0.0191441 0 -4.73184
103.302 0.0446309 0 -7.19163
136.952 0.0335307 0 -6.12918
172.218 0.0195638 0 -4.72982
138.563 0.0326271 0 -6.13243
137.758 0.0330798 0 -6.13082
102.698 0.0451006 0 -7.1904
101.49 0.0460338 0 -7.18788
169.197 0.0208142 0 -4.72358
171.211 0.0199821 0 -4.72777
102.094 0.0455682 0 -7.18915
135.341 0.0344271 0 -6.12582
170.204 0.0203989 0 -4.72569
136.952 0.0335307 0 -6.12918
136.146 0.0339798 0 -6.12751
101.49 0.0460338 0 -7.18788
100.281 0.0469588 0 -7.18529
167.183 0.0216403 0 -4.71926
169.197 0.0208142 0 -4.72358
100.885 0.0464973 0 -7.18659
133.73 0.0353161 0 -6.12237
168.19 0.021228 0 -4.72143
135.341 0.0344271 0 -6.12582
134.535 0.0348725 0 -6.12411
100.281 0.0469588 0 -7.18529
99.0731 0.0478755 0 -7.18263
165.169 0.0224604 0 -4.71483
167.183 0.0216403 0 -4.71926
99.6772 0.0474182 0 -7.18397
132.119 0.0361979 0 -6.11882
166.176 0.0220511 0 -4.71706
133.73 0.0353161 0 -6.12237
132.924 0.035758 0 -6.1206
99.0731 0.0478755 0 -7.18263
97.8648 0.0487838 0 -7.17989
163.154 0.0232746 0 -4.71028
165.169 0.0224604 0 -4.71483
98.469 0.0483307 0 -7.18127
130.507 0.0370724 0 -6.11518
164.161 0.0228683 0 -4.71257
132.119 0.0361979 0 -6.11882
131.313 0.0366361 0 -6.11701
97.8648 0.0487838 0 -7.17989
96.6566 0.0496838 0 -7.17709
161.14 0.0240827 0 -4.70561
163.154 0.0232746 0 -4.71028
97.2607 0.0492348 0 -7.1785
128.896 0.0379395 0 -6.11144
162.147 0.0236794 0 -4.70796
130.507 0.0370724 0 -6.11518
129.702 0.0375069 0 -6.11332
96.6566 0.0496838 0 -7.17709
95.4483 0.0505753 0 -7.17422
159.126 0.0248847 0 -4.70082
161.14 0.0240827 0 -4.70561
96.0524 0.0501306 0 -7.17566
127.285 0.0387992 0 -6.10761
160.133 0.0244845 0 -4.70323
128.896 0.0379395 0 -6.11144
128.091 0.0383703 0 -6.10954
95.4483 0.0505753 0 -7.17422
94.2401 0.0514585 0 -7.17127
157.112 0.0256806 0 -4.69593
159.126 0.0248847 0 -4.70082
94.8442 0.051018 0 -7.17275
125.674 0.0396514 0 -6.10369
158.119 0.0252834 0 -4.69839
127.285 0.0387992 0 -6.10761
126.479 0.0392262 0 -6.10566
94.2401 0.0514585 0 -7.17127
93.0318 0.0523331 0 -7.16827
155.098 0.0264704 0 -4.69092
157.112 0.0256806 0 -4.69593
93.6359 0.0518968 0 -7.16978
124.063 0.0404962 0 -6.09968
156.105 0.0260763 0 -4.69343
125.674 0.0396514 0 -6.10369
124.868 0.0400747 0 -6.1017
93.0318 0.0523331 0 -7.16827
91.8235 0.0531992 0 -7.16519
153.084 0.027254 0 -4.68579
155.098 0.0264704 0 -4.69092
92.4277 0.0527672 0 -7.16674
122.451 0.0413334 0 -6.09558
154.091 0.026863 0 -4.68837
124.063 0.0404962 0 -6.09968
123.257 0.0409157 0 -6.09764
91.8235 0.0531992 0 -7.16519
90.6153 0.0540568 0 -7.16205
151.07 0.0280313 0 -4.68056
153.084 0.0272539 0 -4.68579
91.2194 0.0536291 0 -7.16363
120.84 0.0421631 0 -6.0914
152.077 0.0276434 0 -4.68319
122.451 0.0413334 0 -6.09558
121.646 0.0417492 0 -6.0935
90.6153 0.0540568 0 -7.16205
89.407 0.0549058 0 -7.15884
149.056 0.0288024 0 -4.67523
151.07 0.0280313 0 -4.68056
90.0112 0.0544823 0 -7.16045
119.229 0.0429852 0 -6.08712
150.063 0.0284176 0 -4.67791
120.84 0.0421631 0 -6.0914
120.035 0.0425751 0 -6.08927
89.407 0.0549058 0 -7.15884
88.1988 0.0557461 0 -7.15557
147.041 0.0295672 0 -4.66978
149.056 0.0288024 0 -4.67523
88.8029 0.055327 0 -7.15722
117.618 0.0437997 0 -6.08276
148.048 0.0291856 0 -4.67252
119.229 0.0429852 0 -6.08712
118.424 0.0433935 0 -6.08495
88.1988 0.0557461 0 -7.15557
86.9905 0.0565779 0 -7.15224
145.027 0.0303257 0 -4.66423
147.041 0.0295672 0 -4.66978
87.5946 0.0561631 0 -7.15392
116.007 0.0446066 0 -6.07832
146.034 0.0299473 0 -4.66702
117.618 0.0437998 0 -6.08276
116.812 0.0442042 0 -6.08055
86.9905 0.0565779 0 -7.15224
85.7822 0.0574009 0 -7.14885
143.013 0.0310779 0 -4.65857
145.027 0.0303257 0 -4.66423
86.3864 0.0569905 0 -7.15055
114.396 0.0454058 0 -6.0738
144.02 0.0307026 0 -4.66141
116.007 0.0446066 0 -6.07832
115.201 0.0450072 0 -6.07607
85.7822 0.0574009 0 -7.14885
84.574 0.0582152 0 -7.14539
140.999 0.0318237 0 -4.65282
143.013 0.0310779 0 -4.65857
85.1781 0.0578091 0 -7.14712
112.784 0.0461973 0 -6.06919
142.006 0.0314516 0 -4.65571
114.396 0.0454058 0 -6.0738
113.59 0.0458025 0 -6.0715
84.574 0.0582152 0 -7.14539
83.3657 0.0590208 0 -7.14187
138.985 0.0325631 0 -4.64696
140.999 0.0318237 0 -4.65282
83.9698 0.0586191 0 -7.14364
111.173 0.0469811 0 -6.0645
139.992 0.0321942 0 -4.6499
112.784 0.0461973 0 -6.06919
111.979 0.0465901 0 -6.06686
83.3657 0.0590208 0 -7.14187
82.1574 0.0598176 0 -7.1383
136.971 0.0332961 0 -4.641
138.985 0.0325631 0 -4.64696
82.7616 0.0594203 0 -7.14009
109.562 0.0477571 0 -6.05973
137.978 0.0329304 0 -4.64399
111.173 0.0469811 0 -6.0645
110.368 0.04737 0 -6.06213
82.1574 0.0598176 0 -7.1383
80.9492 0.0606057 0 -7.13466
134.957 0.0340226 0 -4.63495
136.971 0.0332961 0 -4.641
81.5533 0.0602128 0 -7.13648
107.951 0.0485253 0 -6.05489
135.964 0.0336601 0 -4.63799
109.562 0.0477571 0 -6.05973
108.757 0.0481421 0 -6.05732
80.9492 0.0606057 0 -7.13466
79.7409 0.0613848 0 -7.13097
132.943 0.0347426 0 -4.6288
134.957 0.0340226 0 -4.63495
80.345 0.0609964 0 -7.13282
106.34 0.0492857 0 -6.04997
133.95 0.0343834 0 -4.63188
107.951 0.0485253 0 -6.05489
107.145 0.0489064 0 -6.05244
79.7409 0.0613848 0 -7.13097
78.5326 0.0621552 0 -7.12722
130.929 0.0354561 0 -4.62255
132.943 0.0347426 0 -4.6288
79.1368 0.0617711 0 -7.1291
104.729 0.0500382 0 -6.04497
131.936 0.0351002 0 -4.62568
106.34 0.0492857 0 -6.04997
105.534 0.0496629 0 -6.04748
78.5326 0.0621552 0 -7.12722
77.3244 0.0629166 0 -7.12341
128.914 0.0361631 0 -4.61621
130.929 0.0354561 0 -4.62255
77.9285 0.062537 0 -7.12532
103.117 0.0507829 0 -6.03989
129.922 0.0358104 0 -4.61939
104.729 0.0500382 0 -6.04497
103.923 0.0504115 0 -6.04244
77.3244 0.0629166 0 -7.12341
76.1161 0.0636692 0 -7.11955
126.9 0.0368635 0 -4.60978
128.914 0.0361631 0 -4.61621
76.7202 0.063294 0 -7.12148
101.506 0.0515197 0 -6.03475
127.907 0.0365141 0 -4.613
103.117 0.0507829 0 -6.03989
102.312 0.0511523 0 -6.03733
76.1161 0.0636692 0 -7.11955
74.9078 0.0644128 0 -7.11563
124.886 0.0375574 0 -4.60325
126.9 0.0368635 0 -4.60978
75.512 0.0640421 0 -7.1176
99.8951 0.0522485 0 -6.02952
125.893 0.0372113 0 -4.60653
101.506 0.0515197 0 -6.03475
100.701 0.0518851 0 -6.03214
74.9078 0.0644128 0 -7.11563
73.6996 0.0651474 0 -7.11166
122.872 0.0382446 0 -4.59664
124.886 0.0375574 0 -4.60325
74.3037 0.0647812 0 -7.11365
98.2839 0.0529694 0 -6.02423
123.879 0.0379018 0 -4.59996
99.8951 0.0522485 0 -6.02952
99.0895 0.05261 0 -6.02689
73.6996 0.0651474 0 -7.11166
72.4913 0.0658731 0 -7.10764
120.858 0.0389252 0 -4.58994
122.872 0.0382446 0 -4.59664
73.0954 0.0655114 0 -7.10966
96.6728 0.0536823 0 -6.01887
121.865 0.0385857 0 -4.5933
98.2839 0.0529694 0 -6.02423
97.4784 0.0533269 0 -6.02156
72.4913 0.0658731 0 -7.10764
71.283 0.0665897 0 -7.10356
118.844 0.0395992 0 -4.58315
120.858 0.0389252 0 -4.58994
71.8872 0.0662325 0 -7.10561
95.0616 0.0543873 0 -6.01344
119.851 0.039263 0 -4.58656
96.6728 0.0536823 0 -6.01887
95.8672 0.0540358 0 -6.01616
71.283 0.0665897 0 -7.10356
70.0748 0.0672973 0 -7.09944
116.83 0.0402665 0 -4.57628
118.844 0.0395992 0 -4.58315
70.6789 0.0669446 0 -7.10151
93.4505 0.0550842 0 -6.00794
117.837 0.0399337 0 -4.57973
95.0616 0.0543873 0 -6.01344
94.256 0.0547368 0 -6.0107
70.0748 0.0672973 0 -7.09944
68.8665 0.0679958 0 -7.09526
114.816 0.040927 0 -4.56932
116.83 0.0402665 0 -4.57628
69.4706 0.0676477 0 -7.09735
91.8393 0.0557731 0 -6.00237
115.823 0.0405976 0 -4.57281
93.4505 0.0550842 0 -6.00794
92.6449 0.0554297 0 -6.00516
68.8665 0.0679958 0 -7.09526
67.6582 0.0686853 0 -7.09104
112.802 0.0415809 0 -4.56228
114.816 0.0409271 0 -4.56932
68.2623 0.0683417 0 -7.09315
90.2281 0.0564539 0 -5.99674
113.809 0.0412548 0 -4.56581
91.8393 0.0557731 0 -6.00237
91.0337 0.0561145 0 -5.99957
67.6582 0.0686853 0 -7.09104
66.4499 0.0693656 0 -7.08676
110.788 0.0422281 0 -4.55517
112.802 0.0415809 0 -4.56228
67.0541 0.0690266 0 -7.0889
88.617 0.0571267 0 -5.99104
111.795 0.0419054 0 -4.55873
90.2281 0.0564539 0 -5.99674
89.4226 0.0567913 0 -5.9939
66.4499 0.0693656 0 -7.08676
65.2416 0.0700369 0 -7.08244
108.774 0.0428685 0 -4.54797
110.788 0.0422281 0 -4.55517
65.8458 0.0697024 0 -7.08461
87.0058 0.0577913 0 -5.98528
109.781 0.0425491 0 -4.55158
88.617 0.0571267 0 -5.99104
87.8114 0.05746 0 -5.98817
65.2416 0.0700369 0 -7.08244
64.0334 0.0706989 0 -7.07807
106.76 0.0435021 0 -4.54069
108.774 0.0428685 0 -4.54797
64.6375 0.070369 0 -7.08026
85.3947 0.0584478 0 -5.97946
107.767 0.0431861 0 -4.54434
87.0058 0.0577913 0 -5.98528
86.2002 0.0581206 0 -5.98238
64.0334 0.0706989 0 -7.07807
62.8251 0.0713518 0 -7.07366
104.746 0.0441289 0 -4.53334
106.76 0.0435021 0 -4.54069
63.4292 0.0710265 0 -7.07587
83.7835 0.0590962 0 -5.97358
105.753 0.0438164 0 -4.53702
85.3947 0.0584478 0 -5.97946
84.5891 0.058773 0 -5.97653
62.8251 0.0713518 0 -7.07366
61.6168 0.0719956 0 -7.0692
102.732 0.044749 0 -4.52591
104.746 0.0441289 0 -4.53334
62.2209 0.0716748 0 -7.07144
82.1723 0.0597364 0 -5.96764
103.739 0.0444398 0 -4.52963
83.7835 0.0590962 0 -5.97358
82.9779 0.0594173 0 -5.97061
61.6168 0.0719956 0 -7.0692
60.4085 0.0726301 0 -7.0647
100.718 0.0453622 0 -4.51841
102.732 0.044749 0 -4.52591
61.0127 0.072314 0 -7.06695
80.5612 0.0603685 0 -5.96163
101.725 0.0450564 0 -4.52217
82.1723 0.0597364 0 -5.96764
81.3668 0.0600535 0 -5.96464
60.4085 0.0726301 0 -7.0647
59.2002 0.0732553 0 -7.06015
98.7035 0.0459685 0 -4.51084
100.718 0.0453622 0 -4.51841
59.8044 0.0729439 0 -7.06243
78.95 0.0609923 0 -5.95557
99.7105 0.0456662 0 -4.51463
80.5612 0.0603685 0 -5.96163
79.7556 0.0606814 0 -5.95861
59.2002 0.0732553 0 -7.06015
57.992 0.0738714 0 -7.05556
96.6894 0.0465681 0 -4.50319
98.7035 0.0459685 0 -4.51084
58.5961 0.0735645 0 -7.05786
77.3389 0.061608 0 -5.94946
97.6965 0.0462691 0 -4.50703
78.95 0.0609923 0 -5.95557
78.1445 0.0613012 0 -5.95252
57.992 0.0738714 0 -7.05556
56.7837 0.0744781 0 -7.05093
94.6754 0.0471607 0 -4.49548
96.6894 0.0465681 0 -4.50319
57.3878 0.0741759 0 -7.05325
75.7277 0.0622154 0 -5.94329
95.6824 0.0468652 0 -4.49935
77.3389 0.061608 0 -5.94946
76.5333 0.0619127 0 -5.94638
56.7837 0.0744781 0 -7.05093
55.5754 0.0750756 0 -7.04626
92.6614 0.0477465 0 -4.4877
94.6754 0.0471607 0 -4.49548
56.1795 0.074778 0 -7.0486
74.1166 0.0628145 0 -5.93706
93.6684 0.0474545 0 -4.4916
75.7277 0.0622154 0 -5.94329
74.9221 0.062516 0 -5.94018
55.5754 0.0750756 0 -7.04626
54.3671 0.0756638 0 -7.04155
90.6473 0.0483253 0 -4.47986
92.6614 0.0477465 0 -4.4877
54.9712 0.0753709 0 -7.04391
72.5054 0.0634054 0 -5.93078
91.6543 0.0480368 0 -4.48379
74.1166 0.0628145 0 -5.93706
73.311 0.063111 0 -5.93393
54.3671 0.0756638 0 -7.04155
53.1588 0.0762427 0 -7.0368
88.6333 0.0488973 0 -4.47194
90.6473 0.0483253 0 -4.47986
53.7629 0.0759544 0 -7.03918
70.8943 0.0639881 0 -5.92445
89.6403 0.0486122 0 -4.47591
72.5054 0.0634054 0 -5.93078
71.6998 0.0636978 0 -5.92762
53.1588 0.0762427 0 -7.0368
51.9505 0.0768123 0 -7.03202
86.6192 0.0494624 0 -4.46397
88.6333 0.0488973 0 -4.47194
52.5546 0.0765286 0 -7.03442
69.2831 0.0645624 0 -5.91807
87.6263 0.0491807 0 -4.46796
70.8943 0.0639881 0 -5.92445
70.0887 0.0642763 0 -5.92127
51.9505 0.0768123 0 -7.03202
50.7422 0.0773725 0 -7.02719
84.6052 0.0500205 0 -4.45593
86.6192 0.0494624 0 -4.46397
51.3464 0.0770935 0 -7.02961
67.6719 0.0651285 0 -5.91164
85.6122 0.0497423 0 -4.45996
69.2831 0.0645624 0 -5.91807
68.4775 0.0648465 0 -5.91486
50.7422 0.0773725 0 -7.02719
49.5339 0.0779233 0 -7.02233
82.5912 0.0505716 0 -4.44783
84.6052 0.0500205 0 -4.45593
50.1381 0.0776491 0 -7.02477
66.0608 0.0656862 0 -5.90516
83.5982 0.0502969 0 -4.45189
67.6719 0.0651285 0 -5.91164
66.8664 0.0654084 0 -5.9084
49.5339 0.0779233 0 -7.02233
48.3256 0.0784648 0 -7.01744
80.5771 0.0511159 0 -4.43968
82.5912 0.0505716 0 -4.44783
48.9298 0.0781952 0 -7.01989
64.4496 0.0662356 0 -5.89863
81.5842 0.0508446 0 -4.44376
66.0608 0.0656862 0 -5.90516
65.2552 0.065962 0 -5.9019
48.3256 0.0784648 0 -7.01744
47.1173 0.0789969 0 -7.01251
78.5631 0.0516531 0 -4.43146
80.5771 0.0511159 0 -4.43968
47.7215 0.078732 0 -7.01498
62.8385 0.0667767 0 -5.89206
79.5701 0.0513854 0 -4.43558
64.4496 0.0662356 0 -5.89863
63.6441 0.0665072 0 -5.89535
47.1173 0.0789969 0 -7.01251
45.909 0.0795196 0 -7.00754
76.5491 0.0521834 0 -4.42319
78.5631 0.0516531 0 -4.43146
46.5132 0.0792594 0 -7.01003
61.2273 0.0673094 0 -5.88544
77.5561 0.0519191 0 -4.42734
62.8385 0.0667767 0 -5.89206
62.0329 0.0670441 0 -5.88876
45.909 0.0795195 0 -7.00754
44.7007 0.0800328 0 -7.00255
74.5351 0.0527067 0 -4.41487
76.5491 0.0521834 0 -4.42319
45.3049 0.0797773 0 -7.00505
59.6162 0.0678338 0 -5.87878
75.5421 0.0524459 0 -4.41904
61.2273 0.0673094 0 -5.88544
60.4217 0.0675726 0 -5.88212
44.7007 0.0800328 0 -7.00255
43.4924 0.0805367 0 -6.99752
72.521 0.053223 0 -4.40649
74.5351 0.0527067 0 -4.41487
44.0965 0.0802859 0 -7.00003
58.005 0.0683498 0 -5.87208
73.5281 0.0529657 0 -4.41069
59.6162 0.0678338 0 -5.87878
58.8106 0.0680928 0 -5.87543
43.4924 0.0805367 0 -6.99752
42.2841 0.0810311 0 -6.99246
70.507 0.0537323 0 -4.39806
72.521 0.053223 0 -4.40649
42.8882 0.080785 0 -6.99499
56.3938 0.0688574 0 -5.86533
71.514 0.0534786 0 -4.40228
58.005 0.0683498 0 -5.87208
57.1994 0.0686046 0 -5.86871
42.2841 0.0810311 0 -6.99246
41.0758 0.081516 0 -6.98737
68.493 0.0542347 0 -4.38958
70.507 0.0537323 0 -4.39806
41.6799 0.0812747 0 -6.98991
54.7827 0.0693566 0 -5.85855
69.5 0.0539844 0 -4.39383
56.3938 0.0688574 0 -5.86533
55.5883 0.069108 0 -5.86194
41.0758 0.081516 0 -6.98737
39.8675 0.0819915 0 -6.98225
66.479 0.0547299 0 -4.38105
68.493 0.0542347 0 -4.38958
40.4716 0.0817549 0 -6.98481
53.1715 0.0698474 0 -5.85172
67.486 0.0544832 0 -4.38532
54.7827 0.0693566 0 -5.85855
53.9771 0.0696031 0 -5.85514
39.8675 0.0819915 0 -6.98225
38.6592 0.0824574 0 -6.9771
64.465 0.0552182 0 -4.37247
66.479 0.0547299 0 -4.38105
39.2633 0.0822256 0 -6.97968
51.5604 0.0703298 0 -5.84486
65.472 0.054975 0 -4.37677
53.1715 0.0698474 0 -5.85172
52.366 0.0700897 0 -5.84829
38.6592 0.0824574 0 -6.9771
37.4508 0.0829139 0 -6.97192
62.451 0.0556994 0 -4.36385
64.465 0.0552182 0 -4.37247
38.055 0.0826868 0 -6.97451
49.9492 0.0708037 0 -5.83796
63.458 0.0554597 0 -4.36817
51.5604 0.0703298 0 -5.84486
50.7548 0.0705678 0 -5.84141
37.4508 0.0829139 0 -6.97192
36.2425 0.0833607 0 -6.96672
60.4369 0.0561736 0 -4.35518
62.451 0.0556994 0 -4.36385
36.8467 0.0831385 0 -6.96932
48.3381 0.0712692 0 -5.83102
61.444 0.0559374 0 -4.35952
49.9492 0.0708037 0 -5.83796
49.1436 0.0710375 0 -5.83449
36.2425 0.0833607 0 -6.96672
35.0342 0.083798 0 -6.96149
58.4229 0.0566407 0 -4.34647
60.4369 0.0561736 0 -4.35518
35.6384 0.0835806 0 -6.96411
46.7269 0.0717262 0 -5.82405
59.4299 0.0564081 0 -4.35083
48.3381 0.0712692 0 -5.83102
47.5325 0.0714988 0 -5.82754
35.0342 0.083798 0 -6.96149
33.8259 0.0842255 0 -6.95624
56.4089 0.0571007 0 -4.33772
58.4229 0.0566407 0 -4.34647
34.43 0.084013 0 -6.95887
45.1157 0.0721745 0 -5.81705
57.4159 0.0568716 0 -4.3421
46.7269 0.0717262 0 -5.82405
45.9213 0.0719514 0 -5.82055
33.8259 0.0842255 0 -6.95624
32.6176 0.0846432 0 -6.95096
54.3949 0.0575535 0 -4.32893
56.4089 0.0571007 0 -4.33772
33.2217 0.0844356 0 -6.9536
43.5046 0.0726142 0 -5.81001
55.4019 0.057328 0 -4.33333
45.1157 0.0721745 0 -5.81705
44.3102 0.0723955 0 -5.81354
32.6176 0.0846432 0 -6.95096
31.4092 0.0850509 0 -6.94566
52.3809 0.057999 0 -4.3201
54.3949 0.0575535 0 -4.32893
32.0134 0.0848483 0 -6.94831
41.8934 0.073045 0 -5.80295
53.3879 0.0577772 0 -4.32452
43.5046 0.0726142 0 -5.81001
42.699 0.0728308 0 -5.80648
31.4092 0.0850509 0 -6.94566
30.2009 0.0854481 0 -6.94034
50.3669 0.0584371 0 -4.31123
52.3809 0.0579991 0 -4.3201
30.8051 0.0852508 0 -6.943
40.2823 0.0734667 0 -5.79585
51.3739 0.058219 0 -4.31567
41.8934 0.073045 0 -5.80295
41.0878 0.073257 0 -5.7994
30.2009 0.0854481 0 -6.94034
28.9926 0.0858343 0 -6.93499
48.3529 0.0588674 0 -4.30233
50.3669 0.0584371 0 -4.31123
29.5967 0.0856426 0 -6.93767
38.6711 0.0738786 0 -5.78873
49.3599 0.0586532 0 -4.30678
40.2823 0.0734667 0 -5.79585
39.4767 0.0736739 0 -5.79229
28.9926 0.0858343 0 -6.93499
27.7843 0.0862086 0 -6.92963
46.3389 0.0592894 0 -4.29339
48.3529 0.0588674 0 -4.30233
28.3884 0.086023 0 -6.93232
37.0599 0.07428 0 -5.78158
47.3459 0.0590794 0 -4.29786
38.6711 0.0738786 0 -5.78873
37.8655 0.0740807 0 -5.78516
27.7843 0.0862086 0 -6.92963
26.5759 0.0865699 0 -6.92425
44.3249 0.0597023 0 -4.28443
46.3389 0.0592894 0 -4.29339
27.1801 0.086391 0 -6.92694
35.4488 0.0746697 0 -5.77441
45.3319 0.059497 0 -4.28891
37.0599 0.07428 0 -5.78158
36.2544 0.0744764 0 -5.778
26.5759 0.0865699 0 -6.92425
25.3676 0.0869169 0 -6.91885
42.3109 0.0601052 0 -4.27544
44.3249 0.0597023 0 -4.28443
25.9718 0.0867453 0 -6.92155
33.8376 0.0750463 0 -5.76721
43.3179 0.059905 0 -4.27993
35.4488 0.0746697 0 -5.77441
34.6432 0.0748597 0 -5.77081
25.3676 0.0869169 0 -6.91885
24.1593 0.0872494 0 -6.91343
40.2969 0.0604971 0 -4.26642
42.3109 0.0601052 0 -4.27544
24.7635 0.0870849 0 -6.91614
32.2265 0.0754088 0 -5.76
41.3039 0.0603026 0 -4.27093
33.8376 0.0750463 0 -5.76721
33.0321 0.0752293 0 -5.76361
24.1593 0.0872494 0 -6.91343
22.951 0.0875701 0 -6.90798
38.2829 0.0608784 0 -4.25739
40.2969 0.0604971 0 -4.26642
23.5552 0.0874108 0 -6.91071
30.6154 0.0757586 0 -5.75277
39.2899 0.0606889 0 -4.26191
32.2265 0.0754088 0 -5.76
31.4209 0.075585 0 -5.75639
22.951 0.0875701 0 -6.90798
21.7428 0.0878925 0 -6.90252
36.2689 0.0612525 0 -4.24834
38.2829 0.0608784 0 -4.25739
22.3469 0.0877293 0 -6.90525
29.0043 0.0761042 0 -5.74551
37.2759 0.061066 0 -4.25287
30.6154 0.0757585 0 -5.75277
29.8098 0.0759309 0 -5.74914
21.7428 0.0878925 0 -6.90252
20.5346 0.0882498 0 -6.89702
34.255 0.0616337 0 -4.23927
36.2689 0.0612525 0 -4.24834
21.1387 0.0880631 0 -6.89977
27.3932 0.0764712 0 -5.73822
35.2619 0.0614403 0 -4.24381
29.0043 0.0761042 0 -5.74551
28.1987 0.0762816 0 -5.74188
20.5346 0.0882498 0 -6.89702
19.3263 0.0887334 0 -6.89147
32.2411 0.0620559 0 -4.23014
34.255 0.0616337 0 -4.23927
19.9304 0.0884658 0 -6.89425
25.7822 0.0769289 0 -5.73086
33.248 0.0618366 0 -4.23471
27.3932 0.0764712 0 -5.73822
26.5877 0.0766823 0 -5.73455
19.3263 0.0887334 0 -6.89147
18.118 0.0895205 0 -6.88584
30.2273 0.062609 0 -4.22084
32.2411 0.0620559 0 -4.23014
18.7222 0.0890708 0 -6.88867
24.1712 0.0776237 0 -5.72333
31.2342 0.0623061 0 -4.22552
25.7822 0.0769289 0 -5.73086
24.9767 0.0772286 0 -5.72713
18.118 0.0895205 0 -6.88584
16.9095 0.0910295 0 -6.88005
28.2137 0.0634616 0 -4.2112
30.2273 0.062609 0 -4.22084
17.5138 0.0901427 0 -6.88297
22.5602 0.0788917 0 -5.71544
29.2205 0.0629827 0 -4.21609
24.1712 0.0776237 0 -5.72333
23.3657 0.0781592 0 -5.71945
16.9095 0.0910295 0 -6.88005
15.7 0.0939632 0 -6.87402
26.2005 0.0650161 0 -4.20069
28.2137 0.0634615 0 -4.2112
16.305 0.092249 0 -6.87707
20.9489 0.081339 0 -5.70679
27.207 0.0641112 0 -4.20611
22.5602 0.0788917 0 -5.71544
21.7546 0.0798925 0 -5.71126
15.7 0.0939632 0 -6.87402
14.4888 0.0998597 0 -6.86755
24.1877 0.0678954 0 -4.18848
26.2005 0.0650161 0 -4.20069
15.0947 0.0963991 0 -6.87087
19.3368 0.086251 0 -5.69659
25.1941 0.0662315 0 -4.19487
20.9489 0.081339 0 -5.70679
20.143 0.0834034 0 -5.70193
14.4888 0.0998597 0 -6.86755
13.2727 0.110898 0 -6.86051
22.1761 0.0735951 0 -4.17252
24.1877 0.0678954 0 -4.18848
13.8817 0.104526 0 -6.86409
17.7225 0.0956023 0 -5.68347
23.1816 0.0702691 0 -4.18117
19.3368 0.086251 0 -5.69659
18.53 0.0901029 0 -5.69058
13.2727 0.110898 0 -6.86051
12.0486 0.131689 0 -6.85238
20.1646 0.083822 0 -4.15002
22.1761 0.0735951 0 -4.17252
12.6617 0.119706 0 -6.85666
16.1033 0.113427 0 -5.66501
21.1706 0.0779454 0 -4.16231
17.7225 0.0956023 0 -5.68347
16.9138 0.103295 0 -5.675
12.0486 0.131689 0 -6.85238
10.8053 0.166931 0 -6.84369
18.156 0.103397 0 -4.1143
20.1646 0.083822 0 -4.15002
11.4306 0.147041 0 -6.84798
14.4738 0.144495 0 -5.63746
19.1594 0.0921851 0 -4.13447
16.1033 0.113427 0 -5.66501
15.2901 0.126473 0 -5.65295
10.8053 0.166931 0 -6.84369
9.53383 0.226892 0 -6.83386
16.1426 0.134721 0 -4.05856
18.156 0.103397 0 -4.1143
10.173 0.193302 0 -6.83909
12.823 0.198672 0 -5.59565
17.1512 0.116968 0 -4.0894
14.4738 0.144495 0 -5.63746
13.6524 0.168861 0 -5.61819
9.53383 0.226892 0 -6.83386
8.20113 0.312568 0 -6.82858
14.1316 0.191505 0 -3.96551
16.1426 0.134721 0 -4.05856
8.87912 0.266234 0 -6.82983
11.1342 0.280791 0 -5.5337
15.135 0.160044 0 -4.01838
12.823 0.198672 0 -5.59565
11.9836 0.234065 0 -5.56874
8.20113 0.312568 0 -6.82858
6.79513 0.432087 0 -6.83147
12.082 0.264379 0 -3.82841
14.1316 0.191505 0 -3.96551
7.50551 0.369653 0 -6.82901
9.36931 0.403663 0 -5.45123
13.1176 0.223971 0 -3.90256
11.1342 0.280791 0 -5.5337
10.2667 0.34079 0 -5.49237
6.79513 0.432087 0 -6.83147
5.24525 0.526856 0 -6.87446
10.0065 0.385532 0 -3.62122
12.082 0.264379 0 -3.82841
6.04828 0.486638 0 -6.84412
7.49001 0.532338 0 -5.36169
11.0421 0.324207 0 -3.73581
9.36931 0.403663 0 -5.45123
8.44201 0.463607 0 -5.41032
5.24525 0.526856 0 -6.87446
3.60637 0.521574 0 -6.98033
7.7201 0.439916 0 -3.3982
10.0065 0.385532 0 -3.62122
4.42357 0.553986 0 -6.91845
5.38818 0.60903 0 -5.33378
8.91388 0.416002 0 -3.50587
7.49001 0.532338 0 -5.36169
6.48688 0.602875 0 -5.32311
3.60637 0.521574 0 -6.98033
1.86244 0.0125022 0 -7.22628
5.23689 0.430112 0 -3.24937
7.7201 0.439916 0 -3.3982
2.76175 0.359426 0 -7.07894
3.07248 0.25643 0 -5.51822
6.48965 0.489218 0 -3.30067
5.38818 0.60903 0 -5.33378
4.23412 0.501743 0 -5.40293
1.86244 0.0125022 0 -7.22628
0.549505 -1.55256 0 -7.41983
2.04017 -0.58662 0 -3.78431
5.23689 0.430112 0 -3.24937
1.0847 -0.552487 0 -7.35699
0.562972 -1.36281 0 -6.20881
3.79281 0.0762876 0 -3.37283
3.07248 0.25643 0 -5.51822
1.88467 -0.231978 0 -5.74283
0.549505 -1.55256 0 -7.41983
-0.19907 -5.46822 0 -6.83312
-0.561756 -4.67021 0 -5.79978
2.04017 -0.58662 0 -3.78431
0.126438 -3.23556 0 -7.31952
-0.321685 -6.26212 0 -6.7809
0.544712 -1.65732 0 -4.49889
0.562972 -1.36281 0 -6.20881
-0.369314 -3.36784 0 -6.69108
-0.19907 -5.46822 0 -6.83312
-0.26864 -9.99893 0 -3.64716
0.252549 -20.0785 0 -5.9529
-0.561756 -4.67021 0 -5.79978
-0.379262 -7.93745 0 -5.6631
0.713544 -14.3589 0 -3.47709
-0.962786 -11.0004 0 -6.86633
-0.321685 -6.26212 0 -6.7809
0.142593 -10.167 0 -5.8973
371.605 111.444 0 -14.9784
393.458 42.4842 0 -21.868
527.776 -9.94877 0 7.38211
818.075 245.338 0 -194.783
386.069 80.13 0 -25.3549
490.775 30.1451 0 -28.34
587.041 -11.3948 0 -27.5222
436.893 131.022 0 -47.2813
484.571 66.1536 0 -44.3703
393.458 42.4842 0 -21.868
399.378 12.6067 0 -10.4631
522.698 -5.73471 0 2.25749
527.776 -9.94877 0 7.38211
399.029 21.8276 0 -15.8
472.308 4.33856 0 -4.82973
523.416 1.72985 0 3.21299
490.775 30.1451 0 -28.34
478.263 10.8091 0 -11.5353
399.378 12.6067 0 -10.4631
394.363 2.21217 0 -3.95064
532.331 1.76158 0 0.997242
522.698 -5.73471 0 2.25749
396.368 6.17443 0 -6.18726
466.073 0.034759 0 -0.579715
528.255 -3.71962 0 2.27672
472.308 4.33856 0 -4.82973
468.911 1.57329 0 -2.38931
394.363 2.21217 0 -3.95064
390.913 -0.0512387 0 -2.50587
534.65 -0.604247 0 -0.226593
532.331 1.76158 0 0.997242
392.835 0.568815 0 -2.97773
463.176 -0.54899 0 0.0265014
533.632 1.62196 0 -0.303806
466.073 0.034759 0 -0.579715
464.074 -0.562701 0 0.216869
390.913 -0.0512387 0 -2.50587
387.457 -0.894162 0 -2.45283
536.548 0.54316 0 -0.0439564
534.65 -0.604247 0 -0.226593
388.905 -0.595678 0 -2.33473
461.83 -0.506913 0 -0.618416
536.015 -0.441993 0 0.0918127
463.176 -0.54899 0 0.0265014
462.637 -0.477211 0 -0.386631
387.457 -0.894162 0 -2.45283
385.067 -0.753744 0 -2.96049
535.75 -0.152556 0 -0.227513
536.548 0.54316 0 -0.0439564
386.299 -0.867813 0 -2.71915
460.182 -0.396961 0 -1.21558
536.199 0.377884 0 -0.269813
461.83 -0.506913 0 -0.618416
460.957 -0.488165 0 -0.884255
385.067 -0.753744 0 -2.96049
382.76 -0.607159 0 -3.39094
534.51 0.0657484 0 -0.170925
535.75 -0.152556 0 -0.227513
383.842 -0.685018 0 -3.17607
458.436 -0.271119 0 -1.69132
535.286 -0.134211 0 -0.139424
460.182 -0.396961 0 -1.21558
459.379 -0.314027 0 -1.49707
382.76 -0.607159 0 -3.39094
380.709 -0.40588 0 -3.74543
532.346 -0.0898091 0 -0.22316
534.51 0.0657484 0 -0.170925
381.746 -0.500256 0 -3.59043
456.393 -0.199213 0 -2.005
533.458 0.0240143 0 -0.228462
458.436 -0.271119 0 -1.69132
457.419 -0.238313 0 -1.85839
380.709 -0.40588 0 -3.74543
378.66 -0.281809 0 -3.96752
529.961 -0.0483971 0 -0.224307
532.346 -0.0898091 0 -0.22316
379.669 -0.338264 0 -3.86657
454.224 -0.143782 0 -2.19925
531.199 -0.0885093 0 -0.209008
456.393 -0.199213 0 -2.005
455.335 -0.165092 0 -2.11761
378.66 -0.281809 0 -3.96752
376.657 -0.19208 0 -4.11368
527.311 -0.079682 0 -0.250788
529.961 -0.0483971 0 -0.224307
377.662 -0.231182 0 -4.05081
451.931 -0.116234 0 -2.31918
528.648 -0.0568526 0 -0.244802
454.224 -0.143782 0 -2.19925
453.083 -0.129572 0 -2.26573
376.657 -0.19208 0 -4.11368
374.646 -0.141911 0 -4.19949
524.588 -0.0719103 0 -0.267552
527.311 -0.079682 0 -0.250788
375.649 -0.163854 0 -4.16143
449.586 -0.0977185 0 -2.39049
525.96 -0.079891 0 -0.25569
451.931 -0.116234 0 -2.31918
450.767 -0.105031 0 -2.35966
374.646 -0.141911 0 -4.19949
372.64 -0.111673 0 -4.25378
521.8 -0.0771581 0 -0.289356
524.588 -0.0719103 0 -0.267552
373.644 -0.124434 0 -4.2301
447.201 -0.0889252 0 -2.43655
523.197 -0.0731042 0 -0.280055
449.586 -0.0977185 0 -2.39049
448.395 -0.0929955 0 -2.41582
372.64 -0.111673 0 -4.25378
370.629 -0.0957521 0 -4.28787
518.994 -0.0753803 0 -0.309479
521.8 -0.0771581 0 -0.289356
371.634 -0.102565 0 -4.27244
444.8 -0.0834298 0 -2.46749
520.399 -0.0771062 0 -0.298664
447.201 -0.0889252 0 -2.43655
446.003 -0.0856283 0 -2.45334
370.629 -0.0957521 0 -4.28787
368.618 -0.086905 0 -4.3121
516.176 -0.0756926 0 -0.330245
518.994 -0.0753803 0 -0.309479
369.624 -0.0905959 0 -4.30096
442.389 -0.0806883 0 -2.49132
517.586 -0.0752544 0 -0.320212
444.8 -0.0834298 0 -2.46749
443.595 -0.0819575 0 -2.48004
368.618 -0.086905 0 -4.3121
366.605 -0.0822511 0 -4.33073
513.355 -0.0749321 0 -0.35057
516.176 -0.0756926 0 -0.330245
367.612 -0.0842503 0 -4.32186
439.974 -0.0788837 0 -2.51119
514.766 -0.0754709 0 -0.340285
442.389 -0.0806883 0 -2.49132
441.182 -0.0796486 0 -2.50157
366.605 -0.0822511 0 -4.33073
364.592 -0.0795354 0 -4.34678
510.533 -0.0744563 0 -0.370687
513.355 -0.0749321 0 -0.35057
365.599 -0.0807092 0 -4.339
437.557 -0.0777158 0 -2.52929
511.944 -0.0746399 0 -0.360726
439.974 -0.0788837 0 -2.51119
438.765 -0.0782805 0 -2.5204
364.592 -0.0795354 0 -4.34678
362.578 -0.0778179 0 -4.36143
507.71 -0.0738722 0 -0.390472
510.533 -0.0744563 0 -0.370687
363.585 -0.0786036 0 -4.35421
435.139 -0.0767485 0 -2.54642
509.122 -0.07419 0 -0.380593
437.557 -0.0777158 0 -2.52929
436.348 -0.0772038 0 -2.53794
362.578 -0.0778179 0 -4.36143
360.563 -0.0765079 0 -4.37542
504.888 -0.073313 0 -0.409909
507.71 -0.0738722 0 -0.390472
361.571 -0.0771276 0 -4.36849
432.721 -0.0758881 0 -2.56303
506.299 -0.0735829 0 -0.400242
435.139 -0.0767485 0 -2.54642
433.93 -0.076318 0 -2.55477
360.563 -0.0765079 0 -4.37542
358.549 -0.0753722 0 -4.38899
502.067 -0.0727597 0 -0.429
504.888 -0.073313 0 -0.409909
359.556 -0.0759296 0 -4.38224
430.303 -0.0750499 0 -2.57929
503.478 -0.0730395 0 -0.419495
432.721 -0.0758881 0 -2.56303
431.512 -0.0754652 0 -2.5712
358.549 -0.0753722 0 -4.38899
356.534 -0.0742869 0 -4.40229
499.245 -0.0722017 0 -0.44773
502.067 -0.0727597 0 -0.429
357.542 -0.0748261 0 -4.39568
427.885 -0.0742152 0 -2.59525
500.656 -0.0724795 0 -0.438411
430.303 -0.0750499 0 -2.57929
429.094 -0.0746344 0 -2.5873
356.534 -0.0742869 0 -4.40229
354.52 -0.0732109 0 -4.41535
496.424 -0.0716489 0 -0.466108
499.245 -0.0722017 0 -0.44773
355.527 -0.0737495 0 -4.40885
425.467 -0.0733735 0 -2.61093
497.834 -0.0719256 0 -0.456963
427.885 -0.0742152 0 -2.59525
426.676 -0.0737948 0 -2.60313
354.52 -0.0732109 0 -4.41535
352.505 -0.0721278 0 -4.42816
493.602 -0.0710899 0 -0.484127
496.424 -0.0716489 0 -0.466108
353.512 -0.0726704 0 -4.42178
423.049 -0.0725239 0 -2.62633
495.013 -0.0713697 0 -0.475162
425.467 -0.0733735 0 -2.61093
424.258 -0.0729499 0 -2.61867
352.505 -0.0721278 0 -4.42816
350.49 -0.0710355 0 -4.44075
490.781 -0.0705298 0 -0.501795
493.602 -0.0710899 0 -0.484127
351.498 -0.0715828 0 -4.43449
420.631 -0.0716673 0 -2.64145
492.192 -0.0708102 0 -0.493005
423.049 -0.0725239 0 -2.62633
421.84 -0.0720963 0 -2.63393
350.49 -0.0710355 0 -4.44075
348.476 -0.0699354 0 -4.45309
487.96 -0.0699642 0 -0.51911
490.781 -0.0705298 0 -0.501795
349.483 -0.0704863 0 -4.44695
418.213 -0.0708051 0 -2.65627
489.371 -0.0702476 0 -0.510496
420.631 -0.0716673 0 -2.64145
419.422 -0.0712369 0 -2.6489
348.476 -0.0699354 0 -4.45309
346.461 -0.0688297 0 -4.4652
485.139 -0.069395 0 -0.536076
487.96 -0.0699642 0 -0.51911
347.468 -0.0693831 0 -4.45917
415.795 -0.0699386 0 -2.6708
486.549 -0.0696801 0 -0.527637
418.213 -0.0708051 0 -2.65627
417.004 -0.0703723 0 -2.66358
346.461 -0.0688297 0 -4.4652
344.446 -0.0677204 0 -4.47705
482.318 -0.0688208 0 -0.552695
485.139 -0.069395 0 -0.536076
345.454 -0.0682754 0 -4.47116
413.377 -0.0690684 0 -2.68504
483.728 -0.0691085 0 -0.544429
415.795 -0.0699386 0 -2.6708
414.586 -0.0695039 0 -2.67796
344.446 -0.0677204 0 -4.47705
342.432 -0.0666088 0 -4.48867
479.497 -0.0682423 0 -0.568968
482.318 -0.0688208 0 -0.552695
343.439 -0.0671648 0 -4.48289
410.96 -0.0681953 0 -2.69898
480.907 -0.0685321 0 -0.560874
413.377 -0.0690684 0 -2.68504
412.168 -0.0686322 0 -2.69205
342.432 -0.0666088 0 -4.48867
340.417 -0.0654959 0 -4.50004
476.676 -0.0676592 0 -0.584898
479.497 -0.0682423 0 -0.568968
341.424 -0.0660525 0 -4.49439
408.542 -0.0673195 0 -2.71263
478.086 -0.0679513 0 -0.576976
410.96 -0.0681953 0 -2.69898
409.751 -0.0677577 0 -2.70585
340.417 -0.0654959 0 -4.50004
338.403 -0.0643822 0 -4.51117
473.854 -0.0670717 0 -0.600486
476.676 -0.0676592 0 -0.584898
339.41 -0.0649391 0 -4.50564
406.124 -0.0664415 0 -2.72599
475.265 -0.067366 0 -0.592735
408.542 -0.0673195 0 -2.71263
407.333 -0.0668808 0 -2.71935
338.403 -0.0643822 0 -4.51117
336.388 -0.063268 0 -4.52206
471.033 -0.06648 0 -0.615736
473.854 -0.0670717 0 -0.600486
337.395 -0.0638251 0 -4.51664
403.706 -0.0655613 0 -2.73906
472.444 -0.0667764 0 -0.608153
406.124 -0.0664415 0 -2.72599
404.915 -0.0660017 0 -2.73256
336.388 -0.063268 0 -4.52206
334.373 -0.0621537 0 -4.5327
468.212 -0.0658842 0 -0.630648
471.033 -0.06648 0 -0.615736
335.381 -0.0627109 0 -4.52741
401.288 -0.0646792 0 -2.75184
469.623 -0.0661826 0 -0.623234
403.706 -0.0655613 0 -2.73906
402.497 -0.0651205 0 -2.74548
334.373 -0.0621537 0 -4.5327
332.359 -0.0610393 0 -4.54311
465.391 -0.0652843 0 -0.645225
468.212 -0.0658842 0 -0.630648
333.366 -0.0615965 0 -4.53793
398.871 -0.0637952 0 -2.76433
466.802 -0.0655847 0 -0.637978
401.288 -0.0646792 0 -2.75184
400.079 -0.0642374 0 -2.75812
332.359 -0.0610393 0 -4.54311
330.344 -0.059925 0 -4.55328
462.57 -0.0646805 0 -0.659469
465.391 -0.0652843 0 -0.645225
331.351 -0.0604821 0 -4.54822
396.453 -0.0629095 0 -2.77653
463.981 -0.0649829 0 -0.652389
398.871 -0.0637952 0 -2.76433
397.662 -0.0633525 0 -2.77047
330.344 -0.059925 0 -4.55328
328.33 -0.058811 0 -4.56321
459.749 -0.064073 0 -0.673382
462.57 -0.0646805 0 -0.659469
329.337 -0.059368 0 -4.55827
394.035 -0.0620222 0 -2.78845
461.16 -0.0643772 0 -0.666467
396.453 -0.0629095 0 -2.77653
395.244 -0.062466 0 -2.78253
328.33 -0.058811 0 -4.56321
326.315 -0.0576973 0 -4.5729
456.928 -0.0634618 0 -0.686965
459.749 -0.064073 0 -0.673382
327.322 -0.0582541 0 -4.56809
391.617 -0.0611334 0 -2.80009
458.339 -0.0637679 0 -0.680215
394.035 -0.0620222 0 -2.78845
392.826 -0.061578 0 -2.79431
326.315 -0.0576973 0 -4.5729
324.3 -0.0565842 0 -4.58237
454.107 -0.0628471 0 -0.700222
456.928 -0.0634618 0 -0.686965
325.308 -0.0571407 0 -4.57767
389.199 -0.0602432 0 -2.81145
455.518 -0.0631549 0 -0.693634
391.617 -0.0611334 0 -2.80009
390.408 -0.0606885 0 -2.80581
324.3 -0.0565842 0 -4.58237
322.286 -0.0554715 0 -4.5916
451.286 -0.0622289 0 -0.713153
454.107 -0.0628471 0 -0.700222
323.293 -0.0560278 0 -4.58701
386.782 -0.0593518 0 -2.82253
452.697 -0.0625384 0 -0.706728
389.199 -0.0602432 0 -2.81145
387.991 -0.0597977 0 -2.81703
322.286 -0.0554715 0 -4.5916
320.271 -0.0543596 0 -4.6006
448.465 -0.0616075 0 -0.725762
451.286 -0.0622289 0 -0.713153
321.279 -0.0549155 0 -4.59613
384.364 -0.0584592 0 -2.83334
449.876 -0.0619186 0 -0.719498
386.782 -0.0593518 0 -2.82253
385.573 -0.0589057 0 -2.82797
320.271 -0.0543596 0 -4.6006
318.257 -0.0532485 0 -4.60937
445.644 -0.0609828 0 -0.738049
448.465 -0.0616075 0 -0.725762
319.264 -0.0538039 0 -4.60501
381.946 -0.0575656 0 -2.84387
447.055 -0.0612956 0 -0.731945
384.364 -0.0584592 0 -2.83334
383.155 -0.0580126 0 -2.83864
318.257 -0.0532485 0 -4.60937
316.242 -0.0521382 0 -4.61791
442.823 -0.0603551 0 -0.750018
445.644 -0.0609828 0 -0.738049
317.25 -0.0526932 0 -4.61367
379.529 -0.0566711 0 -2.85412
444.234 -0.0606693 0 -0.744073
381.946 -0.0575656 0 -2.84387
380.737 -0.0571185 0 -2.84903
316.242 -0.0521382 0 -4.61791
314.228 -0.0510289 0 -4.62623
440.002 -0.0597244 0 -0.761669
442.823 -0.0603551 0 -0.750018
315.235 -0.0515834 0 -4.6221
377.111 -0.0557758 0 -2.8641
441.413 -0.0600401 0 -0.755883
379.529 -0.0566711 0 -2.85412
378.32 -0.0562235 0 -2.85915
314.228 -0.0510289 0 -4.62623
312.213 -0.0499208 0 -4.63432
437.181 -0.0590909 0 -0.773005
440.002 -0.0597244 0 -0.761669
313.22 -0.0504747 0 -4.63031
374.693 -0.0548797 0 -2.87382
438.592 -0.059408 0 -0.767376
377.111 -0.0557758 0 -2.8641
375.902 -0.0553278 0 -2.869
312.213 -0.0499208 0 -4.63432
310.199 -0.0488138 0 -4.64219
434.36 -0.0584546 0 -0.784029
437.181 -0.0590909 0 -0.773005
311.206 -0.0493671 0 -4.63829
372.275 -0.053983 0 -2.88326
435.771 -0.0587731 0 -0.778556
374.693 -0.0548797 0 -2.87382
373.484 -0.0544314 0 -2.87857
310.199 -0.0488138 0 -4.64219
308.184 -0.0477081 0 -4.64984
431.539 -0.0578157 0 -0.794741
434.36 -0.0584546 0 -0.784029
309.191 -0.0482608 0 -4.64604
369.858 -0.0530858 0 -2.89244
432.95 -0.0581355 0 -0.789424
372.275 -0.053983 0 -2.88326
371.067 -0.0535345 0 -2.88789
308.184 -0.0477081 0 -4.64984
306.17 -0.0466038 0 -4.65726
428.719 -0.0571743 0 -0.805145
431.539 -0.0578157 0 -0.794741
307.177 -0.0471558 0 -4.65358
367.44 -0.0521882 0 -2.90136
430.129 -0.0574953 0 -0.799982
369.858 -0.0530858 0 -2.89244
368.649 -0.0526371 0 -2.89693
306.17 -0.0466038 0 -4.65726
304.155 -0.045501 0 -4.66447
425.898 -0.0565304 0 -0.815242
428.719 -0.0571743 0 -0.805145
305.162 -0.0460522 0 -4.66089
365.022 -0.0512903 0 -2.91001
427.308 -0.0568527 0 -0.810231
367.44 -0.0521882 0 -2.90136
366.231 -0.0517393 0 -2.90571
304.155 -0.045501 0 -4.66447
302.141 -0.0443997 0 -4.67146
423.077 -0.0558843 0 -0.825033
425.898 -0.0565304 0 -0.815242
303.148 -0.0449502 0 -4.66799
362.605 -0.0503922 0 -2.9184
424.487 -0.0562076 0 -0.820175
365.022 -0.0512903 0 -2.91001
363.814 -0.0508413 0 -2.91423
302.141 -0.0443998 0 -4.67146
300.126 -0.0433002 0 -4.67823
420.256 -0.0552359 0 -0.834522
423.077 -0.0558843 0 -0.825033
301.133 -0.0438498 0 -4.67487
360.187 -0.049494 0 -2.92653
421.666 -0.0555604 0 -0.829816
362.605 -0.0503922 0 -2.9184
361.396 -0.0499431 0 -2.92249
300.126 -0.0433002 0 -4.67823
298.112 -0.0422024 0 -4.68479
417.435 -0.0545854 0 -0.843711
420.256 -0.0552359 0 -0.834522
299.119 -0.0427511 0 -4.68154
357.77 -0.0485958 0 -2.9344
418.845 -0.0549109 0 -0.839154
360.187 -0.049494 0 -2.92653
358.978 -0.0490449 0 -2.9305
298.112 -0.0422024 0 -4.68479
296.097 -0.0411065 0 -4.69113
414.614 -0.0539329 0 -0.8526
417.435 -0.0545854 0 -0.843711
297.105 -0.0416542 0 -4.68799
355.352 -0.0476977 0 -2.94202
416.025 -0.0542594 0 -0.848192
357.77 -0.0485958 0 -2.9344
356.561 -0.0481467 0 -2.93824
296.097 -0.0411065 0 -4.69113
294.083 -0.0400125 0 -4.69727
411.793 -0.0532785 0 -0.861192
414.614 -0.0539329 0 -0.8526
295.09 -0.0405592 0 -4.69423
352.934 -0.0467997 0 -2.94938
413.204 -0.0536059 0 -0.856933
355.352 -0.0476977 0 -2.94202
354.143 -0.0472487 0 -2.94573
294.083 -0.0400125 0 -4.69727
292.068 -0.0389206 0 -4.70319
408.973 -0.0526223 0 -0.86949
411.793 -0.0532785 0 -0.861192
293.076 -0.0394663 0 -4.70025
350.517 -0.0459021 0 -2.95649
410.383 -0.0529507 0 -0.865378
352.934 -0.0467997 0 -2.94938
351.725 -0.0463508 0 -2.95296
292.068 -0.0389206 0 -4.70319
290.054 -0.0378308 0 -4.7089
406.152 -0.0519644 0 -0.877495
408.973 -0.0526223 0 -0.86949
291.061 -0.0383754 0 -4.70607
348.099 -0.0450048 0 -2.96334
407.562 -0.0522936 0 -0.873529
350.517 -0.045902 0 -2.95649
349.308 -0.0454534 0 -2.95995
290.054 -0.0378308 0 -4.7089
288.04 -0.0367432 0 -4.7144
403.331 -0.0513049 0 -0.88521
406.152 -0.0519644 0 -0.877495
289.047 -0.0372867 0 -4.71168
345.681 -0.0441079 0 -2.96995
404.741 -0.0516349 0 -0.881389
348.099 -0.0450048 0 -2.96334
346.89 -0.0445563 0 -2.96668
288.04 -0.0367432 0 -4.7144
286.025 -0.0356579 0 -4.7197
400.51 -0.0506439 0 -0.892635
403.331 -0.0513049 0 -0.88521
287.032 -0.0362002 0 -4.71708
343.264 -0.0432117 0 -2.97631
401.921 -0.0509746 0 -0.888958
345.681 -0.0441079 0 -2.96995
344.473 -0.0436597 0 -2.97316
286.025 -0.0356579 0 -4.7197
284.011 -0.034575 0 -4.7248
397.689 -0.0499814 0 -0.899774
400.51 -0.0506439 0 -0.892635
285.018 -0.0351161 0 -4.72228
340.846 -0.0423161 0 -2.98243
399.1 -0.0503128 0 -0.89624
343.264 -0.0432117 0 -2.97631
342.055 -0.0427638 0 -2.9794
284.011 -0.034575 0 -4.7248
281.996 -0.0334946 0 -4.72969
394.869 -0.0493176 0 -0.906628
397.689 -0.0499814 0 -0.899774
283.003 -0.0340345 0 -4.72727
338.429 -0.0414212 0 -2.9883
396.279 -0.0496497 0 -0.903237
340.846 -0.0423161 0 -2.98243
339.638 -0.0418685 0 -2.9854
281.996 -0.0334946 0 -4.72969
279.982 -0.0324168 0 -4.73438
392.048 -0.0486526 0 -0.9132
394.869 -0.0493176 0 -0.906628
280.989 -0.0329554 0 -4.73206
336.011 -0.0405271 0 -2.99393
393.458 -0.0489853 0 -0.909949
338.429 -0.0414212 0 -2.9883
337.22 -0.0409741 0 -2.99115
279.982 -0.0324168 0 -4.73438
277.967 -0.0313416 0 -4.73886
389.227 -0.0479865 0 -0.919491
392.048 -0.0486526 0 -0.9132
278.975 -0.0318788 0 -4.73665
333.594 -0.039634 0 -2.99932
390.637 -0.0483197 0 -0.91638
336.011 -0.0405271 0 -2.99393
334.802 -0.0400805 0 -2.99666
277.967 -0.0313416 0 -4.73886
275.953 -0.0302691 0 -4.74315
386.406 -0.0473192 0 -0.925503
389.227 -0.0479865 0 -0.919491
276.96 -0.030805 0 -4.74103
331.176 -0.0387419 0 -3.00447
387.817 -0.047653 0 -0.922532
333.594 -0.039634 0 -2.99932
332.385 -0.0391878 0 -3.00193
275.953 -0.0302691 0 -4.74315
273.939 -0.0291995 0 -4.74725
383.586 -0.046651 0 -0.931239
386.406 -0.0473192 0 -0.925503
274.946 -0.0297339 0 -4.74522
328.759 -0.0378508 0 -3.00938
384.996 -0.0469852 0 -0.928406
331.176 -0.0387419 0 -3.00447
329.967 -0.0382962 0 -3.00696
273.939 -0.0291995 0 -4.74725
271.924 -0.0281327 0 -4.75114
380.765 -0.045982 0 -0.9367
383.586 -0.0466511 0 -0.931239
272.931 -0.0286657 0 -4.74922
326.341 -0.0369609 0 -3.01406
382.175 -0.0463166 0 -0.934004
328.759 -0.0378508 0 -3.00938
327.55 -0.0374057 0 -3.01175
271.924 -0.0281327 0 -4.75114
269.91 -0.027069 0 -4.75484
377.944 -0.0453121 0 -0.941889
380.765 -0.045982 0 -0.9367
270.917 -0.0276005 0 -4.75302
323.924 -0.0360723 0 -3.01851
379.355 -0.0456472 0 -0.939329
326.341 -0.0369609 0 -3.01406
325.132 -0.0365165 0 -3.01631
269.91 -0.027069 0 -4.75484
267.895 -0.0260082 0 -4.75835
375.124 -0.0446416 0 -0.946807
377.944 -0.0453121 0 -0.941889
268.903 -0.0265382 0 -4.75662
321.506 -0.035185 0 -3.02272
376.534 -0.0449769 0 -0.944382
323.924 -0.0360723 0 -3.01851
322.715 -0.0356285 0 -3.02064
267.895 -0.0260082 0 -4.75835
265.881 -0.0249506 0 -4.76167
372.303 -0.0439704 0 -0.951457
375.124 -0.0446416 0 -0.946807
266.888 -0.025479 0 -4.76003
319.089 -0.0342992 0 -3.0267
373.713 -0.0443061 0 -0.949165
321.506 -0.035185 0 -3.02272
320.297 -0.0347419 0 -3.02474
265.881 -0.0249506 0 -4.76167
263.867 -0.0238963 0 -4.76479
369.482 -0.0432987 0 -0.95584
372.303 -0.0439704 0 -0.951457
264.874 -0.024423 0 -4.76325
316.671 -0.0334148 0 -3.03045
370.893 -0.0436346 0 -0.953681
319.089 -0.0342992 0 -3.0267
317.88 -0.0338568 0 -3.02861
263.867 -0.0238963 0 -4.76479
261.852 -0.0228452 0 -4.76773
366.662 -0.0426265 0 -0.959958
369.482 -0.0432987 0 -0.95584
262.859 -0.0233703 0 -4.76628
314.254 -0.032532 0 -3.03398
368.072 -0.0429627 0 -0.957932
316.671 -0.0334148 0 -3.03045
315.462 -0.0329732 0 -3.03225
261.852 -0.0228452 0 -4.76773
259.838 -0.0217974 0 -4.77048
363.841 -0.041954 0 -0.963815
366.662 -0.0426265 0 -0.959958
260.845 -0.0223209 0 -4.76913
311.836 -0.0316509 0 -3.03728
365.251 -0.0422903 0 -0.961919
314.254 -0.032532 0 -3.03398
313.045 -0.0320912 0 -3.03566
259.838 -0.0217974 0 -4.77048
257.824 -0.0207531 0 -4.77304
361.02 -0.0412811 0 -0.96741
363.841 -0.041954 0 -0.963815
258.831 -0.0212748 0 -4.77178
309.419 -0.0307715 0 -3.04036
362.431 -0.0416176 0 -0.965645
311.836 -0.0316509 0 -3.03728
310.627 -0.0312109 0 -3.03885
257.824 -0.0207531 0 -4.77304
255.809 -0.0197123 0 -4.77542
358.2 -0.0406081 0 -0.970748
361.02 -0.0412811 0 -0.967411
256.816 -0.0202323 0 -4.77425
307.001 -0.0298939 0 -3.04322
359.61 -0.0409446 0 -0.969111
309.419 -0.0307715 0 -3.04036
308.21 -0.0303324 0 -3.04182
255.809 -0.0197123 0 -4.77542
253.795 -0.0186751 0 -4.77761
355.379 -0.0399349 0 -0.973829
358.2 -0.0406081 0 -0.970748
254.802 -0.0191933 0 -4.77654
304.584 -0.0290182 0 -3.04586
356.789 -0.0402715 0 -0.97232
307.001 -0.0298939 0 -3.04322
305.792 -0.0294558 0 -3.04457
253.795 -0.0186751 0 -4.77761
251.781 -0.0176416 0 -4.77963
352.558 -0.0392617 0 -0.976656
355.379 -0.0399349 0 -0.973829
252.788 -0.0181579 0 -4.77864
302.166 -0.0281444 0 -3.04828
353.969 -0.0395983 0 -0.975274
304.584 -0.0290182 0 -3.04586
303.375 -0.028581 0 -3.04709
251.781 -0.0176416 0 -4.77963
249.766 -0.0166117 0 -4.78146
349.738 -0.0385885 0 -0.97923
352.558 -0.0392617 0 -0.976656
250.773 -0.0171262 0 -4.78057
299.749 -0.0272727 0 -3.05048
351.148 -0.0389251 0 -0.977974
302.166 -0.0281444 0 -3.04828
300.958 -0.0277083 0 -3.0494
249.766 -0.0166117 0 -4.78146
247.752 -0.0155857 0 -4.78312
346.917 -0.0379153 0 -0.981554
349.738 -0.0385885 0 -0.97923
248.759 -0.0160982 0 -4.78231
297.331 -0.0264031 0 -3.05247
348.328 -0.0382519 0 -0.980423
299.749 -0.0272727 0 -3.05048
298.54 -0.0268376 0 -3.0515
247.752 -0.0155857 0 -4.78312
245.738 -0.0145635 0 -4.78459
344.097 -0.0372424 0 -0.98363
346.917 -0.0379153 0 -0.981554
246.745 -0.0150741 0 -4.78388
294.914 -0.0255357 0 -3.05424
345.507 -0.0375788 0 -0.982623
297.331 -0.0264031 0 -3.05247
296.123 -0.0259691 0 -3.05338
245.738 -0.0145635 0 -4.78459
243.723 -0.0135453 0 -4.7859
341.276 -0.0365697 0 -0.985459
344.097 -0.0372424 0 -0.98363
244.73 -0.0140539 0 -4.78527
292.497 -0.0246705 0 -3.05581
342.686 -0.036906 0 -0.984575
294.914 -0.0255357 0 -3.05424
293.705 -0.0251028 0 -3.05505
243.723 -0.0135453 0 -4.7859
241.709 -0.012531 0 -4.78702
338.456 -0.0358973 0 -0.987044
341.276 -0.0365697 0 -0.985459
242.716 -0.0130377 0 -4.78648
290.079 -0.0238076 0 -3.05716
339.866 -0.0362334 0 -0.986282
292.497 -0.0246705 0 -3.05581
291.288 -0.0242388 0 -3.05651
241.709 -0.012531 0 -4.78702
239.695 -0.0115209 0 -4.78798
335.635 -0.0352252 0 -0.988387
338.456 -0.0358973 0 -0.987044
240.702 -0.0120254 0 -4.78752
287.662 -0.0229471 0 -3.05831
337.045 -0.0355612 0 -0.987746
290.079 -0.0238076 0 -3.05716
288.87 -0.0233771 0 -3.05776
239.695 -0.0115209 0 -4.78798
237.68 -0.0105148 0 -4.78876
332.815 -0.0345537 0 -0.98949
335.635 -0.0352252 0 -0.988387
238.687 -0.0110173 0 -4.78839
285.244 -0.0220891 0 -3.05925
334.225 -0.0348894 0 -0.988968
287.662 -0.0229471 0 -3.05831
286.453 -0.0225178 0 -3.05881
237.68 -0.0105148 0 -4.78876
235.666 -0.009513 0 -4.78937
329.994 -0.0338826 0 -0.990354
332.815 -0.0345537 0 -0.98949
236.673 -0.0100134 0 -4.78909
282.827 -0.0212336 0 -3.05999
331.404 -0.0342181 0 -0.989951
285.244 -0.0220891 0 -3.05925
284.036 -0.0216611 0 -3.05965
235.666 -0.00951299 0 -4.78937
233.652 -0.00851542 0 -4.78982
327.174 -0.0332122 0 -0.990982
329.994 -0.0338826 0 -0.990354
234.659 -0.00901368 0 -4.78961
280.41 -0.0203807 0 -3.06053
328.584 -0.0335473 0 -0.990697
282.827 -0.0212336 0 -3.05999
281.618 -0.0208069 0 -3.06029
233.652 -0.00851542 0 -4.78982
231.637 -0.00752217 0 -4.79009
324.353 -0.0325424 0 -0.991376
327.174 -0.0332122 0 -0.990982
232.645 -0.00801826 0 -4.78997
277.992 -0.0195305 0 -3.06086
325.763 -0.0328772 0 -0.991208
280.41 -0.0203807 0 -3.06053
279.201 -0.0199553 0 -3.06072
231.637 -0.00752217 0 -4.79009
229.623 -0.00653332 0 -4.7902
321.533 -0.0318733 0 -0.991538
324.353 -0.0325424 0 -0.991376
230.63 -0.00702719 0 -4.79017
275.575 -0.018683 0 -3.061
322.943 -0.0322077 0 -0.991486
277.992 -0.0195305 0 -3.06086
276.784 -0.0191064 0 -3.06095
229.623 -0.00653332 0 -4.7902
227.609 -0.00554891 0 -4.79015
318.712 -0.031205 0 -0.99147
321.533 -0.0318733 0 -0.991538
228.616 -0.00604056 0 -4.7902
273.158 -0.0178382 0 -3.06094
320.122 -0.031539 0 -0.991533
275.575 -0.018683 0 -3.061
274.366 -0.0182602 0 -3.06099
227.609 -0.00554891 0 -4.79015
225.595 -0.00456902 0 -4.78993
315.892 -0.0305376 0 -0.991174
318.712 -0.031205 0 -0.99147
226.602 -0.0050584 0 -4.79006
270.74 -0.0169963 0 -3.06068
317.302 -0.0308712 0 -0.99135
273.158 -0.0178382 0 -3.06094
271.949 -0.0174169 0 -3.06083
225.595 -0.00456901 0 -4.78993
223.58 -0.00359369 0 -4.78955
313.071 -0.0298711 0 -0.990651
315.892 -0.0305376 0 -0.991174
224.588 -0.00408078 0 -4.78976
268.323 -0.0161573 0 -3.06023
314.481 -0.0302042 0 -0.990941
270.74 -0.0169963 0 -3.06068
269.532 -0.0165764 0 -3.06048
223.58 -0.00359369 0 -4.78955
221.566 -0.002623 0 -4.78902
310.251 -0.0292055 0 -0.989905
313.071 -0.0298711 0 -0.990651
222.573 -0.00310777 0 -4.7893
265.906 -0.0153213 0 -3.05959
311.661 -0.0295382 0 -0.990306
268.323 -0.0161573 0 -3.06023
267.114 -0.0157389 0 -3.05993
221.566 -0.002623 0 -4.78902
219.552 -0.001657 0 -4.78832
307.43 -0.028541 0 -0.988936
310.251 -0.0292055 0 -0.989905
220.559 -0.00213942 0 -4.78869
263.488 -0.0144883 0 -3.05875
308.841 -0.0288731 0 -0.989448
265.906 -0.0153213 0 -3.05959
264.697 -0.0149044 0 -3.05919
219.552 -0.001657 0 -4.78832
217.538 -0.00069575 0 -4.78747
304.61 -0.0278776 0 -0.987748
307.43 -0.028541 0 -0.988936
218.545 -0.00117578 0 -4.78791
261.071 -0.0136583 0 -3.05773
306.02 -0.0282092 0 -0.98837
263.488 -0.0144883 0 -3.05875
262.28 -0.0140729 0 -3.05826
217.538 -0.000695744 0 -4.78747
215.523 0.000260702 0 -4.78646
301.789 -0.0272154 0 -0.986341
304.61 -0.0278776 0 -0.987748
216.53 -0.000216916 0 -4.78698
258.654 -0.0128316 0 -3.05652
303.2 -0.0275464 0 -0.987072
261.071 -0.0136583 0 -3.05773
259.862 -0.0132446 0 -3.05715
215.523 0.000260702 0 -4.78646
213.509 0.00121229 0 -4.78529
298.969 -0.0265544 0 -0.984719
301.789 -0.0272154 0 -0.986341
214.516 0.000737114 0 -4.78589
256.236 -0.012008 0 -3.05513
300.379 -0.0268847 0 -0.985557
258.654 -0.0128316 0 -3.05652
257.445 -0.0124194 0 -3.05585
213.509 0.00121229 0 -4.78529
211.495 0.00215897 0 -4.78397
296.149 -0.0258946 0 -0.982882
298.969 -0.0265544 0 -0.984719
212.502 0.00168626 0 -4.78465
253.819 -0.0111877 0 -3.05355
297.559 -0.0262243 0 -0.983827
256.236 -0.012008 0 -3.05513
255.028 -0.0115974 0 -3.05436
211.495 0.00215897 0 -4.78397
209.481 0.00310067 0 -4.78251
293.328 -0.0252362 0 -0.980834
296.149 -0.0258946 0 -0.982882
210.488 0.00263045 0 -4.78326
251.402 -0.0103707 0 -3.05179
294.738 -0.0255652 0 -0.981884
253.819 -0.0111877 0 -3.05355
252.61 -0.0107788 0 -3.05269
209.481 0.00310067 0 -4.78251
207.466 0.00403736 0 -4.78089
290.508 -0.0245792 0 -0.978576
293.328 -0.0252362 0 -0.980834
208.474 0.00356964 0 -4.78172
248.984 -0.00955705 0 -3.04985
291.918 -0.0249075 0 -0.979731
251.402 -0.0103707 0 -3.05179
250.193 -0.00996344 0 -3.05084
207.466 0.00403736 0 -4.78089
205.452 0.00496897 0 -4.77912
287.688 -0.0239236 0 -0.976109
290.508 -0.0245792 0 -0.978576
206.459 0.0045038 0 -4.78002
246.567 -0.00874683 0 -3.04774
289.098 -0.0242512 0 -0.977368
248.984 -0.00955705 0 -3.04985
247.776 -0.00915151 0 -3.04882
205.452 0.00496897 0 -4.77912
203.438 0.00589543 0 -4.77721
284.867 -0.0232695 0 -0.973437
287.688 -0.0239236 0 -0.976109
204.445 0.00543283 0 -4.77818
244.15 -0.00794009 0 -3.04544
286.277 -0.0235964 0 -0.974799
246.567 -0.00874683 0 -3.04774
245.359 -0.00834303 0 -3.04661
203.438 0.00589543 0 -4.77721
201.424 0.00681673 0 -4.77515
282.047 -0.022617 0 -0.970561
284.867 -0.0232695 0 -0.973437
202.431 0.00635674 0 -4.7762
241.733 -0.00713688 0 -3.04297
283.457 -0.022943 0 -0.972024
244.15 -0.00794009 0 -3.04544
242.941 -0.00753804 0 -3.04423
201.424 0.00681673 0 -4.77515
199.41 0.0077328 0 -4.77295
279.227 -0.021966 0 -0.967483
282.047 -0.022617 0 -0.970561
200.417 0.00727542 0 -4.77407
239.315 -0.00633725 0 -3.04033
280.637 -0.0222913 0 -0.969047
241.733 -0.00713687 0 -3.04297
240.524 -0.00673661 0 -3.04167
199.41 0.0077328 0 -4.77295
197.395 0.00864358 0 -4.7706
276.406 -0.0213167 0 -0.964205
279.227 -0.021966 0 -0.967483
198.402 0.00818885 0 -4.77179
236.898 -0.00554123 0 -3.03752
277.816 -0.0216412 0 -0.965869
239.315 -0.00633725 0 -3.04033
238.107 -0.00593879 0 -3.03895
197.395 0.00864358 0 -4.7706
195.381 0.00954904 0 -4.76811
273.586 -0.0206691 0 -0.96073
276.406 -0.0213167 0 -0.964205
196.388 0.00909698 0 -4.76937
234.481 -0.0047489 0 -3.03454
274.996 -0.0209927 0 -0.962492
236.898 -0.00554123 0 -3.03752
235.69 -0.00514461 0 -3.03605
195.381 0.00954904 0 -4.76811
193.367 0.0104491 0 -4.76549
270.766 -0.0200233 0 -0.957059
273.586 -0.0206691 0 -0.96073
194.374 0.00999976 0 -4.76682
232.064 -0.00396031 0 -3.03139
272.176 -0.020346 0 -0.958919
234.481 -0.00474891 0 -3.03454
233.272 -0.00435413 0 -3.03298
193.367 0.0104491 0 -4.76549
191.353 0.0113438 0 -4.76272
267.945 -0.0193793 0 -0.953193
270.766 -0.0200233 0 -0.957059
192.36 0.0108971 0 -4.76412
229.646 -0.00317548 0 -3.02807
269.355 -0.0197011 0 -0.95515
232.064 -0.00396031 0 -3.03139
230.855 -0.00356742 0 -3.02975
191.353 0.0113438 0 -4.76272
189.339 0.012233 0 -4.75982
265.125 -0.0187371 0 -0.949137
267.945 -0.0193793 0 -0.953193
190.346 0.011789 0 -4.76129
227.229 -0.00239447 0 -3.02459
266.535 -0.0190579 0 -0.951189
229.646 -0.00317548 0 -3.02807
228.438 -0.0027845 0 -3.02635
189.339 0.012233 0 -4.75982
187.324 0.0131166 0 -4.75678
262.305 -0.0180968 0 -0.94489
265.125 -0.0187371 0 -0.949137
188.331 0.0126755 0 -4.75831
224.812 -0.00161732 0 -3.02095
263.715 -0.0184167 0 -0.947037
227.229 -0.00239447 0 -3.02459
226.021 -0.00200541 0 -3.02279
187.324 0.0131166 0 -4.75678
185.31 0.0139947 0 -4.75361
259.484 -0.0174584 0 -0.940456
262.305 -0.0180968 0 -0.94489
186.317 0.0135564 0 -4.75521
222.395 -0.000844087 0 -3.01714
260.895 -0.0177773 0 -0.942696
224.812 -0.00161732 0 -3.02095
223.603 -0.00123022 0 -3.01907
185.31 0.0139947 0 -4.75361
183.296 0.0148672 0 -4.7503
256.664 -0.016822 0 -0.935836
259.484 -0.0174584 0 -0.940456
184.303 0.0144317 0 -4.75197
219.978 -7.48121e-05 0 -3.01318
258.074 -0.0171399 0 -0.938169
222.395 -0.000844096 0 -3.01714
221.186 -0.00045895 0 -3.01518
183.296 0.0148672 0 -4.7503
181.282 0.0157341 0 -4.74687
253.844 -0.0161877 0 -0.931032
256.664 -0.016822 0 -0.935836
182.289 0.0153014 0 -4.7486
217.56 0.000690451 0 -3.00906
255.254 -0.0165046 0 -0.933457
219.978 -7.48121e-05 0 -3.01318
218.769 0.000308317 0 -3.01114
181.282 0.0157341 0 -4.74687
179.268 0.0165952 0 -4.7433
251.024 -0.0155554 0 -0.926047
253.844 -0.0161877 0 -0.931032
180.275 0.0161654 0 -4.7451
215.143 0.00145168 0 -3.00479
252.434 -0.0158713 0 -0.928562
217.56 0.000690451 0 -3.00906
216.352 0.00107157 0 -3.00694
179.268 0.0165952 0 -4.7433
177.253 0.0174506 0 -4.73961
248.204 -0.0149252 0 -0.920882
251.024 -0.0155554 0 -0.926047
178.261 0.0170237 0 -4.74147
212.726 0.00220881 0 -3.00036
249.614 -0.0152401 0 -0.923487
215.143 0.00145168 0 -3.00479
213.935 0.00183077 0 -3.00259
177.253 0.0174507 0 -4.73961
175.239 0.0183003 0 -4.73578
245.383 -0.0142972 0 -0.915539
248.204 -0.0149252 0 -0.920882
176.246 0.0178762 0 -4.73771
210.309 0.00296183 0 -2.99577
246.793 -0.014611 0 -0.918233
212.726 0.00220881 0 -3.00036
211.517 0.00258584 0 -2.99808
175.239 0.0183003 0 -4.73578
173.225 0.0191441 0 -4.73184
242.563 -0.0136714 0 -0.910021
245.383 -0.0142972 0 -0.915539
174.232 0.0187229 0 -4.73383
207.892 0.00371068 0 -2.99104
243.973 -0.013984 0 -0.912802
210.309 0.00296183 0 -2.99577
209.1 0.00333677 0 -2.99343
173.225 0.0191441 0 -4.73184
171.211 0.0199821 0 -4.72777
239.743 -0.0130478 0 -0.904329
242.563 -0.0136714 0 -0.910021
172.218 0.0195638 0 -4.72982
205.475 0.00445531 0 -2.98616
241.153 -0.0133593 0 -0.907197
207.892 0.00371068 0 -2.99104
206.683 0.00408353 0 -2.98862
171.211 0.0199821 0 -4.72777
169.197 0.0208142 0 -4.72358
236.923 -0.0124265 0 -0.898466
239.743 -0.0130478 0 -0.904329
170.204 0.0203989 0 -4.72569
203.057 0.00519569 0 -2.98113
238.333 -0.0127369 0 -0.901419
205.475 0.00445531 0 -2.98616
204.266 0.00482604 0 -2.98366
169.197 0.0208142 0 -4.72358
167.183 0.0216403 0 -4.71926
234.103 -0.0118075 0 -0.892433
236.923 -0.0124265 0 -0.898466
168.19 0.021228 0 -4.72143
200.64 0.0059318 0 -2.97596
235.513 -0.0121167 0 -0.895471
203.057 0.00519569 0 -2.98113
201.849 0.00556428 0 -2.97856
167.183 0.0216403 0 -4.71926
165.169 0.0224604 0 -4.71483
231.282 -0.0111909 0 -0.886233
234.103 -0.0118075 0 -0.892433
166.176 0.0220511 0 -4.71706
198.223 0.00666358 0 -2.97064
232.692 -0.0114989 0 -0.889354
200.64 0.0059318 0 -2.97596
199.432 0.00629822 0 -2.97331
165.169 0.0224604 0 -4.71483
163.154 0.0232746 0 -4.71028
228.462 -0.0105766 0 -0.879867
231.282 -0.0111909 0 -0.886233
164.161 0.0228683 0 -4.71257
195.806 0.00739099 0 -2.96518
229.872 -0.0108834 0 -0.883071
198.223 0.00666358 0 -2.97064
197.015 0.00702783 0 -2.96793
163.154 0.0232746 0 -4.71028
161.14 0.0240827 0 -4.70561
225.642 -0.00996479 0 -0.873338
228.462 -0.0105766 0 -0.879867
162.147 0.0236794 0 -4.70796
193.389 0.00811401 0 -2.95958
227.052 -0.0102704 0 -0.876623
195.806 0.00739099 0 -2.96518
194.597 0.00775304 0 -2.9624
161.14 0.0240827 0 -4.70561
159.126 0.0248847 0 -4.70082
222.822 -0.0093554 0 -0.866647
225.642 -0.00996479 0 -0.873338
160.133 0.0244845 0 -4.70323
190.972 0.0088326 0 -2.95384
224.232 -0.00965979 0 -0.870012
193.389 0.00811401 0 -2.95958
192.18 0.00847388 0 -2.95673
159.126 0.0248847 0 -4.70082
157.112 0.0256806 0 -4.69593
220.002 -0.0087485 0 -0.859797
222.822 -0.0093554 0 -0.866647
158.119 0.0252834 0 -4.69839
188.555 0.00954672 0 -2.94797
221.412 -0.00905164 0 -0.863242
190.972 0.0088326 0 -2.95384
189.763 0.00919022 0 -2.95092
157.112 0.0256806 0 -4.69593
155.098 0.0264704 0 -4.69092
217.182 -0.00814415 0 -0.852789
220.002 -0.0087485 0 -0.859797
156.105 0.0260763 0 -4.69343
186.138 0.0102564 0 -2.94196
218.592 -0.00844599 0 -0.856312
188.555 0.00954672 0 -2.94797
187.346 0.0099021 0 -2.94498
155.098 0.0264704 0 -4.69092
153.084 0.027254 0 -4.68579
214.361 -0.00754232 0 -0.845626
217.182 -0.00814415 0 -0.852789
154.091 0.026863 0 -4.68837
183.72 0.0109614 0 -2.93581
215.772 -0.0078429 0 -0.849227
186.138 0.0102563 0 -2.94196
184.929 0.0106095 0 -2.9389
153.084 0.0272539 0 -4.68579
151.07 0.0280313 0 -4.68056
211.541 -0.0069431 0 -0.838309
214.361 -0.00754233 0 -0.845626
152.077 0.0276434 0 -4.68319
181.303 0.011662 0 -2.92954
212.951 -0.00724239 0 -0.841987
183.72 0.0109614 0 -2.93581
182.512 0.0113123 0 -2.93269
151.07 0.0280313 0 -4.68056
149.056 0.0288024 0 -4.67523
208.721 -0.00634653 0 -0.830842
211.541 -0.0069431 0 -0.838309
150.063 0.0284176 0 -4.67791
178.886 0.0123579 0 -2.92314
210.131 -0.00664449 0 -0.834594
181.303 0.011662 0 -2.92954
180.095 0.0120105 0 -2.92635
149.056 0.0288024 0 -4.67523
147.041 0.0295672 0 -4.66978
205.901 -0.00575255 0 -0.823225
208.721 -0.00634653 0 -0.830842
148.048 0.0291856 0 -4.67252
176.469 0.0130492 0 -2.9166
207.311 -0.0060492 0 -0.827052
178.886 0.0123579 0 -2.92314
177.678 0.0127041 0 -2.91989
147.041 0.0295672 0 -4.66978
145.027 0.0303257 0 -4.66423
203.081 -0.0051613 0 -0.81546
205.901 -0.00575255 0 -0.823225
146.034 0.0299473 0 -4.66702
174.052 0.0137358 0 -2.90995
204.491 -0.0054566 0 -0.819361
176.469 0.0130492 0 -2.9166
175.261 0.0133931 0 -2.91329
145.027 0.0303257 0 -4.66423
143.013 0.0310779 0 -4.65857
200.261 -0.0045727 0 -0.80755
203.081 -0.00516131 0 -0.81546
144.02 0.0307026 0 -4.66141
171.635 0.0144178 0 -2.90316
201.671 -0.00486667 0 -0.811523
174.052 0.0137358 0 -2.90995
172.844 0.0140774 0 -2.90657
143.013 0.0310779 0 -4.65857
140.999 0.0318237 0 -4.65282
197.441 -0.00398688 0 -0.799497
200.261 -0.0045727 0 -0.80755
142.006 0.0314516 0 -4.65571
169.218 0.015095 0 -2.89626
198.851 -0.00427943 0 -0.803542
171.635 0.0144178 0 -2.90316
170.426 0.014757 0 -2.89973
140.999 0.0318237 0 -4.65282
138.985 0.0325631 0 -4.64696
194.621 -0.0034038 0 -0.791303
197.441 -0.00398688 0 -0.799497
139.992 0.0321942 0 -4.6499
166.801 0.0157675 0 -2.88923
196.031 -0.00369499 0 -0.795418
169.218 0.015095 0 -2.89626
168.009 0.0154319 0 -2.89276
138.985 0.0325631 0 -4.64696
136.971 0.0332961 0 -4.641
191.801 -0.00282353 0 -0.782969
194.621 -0.00340381 0 -0.791303
137.978 0.0329304 0 -4.64399
164.384 0.0164353 0 -2.88209
193.211 -0.00311332 0 -0.787153
166.801 0.0157675 0 -2.88923
165.592 0.016102 0 -2.88567
136.971 0.0332961 0 -4.641
134.957 0.0340226 0 -4.63495
188.981 -0.00224606 0 -0.774498
191.801 -0.00282354 0 -0.782969
135.964 0.0336601 0 -4.63799
161.967 0.0170982 0 -2.87482
190.391 -0.00253445 0 -0.778751
164.384 0.0164353 0 -2.88209
163.175 0.0167673 0 -2.87847
134.957 0.0340226 0 -4.63495
132.943 0.0347426 0 -4.6288
186.161 -0.00167144 0 -0.765892
188.981 -0.00224606 0 -0.774498
133.95 0.0343834 0 -4.63188
159.55 0.0177563 0 -2.86744
187.571 -0.00195839 0 -0.770212
161.967 0.0170982 0 -2.87482
160.758 0.0174278 0 -2.87115
132.943 0.0347426 0 -4.6288
130.929 0.0354561 0 -4.62255
183.341 -0.00109965 0 -0.757153
186.161 -0.00167144 0 -0.765892
131.936 0.0351002 0 -4.62568
157.133 0.0184096 0 -2.85995
184.751 -0.00138518 0 -0.761539
159.55 0.0177563 0 -2.86744
158.341 0.0180835 0 -2.86371
130.929 0.0354561 0 -4.62255
128.914 0.0361631 0 -4.61621
180.521 -0.000530798 0 -0.748283
183.341 -0.00109966 0 -0.757153
129.922 0.0358104 0 -4.61939
154.716 0.0190579 0 -2.85234
181.931 -0.000814868 0 -0.752734
157.133 0.0184096 0 -2.85995
155.924 0.0187344 0 -2.85616
128.914 0.0361631 0 -4.61621
126.9 0.0368635 0 -4.60978
177.701 3.51875e-05 0 -0.739283
180.521 -0.000530805 0 -0.748283
127.907 0.0365141 0 -4.613
152.299 0.0197014 0 -2.84463
179.111 -0.000247439 0 -0.743799
154.716 0.0190579 0 -2.85234
153.507 0.0193803 0 -2.8485
126.9 0.0368635 0 -4.60978
124.886 0.0375574 0 -4.60325
174.881 0.000598222 0 -0.730157
177.701 3.51875e-05 0 -0.739283
125.893 0.0372113 0 -4.60653
149.882 0.02034 0 -2.8368
176.291 0.00031707 0 -0.734736
152.299 0.0197014 0 -2.84463
151.09 0.0200213 0 -2.84073
124.886 0.0375574 0 -4.60325
122.872 0.0382446 0 -4.59664
172.061 0.00115832 0 -0.720905
174.881 0.000598222 0 -0.730157
123.879 0.0379018 0 -4.59996
147.465 0.0209736 0 -2.82887
173.471 0.000878657 0 -0.725546
149.882 0.02034 0 -2.8368
148.673 0.0206574 0 -2.83285
122.872 0.0382446 0 -4.59664
120.858 0.0389252 0 -4.58994
169.241 0.00171544 0 -0.71153
172.061 0.00115831 0 -0.720905
121.865 0.0385857 0 -4.5933
145.047 0.0216023 0 -2.82083
170.651 0.00143726 0 -0.716233
147.465 0.0209736 0 -2.82887
146.256 0.0212886 0 -2.82486
120.858 0.0389252 0 -4.58994
118.844 0.0395992 0 -4.58315
166.421 0.00226957 0 -0.702034
169.241 0.00171544 0 -0.71153
119.851 0.039263 0 -4.58656
142.63 0.022226 0 -2.81269
167.831 0.0019929 0 -0.706797
145.047 0.0216023 0 -2.82083
143.839 0.0219148 0 -2.81677
118.844 0.0395992 0 -4.58315
116.83 0.0402665 0 -4.57628
163.601 0.00282067 0 -0.692419
166.421 0.00226957 0 -0.702034
117.837 0.0399337 0 -4.57973
140.213 0.0228447 0 -2.80444
165.011 0.0025455 0 -0.697241
142.63 0.022226 0 -2.81269
141.422 0.022536 0 -2.80858
116.83 0.0402665 0 -4.57628
114.816 0.040927 0 -4.56932
160.781 0.00336877 0 -0.682687
163.601 0.00282067 0 -0.692419
115.823 0.0405976 0 -4.57281
137.796 0.0234583 0 -2.7961
162.191 0.0030951 0 -0.687567
140.213 0.0228447 0 -2.80444
139.005 0.0231521 0 -2.80028
114.816 0.0409271 0 -4.56932
112.802 0.0415809 0 -4.56228
157.961 0.0039138 0 -0.67284
160.781 0.00336876 0 -0.682687
113.809 0.0412548 0 -4.56581
135.379 0.0240669 0 -2.78765
159.371 0.00364167 0 -0.677777
137.796 0.0234583 0 -2.7961
136.588 0.0237633 0 -2.79189
112.802 0.0415809 0 -4.56228
110.788 0.0422281 0 -4.55517
155.141 0.00445577 0 -0.66288
157.961 0.0039138 0 -0.67284
111.795 0.0419054 0 -4.55873
132.962 0.0246705 0 -2.77911
156.551 0.00418518 0 -0.667874
135.379 0.0240669 0 -2.78765
134.171 0.0243694 0 -2.7834
110.788 0.0422281 0 -4.55517
108.774 0.0428685 0 -4.54797
152.321 0.00499467 0 -0.652809
155.141 0.00445577 0 -0.66288
109.781 0.0425491 0 -4.55158
130.545 0.025269 0 -2.77048
153.731 0.00472563 0 -0.657858
132.962 0.0246705 0 -2.77911
131.754 0.0249704 0 -2.77481
108.774 0.0428685 0 -4.54797
106.76 0.0435021 0 -4.54069
149.501 0.00553049 0 -0.642628
152.321 0.00499467 0 -0.652809
107.767 0.0431861 0 -4.54434
128.129 0.0258624 0 -2.76175
150.911 0.00526296 0 -0.647732
130.545 0.025269 0 -2.77048
129.337 0.0255663 0 -2.76613
106.76 0.0435021 0 -4.54069
104.746 0.0441289 0 -4.53334
146.681 0.00606317 0 -0.632341
149.501 0.00553049 0 -0.642628
105.753 0.0438164 0 -4.53702
125.712 0.0264506 0 -2.75293
148.091 0.00579723 0 -0.637498
128.129 0.0258624 0 -2.76175
126.92 0.0261571 0 -2.75735
104.746 0.0441289 0 -4.53334
102.732 0.044749 0 -4.52591
143.861 0.00659273 0 -0.62195
146.681 0.00606317 0 -0.632341
103.739 0.0444398 0 -4.52963
123.295 0.0270338 0 -2.74402
145.271 0.00632834 0 -0.627158
125.712 0.0264506 0 -2.75293
124.503 0.0267429 0 -2.74849
102.732 0.044749 0 -4.52591
100.718 0.0453622 0 -4.51841
141.041 0.00711917 0 -0.611455
143.861 0.00659273 0 -0.62195
101.725 0.0450564 0 -4.52217
120.878 0.0276118 0 -2.73502
142.451 0.00685635 0 -0.616715
123.295 0.0270338 0 -2.74402
122.086 0.0273234 0 -2.73953
100.718 0.0453622 0 -4.51841
98.7035 0.0459685 0 -4.51084
138.221 0.00764245 0 -0.600859
141.041 0.00711917 0 -0.611455
99.7105 0.0456662 0 -4.51463
118.461 0.0281847 0 -2.72594
139.631 0.00738118 0 -0.606169
120.878 0.0276118 0 -2.73502
119.669 0.0278989 0 -2.73049
98.7035 0.0459685 0 -4.51084
96.6894 0.0465681 0 -4.50319
135.402 0.00816258 0 -0.590164
138.221 0.00764245 0 -0.600859
97.6965 0.0462691 0 -4.50703
116.044 0.0287523 0 -2.71677
136.811 0.00790292 0 -0.595524
118.461 0.0281847 0 -2.72594
117.252 0.0284691 0 -2.72136
96.6894 0.0465681 0 -4.50319
94.6754 0.0471607 0 -4.49548
132.582 0.00867953 0 -0.579373
135.402 0.00816258 0 -0.590164
95.6824 0.0468652 0 -4.49935
113.627 0.0293148 0 -2.70751
133.992 0.00842146 0 -0.584781
116.044 0.0287523 0 -2.71677
114.835 0.0290342 0 -2.71215
94.6754 0.0471607 0 -4.49548
92.6614 0.0477465 0 -4.4877
129.762 0.00919328 0 -0.568487
132.582 0.00867954 0 -0.579373
93.6684 0.0474545 0 -4.4916
111.21 0.0298721 0 -2.69818
131.172 0.00893681 0 -0.573942
113.627 0.0293148 0 -2.70751
112.418 0.0295941 0 -2.70286
92.6614 0.0477465 0 -4.4877
90.6473 0.0483253 0 -4.47986
126.942 0.00970385 0 -0.557508
129.762 0.00919328 0 -0.568487
91.6543 0.0480368 0 -4.48379
108.793 0.0304242 0 -2.68877
128.352 0.00944897 0 -0.563009
111.21 0.0298721 0 -2.69818
110.001 0.0301488 0 -2.69348
90.6473 0.0483253 0 -4.47986
88.6333 0.0488973 0 -4.47194
124.122 0.0102112 0 -0.546438
126.942 0.00970385 0 -0.557508
89.6403 0.0486122 0 -4.47591
106.376 0.0309711 0 -2.67928
125.532 0.00995793 0 -0.551984
108.793 0.0304242 0 -2.68877
107.584 0.0306983 0 -2.68403
88.6333 0.0488973 0 -4.47194
86.6192 0.0494624 0 -4.46397
121.302 0.0107154 0 -0.535279
124.122 0.0102112 0 -0.546438
87.6263 0.0491807 0 -4.46796
103.959 0.0315127 0 -2.66971
122.712 0.0104637 0 -0.540869
106.376 0.0309711 0 -2.67928
105.167 0.0312426 0 -2.6745
86.6192 0.0494624 0 -4.46397
84.6052 0.0500205 0 -4.45593
118.482 0.0112163 0 -0.524034
121.302 0.0107154 0 -0.535279
85.6122 0.0497423 0 -4.45996
101.542 0.0320491 0 -2.66007
119.892 0.0109662 0 -0.529667
103.959 0.0315127 0 -2.66971
102.75 0.0317816 0 -2.6649
84.6052 0.0500205 0 -4.45593
82.5912 0.0505716 0 -4.44783
115.663 0.011714 0 -0.512704
118.482 0.0112163 0 -0.524034
83.5982 0.0502969 0 -4.45189
99.1251 0.0325803 0 -2.65035
117.072 0.0114655 0 -0.518379
101.542 0.0320491 0 -2.66007
100.334 0.0323154 0 -2.65522
82.5912 0.0505716 0 -4.44783
80.5771 0.0511159 0 -4.43968
112.843 0.0122085 0 -0.501291
115.663 0.011714 0 -0.512704
81.5842 0.0508446 0 -4.44376
96.7082 0.0331062 0 -2.64057
114.253 0.0119616 0 -0.507007
99.1251 0.0325803 0 -2.65035
97.9166 0.0328439 0 -2.64547
80.5771 0.0511159 0 -4.43968
78.5631 0.0516531 0 -4.43146
110.023 0.0126997 0 -0.489797
112.843 0.0122085 0 -0.501291
79.5701 0.0513854 0 -4.43558
94.2913 0.0336268 0 -2.63071
111.433 0.0124545 0 -0.495554
96.7082 0.0331062 0 -2.64057
95.4997 0.0333672 0 -2.63565
78.5631 0.0516531 0 -4.43146
76.5491 0.0521834 0 -4.42319
107.203 0.0131877 0 -0.478225
110.023 0.0126997 0 -0.489797
77.5561 0.0519191 0 -4.42734
91.8743 0.0341422 0 -2.62079
108.613 0.0129441 0 -0.484021
94.2913 0.0336268 0 -2.63071
93.0828 0.0338852 0 -2.62576
76.5491 0.0521834 0 -4.42319
74.5351 0.0527067 0 -4.41487
104.383 0.0136724 0 -0.466576
107.203 0.0131877 0 -0.478225
75.5421 0.0524459 0 -4.41904
89.4574 0.0346523 0 -2.6108
105.793 0.0134304 0 -0.47241
91.8743 0.0341422 0 -2.62079
90.6659 0.0343979 0 -2.61581
74.5351 0.0527067 0 -4.41487
72.521 0.053223 0 -4.40649
101.563 0.0141538 0 -0.454852
104.383 0.0136724 0 -0.466576
73.5281 0.0529657 0 -4.41069
87.0405 0.0351571 0 -2.60075
102.973 0.0139136 0 -0.460723
89.4574 0.0346523 0 -2.6108
88.249 0.0349054 0 -2.60579
72.521 0.053223 0 -4.40649
70.507 0.0537323 0 -4.39806
98.7437 0.0146321 0 -0.443056
101.563 0.0141538 0 -0.454852
71.514 0.0534786 0 -4.40228
84.6236 0.0356566 0 -2.59064
100.154 0.0143934 0 -0.448963
87.0405 0.0351571 0 -2.60075
85.8321 0.0354075 0 -2.5957
70.507 0.0537323 0 -4.39806
68.493 0.0542347 0 -4.38958
95.9239 0.015107 0 -0.43119
98.7437 0.0146321 0 -0.443056
69.5 0.0539844 0 -4.39383
82.2067 0.0361508 0 -2.58046
97.3338 0.0148699 0 -0.437132
84.6236 0.0356566 0 -2.59064
83.4152 0.0359044 0 -2.58556
68.493 0.0542347 0 -4.38958
66.479 0.0547299 0 -4.38105
93.1041 0.0155787 0 -0.419254
95.9239 0.015107 0 -0.43119
67.486 0.0544832 0 -4.38532
79.7898 0.0366398 0 -2.57023
94.514 0.0153433 0 -0.42523
82.2067 0.0361508 0 -2.58046
80.9983 0.036396 0 -2.57535
66.479 0.0547299 0 -4.38105
64.465 0.0552182 0 -4.37247
90.2843 0.0160471 0 -0.407252
93.1041 0.0155787 0 -0.419254
65.472 0.054975 0 -4.37677
77.373 0.0371234 0 -2.55994
91.6942 0.0158133 0 -0.413261
79.7898 0.0366398 0 -2.57023
78.5814 0.0368822 0 -2.56509
64.465 0.0552182 0 -4.37247
62.451 0.0556994 0 -4.36385
87.4646 0.0165122 0 -0.395186
90.2843 0.0160471 0 -0.407252
63.458 0.0554597 0 -4.36817
74.9561 0.0376017 0 -2.5496
88.8744 0.0162801 0 -0.401227
77.373 0.0371234 0 -2.55994
76.1645 0.0373632 0 -2.55477
62.451 0.0556994 0 -4.36385
60.4369 0.0561736 0 -4.35518
84.6448 0.0169741 0 -0.383057
87.4646 0.0165122 0 -0.395186
61.444 0.0559374 0 -4.35952
72.5392 0.0380746 0 -2.5392
86.0547 0.0167436 0 -0.389129
74.9561 0.0376017 0 -2.5496
73.7476 0.0378388 0 -2.5444
60.4369 0.0561736 0 -4.35518
58.4229 0.0566407 0 -4.34647
81.825 0.0174327 0 -0.370867
84.6448 0.0169741 0 -0.383057
59.4299 0.0564081 0 -4.35083
70.1223 0.0385423 0 -2.52875
83.2349 0.0172038 0 -0.376969
72.5392 0.0380746 0 -2.5392
71.3308 0.0383091 0 -2.53398
58.4229 0.0566407 0 -4.34647
56.4089 0.0571007 0 -4.33772
79.0053 0.0178881 0 -0.358619
81.825 0.0174327 0 -0.370867
57.4159 0.0568716 0 -4.3421
67.7054 0.0390046 0 -2.51824
80.4152 0.0176608 0 -0.36475
70.1223 0.0385423 0 -2.52875
68.9139 0.0387741 0 -2.5235
56.4089 0.0571007 0 -4.33772
54.3949 0.0575535 0 -4.32893
76.1856 0.0183401 0 -0.346315
79.0053 0.0178881 0 -0.358619
55.4019 0.057328 0 -4.33333
65.2886 0.0394616 0 -2.5077
77.5954 0.0181145 0 -0.352474
67.7054 0.0390046 0 -2.51824
66.497 0.0392338 0 -2.51298
54.3949 0.0575535 0 -4.32893
52.3809 0.057999 0 -4.3201
73.3658 0.0187889 0 -0.333956
76.1856 0.0183401 0 -0.346315
53.3879 0.0577772 0 -4.32452
62.8717 0.0399132 0 -2.4971
74.7757 0.0185649 0 -0.340142
65.2886 0.0394616 0 -2.5077
64.0801 0.0396881 0 -2.5024
52.3809 0.0579991 0 -4.3201
50.3669 0.0584371 0 -4.31123
70.5461 0.0192345 0 -0.321544
73.3658 0.0187889 0 -0.333956
51.3739 0.058219 0 -4.31567
60.4548 0.0403594 0 -2.48646
71.956 0.0190121 0 -0.327756
62.8717 0.0399132 0 -2.4971
61.6633 0.040137 0 -2.49179
50.3669 0.0584371 0 -4.31123
48.3529 0.0588674 0 -4.30233
67.7264 0.0196768 0 -0.309082
70.5461 0.0192345 0 -0.321544
49.3599 0.0586532 0 -4.30678
58.038 0.0408 0 -2.47578
69.1362 0.019456 0 -0.315319
60.4548 0.0403594 0 -2.48646
59.2464 0.0405804 0 -2.48112
48.3529 0.0588674 0 -4.30233
46.3389 0.0592894 0 -4.29339
64.9067 0.020116 0 -0.296572
67.7264 0.0196768 0 -0.309082
47.3459 0.0590794 0 -4.29786
55.6211 0.0412349 0 -2.46506
66.3165 0.0198968 0 -0.302833
58.038 0.0408 0 -2.47578
56.8296 0.0410182 0 -2.47042
46.3389 0.0592894 0 -4.29339
44.3249 0.0597023 0 -4.28443
62.0869 0.020552 0 -0.284015
64.9067 0.020116 0 -0.296572
45.3319 0.059497 0 -4.28891
53.2043 0.0416638 0 -2.4543
63.4968 0.0203344 0 -0.290299
55.6211 0.0412349 0 -2.46506
54.4127 0.0414501 0 -2.45968
44.3249 0.0597023 0 -4.28443
42.3109 0.0601052 0 -4.27544
59.2672 0.0209854 0 -0.271414
62.0869 0.020552 0 -0.284015
43.3179 0.059905 0 -4.27993
50.7874 0.0420863 0 -2.4435
60.6771 0.0207691 0 -0.27772
53.2043 0.0416638 0 -2.4543
51.9958 0.0418759 0 -2.4489
42.3109 0.0601052 0 -4.27544
40.2969 0.0604971 0 -4.26642
56.4475 0.0214156 0 -0.258769
59.2672 0.0209854 0 -0.271414
41.3039 0.0603026 0 -4.27093
48.3705 0.0425019 0 -2.43268
57.8573 0.0212008 0 -0.265097
50.7874 0.0420863 0 -2.4435
49.579 0.0422949 0 -2.4381
40.2969 0.0604971 0 -4.26642
38.2829 0.0608784 0 -4.25739
53.6277 0.0218446 0 -0.246085
56.4475 0.0214156 0 -0.258769
39.2899 0.0606889 0 -4.26191
45.9537 0.0429099 0 -2.42184
55.0376 0.0216302 0 -0.252432
48.3705 0.0425019 0 -2.43268
47.1621 0.042707 0 -2.42726
38.2829 0.0608784 0 -4.25739
36.2689 0.0612525 0 -4.24834
50.8079 0.0222714 0 -0.233362
53.6277 0.0218446 0 -0.246085
37.2759 0.061066 0 -4.25287
43.5368 0.0433109 0 -2.41097
52.2178 0.0220585 0 -0.239727
45.9537 0.0429099 0 -2.42184
44.7452 0.043111 0 -2.41641
36.2689 0.0612525 0 -4.24834
34.255 0.0616337 0 -4.23927
47.988 0.0226982 0 -0.220603
50.8079 0.0222714 0 -0.233362
35.2619 0.0614403 0 -4.24381
41.1198 0.0437055 0 -2.40008
49.3979 0.0224836 0 -0.226988
43.5368 0.0433109 0 -2.41097
42.3283 0.0435092 0 -2.40553
34.255 0.0616337 0 -4.23927
32.2411 0.0620559 0 -4.23014
45.168 0.0231298 0 -0.207813
47.988 0.0226982 0 -0.220603
33.248 0.0618366 0 -4.23471
38.7029 0.0441051 0 -2.38917
46.578 0.0229167 0 -0.214208
41.1198 0.0437055 0 -2.40008
39.9114 0.0439031 0 -2.39463
32.2411 0.0620559 0 -4.23014
30.2273 0.062609 0 -4.22084
42.3478 0.0235473 0 -0.194992
45.168 0.0231298 0 -0.207813
31.2342 0.0623061 0 -4.22552
36.286 0.0445206 0 -2.37816
43.7579 0.0233319 0 -0.201413
38.7029 0.0441051 0 -2.38917
37.4945 0.0443109 0 -2.38368
30.2273 0.062609 0 -4.22084
28.2137 0.0634616 0 -4.2112
39.5276 0.0240154 0 -0.182172
42.3478 0.0235473 0 -0.194992
29.2205 0.0629827 0 -4.21609
33.8694 0.0450189 0 -2.36696
40.9377 0.0237991 0 -0.188562
36.286 0.0445206 0 -2.37816
35.0777 0.0447517 0 -2.3726
28.2137 0.0634615 0 -4.2112
26.2005 0.0650161 0 -4.20069
36.7074 0.0243318 0 -0.16931
39.5276 0.0240154 0 -0.182172
27.207 0.0641112 0 -4.20611
31.4533 0.0456601 0 -2.35521
38.1175 0.0241401 0 -0.175779
33.8694 0.0450189 0 -2.36696
32.6613 0.045322 0 -2.36118
26.2005 0.0650161 0 -4.20069
24.1877 0.0678954 0 -4.18848
33.8887 0.0249758 0 -0.15661
36.7074 0.0243318 0 -0.16931
25.1941 0.0662315 0 -4.19487
29.0388 0.0467324 0 -2.34235
35.2978 0.0247571 0 -0.162856
31.4533 0.0456601 0 -2.35521
30.2457 0.0461064 0 -2.349
24.1877 0.0678954 0 -4.18848
22.1761 0.0735951 0 -4.17252
31.0722 0.0245929 0 -0.14373
33.8887 0.0249758 0 -0.15661
23.1816 0.0702691 0 -4.18117
26.6271 0.0484755 0 -2.32693
32.4801 0.02461 0 -0.150347
29.0388 0.0467324 0 -2.34235
27.8326 0.0475367 0 -2.33504
22.1761 0.0735951 0 -4.17252
20.1646 0.083822 0 -4.15002
28.2654 0.0260976 0 -0.131735
31.0722 0.0245929 0 -0.14373
21.1706 0.0779454 0 -4.16231
24.2227 0.0519067 0 -2.30664
29.667 0.025901 0 -0.137276
26.6271 0.0484755 0 -2.32693
25.4235 0.0498127 0 -2.31772
20.1646 0.083822 0 -4.15002
18.156 0.103397 0 -4.1143
25.4715 0.0218418 0 -0.11874
28.2654 0.0260976 0 -0.131735
19.1594 0.0921851 0 -4.13447
21.8294 0.0578323 0 -2.27668
26.8665 0.0230326 0 -0.12607
24.2227 0.0519067 0 -2.30664
23.0247 0.0547282 0 -2.29304
18.156 0.103397 0 -4.1143
16.1426 0.134721 0 -4.05856
22.7228 0.0275767 0 -0.109564
25.4715 0.0218418 0 -0.11874
17.1512 0.116968 0 -4.0894
19.4624 0.0692282 0 -2.22931
24.0891 0.0275882 0 -0.112204
21.8294 0.0578323 0 -2.27668
20.6407 0.0620566 0 -2.25653
16.1426 0.134721 0 -4.05856
14.1316 0.191505 0 -3.96551
20.0273 0.00413798 0 -0.0955094
22.7228 0.0275767 0 -0.109564
15.135 0.160044 0 -4.01838
17.1299 0.0886045 0 -2.15216
21.367 0.0108449 0 -0.106406
19.4624 0.0692282 0 -2.22931
18.293 0.0790796 0 -2.19413
14.1316 0.191505 0 -3.96551
12.082 0.264379 0 -3.82841
17.5037 0.0296241 0 -0.0961239
20.0273 0.00413798 0 -0.0955094
13.1176 0.223971 0 -3.90256
14.8769 0.122884 0 -2.02256
18.7372 0.031454 0 -0.0873716
17.1299 0.0886045 0 -2.15216
15.9862 0.100263 0 -2.09931
12.082 0.264379 0 -3.82841
10.0065 0.385532 0 -3.62122
15.1616 -0.0825639 0 -0.0759181
17.5037 0.0296241 0 -0.0961239
11.0421 0.324207 0 -3.73581
12.6939 0.17894 0 -1.82383
16.3018 -0.0525724 0 -0.104158
14.8769 0.122884 0 -2.02256
13.7863 0.154444 0 -1.9263
10.0065 0.385532 0 -3.62122
7.7201 0.439916 0 -3.3982
13.3745 0.0318268 0 -0.103684
15.1616 -0.0825639 0 -0.0759181
8.91388 0.416002 0 -3.50587
10.6943 0.265938 0 -1.50374
14.1908 0.045682 0 -0.0532403
12.6939 0.17894 0 -1.82383
11.6449 0.203506 0 -1.69905
7.7201 0.439916 0 -3.3982
5.23689 0.430112 0 -3.24937
12.2004 -0.415018 0 0.00863447
13.3745 0.0318268 0 -0.103684
6.48965 0.489218 0 -3.30067
8.61847 0.38402 0 -1.15568
12.6465 -0.337823 0 -0.152044
10.6943 0.265938 0 -1.50374
9.7287 0.349594 0 -1.2921
5.23689 0.430112 0 -3.24937
2.04017 -0.58662 0 -3.78431
13.1542 0.413187 0 0.345484
12.2004 -0.415018 0 0.00863447
3.79281 0.0762876 0 -3.37283
6.34587 0.321218 0 -0.936462
12.4247 0.287761 0 0.231626
8.61847 0.38402 0 -1.15568
7.45542 0.361967 0 -1.072
2.04017 -0.58662 0 -3.78431
-0.561756 -4.67021 0 -5.79978
18.3486 1.90296 0 3.07741
13.1542 0.413187 0 0.345484
0.544712 -1.65732 0 -4.49889
0.761581 -2.6049 0 -3.35174
14.5598 -0.565015 0 0.778723
6.34587 0.321218 0 -0.936462
4.48466 -0.183885 0 -1.39091
-0.561756 -4.67021 0 -5.79978
0.252549 -20.0785 0 -5.9529
2.57766 -25.7003 0 -15.9366
18.3486 1.90296 0 3.07741
-0.962786 -11.0004 0 -6.86633
-2.01545 -25.3712 0 -9.52875
19.1726 4.63056 0 1.33508
0.761581 -2.6049 0 -3.35174
-1.85623 -8.64135 0 -6.247
      </DataArray> 
      <DataArray type="Float64" NumberOfComponents="4" Name="GreenStrain" format="ascii">
-0.000372051 -1.11022e-16 0.00015945 -0.000126481
-0.000265254 8.41057e-05 7.7635e-05 4.84383e-06
-0.000190347 3.7768e-05 6.5391e-05 -1.41798e-05
-0.000169074 0 7.24602e-05 -9.70601e-06
-0.000295082 9.37335e-05 8.62921e-05 -1.78241e-05
-0.000240808 5.85301e-05 7.81192e-05 -1.83722e-05
-0.000181008 1.78355e-05 6.99312e-05 -1.64521e-05
-0.000198747 0 8.51775e-05 -3.07092e-05
-0.000232311 3.95975e-05 8.25917e-05 -2.87977e-05
-0.000265254 8.41057e-05 7.7635e-05 4.84383e-06
-0.000262115 8.1244e-05 7.75163e-05 1.50729e-06
-0.000197779 5.35829e-05 6.17983e-05 -6.75743e-06
-0.000190347 3.7768e-05 6.5391e-05 -1.41798e-05
-0.000261344 7.76104e-05 7.87429e-05 2.12556e-06
-0.000235443 6.86527e-05 7.14814e-05 -3.08998e-06
-0.000196226 4.89272e-05 6.3128e-05 -1.02295e-05
-0.000240808 5.85301e-05 7.81192e-05 -1.83722e-05
-0.000237449 6.6316e-05 7.33427e-05 -7.44853e-06
-0.000262115 8.1244e-05 7.75163e-05 1.50729e-06
-0.000265816 7.8941e-05 8.00891e-05 7.00069e-07
-0.000196827 5.80192e-05 5.94889e-05 -2.51981e-06
-0.000197779 5.35829e-05 6.17983e-05 -6.75743e-06
-0.000264597 8.10717e-05 7.86535e-05 1.52542e-06
-0.000232975 6.9864e-05 6.99045e-05 -3.24272e-07
-0.000197236 5.63424e-05 6.03831e-05 -3.97587e-06
-0.000235443 6.86527e-05 7.14814e-05 -3.08998e-06
-0.000234161 6.95223e-05 7.05593e-05 -1.50299e-06
-0.000265816 7.8941e-05 8.00891e-05 7.00069e-07
-0.000267332 8.04749e-05 8.00815e-05 -8.03597e-08
-0.00019544 5.86284e-05 5.86337e-05 -1.57518e-06
-0.000196827 5.80192e-05 5.94889e-05 -2.51981e-06
-0.000266489 7.92073e-05 8.02634e-05 -1.38482e-07
-0.000231617 6.97194e-05 6.93846e-05 7.7826e-08
-0.000196309 5.86088e-05 5.90142e-05 -1.88493e-06
-0.000232975 6.9864e-05 6.99045e-05 -3.24272e-07
-0.000232066 6.98616e-05 6.95162e-05 1.97099e-07
-0.000267332 8.04749e-05 8.00815e-05 -8.03597e-08
-0.000268108 8.0185e-05 8.05384e-05 5.41257e-08
-0.00019384 5.85294e-05 5.79901e-05 -1.53299e-06
-0.00019544 5.86284e-05 5.86337e-05 -1.57518e-06
-0.00026799 8.05985e-05 8.03107e-05 1.34622e-07
-0.000230939 6.94959e-05 6.91898e-05 -3.30436e-07
-0.000194519 5.85982e-05 5.82516e-05 -1.46031e-06
-0.000231617 6.97194e-05 6.93846e-05 7.7826e-08
-0.000231337 6.96023e-05 6.93151e-05 -1.85506e-07
-0.000268108 8.0185e-05 8.05384e-05 5.41257e-08
-0.000267812 8.04135e-05 8.03138e-05 -4.96138e-08
-0.000192624 5.81e-05 5.76533e-05 -1.85379e-06
-0.00019384 5.85294e-05 5.79901e-05 -1.53299e-06
-0.000267958 8.02155e-05 8.04611e-05 -8.49579e-08
-0.000230099 6.91936e-05 6.89593e-05 -7.0632e-07
-0.000193257 5.83421e-05 5.78207e-05 -1.70167e-06
-0.000230939 6.94959e-05 6.91898e-05 -3.30436e-07
-0.0002305 6.93555e-05 6.90618e-05 -4.97201e-07
-0.000267812 8.04135e-05 8.03138e-05 -4.96138e-08
-0.000267158 8.01176e-05 8.01601e-05 2.69132e-09
-0.000191449 5.76805e-05 5.73293e-05 -2.12346e-06
-0.000192624 5.81e-05 5.76533e-05 -1.85379e-06
-0.000267577 8.03345e-05 8.02468e-05 1.54809e-08
-0.000229207 6.88688e-05 6.87162e-05 -1.00268e-06
-0.000192002 5.78817e-05 5.74799e-05 -1.98893e-06
-0.000230099 6.91936e-05 6.89593e-05 -7.0632e-07
-0.000229685 6.90316e-05 6.88513e-05 -8.82883e-07
-0.000267158 8.01176e-05 8.01601e-05 2.69132e-09
-0.000266098 7.98707e-05 7.98118e-05 -1.6091e-08
-0.000190393 5.72725e-05 5.70518e-05 -2.34334e-06
-0.000191449 5.76805e-05 5.73293e-05 -2.12346e-06
-0.000266638 7.99806e-05 7.99958e-05 -2.71111e-08
-0.000228174 6.85266e-05 6.84204e-05 -1.19357e-06
-0.000190926 5.74752e-05 5.71933e-05 -2.24789e-06
-0.000229207 6.88688e-05 6.87162e-05 -1.00268e-06
-0.000228693 6.87e-05 6.85686e-05 -1.10478e-06
-0.000266098 7.98707e-05 7.98118e-05 -1.6091e-08
-0.000264898 7.94919e-05 7.946e-05 -1.89939e-09
-0.00018935 5.69036e-05 5.67629e-05 -2.47699e-06
-0.000190393 5.72725e-05 5.70518e-05 -2.34334e-06
-0.000265524 7.96978e-05 7.96398e-05 6.2696e-10
-0.000227081 6.81738e-05 6.81032e-05 -1.30688e-06
-0.000189864 5.7083e-05 5.6906e-05 -2.41673e-06
-0.000228174 6.85266e-05 6.84204e-05 -1.19357e-06
-0.00022764 6.8351e-05 6.82667e-05 -1.26027e-06
-0.000264898 7.94919e-05 7.946e-05 -1.89939e-09
-0.000263578 7.91099e-05 7.90576e-05 -4.48738e-09
-0.000188335 5.65588e-05 5.64757e-05 -2.56132e-06
-0.00018935 5.69036e-05 5.67629e-05 -2.47699e-06
-0.000264243 7.9299e-05 7.92616e-05 -7.88065e-09
-0.00022593 6.78164e-05 6.77631e-05 -1.37208e-06
-0.000188844 5.67289e-05 5.66208e-05 -2.52578e-06
-0.000227081 6.81738e-05 6.81032e-05 -1.30688e-06
-0.000226508 6.79956e-05 6.7934e-05 -1.34369e-06
-0.000263578 7.91099e-05 7.90576e-05 -4.48738e-09
-0.000262214 7.86974e-05 7.86501e-05 -1.01497e-09
-0.000187323 5.62327e-05 5.61814e-05 -2.60657e-06
-0.000188335 5.65588e-05 5.64757e-05 -2.56132e-06
-0.000262902 7.89074e-05 7.88549e-05 -4.51628e-10
-0.000224755 6.74557e-05 6.7414e-05 -1.40589e-06
-0.000187827 5.63938e-05 5.63286e-05 -2.58707e-06
-0.00022593 6.78164e-05 6.77631e-05 -1.37208e-06
-0.000225346 6.76363e-05 6.75901e-05 -1.39209e-06
-0.000262214 7.86974e-05 7.86501e-05 -1.01497e-09
-0.000260821 7.8282e-05 7.82311e-05 -1.0892e-09
-0.000186315 5.59173e-05 5.58847e-05 -2.63151e-06
-0.000187323 5.62327e-05 5.61814e-05 -2.60657e-06
-0.000261519 7.84895e-05 7.84413e-05 -2.06241e-09
-0.000223561 6.70938e-05 6.70573e-05 -1.42354e-06
-0.000186819 5.60741e-05 5.60336e-05 -2.62126e-06
-0.000224755 6.74557e-05 6.7414e-05 -1.40589e-06
-0.000224159 6.72748e-05 6.72359e-05 -1.41618e-06
-0.000260821 7.8282e-05 7.82311e-05 -1.0892e-09
-0.000259418 7.78603e-05 7.78105e-05 -3.19253e-10
-0.000185307 5.56084e-05 5.55853e-05 -2.64354e-06
-0.000186315 5.59173e-05 5.58847e-05 -2.63151e-06
-0.000260121 7.80719e-05 7.8021e-05 -1.82528e-10
-0.00022236 6.67314e-05 6.66979e-05 -1.43162e-06
-0.000185811 5.57623e-05 5.57352e-05 -2.63855e-06
-0.000223561 6.70938e-05 6.70573e-05 -1.42354e-06
-0.000222961 6.69127e-05 6.6878e-05 -1.42841e-06
-0.000259418 7.78603e-05 7.78105e-05 -3.19253e-10
-0.00025801 7.74379e-05 7.73878e-05 -2.16754e-10
-0.000184301 5.5303e-05 5.52847e-05 -2.64939e-06
-0.000185307 5.56084e-05 5.55853e-05 -2.64354e-06
-0.000258714 7.76491e-05 7.75993e-05 -4.65599e-10
-0.000221154 6.63687e-05 6.63365e-05 -1.43532e-06
-0.000184804 5.54554e-05 5.54352e-05 -2.64707e-06
-0.00022236 6.67314e-05 6.66979e-05 -1.43162e-06
-0.000221757 6.655e-05 6.65173e-05 -1.43385e-06
-0.00025801 7.74379e-05 7.73878e-05 -2.16754e-10
-0.000256599 7.70146e-05 7.69649e-05 -6.93871e-11
-0.000183294 5.49993e-05 5.49833e-05 -2.65181e-06
-0.000184301 5.5303e-05 5.52847e-05 -2.64939e-06
-0.000257305 7.72264e-05 7.71764e-05 -3.31391e-11
-0.000219946 6.60059e-05 6.59744e-05 -1.4367e-06
-0.000183797 5.5151e-05 5.51341e-05 -2.65085e-06
-0.000221154 6.63687e-05 6.63365e-05 -1.43532e-06
-0.00022055 6.61873e-05 6.61556e-05 -1.43619e-06
-0.000256599 7.70146e-05 7.69649e-05 -6.93871e-11
-0.000255189 7.65913e-05 7.65417e-05 -2.73332e-11
-0.000182287 5.46966e-05 5.46814e-05 -2.65276e-06
-0.000183294 5.49993e-05 5.49833e-05 -2.65181e-06
-0.000255894 7.68029e-05 7.67533e-05 -8.18488e-11
-0.000218738 6.56432e-05 6.5612e-05 -1.43716e-06
-0.00018279 5.48479e-05 5.48324e-05 -2.65241e-06
-0.000219946 6.60059e-05 6.59744e-05 -1.4367e-06
-0.000219342 6.58246e-05 6.57932e-05 -1.437e-06
-0.000255189 7.65913e-05 7.65417e-05 -2.73332e-11
-0.000253778 7.61679e-05 7.61186e-05 -7.02597e-12
-0.000181279 5.43942e-05 5.43793e-05 -2.65301e-06
-0.000182287 5.46966e-05 5.46814e-05 -2.65276e-06
-0.000254483 7.63796e-05 7.63302e-05 3.62674e-12
-0.000217529 6.52805e-05 6.52494e-05 -1.4372e-06
-0.000181783 5.45454e-05 5.45304e-05 -2.65293e-06
-0.000218738 6.56432e-05 6.5612e-05 -1.43716e-06
-0.000218133 6.54619e-05 6.54307e-05 -1.4372e-06
-0.000253778 7.61679e-05 7.61186e-05 -7.02597e-12
-0.000252367 7.57446e-05 7.56955e-05 2.87072e-12
-0.000180272 5.4092e-05 5.40772e-05 -2.65302e-06
-0.000181279 5.43942e-05 5.43793e-05 -2.65301e-06
-0.000253073 7.59562e-05 7.59071e-05 -6.49786e-12
-0.00021632 6.49178e-05 6.48867e-05 -1.43714e-06
-0.000180776 5.42431e-05 5.42283e-05 -2.65303e-06
-0.000217529 6.52805e-05 6.52494e-05 -1.4372e-06
-0.000216925 6.50992e-05 6.50681e-05 -1.43717e-06
-0.000252367 7.57446e-05 7.56955e-05 2.87072e-12
-0.000250957 7.53213e-05 7.52725e-05 2.63933e-12
-0.000179265 5.37899e-05 5.3775e-05 -2.65295e-06
-0.000180272 5.4092e-05 5.40772e-05 -2.65302e-06
-0.000251662 7.5533e-05 7.5484e-05 6.02676e-12
-0.000215111 6.45552e-05 6.45241e-05 -1.43705e-06
-0.000179768 5.3941e-05 5.39261e-05 -2.65299e-06
-0.00021632 6.49178e-05 6.48867e-05 -1.43714e-06
-0.000215716 6.47365e-05 6.47054e-05 -1.43709e-06
-0.000250957 7.53213e-05 7.52725e-05 2.63933e-12
-0.000249547 7.48981e-05 7.48495e-05 3.75973e-12
-0.000178257 5.34878e-05 5.34727e-05 -2.65288e-06
-0.000179265 5.37899e-05 5.3775e-05 -2.65295e-06
-0.000250252 7.51097e-05 7.5061e-05 2.92308e-12
-0.000213903 6.41925e-05 6.41615e-05 -1.43698e-06
-0.000178761 5.36388e-05 5.36238e-05 -2.65292e-06
-0.000215111 6.45552e-05 6.45241e-05 -1.43705e-06
-0.000214507 6.43739e-05 6.43428e-05 -1.43701e-06
-0.000249547 7.48981e-05 7.48495e-05 3.75973e-12
-0.000248137 7.44749e-05 7.44265e-05 2.17675e-12
-0.00017725 5.31857e-05 5.31705e-05 -2.65283e-06
-0.000178257 5.34878e-05 5.34727e-05 -2.65288e-06
-0.000248842 7.46865e-05 7.4638e-05 3.27639e-12
-0.000212694 6.38299e-05 6.37989e-05 -1.43693e-06
-0.000177754 5.33367e-05 5.33216e-05 -2.65285e-06
-0.000213903 6.41925e-05 6.41615e-05 -1.43698e-06
-0.000213298 6.40112e-05 6.39802e-05 -1.43695e-06
-0.000248137 7.44749e-05 7.44265e-05 2.17675e-12
-0.000246727 7.40518e-05 7.40035e-05 1.89446e-12
-0.000176243 5.28836e-05 5.28682e-05 -2.65279e-06
-0.00017725 5.31857e-05 5.31705e-05 -2.65283e-06
-0.000247432 7.42634e-05 7.4215e-05 2.11303e-12
-0.000211485 6.34672e-05 6.34363e-05 -1.4369e-06
-0.000176746 5.30346e-05 5.30194e-05 -2.65281e-06
-0.000212694 6.38299e-05 6.37989e-05 -1.43693e-06
-0.00021209 6.36486e-05 6.36176e-05 -1.43692e-06
-0.000246727 7.40518e-05 7.40035e-05 1.89446e-12
-0.000245317 7.36286e-05 7.35806e-05 1.11586e-12
-0.000175235 5.25815e-05 5.2566e-05 -2.65277e-06
-0.000176243 5.28836e-05 5.28682e-05 -2.65279e-06
-0.000246022 7.38402e-05 7.3792e-05 1.45657e-12
-0.000210276 6.31046e-05 6.30737e-05 -1.43689e-06
-0.000175739 5.27325e-05 5.27171e-05 -2.65278e-06
-0.000211485 6.34672e-05 6.34363e-05 -1.4369e-06
-0.000210881 6.32859e-05 6.3255e-05 -1.4369e-06
-0.000245317 7.36286e-05 7.35806e-05 1.11586e-12
-0.000243907 7.32055e-05 7.31576e-05 8.80765e-13
-0.000174228 5.22793e-05 5.22638e-05 -2.65276e-06
-0.000175235 5.25815e-05 5.2566e-05 -2.65277e-06
-0.000244612 7.3417e-05 7.33691e-05 1.03111e-12
-0.000209068 6.2742e-05 6.2711e-05 -1.43688e-06
-0.000174732 5.24304e-05 5.24149e-05 -2.65277e-06
-0.000210276 6.31046e-05 6.30737e-05 -1.43689e-06
-0.000209672 6.29233e-05 6.28923e-05 -1.43688e-06
-0.000243907 7.32055e-05 7.31576e-05 8.8408e-13
-0.000242496 7.27823e-05 7.27346e-05 6.03762e-13
-0.000173221 5.19772e-05 5.19615e-05 -2.65276e-06
-0.000174228 5.22793e-05 5.22638e-05 -2.65276e-06
-0.000243201 7.29939e-05 7.29461e-05 7.01796e-13
-0.000207859 6.23793e-05 6.23484e-05 -1.43688e-06
-0.000173724 5.21283e-05 5.21127e-05 -2.65276e-06
-0.000209068 6.2742e-05 6.2711e-05 -1.43688e-06
-0.000208463 6.25607e-05 6.25297e-05 -1.43688e-06
-0.000242496 7.27823e-05 7.27346e-05 6.03762e-13
-0.000241086 7.23592e-05 7.23117e-05 5.06895e-13
-0.000172213 5.16751e-05 5.16593e-05 -2.65276e-06
-0.000173221 5.19772e-05 5.19615e-05 -2.65276e-06
-0.000241791 7.25707e-05 7.25232e-05 5.64952e-13
-0.00020665 6.20167e-05 6.19858e-05 -1.43688e-06
-0.000172717 5.18261e-05 5.18104e-05 -2.65276e-06
-0.000207859 6.23793e-05 6.23484e-05 -1.43688e-06
-0.000207255 6.2198e-05 6.21671e-05 -1.43688e-06
-0.000241086 7.23592e-05 7.23117e-05 5.13527e-13
-0.000239676 7.1936e-05 7.18887e-05 4.34815e-13
-0.000171206 5.1373e-05 5.13571e-05 -2.65276e-06
-0.000172213 5.16751e-05 5.16593e-05 -2.65276e-06
-0.000240381 7.21476e-05 7.21002e-05 4.54937e-13
-0.000205442 6.16541e-05 6.16232e-05 -1.43688e-06
-0.00017171 5.1524e-05 5.15082e-05 -2.65276e-06
-0.00020665 6.20167e-05 6.19858e-05 -1.43688e-06
-0.000206046 6.18354e-05 6.18045e-05 -1.43688e-06
-0.000239676 7.1936e-05 7.18887e-05 4.34815e-13
-0.000238266 7.15129e-05 7.14657e-05 3.96573e-13
-0.000170199 5.10708e-05 5.10548e-05 -2.65276e-06
-0.000171206 5.1373e-05 5.13571e-05 -2.65276e-06
-0.000238971 7.17245e-05 7.16772e-05 4.13853e-13
-0.000204233 6.12915e-05 6.12606e-05 -1.43688e-06
-0.000170702 5.12219e-05 5.12059e-05 -2.65276e-06
-0.000205442 6.16541e-05 6.16232e-05 -1.43688e-06
-0.000204837 6.14728e-05 6.14419e-05 -1.43688e-06
-0.000238266 7.15129e-05 7.14657e-05 3.96571e-13
-0.000236856 7.10897e-05 7.10428e-05 3.84207e-13
-0.000169191 5.07687e-05 5.07526e-05 -2.65276e-06
-0.000170199 5.10708e-05 5.10548e-05 -2.65276e-06
-0.000237561 7.13013e-05 7.12543e-05 3.84823e-13
-0.000203024 6.09288e-05 6.0898e-05 -1.43688e-06
-0.000169695 5.09198e-05 5.09037e-05 -2.65276e-06
-0.000204233 6.12915e-05 6.12606e-05 -1.43688e-06
-0.000203629 6.11101e-05 6.10793e-05 -1.43688e-06
-0.000236856 7.10897e-05 7.10428e-05 3.84207e-13
-0.000235446 7.06666e-05 7.06198e-05 3.75517e-13
-0.000168184 5.04666e-05 5.04504e-05 -2.65276e-06
-0.000169191 5.07687e-05 5.07526e-05 -2.65276e-06
-0.000236151 7.08782e-05 7.08313e-05 3.79644e-13
-0.000201816 6.05662e-05 6.05354e-05 -1.43688e-06
-0.000168688 5.06177e-05 5.06015e-05 -2.65276e-06
-0.000203024 6.09288e-05 6.0898e-05 -1.43688e-06
-0.00020242 6.07475e-05 6.07167e-05 -1.43688e-06
-0.000235446 7.06666e-05 7.06198e-05 3.72202e-13
-0.000234036 7.02435e-05 7.01969e-05 3.64472e-13
-0.000167177 5.01645e-05 5.01481e-05 -2.65276e-06
-0.000168184 5.04666e-05 5.04504e-05 -2.65276e-06
-0.000234741 7.0455e-05 7.04083e-05 3.72867e-13
-0.000200607 6.02036e-05 6.01728e-05 -1.43688e-06
-0.00016768 5.03155e-05 5.02992e-05 -2.65276e-06
-0.000201816 6.05662e-05 6.05354e-05 -1.43688e-06
-0.000201211 6.03849e-05 6.03541e-05 -1.43688e-06
-0.000234036 7.02435e-05 7.01969e-05 3.64472e-13
-0.000232626 6.98203e-05 6.97739e-05 3.57019e-13
-0.000166169 4.98623e-05 4.98459e-05 -2.65276e-06
-0.000167177 5.01645e-05 5.01481e-05 -2.65276e-06
-0.000233331 7.00319e-05 6.99854e-05 3.58318e-13
-0.000199398 5.9841e-05 5.98102e-05 -1.43688e-06
-0.000166673 5.00134e-05 4.9997e-05 -2.65276e-06
-0.000200607 6.02036e-05 6.01728e-05 -1.43688e-06
-0.000200002 6.00223e-05 5.99915e-05 -1.43688e-06
-0.000232626 6.98203e-05 6.97739e-05 3.59506e-13
-0.000231216 6.93972e-05 6.93509e-05 3.52147e-13
-0.000165162 4.95602e-05 4.95436e-05 -2.65277e-06
-0.000166169 4.98623e-05 4.98459e-05 -2.65276e-06
-0.000231921 6.96088e-05 6.95624e-05 3.5728e-13
-0.000198189 5.94783e-05 5.94476e-05 -1.43688e-06
-0.000165666 4.97113e-05 4.96948e-05 -2.65277e-06
-0.000199398 5.9841e-05 5.98102e-05 -1.43688e-06
-0.000198794 5.96596e-05 5.96289e-05 -1.43688e-06
-0.000231216 6.93972e-05 6.93509e-05 3.52147e-13
-0.000229806 6.89741e-05 6.8928e-05 3.5246e-13
-0.000164155 4.92581e-05 4.92414e-05 -2.65277e-06
-0.000165162 4.95602e-05 4.95436e-05 -2.65277e-06
-0.000230511 6.91856e-05 6.91394e-05 3.50564e-13
-0.000196981 5.91157e-05 5.9085e-05 -1.43688e-06
-0.000164658 4.94092e-05 4.93925e-05 -2.65277e-06
-0.000198189 5.94783e-05 5.94476e-05 -1.43688e-06
-0.000197585 5.9297e-05 5.92663e-05 -1.43688e-06
-0.000229806 6.89741e-05 6.8928e-05 3.5329e-13
-0.000228396 6.85509e-05 6.8505e-05 3.43302e-13
-0.000163147 4.8956e-05 4.89392e-05 -2.65277e-06
-0.000164155 4.92581e-05 4.92414e-05 -2.65277e-06
-0.000229101 6.87625e-05 6.87165e-05 3.50667e-13
-0.000195772 5.87531e-05 5.87224e-05 -1.43689e-06
-0.000163651 4.9107e-05 4.90903e-05 -2.65277e-06
-0.000196981 5.91157e-05 5.9085e-05 -1.43688e-06
-0.000196376 5.89344e-05 5.89037e-05 -1.43689e-06
-0.000228396 6.85509e-05 6.8505e-05 3.43302e-13
-0.000226986 6.81278e-05 6.8082e-05 3.38606e-13
-0.00016214 4.86539e-05 4.86369e-05 -2.65277e-06
-0.000163147 4.8956e-05 4.89392e-05 -2.65277e-06
-0.000227691 6.83394e-05 6.82935e-05 3.41568e-13
-0.000194563 5.83905e-05 5.83598e-05 -1.43689e-06
-0.000162644 4.88049e-05 4.87881e-05 -2.65277e-06
-0.000195772 5.87531e-05 5.87224e-05 -1.43689e-06
-0.000195168 5.85718e-05 5.85411e-05 -1.43689e-06
-0.000226986 6.81278e-05 6.8082e-05 3.48555e-13
-0.000225576 6.77047e-05 6.7659e-05 3.47169e-13
-0.000161133 4.83517e-05 4.83347e-05 -2.65277e-06
-0.00016214 4.86539e-05 4.86369e-05 -2.65277e-06
-0.000226281 6.79162e-05 6.78705e-05 3.50168e-13
-0.000193355 5.80278e-05 5.79972e-05 -1.43689e-06
-0.000161636 4.85028e-05 4.84858e-05 -2.65277e-06
-0.000194563 5.83905e-05 5.83598e-05 -1.43689e-06
-0.000193959 5.82092e-05 5.81785e-05 -1.43689e-06
-0.000225576 6.77047e-05 6.7659e-05 3.47169e-13
-0.000224166 6.72816e-05 6.72361e-05 3.35573e-13
-0.000160125 4.80496e-05 4.80325e-05 -2.65277e-06
-0.000161133 4.83517e-05 4.83347e-05 -2.65277e-06
-0.000224871 6.74931e-05 6.74476e-05 3.4418e-13
-0.000192146 5.76652e-05 5.76346e-05 -1.43689e-06
-0.000160629 4.82007e-05 4.81836e-05 -2.65277e-06
-0.000193355 5.80278e-05 5.79972e-05 -1.43689e-06
-0.00019275 5.78465e-05 5.78159e-05 -1.43689e-06
-0.000224166 6.72816e-05 6.72361e-05 3.38061e-13
-0.000222756 6.68584e-05 6.68131e-05 3.33839e-13
-0.000159118 4.77475e-05 4.77302e-05 -2.65278e-06
-0.000160125 4.80496e-05 4.80325e-05 -2.65277e-06
-0.000223461 6.707e-05 6.70246e-05 3.36061e-13
-0.000190937 5.73026e-05 5.7272e-05 -1.43689e-06
-0.000159622 4.78986e-05 4.78813e-05 -2.65278e-06
-0.000192146 5.76652e-05 5.76346e-05 -1.43689e-06
-0.000191542 5.74839e-05 5.74533e-05 -1.43689e-06
-0.000222756 6.68584e-05 6.68131e-05 3.33839e-13
-0.000221346 6.64353e-05 6.63901e-05 3.29055e-13
-0.000158111 4.74454e-05 4.7428e-05 -2.65278e-06
-0.000159118 4.77475e-05 4.77302e-05 -2.65278e-06
-0.000222051 6.66469e-05 6.66016e-05 3.26168e-13
-0.000189728 5.694e-05 5.69094e-05 -1.43689e-06
-0.000158614 4.75964e-05 4.75791e-05 -2.65278e-06
-0.000190937 5.73026e-05 5.7272e-05 -1.43689e-06
-0.000190333 5.71213e-05 5.70907e-05 -1.43689e-06
-0.000221346 6.64353e-05 6.63901e-05 3.29055e-13
-0.000219936 6.60122e-05 6.59672e-05 3.2485e-13
-0.000157103 4.71433e-05 4.71257e-05 -2.65278e-06
-0.000158111 4.74454e-05 4.7428e-05 -2.65278e-06
-0.000220641 6.62237e-05 6.61786e-05 3.2744e-13
-0.00018852 5.65774e-05 5.65467e-05 -1.43689e-06
-0.000157607 4.72943e-05 4.72769e-05 -2.65278e-06
-0.000189728 5.694e-05 5.69094e-05 -1.43689e-06
-0.000189124 5.67587e-05 5.67281e-05 -1.43689e-06
-0.000219936 6.60122e-05 6.59672e-05 3.18223e-13
-0.000218525 6.55891e-05 6.55442e-05 3.2581e-13
-0.000156096 4.68412e-05 4.68235e-05 -2.65278e-06
-0.000157103 4.71433e-05 4.71257e-05 -2.65278e-06
-0.000219231 6.58006e-05 6.57557e-05 3.34005e-13
-0.000187311 5.62148e-05 5.61841e-05 -1.43689e-06
-0.0001566 4.69922e-05 4.69746e-05 -2.65278e-06
-0.00018852 5.65774e-05 5.65467e-05 -1.43689e-06
-0.000187915 5.63961e-05 5.63654e-05 -1.43689e-06
-0.000218525 6.55891e-05 6.55442e-05 3.2581e-13
-0.000217115 6.51659e-05 6.51212e-05 3.2369e-13
-0.000155089 4.6539e-05 4.65213e-05 -2.65278e-06
-0.000156096 4.68412e-05 4.68235e-05 -2.65278e-06
-0.00021782 6.53775e-05 6.53327e-05 3.26414e-13
-0.000186102 5.58521e-05 5.58215e-05 -1.43689e-06
-0.000155592 4.66901e-05 4.66724e-05 -2.65278e-06
-0.000187311 5.62148e-05 5.61841e-05 -1.43689e-06
-0.000186707 5.60335e-05 5.60028e-05 -1.43689e-06
-0.000217115 6.51659e-05 6.51212e-05 3.23697e-13
-0.000215705 6.47428e-05 6.46982e-05 3.10481e-13
-0.000154081 4.62369e-05 4.6219e-05 -2.65278e-06
-0.000155089 4.6539e-05 4.65213e-05 -2.65278e-06
-0.00021641 6.49544e-05 6.49097e-05 3.13846e-13
-0.000184894 5.54895e-05 5.54589e-05 -1.4369e-06
-0.000154585 4.6388e-05 4.63701e-05 -2.65278e-06
-0.000186102 5.58521e-05 5.58215e-05 -1.43689e-06
-0.000185498 5.56708e-05 5.56402e-05 -1.43689e-06
-0.000215705 6.47428e-05 6.46982e-05 3.10481e-13
-0.000214295 6.43197e-05 6.42753e-05 2.99435e-13
-0.000153074 4.59348e-05 4.59168e-05 -2.65279e-06
-0.000154081 4.62369e-05 4.6219e-05 -2.65278e-06
-0.000215 6.45312e-05 6.44868e-05 3.10762e-13
-0.000183685 5.51269e-05 5.50963e-05 -1.4369e-06
-0.000153578 4.60859e-05 4.60679e-05 -2.65279e-06
-0.000184894 5.54895e-05 5.54589e-05 -1.4369e-06
-0.000184289 5.53082e-05 5.52776e-05 -1.4369e-06
-0.000214295 6.43197e-05 6.42753e-05 3.06063e-13
-0.000212885 6.38966e-05 6.38523e-05 3.08008e-13
-0.000152067 4.56327e-05 4.56146e-05 -2.65279e-06
-0.000153074 4.59348e-05 4.59168e-05 -2.65279e-06
-0.00021359 6.41081e-05 6.40638e-05 3.03258e-13
-0.000182476 5.47643e-05 5.47337e-05 -1.4369e-06
-0.00015257 4.57838e-05 4.57657e-05 -2.65279e-06
-0.000183685 5.51269e-05 5.50963e-05 -1.4369e-06
-0.000183081 5.49456e-05 5.4915e-05 -1.4369e-06
-0.000212885 6.38966e-05 6.38523e-05 3.08008e-13
-0.000211475 6.34735e-05 6.34293e-05 2.97238e-13
-0.000151059 4.53306e-05 4.53123e-05 -2.65279e-06
-0.000152067 4.56327e-05 4.56146e-05 -2.65279e-06
-0.00021218 6.3685e-05 6.36408e-05 3.13308e-13
-0.000181268 5.44017e-05 5.43711e-05 -1.4369e-06
-0.000151563 4.54816e-05 4.54634e-05 -2.65279e-06
-0.000182476 5.47643e-05 5.47337e-05 -1.4369e-06
-0.000181872 5.4583e-05 5.45524e-05 -1.4369e-06
-0.000211475 6.34735e-05 6.34293e-05 2.9724e-13
-0.000210065 6.30503e-05 6.30063e-05 2.93215e-13
-0.000150052 4.50285e-05 4.50101e-05 -2.65279e-06
-0.000151059 4.53306e-05 4.53123e-05 -2.65279e-06
-0.00021077 6.32619e-05 6.32178e-05 2.89538e-13
-0.000180059 5.40391e-05 5.40085e-05 -1.4369e-06
-0.000150556 4.51795e-05 4.51612e-05 -2.65279e-06
-0.000181268 5.44017e-05 5.43711e-05 -1.4369e-06
-0.000180663 5.42204e-05 5.41898e-05 -1.4369e-06
-0.000210065 6.30503e-05 6.30063e-05 2.93215e-13
-0.000208655 6.26272e-05 6.25834e-05 2.92481e-13
-0.000149045 4.47264e-05 4.47078e-05 -2.65279e-06
-0.000150052 4.50285e-05 4.50101e-05 -2.65279e-06
-0.00020936 6.28388e-05 6.27949e-05 2.93879e-13
-0.00017885 5.36765e-05 5.36459e-05 -1.4369e-06
-0.000149548 4.48774e-05 4.4859e-05 -2.65279e-06
-0.000180059 5.40391e-05 5.40085e-05 -1.4369e-06
-0.000179455 5.38578e-05 5.38272e-05 -1.4369e-06
-0.000208655 6.26272e-05 6.25834e-05 2.92482e-13
-0.000207245 6.22041e-05 6.21604e-05 2.74826e-13
-0.000148037 4.44242e-05 4.44056e-05 -2.65279e-06
-0.000149045 4.47264e-05 4.47078e-05 -2.65279e-06
-0.00020795 6.24157e-05 6.23719e-05 2.94193e-13
-0.000177641 5.33139e-05 5.32833e-05 -1.4369e-06
-0.000148541 4.45753e-05 4.45567e-05 -2.65279e-06
-0.00017885 5.36765e-05 5.36459e-05 -1.4369e-06
-0.000178246 5.34952e-05 5.34646e-05 -1.4369e-06
-0.000207245 6.22041e-05 6.21604e-05 2.74826e-13
-0.000205835 6.1781e-05 6.17374e-05 2.77573e-13
-0.00014703 4.41221e-05 4.41034e-05 -2.6528e-06
-0.000148037 4.44242e-05 4.44056e-05 -2.65279e-06
-0.00020654 6.19925e-05 6.19489e-05 2.8264e-13
-0.000176433 5.29513e-05 5.29206e-05 -1.4369e-06
-0.000147534 4.42732e-05 4.42545e-05 -2.65279e-06
-0.000177641 5.33139e-05 5.32833e-05 -1.4369e-06
-0.000177037 5.31326e-05 5.3102e-05 -1.4369e-06
-0.000205835 6.1781e-05 6.17374e-05 2.77573e-13
-0.000204425 6.13579e-05 6.13144e-05 2.74049e-13
-0.000146023 4.382e-05 4.38011e-05 -2.6528e-06
-0.00014703 4.41221e-05 4.41034e-05 -2.6528e-06
-0.00020513 6.15694e-05 6.15259e-05 2.80583e-13
-0.000175224 5.25886e-05 5.2558e-05 -1.4369e-06
-0.000146526 4.39711e-05 4.39522e-05 -2.6528e-06
-0.000176433 5.29513e-05 5.29206e-05 -1.4369e-06
-0.000175828 5.277e-05 5.27393e-05 -1.4369e-06
-0.000204425 6.13579e-05 6.13144e-05 2.74049e-13
-0.000203015 6.09348e-05 6.08915e-05 2.74027e-13
-0.000145015 4.35179e-05 4.34989e-05 -2.6528e-06
-0.000146023 4.382e-05 4.38011e-05 -2.6528e-06
-0.00020372 6.11463e-05 6.11029e-05 2.83664e-13
-0.000174015 5.2226e-05 5.21954e-05 -1.4369e-06
-0.000145519 4.3669e-05 4.365e-05 -2.6528e-06
-0.000175224 5.25886e-05 5.2558e-05 -1.4369e-06
-0.00017462 5.24073e-05 5.23767e-05 -1.4369e-06
-0.000203015 6.09348e-05 6.08915e-05 2.80659e-13
-0.000201605 6.05117e-05 6.04685e-05 2.71295e-13
-0.000144008 4.32158e-05 4.31967e-05 -2.6528e-06
-0.000145015 4.35179e-05 4.34989e-05 -2.6528e-06
-0.00020231 6.07232e-05 6.068e-05 2.69309e-13
-0.000172807 5.18634e-05 5.18328e-05 -1.43691e-06
-0.000144512 4.33668e-05 4.33478e-05 -2.6528e-06
-0.000174015 5.2226e-05 5.21954e-05 -1.4369e-06
-0.000173411 5.20447e-05 5.20141e-05 -1.43691e-06
-0.000201605 6.05117e-05 6.04685e-05 2.71295e-13
-0.000200195 6.00885e-05 6.00455e-05 2.67926e-13
-0.000143001 4.29137e-05 4.28944e-05 -2.6528e-06
-0.000144008 4.32158e-05 4.31967e-05 -2.6528e-06
-0.0002009 6.03001e-05 6.0257e-05 2.56335e-13
-0.000171598 5.15008e-05 5.14702e-05 -1.43691e-06
-0.000143504 4.30647e-05 4.30455e-05 -2.6528e-06
-0.000172807 5.18634e-05 5.18328e-05 -1.43691e-06
-0.000172202 5.16821e-05 5.16515e-05 -1.43691e-06
-0.000200195 6.00885e-05 6.00455e-05 2.67926e-13
-0.000198785 5.96654e-05 5.96225e-05 2.63745e-13
-0.000141993 4.26116e-05 4.25922e-05 -2.6528e-06
-0.000143001 4.29137e-05 4.28944e-05 -2.6528e-06
-0.00019949 5.9877e-05 5.9834e-05 2.65646e-13
-0.000170389 5.11382e-05 5.11076e-05 -1.43691e-06
-0.000142497 4.27626e-05 4.27433e-05 -2.6528e-06
-0.000171598 5.15008e-05 5.14702e-05 -1.43691e-06
-0.000170994 5.13195e-05 5.12889e-05 -1.43691e-06
-0.000198785 5.96654e-05 5.96225e-05 2.57106e-13
-0.000197375 5.92423e-05 5.91995e-05 2.69206e-13
-0.000140986 4.23095e-05 4.229e-05 -2.65281e-06
-0.000141993 4.26116e-05 4.25922e-05 -2.6528e-06
-0.00019808 5.94539e-05 5.9411e-05 2.56375e-13
-0.000169181 5.07756e-05 5.0745e-05 -1.43691e-06
-0.00014149 4.24605e-05 4.24411e-05 -2.6528e-06
-0.000170389 5.11382e-05 5.11076e-05 -1.43691e-06
-0.000169785 5.09569e-05 5.09263e-05 -1.43691e-06
-0.000197375 5.92423e-05 5.91995e-05 2.55948e-13
-0.000195965 5.88192e-05 5.87766e-05 2.49527e-13
-0.000139979 4.20073e-05 4.19877e-05 -2.65281e-06
-0.000140986 4.23095e-05 4.229e-05 -2.65281e-06
-0.00019667 5.90308e-05 5.89881e-05 2.41143e-13
-0.000167972 5.0413e-05 5.03824e-05 -1.43691e-06
-0.000140482 4.21584e-05 4.21388e-05 -2.65281e-06
-0.000169181 5.07756e-05 5.0745e-05 -1.43691e-06
-0.000168576 5.05943e-05 5.05637e-05 -1.43691e-06
-0.000195965 5.88192e-05 5.87766e-05 2.49527e-13
-0.000194554 5.83961e-05 5.83536e-05 2.56329e-13
-0.000138971 4.17052e-05 4.16855e-05 -2.65281e-06
-0.000139979 4.20073e-05 4.19877e-05 -2.65281e-06
-0.00019526 5.86077e-05 5.85651e-05 2.38626e-13
-0.000166763 5.00504e-05 5.00198e-05 -1.43691e-06
-0.000139475 4.18563e-05 4.18366e-05 -2.65281e-06
-0.000167972 5.0413e-05 5.03824e-05 -1.43691e-06
-0.000167368 5.02317e-05 5.02011e-05 -1.43691e-06
-0.000194554 5.83961e-05 5.83536e-05 2.56329e-13
-0.000193144 5.7973e-05 5.79306e-05 2.48458e-13
-0.000137964 4.14031e-05 4.13832e-05 -2.65281e-06
-0.000138971 4.17052e-05 4.16855e-05 -2.65281e-06
-0.000193849 5.81846e-05 5.81421e-05 2.40302e-13
-0.000165554 4.96878e-05 4.96572e-05 -1.43691e-06
-0.000138468 4.15542e-05 4.15344e-05 -2.65281e-06
-0.000166763 5.00504e-05 5.00198e-05 -1.43691e-06
-0.000166159 4.98691e-05 4.98385e-05 -1.43691e-06
-0.000193144 5.7973e-05 5.79306e-05 2.41831e-13
-0.000191734 5.75499e-05 5.75076e-05 2.39451e-13
-0.000136957 4.1101e-05 4.1081e-05 -2.65281e-06
-0.000137964 4.14031e-05 4.13832e-05 -2.65281e-06
-0.000192439 5.77614e-05 5.77191e-05 2.33943e-13
-0.000164346 4.93252e-05 4.92945e-05 -1.43691e-06
-0.00013746 4.12521e-05 4.12321e-05 -2.65281e-06
-0.000165554 4.96878e-05 4.96572e-05 -1.43691e-06
-0.00016495 4.95065e-05 4.94759e-05 -1.43691e-06
-0.000191734 5.75499e-05 5.75076e-05 2.51057e-13
-0.000190324 5.71268e-05 5.70847e-05 2.4299e-13
-0.000135949 4.07989e-05 4.07788e-05 -2.65281e-06
-0.000136957 4.1101e-05 4.1081e-05 -2.65281e-06
-0.000191029 5.73383e-05 5.72961e-05 2.39402e-13
-0.000163137 4.89626e-05 4.89319e-05 -1.43691e-06
-0.000136453 4.09499e-05 4.09299e-05 -2.65281e-06
-0.000164346 4.93252e-05 4.92945e-05 -1.43691e-06
-0.000163741 4.91439e-05 4.91132e-05 -1.43691e-06
-0.000190324 5.71268e-05 5.70847e-05 2.4299e-13
-0.000188914 5.67037e-05 5.66617e-05 2.38633e-13
-0.000134942 4.04968e-05 4.04765e-05 -2.65281e-06
-0.000135949 4.07989e-05 4.07788e-05 -2.65281e-06
-0.000189619 5.69152e-05 5.68732e-05 2.31563e-13
-0.000161928 4.86e-05 4.85693e-05 -1.43692e-06
-0.000135446 4.06478e-05 4.06277e-05 -2.65281e-06
-0.000163137 4.89626e-05 4.89319e-05 -1.43691e-06
-0.000162533 4.87813e-05 4.87506e-05 -1.43691e-06
-0.000188914 5.67037e-05 5.66617e-05 2.38633e-13
-0.000187504 5.62806e-05 5.62387e-05 2.28987e-13
-0.000133935 4.01947e-05 4.01743e-05 -2.65282e-06
-0.000134942 4.04968e-05 4.04765e-05 -2.65281e-06
-0.000188209 5.64921e-05 5.64502e-05 2.31336e-13
-0.00016072 4.82374e-05 4.82067e-05 -1.43692e-06
-0.000134438 4.03457e-05 4.03254e-05 -2.65282e-06
-0.000161928 4.86e-05 4.85693e-05 -1.43692e-06
-0.000161324 4.84187e-05 4.8388e-05 -1.43692e-06
-0.000187504 5.62806e-05 5.62387e-05 2.28989e-13
-0.000186094 5.58575e-05 5.58157e-05 2.31305e-13
-0.000132927 3.98926e-05 3.98721e-05 -2.65282e-06
-0.000133935 4.01947e-05 4.01743e-05 -2.65282e-06
-0.000186799 5.6069e-05 5.60272e-05 2.26523e-13
-0.000159511 4.78748e-05 4.78441e-05 -1.43692e-06
-0.000133431 4.00436e-05 4.00232e-05 -2.65282e-06
-0.00016072 4.82374e-05 4.82067e-05 -1.43692e-06
-0.000160115 4.80561e-05 4.80254e-05 -1.43692e-06
-0.000186094 5.58575e-05 5.58157e-05 2.18049e-13
-0.000184684 5.54344e-05 5.53927e-05 2.25989e-13
-0.00013192 3.95904e-05 3.95699e-05 -2.65282e-06
-0.000132927 3.98926e-05 3.98721e-05 -2.65282e-06
-0.000185389 5.56459e-05 5.56042e-05 2.28593e-13
-0.000158302 4.75122e-05 4.74815e-05 -1.43692e-06
-0.000132424 3.97415e-05 3.9721e-05 -2.65282e-06
-0.000159511 4.78748e-05 4.78441e-05 -1.43692e-06
-0.000158907 4.76935e-05 4.76628e-05 -1.43692e-06
-0.000184684 5.54344e-05 5.53927e-05 2.25989e-13
-0.000183274 5.50113e-05 5.49698e-05 2.15211e-13
-0.000130913 3.92883e-05 3.92676e-05 -2.65282e-06
-0.00013192 3.95904e-05 3.95699e-05 -2.65282e-06
-0.000183979 5.52228e-05 5.51812e-05 2.15621e-13
-0.000157094 4.71496e-05 4.71189e-05 -1.43692e-06
-0.000131416 3.94394e-05 3.94187e-05 -2.65282e-06
-0.000158302 4.75122e-05 4.74815e-05 -1.43692e-06
-0.000157698 4.73309e-05 4.73002e-05 -1.43692e-06
-0.000183274 5.50113e-05 5.49698e-05 2.15211e-13
-0.000181864 5.45882e-05 5.45468e-05 2.14905e-13
-0.000129905 3.89862e-05 3.89654e-05 -2.65282e-06
-0.000130913 3.92883e-05 3.92676e-05 -2.65282e-06
-0.000182569 5.47997e-05 5.47583e-05 2.03968e-13
-0.000155885 4.6787e-05 4.67563e-05 -1.43692e-06
-0.000130409 3.91373e-05 3.91165e-05 -2.65282e-06
-0.000157094 4.71496e-05 4.71189e-05 -1.43692e-06
-0.000156489 4.69683e-05 4.69376e-05 -1.43692e-06
-0.000181864 5.45882e-05 5.45468e-05 2.14901e-13
-0.000180454 5.41651e-05 5.41238e-05 2.08263e-13
-0.000128898 3.86841e-05 3.86632e-05 -2.65282e-06
-0.000129905 3.89862e-05 3.89654e-05 -2.65282e-06
-0.000181159 5.43766e-05 5.43353e-05 1.98992e-13
-0.000154676 4.64244e-05 4.63937e-05 -1.43692e-06
-0.000129402 3.88352e-05 3.88143e-05 -2.65282e-06
-0.000155885 4.6787e-05 4.67563e-05 -1.43692e-06
-0.000155281 4.66057e-05 4.6575e-05 -1.43692e-06
-0.000180454 5.41651e-05 5.41238e-05 2.01637e-13
-0.000179044 5.3742e-05 5.37008e-05 2.02191e-13
-0.000127891 3.8382e-05 3.83609e-05 -2.65283e-06
-0.000128898 3.86841e-05 3.86632e-05 -2.65282e-06
-0.000179749 5.39535e-05 5.39123e-05 1.98206e-13
-0.000153468 4.60617e-05 4.60311e-05 -1.43692e-06
-0.000128394 3.8533e-05 3.8512e-05 -2.65282e-06
-0.000154676 4.64244e-05 4.63937e-05 -1.43692e-06
-0.000154072 4.6243e-05 4.62124e-05 -1.43692e-06
-0.000179044 5.3742e-05 5.37008e-05 2.02191e-13
-0.000177634 5.33189e-05 5.32778e-05 1.97839e-13
-0.000126884 3.80799e-05 3.80587e-05 -2.65283e-06
-0.000127891 3.8382e-05 3.83609e-05 -2.65283e-06
-0.000178339 5.35304e-05 5.34893e-05 1.95205e-13
-0.000152259 4.56991e-05 4.56685e-05 -1.43692e-06
-0.000127387 3.82309e-05 3.82098e-05 -2.65283e-06
-0.000153468 4.60617e-05 4.60311e-05 -1.43692e-06
-0.000152863 4.58804e-05 4.58498e-05 -1.43692e-06
-0.000177634 5.33189e-05 5.32778e-05 1.97839e-13
-0.000176224 5.28958e-05 5.28549e-05 1.96436e-13
-0.000125876 3.77778e-05 3.77565e-05 -2.65283e-06
-0.000126884 3.80799e-05 3.80587e-05 -2.65283e-06
-0.000176929 5.31073e-05 5.30663e-05 2.02868e-13
-0.00015105 4.53365e-05 4.53059e-05 -1.43692e-06
-0.00012638 3.79288e-05 3.79076e-05 -2.65283e-06
-0.000152259 4.56991e-05 4.56685e-05 -1.43692e-06
-0.000151655 4.55178e-05 4.54872e-05 -1.43692e-06
-0.000176224 5.28958e-05 5.28549e-05 1.91463e-13
-0.000174814 5.24727e-05 5.24319e-05 1.95198e-13
-0.000124869 3.74756e-05 3.74543e-05 -2.65283e-06
-0.000125876 3.77778e-05 3.77565e-05 -2.65283e-06
-0.000175519 5.26842e-05 5.26434e-05 2.02078e-13
-0.000149842 4.49739e-05 4.49433e-05 -1.43693e-06
-0.000125373 3.76267e-05 3.76054e-05 -2.65283e-06
-0.00015105 4.53365e-05 4.53059e-05 -1.43692e-06
-0.000150446 4.51552e-05 4.51246e-05 -1.43693e-06
-0.000174814 5.24727e-05 5.24319e-05 1.93541e-13
-0.000173404 5.20496e-05 5.20089e-05 2.0687e-13
-0.000123862 3.71735e-05 3.7152e-05 -2.65283e-06
-0.000124869 3.74756e-05 3.74543e-05 -2.65283e-06
-0.000174109 5.22611e-05 5.22204e-05 1.99432e-13
-0.000148633 4.46113e-05 4.45806e-05 -1.43693e-06
-0.000124365 3.73246e-05 3.73031e-05 -2.65283e-06
-0.000149842 4.49739e-05 4.49433e-05 -1.43693e-06
-0.000149237 4.47926e-05 4.47619e-05 -1.43693e-06
-0.000173404 5.20496e-05 5.20089e-05 2.0687e-13
-0.000171994 5.16265e-05 5.15859e-05 1.92789e-13
-0.000122854 3.68714e-05 3.68498e-05 -2.65283e-06
-0.000123862 3.71735e-05 3.7152e-05 -2.65283e-06
-0.000172699 5.1838e-05 5.17974e-05 2.10585e-13
-0.000147424 4.42487e-05 4.4218e-05 -1.43693e-06
-0.000123358 3.70225e-05 3.70009e-05 -2.65283e-06
-0.000148633 4.46113e-05 4.45806e-05 -1.43693e-06
-0.000148028 4.443e-05 4.43993e-05 -1.43693e-06
-0.000171994 5.16265e-05 5.15859e-05 1.92789e-13
-0.000170584 5.12034e-05 5.11629e-05 1.86831e-13
-0.000121847 3.65693e-05 3.65476e-05 -2.65283e-06
-0.000122854 3.68714e-05 3.68498e-05 -2.65283e-06
-0.000171289 5.14149e-05 5.13744e-05 1.90488e-13
-0.000146215 4.38861e-05 4.38554e-05 -1.43693e-06
-0.000122351 3.67204e-05 3.66987e-05 -2.65283e-06
-0.000147424 4.42487e-05 4.4218e-05 -1.43693e-06
-0.00014682 4.40674e-05 4.40367e-05 -1.43693e-06
-0.000170584 5.12034e-05 5.11629e-05 1.75226e-13
-0.000169174 5.07803e-05 5.074e-05 1.78611e-13
-0.00012084 3.62672e-05 3.62453e-05 -2.65284e-06
-0.000121847 3.65693e-05 3.65476e-05 -2.65283e-06
-0.000169879 5.09918e-05 5.09514e-05 1.82826e-13
-0.000145007 4.35235e-05 4.34928e-05 -1.43693e-06
-0.000121343 3.64182e-05 3.63965e-05 -2.65284e-06
-0.000146215 4.38861e-05 4.38554e-05 -1.43693e-06
-0.000145611 4.37048e-05 4.36741e-05 -1.43693e-06
-0.000169174 5.07803e-05 5.074e-05 1.7031e-13
-0.000167763 5.03572e-05 5.0317e-05 1.84652e-13
-0.000119832 3.59651e-05 3.59431e-05 -2.65284e-06
-0.00012084 3.62672e-05 3.62453e-05 -2.65284e-06
-0.000168468 5.05687e-05 5.05285e-05 1.94751e-13
-0.000143798 4.31609e-05 4.31302e-05 -1.43693e-06
-0.000120336 3.61161e-05 3.60942e-05 -2.65284e-06
-0.000145007 4.35235e-05 4.34928e-05 -1.43693e-06
-0.000144402 4.33422e-05 4.33115e-05 -1.43693e-06
-0.000167763 5.03572e-05 5.0317e-05 1.84652e-13
-0.000166353 4.99341e-05 4.9894e-05 1.77704e-13
-0.000118825 3.5663e-05 3.56409e-05 -2.65284e-06
-0.000119832 3.59651e-05 3.59431e-05 -2.65284e-06
-0.000167058 5.01456e-05 5.01055e-05 1.56402e-13
-0.000142589 4.27983e-05 4.27676e-05 -1.43693e-06
-0.000119329 3.5814e-05 3.5792e-05 -2.65284e-06
-0.000143798 4.31609e-05 4.31302e-05 -1.43693e-06
-0.000143194 4.29796e-05 4.29489e-05 -1.43693e-06
-0.000166353 4.99341e-05 4.9894e-05 1.77704e-13
-0.000164943 4.9511e-05 4.9471e-05 1.59197e-13
-0.000117818 3.53608e-05 3.53387e-05 -2.65284e-06
-0.000118825 3.5663e-05 3.56409e-05 -2.65284e-06
-0.000165648 4.97225e-05 4.96825e-05 1.88035e-13
-0.000141381 4.24357e-05 4.2405e-05 -1.43693e-06
-0.000118321 3.55119e-05 3.54898e-05 -2.65284e-06
-0.000142589 4.27983e-05 4.27676e-05 -1.43693e-06
-0.000141985 4.2617e-05 4.25863e-05 -1.43693e-06
-0.000164943 4.9511e-05 4.9471e-05 1.59194e-13
-0.000163533 4.90879e-05 4.9048e-05 1.47363e-13
-0.00011681 3.50587e-05 3.50365e-05 -2.65284e-06
-0.000117818 3.53608e-05 3.53387e-05 -2.65284e-06
-0.000164238 4.92994e-05 4.92595e-05 1.58573e-13
-0.000140172 4.20731e-05 4.20424e-05 -1.43693e-06
-0.000117314 3.52098e-05 3.51876e-05 -2.65284e-06
-0.000141381 4.24357e-05 4.2405e-05 -1.43693e-06
-0.000140776 4.22544e-05 4.22237e-05 -1.43693e-06
-0.000163533 4.90879e-05 4.9048e-05 1.55643e-13
-0.000162123 4.86648e-05 4.86251e-05 1.72191e-13
-0.000115803 3.47566e-05 3.47342e-05 -2.65284e-06
-0.00011681 3.50587e-05 3.50365e-05 -2.65284e-06
-0.000162828 4.88763e-05 4.88366e-05 1.64383e-13
-0.000138963 4.17105e-05 4.16798e-05 -1.43694e-06
-0.000116307 3.49077e-05 3.48853e-05 -2.65284e-06
-0.000140172 4.20731e-05 4.20424e-05 -1.43693e-06
-0.000139568 4.18918e-05 4.18611e-05 -1.43693e-06
-0.000162123 4.86648e-05 4.86251e-05 1.72191e-13
-0.000160713 4.82417e-05 4.82021e-05 1.62224e-13
-0.000114796 3.44545e-05 3.4432e-05 -2.65285e-06
-0.000115803 3.47566e-05 3.47342e-05 -2.65284e-06
-0.000161418 4.84532e-05 4.84136e-05 1.59922e-13
-0.000137755 4.13479e-05 4.13172e-05 -1.43694e-06
-0.0001153 3.46055e-05 3.45831e-05 -2.65285e-06
-0.000138963 4.17105e-05 4.16798e-05 -1.43694e-06
-0.000138359 4.15292e-05 4.14985e-05 -1.43694e-06
-0.000160713 4.82417e-05 4.82021e-05 1.62224e-13
-0.000159303 4.78186e-05 4.77791e-05 1.6108e-13
-0.000113789 3.41524e-05 3.41298e-05 -2.65285e-06
-0.000114796 3.44545e-05 3.4432e-05 -2.65285e-06
-0.000160008 4.80301e-05 4.79906e-05 1.60102e-13
-0.000136546 4.09853e-05 4.09546e-05 -1.43694e-06
-0.000114292 3.43034e-05 3.42809e-05 -2.65285e-06
-0.000137755 4.13479e-05 4.13172e-05 -1.43694e-06
-0.00013715 4.11666e-05 4.11359e-05 -1.43694e-06
-0.000159303 4.78186e-05 4.77791e-05 1.61095e-13
-0.000157893 4.73955e-05 4.73561e-05 1.62883e-13
-0.000112781 3.38502e-05 3.38276e-05 -2.65285e-06
-0.000113789 3.41524e-05 3.41298e-05 -2.65285e-06
-0.000158598 4.7607e-05 4.75676e-05 1.78976e-13
-0.000135337 4.06227e-05 4.0592e-05 -1.43694e-06
-0.000113285 3.40013e-05 3.39787e-05 -2.65285e-06
-0.000136546 4.09853e-05 4.09546e-05 -1.43694e-06
-0.000135942 4.0804e-05 4.07733e-05 -1.43694e-06
-0.000157893 4.73955e-05 4.73561e-05 1.56254e-13
-0.000156483 4.69724e-05 4.69332e-05 1.52405e-13
-0.000111774 3.35481e-05 3.35254e-05 -2.65285e-06
-0.000112781 3.38502e-05 3.38276e-05 -2.65285e-06
-0.000157188 4.71839e-05 4.71446e-05 1.68804e-13
-0.000134129 4.02601e-05 4.02294e-05 -1.43694e-06
-0.000112278 3.36992e-05 3.36765e-05 -2.65285e-06
-0.000135337 4.06227e-05 4.0592e-05 -1.43694e-06
-0.000134733 4.04414e-05 4.04107e-05 -1.43694e-06
-0.000156483 4.69724e-05 4.69332e-05 1.52405e-13
-0.000155073 4.65493e-05 4.65102e-05 1.58347e-13
-0.000110767 3.3246e-05 3.32231e-05 -2.65285e-06
-0.000111774 3.35481e-05 3.35254e-05 -2.65285e-06
-0.000155778 4.67608e-05 4.67217e-05 1.8013e-13
-0.00013292 3.98975e-05 3.98668e-05 -1.43694e-06
-0.00011127 3.33971e-05 3.33743e-05 -2.65285e-06
-0.000134129 4.02601e-05 4.02294e-05 -1.43694e-06
-0.000133524 4.00788e-05 4.00481e-05 -1.43694e-06
-0.000155073 4.65493e-05 4.65102e-05 1.58347e-13
-0.000153663 4.61262e-05 4.60872e-05 1.51684e-13
-0.000109759 3.29439e-05 3.29209e-05 -2.65285e-06
-0.000110767 3.3246e-05 3.32231e-05 -2.65285e-06
-0.000154368 4.63377e-05 4.62987e-05 1.24317e-13
-0.000131711 3.95349e-05 3.95042e-05 -1.43694e-06
-0.000110263 3.3095e-05 3.3072e-05 -2.65285e-06
-0.00013292 3.98975e-05 3.98668e-05 -1.43694e-06
-0.000132316 3.97162e-05 3.96855e-05 -1.43694e-06
-0.000153663 4.61262e-05 4.60872e-05 1.33458e-13
-0.000152253 4.57031e-05 4.56642e-05 1.44333e-13
-0.000108752 3.26418e-05 3.26187e-05 -2.65286e-06
-0.000109759 3.29439e-05 3.29209e-05 -2.65285e-06
-0.000152958 4.59147e-05 4.58757e-05 1.48652e-13
-0.000130503 3.91723e-05 3.91416e-05 -1.43694e-06
-0.000109256 3.27928e-05 3.27698e-05 -2.65285e-06
-0.000131711 3.95349e-05 3.95042e-05 -1.43694e-06
-0.000131107 3.93536e-05 3.93229e-05 -1.43694e-06
-0.000152253 4.57031e-05 4.56642e-05 1.44321e-13
-0.000150843 4.528e-05 4.52413e-05 1.58514e-13
-0.000107745 3.23396e-05 3.23165e-05 -2.65286e-06
-0.000108752 3.26418e-05 3.26187e-05 -2.65286e-06
-0.000151548 4.54916e-05 4.54527e-05 1.40199e-13
-0.000129294 3.88097e-05 3.8779e-05 -1.43694e-06
-0.000108248 3.24907e-05 3.24676e-05 -2.65286e-06
-0.000130503 3.91723e-05 3.91416e-05 -1.43694e-06
-0.000129898 3.8991e-05 3.89603e-05 -1.43694e-06
-0.000150843 4.528e-05 4.52413e-05 1.58514e-13
-0.000149433 4.48569e-05 4.48183e-05 1.29194e-13
-0.000106738 3.20375e-05 3.20143e-05 -2.65286e-06
-0.000107745 3.23396e-05 3.23165e-05 -2.65286e-06
-0.000150138 4.50685e-05 4.50298e-05 1.59316e-13
-0.000128085 3.84471e-05 3.84164e-05 -1.43694e-06
-0.000107241 3.21886e-05 3.21654e-05 -2.65286e-06
-0.000129294 3.88097e-05 3.8779e-05 -1.43694e-06
-0.00012869 3.86284e-05 3.85977e-05 -1.43694e-06
-0.000149433 4.48569e-05 4.48183e-05 1.29194e-13
-0.000148023 4.44338e-05 4.43953e-05 1.529e-13
-0.00010573 3.17354e-05 3.17121e-05 -2.65286e-06
-0.000106738 3.20375e-05 3.20143e-05 -2.65286e-06
-0.000148728 4.46454e-05 4.46068e-05 1.48606e-13
-0.000126877 3.80845e-05 3.80538e-05 -1.43695e-06
-0.000106234 3.18865e-05 3.18632e-05 -2.65286e-06
-0.000128085 3.84471e-05 3.84164e-05 -1.43694e-06
-0.000127481 3.82658e-05 3.82351e-05 -1.43694e-06
-0.000148023 4.44338e-05 4.43953e-05 1.26375e-13
-0.000146613 4.40107e-05 4.39723e-05 1.43847e-13
-0.000104723 3.14333e-05 3.14099e-05 -2.65286e-06
-0.00010573 3.17354e-05 3.17121e-05 -2.65286e-06
-0.000147318 4.42223e-05 4.41838e-05 1.39093e-13
-0.000125668 3.77218e-05 3.76912e-05 -1.43695e-06
-0.000105227 3.15843e-05 3.1561e-05 -2.65286e-06
-0.000126877 3.80845e-05 3.80538e-05 -1.43695e-06
-0.000126272 3.79031e-05 3.78725e-05 -1.43695e-06
-0.000146613 4.40107e-05 4.39723e-05 1.28912e-13
-0.000145203 4.35876e-05 4.35494e-05 1.27934e-13
-0.000103716 3.11312e-05 3.11077e-05 -2.65286e-06
-0.000104723 3.14333e-05 3.14099e-05 -2.65286e-06
-0.000145908 4.37992e-05 4.37608e-05 1.42753e-13
-0.000124459 3.73592e-05 3.73286e-05 -1.43695e-06
-0.000104219 3.12822e-05 3.12588e-05 -2.65286e-06
-0.000125668 3.77218e-05 3.76912e-05 -1.43695e-06
-0.000125064 3.75405e-05 3.75099e-05 -1.43695e-06
-0.000145203 4.35876e-05 4.35494e-05 1.27934e-13
-0.000143793 4.31645e-05 4.31264e-05 1.36777e-13
-0.000102708 3.0829e-05 3.08055e-05 -2.65286e-06
-0.000103716 3.11312e-05 3.11077e-05 -2.65286e-06
-0.000144498 4.33761e-05 4.33379e-05 1.33596e-13
-0.000123251 3.69966e-05 3.6966e-05 -1.43695e-06
-0.000103212 3.09801e-05 3.09566e-05 -2.65286e-06
-0.000124459 3.73592e-05 3.73286e-05 -1.43695e-06
-0.000123855 3.71779e-05 3.71473e-05 -1.43695e-06
-0.000143793 4.31645e-05 4.31264e-05 1.36777e-13
-0.000142383 4.27414e-05 4.27034e-05 1.2624e-13
-0.000101701 3.05269e-05 3.05032e-05 -2.65287e-06
-0.000102708 3.0829e-05 3.08055e-05 -2.65286e-06
-0.000143088 4.2953e-05 4.29149e-05 1.19143e-13
-0.000122042 3.6634e-05 3.66035e-05 -1.43695e-06
-0.000102205 3.0678e-05 3.06543e-05 -2.65287e-06
-0.000123251 3.69966e-05 3.6966e-05 -1.43695e-06
-0.000122646 3.68153e-05 3.67847e-05 -1.43695e-06
-0.000142383 4.27414e-05 4.27034e-05 1.26236e-13
-0.000140973 4.23183e-05 4.22804e-05 1.13031e-13
-0.000100694 3.02248e-05 3.0201e-05 -2.65287e-06
-0.000101701 3.05269e-05 3.05032e-05 -2.65287e-06
-0.000141678 4.25299e-05 4.24919e-05 1.37617e-13
-0.000120833 3.62714e-05 3.62409e-05 -1.43695e-06
-0.000101198 3.03758e-05 3.03521e-05 -2.65287e-06
-0.000122042 3.6634e-05 3.66035e-05 -1.43695e-06
-0.000121438 3.64527e-05 3.64222e-05 -1.43695e-06
-0.000140973 4.23183e-05 4.22804e-05 1.01434e-13
-0.000139563 4.18952e-05 4.18575e-05 1.02371e-13
-9.96866e-05 2.99227e-05 2.98988e-05 -2.65287e-06
-0.000100694 3.02248e-05 3.0201e-05 -2.65287e-06
-0.000140268 4.21068e-05 4.2069e-05 1.19529e-13
-0.000119625 3.59088e-05 3.58783e-05 -1.43695e-06
-0.00010019 3.00737e-05 3.00499e-05 -2.65287e-06
-0.000120833 3.62714e-05 3.62409e-05 -1.43695e-06
-0.000120229 3.60901e-05 3.60596e-05 -1.43695e-06
-0.000139563 4.18952e-05 4.18575e-05 1.02371e-13
-0.000138153 4.14721e-05 4.14345e-05 1.21047e-13
-9.86793e-05 2.96205e-05 2.95966e-05 -2.65287e-06
-9.96866e-05 2.99227e-05 2.98988e-05 -2.65287e-06
-0.000138858 4.16837e-05 4.1646e-05 1.0436e-13
-0.000118416 3.55462e-05 3.55157e-05 -1.43695e-06
-9.9183e-05 2.97716e-05 2.97477e-05 -2.65287e-06
-0.000119625 3.59088e-05 3.58783e-05 -1.43695e-06
-0.00011902 3.57275e-05 3.5697e-05 -1.43695e-06
-0.000138153 4.14721e-05 4.14345e-05 1.21047e-13
-0.000136743 4.1049e-05 4.10115e-05 1.07852e-13
-9.76721e-05 2.93184e-05 2.92944e-05 -2.65287e-06
-9.86793e-05 2.96205e-05 2.95966e-05 -2.65287e-06
-0.000137448 4.12606e-05 4.1223e-05 1.11126e-13
-0.000117207 3.51836e-05 3.51531e-05 -1.43695e-06
-9.81757e-05 2.94695e-05 2.94455e-05 -2.65287e-06
-0.000118416 3.55462e-05 3.55157e-05 -1.43695e-06
-0.000117812 3.53649e-05 3.53344e-05 -1.43695e-06
-0.000136743 4.1049e-05 4.10115e-05 1.21117e-13
-0.000135333 4.0626e-05 4.05886e-05 1.00084e-13
-9.66648e-05 2.90163e-05 2.89922e-05 -2.65287e-06
-9.76721e-05 2.93184e-05 2.92944e-05 -2.65287e-06
-0.000136038 4.08375e-05 4.08e-05 1.17555e-13
-0.000115999 3.4821e-05 3.47905e-05 -1.43695e-06
-9.71684e-05 2.91673e-05 2.91433e-05 -2.65287e-06
-0.000117207 3.51836e-05 3.51531e-05 -1.43695e-06
-0.000116603 3.50023e-05 3.49718e-05 -1.43695e-06
-0.000135333 4.0626e-05 4.05886e-05 1.0008e-13
-0.000133923 4.02029e-05 4.01656e-05 8.59531e-14
-9.56575e-05 2.87141e-05 2.869e-05 -2.65288e-06
-9.66648e-05 2.90163e-05 2.89922e-05 -2.65287e-06
-0.000134628 4.04144e-05 4.03771e-05 1.10006e-13
-0.00011479 3.44584e-05 3.44279e-05 -1.43696e-06
-9.61611e-05 2.88652e-05 2.88411e-05 -2.65287e-06
-0.000115999 3.4821e-05 3.47905e-05 -1.43695e-06
-0.000115394 3.46397e-05 3.46092e-05 -1.43696e-06
-0.000133923 4.02029e-05 4.01656e-05 8.59531e-14
-0.000132513 3.97798e-05 3.97426e-05 7.62479e-14
-9.46503e-05 2.8412e-05 2.83878e-05 -2.65288e-06
-9.56575e-05 2.87141e-05 2.869e-05 -2.65288e-06
-0.000133218 3.99913e-05 3.99541e-05 8.53611e-14
-0.000113582 3.40958e-05 3.40653e-05 -1.43696e-06
-9.51539e-05 2.85631e-05 2.85389e-05 -2.65288e-06
-0.00011479 3.44584e-05 3.44279e-05 -1.43696e-06
-0.000114186 3.42771e-05 3.42466e-05 -1.43696e-06
-0.000132513 3.97798e-05 3.97426e-05 7.62479e-14
-0.000131103 3.93567e-05 3.93196e-05 7.54777e-14
-9.3643e-05 2.81099e-05 2.80856e-05 -2.65288e-06
-9.46503e-05 2.8412e-05 2.83878e-05 -2.65288e-06
-0.000131808 3.95682e-05 3.95311e-05 8.84407e-14
-0.000112373 3.37331e-05 3.37027e-05 -1.43696e-06
-9.41466e-05 2.82609e-05 2.82367e-05 -2.65288e-06
-0.000113582 3.40958e-05 3.40653e-05 -1.43696e-06
-0.000112977 3.39145e-05 3.3884e-05 -1.43696e-06
-0.000131103 3.93567e-05 3.93196e-05 7.54883e-14
-0.000129692 3.89336e-05 3.88967e-05 8.91611e-14
-9.26357e-05 2.78077e-05 2.77834e-05 -2.65288e-06
-9.3643e-05 2.81099e-05 2.80856e-05 -2.65288e-06
-0.000130397 3.91451e-05 3.91082e-05 9.63873e-14
-0.000111164 3.33705e-05 3.33402e-05 -1.43696e-06
-9.31394e-05 2.79588e-05 2.79345e-05 -2.65288e-06
-0.000112373 3.37331e-05 3.37027e-05 -1.43696e-06
-0.000111769 3.35518e-05 3.35214e-05 -1.43696e-06
-0.000129692 3.89336e-05 3.88967e-05 7.59004e-14
-0.000128282 3.85105e-05 3.84737e-05 7.79929e-14
-9.16285e-05 2.75056e-05 2.74812e-05 -2.65288e-06
-9.26357e-05 2.78077e-05 2.77834e-05 -2.65288e-06
-0.000128987 3.8722e-05 3.86852e-05 1.06759e-13
-0.000109956 3.30079e-05 3.29776e-05 -1.43696e-06
-9.21321e-05 2.76567e-05 2.76323e-05 -2.65288e-06
-0.000111164 3.33705e-05 3.33402e-05 -1.43696e-06
-0.00011056 3.31892e-05 3.31589e-05 -1.43696e-06
-0.000128282 3.85105e-05 3.84737e-05 7.79929e-14
-0.000126872 3.80874e-05 3.80507e-05 9.85159e-14
-9.06212e-05 2.72035e-05 2.7179e-05 -2.65288e-06
-9.16285e-05 2.75056e-05 2.74812e-05 -2.65288e-06
-0.000127577 3.82989e-05 3.82622e-05 1.07302e-13
-0.000108747 3.26453e-05 3.2615e-05 -1.43696e-06
-9.11248e-05 2.73545e-05 2.73301e-05 -2.65288e-06
-0.000109956 3.30079e-05 3.29776e-05 -1.43696e-06
-0.000109351 3.28266e-05 3.27963e-05 -1.43696e-06
-0.000126872 3.80874e-05 3.80507e-05 9.85159e-14
-0.000125462 3.76643e-05 3.76278e-05 8.72775e-14
-8.9614e-05 2.69013e-05 2.68768e-05 -2.65288e-06
-9.06212e-05 2.72035e-05 2.7179e-05 -2.65288e-06
-0.000126167 3.78758e-05 3.78393e-05 8.34594e-14
-0.000107538 3.22827e-05 3.22524e-05 -1.43696e-06
-9.01176e-05 2.70524e-05 2.70279e-05 -2.65288e-06
-0.000108747 3.26453e-05 3.2615e-05 -1.43696e-06
-0.000108143 3.2464e-05 3.24337e-05 -1.43696e-06
-0.000125462 3.76643e-05 3.76278e-05 1.00572e-13
-0.000124052 3.72412e-05 3.72048e-05 1.11993e-13
-8.86067e-05 2.65992e-05 2.65746e-05 -2.65289e-06
-8.9614e-05 2.69013e-05 2.68768e-05 -2.65288e-06
-0.000124757 3.74527e-05 3.74163e-05 8.43424e-14
-0.00010633 3.19201e-05 3.18898e-05 -1.43696e-06
-8.91103e-05 2.67503e-05 2.67257e-05 -2.65289e-06
-0.000107538 3.22827e-05 3.22524e-05 -1.43696e-06
-0.000106934 3.21014e-05 3.20711e-05 -1.43696e-06
-0.000124052 3.72412e-05 3.72048e-05 1.12014e-13
-0.000122642 3.68181e-05 3.67818e-05 5.95166e-14
-8.75994e-05 2.62971e-05 2.62725e-05 -2.65289e-06
-8.86067e-05 2.65992e-05 2.65746e-05 -2.65289e-06
-0.000123347 3.70296e-05 3.69933e-05 7.93037e-14
-0.000105121 3.15575e-05 3.15272e-05 -1.43696e-06
-8.81031e-05 2.64481e-05 2.64235e-05 -2.65289e-06
-0.00010633 3.19201e-05 3.18898e-05 -1.43696e-06
-0.000105725 3.17388e-05 3.17085e-05 -1.43696e-06
-0.000122642 3.68181e-05 3.67818e-05 5.95166e-14
-0.000121232 3.6395e-05 3.63589e-05 4.2145e-14
-8.65922e-05 2.59949e-05 2.59703e-05 -2.65289e-06
-8.75994e-05 2.62971e-05 2.62725e-05 -2.65289e-06
-0.000121937 3.66065e-05 3.65704e-05 7.71167e-14
-0.000103912 3.11948e-05 3.11647e-05 -1.43697e-06
-8.70958e-05 2.6146e-05 2.61214e-05 -2.65289e-06
-0.000105121 3.15575e-05 3.15272e-05 -1.43696e-06
-0.000104517 3.13762e-05 3.1346e-05 -1.43696e-06
-0.000121232 3.6395e-05 3.63589e-05 4.2145e-14
-0.000119822 3.59719e-05 3.59359e-05 6.18398e-14
-8.5585e-05 2.56928e-05 2.56681e-05 -2.65289e-06
-8.65922e-05 2.59949e-05 2.59703e-05 -2.65289e-06
-0.000120527 3.61834e-05 3.61474e-05 5.74862e-14
-0.000102704 3.08322e-05 3.08021e-05 -1.43697e-06
-8.60886e-05 2.58439e-05 2.58192e-05 -2.65289e-06
-0.000103912 3.11948e-05 3.11647e-05 -1.43697e-06
-0.000103308 3.10135e-05 3.09834e-05 -1.43697e-06
-0.000119822 3.59719e-05 3.59359e-05 6.184e-14
-0.000118412 3.55488e-05 3.5513e-05 4.99214e-14
-8.45777e-05 2.53906e-05 2.53659e-05 -2.65289e-06
-8.5585e-05 2.56928e-05 2.56681e-05 -2.65289e-06
-0.000119117 3.57603e-05 3.57244e-05 6.94943e-14
-0.000101495 3.04696e-05 3.04395e-05 -1.43697e-06
-8.50813e-05 2.55417e-05 2.5517e-05 -2.65289e-06
-0.000102704 3.08322e-05 3.08021e-05 -1.43697e-06
-0.000102099 3.06509e-05 3.06208e-05 -1.43697e-06
-0.000118412 3.55488e-05 3.5513e-05 6.31732e-14
-0.000117002 3.51257e-05 3.509e-05 4.58931e-14
-8.35705e-05 2.50885e-05 2.50637e-05 -2.65289e-06
-8.45777e-05 2.53906e-05 2.53659e-05 -2.65289e-06
-0.000117707 3.53372e-05 3.53015e-05 6.00613e-14
-0.000100287 3.0107e-05 3.00769e-05 -1.43697e-06
-8.40741e-05 2.52396e-05 2.52148e-05 -2.65289e-06
-0.000101495 3.04696e-05 3.04395e-05 -1.43697e-06
-0.000100891 3.02883e-05 3.02582e-05 -1.43697e-06
-0.000117002 3.51257e-05 3.509e-05 4.58931e-14
-0.000115592 3.47026e-05 3.4667e-05 4.90079e-14
-8.25632e-05 2.47864e-05 2.47615e-05 -2.6529e-06
-8.35705e-05 2.50885e-05 2.50637e-05 -2.65289e-06
-0.000116297 3.49141e-05 3.48785e-05 4.67716e-14
-9.90779e-05 2.97444e-05 2.97144e-05 -1.43697e-06
-8.30668e-05 2.49374e-05 2.49126e-05 -2.6529e-06
-0.000100287 3.0107e-05 3.00769e-05 -1.43697e-06
-9.96822e-05 2.99257e-05 2.98956e-05 -1.43697e-06
-0.000115592 3.47026e-05 3.4667e-05 4.90079e-14
-0.000114182 3.42795e-05 3.42441e-05 3.60251e-14
-8.1556e-05 2.44842e-05 2.44593e-05 -2.6529e-06
-8.25632e-05 2.47864e-05 2.47615e-05 -2.6529e-06
-0.000114887 3.4491e-05 3.44556e-05 6.29582e-14
-9.78692e-05 2.93818e-05 2.93518e-05 -1.43697e-06
-8.20596e-05 2.46353e-05 2.46104e-05 -2.6529e-06
-9.90779e-05 2.97444e-05 2.97144e-05 -1.43697e-06
-9.84736e-05 2.95631e-05 2.95331e-05 -1.43697e-06
-0.000114182 3.42795e-05 3.42441e-05 8.90712e-14
-0.000112772 3.38564e-05 3.38211e-05 6.70467e-14
-8.05487e-05 2.41821e-05 2.41571e-05 -2.6529e-06
-8.1556e-05 2.44842e-05 2.44593e-05 -2.6529e-06
-0.000113477 3.40679e-05 3.40326e-05 5.44904e-14
-9.66606e-05 2.90191e-05 2.89892e-05 -1.43697e-06
-8.10524e-05 2.43331e-05 2.43082e-05 -2.6529e-06
-9.78692e-05 2.93818e-05 2.93518e-05 -1.43697e-06
-9.72649e-05 2.92005e-05 2.91705e-05 -1.43697e-06
-0.000112772 3.38564e-05 3.38211e-05 6.70467e-14
-0.000111362 3.34333e-05 3.33982e-05 3.64125e-14
-7.95415e-05 2.38799e-05 2.3855e-05 -2.6529e-06
-8.05487e-05 2.41821e-05 2.41571e-05 -2.6529e-06
-0.000112067 3.36448e-05 3.36096e-05 6.41786e-14
-9.5452e-05 2.86565e-05 2.86266e-05 -1.43697e-06
-8.00451e-05 2.4031e-05 2.40061e-05 -2.6529e-06
-9.66606e-05 2.90191e-05 2.89892e-05 -1.43697e-06
-9.60563e-05 2.88378e-05 2.88079e-05 -1.43697e-06
-0.000111362 3.34333e-05 3.33982e-05 3.64125e-14
-0.000109952 3.30102e-05 3.29752e-05 6.45677e-14
-7.85343e-05 2.35778e-05 2.35528e-05 -2.6529e-06
-7.95415e-05 2.38799e-05 2.3855e-05 -2.6529e-06
-0.000110657 3.32217e-05 3.31867e-05 7.35071e-14
-9.42434e-05 2.82939e-05 2.82641e-05 -1.43697e-06
-7.90379e-05 2.37289e-05 2.37039e-05 -2.6529e-06
-9.5452e-05 2.86565e-05 2.86266e-05 -1.43697e-06
-9.48477e-05 2.84752e-05 2.84453e-05 -1.43697e-06
-0.000109952 3.30102e-05 3.29752e-05 6.45677e-14
-0.000108542 3.25871e-05 3.25522e-05 3.15462e-14
-7.7527e-05 2.32756e-05 2.32506e-05 -2.6529e-06
-7.85343e-05 2.35778e-05 2.35528e-05 -2.6529e-06
-0.000109247 3.27986e-05 3.27637e-05 3.4555e-14
-9.30348e-05 2.79313e-05 2.79015e-05 -1.43697e-06
-7.80307e-05 2.34267e-05 2.34017e-05 -2.6529e-06
-9.42434e-05 2.82939e-05 2.82641e-05 -1.43697e-06
-9.36391e-05 2.81126e-05 2.80828e-05 -1.43697e-06
-0.000108542 3.25871e-05 3.25522e-05 3.15462e-14
-0.000107132 3.2164e-05 3.21293e-05 2.92028e-14
-7.65198e-05 2.29735e-05 2.29484e-05 -2.65291e-06
-7.7527e-05 2.32756e-05 2.32506e-05 -2.6529e-06
-0.000107837 3.23755e-05 3.23408e-05 3.45626e-14
-9.18261e-05 2.75687e-05 2.75389e-05 -1.43698e-06
-7.70234e-05 2.31246e-05 2.30995e-05 -2.6529e-06
-9.30348e-05 2.79313e-05 2.79015e-05 -1.43697e-06
-9.24304e-05 2.775e-05 2.77202e-05 -1.43698e-06
-0.000107132 3.2164e-05 3.21293e-05 4.24331e-14
-0.000105722 3.17409e-05 3.17063e-05 2.63161e-14
-7.55126e-05 2.26713e-05 2.26462e-05 -2.65291e-06
-7.65198e-05 2.29735e-05 2.29484e-05 -2.65291e-06
-0.000106427 3.19524e-05 3.19178e-05 5.64182e-14
-9.06175e-05 2.7206e-05 2.71764e-05 -1.43698e-06
-7.60162e-05 2.28224e-05 2.27973e-05 -2.65291e-06
-9.18261e-05 2.75687e-05 2.75389e-05 -1.43698e-06
-9.12218e-05 2.73873e-05 2.73576e-05 -1.43698e-06
-0.000105722 3.17409e-05 3.17063e-05 2.63161e-14
-0.000104312 3.13178e-05 3.12834e-05 4.19002e-14
-7.45054e-05 2.23692e-05 2.23441e-05 -2.65291e-06
-7.55126e-05 2.26713e-05 2.26462e-05 -2.65291e-06
-0.000105017 3.15293e-05 3.14948e-05 5.34373e-14
-8.94089e-05 2.68434e-05 2.68138e-05 -1.43698e-06
-7.5009e-05 2.25203e-05 2.24952e-05 -2.65291e-06
-9.06175e-05 2.7206e-05 2.71764e-05 -1.43698e-06
-9.00132e-05 2.70247e-05 2.69951e-05 -1.43698e-06
-0.000104312 3.13178e-05 3.12834e-05 4.19002e-14
-0.000102902 3.08947e-05 3.08604e-05 4.37937e-14
-7.34981e-05 2.2067e-05 2.20419e-05 -2.65291e-06
-7.45054e-05 2.23692e-05 2.23441e-05 -2.65291e-06
-0.000103607 3.11062e-05 3.10719e-05 3.76772e-14
-8.82003e-05 2.64808e-05 2.64512e-05 -1.43698e-06
-7.40017e-05 2.22181e-05 2.2193e-05 -2.65291e-06
-8.94089e-05 2.68434e-05 2.68138e-05 -1.43698e-06
-8.88046e-05 2.66621e-05 2.66325e-05 -1.43698e-06
-0.000102902 3.08947e-05 3.08604e-05 3.0533e-14
-0.000101492 3.04716e-05 3.04375e-05 3.2104e-14
-7.24909e-05 2.17649e-05 2.17397e-05 -2.65291e-06
-7.34981e-05 2.2067e-05 2.20419e-05 -2.65291e-06
-0.000102197 3.06831e-05 3.06489e-05 2.53381e-14
-8.69917e-05 2.61182e-05 2.60887e-05 -1.43698e-06
-7.29945e-05 2.1916e-05 2.18908e-05 -2.65291e-06
-8.82003e-05 2.64808e-05 2.64512e-05 -1.43698e-06
-8.7596e-05 2.62995e-05 2.62699e-05 -1.43698e-06
-0.000101492 3.04716e-05 3.04375e-05 3.2104e-14
-0.000100082 3.00485e-05 3.00145e-05 2.65352e-17
-7.14837e-05 2.14627e-05 2.14376e-05 -2.65291e-06
-7.24909e-05 2.17649e-05 2.17397e-05 -2.65291e-06
-0.000100787 3.026e-05 3.0226e-05 4.07776e-14
-8.57831e-05 2.57555e-05 2.57261e-05 -1.43698e-06
-7.19873e-05 2.16138e-05 2.15886e-05 -2.65291e-06
-8.69917e-05 2.61182e-05 2.60887e-05 -1.43698e-06
-8.63874e-05 2.59368e-05 2.59074e-05 -1.43698e-06
-0.000100082 3.00485e-05 3.00145e-05 2.65352e-17
-9.86723e-05 2.96254e-05 2.95916e-05 2.90836e-14
-7.04765e-05 2.11606e-05 2.11354e-05 -2.65291e-06
-7.14837e-05 2.14627e-05 2.14376e-05 -2.65291e-06
-9.93773e-05 2.98369e-05 2.9803e-05 1.5573e-14
-8.45745e-05 2.53929e-05 2.53635e-05 -1.43698e-06
-7.09801e-05 2.13117e-05 2.12865e-05 -2.65291e-06
-8.57831e-05 2.57555e-05 2.57261e-05 -1.43698e-06
-8.51788e-05 2.55742e-05 2.55448e-05 -1.43698e-06
-9.86723e-05 2.96254e-05 2.95916e-05 2.90836e-14
-9.72623e-05 2.92023e-05 2.91686e-05 2.00359e-14
-6.94693e-05 2.08584e-05 2.08332e-05 -2.65292e-06
-7.04765e-05 2.11606e-05 2.11354e-05 -2.65291e-06
-9.79673e-05 2.94138e-05 2.93801e-05 1.8958e-14
-8.33659e-05 2.50303e-05 2.5001e-05 -1.43698e-06
-6.99729e-05 2.10095e-05 2.09843e-05 -2.65292e-06
-8.45745e-05 2.53929e-05 2.53635e-05 -1.43698e-06
-8.39702e-05 2.52116e-05 2.51822e-05 -1.43698e-06
-9.72623e-05 2.92023e-05 2.91686e-05 2.00359e-14
-9.58523e-05 2.87792e-05 2.87457e-05 3.35995e-14
-6.8462e-05 2.05563e-05 2.0531e-05 -2.65292e-06
-6.94693e-05 2.08584e-05 2.08332e-05 -2.65292e-06
-9.65573e-05 2.89907e-05 2.89571e-05 1.8755e-15
-8.21573e-05 2.46676e-05 2.46384e-05 -1.43698e-06
-6.89656e-05 2.07073e-05 2.06821e-05 -2.65292e-06
-8.33659e-05 2.50303e-05 2.5001e-05 -1.43698e-06
-8.27616e-05 2.4849e-05 2.48197e-05 -1.43698e-06
-9.58523e-05 2.87792e-05 2.87457e-05 2.03288e-14
-9.44424e-05 2.8356e-05 2.83227e-05 8.46992e-15
-6.74548e-05 2.02541e-05 2.02289e-05 -2.65292e-06
-6.8462e-05 2.05563e-05 2.0531e-05 -2.65292e-06
-9.51473e-05 2.85676e-05 2.85342e-05 2.03925e-14
-8.09487e-05 2.4305e-05 2.42758e-05 -1.43699e-06
-6.79584e-05 2.04052e-05 2.038e-05 -2.65292e-06
-8.21573e-05 2.46676e-05 2.46384e-05 -1.43698e-06
-8.1553e-05 2.44863e-05 2.44571e-05 -1.43698e-06
-9.44424e-05 2.8356e-05 2.83227e-05 8.46992e-15
-9.30324e-05 2.79329e-05 2.78998e-05 2.72923e-14
-6.64476e-05 1.99519e-05 1.99267e-05 -2.65292e-06
-6.74548e-05 2.02541e-05 2.02289e-05 -2.65292e-06
-9.37374e-05 2.81445e-05 2.81112e-05 1.82977e-14
-7.97401e-05 2.39424e-05 2.39133e-05 -1.43699e-06
-6.69512e-05 2.0103e-05 2.00778e-05 -2.65292e-06
-8.09487e-05 2.4305e-05 2.42758e-05 -1.43699e-06
-8.03444e-05 2.41237e-05 2.40946e-05 -1.43699e-06
-9.30324e-05 2.79329e-05 2.78998e-05 2.72923e-14
-9.16224e-05 2.75098e-05 2.74768e-05 2.33879e-14
-6.54404e-05 1.96498e-05 1.96246e-05 -2.65292e-06
-6.64476e-05 1.99519e-05 1.99267e-05 -2.65292e-06
-9.23274e-05 2.77214e-05 2.76883e-05 4.8812e-15
-7.85315e-05 2.35798e-05 2.35507e-05 -1.43699e-06
-6.5944e-05 1.98009e-05 1.97756e-05 -2.65292e-06
-7.97401e-05 2.39424e-05 2.39133e-05 -1.43699e-06
-7.91358e-05 2.37611e-05 2.3732e-05 -1.43699e-06
-9.16224e-05 2.75098e-05 2.74768e-05 -3.14599e-15
-9.02124e-05 2.70867e-05 2.70539e-05 3.23298e-14
-6.44332e-05 1.93476e-05 1.93224e-05 -2.65292e-06
-6.54404e-05 1.96498e-05 1.96246e-05 -2.65292e-06
-9.09174e-05 2.72983e-05 2.72653e-05 -1.75526e-15
-7.73229e-05 2.32171e-05 2.31882e-05 -1.43699e-06
-6.49368e-05 1.94987e-05 1.94735e-05 -2.65292e-06
-7.85315e-05 2.35798e-05 2.35507e-05 -1.43699e-06
-7.79272e-05 2.33984e-05 2.33695e-05 -1.43699e-06
-9.02124e-05 2.70867e-05 2.70539e-05 3.23298e-14
-8.88024e-05 2.66636e-05 2.66309e-05 2.47479e-14
-6.3426e-05 1.90455e-05 1.90202e-05 -2.65293e-06
-6.44332e-05 1.93476e-05 1.93224e-05 -2.65292e-06
-8.95074e-05 2.68752e-05 2.68424e-05 3.8646e-14
-7.61143e-05 2.28545e-05 2.28256e-05 -1.43699e-06
-6.39296e-05 1.91965e-05 1.91713e-05 -2.65293e-06
-7.73229e-05 2.32171e-05 2.31882e-05 -1.43699e-06
-7.67186e-05 2.30358e-05 2.30069e-05 -1.43699e-06
-8.88024e-05 2.66636e-05 2.66309e-05 2.47479e-14
-8.73924e-05 2.62405e-05 2.6208e-05 3.63945e-15
-6.24188e-05 1.87433e-05 1.87181e-05 -2.65293e-06
-6.3426e-05 1.90455e-05 1.90202e-05 -2.65293e-06
-8.80974e-05 2.64521e-05 2.64194e-05 1.61912e-14
-7.49057e-05 2.24919e-05 2.24631e-05 -1.43699e-06
-6.29224e-05 1.88944e-05 1.88692e-05 -2.65293e-06
-7.61143e-05 2.28545e-05 2.28256e-05 -1.43699e-06
-7.551e-05 2.26732e-05 2.26443e-05 -1.43699e-06
-8.73924e-05 2.62405e-05 2.6208e-05 3.63945e-15
-8.59825e-05 2.58174e-05 2.5785e-05 -1.21649e-14
-6.14116e-05 1.84411e-05 1.84159e-05 -2.65293e-06
-6.24188e-05 1.87433e-05 1.87181e-05 -2.65293e-06
-8.66874e-05 2.6029e-05 2.59965e-05 -1.5017e-14
-7.36971e-05 2.21292e-05 2.21005e-05 -1.43699e-06
-6.19152e-05 1.85922e-05 1.8567e-05 -2.65293e-06
-7.49057e-05 2.24919e-05 2.24631e-05 -1.43699e-06
-7.43014e-05 2.23105e-05 2.22818e-05 -1.43699e-06
-8.59825e-05 2.58174e-05 2.5785e-05 -1.21415e-14
-8.45725e-05 2.53943e-05 2.53621e-05 -3.97759e-14
-6.04044e-05 1.8139e-05 1.81138e-05 -2.65293e-06
-6.14116e-05 1.84411e-05 1.84159e-05 -2.65293e-06
-8.52775e-05 2.56058e-05 2.55735e-05 -2.63333e-14
-7.24885e-05 2.17666e-05 2.1738e-05 -1.43699e-06
-6.0908e-05 1.82901e-05 1.82648e-05 -2.65293e-06
-7.36971e-05 2.21292e-05 2.21005e-05 -1.43699e-06
-7.30928e-05 2.19479e-05 2.19192e-05 -1.43699e-06
-8.45725e-05 2.53943e-05 2.53621e-05 2.2106e-17
-8.31625e-05 2.49712e-05 2.49391e-05 1.3305e-14
-5.93972e-05 1.78368e-05 1.78116e-05 -2.65293e-06
-6.04044e-05 1.8139e-05 1.81138e-05 -2.65293e-06
-8.38675e-05 2.51827e-05 2.51506e-05 2.97256e-15
-7.12799e-05 2.14039e-05 2.13754e-05 -1.43699e-06
-5.99008e-05 1.79879e-05 1.79627e-05 -2.65293e-06
-7.24885e-05 2.17666e-05 2.1738e-05 -1.43699e-06
-7.18842e-05 2.15853e-05 2.15567e-05 -1.43699e-06
-8.31625e-05 2.49712e-05 2.49391e-05 1.3305e-14
-8.17525e-05 2.45481e-05 2.45162e-05 3.77933e-15
-5.839e-05 1.75346e-05 1.75095e-05 -2.65293e-06
-5.93972e-05 1.78368e-05 1.78116e-05 -2.65293e-06
-8.24575e-05 2.47596e-05 2.47277e-05 -3.79809e-14
-7.00713e-05 2.10413e-05 2.10129e-05 -1.43699e-06
-5.88936e-05 1.76857e-05 1.76605e-05 -2.65293e-06
-7.12799e-05 2.14039e-05 2.13754e-05 -1.43699e-06
-7.06756e-05 2.12226e-05 2.11941e-05 -1.43699e-06
-8.17525e-05 2.45481e-05 2.45162e-05 3.77933e-15
-8.03426e-05 2.4125e-05 2.40933e-05 7.34899e-15
-5.73828e-05 1.72325e-05 1.72073e-05 -2.65294e-06
-5.839e-05 1.75346e-05 1.75095e-05 -2.65293e-06
-8.10475e-05 2.43365e-05 2.43047e-05 -2.65931e-14
-6.88627e-05 2.06787e-05 2.06503e-05 -1.437e-06
-5.78864e-05 1.73835e-05 1.73584e-05 -2.65294e-06
-7.00713e-05 2.10413e-05 2.10129e-05 -1.43699e-06
-6.9467e-05 2.086e-05 2.08316e-05 -1.437e-06
-8.03426e-05 2.4125e-05 2.40933e-05 -1.91862e-14
-7.89326e-05 2.37019e-05 2.36703e-05 -1.78707e-14
-5.63757e-05 1.69303e-05 1.69052e-05 -2.65294e-06
-5.73828e-05 1.72325e-05 1.72073e-05 -2.65294e-06
-7.96376e-05 2.39134e-05 2.38818e-05 -1.56574e-14
-6.76542e-05 2.0316e-05 2.02878e-05 -1.437e-06
-5.68792e-05 1.70814e-05 1.70562e-05 -2.65294e-06
-6.88627e-05 2.06787e-05 2.06503e-05 -1.437e-06
-6.82585e-05 2.04973e-05 2.0469e-05 -1.437e-06
-7.89326e-05 2.37019e-05 2.36703e-05 -1.78473e-14
-7.75226e-05 2.32787e-05 2.32474e-05 -1.35056e-14
-5.53685e-05 1.66281e-05 1.6603e-05 -2.65294e-06
-5.63757e-05 1.69303e-05 1.69052e-05 -2.65294e-06
-7.82276e-05 2.34903e-05 2.34588e-05 -2.01632e-14
-6.64456e-05 1.99534e-05 1.99252e-05 -1.437e-06
-5.58721e-05 1.67792e-05 1.67541e-05 -2.65294e-06
-6.76542e-05 2.0316e-05 2.02878e-05 -1.437e-06
-6.70499e-05 2.01347e-05 2.01065e-05 -1.437e-06
-7.75226e-05 2.32787e-05 2.32474e-05 -1.35056e-14
-7.61126e-05 2.28556e-05 2.28244e-05 -3.84304e-15
-5.43613e-05 1.63259e-05 1.63009e-05 -2.65294e-06
-5.53685e-05 1.66281e-05 1.6603e-05 -2.65294e-06
-7.68176e-05 2.30672e-05 2.30359e-05 1.18716e-14
-6.5237e-05 1.95907e-05 1.95627e-05 -1.437e-06
-5.48649e-05 1.6477e-05 1.64519e-05 -2.65294e-06
-6.64456e-05 1.99534e-05 1.99252e-05 -1.437e-06
-6.58413e-05 1.97721e-05 1.9744e-05 -1.437e-06
-7.61126e-05 2.28556e-05 2.28244e-05 -3.84304e-15
-7.47027e-05 2.24325e-05 2.24015e-05 -2.03374e-15
-5.33541e-05 1.60238e-05 1.59987e-05 -2.65294e-06
-5.43613e-05 1.63259e-05 1.63009e-05 -2.65294e-06
-7.54077e-05 2.26441e-05 2.2613e-05 -1.90076e-14
-6.40284e-05 1.92281e-05 1.92001e-05 -1.437e-06
-5.38577e-05 1.61749e-05 1.61498e-05 -2.65294e-06
-6.5237e-05 1.95907e-05 1.95627e-05 -1.437e-06
-6.46327e-05 1.94094e-05 1.93814e-05 -1.437e-06
-7.47027e-05 2.24325e-05 2.24015e-05 -2.00897e-15
-7.32927e-05 2.20094e-05 2.19786e-05 -5.87625e-14
-5.23469e-05 1.57216e-05 1.56966e-05 -2.65294e-06
-5.33541e-05 1.60238e-05 1.59987e-05 -2.65294e-06
-7.39977e-05 2.2221e-05 2.219e-05 -2.99363e-14
-6.28199e-05 1.88655e-05 1.88376e-05 -1.437e-06
-5.28505e-05 1.58727e-05 1.58476e-05 -2.65294e-06
-6.40284e-05 1.92281e-05 1.92001e-05 -1.437e-06
-6.34241e-05 1.90468e-05 1.90189e-05 -1.437e-06
-7.32927e-05 2.20094e-05 2.19786e-05 -4.54993e-14
-7.18827e-05 2.15863e-05 2.15556e-05 -9.86862e-15
-5.13397e-05 1.54194e-05 1.53944e-05 -2.65295e-06
-5.23469e-05 1.57216e-05 1.56966e-05 -2.65294e-06
-7.25877e-05 2.17978e-05 2.17671e-05 -2.85763e-14
-6.16113e-05 1.85028e-05 1.84751e-05 -1.437e-06
-5.18433e-05 1.55705e-05 1.55455e-05 -2.65294e-06
-6.28199e-05 1.88655e-05 1.88376e-05 -1.437e-06
-6.22156e-05 1.86841e-05 1.86563e-05 -1.437e-06
-7.18827e-05 2.15863e-05 2.15556e-05 -9.86862e-15
-7.04728e-05 2.11632e-05 2.11327e-05 -2.25846e-14
-5.03326e-05 1.51172e-05 1.50923e-05 -2.65295e-06
-5.13397e-05 1.54194e-05 1.53944e-05 -2.65295e-06
-7.11778e-05 2.13747e-05 2.13442e-05 -3.86356e-14
-6.04027e-05 1.81402e-05 1.81125e-05 -1.437e-06
-5.08362e-05 1.52683e-05 1.52434e-05 -2.65295e-06
-6.16113e-05 1.85028e-05 1.84751e-05 -1.437e-06
-6.1007e-05 1.83215e-05 1.82938e-05 -1.437e-06
-7.04728e-05 2.11632e-05 2.11327e-05 7.25531e-15
-6.90628e-05 2.074e-05 2.07098e-05 -9.99342e-15
-4.93254e-05 1.4815e-05 1.47902e-05 -2.65295e-06
-5.03326e-05 1.51172e-05 1.50923e-05 -2.65295e-06
-6.97678e-05 2.09516e-05 2.09212e-05 -8.76438e-15
-5.91941e-05 1.77775e-05 1.775e-05 -1.437e-06
-4.9829e-05 1.49661e-05 1.49412e-05 -2.65295e-06
-6.04027e-05 1.81402e-05 1.81125e-05 -1.437e-06
-5.97984e-05 1.79588e-05 1.79313e-05 -1.437e-06
-6.90628e-05 2.074e-05 2.07098e-05 -9.99342e-15
-6.76529e-05 2.03169e-05 2.02868e-05 -1.74373e-14
-4.83182e-05 1.45129e-05 1.4488e-05 -2.65295e-06
-4.93254e-05 1.4815e-05 1.47902e-05 -2.65295e-06
-6.83578e-05 2.05285e-05 2.04983e-05 -3.49966e-14
-5.79856e-05 1.74149e-05 1.73875e-05 -1.43701e-06
-4.88218e-05 1.4664e-05 1.46391e-05 -2.65295e-06
-5.91941e-05 1.77775e-05 1.775e-05 -1.437e-06
-5.85899e-05 1.75962e-05 1.75687e-05 -1.43701e-06
-6.76529e-05 2.03169e-05 2.02868e-05 -1.74373e-14
-6.62429e-05 1.98938e-05 1.98639e-05 -1.42095e-14
-4.73111e-05 1.42107e-05 1.41859e-05 -2.65295e-06
-4.83182e-05 1.45129e-05 1.4488e-05 -2.65295e-06
-6.69479e-05 2.01054e-05 2.00754e-05 -1.44602e-14
-5.6777e-05 1.70522e-05 1.70249e-05 -1.43701e-06
-4.78146e-05 1.43618e-05 1.43369e-05 -2.65295e-06
-5.79856e-05 1.74149e-05 1.73875e-05 -1.43701e-06
-5.73813e-05 1.72335e-05 1.72062e-05 -1.43701e-06
-6.62429e-05 1.98938e-05 1.98639e-05 -1.42099e-14
-6.4833e-05 1.94707e-05 1.9441e-05 -4.81248e-14
-4.63039e-05 1.39085e-05 1.38837e-05 -2.65295e-06
-4.73111e-05 1.42107e-05 1.41859e-05 -2.65295e-06
-6.55379e-05 1.96823e-05 1.96524e-05 -4.39701e-14
-5.55685e-05 1.66896e-05 1.66624e-05 -1.43701e-06
-4.68075e-05 1.40596e-05 1.40348e-05 -2.65295e-06
-5.6777e-05 1.70522e-05 1.70249e-05 -1.43701e-06
-5.61727e-05 1.68709e-05 1.68436e-05 -1.43701e-06
-6.4833e-05 1.94707e-05 1.9441e-05 -4.80785e-14
-6.3423e-05 1.90476e-05 1.9018e-05 -3.27464e-14
-4.52967e-05 1.36063e-05 1.35816e-05 -2.65296e-06
-4.63039e-05 1.39085e-05 1.38837e-05 -2.65295e-06
-6.4128e-05 1.92591e-05 1.92295e-05 -2.25364e-15
-5.43599e-05 1.63269e-05 1.62999e-05 -1.43701e-06
-4.58003e-05 1.37574e-05 1.37327e-05 -2.65295e-06
-5.55685e-05 1.66896e-05 1.66624e-05 -1.43701e-06
-5.49642e-05 1.65082e-05 1.64811e-05 -1.43701e-06
-6.3423e-05 1.90476e-05 1.9018e-05 -3.27464e-14
-6.2013e-05 1.86245e-05 1.85951e-05 -5.96262e-14
-4.42896e-05 1.33041e-05 1.32795e-05 -2.65296e-06
-4.52967e-05 1.36063e-05 1.35816e-05 -2.65296e-06
-6.2718e-05 1.8836e-05 1.88066e-05 -8.58746e-14
-5.31513e-05 1.59643e-05 1.59373e-05 -1.43701e-06
-4.47932e-05 1.34552e-05 1.34305e-05 -2.65296e-06
-5.43599e-05 1.63269e-05 1.62999e-05 -1.43701e-06
-5.37556e-05 1.61456e-05 1.61186e-05 -1.43701e-06
-6.2013e-05 1.86245e-05 1.85951e-05 -5.96262e-14
-6.06031e-05 1.82013e-05 1.81722e-05 -1.73119e-14
-4.32824e-05 1.30019e-05 1.29774e-05 -2.65296e-06
-4.42896e-05 1.33041e-05 1.32795e-05 -2.65296e-06
-6.13081e-05 1.84129e-05 1.83836e-05 -3.96749e-14
-5.19428e-05 1.56016e-05 1.55748e-05 -1.43701e-06
-4.3786e-05 1.3153e-05 1.31284e-05 -2.65296e-06
-5.31513e-05 1.59643e-05 1.59373e-05 -1.43701e-06
-5.25471e-05 1.57829e-05 1.57561e-05 -1.43701e-06
-6.06031e-05 1.82013e-05 1.81722e-05 -1.7289e-14
-5.91931e-05 1.77782e-05 1.77493e-05 -1.57797e-14
-4.22753e-05 1.26997e-05 1.26752e-05 -2.65296e-06
-4.32824e-05 1.30019e-05 1.29774e-05 -2.65296e-06
-5.98981e-05 1.79898e-05 1.79607e-05 -4.65925e-14
-5.07342e-05 1.5239e-05 1.52123e-05 -1.43701e-06
-4.27788e-05 1.28508e-05 1.28263e-05 -2.65296e-06
-5.19428e-05 1.56016e-05 1.55748e-05 -1.43701e-06
-5.13385e-05 1.54203e-05 1.53935e-05 -1.43701e-06
-5.91931e-05 1.77782e-05 1.77493e-05 -1.58266e-14
-5.77832e-05 1.73551e-05 1.73263e-05 -2.31479e-14
-4.12681e-05 1.23975e-05 1.23731e-05 -2.65296e-06
-4.22753e-05 1.26997e-05 1.26752e-05 -2.65296e-06
-5.84882e-05 1.75667e-05 1.75378e-05 -4.40638e-14
-4.95257e-05 1.48763e-05 1.48497e-05 -1.43701e-06
-4.17717e-05 1.25486e-05 1.25242e-05 -2.65296e-06
-5.07342e-05 1.5239e-05 1.52123e-05 -1.43701e-06
-5.013e-05 1.50576e-05 1.5031e-05 -1.43701e-06
-5.77832e-05 1.73551e-05 1.73263e-05 -2.31479e-14
-5.63733e-05 1.6932e-05 1.69034e-05 -3.71997e-14
-4.0261e-05 1.20954e-05 1.2071e-05 -2.65296e-06
-4.12681e-05 1.23975e-05 1.23731e-05 -2.65296e-06
-5.70782e-05 1.71435e-05 1.71149e-05 -5.21079e-15
-4.83171e-05 1.45136e-05 1.44872e-05 -1.43701e-06
-4.07645e-05 1.22465e-05 1.2222e-05 -2.65296e-06
-4.95257e-05 1.48763e-05 1.48497e-05 -1.43701e-06
-4.89214e-05 1.4695e-05 1.46685e-05 -1.43701e-06
-5.63733e-05 1.6932e-05 1.69034e-05 -3.71997e-14
-5.49633e-05 1.65088e-05 1.64805e-05 -4.78349e-14
-3.92538e-05 1.17932e-05 1.17689e-05 -2.65297e-06
-4.0261e-05 1.20954e-05 1.2071e-05 -2.65296e-06
-5.56683e-05 1.67204e-05 1.66919e-05 -2.89497e-14
-4.71086e-05 1.4151e-05 1.41247e-05 -1.43702e-06
-3.97574e-05 1.19443e-05 1.19199e-05 -2.65296e-06
-4.83171e-05 1.45136e-05 1.44872e-05 -1.43701e-06
-4.77129e-05 1.43323e-05 1.43059e-05 -1.43701e-06
-5.49633e-05 1.65088e-05 1.64805e-05 -4.78601e-14
-5.35534e-05 1.60857e-05 1.60576e-05 -5.77937e-14
-3.82467e-05 1.1491e-05 1.14667e-05 -2.65297e-06
-3.92538e-05 1.17932e-05 1.17689e-05 -2.65297e-06
-5.42583e-05 1.62973e-05 1.6269e-05 -6.65227e-14
-4.59e-05 1.37883e-05 1.37622e-05 -1.43702e-06
-3.87502e-05 1.16421e-05 1.16178e-05 -2.65297e-06
-4.71086e-05 1.4151e-05 1.41247e-05 -1.43702e-06
-4.65043e-05 1.39697e-05 1.39434e-05 -1.43702e-06
-5.35534e-05 1.60857e-05 1.60576e-05 -1.80047e-14
-5.21434e-05 1.56626e-05 1.56346e-05 -3.68557e-14
-3.72395e-05 1.11888e-05 1.11646e-05 -2.65297e-06
-3.82467e-05 1.1491e-05 1.14667e-05 -2.65297e-06
-5.28484e-05 1.58742e-05 1.58461e-05 -1.02297e-14
-4.46915e-05 1.34257e-05 1.33996e-05 -1.43702e-06
-3.77431e-05 1.13399e-05 1.13157e-05 -2.65297e-06
-4.59e-05 1.37883e-05 1.37622e-05 -1.43702e-06
-4.52958e-05 1.3607e-05 1.35809e-05 -1.43702e-06
-5.21434e-05 1.56626e-05 1.56346e-05 -3.68557e-14
-5.07335e-05 1.52395e-05 1.52117e-05 -5.02392e-14
-3.62324e-05 1.08866e-05 1.08625e-05 -2.65297e-06
-3.72395e-05 1.11888e-05 1.11646e-05 -2.65297e-06
-5.14385e-05 1.5451e-05 1.54232e-05 7.04724e-15
-4.3483e-05 1.3063e-05 1.30371e-05 -1.43702e-06
-3.6736e-05 1.10377e-05 1.10136e-05 -2.65297e-06
-4.46915e-05 1.34257e-05 1.33996e-05 -1.43702e-06
-4.40872e-05 1.32443e-05 1.32184e-05 -1.43702e-06
-5.07335e-05 1.52395e-05 1.52117e-05 -5.02392e-14
-4.93236e-05 1.48163e-05 1.47888e-05 -6.99619e-14
-3.52252e-05 1.05844e-05 1.05604e-05 -2.65297e-06
-3.62324e-05 1.08866e-05 1.08625e-05 -2.65297e-06
-5.00285e-05 1.50279e-05 1.50003e-05 -4.41241e-14
-4.22744e-05 1.27003e-05 1.26746e-05 -1.43702e-06
-3.57288e-05 1.07355e-05 1.07114e-05 -2.65297e-06
-4.3483e-05 1.3063e-05 1.30371e-05 -1.43702e-06
-4.28787e-05 1.28817e-05 1.28559e-05 -1.43702e-06
-4.93236e-05 1.48163e-05 1.47888e-05 -4.34366e-14
-4.79136e-05 1.43932e-05 1.43659e-05 -7.47076e-14
-3.42181e-05 1.02822e-05 1.02583e-05 -2.65297e-06
-3.52252e-05 1.05844e-05 1.05604e-05 -2.65297e-06
-4.86186e-05 1.46048e-05 1.45773e-05 -9.95219e-14
-4.10659e-05 1.23377e-05 1.23121e-05 -1.43702e-06
-3.47217e-05 1.04333e-05 1.04093e-05 -2.65297e-06
-4.22744e-05 1.27003e-05 1.26746e-05 -1.43702e-06
-4.16701e-05 1.2519e-05 1.24933e-05 -1.43702e-06
-4.79136e-05 1.43932e-05 1.43659e-05 -7.47323e-14
-4.65037e-05 1.39701e-05 1.3943e-05 -8.10502e-14
-3.3211e-05 9.97996e-06 9.95615e-06 -2.65298e-06
-3.42181e-05 1.02822e-05 1.02583e-05 -2.65297e-06
-4.72087e-05 1.41817e-05 1.41544e-05 -7.84518e-14
-3.98573e-05 1.1975e-05 1.19496e-05 -1.43702e-06
-3.37145e-05 1.01311e-05 1.01072e-05 -2.65297e-06
-4.10659e-05 1.23377e-05 1.23121e-05 -1.43702e-06
-4.04616e-05 1.21563e-05 1.21308e-05 -1.43702e-06
-4.65037e-05 1.39701e-05 1.3943e-05 -8.10502e-14
-4.50938e-05 1.3547e-05 1.35201e-05 -7.02611e-14
-3.22038e-05 9.67776e-06 9.65404e-06 -2.65298e-06
-3.3211e-05 9.97996e-06 9.95615e-06 -2.65298e-06
-4.57987e-05 1.37585e-05 1.37315e-05 -8.97828e-14
-3.86488e-05 1.16123e-05 1.15871e-05 -1.43702e-06
-3.27074e-05 9.82886e-06 9.80509e-06 -2.65298e-06
-3.98573e-05 1.1975e-05 1.19496e-05 -1.43702e-06
-3.92531e-05 1.17937e-05 1.17683e-05 -1.43702e-06
-4.50938e-05 1.3547e-05 1.35201e-05 -7.02611e-14
-4.36838e-05 1.31238e-05 1.30971e-05 -5.72262e-14
-3.11967e-05 9.37555e-06 9.35193e-06 -2.65298e-06
-3.22038e-05 9.67776e-06 9.65404e-06 -2.65298e-06
-4.43888e-05 1.33354e-05 1.33086e-05 -1.13199e-13
-3.74403e-05 1.12497e-05 1.12245e-05 -1.43702e-06
-3.17003e-05 9.52665e-06 9.50298e-06 -2.65298e-06
-3.86488e-05 1.16123e-05 1.15871e-05 -1.43702e-06
-3.80445e-05 1.1431e-05 1.14058e-05 -1.43702e-06
-4.36838e-05 1.31238e-05 1.30971e-05 -5.72505e-14
-4.22739e-05 1.27007e-05 1.26742e-05 -5.50917e-14
-3.01896e-05 9.07334e-06 9.04982e-06 -2.65298e-06
-3.11967e-05 9.37555e-06 9.35193e-06 -2.65298e-06
-4.29789e-05 1.29123e-05 1.28857e-05 -5.8609e-14
-3.62318e-05 1.0887e-05 1.0862e-05 -1.43703e-06
-3.06931e-05 9.22444e-06 9.20087e-06 -2.65298e-06
-3.74403e-05 1.12497e-05 1.12245e-05 -1.43702e-06
-3.6836e-05 1.10683e-05 1.10433e-05 -1.43702e-06
-4.22739e-05 1.27007e-05 1.26742e-05 -2.85397e-14
-4.0864e-05 1.22776e-05 1.22513e-05 -7.40421e-14
-2.91825e-05 8.77113e-06 8.74771e-06 -2.65298e-06
-3.01896e-05 9.07334e-06 9.04982e-06 -2.65298e-06
-4.15689e-05 1.24891e-05 1.24628e-05 -9.24244e-14
-3.50232e-05 1.05243e-05 1.04995e-05 -1.43703e-06
-2.9686e-05 8.92224e-06 8.89877e-06 -2.65298e-06
-3.62318e-05 1.0887e-05 1.0862e-05 -1.43703e-06
-3.56275e-05 1.07057e-05 1.06808e-05 -1.43703e-06
-4.0864e-05 1.22776e-05 1.22513e-05 -7.40421e-14
-3.9454e-05 1.18544e-05 1.18284e-05 -5.88168e-14
-2.81753e-05 8.46892e-06 8.44561e-06 -2.65298e-06
-2.91825e-05 8.77113e-06 8.74771e-06 -2.65298e-06
-4.0159e-05 1.2066e-05 1.20399e-05 -5.29173e-14
-3.38147e-05 1.01617e-05 1.0137e-05 -1.43703e-06
-2.86789e-05 8.62003e-06 8.59666e-06 -2.65298e-06
-3.50232e-05 1.05243e-05 1.04995e-05 -1.43703e-06
-3.4419e-05 1.0343e-05 1.03183e-05 -1.43703e-06
-3.9454e-05 1.18544e-05 1.18284e-05 -5.88168e-14
-3.80441e-05 1.14313e-05 1.14055e-05 -7.86811e-14
-2.71682e-05 8.16671e-06 8.1435e-06 -2.65298e-06
-2.81753e-05 8.46892e-06 8.44561e-06 -2.65298e-06
-3.87491e-05 1.16429e-05 1.16169e-05 -6.97476e-14
-3.26062e-05 9.799e-06 9.77451e-06 -1.43703e-06
-2.76718e-05 8.31781e-06 8.29456e-06 -2.65298e-06
-3.38147e-05 1.01617e-05 1.0137e-05 -1.43703e-06
-3.32104e-05 9.98033e-06 9.95576e-06 -1.43703e-06
-3.80441e-05 1.14313e-05 1.14055e-05 -2.56307e-14
-3.66342e-05 1.10082e-05 1.09826e-05 -5.99885e-14
-2.61611e-05 7.86449e-06 7.8414e-06 -2.65299e-06
-2.71682e-05 8.16671e-06 8.1435e-06 -2.65298e-06
-3.73392e-05 1.12197e-05 1.1194e-05 -6.93619e-14
-3.13977e-05 9.43632e-06 9.412e-06 -1.43703e-06
-2.66647e-05 8.0156e-06 7.99245e-06 -2.65299e-06
-3.26062e-05 9.799e-06 9.77451e-06 -1.43703e-06
-3.20019e-05 9.61766e-06 9.59326e-06 -1.43703e-06
-3.66342e-05 1.10082e-05 1.09826e-05 -5.99924e-14
-3.52243e-05 1.0585e-05 1.05597e-05 -4.34447e-14
-2.5154e-05 7.56228e-06 7.5393e-06 -2.65299e-06
-2.61611e-05 7.86449e-06 7.8414e-06 -2.65299e-06
-3.59292e-05 1.07966e-05 1.07711e-05 -3.79717e-14
-3.01891e-05 9.07365e-06 9.0495e-06 -1.43703e-06
-2.56575e-05 7.71339e-06 7.69035e-06 -2.65299e-06
-3.13977e-05 9.43632e-06 9.412e-06 -1.43703e-06
-3.07934e-05 9.25499e-06 9.23075e-06 -1.43703e-06
-3.52243e-05 1.0585e-05 1.05597e-05 -4.34447e-14
-3.38144e-05 1.01619e-05 1.01368e-05 -3.02187e-14
-2.41469e-05 7.26006e-06 7.2372e-06 -2.65299e-06
-2.5154e-05 7.56228e-06 7.5393e-06 -2.65299e-06
-3.45193e-05 1.03735e-05 1.03482e-05 -3.69018e-14
-2.89806e-05 8.71097e-06 8.687e-06 -1.43703e-06
-2.46504e-05 7.41117e-06 7.38825e-06 -2.65299e-06
-3.01891e-05 9.07365e-06 9.0495e-06 -1.43703e-06
-2.95849e-05 8.89231e-06 8.86825e-06 -1.43703e-06
-3.38144e-05 1.01619e-05 1.01368e-05 -3.02187e-14
-3.24045e-05 9.73877e-06 9.71387e-06 5.06893e-14
-2.31398e-05 6.95785e-06 6.93511e-06 -2.65299e-06
-2.41469e-05 7.26006e-06 7.2372e-06 -2.65299e-06
-3.31094e-05 9.95033e-06 9.92532e-06 1.62399e-14
-2.77721e-05 8.3483e-06 8.32449e-06 -1.43703e-06
-2.36433e-05 7.10895e-06 7.08616e-06 -2.65299e-06
-2.89806e-05 8.71097e-06 8.687e-06 -1.43703e-06
-2.83764e-05 8.52964e-06 8.50574e-06 -1.43703e-06
-3.24045e-05 9.73877e-06 9.71387e-06 5.06627e-14
-3.09945e-05 9.31563e-06 9.29096e-06 1.78923e-13
-2.21327e-05 6.65563e-06 6.63301e-06 -2.653e-06
-2.31398e-05 6.95785e-06 6.93511e-06 -2.65299e-06
-3.16995e-05 9.5272e-06 9.50241e-06 9.3117e-14
-2.65636e-05 7.98562e-06 7.96199e-06 -1.43704e-06
-2.26362e-05 6.80674e-06 6.78406e-06 -2.65299e-06
-2.77721e-05 8.3483e-06 8.32449e-06 -1.43703e-06
-2.71679e-05 8.16696e-06 8.14324e-06 -1.43704e-06
-3.09945e-05 9.31563e-06 9.29096e-06 2.3195e-13
-2.95846e-05 8.89249e-06 8.86806e-06 3.29974e-13
-2.11256e-05 6.35341e-06 6.33092e-06 -2.65301e-06
-2.21327e-05 6.65563e-06 6.63301e-06 -2.653e-06
-3.02896e-05 9.10406e-06 9.07951e-06 2.55868e-13
-2.53551e-05 7.62294e-06 7.59949e-06 -1.43704e-06
-2.16291e-05 6.50452e-06 6.48197e-06 -2.653e-06
-2.65636e-05 7.98562e-06 7.96199e-06 -1.43704e-06
-2.59593e-05 7.80428e-06 7.78074e-06 -1.43704e-06
-2.95846e-05 8.89249e-06 8.86806e-06 3.29974e-13
-2.81747e-05 8.46935e-06 8.44515e-06 7.15446e-13
-2.01185e-05 6.05119e-06 6.02883e-06 -2.65302e-06
-2.11256e-05 6.35341e-06 6.33092e-06 -2.65301e-06
-2.88797e-05 8.68092e-06 8.6566e-06 5.97169e-13
-2.41466e-05 7.26026e-06 7.23699e-06 -1.43705e-06
-2.0622e-05 6.2023e-06 6.17987e-06 -2.65301e-06
-2.53551e-05 7.62294e-06 7.59949e-06 -1.43704e-06
-2.47508e-05 7.4416e-06 7.41824e-06 -1.43705e-06
-2.81747e-05 8.46935e-06 8.44515e-06 7.15446e-13
-2.67648e-05 8.0462e-06 8.02224e-06 9.59669e-13
-1.91114e-05 5.74898e-06 5.72673e-06 -2.65304e-06
-2.01185e-05 6.05119e-06 6.02883e-06 -2.65302e-06
-2.74697e-05 8.25777e-06 8.2337e-06 8.03755e-13
-2.29381e-05 6.89758e-06 6.87449e-06 -1.43707e-06
-1.96149e-05 5.90009e-06 5.87778e-06 -2.65303e-06
-2.41466e-05 7.26026e-06 7.23699e-06 -1.43705e-06
-2.35423e-05 7.07892e-06 7.05574e-06 -1.43706e-06
-2.67648e-05 8.0462e-06 8.02224e-06 9.72932e-13
-2.53548e-05 7.62304e-06 7.59932e-06 1.43951e-12
-1.81043e-05 5.44677e-06 5.42465e-06 -2.65307e-06
-1.91114e-05 5.74898e-06 5.72673e-06 -2.65304e-06
-2.60598e-05 7.83462e-06 7.81078e-06 1.70121e-12
-2.17295e-05 6.53489e-06 6.51199e-06 -1.4371e-06
-1.86078e-05 5.59787e-06 5.57569e-06 -2.65305e-06
-2.29381e-05 6.89758e-06 6.87449e-06 -1.43707e-06
-2.23338e-05 6.71624e-06 6.69324e-06 -1.43708e-06
-2.53548e-05 7.62304e-06 7.59932e-06 1.43951e-12
-2.39448e-05 7.19987e-06 7.1764e-06 1.19242e-12
-1.70972e-05 5.14455e-06 5.12256e-06 -2.6531e-06
-1.81043e-05 5.44677e-06 5.42465e-06 -2.65307e-06
-2.46498e-05 7.41146e-06 7.38786e-06 6.48011e-13
-2.0521e-05 6.1722e-06 6.14948e-06 -1.43713e-06
-1.76007e-05 5.29566e-06 5.2736e-06 -2.65309e-06
-2.17295e-05 6.53489e-06 6.51199e-06 -1.4371e-06
-2.11253e-05 6.35355e-06 6.33073e-06 -1.43712e-06
-2.39448e-05 7.19987e-06 7.1764e-06 1.19242e-12
-2.25347e-05 6.77667e-06 6.75345e-06 -1.33735e-12
-1.60901e-05 4.84232e-06 4.8205e-06 -2.65312e-06
-1.70972e-05 5.14455e-06 5.12256e-06 -2.6531e-06
-2.32398e-05 6.98827e-06 6.96493e-06 2.9579e-12
-1.93124e-05 5.80951e-06 5.78697e-06 -1.43718e-06
-1.65937e-05 4.99344e-06 4.97153e-06 -2.65312e-06
-2.0521e-05 6.1722e-06 6.14948e-06 -1.43713e-06
-1.99167e-05 5.99086e-06 5.96823e-06 -1.43716e-06
-2.25347e-05 6.77667e-06 6.75345e-06 -1.33735e-12
-2.11246e-05 6.35345e-06 6.33048e-06 -4.90621e-12
-1.50831e-05 4.54003e-06 4.51846e-06 -2.65307e-06
-1.60901e-05 4.84232e-06 4.8205e-06 -2.65312e-06
-2.18297e-05 6.56506e-06 6.54197e-06 -7.21671e-12
-1.81039e-05 5.4468e-06 5.42448e-06 -1.43718e-06
-1.55866e-05 4.69119e-06 4.66947e-06 -2.65311e-06
-1.93124e-05 5.80951e-06 5.78697e-06 -1.43718e-06
-1.87082e-05 5.62816e-06 5.60572e-06 -1.43719e-06
-2.11246e-05 6.35345e-06 6.33048e-06 -4.90621e-12
-1.97144e-05 5.93019e-06 5.90751e-06 -2.91471e-11
-1.40761e-05 4.23762e-06 4.2165e-06 -2.65282e-06
-1.50831e-05 4.54003e-06 4.51846e-06 -2.65307e-06
-2.04195e-05 6.14181e-06 6.119e-06 -1.92217e-12
-1.68955e-05 5.08408e-06 5.06202e-06 -1.43709e-06
-1.45796e-05 4.38885e-06 4.36747e-06 -2.65298e-06
-1.81039e-05 5.4468e-06 5.42448e-06 -1.43718e-06
-1.74997e-05 5.26544e-06 5.24324e-06 -1.43716e-06
-1.97144e-05 5.93019e-06 5.90751e-06 -2.91504e-11
-1.83042e-05 5.50701e-06 5.48452e-06 -4.30919e-11
-1.30692e-05 3.93491e-06 3.91469e-06 -2.65206e-06
-1.40761e-05 4.23762e-06 4.2165e-06 -2.65282e-06
-1.90093e-05 5.71861e-06 5.69601e-06 -5.86145e-11
-1.56872e-05 4.72136e-06 4.69966e-06 -1.43668e-06
-1.35726e-05 4.08632e-06 4.06556e-06 -2.65254e-06
-1.68955e-05 5.08408e-06 5.06202e-06 -1.43709e-06
-1.62913e-05 4.90272e-06 4.88083e-06 -1.43694e-06
-1.83042e-05 5.50701e-06 5.48452e-06 -4.30919e-11
-1.68946e-05 5.08385e-06 5.06177e-06 -1.75816e-10
-1.20622e-05 3.63159e-06 3.61313e-06 -2.65026e-06
-1.30692e-05 3.93491e-06 3.91469e-06 -2.65206e-06
-1.75993e-05 5.29534e-06 5.27312e-06 -4.14799e-11
-1.44797e-05 4.35864e-06 4.33759e-06 -1.43559e-06
-1.25657e-05 3.78336e-06 3.76388e-06 -2.65133e-06
-1.56872e-05 4.72136e-06 4.69966e-06 -1.43668e-06
-1.50833e-05 4.54e-06 4.51856e-06 -1.43627e-06
-1.68946e-05 5.08385e-06 5.06177e-06 -1.75816e-10
-1.54863e-05 4.66151e-06 4.63918e-06 -1.98066e-10
-1.10554e-05 3.32701e-06 3.31216e-06 -2.6461e-06
-1.20622e-05 3.63159e-06 3.61313e-06 -2.65026e-06
-1.61903e-05 4.87272e-06 4.8504e-06 -3.00398e-10
-1.32734e-05 3.99597e-06 3.97602e-06 -1.43287e-06
-1.15587e-05 3.4795e-06 3.46253e-06 -2.6486e-06
-1.44797e-05 4.35864e-06 4.33759e-06 -1.43559e-06
-1.38764e-05 4.17729e-06 4.15674e-06 -1.43449e-06
-1.54863e-05 4.66151e-06 4.63918e-06 -1.98119e-10
-1.40823e-05 4.23964e-06 4.21828e-06 -7.85153e-10
-1.00479e-05 3.02015e-06 3.01187e-06 -2.63781e-06
-1.10554e-05 3.32701e-06 3.31216e-06 -2.6461e-06
-1.47833e-05 4.45003e-06 4.42854e-06 -2.00642e-10
-1.20702e-05 3.63347e-06 3.61575e-06 -1.42706e-06
-1.05519e-05 3.17401e-06 3.16194e-06 -2.64261e-06
-1.32734e-05 3.99597e-06 3.97602e-06 -1.43287e-06
-1.26712e-05 3.81471e-06 3.79562e-06 -1.43057e-06
-1.40823e-05 4.23964e-06 4.21828e-06 -7.85153e-10
-1.26854e-05 3.8225e-06 3.79839e-06 -6.80401e-10
-9.04017e-06 2.70896e-06 2.71338e-06 -2.62108e-06
-1.00479e-05 3.02015e-06 3.01187e-06 -2.63781e-06
-1.33831e-05 4.03126e-06 4.00791e-06 -1.27402e-09
-1.08721e-05 3.27132e-06 3.2575e-06 -1.41501e-06
-9.54381e-06 2.86515e-06 2.86228e-06 -2.63092e-06
-1.20702e-05 3.63347e-06 3.61575e-06 -1.42706e-06
-1.14706e-05 3.45228e-06 3.43641e-06 -1.42192e-06
-1.26854e-05 3.8225e-06 3.79839e-06 -6.80401e-10
-1.13094e-05 3.40709e-06 3.38669e-06 -2.95884e-09
-8.02811e-06 2.39105e-06 2.41589e-06 -2.59154e-06
-9.04017e-06 2.70896e-06 2.71338e-06 -2.62108e-06
-1.1993e-05 3.61216e-06 3.59178e-06 -5.85941e-10
-9.686e-06 2.91018e-06 2.90392e-06 -1.39171e-06
-8.53544e-06 2.55135e-06 2.56461e-06 -2.6082e-06
-1.08721e-05 3.27132e-06 3.2575e-06 -1.41501e-06
-1.02767e-05 3.09073e-06 3.07971e-06 -1.40565e-06
-1.13094e-05 3.40709e-06 3.38669e-06 -2.95884e-09
-9.96379e-06 3.01404e-06 2.97846e-06 -1.83298e-09
-7.01304e-06 2.06052e-06 2.12251e-06 -2.53803e-06
-8.02811e-06 2.39105e-06 2.41589e-06 -2.59154e-06
-1.06334e-05 3.2119e-06 3.18063e-06 -4.91477e-09
-8.51542e-06 2.54998e-06 2.55662e-06 -1.34911e-06
-7.52003e-06 2.22704e-06 2.26842e-06 -2.56888e-06
-9.686e-06 2.91018e-06 2.90392e-06 -1.39171e-06
-9.09917e-06 2.72956e-06 2.72983e-06 -1.37261e-06
-9.96379e-06 3.01404e-06 2.97846e-06 -1.83298e-09
-8.69624e-06 2.62223e-06 2.60315e-06 -9.86869e-09
-5.97595e-06 1.7159e-06 1.82573e-06 -2.45626e-06
-7.01304e-06 2.06052e-06 2.12251e-06 -2.53803e-06
-9.31371e-06 2.8066e-06 2.78876e-06 -4.98724e-10
-7.38169e-06 2.19384e-06 2.22337e-06 -1.27242e-06
-6.50055e-06 1.89185e-06 1.97516e-06 -2.50071e-06
-8.51542e-06 2.54998e-06 2.55662e-06 -1.34911e-06
-7.94089e-06 2.37214e-06 2.3866e-06 -1.31854e-06
-8.69624e-06 2.62223e-06 2.60315e-06 -9.86872e-09
-7.53907e-06 2.32597e-06 2.23419e-06 -3.42147e-09
-4.91812e-06 1.34286e-06 1.53225e-06 -2.32941e-06
-5.97595e-06 1.7159e-06 1.82573e-06 -2.45626e-06
-8.10637e-06 2.48265e-06 2.41017e-06 -1.84257e-08
-6.27874e-06 1.83677e-06 1.90371e-06 -1.15089e-06
-5.44616e-06 1.5295e-06 1.67857e-06 -2.39995e-06
-7.38169e-06 2.19384e-06 2.22337e-06 -1.27242e-06
-6.83019e-06 2.0137e-06 2.06421e-06 -1.21366e-06
-7.53907e-06 2.32597e-06 2.23419e-06 -3.42147e-09
-6.62443e-06 1.9997e-06 1.98203e-06 -2.71372e-08
-3.7649e-06 9.71507e-07 1.19717e-06 -2.19287e-06
-4.91812e-06 1.34286e-06 1.53225e-06 -2.32941e-06
-7.03241e-06 2.11563e-06 2.10719e-06 7.98613e-09
-5.2615e-06 1.49087e-06 1.61598e-06 -9.50366e-07
-4.36624e-06 1.16309e-06 1.37278e-06 -2.25848e-06
-6.27874e-06 1.83677e-06 1.90371e-06 -1.15089e-06
-5.74872e-06 1.66613e-06 1.74968e-06 -1.07356e-06
-6.62443e-06 1.9997e-06 1.98203e-06 -2.71372e-08
-6.0975e-06 2.04401e-06 1.73721e-06 4.36949e-08
-2.52378e-06 6.03352e-07 8.23039e-07 -2.10497e-06
-3.7649e-06 9.71507e-07 1.19717e-06 -2.19287e-06
-6.31338e-06 2.07444e-06 1.81669e-06 -5.9504e-08
-4.20095e-06 1.11786e-06 1.32132e-06 -7.32358e-07
-3.14159e-06 7.61869e-07 1.01988e-06 -2.13405e-06
-5.2615e-06 1.49087e-06 1.61598e-06 -9.50366e-07
-4.76345e-06 1.30267e-06 1.48319e-06 -8.1676e-07
-6.0975e-06 2.04401e-06 1.73721e-06 4.36948e-08
-6.43854e-06 1.76837e-06 2.0015e-06 2.62539e-07
-1.08226e-06 6.35519e-07 1.91462e-07 -2.45975e-06
-2.52378e-06 6.03352e-07 8.23039e-07 -2.10497e-06
-6.09861e-06 1.72409e-06 1.87479e-06 1.86885e-07
-3.06942e-06 8.06741e-07 9.69719e-07 -5.98655e-07
-1.85586e-06 5.64453e-07 5.53462e-07 -2.18893e-06
-4.20095e-06 1.11786e-06 1.32132e-06 -7.32358e-07
-3.62071e-06 9.53715e-07 1.143e-06 -6.82319e-07
-6.43854e-06 1.76837e-06 2.0015e-06 2.62539e-07
-8.77378e-06 1.78163e-06 2.99664e-06 2.04276e-06
-4.07586e-07 2.29706e-06 -8.09777e-07 -3.76206e-06
-1.08226e-06 6.35519e-07 1.91462e-07 -2.45975e-06
-7.27702e-06 2.46245e-06 2.06338e-06 5.50478e-07
-7.31743e-07 1.44651e-06 -3.0633e-07 -2.17632e-06
-5.00371e-07 9.50644e-07 -1.92974e-07 -2.92479e-06
-3.06942e-06 8.06741e-07 9.69719e-07 -5.98655e-07
-2.2166e-06 7.82869e-07 6.14455e-07 -8.98793e-07
-8.77378e-06 1.78163e-06 2.99664e-06 2.04276e-06
-5.0967e-06 1.33086e-05 -3.5194e-06 -1.02831e-05
-3.12192e-06 1.0107e-05 -2.99361e-06 -3.80625e-06
-4.07586e-07 2.29706e-06 -8.09777e-07 -3.76206e-06
-8.76761e-06 5.51441e-07 3.52121e-06 8.99674e-07
-2.8002e-06 1.24292e-05 -4.12672e-06 -6.12012e-06
-1.16205e-06 5.40295e-06 -1.81753e-06 -4.43406e-06
-7.31743e-07 1.44651e-06 -3.0633e-07 -2.17632e-06
-3.48418e-07 4.08629e-06 -1.60195e-06 -4.04434e-06
-0.000169074 0 7.24602e-05 -9.70601e-06
-0.000190347 3.7768e-05 6.5391e-05 -1.41798e-05
-0.000110203 1.45727e-05 4.09842e-05 -4.41195e-07
-9.74358e-05 0 4.17582e-05 1.2774e-05
-0.000181008 1.78355e-05 6.99312e-05 -1.64521e-05
-0.000146995 2.27912e-05 5.32304e-05 -5.87882e-06
-0.000105595 8.19471e-06 4.17431e-05 4.79205e-06
-0.000138393 0 5.93114e-05 1.98198e-06
-0.000140741 1.26366e-05 5.4902e-05 -1.88738e-06
-0.000190347 3.7768e-05 6.5391e-05 -1.41798e-05
-0.000197779 5.35829e-05 6.17983e-05 -6.75743e-06
-0.000115839 2.66519e-05 3.82229e-05 -4.55243e-06
-0.000110203 1.45727e-05 4.09842e-05 -4.41195e-07
-0.000196226 4.89272e-05 6.3128e-05 -1.02295e-05
-0.000156781 3.86957e-05 5.06078e-05 -6.86288e-06
-0.000113027 2.09958e-05 3.94421e-05 -3.09078e-06
-0.000146995 2.27912e-05 5.32304e-05 -5.87882e-06
-0.000153545 3.17264e-05 5.22081e-05 -7.70898e-06
-0.000197779 5.35829e-05 6.17983e-05 -6.75743e-06
-0.000196827 5.80192e-05 5.94889e-05 -2.51981e-06
-0.000118699 3.27504e-05 3.68351e-05 -5.34431e-06
-0.000115839 2.66519e-05 3.82229e-05 -4.55243e-06
-0.000197236 5.63424e-05 6.03831e-05 -3.97587e-06
-0.000158361 4.50877e-05 4.85455e-05 -4.6116e-06
-0.000117956 3.04365e-05 3.75084e-05 -5.27147e-06
-0.000156781 3.86957e-05 5.06078e-05 -6.86288e-06
-0.000157965 4.28684e-05 4.9327e-05 -5.42792e-06
-0.000196827 5.80192e-05 5.94889e-05 -2.51981e-06
-0.00019544 5.86284e-05 5.86337e-05 -1.57518e-06
-0.000118595 3.5147e-05 3.57636e-05 -4.94204e-06
-0.000118699 3.27504e-05 3.68351e-05 -5.34431e-06
-0.000196309 5.86088e-05 5.90142e-05 -1.88493e-06
-0.000157597 4.71286e-05 4.73436e-05 -3.5064e-06
-0.000118701 3.42548e-05 3.61912e-05 -5.11921e-06
-0.000158361 4.50877e-05 4.85455e-05 -4.6116e-06
-0.00015817 4.64172e-05 4.78942e-05 -4.01739e-06
-0.00019544 5.86284e-05 5.86337e-05 -1.57518e-06
-0.00019384 5.85294e-05 5.79901e-05 -1.53299e-06
-0.000117766 3.56049e-05 3.52119e-05 -4.66862e-06
-0.000118595 3.5147e-05 3.57636e-05 -4.94204e-06
-0.000194519 5.85982e-05 5.82516e-05 -1.46031e-06
-0.000156152 4.72457e-05 4.66739e-05 -3.16042e-06
-0.000118308 3.55314e-05 3.54758e-05 -4.80642e-06
-0.000157597 4.71286e-05 4.73436e-05 -3.5064e-06
-0.000156853 4.73274e-05 4.69396e-05 -3.21797e-06
-0.00019384 5.85294e-05 5.79901e-05 -1.53299e-06
-0.000192624 5.81e-05 5.76533e-05 -1.85379e-06
-0.000116595 3.5425e-05 3.47871e-05 -4.48553e-06
-0.000117766 3.56049e-05 3.52119e-05 -4.66862e-06
-0.000193257 5.83421e-05 5.78207e-05 -1.70167e-06
-0.00015482 4.6916e-05 4.62444e-05 -3.18646e-06
-0.000117138 3.55531e-05 3.4965e-05 -4.54855e-06
-0.000156152 4.72457e-05 4.66739e-05 -3.16042e-06
-0.000155478 4.70998e-05 4.64479e-05 -3.17235e-06
-0.000192624 5.81e-05 5.76533e-05 -1.85379e-06
-0.000191449 5.76805e-05 5.73293e-05 -2.12346e-06
-0.000115574 3.50308e-05 3.45187e-05 -4.4294e-06
-0.000116595 3.5425e-05 3.47871e-05 -4.48553e-06
-0.000192002 5.78817e-05 5.74799e-05 -1.98893e-06
-0.000153621 4.64391e-05 4.59349e-05 -3.30706e-06
-0.000116089 3.52392e-05 3.465e-05 -4.45479e-06
-0.00015482 4.6916e-05 4.62444e-05 -3.18646e-06
-0.000154194 4.66844e-05 4.60756e-05 -3.23303e-06
-0.000191449 5.76805e-05 5.73293e-05 -2.12346e-06
-0.000190393 5.72725e-05 5.70518e-05 -2.34334e-06
-0.000114645 3.46453e-05 3.42857e-05 -4.40514e-06
-0.000115574 3.50308e-05 3.45187e-05 -4.4294e-06
-0.000190926 5.74752e-05 5.71933e-05 -2.24789e-06
-0.000152577 4.60111e-05 4.56711e-05 -3.42744e-06
-0.000115083 3.48316e-05 3.43933e-05 -4.41083e-06
-0.000153621 4.64391e-05 4.59349e-05 -3.30706e-06
-0.000153086 4.62158e-05 4.58015e-05 -3.37541e-06
-0.000190393 5.72725e-05 5.70518e-05 -2.34334e-06
-0.00018935 5.69036e-05 5.67629e-05 -2.47699e-06
-0.000113853 3.43069e-05 3.40912e-05 -4.40614e-06
-0.000114645 3.46453e-05 3.42857e-05 -4.40514e-06
-0.000189864 5.7083e-05 5.6906e-05 -2.41673e-06
-0.000151629 4.56313e-05 4.54275e-05 -3.51694e-06
-0.000114242 3.44697e-05 3.41883e-05 -4.40588e-06
-0.000152577 4.60111e-05 4.56711e-05 -3.42744e-06
-0.000152092 4.58155e-05 4.55471e-05 -3.47436e-06
-0.00018935 5.69036e-05 5.67629e-05 -2.47699e-06
-0.000188335 5.65588e-05 5.64757e-05 -2.56132e-06
-0.000113131 3.40241e-05 3.3903e-05 -4.40896e-06
-0.000113853 3.43069e-05 3.40912e-05 -4.40614e-06
-0.000188844 5.67289e-05 5.66208e-05 -2.52578e-06
-0.000150746 4.53054e-05 4.51889e-05 -3.57483e-06
-0.000113481 3.41592e-05 3.39952e-05 -4.40669e-06
-0.000151629 4.56313e-05 4.54275e-05 -3.51694e-06
-0.000151182 4.54624e-05 4.53084e-05 -3.55045e-06
-0.000188335 5.65588e-05 5.64757e-05 -2.56132e-06
-0.000187323 5.62327e-05 5.61814e-05 -2.60657e-06
-0.000112466 3.37811e-05 3.37221e-05 -4.41375e-06
-0.000113131 3.40241e-05 3.3903e-05 -4.40896e-06
-0.000187827 5.63938e-05 5.63286e-05 -2.58707e-06
-0.0001499 4.5013e-05 4.49514e-05 -3.60958e-06
-0.000112795 3.38985e-05 3.38128e-05 -4.41177e-06
-0.000150746 4.53054e-05 4.51889e-05 -3.57483e-06
-0.000150319 4.51559e-05 4.507e-05 -3.59417e-06
-0.000187323 5.62327e-05 5.61814e-05 -2.60657e-06
-0.000186315 5.59173e-05 5.58847e-05 -2.63151e-06
-0.000111828 3.35653e-05 3.35412e-05 -4.41677e-06
-0.000112466 3.37811e-05 3.37221e-05 -4.41375e-06
-0.000186819 5.60741e-05 5.60336e-05 -2.62126e-06
-0.000149074 4.4744e-05 4.47128e-05 -3.62882e-06
-0.000112144 3.36705e-05 3.36313e-05 -4.41528e-06
-0.0001499 4.5013e-05 4.49514e-05 -3.60958e-06
-0.000149485 4.48762e-05 4.48323e-05 -3.62091e-06
-0.000186315 5.59173e-05 5.58847e-05 -2.63151e-06
-0.000185307 5.56084e-05 5.55853e-05 -2.64354e-06
-0.000111208 3.33656e-05 3.33611e-05 -4.41898e-06
-0.000111828 3.35653e-05 3.35412e-05 -4.41677e-06
-0.000185811 5.57623e-05 5.57352e-05 -2.63855e-06
-0.000148259 4.44878e-05 4.44732e-05 -3.63902e-06
-0.000111517 3.34639e-05 3.34513e-05 -4.41807e-06
-0.000149074 4.4744e-05 4.47128e-05 -3.62882e-06
-0.000148665 4.46147e-05 4.45931e-05 -3.63468e-06
-0.000185307 5.56084e-05 5.55853e-05 -2.64354e-06
-0.000184301 5.5303e-05 5.52847e-05 -2.64939e-06
-0.000110596 3.31752e-05 3.31804e-05 -4.42018e-06
-0.000111208 3.33656e-05 3.33611e-05 -4.41898e-06
-0.000184804 5.54554e-05 5.54352e-05 -2.64707e-06
-0.000147449 4.4239e-05 4.42327e-05 -3.64403e-06
-0.000110901 3.32695e-05 3.32707e-05 -4.41964e-06
-0.000148259 4.44878e-05 4.44732e-05 -3.63902e-06
-0.000147853 4.43627e-05 4.43531e-05 -3.64203e-06
-0.000184301 5.5303e-05 5.52847e-05 -2.64939e-06
-0.000183294 5.49993e-05 5.49833e-05 -2.65181e-06
-0.000109989 3.29896e-05 3.29996e-05 -4.42088e-06
-0.000110596 3.31752e-05 3.31804e-05 -4.42018e-06
-0.000183797 5.5151e-05 5.51341e-05 -2.65085e-06
-0.000146641 4.39941e-05 4.39917e-05 -3.64636e-06
-0.000110292 3.3082e-05 3.30901e-05 -4.42059e-06
-0.000147449 4.4239e-05 4.42327e-05 -3.64403e-06
-0.000147045 4.41162e-05 4.41123e-05 -3.64541e-06
-0.000183294 5.49993e-05 5.49833e-05 -2.65181e-06
-0.000182287 5.46966e-05 5.46814e-05 -2.65276e-06
-0.000109383 3.28066e-05 3.28184e-05 -4.42121e-06
-0.000109989 3.29896e-05 3.29996e-05 -4.42088e-06
-0.00018279 5.48479e-05 5.48324e-05 -2.65241e-06
-0.000145835 4.37511e-05 4.37503e-05 -3.64733e-06
-0.000109686 3.28979e-05 3.2909e-05 -4.42107e-06
-0.000146641 4.39941e-05 4.39917e-05 -3.64636e-06
-0.000146238 4.38724e-05 4.3871e-05 -3.64696e-06
-0.000182287 5.46966e-05 5.46814e-05 -2.65276e-06
-0.000181279 5.43942e-05 5.43793e-05 -2.65301e-06
-0.000108778 3.26247e-05 3.26372e-05 -4.42137e-06
-0.000109383 3.28066e-05 3.28184e-05 -4.42121e-06
-0.000181783 5.45454e-05 5.45304e-05 -2.65293e-06
-0.000145029 4.35089e-05 4.35086e-05 -3.64767e-06
-0.00010908 3.27155e-05 3.27278e-05 -4.42131e-06
-0.000145835 4.37511e-05 4.37503e-05 -3.64733e-06
-0.000145432 4.36299e-05 4.36295e-05 -3.64754e-06
-0.000181279 5.43942e-05 5.43793e-05 -2.65301e-06
-0.000180272 5.4092e-05 5.40772e-05 -2.65302e-06
-0.000108174 3.24433e-05 3.24558e-05 -4.42144e-06
-0.000108778 3.26247e-05 3.26372e-05 -4.42137e-06
-0.000180776 5.42431e-05 5.42283e-05 -2.65303e-06
-0.000144223 4.32672e-05 4.32669e-05 -3.64776e-06
-0.000108476 3.2534e-05 3.25465e-05 -4.42141e-06
-0.000145029 4.35089e-05 4.35086e-05 -3.64767e-06
-0.000144626 4.3388e-05 4.33878e-05 -3.64774e-06
-0.000180272 5.4092e-05 5.40772e-05 -2.65302e-06
-0.000179265 5.37899e-05 5.3775e-05 -2.65295e-06
-0.000107569 3.22622e-05 3.22744e-05 -4.42146e-06
-0.000108174 3.24433e-05 3.24558e-05 -4.42144e-06
-0.000179768 5.3941e-05 5.39261e-05 -2.65299e-06
-0.000143417 4.30255e-05 4.30251e-05 -3.64774e-06
-0.000107871 3.23527e-05 3.23651e-05 -4.42145e-06
-0.000144223 4.32672e-05 4.32669e-05 -3.64776e-06
-0.00014382 4.31464e-05 4.3146e-05 -3.64776e-06
-0.000179265 5.37899e-05 5.3775e-05 -2.65295e-06
-0.000178257 5.34878e-05 5.34727e-05 -2.65288e-06
-0.000106965 3.2081e-05 3.20929e-05 -4.42147e-06
-0.000107569 3.22622e-05 3.22744e-05 -4.42146e-06
-0.000178761 5.36388e-05 5.36238e-05 -2.65292e-06
-0.000142611 4.2784e-05 4.27832e-05 -3.64771e-06
-0.000107267 3.21716e-05 3.21837e-05 -4.42146e-06
-0.000143417 4.30255e-05 4.30251e-05 -3.64774e-06
-0.000143014 4.29048e-05 4.29041e-05 -3.64773e-06
-0.000178257 5.34878e-05 5.34727e-05 -2.65288e-06
-0.00017725 5.31857e-05 5.31705e-05 -2.65283e-06
-0.00010636 3.19e-05 3.19115e-05 -4.42146e-06
-0.000106965 3.2081e-05 3.20929e-05 -4.42147e-06
-0.000177754 5.33367e-05 5.33216e-05 -2.65285e-06
-0.000141806 4.25424e-05 4.25414e-05 -3.64767e-06
-0.000106662 3.19905e-05 3.20022e-05 -4.42146e-06
-0.000142611 4.2784e-05 4.27832e-05 -3.64771e-06
-0.000142208 4.26632e-05 4.26623e-05 -3.64769e-06
-0.00017725 5.31857e-05 5.31705e-05 -2.65283e-06
-0.000176243 5.28836e-05 5.28682e-05 -2.65279e-06
-0.000105756 3.17188e-05 3.173e-05 -4.42146e-06
-0.00010636 3.19e-05 3.19115e-05 -4.42146e-06
-0.000176746 5.30346e-05 5.30194e-05 -2.65281e-06
-0.000141 4.23008e-05 4.22995e-05 -3.64765e-06
-0.000106058 3.18094e-05 3.18207e-05 -4.42146e-06
-0.000141806 4.25424e-05 4.25414e-05 -3.64767e-06
-0.000141403 4.24216e-05 4.24204e-05 -3.64766e-06
-0.000176243 5.28836e-05 5.28682e-05 -2.65279e-06
-0.000175235 5.25815e-05 5.2566e-05 -2.65277e-06
-0.000105151 3.15377e-05 3.15485e-05 -4.42146e-06
-0.000105756 3.17188e-05 3.173e-05 -4.42146e-06
-0.000175739 5.27325e-05 5.27171e-05 -2.65278e-06
-0.000140194 4.20592e-05 4.20576e-05 -3.64763e-06
-0.000105453 3.16283e-05 3.16393e-05 -4.42146e-06
-0.000141 4.23008e-05 4.22995e-05 -3.64765e-06
-0.000140597 4.218e-05 4.21786e-05 -3.64764e-06
-0.000175235 5.25815e-05 5.2566e-05 -2.65277e-06
-0.000174228 5.22793e-05 5.22638e-05 -2.65276e-06
-0.000104546 3.13566e-05 3.1367e-05 -4.42146e-06
-0.000105151 3.15377e-05 3.15485e-05 -4.42146e-06
-0.000174732 5.24304e-05 5.24149e-05 -2.65277e-06
-0.000139388 4.18175e-05 4.18158e-05 -3.64763e-06
-0.000104849 3.14472e-05 3.14578e-05 -4.42146e-06
-0.000140194 4.20592e-05 4.20576e-05 -3.64763e-06
-0.000139791 4.19383e-05 4.19367e-05 -3.64763e-06
-0.000174228 5.22793e-05 5.22638e-05 -2.65276e-06
-0.000173221 5.19772e-05 5.19615e-05 -2.65276e-06
-0.000103942 3.11755e-05 3.11856e-05 -4.42146e-06
-0.000104546 3.13566e-05 3.1367e-05 -4.42146e-06
-0.000173724 5.21283e-05 5.21127e-05 -2.65276e-06
-0.000138582 4.15759e-05 4.15739e-05 -3.64762e-06
-0.000104244 3.1266e-05 3.12763e-05 -4.42146e-06
-0.000139388 4.18175e-05 4.18158e-05 -3.64763e-06
-0.000138985 4.16967e-05 4.16948e-05 -3.64762e-06
-0.000173221 5.19772e-05 5.19615e-05 -2.65276e-06
-0.000172213 5.16751e-05 5.16593e-05 -2.65276e-06
-0.000103337 3.09943e-05 3.10041e-05 -4.42146e-06
-0.000103942 3.11755e-05 3.11856e-05 -4.42146e-06
-0.000172717 5.18261e-05 5.18104e-05 -2.65276e-06
-0.000137776 4.13343e-05 4.13321e-05 -3.64762e-06
-0.000103639 3.10849e-05 3.10948e-05 -4.42146e-06
-0.000138582 4.15759e-05 4.15739e-05 -3.64762e-06
-0.000138179 4.14551e-05 4.1453e-05 -3.64762e-06
-0.000172213 5.16751e-05 5.16593e-05 -2.65276e-06
-0.000171206 5.1373e-05 5.13571e-05 -2.65276e-06
-0.000102733 3.08132e-05 3.08226e-05 -4.42146e-06
-0.000103337 3.09943e-05 3.10041e-05 -4.42146e-06
-0.00017171 5.1524e-05 5.15082e-05 -2.65276e-06
-0.00013697 4.10927e-05 4.10902e-05 -3.64762e-06
-0.000103035 3.09037e-05 3.09134e-05 -4.42146e-06
-0.000137776 4.13343e-05 4.13321e-05 -3.64762e-06
-0.000137373 4.12135e-05 4.12111e-05 -3.64762e-06
-0.000171206 5.1373e-05 5.13571e-05 -2.65276e-06
-0.000170199 5.10708e-05 5.10548e-05 -2.65276e-06
-0.000102128 3.0632e-05 3.06411e-05 -4.42146e-06
-0.000102733 3.08132e-05 3.08226e-05 -4.42146e-06
-0.000170702 5.12219e-05 5.12059e-05 -2.65276e-06
-0.000136164 4.0851e-05 4.08483e-05 -3.64762e-06
-0.00010243 3.07226e-05 3.07319e-05 -4.42146e-06
-0.00013697 4.10927e-05 4.10902e-05 -3.64762e-06
-0.000136567 4.09718e-05 4.09693e-05 -3.64762e-06
-0.000170199 5.10708e-05 5.10548e-05 -2.65276e-06
-0.000169191 5.07687e-05 5.07526e-05 -2.65276e-06
-0.000101523 3.04509e-05 3.04597e-05 -4.42147e-06
-0.000102128 3.0632e-05 3.06411e-05 -4.42146e-06
-0.000169695 5.09198e-05 5.09037e-05 -2.65276e-06
-0.000135358 4.06094e-05 4.06065e-05 -3.64763e-06
-0.000101826 3.05414e-05 3.05504e-05 -4.42146e-06
-0.000136164 4.0851e-05 4.08483e-05 -3.64762e-06
-0.000135761 4.07302e-05 4.07274e-05 -3.64763e-06
-0.000169191 5.07687e-05 5.07526e-05 -2.65276e-06
-0.000168184 5.04666e-05 5.04504e-05 -2.65276e-06
-0.000100919 3.02697e-05 3.02782e-05 -4.42147e-06
-0.000101523 3.04509e-05 3.04597e-05 -4.42147e-06
-0.000168688 5.06177e-05 5.06015e-05 -2.65276e-06
-0.000134552 4.03678e-05 4.03646e-05 -3.64763e-06
-0.000101221 3.03603e-05 3.03689e-05 -4.42147e-06
-0.000135358 4.06094e-05 4.06065e-05 -3.64763e-06
-0.000134955 4.04886e-05 4.04855e-05 -3.64763e-06
-0.000168184 5.04666e-05 5.04504e-05 -2.65276e-06
-0.000167177 5.01645e-05 5.01481e-05 -2.65276e-06
-0.000100314 3.00886e-05 3.00967e-05 -4.42147e-06
-0.000100919 3.02697e-05 3.02782e-05 -4.42147e-06
-0.00016768 5.03155e-05 5.02992e-05 -2.65276e-06
-0.000133746 4.01261e-05 4.01227e-05 -3.64763e-06
-0.000100617 3.01792e-05 3.01874e-05 -4.42147e-06
-0.000134552 4.03678e-05 4.03646e-05 -3.64763e-06
-0.000134149 4.02469e-05 4.02437e-05 -3.64763e-06
-0.000167177 5.01645e-05 5.01481e-05 -2.65276e-06
-0.000166169 4.98623e-05 4.98459e-05 -2.65276e-06
-9.97096e-05 2.99074e-05 2.99152e-05 -4.42147e-06
-0.000100314 3.00886e-05 3.00967e-05 -4.42147e-06
-0.000166673 5.00134e-05 4.9997e-05 -2.65276e-06
-0.00013294 3.98845e-05 3.98809e-05 -3.64763e-06
-0.000100012 2.9998e-05 3.0006e-05 -4.42147e-06
-0.000133746 4.01261e-05 4.01227e-05 -3.64763e-06
-0.000133343 4.00053e-05 4.00018e-05 -3.64763e-06
-0.000166169 4.98623e-05 4.98459e-05 -2.65276e-06
-0.000165162 4.95602e-05 4.95436e-05 -2.65277e-06
-9.9105e-05 2.97263e-05 2.97338e-05 -4.42147e-06
-9.97096e-05 2.99074e-05 2.99152e-05 -4.42147e-06
-0.000165666 4.97113e-05 4.96948e-05 -2.65277e-06
-0.000132134 3.96429e-05 3.9639e-05 -3.64763e-06
-9.94073e-05 2.98169e-05 2.98245e-05 -4.42147e-06
-0.00013294 3.98845e-05 3.98809e-05 -3.64763e-06
-0.000132537 3.97637e-05 3.976e-05 -3.64763e-06
-0.000165162 4.95602e-05 4.95436e-05 -2.65277e-06
-0.000164155 4.92581e-05 4.92414e-05 -2.65277e-06
-9.85005e-05 2.95451e-05 2.95523e-05 -4.42147e-06
-9.9105e-05 2.97263e-05 2.97338e-05 -4.42147e-06
-0.000164658 4.94092e-05 4.93925e-05 -2.65277e-06
-0.000131328 3.94012e-05 3.93972e-05 -3.64764e-06
-9.88028e-05 2.96357e-05 2.9643e-05 -4.42147e-06
-0.000132134 3.96429e-05 3.9639e-05 -3.64763e-06
-0.000131731 3.95221e-05 3.95181e-05 -3.64764e-06
-0.000164155 4.92581e-05 4.92414e-05 -2.65277e-06
-0.000163147 4.8956e-05 4.89392e-05 -2.65277e-06
-9.78959e-05 2.9364e-05 2.93708e-05 -4.42148e-06
-9.85005e-05 2.95451e-05 2.95523e-05 -4.42147e-06
-0.000163651 4.9107e-05 4.90903e-05 -2.65277e-06
-0.000130522 3.91596e-05 3.91553e-05 -3.64764e-06
-9.81982e-05 2.94546e-05 2.94615e-05 -4.42147e-06
-0.000131328 3.94012e-05 3.93972e-05 -3.64764e-06
-0.000130925 3.92804e-05 3.92762e-05 -3.64764e-06
-0.000163147 4.8956e-05 4.89392e-05 -2.65277e-06
-0.00016214 4.86539e-05 4.86369e-05 -2.65277e-06
-9.72913e-05 2.91829e-05 2.91893e-05 -4.42148e-06
-9.78959e-05 2.9364e-05 2.93708e-05 -4.42148e-06
-0.000162644 4.88049e-05 4.87881e-05 -2.65277e-06
-0.000129716 3.8918e-05 3.89134e-05 -3.64764e-06
-9.75936e-05 2.92734e-05 2.92801e-05 -4.42148e-06
-0.000130522 3.91596e-05 3.91553e-05 -3.64764e-06
-0.000130119 3.90388e-05 3.90344e-05 -3.64764e-06
-0.00016214 4.86539e-05 4.86369e-05 -2.65277e-06
-0.000161133 4.83517e-05 4.83347e-05 -2.65277e-06
-9.66867e-05 2.90017e-05 2.90079e-05 -4.42148e-06
-9.72913e-05 2.91829e-05 2.91893e-05 -4.42148e-06
-0.000161636 4.85028e-05 4.84858e-05 -2.65277e-06
-0.00012891 3.86764e-05 3.86716e-05 -3.64764e-06
-9.6989e-05 2.90923e-05 2.90986e-05 -4.42148e-06
-0.000129716 3.8918e-05 3.89134e-05 -3.64764e-06
-0.000129313 3.87972e-05 3.87925e-05 -3.64764e-06
-0.000161133 4.83517e-05 4.83347e-05 -2.65277e-06
-0.000160125 4.80496e-05 4.80325e-05 -2.65277e-06
-9.60821e-05 2.88206e-05 2.88264e-05 -4.42148e-06
-9.66867e-05 2.90017e-05 2.90079e-05 -4.42148e-06
-0.000160629 4.82007e-05 4.81836e-05 -2.65277e-06
-0.000128104 3.84347e-05 3.84297e-05 -3.64764e-06
-9.63844e-05 2.89111e-05 2.89171e-05 -4.42148e-06
-0.00012891 3.86764e-05 3.86716e-05 -3.64764e-06
-0.000128507 3.85556e-05 3.85507e-05 -3.64764e-06
-0.000160125 4.80496e-05 4.80325e-05 -2.65277e-06
-0.000159118 4.77475e-05 4.77302e-05 -2.65278e-06
-9.54775e-05 2.86394e-05 2.86449e-05 -4.42148e-06
-9.60821e-05 2.88206e-05 2.88264e-05 -4.42148e-06
-0.000159622 4.78986e-05 4.78813e-05 -2.65278e-06
-0.000127298 3.81931e-05 3.81879e-05 -3.64765e-06
-9.57798e-05 2.873e-05 2.87356e-05 -4.42148e-06
-0.000128104 3.84347e-05 3.84297e-05 -3.64764e-06
-0.000127701 3.83139e-05 3.83088e-05 -3.64764e-06
-0.000159118 4.77475e-05 4.77302e-05 -2.65278e-06
-0.000158111 4.74454e-05 4.7428e-05 -2.65278e-06
-9.48729e-05 2.84583e-05 2.84634e-05 -4.42148e-06
-9.54775e-05 2.86394e-05 2.86449e-05 -4.42148e-06
-0.000158614 4.75964e-05 4.75791e-05 -2.65278e-06
-0.000126492 3.79515e-05 3.7946e-05 -3.64765e-06
-9.51752e-05 2.85488e-05 2.85542e-05 -4.42148e-06
-0.000127298 3.81931e-05 3.81879e-05 -3.64765e-06
-0.000126895 3.80723e-05 3.80669e-05 -3.64765e-06
-0.000158111 4.74454e-05 4.7428e-05 -2.65278e-06
-0.000157103 4.71433e-05 4.71257e-05 -2.65278e-06
-9.42684e-05 2.82771e-05 2.8282e-05 -4.42148e-06
-9.48729e-05 2.84583e-05 2.84634e-05 -4.42148e-06
-0.000157607 4.72943e-05 4.72769e-05 -2.65278e-06
-0.000125686 3.77099e-05 3.77041e-05 -3.64765e-06
-9.45707e-05 2.83677e-05 2.83727e-05 -4.42148e-06
-0.000126492 3.79515e-05 3.7946e-05 -3.64765e-06
-0.000126089 3.78307e-05 3.78251e-05 -3.64765e-06
-0.000157103 4.71433e-05 4.71257e-05 -2.65278e-06
-0.000156096 4.68412e-05 4.68235e-05 -2.65278e-06
-9.36638e-05 2.8096e-05 2.81005e-05 -4.42149e-06
-9.42684e-05 2.82771e-05 2.8282e-05 -4.42148e-06
-0.0001566 4.69922e-05 4.69746e-05 -2.65278e-06
-0.00012488 3.74682e-05 3.74623e-05 -3.64765e-06
-9.39661e-05 2.81866e-05 2.81912e-05 -4.42149e-06
-0.000125686 3.77099e-05 3.77041e-05 -3.64765e-06
-0.000125283 3.7589e-05 3.75832e-05 -3.64765e-06
-0.000156096 4.68412e-05 4.68235e-05 -2.65278e-06
-0.000155089 4.6539e-05 4.65213e-05 -2.65278e-06
-9.30592e-05 2.79148e-05 2.7919e-05 -4.42149e-06
-9.36638e-05 2.8096e-05 2.81005e-05 -4.42149e-06
-0.000155592 4.66901e-05 4.66724e-05 -2.65278e-06
-0.000124074 3.72266e-05 3.72204e-05 -3.64765e-06
-9.33615e-05 2.80054e-05 2.80097e-05 -4.42149e-06
-0.00012488 3.74682e-05 3.74623e-05 -3.64765e-06
-0.000124477 3.73474e-05 3.73414e-05 -3.64765e-06
-0.000155089 4.6539e-05 4.65213e-05 -2.65278e-06
-0.000154081 4.62369e-05 4.6219e-05 -2.65278e-06
-9.24546e-05 2.77337e-05 2.77375e-05 -4.42149e-06
-9.30592e-05 2.79148e-05 2.7919e-05 -4.42149e-06
-0.000154585 4.6388e-05 4.63701e-05 -2.65278e-06
-0.000123268 3.6985e-05 3.69786e-05 -3.64765e-06
-9.27569e-05 2.78243e-05 2.78283e-05 -4.42149e-06
-0.000124074 3.72266e-05 3.72204e-05 -3.64765e-06
-0.000123671 3.71058e-05 3.70995e-05 -3.64765e-06
-0.000154081 4.62369e-05 4.6219e-05 -2.65278e-06
-0.000153074 4.59348e-05 4.59168e-05 -2.65279e-06
-9.185e-05 2.75526e-05 2.75561e-05 -4.42149e-06
-9.24546e-05 2.77337e-05 2.77375e-05 -4.42149e-06
-0.000153578 4.60859e-05 4.60679e-05 -2.65279e-06
-0.000122462 3.67434e-05 3.67367e-05 -3.64766e-06
-9.21523e-05 2.76431e-05 2.76468e-05 -4.42149e-06
-0.000123268 3.6985e-05 3.69786e-05 -3.64765e-06
-0.000122865 3.68642e-05 3.68576e-05 -3.64765e-06
-0.000153074 4.59348e-05 4.59168e-05 -2.65279e-06
-0.000152067 4.56327e-05 4.56146e-05 -2.65279e-06
-9.12455e-05 2.73714e-05 2.73746e-05 -4.42149e-06
-9.185e-05 2.75526e-05 2.75561e-05 -4.42149e-06
-0.00015257 4.57838e-05 4.57657e-05 -2.65279e-06
-0.000121656 3.65017e-05 3.64949e-05 -3.64766e-06
-9.15478e-05 2.7462e-05 2.74653e-05 -4.42149e-06
-0.000122462 3.67434e-05 3.67367e-05 -3.64766e-06
-0.000122059 3.66225e-05 3.66158e-05 -3.64766e-06
-0.000152067 4.56327e-05 4.56146e-05 -2.65279e-06
-0.000151059 4.53306e-05 4.53123e-05 -2.65279e-06
-9.06409e-05 2.71903e-05 2.71931e-05 -4.42149e-06
-9.12455e-05 2.73714e-05 2.73746e-05 -4.42149e-06
-0.000151563 4.54816e-05 4.54634e-05 -2.65279e-06
-0.00012085 3.62601e-05 3.6253e-05 -3.64766e-06
-9.09432e-05 2.72808e-05 2.72839e-05 -4.42149e-06
-0.000121656 3.65017e-05 3.64949e-05 -3.64766e-06
-0.000121253 3.63809e-05 3.63739e-05 -3.64766e-06
-0.000151059 4.53306e-05 4.53123e-05 -2.65279e-06
-0.000150052 4.50285e-05 4.50101e-05 -2.65279e-06
-9.00363e-05 2.70091e-05 2.70117e-05 -4.4215e-06
-9.06409e-05 2.71903e-05 2.71931e-05 -4.42149e-06
-0.000150556 4.51795e-05 4.51612e-05 -2.65279e-06
-0.000120044 3.60185e-05 3.60111e-05 -3.64766e-06
-9.03386e-05 2.70997e-05 2.71024e-05 -4.42149e-06
-0.00012085 3.62601e-05 3.6253e-05 -3.64766e-06
-0.000120447 3.61393e-05 3.61321e-05 -3.64766e-06
-0.000150052 4.50285e-05 4.50101e-05 -2.65279e-06
-0.000149045 4.47264e-05 4.47078e-05 -2.65279e-06
-8.94317e-05 2.6828e-05 2.68302e-05 -4.4215e-06
-9.00363e-05 2.70091e-05 2.70117e-05 -4.4215e-06
-0.000149548 4.48774e-05 4.4859e-05 -2.65279e-06
-0.000119239 3.57769e-05 3.57693e-05 -3.64766e-06
-8.9734e-05 2.69185e-05 2.69209e-05 -4.4215e-06
-0.000120044 3.60185e-05 3.60111e-05 -3.64766e-06
-0.000119641 3.58977e-05 3.58902e-05 -3.64766e-06
-0.000149045 4.47264e-05 4.47078e-05 -2.65279e-06
-0.000148037 4.44242e-05 4.44056e-05 -2.65279e-06
-8.88272e-05 2.66468e-05 2.66487e-05 -4.4215e-06
-8.94317e-05 2.6828e-05 2.68302e-05 -4.4215e-06
-0.000148541 4.45753e-05 4.45567e-05 -2.65279e-06
-0.000118433 3.55352e-05 3.55274e-05 -3.64766e-06
-8.91295e-05 2.67374e-05 2.67395e-05 -4.4215e-06
-0.000119239 3.57769e-05 3.57693e-05 -3.64766e-06
-0.000118836 3.5656e-05 3.56484e-05 -3.64766e-06
-0.000148037 4.44242e-05 4.44056e-05 -2.65279e-06
-0.00014703 4.41221e-05 4.41034e-05 -2.6528e-06
-8.82226e-05 2.64657e-05 2.64672e-05 -4.4215e-06
-8.88272e-05 2.66468e-05 2.66487e-05 -4.4215e-06
-0.000147534 4.42732e-05 4.42545e-05 -2.65279e-06
-0.000117627 3.52936e-05 3.52856e-05 -3.64767e-06
-8.85249e-05 2.65563e-05 2.6558e-05 -4.4215e-06
-0.000118433 3.55352e-05 3.55274e-05 -3.64766e-06
-0.00011803 3.54144e-05 3.54065e-05 -3.64766e-06
-0.00014703 4.41221e-05 4.41034e-05 -2.6528e-06
-0.000146023 4.382e-05 4.38011e-05 -2.6528e-06
-8.7618e-05 2.62845e-05 2.62858e-05 -4.4215e-06
-8.82226e-05 2.64657e-05 2.64672e-05 -4.4215e-06
-0.000146526 4.39711e-05 4.39522e-05 -2.6528e-06
-0.000116821 3.5052e-05 3.50437e-05 -3.64767e-06
-8.79203e-05 2.63751e-05 2.63765e-05 -4.4215e-06
-0.000117627 3.52936e-05 3.52856e-05 -3.64767e-06
-0.000117224 3.51728e-05 3.51646e-05 -3.64767e-06
-0.000146023 4.382e-05 4.38011e-05 -2.6528e-06
-0.000145015 4.35179e-05 4.34989e-05 -2.6528e-06
-8.70135e-05 2.61034e-05 2.61043e-05 -4.4215e-06
-8.7618e-05 2.62845e-05 2.62858e-05 -4.4215e-06
-0.000145519 4.3669e-05 4.365e-05 -2.6528e-06
-0.000116015 3.48104e-05 3.48019e-05 -3.64767e-06
-8.73157e-05 2.6194e-05 2.6195e-05 -4.4215e-06
-0.000116821 3.5052e-05 3.50437e-05 -3.64767e-06
-0.000116418 3.49312e-05 3.49228e-05 -3.64767e-06
-0.000145015 4.35179e-05 4.34989e-05 -2.6528e-06
-0.000144008 4.32158e-05 4.31967e-05 -2.6528e-06
-8.64089e-05 2.59222e-05 2.59228e-05 -4.4215e-06
-8.70135e-05 2.61034e-05 2.61043e-05 -4.4215e-06
-0.000144512 4.33668e-05 4.33478e-05 -2.6528e-06
-0.000115209 3.45687e-05 3.456e-05 -3.64767e-06
-8.67112e-05 2.60128e-05 2.60136e-05 -4.4215e-06
-0.000116015 3.48104e-05 3.48019e-05 -3.64767e-06
-0.000115612 3.46895e-05 3.46809e-05 -3.64767e-06
-0.000144008 4.32158e-05 4.31967e-05 -2.6528e-06
-0.000143001 4.29137e-05 4.28944e-05 -2.6528e-06
-8.58043e-05 2.57411e-05 2.57414e-05 -4.42151e-06
-8.64089e-05 2.59222e-05 2.59228e-05 -4.4215e-06
-0.000143504 4.30647e-05 4.30455e-05 -2.6528e-06
-0.000114403 3.43271e-05 3.43181e-05 -3.64767e-06
-8.61066e-05 2.58317e-05 2.58321e-05 -4.4215e-06
-0.000115209 3.45687e-05 3.456e-05 -3.64767e-06
-0.000114806 3.44479e-05 3.44391e-05 -3.64767e-06
-0.000143001 4.29137e-05 4.28944e-05 -2.6528e-06
-0.000141993 4.26116e-05 4.25922e-05 -2.6528e-06
-8.51997e-05 2.55599e-05 2.55599e-05 -4.42151e-06
-8.58043e-05 2.57411e-05 2.57414e-05 -4.42151e-06
-0.000142497 4.27626e-05 4.27433e-05 -2.6528e-06
-0.000113597 3.40855e-05 3.40763e-05 -3.64767e-06
-8.5502e-05 2.56505e-05 2.56506e-05 -4.42151e-06
-0.000114403 3.43271e-05 3.43181e-05 -3.64767e-06
-0.000114 3.42063e-05 3.41972e-05 -3.64767e-06
-0.000141993 4.26116e-05 4.25922e-05 -2.6528e-06
-0.000140986 4.23095e-05 4.229e-05 -2.65281e-06
-8.45952e-05 2.53788e-05 2.53784e-05 -4.42151e-06
-8.51997e-05 2.55599e-05 2.55599e-05 -4.42151e-06
-0.00014149 4.24605e-05 4.24411e-05 -2.6528e-06
-0.000112791 3.38438e-05 3.38344e-05 -3.64768e-06
-8.48975e-05 2.54694e-05 2.54692e-05 -4.42151e-06
-0.000113597 3.40855e-05 3.40763e-05 -3.64767e-06
-0.000113194 3.39647e-05 3.39554e-05 -3.64767e-06
-0.000140986 4.23095e-05 4.229e-05 -2.65281e-06
-0.000139979 4.20073e-05 4.19877e-05 -2.65281e-06
-8.39906e-05 2.51977e-05 2.5197e-05 -4.42151e-06
-8.45952e-05 2.53788e-05 2.53784e-05 -4.42151e-06
-0.000140482 4.21584e-05 4.21388e-05 -2.65281e-06
-0.000111985 3.36022e-05 3.35926e-05 -3.64768e-06
-8.42929e-05 2.52882e-05 2.52877e-05 -4.42151e-06
-0.000112791 3.38438e-05 3.38344e-05 -3.64768e-06
-0.000112388 3.3723e-05 3.37135e-05 -3.64768e-06
-0.000139979 4.20073e-05 4.19877e-05 -2.65281e-06
-0.000138971 4.17052e-05 4.16855e-05 -2.65281e-06
-8.33861e-05 2.50165e-05 2.50155e-05 -4.42151e-06
-8.39906e-05 2.51977e-05 2.5197e-05 -4.42151e-06
-0.000139475 4.18563e-05 4.18366e-05 -2.65281e-06
-0.000111179 3.33606e-05 3.33507e-05 -3.64768e-06
-8.36883e-05 2.51071e-05 2.51063e-05 -4.42151e-06
-0.000111985 3.36022e-05 3.35926e-05 -3.64768e-06
-0.000111582 3.34814e-05 3.34717e-05 -3.64768e-06
-0.000138971 4.17052e-05 4.16855e-05 -2.65281e-06
-0.000137964 4.14031e-05 4.13832e-05 -2.65281e-06
-8.27815e-05 2.48354e-05 2.48341e-05 -4.42151e-06
-8.33861e-05 2.50165e-05 2.50155e-05 -4.42151e-06
-0.000138468 4.15542e-05 4.15344e-05 -2.65281e-06
-0.000110373 3.3119e-05 3.31089e-05 -3.64768e-06
-8.30838e-05 2.49259e-05 2.49248e-05 -4.42151e-06
-0.000111179 3.33606e-05 3.33507e-05 -3.64768e-06
-0.000110776 3.32398e-05 3.32298e-05 -3.64768e-06
-0.000137964 4.14031e-05 4.13832e-05 -2.65281e-06
-0.000136957 4.1101e-05 4.1081e-05 -2.65281e-06
-8.21769e-05 2.46542e-05 2.46526e-05 -4.42151e-06
-8.27815e-05 2.48354e-05 2.48341e-05 -4.42151e-06
-0.00013746 4.12521e-05 4.12321e-05 -2.65281e-06
-0.000109567 3.28773e-05 3.2867e-05 -3.64768e-06
-8.24792e-05 2.47448e-05 2.47433e-05 -4.42151e-06
-0.000110373 3.3119e-05 3.31089e-05 -3.64768e-06
-0.00010997 3.29982e-05 3.2988e-05 -3.64768e-06
-0.000136957 4.1101e-05 4.1081e-05 -2.65281e-06
-0.000135949 4.07989e-05 4.07788e-05 -2.65281e-06
-8.15724e-05 2.44731e-05 2.44711e-05 -4.42152e-06
-8.21769e-05 2.46542e-05 2.46526e-05 -4.42151e-06
-0.000136453 4.09499e-05 4.09299e-05 -2.65281e-06
-0.000108761 3.26357e-05 3.26252e-05 -3.64768e-06
-8.18747e-05 2.45636e-05 2.45619e-05 -4.42151e-06
-0.000109567 3.28773e-05 3.2867e-05 -3.64768e-06
-0.000109164 3.27565e-05 3.27461e-05 -3.64768e-06
-0.000135949 4.07989e-05 4.07788e-05 -2.65281e-06
-0.000134942 4.04968e-05 4.04765e-05 -2.65281e-06
-8.09678e-05 2.42919e-05 2.42897e-05 -4.42152e-06
-8.15724e-05 2.44731e-05 2.44711e-05 -4.42152e-06
-0.000135446 4.06478e-05 4.06277e-05 -2.65281e-06
-0.000107955 3.23941e-05 3.23833e-05 -3.64769e-06
-8.12701e-05 2.43825e-05 2.43804e-05 -4.42152e-06
-0.000108761 3.26357e-05 3.26252e-05 -3.64768e-06
-0.000108358 3.25149e-05 3.25043e-05 -3.64768e-06
-0.000134942 4.04968e-05 4.04765e-05 -2.65281e-06
-0.000133935 4.01947e-05 4.01743e-05 -2.65282e-06
-8.03633e-05 2.41108e-05 2.41082e-05 -4.42152e-06
-8.09678e-05 2.42919e-05 2.42897e-05 -4.42152e-06
-0.000134438 4.03457e-05 4.03254e-05 -2.65282e-06
-0.000107149 3.21525e-05 3.21415e-05 -3.64769e-06
-8.06655e-05 2.42013e-05 2.41989e-05 -4.42152e-06
-0.000107955 3.23941e-05 3.23833e-05 -3.64769e-06
-0.000107552 3.22733e-05 3.22624e-05 -3.64769e-06
-0.000133935 4.01947e-05 4.01743e-05 -2.65282e-06
-0.000132927 3.98926e-05 3.98721e-05 -2.65282e-06
-7.97587e-05 2.39296e-05 2.39268e-05 -4.42152e-06
-8.03633e-05 2.41108e-05 2.41082e-05 -4.42152e-06
-0.000133431 4.00436e-05 4.00232e-05 -2.65282e-06
-0.000106343 3.19108e-05 3.18996e-05 -3.64769e-06
-8.0061e-05 2.40202e-05 2.40175e-05 -4.42152e-06
-0.000107149 3.21525e-05 3.21415e-05 -3.64769e-06
-0.000106746 3.20316e-05 3.20206e-05 -3.64769e-06
-0.000132927 3.98926e-05 3.98721e-05 -2.65282e-06
-0.00013192 3.95904e-05 3.95699e-05 -2.65282e-06
-7.91542e-05 2.37485e-05 2.37453e-05 -4.42152e-06
-7.97587e-05 2.39296e-05 2.39268e-05 -4.42152e-06
-0.000132424 3.97415e-05 3.9721e-05 -2.65282e-06
-0.000105537 3.16692e-05 3.16578e-05 -3.64769e-06
-7.94564e-05 2.3839e-05 2.3836e-05 -4.42152e-06
-0.000106343 3.19108e-05 3.18996e-05 -3.64769e-06
-0.00010594 3.179e-05 3.17787e-05 -3.64769e-06
-0.00013192 3.95904e-05 3.95699e-05 -2.65282e-06
-0.000130913 3.92883e-05 3.92676e-05 -2.65282e-06
-7.85496e-05 2.35673e-05 2.35638e-05 -4.42152e-06
-7.91542e-05 2.37485e-05 2.37453e-05 -4.42152e-06
-0.000131416 3.94394e-05 3.94187e-05 -2.65282e-06
-0.000104731 3.14276e-05 3.14159e-05 -3.64769e-06
-7.88519e-05 2.36579e-05 2.36546e-05 -4.42152e-06
-0.000105537 3.16692e-05 3.16578e-05 -3.64769e-06
-0.000105134 3.15484e-05 3.15369e-05 -3.64769e-06
-0.000130913 3.92883e-05 3.92676e-05 -2.65282e-06
-0.000129905 3.89862e-05 3.89654e-05 -2.65282e-06
-7.79451e-05 2.33861e-05 2.33824e-05 -4.42152e-06
-7.85496e-05 2.35673e-05 2.35638e-05 -4.42152e-06
-0.000130409 3.91373e-05 3.91165e-05 -2.65282e-06
-0.000103925 3.11859e-05 3.11741e-05 -3.64769e-06
-7.82473e-05 2.34767e-05 2.34731e-05 -4.42152e-06
-0.000104731 3.14276e-05 3.14159e-05 -3.64769e-06
-0.000104328 3.13068e-05 3.1295e-05 -3.64769e-06
-0.000129905 3.89862e-05 3.89654e-05 -2.65282e-06
-0.000128898 3.86841e-05 3.86632e-05 -2.65282e-06
-7.73405e-05 2.3205e-05 2.32009e-05 -4.42153e-06
-7.79451e-05 2.33861e-05 2.33824e-05 -4.42152e-06
-0.000129402 3.88352e-05 3.88143e-05 -2.65282e-06
-0.00010312 3.09443e-05 3.09322e-05 -3.6477e-06
-7.76428e-05 2.32956e-05 2.32917e-05 -4.42152e-06
-0.000103925 3.11859e-05 3.11741e-05 -3.64769e-06
-0.000103523 3.10651e-05 3.10532e-05 -3.64769e-06
-0.000128898 3.86841e-05 3.86632e-05 -2.65282e-06
-0.000127891 3.8382e-05 3.83609e-05 -2.65283e-06
-7.6736e-05 2.30238e-05 2.30195e-05 -4.42153e-06
-7.73405e-05 2.3205e-05 2.32009e-05 -4.42153e-06
-0.000128394 3.8533e-05 3.8512e-05 -2.65282e-06
-0.000102314 3.07027e-05 3.06904e-05 -3.6477e-06
-7.70382e-05 2.31144e-05 2.31102e-05 -4.42153e-06
-0.00010312 3.09443e-05 3.09322e-05 -3.6477e-06
-0.000102717 3.08235e-05 3.08113e-05 -3.6477e-06
-0.000127891 3.8382e-05 3.83609e-05 -2.65283e-06
-0.000126884 3.80799e-05 3.80587e-05 -2.65283e-06
-7.61314e-05 2.28427e-05 2.2838e-05 -4.42153e-06
-7.6736e-05 2.30238e-05 2.30195e-05 -4.42153e-06
-0.000127387 3.82309e-05 3.82098e-05 -2.65283e-06
-0.000101508 3.04611e-05 3.04486e-05 -3.6477e-06
-7.64337e-05 2.29333e-05 2.29288e-05 -4.42153e-06
-0.000102314 3.07027e-05 3.06904e-05 -3.6477e-06
-0.000101911 3.05819e-05 3.05695e-05 -3.6477e-06
-0.000126884 3.80799e-05 3.80587e-05 -2.65283e-06
-0.000125876 3.77778e-05 3.77565e-05 -2.65283e-06
-7.55269e-05 2.26615e-05 2.26566e-05 -4.42153e-06
-7.61314e-05 2.28427e-05 2.2838e-05 -4.42153e-06
-0.00012638 3.79288e-05 3.79076e-05 -2.65283e-06
-0.000100702 3.02194e-05 3.02067e-05 -3.6477e-06
-7.58291e-05 2.27521e-05 2.27473e-05 -4.42153e-06
-0.000101508 3.04611e-05 3.04486e-05 -3.6477e-06
-0.000101105 3.03402e-05 3.03276e-05 -3.6477e-06
-0.000125876 3.77778e-05 3.77565e-05 -2.65283e-06
-0.000124869 3.74756e-05 3.74543e-05 -2.65283e-06
-7.49223e-05 2.24804e-05 2.24751e-05 -4.42153e-06
-7.55269e-05 2.26615e-05 2.26566e-05 -4.42153e-06
-0.000125373 3.76267e-05 3.76054e-05 -2.65283e-06
-9.98958e-05 2.99778e-05 2.99649e-05 -3.6477e-06
-7.52246e-05 2.2571e-05 2.25659e-05 -4.42153e-06
-0.000100702 3.02194e-05 3.02067e-05 -3.6477e-06
-0.000100299 3.00986e-05 3.00858e-05 -3.6477e-06
-0.000124869 3.74756e-05 3.74543e-05 -2.65283e-06
-0.000123862 3.71735e-05 3.7152e-05 -2.65283e-06
-7.43178e-05 2.22992e-05 2.22937e-05 -4.42153e-06
-7.49223e-05 2.24804e-05 2.24751e-05 -4.42153e-06
-0.000124365 3.73246e-05 3.73031e-05 -2.65283e-06
-9.90899e-05 2.97362e-05 2.9723e-05 -3.6477e-06
-7.46201e-05 2.23898e-05 2.23844e-05 -4.42153e-06
-9.98958e-05 2.99778e-05 2.99649e-05 -3.6477e-06
-9.94929e-05 2.9857e-05 2.9844e-05 -3.6477e-06
-0.000123862 3.71735e-05 3.7152e-05 -2.65283e-06
-0.000122854 3.68714e-05 3.68498e-05 -2.65283e-06
-7.37133e-05 2.21181e-05 2.21122e-05 -4.42153e-06
-7.43178e-05 2.22992e-05 2.22937e-05 -4.42153e-06
-0.000123358 3.70225e-05 3.70009e-05 -2.65283e-06
-9.8284e-05 2.94945e-05 2.94812e-05 -3.64771e-06
-7.40155e-05 2.22086e-05 2.2203e-05 -4.42153e-06
-9.90899e-05 2.97362e-05 2.9723e-05 -3.6477e-06
-9.86869e-05 2.96153e-05 2.96021e-05 -3.6477e-06
-0.000122854 3.68714e-05 3.68498e-05 -2.65283e-06
-0.000121847 3.65693e-05 3.65476e-05 -2.65283e-06
-7.31087e-05 2.19369e-05 2.19308e-05 -4.42154e-06
-7.37133e-05 2.21181e-05 2.21122e-05 -4.42153e-06
-0.000122351 3.67204e-05 3.66987e-05 -2.65283e-06
-9.74781e-05 2.92529e-05 2.92394e-05 -3.64771e-06
-7.3411e-05 2.20275e-05 2.20215e-05 -4.42153e-06
-9.8284e-05 2.94945e-05 2.94812e-05 -3.64771e-06
-9.7881e-05 2.93737e-05 2.93603e-05 -3.64771e-06
-0.000121847 3.65693e-05 3.65476e-05 -2.65283e-06
-0.00012084 3.62672e-05 3.62453e-05 -2.65284e-06
-7.25042e-05 2.17557e-05 2.17493e-05 -4.42154e-06
-7.31087e-05 2.19369e-05 2.19308e-05 -4.42154e-06
-0.000121343 3.64182e-05 3.63965e-05 -2.65284e-06
-9.66721e-05 2.90113e-05 2.89975e-05 -3.64771e-06
-7.28065e-05 2.18463e-05 2.18401e-05 -4.42154e-06
-9.74781e-05 2.92529e-05 2.92394e-05 -3.64771e-06
-9.70751e-05 2.91321e-05 2.91184e-05 -3.64771e-06
-0.00012084 3.62672e-05 3.62453e-05 -2.65284e-06
-0.000119832 3.59651e-05 3.59431e-05 -2.65284e-06
-7.18997e-05 2.15746e-05 2.15679e-05 -4.42154e-06
-7.25042e-05 2.17557e-05 2.17493e-05 -4.42154e-06
-0.000120336 3.61161e-05 3.60942e-05 -2.65284e-06
-9.58662e-05 2.87696e-05 2.87557e-05 -3.64771e-06
-7.22019e-05 2.16652e-05 2.16586e-05 -4.42154e-06
-9.66721e-05 2.90113e-05 2.89975e-05 -3.64771e-06
-9.62692e-05 2.88904e-05 2.88766e-05 -3.64771e-06
-0.000119832 3.59651e-05 3.59431e-05 -2.65284e-06
-0.000118825 3.5663e-05 3.56409e-05 -2.65284e-06
-7.12951e-05 2.13934e-05 2.13864e-05 -4.42154e-06
-7.18997e-05 2.15746e-05 2.15679e-05 -4.42154e-06
-0.000119329 3.5814e-05 3.5792e-05 -2.65284e-06
-9.50603e-05 2.8528e-05 2.85138e-05 -3.64771e-06
-7.15974e-05 2.1484e-05 2.14772e-05 -4.42154e-06
-9.58662e-05 2.87696e-05 2.87557e-05 -3.64771e-06
-9.54633e-05 2.86488e-05 2.86348e-05 -3.64771e-06
-0.000118825 3.5663e-05 3.56409e-05 -2.65284e-06
-0.000117818 3.53608e-05 3.53387e-05 -2.65284e-06
-7.06906e-05 2.12123e-05 2.1205e-05 -4.42154e-06
-7.12951e-05 2.13934e-05 2.13864e-05 -4.42154e-06
-0.000118321 3.55119e-05 3.54898e-05 -2.65284e-06
-9.42544e-05 2.82864e-05 2.8272e-05 -3.64771e-06
-7.09929e-05 2.13028e-05 2.12957e-05 -4.42154e-06
-9.50603e-05 2.8528e-05 2.85138e-05 -3.64771e-06
-9.46573e-05 2.84072e-05 2.83929e-05 -3.64771e-06
-0.000117818 3.53608e-05 3.53387e-05 -2.65284e-06
-0.00011681 3.50587e-05 3.50365e-05 -2.65284e-06
-7.00861e-05 2.10311e-05 2.10236e-05 -4.42154e-06
-7.06906e-05 2.12123e-05 2.1205e-05 -4.42154e-06
-0.000117314 3.52098e-05 3.51876e-05 -2.65284e-06
-9.34485e-05 2.80447e-05 2.80302e-05 -3.64772e-06
-7.03883e-05 2.11217e-05 2.11143e-05 -4.42154e-06
-9.42544e-05 2.82864e-05 2.8272e-05 -3.64771e-06
-9.38514e-05 2.81655e-05 2.81511e-05 -3.64771e-06
-0.00011681 3.50587e-05 3.50365e-05 -2.65284e-06
-0.000115803 3.47566e-05 3.47342e-05 -2.65284e-06
-6.94815e-05 2.08499e-05 2.08421e-05 -4.42154e-06
-7.00861e-05 2.10311e-05 2.10236e-05 -4.42154e-06
-0.000116307 3.49077e-05 3.48853e-05 -2.65284e-06
-9.26425e-05 2.78031e-05 2.77883e-05 -3.64772e-06
-6.97838e-05 2.09405e-05 2.09328e-05 -4.42154e-06
-9.34485e-05 2.80447e-05 2.80302e-05 -3.64772e-06
-9.30455e-05 2.79239e-05 2.79093e-05 -3.64772e-06
-0.000115803 3.47566e-05 3.47342e-05 -2.65284e-06
-0.000114796 3.44545e-05 3.4432e-05 -2.65285e-06
-6.8877e-05 2.06688e-05 2.06607e-05 -4.42154e-06
-6.94815e-05 2.08499e-05 2.08421e-05 -4.42154e-06
-0.0001153 3.46055e-05 3.45831e-05 -2.65285e-06
-9.18366e-05 2.75614e-05 2.75465e-05 -3.64772e-06
-6.91793e-05 2.07593e-05 2.07514e-05 -4.42154e-06
-9.26425e-05 2.78031e-05 2.77883e-05 -3.64772e-06
-9.22396e-05 2.76823e-05 2.76674e-05 -3.64772e-06
-0.000114796 3.44545e-05 3.4432e-05 -2.65285e-06
-0.000113789 3.41524e-05 3.41298e-05 -2.65285e-06
-6.82725e-05 2.04876e-05 2.04792e-05 -4.42155e-06
-6.8877e-05 2.06688e-05 2.06607e-05 -4.42154e-06
-0.000114292 3.43034e-05 3.42809e-05 -2.65285e-06
-9.10307e-05 2.73198e-05 2.73047e-05 -3.64772e-06
-6.85748e-05 2.05782e-05 2.057e-05 -4.42155e-06
-9.18366e-05 2.75614e-05 2.75465e-05 -3.64772e-06
-9.14337e-05 2.74406e-05 2.74256e-05 -3.64772e-06
-0.000113789 3.41524e-05 3.41298e-05 -2.65285e-06
-0.000112781 3.38502e-05 3.38276e-05 -2.65285e-06
-6.7668e-05 2.03064e-05 2.02978e-05 -4.42155e-06
-6.82725e-05 2.04876e-05 2.04792e-05 -4.42155e-06
-0.000113285 3.40013e-05 3.39787e-05 -2.65285e-06
-9.02248e-05 2.70782e-05 2.70628e-05 -3.64772e-06
-6.79702e-05 2.0397e-05 2.03885e-05 -4.42155e-06
-9.10307e-05 2.73198e-05 2.73047e-05 -3.64772e-06
-9.06278e-05 2.7199e-05 2.71838e-05 -3.64772e-06
-0.000112781 3.38502e-05 3.38276e-05 -2.65285e-06
-0.000111774 3.35481e-05 3.35254e-05 -2.65285e-06
-6.70635e-05 2.01253e-05 2.01164e-05 -4.42155e-06
-6.7668e-05 2.03064e-05 2.02978e-05 -4.42155e-06
-0.000112278 3.36992e-05 3.36765e-05 -2.65285e-06
-8.94189e-05 2.68365e-05 2.6821e-05 -3.64772e-06
-6.73657e-05 2.02158e-05 2.02071e-05 -4.42155e-06
-9.02248e-05 2.70782e-05 2.70628e-05 -3.64772e-06
-8.98218e-05 2.69573e-05 2.69419e-05 -3.64772e-06
-0.000111774 3.35481e-05 3.35254e-05 -2.65285e-06
-0.000110767 3.3246e-05 3.32231e-05 -2.65285e-06
-6.64589e-05 1.99441e-05 1.99349e-05 -4.42155e-06
-6.70635e-05 2.01253e-05 2.01164e-05 -4.42155e-06
-0.00011127 3.33971e-05 3.33743e-05 -2.65285e-06
-8.8613e-05 2.65949e-05 2.65792e-05 -3.64773e-06
-6.67612e-05 2.00347e-05 2.00257e-05 -4.42155e-06
-8.94189e-05 2.68365e-05 2.6821e-05 -3.64772e-06
-8.90159e-05 2.67157e-05 2.67001e-05 -3.64772e-06
-0.000110767 3.3246e-05 3.32231e-05 -2.65285e-06
-0.000109759 3.29439e-05 3.29209e-05 -2.65285e-06
-6.58544e-05 1.97629e-05 1.97535e-05 -4.42155e-06
-6.64589e-05 1.99441e-05 1.99349e-05 -4.42155e-06
-0.000110263 3.3095e-05 3.3072e-05 -2.65285e-06
-8.78071e-05 2.63532e-05 2.63374e-05 -3.64773e-06
-6.61567e-05 1.98535e-05 1.98442e-05 -4.42155e-06
-8.8613e-05 2.65949e-05 2.65792e-05 -3.64773e-06
-8.821e-05 2.64741e-05 2.64583e-05 -3.64773e-06
-0.000109759 3.29439e-05 3.29209e-05 -2.65285e-06
-0.000108752 3.26418e-05 3.26187e-05 -2.65286e-06
-6.52499e-05 1.95818e-05 1.95721e-05 -4.42155e-06
-6.58544e-05 1.97629e-05 1.97535e-05 -4.42155e-06
-0.000109256 3.27928e-05 3.27698e-05 -2.65285e-06
-8.70012e-05 2.61116e-05 2.60955e-05 -3.64773e-06
-6.55522e-05 1.96723e-05 1.96628e-05 -4.42155e-06
-8.78071e-05 2.63532e-05 2.63374e-05 -3.64773e-06
-8.74041e-05 2.62324e-05 2.62164e-05 -3.64773e-06
-0.000108752 3.26418e-05 3.26187e-05 -2.65286e-06
-0.000107745 3.23396e-05 3.23165e-05 -2.65286e-06
-6.46454e-05 1.94006e-05 1.93906e-05 -4.42155e-06
-6.52499e-05 1.95818e-05 1.95721e-05 -4.42155e-06
-0.000108248 3.24907e-05 3.24676e-05 -2.65286e-06
-8.61953e-05 2.587e-05 2.58537e-05 -3.64773e-06
-6.49477e-05 1.94912e-05 1.94814e-05 -4.42155e-06
-8.70012e-05 2.61116e-05 2.60955e-05 -3.64773e-06
-8.65982e-05 2.59908e-05 2.59746e-05 -3.64773e-06
-0.000107745 3.23396e-05 3.23165e-05 -2.65286e-06
-0.000106738 3.20375e-05 3.20143e-05 -2.65286e-06
-6.40409e-05 1.92194e-05 1.92092e-05 -4.42156e-06
-6.46454e-05 1.94006e-05 1.93906e-05 -4.42155e-06
-0.000107241 3.21886e-05 3.21654e-05 -2.65286e-06
-8.53894e-05 2.56283e-05 2.56119e-05 -3.64773e-06
-6.43432e-05 1.931e-05 1.92999e-05 -4.42156e-06
-8.61953e-05 2.587e-05 2.58537e-05 -3.64773e-06
-8.57923e-05 2.57491e-05 2.57328e-05 -3.64773e-06
-0.000106738 3.20375e-05 3.20143e-05 -2.65286e-06
-0.00010573 3.17354e-05 3.17121e-05 -2.65286e-06
-6.34364e-05 1.90382e-05 1.90278e-05 -4.42156e-06
-6.40409e-05 1.92194e-05 1.92092e-05 -4.42156e-06
-0.000106234 3.18865e-05 3.18632e-05 -2.65286e-06
-8.45835e-05 2.53867e-05 2.53701e-05 -3.64773e-06
-6.37386e-05 1.91288e-05 1.91185e-05 -4.42156e-06
-8.53894e-05 2.56283e-05 2.56119e-05 -3.64773e-06
-8.49864e-05 2.55075e-05 2.5491e-05 -3.64773e-06
-0.00010573 3.17354e-05 3.17121e-05 -2.65286e-06
-0.000104723 3.14333e-05 3.14099e-05 -2.65286e-06
-6.28319e-05 1.88571e-05 1.88464e-05 -4.42156e-06
-6.34364e-05 1.90382e-05 1.90278e-05 -4.42156e-06
-0.000105227 3.15843e-05 3.1561e-05 -2.65286e-06
-8.37776e-05 2.5145e-05 2.51282e-05 -3.64774e-06
-6.31341e-05 1.89477e-05 1.89371e-05 -4.42156e-06
-8.45835e-05 2.53867e-05 2.53701e-05 -3.64773e-06
-8.41805e-05 2.52658e-05 2.52492e-05 -3.64773e-06
-0.000104723 3.14333e-05 3.14099e-05 -2.65286e-06
-0.000103716 3.11312e-05 3.11077e-05 -2.65286e-06
-6.22274e-05 1.86759e-05 1.86649e-05 -4.42156e-06
-6.28319e-05 1.88571e-05 1.88464e-05 -4.42156e-06
-0.000104219 3.12822e-05 3.12588e-05 -2.65286e-06
-8.29717e-05 2.49034e-05 2.48864e-05 -3.64774e-06
-6.25296e-05 1.87665e-05 1.87556e-05 -4.42156e-06
-8.37776e-05 2.5145e-05 2.51282e-05 -3.64774e-06
-8.33746e-05 2.50242e-05 2.50073e-05 -3.64774e-06
-0.000103716 3.11312e-05 3.11077e-05 -2.65286e-06
-0.000102708 3.0829e-05 3.08055e-05 -2.65286e-06
-6.16229e-05 1.84947e-05 1.84835e-05 -4.42156e-06
-6.22274e-05 1.86759e-05 1.86649e-05 -4.42156e-06
-0.000103212 3.09801e-05 3.09566e-05 -2.65286e-06
-8.21658e-05 2.46617e-05 2.46446e-05 -3.64774e-06
-6.19251e-05 1.85853e-05 1.85742e-05 -4.42156e-06
-8.29717e-05 2.49034e-05 2.48864e-05 -3.64774e-06
-8.25687e-05 2.47825e-05 2.47655e-05 -3.64774e-06
-0.000102708 3.0829e-05 3.08055e-05 -2.65286e-06
-0.000101701 3.05269e-05 3.05032e-05 -2.65287e-06
-6.10184e-05 1.83135e-05 1.83021e-05 -4.42156e-06
-6.16229e-05 1.84947e-05 1.84835e-05 -4.42156e-06
-0.000102205 3.0678e-05 3.06543e-05 -2.65287e-06
-8.13599e-05 2.44201e-05 2.44028e-05 -3.64774e-06
-6.13206e-05 1.84041e-05 1.83928e-05 -4.42156e-06
-8.21658e-05 2.46617e-05 2.46446e-05 -3.64774e-06
-8.17629e-05 2.45409e-05 2.45237e-05 -3.64774e-06
-0.000101701 3.05269e-05 3.05032e-05 -2.65287e-06
-0.000100694 3.02248e-05 3.0201e-05 -2.65287e-06
-6.04139e-05 1.81324e-05 1.81207e-05 -4.42156e-06
-6.10184e-05 1.83135e-05 1.83021e-05 -4.42156e-06
-0.000101198 3.03758e-05 3.03521e-05 -2.65287e-06
-8.0554e-05 2.41784e-05 2.4161e-05 -3.64774e-06
-6.07161e-05 1.82229e-05 1.82114e-05 -4.42156e-06
-8.13599e-05 2.44201e-05 2.44028e-05 -3.64774e-06
-8.0957e-05 2.42992e-05 2.42819e-05 -3.64774e-06
-0.000100694 3.02248e-05 3.0201e-05 -2.65287e-06
-9.96866e-05 2.99227e-05 2.98988e-05 -2.65287e-06
-5.98094e-05 1.79512e-05 1.79392e-05 -4.42157e-06
-6.04139e-05 1.81324e-05 1.81207e-05 -4.42156e-06
-0.00010019 3.00737e-05 3.00499e-05 -2.65287e-06
-7.97481e-05 2.39368e-05 2.39192e-05 -3.64774e-06
-6.01116e-05 1.80418e-05 1.80299e-05 -4.42157e-06
-8.0554e-05 2.41784e-05 2.4161e-05 -3.64774e-06
-8.01511e-05 2.40576e-05 2.40401e-05 -3.64774e-06
-9.96866e-05 2.99227e-05 2.98988e-05 -2.65287e-06
-9.86793e-05 2.96205e-05 2.95966e-05 -2.65287e-06
-5.92049e-05 1.777e-05 1.77578e-05 -4.42157e-06
-5.98094e-05 1.79512e-05 1.79392e-05 -4.42157e-06
-9.9183e-05 2.97716e-05 2.97477e-05 -2.65287e-06
-7.89422e-05 2.36951e-05 2.36773e-05 -3.64775e-06
-5.95071e-05 1.78606e-05 1.78485e-05 -4.42157e-06
-7.97481e-05 2.39368e-05 2.39192e-05 -3.64774e-06
-7.93452e-05 2.38159e-05 2.37982e-05 -3.64774e-06
-9.86793e-05 2.96205e-05 2.95966e-05 -2.65287e-06
-9.76721e-05 2.93184e-05 2.92944e-05 -2.65287e-06
-5.86004e-05 1.75888e-05 1.75764e-05 -4.42157e-06
-5.92049e-05 1.777e-05 1.77578e-05 -4.42157e-06
-9.81757e-05 2.94695e-05 2.94455e-05 -2.65287e-06
-7.81364e-05 2.34535e-05 2.34355e-05 -3.64775e-06
-5.89027e-05 1.76794e-05 1.76671e-05 -4.42157e-06
-7.89422e-05 2.36951e-05 2.36773e-05 -3.64775e-06
-7.85393e-05 2.35743e-05 2.35564e-05 -3.64775e-06
-9.76721e-05 2.93184e-05 2.92944e-05 -2.65287e-06
-9.66648e-05 2.90163e-05 2.89922e-05 -2.65287e-06
-5.79959e-05 1.74076e-05 1.7395e-05 -4.42157e-06
-5.86004e-05 1.75888e-05 1.75764e-05 -4.42157e-06
-9.71684e-05 2.91673e-05 2.91433e-05 -2.65287e-06
-7.73305e-05 2.32118e-05 2.31937e-05 -3.64775e-06
-5.82982e-05 1.74982e-05 1.74857e-05 -4.42157e-06
-7.81364e-05 2.34535e-05 2.34355e-05 -3.64775e-06
-7.77334e-05 2.33326e-05 2.33146e-05 -3.64775e-06
-9.66648e-05 2.90163e-05 2.89922e-05 -2.65287e-06
-9.56575e-05 2.87141e-05 2.869e-05 -2.65288e-06
-5.73914e-05 1.72264e-05 1.72136e-05 -4.42157e-06
-5.79959e-05 1.74076e-05 1.7395e-05 -4.42157e-06
-9.61611e-05 2.88652e-05 2.88411e-05 -2.65287e-06
-7.65246e-05 2.29702e-05 2.29519e-05 -3.64775e-06
-5.76937e-05 1.7317e-05 1.73043e-05 -4.42157e-06
-7.73305e-05 2.32118e-05 2.31937e-05 -3.64775e-06
-7.69275e-05 2.3091e-05 2.30728e-05 -3.64775e-06
-9.56575e-05 2.87141e-05 2.869e-05 -2.65288e-06
-9.46503e-05 2.8412e-05 2.83878e-05 -2.65288e-06
-5.6787e-05 1.70453e-05 1.70322e-05 -4.42157e-06
-5.73914e-05 1.72264e-05 1.72136e-05 -4.42157e-06
-9.51539e-05 2.85631e-05 2.85389e-05 -2.65288e-06
-7.57187e-05 2.27285e-05 2.27101e-05 -3.64775e-06
-5.70892e-05 1.71358e-05 1.71229e-05 -4.42157e-06
-7.65246e-05 2.29702e-05 2.29519e-05 -3.64775e-06
-7.61217e-05 2.28493e-05 2.2831e-05 -3.64775e-06
-9.46503e-05 2.8412e-05 2.83878e-05 -2.65288e-06
-9.3643e-05 2.81099e-05 2.80856e-05 -2.65288e-06
-5.61825e-05 1.68641e-05 1.68507e-05 -4.42157e-06
-5.6787e-05 1.70453e-05 1.70322e-05 -4.42157e-06
-9.41466e-05 2.82609e-05 2.82367e-05 -2.65288e-06
-7.49129e-05 2.24868e-05 2.24683e-05 -3.64775e-06
-5.64847e-05 1.69547e-05 1.69415e-05 -4.42157e-06
-7.57187e-05 2.27285e-05 2.27101e-05 -3.64775e-06
-7.53158e-05 2.26077e-05 2.25892e-05 -3.64775e-06
-9.3643e-05 2.81099e-05 2.80856e-05 -2.65288e-06
-9.26357e-05 2.78077e-05 2.77834e-05 -2.65288e-06
-5.5578e-05 1.66829e-05 1.66693e-05 -4.42158e-06
-5.61825e-05 1.68641e-05 1.68507e-05 -4.42157e-06
-9.31394e-05 2.79588e-05 2.79345e-05 -2.65288e-06
-7.4107e-05 2.22452e-05 2.22265e-05 -3.64776e-06
-5.58802e-05 1.67735e-05 1.676e-05 -4.42158e-06
-7.49129e-05 2.24868e-05 2.24683e-05 -3.64775e-06
-7.45099e-05 2.2366e-05 2.23474e-05 -3.64775e-06
-9.26357e-05 2.78077e-05 2.77834e-05 -2.65288e-06
-9.16285e-05 2.75056e-05 2.74812e-05 -2.65288e-06
-5.49735e-05 1.65017e-05 1.64879e-05 -4.42158e-06
-5.5578e-05 1.66829e-05 1.66693e-05 -4.42158e-06
-9.21321e-05 2.76567e-05 2.76323e-05 -2.65288e-06
-7.33011e-05 2.20035e-05 2.19847e-05 -3.64776e-06
-5.52758e-05 1.65923e-05 1.65786e-05 -4.42158e-06
-7.4107e-05 2.22452e-05 2.22265e-05 -3.64776e-06
-7.3704e-05 2.21244e-05 2.21056e-05 -3.64776e-06
-9.16285e-05 2.75056e-05 2.74812e-05 -2.65288e-06
-9.06212e-05 2.72035e-05 2.7179e-05 -2.65288e-06
-5.4369e-05 1.63205e-05 1.63065e-05 -4.42158e-06
-5.49735e-05 1.65017e-05 1.64879e-05 -4.42158e-06
-9.11248e-05 2.73545e-05 2.73301e-05 -2.65288e-06
-7.24952e-05 2.17619e-05 2.17429e-05 -3.64776e-06
-5.46713e-05 1.64111e-05 1.63972e-05 -4.42158e-06
-7.33011e-05 2.20035e-05 2.19847e-05 -3.64776e-06
-7.28982e-05 2.18827e-05 2.18638e-05 -3.64776e-06
-9.06212e-05 2.72035e-05 2.7179e-05 -2.65288e-06
-8.9614e-05 2.69013e-05 2.68768e-05 -2.65288e-06
-5.37646e-05 1.61393e-05 1.61251e-05 -4.42158e-06
-5.4369e-05 1.63205e-05 1.63065e-05 -4.42158e-06
-9.01176e-05 2.70524e-05 2.70279e-05 -2.65288e-06
-7.16894e-05 2.15202e-05 2.15011e-05 -3.64776e-06
-5.40668e-05 1.62299e-05 1.62158e-05 -4.42158e-06
-7.24952e-05 2.17619e-05 2.17429e-05 -3.64776e-06
-7.20923e-05 2.1641e-05 2.1622e-05 -3.64776e-06
-8.9614e-05 2.69013e-05 2.68768e-05 -2.65288e-06
-8.86067e-05 2.65992e-05 2.65746e-05 -2.65289e-06
-5.31601e-05 1.59581e-05 1.59437e-05 -4.42158e-06
-5.37646e-05 1.61393e-05 1.61251e-05 -4.42158e-06
-8.91103e-05 2.67503e-05 2.67257e-05 -2.65289e-06
-7.08835e-05 2.12785e-05 2.12593e-05 -3.64776e-06
-5.34623e-05 1.60487e-05 1.60344e-05 -4.42158e-06
-7.16894e-05 2.15202e-05 2.15011e-05 -3.64776e-06
-7.12864e-05 2.13994e-05 2.13802e-05 -3.64776e-06
-8.86067e-05 2.65992e-05 2.65746e-05 -2.65289e-06
-8.75994e-05 2.62971e-05 2.62725e-05 -2.65289e-06
-5.25556e-05 1.57769e-05 1.57623e-05 -4.42158e-06
-5.31601e-05 1.59581e-05 1.59437e-05 -4.42158e-06
-8.81031e-05 2.64481e-05 2.64235e-05 -2.65289e-06
-7.00777e-05 2.10369e-05 2.10175e-05 -3.64776e-06
-5.28579e-05 1.58675e-05 1.5853e-05 -4.42158e-06
-7.08835e-05 2.12785e-05 2.12593e-05 -3.64776e-06
-7.04806e-05 2.11577e-05 2.11384e-05 -3.64776e-06
-8.75994e-05 2.62971e-05 2.62725e-05 -2.65289e-06
-8.65922e-05 2.59949e-05 2.59703e-05 -2.65289e-06
-5.19512e-05 1.55957e-05 1.55809e-05 -4.42158e-06
-5.25556e-05 1.57769e-05 1.57623e-05 -4.42158e-06
-8.70958e-05 2.6146e-05 2.61214e-05 -2.65289e-06
-6.92718e-05 2.07952e-05 2.07757e-05 -3.64777e-06
-5.22534e-05 1.56863e-05 1.56716e-05 -4.42158e-06
-7.00777e-05 2.10369e-05 2.10175e-05 -3.64776e-06
-6.96747e-05 2.0916e-05 2.08966e-05 -3.64776e-06
-8.65922e-05 2.59949e-05 2.59703e-05 -2.65289e-06
-8.5585e-05 2.56928e-05 2.56681e-05 -2.65289e-06
-5.13467e-05 1.54145e-05 1.53995e-05 -4.42159e-06
-5.19512e-05 1.55957e-05 1.55809e-05 -4.42158e-06
-8.60886e-05 2.58439e-05 2.58192e-05 -2.65289e-06
-6.84659e-05 2.05535e-05 2.05339e-05 -3.64777e-06
-5.16489e-05 1.55051e-05 1.54902e-05 -4.42159e-06
-6.92718e-05 2.07952e-05 2.07757e-05 -3.64777e-06
-6.88689e-05 2.06744e-05 2.06548e-05 -3.64777e-06
-8.5585e-05 2.56928e-05 2.56681e-05 -2.65289e-06
-8.45777e-05 2.53906e-05 2.53659e-05 -2.65289e-06
-5.07423e-05 1.52333e-05 1.52181e-05 -4.42159e-06
-5.13467e-05 1.54145e-05 1.53995e-05 -4.42159e-06
-8.50813e-05 2.55417e-05 2.5517e-05 -2.65289e-06
-6.76601e-05 2.03119e-05 2.02921e-05 -3.64777e-06
-5.10445e-05 1.53239e-05 1.53088e-05 -4.42159e-06
-6.84659e-05 2.05535e-05 2.05339e-05 -3.64777e-06
-6.8063e-05 2.04327e-05 2.0413e-05 -3.64777e-06
-8.45777e-05 2.53906e-05 2.53659e-05 -2.65289e-06
-8.35705e-05 2.50885e-05 2.50637e-05 -2.65289e-06
-5.01378e-05 1.50521e-05 1.50367e-05 -4.42159e-06
-5.07423e-05 1.52333e-05 1.52181e-05 -4.42159e-06
-8.40741e-05 2.52396e-05 2.52148e-05 -2.65289e-06
-6.68542e-05 2.00702e-05 2.00503e-05 -3.64777e-06
-5.044e-05 1.51427e-05 1.51274e-05 -4.42159e-06
-6.76601e-05 2.03119e-05 2.02921e-05 -3.64777e-06
-6.72572e-05 2.0191e-05 2.01712e-05 -3.64777e-06
-8.35705e-05 2.50885e-05 2.50637e-05 -2.65289e-06
-8.25632e-05 2.47864e-05 2.47615e-05 -2.6529e-06
-4.95333e-05 1.48709e-05 1.48553e-05 -4.42159e-06
-5.01378e-05 1.50521e-05 1.50367e-05 -4.42159e-06
-8.30668e-05 2.49374e-05 2.49126e-05 -2.6529e-06
-6.60484e-05 1.98285e-05 1.98085e-05 -3.64777e-06
-4.98356e-05 1.49615e-05 1.4946e-05 -4.42159e-06
-6.68542e-05 2.00702e-05 2.00503e-05 -3.64777e-06
-6.64513e-05 1.99494e-05 1.99294e-05 -3.64777e-06
-8.25632e-05 2.47864e-05 2.47615e-05 -2.6529e-06
-8.1556e-05 2.44842e-05 2.44593e-05 -2.6529e-06
-4.89289e-05 1.46897e-05 1.46739e-05 -4.42159e-06
-4.95333e-05 1.48709e-05 1.48553e-05 -4.42159e-06
-8.20596e-05 2.46353e-05 2.46104e-05 -2.6529e-06
-6.52425e-05 1.95869e-05 1.95667e-05 -3.64777e-06
-4.92311e-05 1.47803e-05 1.47646e-05 -4.42159e-06
-6.60484e-05 1.98285e-05 1.98085e-05 -3.64777e-06
-6.56455e-05 1.97077e-05 1.96876e-05 -3.64777e-06
-8.1556e-05 2.44842e-05 2.44593e-05 -2.6529e-06
-8.05487e-05 2.41821e-05 2.41571e-05 -2.6529e-06
-4.83244e-05 1.45085e-05 1.44925e-05 -4.42159e-06
-4.89289e-05 1.46897e-05 1.46739e-05 -4.42159e-06
-8.10524e-05 2.43331e-05 2.43082e-05 -2.6529e-06
-6.44367e-05 1.93452e-05 1.93249e-05 -3.64778e-06
-4.86267e-05 1.45991e-05 1.45832e-05 -4.42159e-06
-6.52425e-05 1.95869e-05 1.95667e-05 -3.64777e-06
-6.48396e-05 1.9466e-05 1.94458e-05 -3.64777e-06
-8.05487e-05 2.41821e-05 2.41571e-05 -2.6529e-06
-7.95415e-05 2.38799e-05 2.3855e-05 -2.6529e-06
-4.772e-05 1.43273e-05 1.43112e-05 -4.42159e-06
-4.83244e-05 1.45085e-05 1.44925e-05 -4.42159e-06
-8.00451e-05 2.4031e-05 2.40061e-05 -2.6529e-06
-6.36308e-05 1.91035e-05 1.90831e-05 -3.64778e-06
-4.80222e-05 1.44179e-05 1.44018e-05 -4.42159e-06
-6.44367e-05 1.93452e-05 1.93249e-05 -3.64778e-06
-6.40338e-05 1.92244e-05 1.9204e-05 -3.64778e-06
-7.95415e-05 2.38799e-05 2.3855e-05 -2.6529e-06
-7.85343e-05 2.35778e-05 2.35528e-05 -2.6529e-06
-4.71155e-05 1.41461e-05 1.41298e-05 -4.4216e-06
-4.772e-05 1.43273e-05 1.43112e-05 -4.42159e-06
-7.90379e-05 2.37289e-05 2.37039e-05 -2.6529e-06
-6.2825e-05 1.88618e-05 1.88413e-05 -3.64778e-06
-4.74178e-05 1.42367e-05 1.42205e-05 -4.4216e-06
-6.36308e-05 1.91035e-05 1.90831e-05 -3.64778e-06
-6.32279e-05 1.89827e-05 1.89622e-05 -3.64778e-06
-7.85343e-05 2.35778e-05 2.35528e-05 -2.6529e-06
-7.7527e-05 2.32756e-05 2.32506e-05 -2.6529e-06
-4.65111e-05 1.39649e-05 1.39484e-05 -4.4216e-06
-4.71155e-05 1.41461e-05 1.41298e-05 -4.4216e-06
-7.80307e-05 2.34267e-05 2.34017e-05 -2.6529e-06
-6.20192e-05 1.86202e-05 1.85996e-05 -3.64778e-06
-4.68133e-05 1.40555e-05 1.40391e-05 -4.4216e-06
-6.2825e-05 1.88618e-05 1.88413e-05 -3.64778e-06
-6.24221e-05 1.8741e-05 1.87205e-05 -3.64778e-06
-7.7527e-05 2.32756e-05 2.32506e-05 -2.6529e-06
-7.65198e-05 2.29735e-05 2.29484e-05 -2.65291e-06
-4.59067e-05 1.37837e-05 1.3767e-05 -4.4216e-06
-4.65111e-05 1.39649e-05 1.39484e-05 -4.4216e-06
-7.70234e-05 2.31246e-05 2.30995e-05 -2.6529e-06
-6.12133e-05 1.83785e-05 1.83578e-05 -3.64778e-06
-4.62089e-05 1.38743e-05 1.38577e-05 -4.4216e-06
-6.20192e-05 1.86202e-05 1.85996e-05 -3.64778e-06
-6.16162e-05 1.84993e-05 1.84787e-05 -3.64778e-06
-7.65198e-05 2.29735e-05 2.29484e-05 -2.65291e-06
-7.55126e-05 2.26713e-05 2.26462e-05 -2.65291e-06
-4.53022e-05 1.36024e-05 1.35856e-05 -4.4216e-06
-4.59067e-05 1.37837e-05 1.3767e-05 -4.4216e-06
-7.60162e-05 2.28224e-05 2.27973e-05 -2.65291e-06
-6.04075e-05 1.81368e-05 1.8116e-05 -3.64778e-06
-4.56044e-05 1.36931e-05 1.36763e-05 -4.4216e-06
-6.12133e-05 1.83785e-05 1.83578e-05 -3.64778e-06
-6.08104e-05 1.82577e-05 1.82369e-05 -3.64778e-06
-7.55126e-05 2.26713e-05 2.26462e-05 -2.65291e-06
-7.45054e-05 2.23692e-05 2.23441e-05 -2.65291e-06
-4.46978e-05 1.34212e-05 1.34042e-05 -4.4216e-06
-4.53022e-05 1.36024e-05 1.35856e-05 -4.4216e-06
-7.5009e-05 2.25203e-05 2.24952e-05 -2.65291e-06
-5.96016e-05 1.78951e-05 1.78742e-05 -3.64779e-06
-4.5e-05 1.35118e-05 1.34949e-05 -4.4216e-06
-6.04075e-05 1.81368e-05 1.8116e-05 -3.64778e-06
-6.00046e-05 1.8016e-05 1.79951e-05 -3.64778e-06
-7.45054e-05 2.23692e-05 2.23441e-05 -2.65291e-06
-7.34981e-05 2.2067e-05 2.20419e-05 -2.65291e-06
-4.40933e-05 1.324e-05 1.32229e-05 -4.4216e-06
-4.46978e-05 1.34212e-05 1.34042e-05 -4.4216e-06
-7.40017e-05 2.22181e-05 2.2193e-05 -2.65291e-06
-5.87958e-05 1.76535e-05 1.76324e-05 -3.64779e-06
-4.43956e-05 1.33306e-05 1.33135e-05 -4.4216e-06
-5.96016e-05 1.78951e-05 1.78742e-05 -3.64779e-06
-5.91987e-05 1.77743e-05 1.77533e-05 -3.64779e-06
-7.34981e-05 2.2067e-05 2.20419e-05 -2.65291e-06
-7.24909e-05 2.17649e-05 2.17397e-05 -2.65291e-06
-4.34889e-05 1.30588e-05 1.30415e-05 -4.4216e-06
-4.40933e-05 1.324e-05 1.32229e-05 -4.4216e-06
-7.29945e-05 2.1916e-05 2.18908e-05 -2.65291e-06
-5.799e-05 1.74118e-05 1.73907e-05 -3.64779e-06
-4.37911e-05 1.31494e-05 1.31322e-05 -4.4216e-06
-5.87958e-05 1.76535e-05 1.76324e-05 -3.64779e-06
-5.83929e-05 1.75326e-05 1.75116e-05 -3.64779e-06
-7.24909e-05 2.17649e-05 2.17397e-05 -2.65291e-06
-7.14837e-05 2.14627e-05 2.14376e-05 -2.65291e-06
-4.28845e-05 1.28776e-05 1.28601e-05 -4.42161e-06
-4.34889e-05 1.30588e-05 1.30415e-05 -4.4216e-06
-7.19873e-05 2.16138e-05 2.15886e-05 -2.65291e-06
-5.71842e-05 1.71701e-05 1.71489e-05 -3.64779e-06
-4.31867e-05 1.29682e-05 1.29508e-05 -4.42161e-06
-5.799e-05 1.74118e-05 1.73907e-05 -3.64779e-06
-5.75871e-05 1.72909e-05 1.72698e-05 -3.64779e-06
-7.14837e-05 2.14627e-05 2.14376e-05 -2.65291e-06
-7.04765e-05 2.11606e-05 2.11354e-05 -2.65291e-06
-4.22801e-05 1.26964e-05 1.26787e-05 -4.42161e-06
-4.28845e-05 1.28776e-05 1.28601e-05 -4.42161e-06
-7.09801e-05 2.13117e-05 2.12865e-05 -2.65291e-06
-5.63783e-05 1.69284e-05 1.69071e-05 -3.64779e-06
-4.25823e-05 1.2787e-05 1.27694e-05 -4.42161e-06
-5.71842e-05 1.71701e-05 1.71489e-05 -3.64779e-06
-5.67812e-05 1.70492e-05 1.7028e-05 -3.64779e-06
-7.04765e-05 2.11606e-05 2.11354e-05 -2.65291e-06
-6.94693e-05 2.08584e-05 2.08332e-05 -2.65292e-06
-4.16756e-05 1.25151e-05 1.24974e-05 -4.42161e-06
-4.22801e-05 1.26964e-05 1.26787e-05 -4.42161e-06
-6.99729e-05 2.10095e-05 2.09843e-05 -2.65292e-06
-5.55725e-05 1.66867e-05 1.66653e-05 -3.64779e-06
-4.19778e-05 1.26057e-05 1.2588e-05 -4.42161e-06
-5.63783e-05 1.69284e-05 1.69071e-05 -3.64779e-06
-5.59754e-05 1.68076e-05 1.67862e-05 -3.64779e-06
-6.94693e-05 2.08584e-05 2.08332e-05 -2.65292e-06
-6.8462e-05 2.05563e-05 2.0531e-05 -2.65292e-06
-4.10712e-05 1.23339e-05 1.2316e-05 -4.42161e-06
-4.16756e-05 1.25151e-05 1.24974e-05 -4.42161e-06
-6.89656e-05 2.07073e-05 2.06821e-05 -2.65292e-06
-5.47667e-05 1.6445e-05 1.64236e-05 -3.6478e-06
-4.13734e-05 1.24245e-05 1.24067e-05 -4.42161e-06
-5.55725e-05 1.66867e-05 1.66653e-05 -3.64779e-06
-5.51696e-05 1.65659e-05 1.65445e-05 -3.64779e-06
-6.8462e-05 2.05563e-05 2.0531e-05 -2.65292e-06
-6.74548e-05 2.02541e-05 2.02289e-05 -2.65292e-06
-4.04668e-05 1.21527e-05 1.21346e-05 -4.42161e-06
-4.10712e-05 1.23339e-05 1.2316e-05 -4.42161e-06
-6.79584e-05 2.04052e-05 2.038e-05 -2.65292e-06
-5.39609e-05 1.62033e-05 1.61818e-05 -3.6478e-06
-4.0769e-05 1.22433e-05 1.22253e-05 -4.42161e-06
-5.47667e-05 1.6445e-05 1.64236e-05 -3.6478e-06
-5.43638e-05 1.63242e-05 1.63027e-05 -3.6478e-06
-6.74548e-05 2.02541e-05 2.02289e-05 -2.65292e-06
-6.64476e-05 1.99519e-05 1.99267e-05 -2.65292e-06
-3.98624e-05 1.19715e-05 1.19533e-05 -4.42161e-06
-4.04668e-05 1.21527e-05 1.21346e-05 -4.42161e-06
-6.69512e-05 2.0103e-05 2.00778e-05 -2.65292e-06
-5.31551e-05 1.59616e-05 1.594e-05 -3.6478e-06
-4.01646e-05 1.20621e-05 1.20439e-05 -4.42161e-06
-5.39609e-05 1.62033e-05 1.61818e-05 -3.6478e-06
-5.3558e-05 1.60825e-05 1.60609e-05 -3.6478e-06
-6.64476e-05 1.99519e-05 1.99267e-05 -2.65292e-06
-6.54404e-05 1.96498e-05 1.96246e-05 -2.65292e-06
-3.9258e-05 1.17902e-05 1.17719e-05 -4.42162e-06
-3.98624e-05 1.19715e-05 1.19533e-05 -4.42161e-06
-6.5944e-05 1.98009e-05 1.97756e-05 -2.65292e-06
-5.23493e-05 1.57199e-05 1.56983e-05 -3.6478e-06
-3.95602e-05 1.18808e-05 1.18626e-05 -4.42161e-06
-5.31551e-05 1.59616e-05 1.594e-05 -3.6478e-06
-5.27522e-05 1.58408e-05 1.58192e-05 -3.6478e-06
-6.54404e-05 1.96498e-05 1.96246e-05 -2.65292e-06
-6.44332e-05 1.93476e-05 1.93224e-05 -2.65292e-06
-3.86536e-05 1.1609e-05 1.15905e-05 -4.42162e-06
-3.9258e-05 1.17902e-05 1.17719e-05 -4.42162e-06
-6.49368e-05 1.94987e-05 1.94735e-05 -2.65292e-06
-5.15434e-05 1.54783e-05 1.54565e-05 -3.6478e-06
-3.89558e-05 1.16996e-05 1.16812e-05 -4.42162e-06
-5.23493e-05 1.57199e-05 1.56983e-05 -3.6478e-06
-5.19463e-05 1.55991e-05 1.55774e-05 -3.6478e-06
-6.44332e-05 1.93476e-05 1.93224e-05 -2.65292e-06
-6.3426e-05 1.90455e-05 1.90202e-05 -2.65293e-06
-3.80491e-05 1.14278e-05 1.14092e-05 -4.42162e-06
-3.86536e-05 1.1609e-05 1.15905e-05 -4.42162e-06
-6.39296e-05 1.91965e-05 1.91713e-05 -2.65293e-06
-5.07376e-05 1.52366e-05 1.52147e-05 -3.6478e-06
-3.83513e-05 1.15184e-05 1.14998e-05 -4.42162e-06
-5.15434e-05 1.54783e-05 1.54565e-05 -3.6478e-06
-5.11405e-05 1.53574e-05 1.53356e-05 -3.6478e-06
-6.3426e-05 1.90455e-05 1.90202e-05 -2.65293e-06
-6.24188e-05 1.87433e-05 1.87181e-05 -2.65293e-06
-3.74447e-05 1.12465e-05 1.12278e-05 -4.42162e-06
-3.80491e-05 1.14278e-05 1.14092e-05 -4.42162e-06
-6.29224e-05 1.88944e-05 1.88692e-05 -2.65293e-06
-4.99318e-05 1.49949e-05 1.4973e-05 -3.64781e-06
-3.77469e-05 1.13371e-05 1.13185e-05 -4.42162e-06
-5.07376e-05 1.52366e-05 1.52147e-05 -3.6478e-06
-5.03347e-05 1.51157e-05 1.50939e-05 -3.64781e-06
-6.24188e-05 1.87433e-05 1.87181e-05 -2.65293e-06
-6.14116e-05 1.84411e-05 1.84159e-05 -2.65293e-06
-3.68403e-05 1.10653e-05 1.10464e-05 -4.42162e-06
-3.74447e-05 1.12465e-05 1.12278e-05 -4.42162e-06
-6.19152e-05 1.85922e-05 1.8567e-05 -2.65293e-06
-4.9126e-05 1.47532e-05 1.47312e-05 -3.64781e-06
-3.71425e-05 1.11559e-05 1.11371e-05 -4.42162e-06
-4.99318e-05 1.49949e-05 1.4973e-05 -3.64781e-06
-4.95289e-05 1.4874e-05 1.48521e-05 -3.64781e-06
-6.14116e-05 1.84411e-05 1.84159e-05 -2.65293e-06
-6.04044e-05 1.8139e-05 1.81138e-05 -2.65293e-06
-3.62359e-05 1.08841e-05 1.08651e-05 -4.42162e-06
-3.68403e-05 1.10653e-05 1.10464e-05 -4.42162e-06
-6.0908e-05 1.82901e-05 1.82648e-05 -2.65293e-06
-4.83202e-05 1.45115e-05 1.44895e-05 -3.64781e-06
-3.65381e-05 1.09747e-05 1.09558e-05 -4.42162e-06
-4.9126e-05 1.47532e-05 1.47312e-05 -3.64781e-06
-4.87231e-05 1.46323e-05 1.46104e-05 -3.64781e-06
-6.04044e-05 1.8139e-05 1.81138e-05 -2.65293e-06
-5.93972e-05 1.78368e-05 1.78116e-05 -2.65293e-06
-3.56315e-05 1.07028e-05 1.06837e-05 -4.42162e-06
-3.62359e-05 1.08841e-05 1.08651e-05 -4.42162e-06
-5.99008e-05 1.79879e-05 1.79627e-05 -2.65293e-06
-4.75144e-05 1.42698e-05 1.42477e-05 -3.64781e-06
-3.59337e-05 1.07934e-05 1.07744e-05 -4.42162e-06
-4.83202e-05 1.45115e-05 1.44895e-05 -3.64781e-06
-4.79173e-05 1.43906e-05 1.43686e-05 -3.64781e-06
-5.93972e-05 1.78368e-05 1.78116e-05 -2.65293e-06
-5.839e-05 1.75346e-05 1.75095e-05 -2.65293e-06
-3.50271e-05 1.05216e-05 1.05024e-05 -4.42163e-06
-3.56315e-05 1.07028e-05 1.06837e-05 -4.42162e-06
-5.88936e-05 1.76857e-05 1.76605e-05 -2.65293e-06
-4.67086e-05 1.40281e-05 1.4006e-05 -3.64781e-06
-3.53293e-05 1.06122e-05 1.05931e-05 -4.42162e-06
-4.75144e-05 1.42698e-05 1.42477e-05 -3.64781e-06
-4.71115e-05 1.41489e-05 1.41268e-05 -3.64781e-06
-5.839e-05 1.75346e-05 1.75095e-05 -2.65293e-06
-5.73828e-05 1.72325e-05 1.72073e-05 -2.65294e-06
-3.44227e-05 1.03403e-05 1.0321e-05 -4.42163e-06
-3.50271e-05 1.05216e-05 1.05024e-05 -4.42163e-06
-5.78864e-05 1.73835e-05 1.73584e-05 -2.65294e-06
-4.59028e-05 1.37863e-05 1.37642e-05 -3.64781e-06
-3.47249e-05 1.04309e-05 1.04117e-05 -4.42163e-06
-4.67086e-05 1.40281e-05 1.4006e-05 -3.64781e-06
-4.63057e-05 1.39072e-05 1.38851e-05 -3.64781e-06
-5.73828e-05 1.72325e-05 1.72073e-05 -2.65294e-06
-5.63757e-05 1.69303e-05 1.69052e-05 -2.65294e-06
-3.38184e-05 1.01591e-05 1.01397e-05 -4.42163e-06
-3.44227e-05 1.03403e-05 1.0321e-05 -4.42163e-06
-5.68792e-05 1.70814e-05 1.70562e-05 -2.65294e-06
-4.5097e-05 1.35446e-05 1.35225e-05 -3.64782e-06
-3.41206e-05 1.02497e-05 1.02304e-05 -4.42163e-06
-4.59028e-05 1.37863e-05 1.37642e-05 -3.64781e-06
-4.54999e-05 1.36655e-05 1.36433e-05 -3.64782e-06
-5.63757e-05 1.69303e-05 1.69052e-05 -2.65294e-06
-5.53685e-05 1.66281e-05 1.6603e-05 -2.65294e-06
-3.3214e-05 9.97784e-06 9.95834e-06 -4.42163e-06
-3.38184e-05 1.01591e-05 1.01397e-05 -4.42163e-06
-5.58721e-05 1.67792e-05 1.67541e-05 -2.65294e-06
-4.42913e-05 1.33029e-05 1.32807e-05 -3.64782e-06
-3.35162e-05 1.00685e-05 1.0049e-05 -4.42163e-06
-4.5097e-05 1.35446e-05 1.35225e-05 -3.64782e-06
-4.46942e-05 1.34238e-05 1.34016e-05 -3.64782e-06
-5.53685e-05 1.66281e-05 1.6603e-05 -2.65294e-06
-5.43613e-05 1.63259e-05 1.63009e-05 -2.65294e-06
-3.26096e-05 9.79659e-06 9.777e-06 -4.42163e-06
-3.3214e-05 9.97784e-06 9.95834e-06 -4.42163e-06
-5.48649e-05 1.6477e-05 1.64519e-05 -2.65294e-06
-4.34855e-05 1.30612e-05 1.3039e-05 -3.64782e-06
-3.29118e-05 9.88721e-06 9.86767e-06 -4.42163e-06
-4.42913e-05 1.33029e-05 1.32807e-05 -3.64782e-06
-4.38884e-05 1.31821e-05 1.31598e-05 -3.64782e-06
-5.43613e-05 1.63259e-05 1.63009e-05 -2.65294e-06
-5.33541e-05 1.60238e-05 1.59987e-05 -2.65294e-06
-3.20052e-05 9.61534e-06 9.59566e-06 -4.42163e-06
-3.26096e-05 9.79659e-06 9.777e-06 -4.42163e-06
-5.38577e-05 1.61749e-05 1.61498e-05 -2.65294e-06
-4.26797e-05 1.28195e-05 1.27972e-05 -3.64782e-06
-3.23074e-05 9.70596e-06 9.68633e-06 -4.42163e-06
-4.34855e-05 1.30612e-05 1.3039e-05 -3.64782e-06
-4.30826e-05 1.29404e-05 1.29181e-05 -3.64782e-06
-5.33541e-05 1.60238e-05 1.59987e-05 -2.65294e-06
-5.23469e-05 1.57216e-05 1.56966e-05 -2.65294e-06
-3.14008e-05 9.43409e-06 9.41432e-06 -4.42163e-06
-3.20052e-05 9.61534e-06 9.59566e-06 -4.42163e-06
-5.28505e-05 1.58727e-05 1.58476e-05 -2.65294e-06
-4.18739e-05 1.25778e-05 1.25555e-05 -3.64782e-06
-3.1703e-05 9.52471e-06 9.50499e-06 -4.42163e-06
-4.26797e-05 1.28195e-05 1.27972e-05 -3.64782e-06
-4.22768e-05 1.26987e-05 1.26763e-05 -3.64782e-06
-5.23469e-05 1.57216e-05 1.56966e-05 -2.65294e-06
-5.13397e-05 1.54194e-05 1.53944e-05 -2.65295e-06
-3.07964e-05 9.25283e-06 9.23298e-06 -4.42164e-06
-3.14008e-05 9.43409e-06 9.41432e-06 -4.42163e-06
-5.18433e-05 1.55705e-05 1.55455e-05 -2.65294e-06
-4.10681e-05 1.23361e-05 1.23137e-05 -3.64783e-06
-3.10986e-05 9.34346e-06 9.32365e-06 -4.42164e-06
-4.18739e-05 1.25778e-05 1.25555e-05 -3.64782e-06
-4.1471e-05 1.24569e-05 1.24346e-05 -3.64782e-06
-5.13397e-05 1.54194e-05 1.53944e-05 -2.65295e-06
-5.03326e-05 1.51172e-05 1.50923e-05 -2.65295e-06
-3.01921e-05 9.07158e-06 9.05164e-06 -4.42164e-06
-3.07964e-05 9.25283e-06 9.23298e-06 -4.42164e-06
-5.08362e-05 1.52683e-05 1.52434e-05 -2.65295e-06
-4.02624e-05 1.20944e-05 1.2072e-05 -3.64783e-06
-3.04943e-05 9.1622e-06 9.14231e-06 -4.42164e-06
-4.10681e-05 1.23361e-05 1.23137e-05 -3.64783e-06
-4.06652e-05 1.22152e-05 1.21929e-05 -3.64783e-06
-5.03326e-05 1.51172e-05 1.50923e-05 -2.65295e-06
-4.93254e-05 1.4815e-05 1.47902e-05 -2.65295e-06
-2.95877e-05 8.89032e-06 8.87031e-06 -4.42164e-06
-3.01921e-05 9.07158e-06 9.05164e-06 -4.42164e-06
-4.9829e-05 1.49661e-05 1.49412e-05 -2.65295e-06
-3.94566e-05 1.18526e-05 1.18303e-05 -3.64783e-06
-2.98899e-05 8.98095e-06 8.96097e-06 -4.42164e-06
-4.02624e-05 1.20944e-05 1.2072e-05 -3.64783e-06
-3.98595e-05 1.19735e-05 1.19511e-05 -3.64783e-06
-4.93254e-05 1.4815e-05 1.47902e-05 -2.65295e-06
-4.83182e-05 1.45129e-05 1.4488e-05 -2.65295e-06
-2.89833e-05 8.70906e-06 8.68897e-06 -4.42164e-06
-2.95877e-05 8.89032e-06 8.87031e-06 -4.42164e-06
-4.88218e-05 1.4664e-05 1.46391e-05 -2.65295e-06
-3.86508e-05 1.16109e-05 1.15885e-05 -3.64783e-06
-2.92855e-05 8.79969e-06 8.77964e-06 -4.42164e-06
-3.94566e-05 1.18526e-05 1.18303e-05 -3.64783e-06
-3.90537e-05 1.17318e-05 1.17094e-05 -3.64783e-06
-4.83182e-05 1.45129e-05 1.4488e-05 -2.65295e-06
-4.73111e-05 1.42107e-05 1.41859e-05 -2.65295e-06
-2.8379e-05 8.5278e-06 8.50764e-06 -4.42164e-06
-2.89833e-05 8.70906e-06 8.68897e-06 -4.42164e-06
-4.78146e-05 1.43618e-05 1.43369e-05 -2.65295e-06
-3.7845e-05 1.13692e-05 1.13468e-05 -3.64783e-06
-2.86811e-05 8.61843e-06 8.59831e-06 -4.42164e-06
-3.86508e-05 1.16109e-05 1.15885e-05 -3.64783e-06
-3.82479e-05 1.14901e-05 1.14677e-05 -3.64783e-06
-4.73111e-05 1.42107e-05 1.41859e-05 -2.65295e-06
-4.63039e-05 1.39085e-05 1.38837e-05 -2.65295e-06
-2.77746e-05 8.34654e-06 8.32631e-06 -4.42164e-06
-2.8379e-05 8.5278e-06 8.50764e-06 -4.42164e-06
-4.68075e-05 1.40596e-05 1.40348e-05 -2.65295e-06
-3.70393e-05 1.11275e-05 1.11051e-05 -3.64783e-06
-2.80768e-05 8.43717e-06 8.41698e-06 -4.42164e-06
-3.7845e-05 1.13692e-05 1.13468e-05 -3.64783e-06
-3.74422e-05 1.12483e-05 1.12259e-05 -3.64783e-06
-4.63039e-05 1.39085e-05 1.38837e-05 -2.65295e-06
-4.52967e-05 1.36063e-05 1.35816e-05 -2.65296e-06
-2.71702e-05 8.16527e-06 8.14499e-06 -4.42165e-06
-2.77746e-05 8.34654e-06 8.32631e-06 -4.42164e-06
-4.58003e-05 1.37574e-05 1.37327e-05 -2.65295e-06
-3.62335e-05 1.08858e-05 1.08633e-05 -3.64784e-06
-2.74724e-05 8.25591e-06 8.23565e-06 -4.42165e-06
-3.70393e-05 1.11275e-05 1.11051e-05 -3.64783e-06
-3.66364e-05 1.10066e-05 1.09842e-05 -3.64783e-06
-4.52967e-05 1.36063e-05 1.35816e-05 -2.65296e-06
-4.42896e-05 1.33041e-05 1.32795e-05 -2.65296e-06
-2.65659e-05 7.98401e-06 7.96366e-06 -4.42165e-06
-2.71702e-05 8.16527e-06 8.14499e-06 -4.42165e-06
-4.47932e-05 1.34552e-05 1.34305e-05 -2.65296e-06
-3.54278e-05 1.0644e-05 1.06216e-05 -3.64784e-06
-2.68681e-05 8.07464e-06 8.05432e-06 -4.42165e-06
-3.62335e-05 1.08858e-05 1.08633e-05 -3.64784e-06
-3.58306e-05 1.07649e-05 1.07425e-05 -3.64784e-06
-4.42896e-05 1.33041e-05 1.32795e-05 -2.65296e-06
-4.32824e-05 1.30019e-05 1.29774e-05 -2.65296e-06
-2.59615e-05 7.80274e-06 7.78234e-06 -4.42165e-06
-2.65659e-05 7.98401e-06 7.96366e-06 -4.42165e-06
-4.3786e-05 1.3153e-05 1.31284e-05 -2.65296e-06
-3.4622e-05 1.04023e-05 1.03799e-05 -3.64784e-06
-2.62637e-05 7.89337e-06 7.873e-06 -4.42165e-06
-3.54278e-05 1.0644e-05 1.06216e-05 -3.64784e-06
-3.50249e-05 1.05232e-05 1.05007e-05 -3.64784e-06
-4.32824e-05 1.30019e-05 1.29774e-05 -2.65296e-06
-4.22753e-05 1.26997e-05 1.26752e-05 -2.65296e-06
-2.53572e-05 7.62147e-06 7.60102e-06 -4.42165e-06
-2.59615e-05 7.80274e-06 7.78234e-06 -4.42165e-06
-4.27788e-05 1.28508e-05 1.28263e-05 -2.65296e-06
-3.38162e-05 1.01606e-05 1.01381e-05 -3.64784e-06
-2.56593e-05 7.7121e-06 7.69168e-06 -4.42165e-06
-3.4622e-05 1.04023e-05 1.03799e-05 -3.64784e-06
-3.42191e-05 1.02814e-05 1.0259e-05 -3.64784e-06
-4.22753e-05 1.26997e-05 1.26752e-05 -2.65296e-06
-4.12681e-05 1.23975e-05 1.23731e-05 -2.65296e-06
-2.47528e-05 7.4402e-06 7.4197e-06 -4.42165e-06
-2.53572e-05 7.62147e-06 7.60102e-06 -4.42165e-06
-4.17717e-05 1.25486e-05 1.25242e-05 -2.65296e-06
-3.30105e-05 9.91885e-06 9.89642e-06 -3.64784e-06
-2.5055e-05 7.53083e-06 7.51036e-06 -4.42165e-06
-3.38162e-05 1.01606e-05 1.01381e-05 -3.64784e-06
-3.34134e-05 1.00397e-05 1.00173e-05 -3.64784e-06
-4.12681e-05 1.23975e-05 1.23731e-05 -2.65296e-06
-4.0261e-05 1.20954e-05 1.2071e-05 -2.65296e-06
-2.41485e-05 7.25892e-06 7.23838e-06 -4.42165e-06
-2.47528e-05 7.4402e-06 7.4197e-06 -4.42165e-06
-4.07645e-05 1.22465e-05 1.2222e-05 -2.65296e-06
-3.22047e-05 9.67712e-06 9.6547e-06 -3.64784e-06
-2.44507e-05 7.34956e-06 7.32904e-06 -4.42165e-06
-3.30105e-05 9.91885e-06 9.89642e-06 -3.64784e-06
-3.26076e-05 9.79798e-06 9.77556e-06 -3.64784e-06
-4.0261e-05 1.20954e-05 1.2071e-05 -2.65296e-06
-3.92538e-05 1.17932e-05 1.17689e-05 -2.65297e-06
-2.35441e-05 7.07765e-06 7.05706e-06 -4.42166e-06
-2.41485e-05 7.25892e-06 7.23838e-06 -4.42165e-06
-3.97574e-05 1.19443e-05 1.19199e-05 -2.65296e-06
-3.1399e-05 9.43538e-06 9.41298e-06 -3.64785e-06
-2.38463e-05 7.16829e-06 7.14772e-06 -4.42165e-06
-3.22047e-05 9.67712e-06 9.6547e-06 -3.64784e-06
-3.18019e-05 9.55625e-06 9.53384e-06 -3.64785e-06
-3.92538e-05 1.17932e-05 1.17689e-05 -2.65297e-06
-3.82467e-05 1.1491e-05 1.14667e-05 -2.65297e-06
-2.29398e-05 6.89637e-06 6.87575e-06 -4.42166e-06
-2.35441e-05 7.07765e-06 7.05706e-06 -4.42166e-06
-3.87502e-05 1.16421e-05 1.16178e-05 -2.65297e-06
-3.05933e-05 9.19365e-06 9.17126e-06 -3.64785e-06
-2.3242e-05 6.98701e-06 6.96641e-06 -4.42166e-06
-3.1399e-05 9.43538e-06 9.41298e-06 -3.64785e-06
-3.09961e-05 9.31452e-06 9.29212e-06 -3.64785e-06
-3.82467e-05 1.1491e-05 1.14667e-05 -2.65297e-06
-3.72395e-05 1.11888e-05 1.11646e-05 -2.65297e-06
-2.23355e-05 6.71509e-06 6.69444e-06 -4.42166e-06
-2.29398e-05 6.89637e-06 6.87575e-06 -4.42166e-06
-3.77431e-05 1.13399e-05 1.13157e-05 -2.65297e-06
-2.97875e-05 8.95191e-06 8.92954e-06 -3.64785e-06
-2.26376e-05 6.80573e-06 6.7851e-06 -4.42166e-06
-3.05933e-05 9.19365e-06 9.17126e-06 -3.64785e-06
-3.01904e-05 9.07278e-06 9.0504e-06 -3.64785e-06
-3.72395e-05 1.11888e-05 1.11646e-05 -2.65297e-06
-3.62324e-05 1.08866e-05 1.08625e-05 -2.65297e-06
-2.17311e-05 6.53381e-06 6.51313e-06 -4.42166e-06
-2.23355e-05 6.71509e-06 6.69444e-06 -4.42166e-06
-3.6736e-05 1.10377e-05 1.10136e-05 -2.65297e-06
-2.89818e-05 8.71017e-06 8.68783e-06 -3.64785e-06
-2.20333e-05 6.62445e-06 6.60379e-06 -4.42166e-06
-2.97875e-05 8.95191e-06 8.92954e-06 -3.64785e-06
-2.93846e-05 8.83104e-06 8.80869e-06 -3.64785e-06
-3.62324e-05 1.08866e-05 1.08625e-05 -2.65297e-06
-3.52252e-05 1.05844e-05 1.05604e-05 -2.65297e-06
-2.11268e-05 6.35253e-06 6.33182e-06 -4.42166e-06
-2.17311e-05 6.53381e-06 6.51313e-06 -4.42166e-06
-3.57288e-05 1.07355e-05 1.07114e-05 -2.65297e-06
-2.8176e-05 8.46843e-06 8.44612e-06 -3.64785e-06
-2.14289e-05 6.44317e-06 6.42248e-06 -4.42166e-06
-2.89818e-05 8.71017e-06 8.68783e-06 -3.64785e-06
-2.85789e-05 8.5893e-06 8.56697e-06 -3.64785e-06
-3.52252e-05 1.05844e-05 1.05604e-05 -2.65297e-06
-3.42181e-05 1.02822e-05 1.02583e-05 -2.65297e-06
-2.05225e-05 6.17124e-06 6.15052e-06 -4.42166e-06
-2.11268e-05 6.35253e-06 6.33182e-06 -4.42166e-06
-3.47217e-05 1.04333e-05 1.04093e-05 -2.65297e-06
-2.73703e-05 8.22669e-06 8.2044e-06 -3.64786e-06
-2.08246e-05 6.26189e-06 6.24117e-06 -4.42166e-06
-2.8176e-05 8.46843e-06 8.44612e-06 -3.64785e-06
-2.77732e-05 8.34756e-06 8.32526e-06 -3.64785e-06
-3.42181e-05 1.02822e-05 1.02583e-05 -2.65297e-06
-3.3211e-05 9.97996e-06 9.95615e-06 -2.65298e-06
-1.99181e-05 5.98996e-06 5.96922e-06 -4.42166e-06
-2.05225e-05 6.17124e-06 6.15052e-06 -4.42166e-06
-3.37145e-05 1.01311e-05 1.01072e-05 -2.65297e-06
-2.65646e-05 7.98494e-06 7.9627e-06 -3.64786e-06
-2.02203e-05 6.0806e-06 6.05987e-06 -4.42166e-06
-2.73703e-05 8.22669e-06 8.2044e-06 -3.64786e-06
-2.69674e-05 8.10581e-06 8.08355e-06 -3.64786e-06
-3.3211e-05 9.97996e-06 9.95615e-06 -2.65298e-06
-3.22038e-05 9.67776e-06 9.65404e-06 -2.65298e-06
-1.93138e-05 5.80867e-06 5.78791e-06 -4.42167e-06
-1.99181e-05 5.98996e-06 5.96922e-06 -4.42166e-06
-3.27074e-05 9.82886e-06 9.80509e-06 -2.65298e-06
-2.57588e-05 7.7432e-06 7.72099e-06 -3.64786e-06
-1.9616e-05 5.89931e-06 5.87856e-06 -4.42167e-06
-2.65646e-05 7.98494e-06 7.9627e-06 -3.64786e-06
-2.61617e-05 7.86407e-06 7.84184e-06 -3.64786e-06
-3.22038e-05 9.67776e-06 9.65404e-06 -2.65298e-06
-3.11967e-05 9.37555e-06 9.35193e-06 -2.65298e-06
-1.87095e-05 5.62738e-06 5.60662e-06 -4.42167e-06
-1.93138e-05 5.80867e-06 5.78791e-06 -4.42167e-06
-3.17003e-05 9.52665e-06 9.50298e-06 -2.65298e-06
-2.49531e-05 7.50145e-06 7.47928e-06 -3.64786e-06
-1.90116e-05 5.71802e-06 5.69726e-06 -4.42167e-06
-2.57588e-05 7.7432e-06 7.72099e-06 -3.64786e-06
-2.5356e-05 7.62232e-06 7.60014e-06 -3.64786e-06
-3.11967e-05 9.37555e-06 9.35193e-06 -2.65298e-06
-3.01896e-05 9.07334e-06 9.04982e-06 -2.65298e-06
-1.81052e-05 5.44608e-06 5.42532e-06 -4.42167e-06
-1.87095e-05 5.62738e-06 5.60662e-06 -4.42167e-06
-3.06931e-05 9.22444e-06 9.20087e-06 -2.65298e-06
-2.41474e-05 7.2597e-06 7.23758e-06 -3.64786e-06
-1.84073e-05 5.53673e-06 5.51597e-06 -4.42167e-06
-2.49531e-05 7.50145e-06 7.47928e-06 -3.64786e-06
-2.45502e-05 7.38057e-06 7.35843e-06 -3.64786e-06
-3.01896e-05 9.07334e-06 9.04982e-06 -2.65298e-06
-2.91825e-05 8.77113e-06 8.74771e-06 -2.65298e-06
-1.75008e-05 5.26479e-06 5.24402e-06 -4.42167e-06
-1.81052e-05 5.44608e-06 5.42532e-06 -4.42167e-06
-2.9686e-05 8.92224e-06 8.89877e-06 -2.65298e-06
-2.33417e-05 7.01795e-06 6.99588e-06 -3.64786e-06
-1.7803e-05 5.35544e-06 5.33467e-06 -4.42167e-06
-2.41474e-05 7.2597e-06 7.23758e-06 -3.64786e-06
-2.37445e-05 7.13882e-06 7.11673e-06 -3.64786e-06
-2.91825e-05 8.77113e-06 8.74771e-06 -2.65298e-06
-2.81753e-05 8.46892e-06 8.44561e-06 -2.65298e-06
-1.68965e-05 5.08349e-06 5.06273e-06 -4.42167e-06
-1.75008e-05 5.26479e-06 5.24402e-06 -4.42167e-06
-2.86789e-05 8.62003e-06 8.59666e-06 -2.65298e-06
-2.25359e-05 6.7762e-06 6.75418e-06 -3.64787e-06
-1.71987e-05 5.17414e-06 5.15338e-06 -4.42167e-06
-2.33417e-05 7.01795e-06 6.99588e-06 -3.64786e-06
-2.29388e-05 6.89707e-06 6.87503e-06 -3.64787e-06
-2.81753e-05 8.46892e-06 8.44561e-06 -2.65298e-06
-2.71682e-05 8.16671e-06 8.1435e-06 -2.65298e-06
-1.62922e-05 4.90219e-06 4.88144e-06 -4.42167e-06
-1.68965e-05 5.08349e-06 5.06273e-06 -4.42167e-06
-2.76718e-05 8.31781e-06 8.29456e-06 -2.65298e-06
-2.17302e-05 6.53444e-06 6.51248e-06 -3.64787e-06
-1.65944e-05 4.99284e-06 4.97208e-06 -4.42167e-06
-2.25359e-05 6.7762e-06 6.75418e-06 -3.64787e-06
-2.21331e-05 6.65532e-06 6.63333e-06 -3.64787e-06
-2.71682e-05 8.16671e-06 8.1435e-06 -2.65298e-06
-2.61611e-05 7.86449e-06 7.8414e-06 -2.65299e-06
-1.56879e-05 4.72089e-06 4.70015e-06 -4.42167e-06
-1.62922e-05 4.90219e-06 4.88144e-06 -4.42167e-06
-2.66647e-05 8.0156e-06 7.99245e-06 -2.65299e-06
-2.09245e-05 6.29268e-06 6.27079e-06 -3.64787e-06
-1.59901e-05 4.81154e-06 4.79079e-06 -4.42167e-06
-2.17302e-05 6.53444e-06 6.51248e-06 -3.64787e-06
-2.13274e-05 6.41356e-06 6.39163e-06 -3.64787e-06
-2.61611e-05 7.86449e-06 7.8414e-06 -2.65299e-06
-2.5154e-05 7.56228e-06 7.5393e-06 -2.65299e-06
-1.50836e-05 4.53959e-06 4.51886e-06 -4.42168e-06
-1.56879e-05 4.72089e-06 4.70015e-06 -4.42167e-06
-2.56575e-05 7.71339e-06 7.69035e-06 -2.65299e-06
-2.01188e-05 6.05093e-06 6.02909e-06 -3.64787e-06
-1.53858e-05 4.63024e-06 4.60951e-06 -4.42168e-06
-2.09245e-05 6.29268e-06 6.27079e-06 -3.64787e-06
-2.05217e-05 6.17181e-06 6.14994e-06 -3.64787e-06
-2.5154e-05 7.56228e-06 7.5393e-06 -2.65299e-06
-2.41469e-05 7.26006e-06 7.2372e-06 -2.65299e-06
-1.44793e-05 4.35829e-06 4.33758e-06 -4.42168e-06
-1.50836e-05 4.53959e-06 4.51886e-06 -4.42168e-06
-2.46504e-05 7.41117e-06 7.38825e-06 -2.65299e-06
-1.93131e-05 5.80917e-06 5.7874e-06 -3.64787e-06
-1.47815e-05 4.44894e-06 4.42822e-06 -4.42168e-06
-2.01188e-05 6.05093e-06 6.02909e-06 -3.64787e-06
-1.9716e-05 5.93005e-06 5.90825e-06 -3.64787e-06
-2.41469e-05 7.26006e-06 7.2372e-06 -2.65299e-06
-2.31398e-05 6.95785e-06 6.93511e-06 -2.65299e-06
-1.3875e-05 4.17699e-06 4.1563e-06 -4.42168e-06
-1.44793e-05 4.35829e-06 4.33758e-06 -4.42168e-06
-2.36433e-05 7.10895e-06 7.08616e-06 -2.65299e-06
-1.85074e-05 5.56741e-06 5.54571e-06 -3.64787e-06
-1.41772e-05 4.26764e-06 4.24694e-06 -4.42168e-06
-1.93131e-05 5.80917e-06 5.7874e-06 -3.64787e-06
-1.89102e-05 5.68829e-06 5.66655e-06 -3.64787e-06
-2.31398e-05 6.95785e-06 6.93511e-06 -2.65299e-06
-2.21327e-05 6.65563e-06 6.63301e-06 -2.653e-06
-1.32707e-05 3.99568e-06 3.97501e-06 -4.42168e-06
-1.3875e-05 4.17699e-06 4.1563e-06 -4.42168e-06
-2.26362e-05 6.80674e-06 6.78406e-06 -2.65299e-06
-1.77017e-05 5.32565e-06 5.30402e-06 -3.64788e-06
-1.35729e-05 4.08633e-06 4.06566e-06 -4.42168e-06
-1.85074e-05 5.56741e-06 5.54571e-06 -3.64787e-06
-1.81045e-05 5.44653e-06 5.42486e-06 -3.64788e-06
-2.21327e-05 6.65563e-06 6.63301e-06 -2.653e-06
-2.11256e-05 6.35341e-06 6.33092e-06 -2.65301e-06
-1.26664e-05 3.81438e-06 3.79374e-06 -4.42168e-06
-1.32707e-05 3.99568e-06 3.97501e-06 -4.42168e-06
-2.16291e-05 6.50452e-06 6.48197e-06 -2.653e-06
-1.6896e-05 5.08389e-06 5.06233e-06 -3.64788e-06
-1.29686e-05 3.90503e-06 3.88438e-06 -4.42168e-06
-1.77017e-05 5.32565e-06 5.30402e-06 -3.64788e-06
-1.72988e-05 5.20477e-06 5.18318e-06 -3.64788e-06
-2.11256e-05 6.35341e-06 6.33092e-06 -2.65301e-06
-2.01185e-05 6.05119e-06 6.02883e-06 -2.65302e-06
-1.20622e-05 3.63308e-06 3.61246e-06 -4.42168e-06
-1.26664e-05 3.81438e-06 3.79374e-06 -4.42168e-06
-2.0622e-05 6.2023e-06 6.17987e-06 -2.65301e-06
-1.60903e-05 4.84214e-06 4.82065e-06 -3.64789e-06
-1.23643e-05 3.72373e-06 3.7031e-06 -4.42168e-06
-1.6896e-05 5.08389e-06 5.06233e-06 -3.64788e-06
-1.64932e-05 4.96301e-06 4.94149e-06 -3.64789e-06
-2.01185e-05 6.05119e-06 6.02883e-06 -2.65302e-06
-1.91114e-05 5.74898e-06 5.72673e-06 -2.65304e-06
-1.14579e-05 3.45179e-06 3.43119e-06 -4.42168e-06
-1.20622e-05 3.63308e-06 3.61246e-06 -4.42168e-06
-1.96149e-05 5.90009e-06 5.87778e-06 -2.65303e-06
-1.52846e-05 4.60039e-06 4.57897e-06 -3.64791e-06
-1.176e-05 3.54244e-06 3.52182e-06 -4.42168e-06
-1.60903e-05 4.84214e-06 4.82065e-06 -3.64789e-06
-1.56875e-05 4.72126e-06 4.69981e-06 -3.6479e-06
-1.91114e-05 5.74898e-06 5.72673e-06 -2.65304e-06
-1.81043e-05 5.44677e-06 5.42465e-06 -2.65307e-06
-1.08537e-05 3.2705e-06 3.24992e-06 -4.42168e-06
-1.14579e-05 3.45179e-06 3.43119e-06 -4.42168e-06
-1.86078e-05 5.59787e-06 5.57569e-06 -2.65305e-06
-1.4479e-05 4.35864e-06 4.33729e-06 -3.64792e-06
-1.11558e-05 3.36115e-06 3.34056e-06 -4.42168e-06
-1.52846e-05 4.60039e-06 4.57897e-06 -3.64791e-06
-1.48818e-05 4.47951e-06 4.45813e-06 -3.64791e-06
-1.81043e-05 5.44677e-06 5.42465e-06 -2.65307e-06
-1.70972e-05 5.14455e-06 5.12256e-06 -2.6531e-06
-1.02494e-05 3.0892e-06 3.06867e-06 -4.42167e-06
-1.08537e-05 3.2705e-06 3.24992e-06 -4.42168e-06
-1.76007e-05 5.29566e-06 5.2736e-06 -2.65309e-06
-1.36733e-05 4.11689e-06 4.09563e-06 -3.64794e-06
-1.05515e-05 3.17985e-06 3.1593e-06 -4.42168e-06
-1.4479e-05 4.35864e-06 4.33729e-06 -3.64792e-06
-1.40762e-05 4.23777e-06 4.21646e-06 -3.64793e-06
-1.70972e-05 5.14455e-06 5.12256e-06 -2.6531e-06
-1.60901e-05 4.84232e-06 4.8205e-06 -2.65312e-06
-9.64519e-06 2.90783e-06 2.88744e-06 -4.42165e-06
-1.02494e-05 3.0892e-06 3.06867e-06 -4.42167e-06
-1.65937e-05 4.99344e-06 4.97153e-06 -2.65312e-06
-1.28677e-05 3.87509e-06 3.85398e-06 -3.64792e-06
-9.94731e-06 2.99853e-06 2.97805e-06 -4.42167e-06
-1.36733e-05 4.11689e-06 4.09563e-06 -3.64794e-06
-1.32705e-05 3.996e-06 3.9748e-06 -3.64794e-06
-1.60901e-05 4.84232e-06 4.8205e-06 -2.65312e-06
-1.50831e-05 4.54003e-06 4.51846e-06 -2.65307e-06
-9.04088e-06 2.72631e-06 2.70624e-06 -4.42161e-06
-9.64519e-06 2.90783e-06 2.88744e-06 -4.42165e-06
-1.55866e-05 4.69119e-06 4.66947e-06 -2.65311e-06
-1.20621e-05 3.63319e-06 3.61238e-06 -3.64784e-06
-9.34306e-06 2.8171e-06 2.79684e-06 -4.42163e-06
-1.28677e-05 3.87509e-06 3.85398e-06 -3.64792e-06
-1.24649e-05 3.75416e-06 3.73317e-06 -3.6479e-06
-1.50831e-05 4.54003e-06 4.51846e-06 -2.65307e-06
-1.40761e-05 4.23762e-06 4.2165e-06 -2.65282e-06
-8.43634e-06 2.54441e-06 2.52511e-06 -4.4215e-06
-9.04088e-06 2.72631e-06 2.70624e-06 -4.42161e-06
-1.45796e-05 4.38885e-06 4.36747e-06 -2.65298e-06
-1.12563e-05 3.391e-06 3.37085e-06 -3.64755e-06
-8.73864e-06 2.63543e-06 2.61566e-06 -4.42156e-06
-1.20621e-05 3.63319e-06 3.61238e-06 -3.64784e-06
-1.16592e-05 3.51214e-06 3.4916e-06 -3.64773e-06
-1.40761e-05 4.23762e-06 4.2165e-06 -2.65282e-06
-1.30692e-05 3.93491e-06 3.91469e-06 -2.65206e-06
-7.83115e-06 2.36168e-06 2.34406e-06 -4.42128e-06
-8.43634e-06 2.54441e-06 2.52511e-06 -4.4215e-06
-1.35726e-05 4.08632e-06 4.06556e-06 -2.65254e-06
-1.04503e-05 3.14818e-06 3.12946e-06 -3.64682e-06
-8.13388e-06 2.4532e-06 2.43458e-06 -4.4214e-06
-1.12563e-05 3.391e-06 3.37085e-06 -3.64755e-06
-1.08533e-05 3.26971e-06 3.25013e-06 -3.64727e-06
-1.30692e-05 3.93491e-06 3.91469e-06 -2.65206e-06
-1.20622e-05 3.63159e-06 3.61313e-06 -2.65026e-06
-7.22465e-06 2.17724e-06 2.16318e-06 -4.42085e-06
-7.83115e-06 2.36168e-06 2.34406e-06 -4.42128e-06
-1.25657e-05 3.78336e-06 3.76388e-06 -2.65133e-06
-9.64339e-06 2.90401e-06 2.8883e-06 -3.64517e-06
-7.5281e-06 2.26975e-06 2.25358e-06 -4.42111e-06
-1.04503e-05 3.14818e-06 3.12946e-06 -3.64682e-06
-1.0047e-05 3.02632e-06 3.00885e-06 -3.64614e-06
-1.20622e-05 3.63159e-06 3.61313e-06 -2.65026e-06
-1.10554e-05 3.32701e-06 3.31216e-06 -2.6461e-06
-6.615e-06 1.98955e-06 1.98234e-06 -4.42017e-06
-7.22465e-06 2.17724e-06 2.16318e-06 -4.42085e-06
-1.15587e-05 3.4795e-06 3.46253e-06 -2.6486e-06
-8.83476e-06 2.65731e-06 2.64748e-06 -3.64172e-06
-6.92042e-06 2.08395e-06 2.07277e-06 -4.42054e-06
-9.64339e-06 2.90401e-06 2.8883e-06 -3.64517e-06
-9.23937e-06 2.78113e-06 2.76782e-06 -3.64379e-06
-1.10554e-05 3.32701e-06 3.31216e-06 -2.6461e-06
-1.00479e-05 3.02015e-06 3.01187e-06 -2.63781e-06
-5.99991e-06 1.79582e-06 1.80175e-06 -4.41893e-06
-6.615e-06 1.98955e-06 1.98234e-06 -4.42017e-06
-1.05519e-05 3.17401e-06 3.16194e-06 -2.64261e-06
-8.02234e-06 2.40562e-06 2.40716e-06 -3.63496e-06
-6.30822e-06 1.89363e-06 1.89197e-06 -4.41967e-06
-8.83476e-06 2.65731e-06 2.64748e-06 -3.64172e-06
-8.4292e-06 2.53222e-06 2.52728e-06 -3.63881e-06
-1.00479e-05 3.02015e-06 3.01187e-06 -2.63781e-06
-9.04017e-06 2.70896e-06 2.71338e-06 -2.62108e-06
-5.37313e-06 1.59206e-06 1.62046e-06 -4.41755e-06
-5.99991e-06 1.79582e-06 1.80175e-06 -4.41893e-06
-9.54381e-06 2.86515e-06 2.86228e-06 -2.63092e-06
-7.20278e-06 2.14577e-06 2.16729e-06 -3.6225e-06
-5.68868e-06 1.69561e-06 1.71131e-06 -4.41817e-06
-8.02234e-06 2.40562e-06 2.40716e-06 -3.63496e-06
-7.6137e-06 2.27717e-06 2.28708e-06 -3.62981e-06
-9.04017e-06 2.70896e-06 2.71338e-06 -2.62108e-06
-8.02811e-06 2.39105e-06 2.41589e-06 -2.59154e-06
-4.72868e-06 1.3718e-06 1.43866e-06 -4.41573e-06
-5.37313e-06 1.59206e-06 1.62046e-06 -4.41755e-06
-8.53544e-06 2.55135e-06 2.56461e-06 -2.6082e-06
-6.36899e-06 1.87111e-06 1.92766e-06 -3.60107e-06
-5.05317e-06 1.48425e-06 1.52954e-06 -4.4168e-06
-7.20278e-06 2.14577e-06 2.16729e-06 -3.6225e-06
-6.78831e-06 2.01041e-06 2.04767e-06 -3.61281e-06
-8.02811e-06 2.39105e-06 2.41589e-06 -2.59154e-06
-7.01304e-06 2.06052e-06 2.12251e-06 -2.53803e-06
-4.04992e-06 1.12959e-06 1.25157e-06 -4.41726e-06
-4.72868e-06 1.3718e-06 1.43866e-06 -4.41573e-06
-7.52003e-06 2.22704e-06 2.26842e-06 -2.56888e-06
-5.51195e-06 1.57671e-06 1.68653e-06 -3.56694e-06
-4.39562e-06 1.25417e-06 1.34633e-06 -4.41553e-06
-6.36899e-06 1.87111e-06 1.92766e-06 -3.60107e-06
-5.94386e-06 1.72752e-06 1.80701e-06 -3.58659e-06
-7.01304e-06 2.06052e-06 2.12251e-06 -2.53803e-06
-5.97595e-06 1.7159e-06 1.82573e-06 -2.45626e-06
-3.32967e-06 8.5957e-07 1.05861e-06 -4.42451e-06
-4.04992e-06 1.12959e-06 1.25157e-06 -4.41726e-06
-6.50055e-06 1.89185e-06 1.97516e-06 -2.50071e-06
-4.61071e-06 1.25047e-06 1.4401e-06 -3.51998e-06
-3.69385e-06 9.97017e-07 1.15579e-06 -4.42019e-06
-5.51195e-06 1.57671e-06 1.68653e-06 -3.56694e-06
-5.06898e-06 1.41654e-06 1.56533e-06 -3.54333e-06
-5.97595e-06 1.7159e-06 1.82573e-06 -2.45626e-06
-4.91812e-06 1.34286e-06 1.53225e-06 -2.32941e-06
-2.54168e-06 5.80554e-07 8.40481e-07 -4.45812e-06
-3.32967e-06 8.5957e-07 1.05861e-06 -4.42451e-06
-5.44616e-06 1.5295e-06 1.67857e-06 -2.39995e-06
-3.65151e-06 9.04164e-07 1.17744e-06 -3.46889e-06
-2.94855e-06 7.20647e-07 9.54814e-07 -4.43553e-06
-4.61071e-06 1.25047e-06 1.4401e-06 -3.51998e-06
-4.13795e-06 1.08138e-06 1.30996e-06 -3.49688e-06
-4.91812e-06 1.34286e-06 1.53225e-06 -2.32941e-06
-3.7649e-06 9.71507e-07 1.19717e-06 -2.19287e-06
-1.72486e-06 3.38422e-07 5.94187e-07 -4.53226e-06
-2.54168e-06 5.80554e-07 8.40481e-07 -4.45812e-06
-4.36624e-06 1.16309e-06 1.37278e-06 -2.25848e-06
-2.58962e-06 5.50923e-07 8.73729e-07 -3.45824e-06
-2.1276e-06 4.44257e-07 7.21433e-07 -4.48954e-06
-3.65151e-06 9.04164e-07 1.17744e-06 -3.46889e-06
-3.1394e-06 7.18469e-07 1.03754e-06 -3.44755e-06
-3.7649e-06 9.71507e-07 1.19717e-06 -2.19287e-06
-2.52378e-06 6.03352e-07 8.23039e-07 -2.10497e-06
-9.32176e-07 3.32645e-07 2.56942e-07 -4.69544e-06
-1.72486e-06 3.38422e-07 5.94187e-07 -4.53226e-06
-3.14159e-06 7.61869e-07 1.01988e-06 -2.13405e-06
-1.48701e-06 3.81335e-07 4.73859e-07 -3.58438e-06
-1.32815e-06 2.9341e-07 4.4346e-07 -4.59835e-06
-2.58962e-06 5.50923e-07 8.73729e-07 -3.45824e-06
-2.02966e-06 4.32096e-07 6.84672e-07 -3.50661e-06
-2.52378e-06 6.03352e-07 8.23039e-07 -2.10497e-06
-1.08226e-06 6.35519e-07 1.91462e-07 -2.45975e-06
-5.12791e-07 9.17578e-07 -1.7348e-07 -4.8188e-06
-9.32176e-07 3.32645e-07 2.56942e-07 -4.69544e-06
-1.85586e-06 5.64453e-07 5.53462e-07 -2.18893e-06
-4.81397e-07 8.18029e-07 -1.44271e-07 -4.03471e-06
-6.29526e-07 4.98687e-07 5.60735e-08 -4.78038e-06
-1.48701e-06 3.81335e-07 4.73859e-07 -3.58438e-06
-9.68601e-07 4.48663e-07 2.22831e-07 -3.73217e-06
-1.08226e-06 6.35519e-07 1.91462e-07 -2.45975e-06
-4.07586e-07 2.29706e-06 -8.09777e-07 -3.76206e-06
-7.22227e-07 2.75376e-06 -8.70657e-07 -4.42575e-06
-5.12791e-07 9.17578e-07 -1.7348e-07 -4.8188e-06
-5.00371e-07 9.50644e-07 -1.92974e-07 -2.92479e-06
-7.7773e-07 3.13293e-06 -1.00937e-06 -4.39106e-06
-5.53261e-07 1.69276e-06 -4.88355e-07 -4.7486e-06
-4.81397e-07 8.18029e-07 -1.44271e-07 -4.03471e-06
-3.19679e-07 1.68191e-06 -5.83812e-07 -4.34343e-06
-4.07586e-07 2.29706e-06 -8.09777e-07 -3.76206e-06
-3.12192e-06 1.0107e-05 -2.99361e-06 -3.80625e-06
-1.34664e-06 4.97863e-06 -1.55657e-06 -2.3408e-06
-7.22227e-07 2.75376e-06 -8.70657e-07 -4.42575e-06
-1.16205e-06 5.40295e-06 -1.81753e-06 -4.43406e-06
-2.48284e-06 7.30302e-06 -2.06579e-06 -2.21652e-06
-9.94937e-07 3.94929e-06 -1.26615e-06 -3.65773e-06
-7.7773e-07 3.13293e-06 -1.00937e-06 -4.39106e-06
-1.58798e-06 5.14327e-06 -1.5237e-06 -3.80255e-06
-9.74358e-05 0 4.17582e-05 1.2774e-05
-0.000110203 1.45727e-05 4.09842e-05 -4.41195e-07
-3.56349e-05 4.86247e-06 1.31882e-05 6.63772e-06
-3.50178e-05 -1.11022e-16 1.50076e-05 2.00324e-05
-0.000105595 8.19471e-06 4.17431e-05 4.79205e-06
-7.29003e-05 9.72548e-06 2.70749e-05 3.90827e-06
-3.41891e-05 2.06284e-06 1.37684e-05 1.2635e-05
-6.47845e-05 0 2.77648e-05 1.82957e-05
-6.98661e-05 4.63006e-06 2.79583e-05 9.05811e-06
-0.000110203 1.45727e-05 4.09842e-05 -4.41195e-07
-0.000115839 2.66519e-05 3.82229e-05 -4.55243e-06
-3.84205e-05 8.00819e-06 1.30339e-05 -1.3835e-06
-3.56349e-05 4.86247e-06 1.31882e-05 6.63772e-06
-0.000113027 2.09958e-05 3.94421e-05 -3.09078e-06
-7.66527e-05 1.66799e-05 2.57026e-05 -2.51703e-06
-3.76229e-05 6.74466e-06 1.32335e-05 1.92114e-06
-7.29003e-05 9.72548e-06 2.70749e-05 3.90827e-06
-7.48437e-05 1.36852e-05 2.62108e-05 4.28525e-07
-0.000115839 2.66519e-05 3.82229e-05 -4.55243e-06
-0.000118699 3.27504e-05 3.68351e-05 -5.34431e-06
-3.92467e-05 1.03463e-05 1.23859e-05 -5.01778e-06
-3.84205e-05 8.00819e-06 1.30339e-05 -1.3835e-06
-0.000117956 3.04365e-05 3.75084e-05 -5.27147e-06
-7.88523e-05 2.11292e-05 2.47385e-05 -5.28315e-06
-3.87284e-05 9.25495e-06 1.26315e-05 -3.57452e-06
-7.66527e-05 1.66799e-05 2.57026e-05 -2.51703e-06
-7.80734e-05 1.91856e-05 2.52377e-05 -4.42799e-06
-0.000118699 3.27504e-05 3.68351e-05 -5.34431e-06
-0.000118595 3.5147e-05 3.57636e-05 -4.94204e-06
-3.96815e-05 1.1452e-05 1.20984e-05 -6.31318e-06
-3.92467e-05 1.03463e-05 1.23859e-05 -5.01778e-06
-0.000118701 3.42548e-05 3.61912e-05 -5.11921e-06
-7.92247e-05 2.31119e-05 2.40483e-05 -5.89368e-06
-3.96672e-05 1.10439e-05 1.22671e-05 -5.88584e-06
-7.88523e-05 2.11292e-05 2.47385e-05 -5.28315e-06
-7.91743e-05 2.23782e-05 2.43412e-05 -5.6666e-06
-0.000118595 3.5147e-05 3.57636e-05 -4.94204e-06
-0.000117766 3.56049e-05 3.52119e-05 -4.66862e-06
-3.94226e-05 1.18814e-05 1.18034e-05 -6.45017e-06
-3.96815e-05 1.1452e-05 1.20984e-05 -6.31318e-06
-0.000118308 3.55314e-05 3.54758e-05 -4.80642e-06
-7.87621e-05 2.37643e-05 2.35705e-05 -5.79968e-06
-3.95224e-05 1.17255e-05 1.19129e-05 -6.45375e-06
-7.92247e-05 2.31119e-05 2.40483e-05 -5.89368e-06
-7.90663e-05 2.35506e-05 2.37924e-05 -5.91889e-06
-0.000117766 3.56049e-05 3.52119e-05 -4.66862e-06
-0.000116595 3.5425e-05 3.47871e-05 -4.48553e-06
-3.9096e-05 1.18781e-05 1.16649e-05 -6.22011e-06
-3.94226e-05 1.18814e-05 1.18034e-05 -6.45017e-06
-0.000117138 3.55531e-05 3.4965e-05 -4.54855e-06
-7.79911e-05 2.3716e-05 2.32608e-05 -5.55664e-06
-3.93058e-05 1.19153e-05 1.17388e-05 -6.35858e-06
-7.87621e-05 2.37643e-05 2.35705e-05 -5.79968e-06
-7.83809e-05 2.37942e-05 2.33943e-05 -5.6617e-06
-0.000116595 3.5425e-05 3.47871e-05 -4.48553e-06
-0.000115574 3.50308e-05 3.45187e-05 -4.4294e-06
-3.86769e-05 1.17569e-05 1.15371e-05 -5.9233e-06
-3.9096e-05 1.18781e-05 1.16649e-05 -6.22011e-06
-0.000116089 3.52392e-05 3.465e-05 -4.45479e-06
-7.72328e-05 2.34665e-05 2.30427e-05 -5.3402e-06
-3.88631e-05 1.18227e-05 1.15888e-05 -6.06553e-06
-7.79911e-05 2.3716e-05 2.32608e-05 -5.55664e-06
-7.76046e-05 2.36006e-05 2.31446e-05 -5.44931e-06
-0.000115574 3.50308e-05 3.45187e-05 -4.4294e-06
-0.000114645 3.46453e-05 3.42857e-05 -4.40514e-06
-3.83355e-05 1.16008e-05 1.14577e-05 -5.68781e-06
-3.86769e-05 1.17569e-05 1.15371e-05 -5.9233e-06
-0.000115083 3.48316e-05 3.43933e-05 -4.41083e-06
-7.65583e-05 2.31752e-05 2.28785e-05 -5.18831e-06
-3.85101e-05 1.16798e-05 1.14987e-05 -5.79677e-06
-7.72328e-05 2.34665e-05 2.30427e-05 -5.3402e-06
-7.6882e-05 2.33204e-05 2.2955e-05 -5.25181e-06
-0.000114645 3.46453e-05 3.42857e-05 -4.40514e-06
-0.000113853 3.43069e-05 3.40912e-05 -4.40614e-06
-3.8023e-05 1.14653e-05 1.13819e-05 -5.52495e-06
-3.83355e-05 1.16008e-05 1.14577e-05 -5.68781e-06
-0.000114242 3.44697e-05 3.41883e-05 -4.40588e-06
-7.59786e-05 2.29214e-05 2.27388e-05 -5.09184e-06
-3.81681e-05 1.15295e-05 1.14165e-05 -5.59682e-06
-7.65583e-05 2.31752e-05 2.28785e-05 -5.18831e-06
-7.62583e-05 2.30422e-05 2.28069e-05 -5.13605e-06
-0.000113853 3.43069e-05 3.40912e-05 -4.40614e-06
-0.000113131 3.40241e-05 3.3903e-05 -4.40896e-06
-3.77612e-05 1.13516e-05 1.13184e-05 -5.42497e-06
-3.8023e-05 1.14653e-05 1.13819e-05 -5.52495e-06
-0.000113481 3.41592e-05 3.39952e-05 -4.40669e-06
-7.54686e-05 2.27084e-05 2.26115e-05 -5.03578e-06
-3.78907e-05 1.14059e-05 1.13506e-05 -5.46865e-06
-7.59786e-05 2.29214e-05 2.27388e-05 -5.09184e-06
-7.57163e-05 2.28101e-05 2.26741e-05 -5.05883e-06
-0.000113131 3.40241e-05 3.3903e-05 -4.40896e-06
-0.000112466 3.37811e-05 3.37221e-05 -4.41375e-06
-3.75212e-05 1.12587e-05 1.12553e-05 -5.36689e-06
-3.77612e-05 1.13516e-05 1.13184e-05 -5.42497e-06
-0.000112795 3.38985e-05 3.38128e-05 -4.41177e-06
-7.50055e-05 2.25314e-05 2.24889e-05 -5.00456e-06
-3.76372e-05 1.13029e-05 1.12861e-05 -5.3916e-06
-7.54686e-05 2.27084e-05 2.26115e-05 -5.03578e-06
-7.52326e-05 2.26161e-05 2.255e-05 -5.01823e-06
-0.000112466 3.37811e-05 3.37221e-05 -4.41375e-06
-0.000111828 3.35653e-05 3.35412e-05 -4.41677e-06
-3.73007e-05 1.11794e-05 1.11948e-05 -5.33548e-06
-3.75212e-05 1.12587e-05 1.12553e-05 -5.36689e-06
-0.000112144 3.36705e-05 3.36313e-05 -4.41528e-06
-7.45705e-05 2.23781e-05 2.23681e-05 -4.98837e-06
-3.741e-05 1.12177e-05 1.12253e-05 -5.34874e-06
-7.50055e-05 2.25314e-05 2.24889e-05 -5.00456e-06
-7.47854e-05 2.24525e-05 2.24284e-05 -4.99489e-06
-0.000111828 3.35653e-05 3.35412e-05 -4.41677e-06
-0.000111208 3.33656e-05 3.33611e-05 -4.41898e-06
-3.70885e-05 1.11089e-05 1.11341e-05 -5.31925e-06
-3.73007e-05 1.11794e-05 1.11948e-05 -5.33548e-06
-0.000111517 3.34639e-05 3.34513e-05 -4.41807e-06
-7.41514e-05 2.224e-05 2.22477e-05 -4.98027e-06
-3.71934e-05 1.11433e-05 1.11643e-05 -5.32595e-06
-7.45705e-05 2.23781e-05 2.23681e-05 -4.98837e-06
-7.43595e-05 2.23076e-05 2.2308e-05 -4.9837e-06
-0.000111208 3.33656e-05 3.33611e-05 -4.41898e-06
-0.000110596 3.31752e-05 3.31804e-05 -4.42018e-06
-3.68822e-05 1.10434e-05 1.10738e-05 -5.31141e-06
-3.70885e-05 1.11089e-05 1.11341e-05 -5.31925e-06
-0.000110901 3.32695e-05 3.32707e-05 -4.41964e-06
-7.37407e-05 2.21103e-05 2.21273e-05 -4.97654e-06
-3.69851e-05 1.10757e-05 1.1104e-05 -5.31461e-06
-7.41514e-05 2.224e-05 2.22477e-05 -4.98027e-06
-7.39453e-05 2.21743e-05 2.21876e-05 -4.97799e-06
-0.000110596 3.31752e-05 3.31804e-05 -4.42018e-06
-0.000109989 3.29896e-05 3.29996e-05 -4.42088e-06
-3.66782e-05 1.09807e-05 1.10132e-05 -5.30785e-06
-3.68822e-05 1.10434e-05 1.10738e-05 -5.31141e-06
-0.000110292 3.3082e-05 3.30901e-05 -4.42059e-06
-7.33343e-05 2.19853e-05 2.20067e-05 -4.97491e-06
-3.67799e-05 1.10118e-05 1.10435e-05 -5.30926e-06
-7.37407e-05 2.21103e-05 2.21273e-05 -4.97654e-06
-7.35371e-05 2.20474e-05 2.2067e-05 -4.97557e-06
-0.000109989 3.29896e-05 3.29996e-05 -4.42088e-06
-0.000109383 3.28066e-05 3.28184e-05 -4.42121e-06
-3.64757e-05 1.09194e-05 1.09527e-05 -5.30639e-06
-3.66782e-05 1.09807e-05 1.10132e-05 -5.30785e-06
-0.000109686 3.28979e-05 3.2909e-05 -4.42107e-06
-7.29299e-05 2.18627e-05 2.18859e-05 -4.97431e-06
-3.65769e-05 1.09499e-05 1.0983e-05 -5.30695e-06
-7.33343e-05 2.19853e-05 2.20067e-05 -4.97491e-06
-7.31319e-05 2.19238e-05 2.19463e-05 -4.97452e-06
-0.000109383 3.28066e-05 3.28184e-05 -4.42121e-06
-0.000108778 3.26247e-05 3.26372e-05 -4.42137e-06
-3.62736e-05 1.08587e-05 1.08921e-05 -5.30588e-06
-3.64757e-05 1.09194e-05 1.09527e-05 -5.30639e-06
-0.00010908 3.27155e-05 3.27278e-05 -4.42131e-06
-7.25263e-05 2.17413e-05 2.1765e-05 -4.97412e-06
-3.63746e-05 1.0889e-05 1.09224e-05 -5.30606e-06
-7.29299e-05 2.18627e-05 2.18859e-05 -4.97431e-06
-7.2728e-05 2.18019e-05 2.18255e-05 -4.97419e-06
-0.000108778 3.26247e-05 3.26372e-05 -4.42137e-06
-0.000108174 3.24433e-05 3.24558e-05 -4.42144e-06
-3.60718e-05 1.07984e-05 1.08315e-05 -5.30577e-06
-3.62736e-05 1.08587e-05 1.08921e-05 -5.30588e-06
-0.000108476 3.2534e-05 3.25465e-05 -4.42141e-06
-7.21231e-05 2.16204e-05 2.1644e-05 -4.9741e-06
-3.61727e-05 1.08285e-05 1.08618e-05 -5.3058e-06
-7.25263e-05 2.17413e-05 2.1765e-05 -4.97412e-06
-7.23247e-05 2.16808e-05 2.17045e-05 -4.9741e-06
-0.000108174 3.24433e-05 3.24558e-05 -4.42144e-06
-0.000107569 3.22622e-05 3.22744e-05 -4.42146e-06
-3.58701e-05 1.07382e-05 1.07708e-05 -5.30579e-06
-3.60718e-05 1.07984e-05 1.08315e-05 -5.30577e-06
-0.000107871 3.23527e-05 3.23651e-05 -4.42145e-06
-7.172e-05 2.14997e-05 2.1523e-05 -4.97414e-06
-3.59709e-05 1.07683e-05 1.08011e-05 -5.30577e-06
-7.21231e-05 2.16204e-05 2.1644e-05 -4.9741e-06
-7.19215e-05 2.156e-05 2.15835e-05 -4.97412e-06
-0.000107569 3.22622e-05 3.22744e-05 -4.42146e-06
-0.000106965 3.2081e-05 3.20929e-05 -4.42147e-06
-3.56683e-05 1.0678e-05 1.07101e-05 -5.30585e-06
-3.58701e-05 1.07382e-05 1.07708e-05 -5.30579e-06
-0.000107267 3.21716e-05 3.21837e-05 -4.42146e-06
-7.13169e-05 2.13791e-05 2.14019e-05 -4.97418e-06
-3.57692e-05 1.07081e-05 1.07405e-05 -5.30582e-06
-7.172e-05 2.14997e-05 2.1523e-05 -4.97414e-06
-7.15184e-05 2.14394e-05 2.14624e-05 -4.97416e-06
-0.000106965 3.2081e-05 3.20929e-05 -4.42147e-06
-0.00010636 3.19e-05 3.19115e-05 -4.42146e-06
-3.54666e-05 1.06178e-05 1.06495e-05 -5.3059e-06
-3.56683e-05 1.0678e-05 1.07101e-05 -5.30585e-06
-0.000106662 3.19905e-05 3.20022e-05 -4.42146e-06
-7.09137e-05 2.12584e-05 2.12808e-05 -4.97421e-06
-3.55674e-05 1.06479e-05 1.06798e-05 -5.30588e-06
-7.13169e-05 2.13791e-05 2.14019e-05 -4.97418e-06
-7.11153e-05 2.13188e-05 2.13414e-05 -4.97419e-06
-0.00010636 3.19e-05 3.19115e-05 -4.42146e-06
-0.000105756 3.17188e-05 3.173e-05 -4.42146e-06
-3.52648e-05 1.05576e-05 1.05888e-05 -5.30594e-06
-3.54666e-05 1.06178e-05 1.06495e-05 -5.3059e-06
-0.000106058 3.18094e-05 3.18207e-05 -4.42146e-06
-7.05106e-05 2.11378e-05 2.11598e-05 -4.97423e-06
-3.53657e-05 1.05877e-05 1.06191e-05 -5.30592e-06
-7.09137e-05 2.12584e-05 2.12808e-05 -4.97421e-06
-7.07121e-05 2.11981e-05 2.12203e-05 -4.97422e-06
-0.000105756 3.17188e-05 3.173e-05 -4.42146e-06
-0.000105151 3.15377e-05 3.15485e-05 -4.42146e-06
-3.5063e-05 1.04975e-05 1.05281e-05 -5.30597e-06
-3.52648e-05 1.05576e-05 1.05888e-05 -5.30594e-06
-0.000105453 3.16283e-05 3.16393e-05 -4.42146e-06
-7.01074e-05 2.10172e-05 2.10387e-05 -4.97424e-06
-3.51639e-05 1.05276e-05 1.05584e-05 -5.30595e-06
-7.05106e-05 2.11378e-05 2.11598e-05 -4.97423e-06
-7.0309e-05 2.10775e-05 2.10992e-05 -4.97423e-06
-0.000105151 3.15377e-05 3.15485e-05 -4.42146e-06
-0.000104546 3.13566e-05 3.1367e-05 -4.42146e-06
-3.48612e-05 1.04373e-05 1.04674e-05 -5.30598e-06
-3.5063e-05 1.04975e-05 1.05281e-05 -5.30597e-06
-0.000104849 3.14472e-05 3.14578e-05 -4.42146e-06
-6.97042e-05 2.08965e-05 2.09176e-05 -4.97425e-06
-3.49621e-05 1.04674e-05 1.04977e-05 -5.30597e-06
-7.01074e-05 2.10172e-05 2.10387e-05 -4.97424e-06
-6.99058e-05 2.09568e-05 2.09781e-05 -4.97424e-06
-0.000104546 3.13566e-05 3.1367e-05 -4.42146e-06
-0.000103942 3.11755e-05 3.11856e-05 -4.42146e-06
-3.46594e-05 1.03771e-05 1.04067e-05 -5.30599e-06
-3.48612e-05 1.04373e-05 1.04674e-05 -5.30598e-06
-0.000104244 3.1266e-05 3.12763e-05 -4.42146e-06
-6.9301e-05 2.07758e-05 2.07965e-05 -4.97425e-06
-3.47603e-05 1.04072e-05 1.04371e-05 -5.30598e-06
-6.97042e-05 2.08965e-05 2.09176e-05 -4.97425e-06
-6.95026e-05 2.08362e-05 2.0857e-05 -4.97425e-06
-0.000103942 3.11755e-05 3.11856e-05 -4.42146e-06
-0.000103337 3.09943e-05 3.10041e-05 -4.42146e-06
-3.44576e-05 1.03169e-05 1.0346e-05 -5.30599e-06
-3.46594e-05 1.03771e-05 1.04067e-05 -5.30599e-06
-0.000103639 3.10849e-05 3.10948e-05 -4.42146e-06
-6.88978e-05 2.06552e-05 2.06754e-05 -4.97426e-06
-3.45585e-05 1.0347e-05 1.03764e-05 -5.30599e-06
-6.9301e-05 2.07758e-05 2.07965e-05 -4.97425e-06
-6.90994e-05 2.07155e-05 2.0736e-05 -4.97425e-06
-0.000103337 3.09943e-05 3.10041e-05 -4.42146e-06
-0.000102733 3.08132e-05 3.08226e-05 -4.42146e-06
-3.42558e-05 1.02566e-05 1.02853e-05 -5.306e-06
-3.44576e-05 1.03169e-05 1.0346e-05 -5.30599e-06
-0.000103035 3.09037e-05 3.09134e-05 -4.42146e-06
-6.84946e-05 2.05345e-05 2.05543e-05 -4.97426e-06
-3.43567e-05 1.02868e-05 1.03157e-05 -5.30599e-06
-6.88978e-05 2.06552e-05 2.06754e-05 -4.97426e-06
-6.86962e-05 2.05948e-05 2.06149e-05 -4.97426e-06
-0.000102733 3.08132e-05 3.08226e-05 -4.42146e-06
-0.000102128 3.0632e-05 3.06411e-05 -4.42146e-06
-3.4054e-05 1.01964e-05 1.02247e-05 -5.306e-06
-3.42558e-05 1.02566e-05 1.02853e-05 -5.306e-06
-0.00010243 3.07226e-05 3.07319e-05 -4.42146e-06
-6.80914e-05 2.04138e-05 2.04332e-05 -4.97426e-06
-3.41549e-05 1.02265e-05 1.0255e-05 -5.306e-06
-6.84946e-05 2.05345e-05 2.05543e-05 -4.97426e-06
-6.8293e-05 2.04742e-05 2.04938e-05 -4.97426e-06
-0.000102128 3.0632e-05 3.06411e-05 -4.42146e-06
-0.000101523 3.04509e-05 3.04597e-05 -4.42147e-06
-3.38522e-05 1.01362e-05 1.0164e-05 -5.306e-06
-3.4054e-05 1.01964e-05 1.02247e-05 -5.306e-06
-0.000101826 3.05414e-05 3.05504e-05 -4.42146e-06
-6.76882e-05 2.02932e-05 2.03122e-05 -4.97426e-06
-3.39531e-05 1.01663e-05 1.01943e-05 -5.306e-06
-6.80914e-05 2.04138e-05 2.04332e-05 -4.97426e-06
-6.78898e-05 2.03535e-05 2.03727e-05 -4.97426e-06
-0.000101523 3.04509e-05 3.04597e-05 -4.42147e-06
-0.000100919 3.02697e-05 3.02782e-05 -4.42147e-06
-3.36504e-05 1.0076e-05 1.01033e-05 -5.306e-06
-3.38522e-05 1.01362e-05 1.0164e-05 -5.306e-06
-0.000101221 3.03603e-05 3.03689e-05 -4.42147e-06
-6.7285e-05 2.01725e-05 2.01911e-05 -4.97426e-06
-3.37513e-05 1.01061e-05 1.01336e-05 -5.306e-06
-6.76882e-05 2.02932e-05 2.03122e-05 -4.97426e-06
-6.74866e-05 2.02328e-05 2.02516e-05 -4.97426e-06
-0.000100919 3.02697e-05 3.02782e-05 -4.42147e-06
-0.000100314 3.00886e-05 3.00967e-05 -4.42147e-06
-3.34486e-05 1.00158e-05 1.00426e-05 -5.306e-06
-3.36504e-05 1.0076e-05 1.01033e-05 -5.306e-06
-0.000100617 3.01792e-05 3.01874e-05 -4.42147e-06
-6.68818e-05 2.00518e-05 2.007e-05 -4.97426e-06
-3.35495e-05 1.00459e-05 1.0073e-05 -5.306e-06
-6.7285e-05 2.01725e-05 2.01911e-05 -4.97426e-06
-6.70834e-05 2.01121e-05 2.01305e-05 -4.97426e-06
-0.000100314 3.00886e-05 3.00967e-05 -4.42147e-06
-9.97096e-05 2.99074e-05 2.99152e-05 -4.42147e-06
-3.32468e-05 9.95561e-06 9.98193e-06 -5.306e-06
-3.34486e-05 1.00158e-05 1.00426e-05 -5.306e-06
-0.000100012 2.9998e-05 3.0006e-05 -4.42147e-06
-6.64786e-05 1.99311e-05 1.99489e-05 -4.97426e-06
-3.33477e-05 9.98572e-06 1.00123e-05 -5.306e-06
-6.68818e-05 2.00518e-05 2.007e-05 -4.97426e-06
-6.66802e-05 1.99915e-05 2.00095e-05 -4.97426e-06
-9.97096e-05 2.99074e-05 2.99152e-05 -4.42147e-06
-9.9105e-05 2.97263e-05 2.97338e-05 -4.42147e-06
-3.3045e-05 9.8954e-06 9.92125e-06 -5.306e-06
-3.32468e-05 9.95561e-06 9.98193e-06 -5.306e-06
-9.94073e-05 2.98169e-05 2.98245e-05 -4.42147e-06
-6.60754e-05 1.98105e-05 1.98278e-05 -4.97427e-06
-3.31459e-05 9.92551e-06 9.95159e-06 -5.306e-06
-6.64786e-05 1.99311e-05 1.99489e-05 -4.97426e-06
-6.6277e-05 1.98708e-05 1.98884e-05 -4.97427e-06
-9.9105e-05 2.97263e-05 2.97338e-05 -4.42147e-06
-9.85005e-05 2.95451e-05 2.95523e-05 -4.42147e-06
-3.28432e-05 9.8352e-06 9.86056e-06 -5.306e-06
-3.3045e-05 9.8954e-06 9.92125e-06 -5.306e-06
-9.88028e-05 2.96357e-05 2.9643e-05 -4.42147e-06
-6.56722e-05 1.96898e-05 1.97067e-05 -4.97427e-06
-3.29441e-05 9.8653e-06 9.8909e-06 -5.306e-06
-6.60754e-05 1.98105e-05 1.98278e-05 -4.97427e-06
-6.58738e-05 1.97501e-05 1.97673e-05 -4.97427e-06
-9.85005e-05 2.95451e-05 2.95523e-05 -4.42147e-06
-9.78959e-05 2.9364e-05 2.93708e-05 -4.42148e-06
-3.26414e-05 9.77499e-06 9.79988e-06 -5.306e-06
-3.28432e-05 9.8352e-06 9.86056e-06 -5.306e-06
-9.81982e-05 2.94546e-05 2.94615e-05 -4.42147e-06
-6.5269e-05 1.95691e-05 1.95857e-05 -4.97427e-06
-3.27423e-05 9.80509e-06 9.83022e-06 -5.306e-06
-6.56722e-05 1.96898e-05 1.97067e-05 -4.97427e-06
-6.54706e-05 1.96295e-05 1.96462e-05 -4.97427e-06
-9.78959e-05 2.9364e-05 2.93708e-05 -4.42148e-06
-9.72913e-05 2.91829e-05 2.91893e-05 -4.42148e-06
-3.24396e-05 9.71478e-06 9.7392e-06 -5.306e-06
-3.26414e-05 9.77499e-06 9.79988e-06 -5.306e-06
-9.75936e-05 2.92734e-05 2.92801e-05 -4.42148e-06
-6.48658e-05 1.94485e-05 1.94646e-05 -4.97427e-06
-3.25405e-05 9.74489e-06 9.76954e-06 -5.306e-06
-6.5269e-05 1.95691e-05 1.95857e-05 -4.97427e-06
-6.50674e-05 1.95088e-05 1.95251e-05 -4.97427e-06
-9.72913e-05 2.91829e-05 2.91893e-05 -4.42148e-06
-9.66867e-05 2.90017e-05 2.90079e-05 -4.42148e-06
-3.22378e-05 9.65458e-06 9.67852e-06 -5.306e-06
-3.24396e-05 9.71478e-06 9.7392e-06 -5.306e-06
-9.6989e-05 2.90923e-05 2.90986e-05 -4.42148e-06
-6.44626e-05 1.93278e-05 1.93435e-05 -4.97427e-06
-3.23387e-05 9.68468e-06 9.70886e-06 -5.306e-06
-6.48658e-05 1.94485e-05 1.94646e-05 -4.97427e-06
-6.46642e-05 1.93881e-05 1.9404e-05 -4.97427e-06
-9.66867e-05 2.90017e-05 2.90079e-05 -4.42148e-06
-9.60821e-05 2.88206e-05 2.88264e-05 -4.42148e-06
-3.2036e-05 9.59437e-06 9.61784e-06 -5.306e-06
-3.22378e-05 9.65458e-06 9.67852e-06 -5.306e-06
-9.63844e-05 2.89111e-05 2.89171e-05 -4.42148e-06
-6.40594e-05 1.92071e-05 1.92224e-05 -4.97427e-06
-3.21369e-05 9.62447e-06 9.64818e-06 -5.306e-06
-6.44626e-05 1.93278e-05 1.93435e-05 -4.97427e-06
-6.4261e-05 1.92674e-05 1.9283e-05 -4.97427e-06
-9.60821e-05 2.88206e-05 2.88264e-05 -4.42148e-06
-9.54775e-05 2.86394e-05 2.86449e-05 -4.42148e-06
-3.18342e-05 9.53416e-06 9.55716e-06 -5.306e-06
-3.2036e-05 9.59437e-06 9.61784e-06 -5.306e-06
-9.57798e-05 2.873e-05 2.87356e-05 -4.42148e-06
-6.36562e-05 1.90864e-05 1.91013e-05 -4.97427e-06
-3.19351e-05 9.56427e-06 9.5875e-06 -5.306e-06
-6.40594e-05 1.92071e-05 1.92224e-05 -4.97427e-06
-6.38578e-05 1.91468e-05 1.91619e-05 -4.97427e-06
-9.54775e-05 2.86394e-05 2.86449e-05 -4.42148e-06
-9.48729e-05 2.84583e-05 2.84634e-05 -4.42148e-06
-3.16324e-05 9.47395e-06 9.49648e-06 -5.306e-06
-3.18342e-05 9.53416e-06 9.55716e-06 -5.306e-06
-9.51752e-05 2.85488e-05 2.85542e-05 -4.42148e-06
-6.3253e-05 1.89658e-05 1.89803e-05 -4.97427e-06
-3.17333e-05 9.50406e-06 9.52682e-06 -5.306e-06
-6.36562e-05 1.90864e-05 1.91013e-05 -4.97427e-06
-6.34546e-05 1.90261e-05 1.90408e-05 -4.97427e-06
-9.48729e-05 2.84583e-05 2.84634e-05 -4.42148e-06
-9.42684e-05 2.82771e-05 2.8282e-05 -4.42148e-06
-3.14306e-05 9.41375e-06 9.4358e-06 -5.306e-06
-3.16324e-05 9.47395e-06 9.49648e-06 -5.306e-06
-9.45707e-05 2.83677e-05 2.83727e-05 -4.42148e-06
-6.28498e-05 1.88451e-05 1.88592e-05 -4.97427e-06
-3.15315e-05 9.44385e-06 9.46614e-06 -5.306e-06
-6.3253e-05 1.89658e-05 1.89803e-05 -4.97427e-06
-6.30514e-05 1.89054e-05 1.89197e-05 -4.97427e-06
-9.42684e-05 2.82771e-05 2.8282e-05 -4.42148e-06
-9.36638e-05 2.8096e-05 2.81005e-05 -4.42149e-06
-3.12288e-05 9.35354e-06 9.37513e-06 -5.306e-06
-3.14306e-05 9.41375e-06 9.4358e-06 -5.306e-06
-9.39661e-05 2.81866e-05 2.81912e-05 -4.42149e-06
-6.24466e-05 1.87244e-05 1.87381e-05 -4.97428e-06
-3.13297e-05 9.38364e-06 9.40546e-06 -5.306e-06
-6.28498e-05 1.88451e-05 1.88592e-05 -4.97427e-06
-6.26482e-05 1.87848e-05 1.87986e-05 -4.97428e-06
-9.36638e-05 2.8096e-05 2.81005e-05 -4.42149e-06
-9.30592e-05 2.79148e-05 2.7919e-05 -4.42149e-06
-3.1027e-05 9.29333e-06 9.31445e-06 -5.306e-06
-3.12288e-05 9.35354e-06 9.37513e-06 -5.306e-06
-9.33615e-05 2.80054e-05 2.80097e-05 -4.42149e-06
-6.20435e-05 1.86037e-05 1.8617e-05 -4.97428e-06
-3.11279e-05 9.32343e-06 9.34479e-06 -5.306e-06
-6.24466e-05 1.87244e-05 1.87381e-05 -4.97428e-06
-6.22451e-05 1.86641e-05 1.86776e-05 -4.97428e-06
-9.30592e-05 2.79148e-05 2.7919e-05 -4.42149e-06
-9.24546e-05 2.77337e-05 2.77375e-05 -4.42149e-06
-3.08253e-05 9.23312e-06 9.25377e-06 -5.30601e-06
-3.1027e-05 9.29333e-06 9.31445e-06 -5.306e-06
-9.27569e-05 2.78243e-05 2.78283e-05 -4.42149e-06
-6.16403e-05 1.84831e-05 1.84959e-05 -4.97428e-06
-3.09261e-05 9.26323e-06 9.28411e-06 -5.306e-06
-6.20435e-05 1.86037e-05 1.8617e-05 -4.97428e-06
-6.18419e-05 1.85434e-05 1.85565e-05 -4.97428e-06
-9.24546e-05 2.77337e-05 2.77375e-05 -4.42149e-06
-9.185e-05 2.75526e-05 2.75561e-05 -4.42149e-06
-3.06235e-05 9.17291e-06 9.19309e-06 -5.30601e-06
-3.08253e-05 9.23312e-06 9.25377e-06 -5.30601e-06
-9.21523e-05 2.76431e-05 2.76468e-05 -4.42149e-06
-6.12371e-05 1.83624e-05 1.83749e-05 -4.97428e-06
-3.07244e-05 9.20302e-06 9.22343e-06 -5.30601e-06
-6.16403e-05 1.84831e-05 1.84959e-05 -4.97428e-06
-6.14387e-05 1.84227e-05 1.84354e-05 -4.97428e-06
-9.185e-05 2.75526e-05 2.75561e-05 -4.42149e-06
-9.12455e-05 2.73714e-05 2.73746e-05 -4.42149e-06
-3.04217e-05 9.1127e-06 9.13242e-06 -5.30601e-06
-3.06235e-05 9.17291e-06 9.19309e-06 -5.30601e-06
-9.15478e-05 2.7462e-05 2.74653e-05 -4.42149e-06
-6.08339e-05 1.82417e-05 1.82538e-05 -4.97428e-06
-3.05226e-05 9.14281e-06 9.16276e-06 -5.30601e-06
-6.12371e-05 1.83624e-05 1.83749e-05 -4.97428e-06
-6.10355e-05 1.83021e-05 1.83143e-05 -4.97428e-06
-9.12455e-05 2.73714e-05 2.73746e-05 -4.42149e-06
-9.06409e-05 2.71903e-05 2.71931e-05 -4.42149e-06
-3.02199e-05 9.05249e-06 9.07174e-06 -5.30601e-06
-3.04217e-05 9.1127e-06 9.13242e-06 -5.30601e-06
-9.09432e-05 2.72808e-05 2.72839e-05 -4.42149e-06
-6.04307e-05 1.81211e-05 1.81327e-05 -4.97428e-06
-3.03208e-05 9.0826e-06 9.10208e-06 -5.30601e-06
-6.08339e-05 1.82417e-05 1.82538e-05 -4.97428e-06
-6.06323e-05 1.81814e-05 1.81932e-05 -4.97428e-06
-9.06409e-05 2.71903e-05 2.71931e-05 -4.42149e-06
-9.00363e-05 2.70091e-05 2.70117e-05 -4.4215e-06
-3.00181e-05 8.99228e-06 9.01107e-06 -5.30601e-06
-3.02199e-05 9.05249e-06 9.07174e-06 -5.30601e-06
-9.03386e-05 2.70997e-05 2.71024e-05 -4.42149e-06
-6.00275e-05 1.80004e-05 1.80116e-05 -4.97428e-06
-3.0119e-05 9.02239e-06 9.04141e-06 -5.30601e-06
-6.04307e-05 1.81211e-05 1.81327e-05 -4.97428e-06
-6.02291e-05 1.80607e-05 1.80722e-05 -4.97428e-06
-9.00363e-05 2.70091e-05 2.70117e-05 -4.4215e-06
-8.94317e-05 2.6828e-05 2.68302e-05 -4.4215e-06
-2.98163e-05 8.93207e-06 8.9504e-06 -5.30601e-06
-3.00181e-05 8.99228e-06 9.01107e-06 -5.30601e-06
-8.9734e-05 2.69185e-05 2.69209e-05 -4.4215e-06
-5.96243e-05 1.78797e-05 1.78906e-05 -4.97428e-06
-2.99172e-05 8.96218e-06 8.98073e-06 -5.30601e-06
-6.00275e-05 1.80004e-05 1.80116e-05 -4.97428e-06
-5.98259e-05 1.794e-05 1.79511e-05 -4.97428e-06
-8.94317e-05 2.6828e-05 2.68302e-05 -4.4215e-06
-8.88272e-05 2.66468e-05 2.66487e-05 -4.4215e-06
-2.96146e-05 8.87186e-06 8.88972e-06 -5.30601e-06
-2.98163e-05 8.93207e-06 8.9504e-06 -5.30601e-06
-8.91295e-05 2.67374e-05 2.67395e-05 -4.4215e-06
-5.92212e-05 1.7759e-05 1.77695e-05 -4.97428e-06
-2.97154e-05 8.90197e-06 8.92006e-06 -5.30601e-06
-5.96243e-05 1.78797e-05 1.78906e-05 -4.97428e-06
-5.94228e-05 1.78194e-05 1.783e-05 -4.97428e-06
-8.88272e-05 2.66468e-05 2.66487e-05 -4.4215e-06
-8.82226e-05 2.64657e-05 2.64672e-05 -4.4215e-06
-2.94128e-05 8.81165e-06 8.82905e-06 -5.30601e-06
-2.96146e-05 8.87186e-06 8.88972e-06 -5.30601e-06
-8.85249e-05 2.65563e-05 2.6558e-05 -4.4215e-06
-5.8818e-05 1.76384e-05 1.76484e-05 -4.97428e-06
-2.95137e-05 8.84176e-06 8.85939e-06 -5.30601e-06
-5.92212e-05 1.7759e-05 1.77695e-05 -4.97428e-06
-5.90196e-05 1.76987e-05 1.77089e-05 -4.97428e-06
-8.82226e-05 2.64657e-05 2.64672e-05 -4.4215e-06
-8.7618e-05 2.62845e-05 2.62858e-05 -4.4215e-06
-2.9211e-05 8.75144e-06 8.76838e-06 -5.30601e-06
-2.94128e-05 8.81165e-06 8.82905e-06 -5.30601e-06
-8.79203e-05 2.63751e-05 2.63765e-05 -4.4215e-06
-5.84148e-05 1.75177e-05 1.75273e-05 -4.97429e-06
-2.93119e-05 8.78155e-06 8.79872e-06 -5.30601e-06
-5.8818e-05 1.76384e-05 1.76484e-05 -4.97428e-06
-5.86164e-05 1.7578e-05 1.75879e-05 -4.97428e-06
-8.7618e-05 2.62845e-05 2.62858e-05 -4.4215e-06
-8.70135e-05 2.61034e-05 2.61043e-05 -4.4215e-06
-2.90092e-05 8.69123e-06 8.70771e-06 -5.30601e-06
-2.9211e-05 8.75144e-06 8.76838e-06 -5.30601e-06
-8.73157e-05 2.6194e-05 2.6195e-05 -4.4215e-06
-5.80116e-05 1.7397e-05 1.74063e-05 -4.97429e-06
-2.91101e-05 8.72133e-06 8.73805e-06 -5.30601e-06
-5.84148e-05 1.75177e-05 1.75273e-05 -4.97429e-06
-5.82132e-05 1.74574e-05 1.74668e-05 -4.97429e-06
-8.70135e-05 2.61034e-05 2.61043e-05 -4.4215e-06
-8.64089e-05 2.59222e-05 2.59228e-05 -4.4215e-06
-2.88074e-05 8.63101e-06 8.64704e-06 -5.30601e-06
-2.90092e-05 8.69123e-06 8.70771e-06 -5.30601e-06
-8.67112e-05 2.60128e-05 2.60136e-05 -4.4215e-06
-5.76085e-05 1.72763e-05 1.72852e-05 -4.97429e-06
-2.89083e-05 8.66112e-06 8.67738e-06 -5.30601e-06
-5.80116e-05 1.7397e-05 1.74063e-05 -4.97429e-06
-5.781e-05 1.73367e-05 1.73457e-05 -4.97429e-06
-8.64089e-05 2.59222e-05 2.59228e-05 -4.4215e-06
-8.58043e-05 2.57411e-05 2.57414e-05 -4.42151e-06
-2.86057e-05 8.5708e-06 8.58637e-06 -5.30601e-06
-2.88074e-05 8.63101e-06 8.64704e-06 -5.30601e-06
-8.61066e-05 2.58317e-05 2.58321e-05 -4.4215e-06
-5.72053e-05 1.71557e-05 1.71641e-05 -4.97429e-06
-2.87066e-05 8.60091e-06 8.61671e-06 -5.30601e-06
-5.76085e-05 1.72763e-05 1.72852e-05 -4.97429e-06
-5.74069e-05 1.7216e-05 1.72247e-05 -4.97429e-06
-8.58043e-05 2.57411e-05 2.57414e-05 -4.42151e-06
-8.51997e-05 2.55599e-05 2.55599e-05 -4.42151e-06
-2.84039e-05 8.51059e-06 8.52571e-06 -5.30601e-06
-2.86057e-05 8.5708e-06 8.58637e-06 -5.30601e-06
-8.5502e-05 2.56505e-05 2.56506e-05 -4.42151e-06
-5.68021e-05 1.7035e-05 1.70431e-05 -4.97429e-06
-2.85048e-05 8.54069e-06 8.55604e-06 -5.30601e-06
-5.72053e-05 1.71557e-05 1.71641e-05 -4.97429e-06
-5.70037e-05 1.70953e-05 1.71036e-05 -4.97429e-06
-8.51997e-05 2.55599e-05 2.55599e-05 -4.42151e-06
-8.45952e-05 2.53788e-05 2.53784e-05 -4.42151e-06
-2.82021e-05 8.45037e-06 8.46504e-06 -5.30601e-06
-2.84039e-05 8.51059e-06 8.52571e-06 -5.30601e-06
-8.48975e-05 2.54694e-05 2.54692e-05 -4.42151e-06
-5.63989e-05 1.69143e-05 1.6922e-05 -4.97429e-06
-2.8303e-05 8.48048e-06 8.49537e-06 -5.30601e-06
-5.68021e-05 1.7035e-05 1.70431e-05 -4.97429e-06
-5.66005e-05 1.69746e-05 1.69825e-05 -4.97429e-06
-8.45952e-05 2.53788e-05 2.53784e-05 -4.42151e-06
-8.39906e-05 2.51977e-05 2.5197e-05 -4.42151e-06
-2.80004e-05 8.39016e-06 8.40437e-06 -5.30601e-06
-2.82021e-05 8.45037e-06 8.46504e-06 -5.30601e-06
-8.42929e-05 2.52882e-05 2.52877e-05 -4.42151e-06
-5.59958e-05 1.67936e-05 1.68009e-05 -4.97429e-06
-2.81012e-05 8.42027e-06 8.43471e-06 -5.30601e-06
-5.63989e-05 1.69143e-05 1.6922e-05 -4.97429e-06
-5.61974e-05 1.6854e-05 1.68614e-05 -4.97429e-06
-8.39906e-05 2.51977e-05 2.5197e-05 -4.42151e-06
-8.33861e-05 2.50165e-05 2.50155e-05 -4.42151e-06
-2.77986e-05 8.32994e-06 8.34371e-06 -5.30601e-06
-2.80004e-05 8.39016e-06 8.40437e-06 -5.30601e-06
-8.36883e-05 2.51071e-05 2.51063e-05 -4.42151e-06
-5.55926e-05 1.6673e-05 1.66798e-05 -4.97429e-06
-2.78995e-05 8.36005e-06 8.37404e-06 -5.30601e-06
-5.59958e-05 1.67936e-05 1.68009e-05 -4.97429e-06
-5.57942e-05 1.67333e-05 1.67404e-05 -4.97429e-06
-8.33861e-05 2.50165e-05 2.50155e-05 -4.42151e-06
-8.27815e-05 2.48354e-05 2.48341e-05 -4.42151e-06
-2.75968e-05 8.26973e-06 8.28304e-06 -5.30601e-06
-2.77986e-05 8.32994e-06 8.34371e-06 -5.30601e-06
-8.30838e-05 2.49259e-05 2.49248e-05 -4.42151e-06
-5.51894e-05 1.65523e-05 1.65588e-05 -4.97429e-06
-2.76977e-05 8.29983e-06 8.31338e-06 -5.30601e-06
-5.55926e-05 1.6673e-05 1.66798e-05 -4.97429e-06
-5.5391e-05 1.66126e-05 1.66193e-05 -4.97429e-06
-8.27815e-05 2.48354e-05 2.48341e-05 -4.42151e-06
-8.21769e-05 2.46542e-05 2.46526e-05 -4.42151e-06
-2.73951e-05 8.20951e-06 8.22238e-06 -5.30601e-06
-2.75968e-05 8.26973e-06 8.28304e-06 -5.30601e-06
-8.24792e-05 2.47448e-05 2.47433e-05 -4.42151e-06
-5.47863e-05 1.64316e-05 1.64377e-05 -4.97429e-06
-2.74959e-05 8.23962e-06 8.25271e-06 -5.30601e-06
-5.51894e-05 1.65523e-05 1.65588e-05 -4.97429e-06
-5.49878e-05 1.64919e-05 1.64982e-05 -4.97429e-06
-8.21769e-05 2.46542e-05 2.46526e-05 -4.42151e-06
-8.15724e-05 2.44731e-05 2.44711e-05 -4.42152e-06
-2.71933e-05 8.14929e-06 8.16172e-06 -5.30601e-06
-2.73951e-05 8.20951e-06 8.22238e-06 -5.30601e-06
-8.18747e-05 2.45636e-05 2.45619e-05 -4.42151e-06
-5.43831e-05 1.63109e-05 1.63166e-05 -4.97429e-06
-2.72942e-05 8.1794e-06 8.19205e-06 -5.30601e-06
-5.47863e-05 1.64316e-05 1.64377e-05 -4.97429e-06
-5.45847e-05 1.63713e-05 1.63772e-05 -4.97429e-06
-8.15724e-05 2.44731e-05 2.44711e-05 -4.42152e-06
-8.09678e-05 2.42919e-05 2.42897e-05 -4.42152e-06
-2.69915e-05 8.08907e-06 8.10106e-06 -5.30601e-06
-2.71933e-05 8.14929e-06 8.16172e-06 -5.30601e-06
-8.12701e-05 2.43825e-05 2.43804e-05 -4.42152e-06
-5.39799e-05 1.61902e-05 1.61956e-05 -4.9743e-06
-2.70924e-05 8.11918e-06 8.13139e-06 -5.30601e-06
-5.43831e-05 1.63109e-05 1.63166e-05 -4.97429e-06
-5.41815e-05 1.62506e-05 1.62561e-05 -4.9743e-06
-8.09678e-05 2.42919e-05 2.42897e-05 -4.42152e-06
-8.03633e-05 2.41108e-05 2.41082e-05 -4.42152e-06
-2.67898e-05 8.02885e-06 8.0404e-06 -5.30601e-06
-2.69915e-05 8.08907e-06 8.10106e-06 -5.30601e-06
-8.06655e-05 2.42013e-05 2.41989e-05 -4.42152e-06
-5.35768e-05 1.60696e-05 1.60745e-05 -4.9743e-06
-2.68907e-05 8.05896e-06 8.07073e-06 -5.30601e-06
-5.39799e-05 1.61902e-05 1.61956e-05 -4.9743e-06
-5.37784e-05 1.61299e-05 1.61351e-05 -4.9743e-06
-8.03633e-05 2.41108e-05 2.41082e-05 -4.42152e-06
-7.97587e-05 2.39296e-05 2.39268e-05 -4.42152e-06
-2.6588e-05 7.96863e-06 7.97974e-06 -5.30601e-06
-2.67898e-05 8.02885e-06 8.0404e-06 -5.30601e-06
-8.0061e-05 2.40202e-05 2.40175e-05 -4.42152e-06
-5.31736e-05 1.59489e-05 1.59535e-05 -4.9743e-06
-2.66889e-05 7.99874e-06 8.01007e-06 -5.30601e-06
-5.35768e-05 1.60696e-05 1.60745e-05 -4.9743e-06
-5.33752e-05 1.60092e-05 1.6014e-05 -4.9743e-06
-7.97587e-05 2.39296e-05 2.39268e-05 -4.42152e-06
-7.91542e-05 2.37485e-05 2.37453e-05 -4.42152e-06
-2.63863e-05 7.90841e-06 7.91908e-06 -5.30601e-06
-2.6588e-05 7.96863e-06 7.97974e-06 -5.30601e-06
-7.94564e-05 2.3839e-05 2.3836e-05 -4.42152e-06
-5.27705e-05 1.58282e-05 1.58324e-05 -4.9743e-06
-2.64871e-05 7.93852e-06 7.94941e-06 -5.30601e-06
-5.31736e-05 1.59489e-05 1.59535e-05 -4.9743e-06
-5.2972e-05 1.58885e-05 1.58929e-05 -4.9743e-06
-7.91542e-05 2.37485e-05 2.37453e-05 -4.42152e-06
-7.85496e-05 2.35673e-05 2.35638e-05 -4.42152e-06
-2.61845e-05 7.84819e-06 7.85842e-06 -5.30601e-06
-2.63863e-05 7.90841e-06 7.91908e-06 -5.30601e-06
-7.88519e-05 2.36579e-05 2.36546e-05 -4.42152e-06
-5.23673e-05 1.57075e-05 1.57113e-05 -4.9743e-06
-2.62854e-05 7.8783e-06 7.88875e-06 -5.30601e-06
-5.27705e-05 1.58282e-05 1.58324e-05 -4.9743e-06
-5.25689e-05 1.57678e-05 1.57719e-05 -4.9743e-06
-7.85496e-05 2.35673e-05 2.35638e-05 -4.42152e-06
-7.79451e-05 2.33861e-05 2.33824e-05 -4.42152e-06
-2.59828e-05 7.78797e-06 7.79777e-06 -5.30601e-06
-2.61845e-05 7.84819e-06 7.85842e-06 -5.30601e-06
-7.82473e-05 2.34767e-05 2.34731e-05 -4.42152e-06
-5.19641e-05 1.55868e-05 1.55903e-05 -4.9743e-06
-2.60836e-05 7.81808e-06 7.8281e-06 -5.30601e-06
-5.23673e-05 1.57075e-05 1.57113e-05 -4.9743e-06
-5.21657e-05 1.56472e-05 1.56508e-05 -4.9743e-06
-7.79451e-05 2.33861e-05 2.33824e-05 -4.42152e-06
-7.73405e-05 2.3205e-05 2.32009e-05 -4.42153e-06
-2.5781e-05 7.72775e-06 7.73711e-06 -5.30601e-06
-2.59828e-05 7.78797e-06 7.79777e-06 -5.30601e-06
-7.76428e-05 2.32956e-05 2.32917e-05 -4.42152e-06
-5.1561e-05 1.54661e-05 1.54692e-05 -4.9743e-06
-2.58819e-05 7.75786e-06 7.76744e-06 -5.30601e-06
-5.19641e-05 1.55868e-05 1.55903e-05 -4.9743e-06
-5.17626e-05 1.55265e-05 1.55298e-05 -4.9743e-06
-7.73405e-05 2.3205e-05 2.32009e-05 -4.42153e-06
-7.6736e-05 2.30238e-05 2.30195e-05 -4.42153e-06
-2.55793e-05 7.66752e-06 7.67646e-06 -5.30601e-06
-2.5781e-05 7.72775e-06 7.73711e-06 -5.30601e-06
-7.70382e-05 2.31144e-05 2.31102e-05 -4.42153e-06
-5.11578e-05 1.53455e-05 1.53482e-05 -4.9743e-06
-2.56801e-05 7.69763e-06 7.70679e-06 -5.30601e-06
-5.1561e-05 1.54661e-05 1.54692e-05 -4.9743e-06
-5.13594e-05 1.54058e-05 1.54087e-05 -4.9743e-06
-7.6736e-05 2.30238e-05 2.30195e-05 -4.42153e-06
-7.61314e-05 2.28427e-05 2.2838e-05 -4.42153e-06
-2.53775e-05 7.6073e-06 7.61581e-06 -5.30601e-06
-2.55793e-05 7.66752e-06 7.67646e-06 -5.30601e-06
-7.64337e-05 2.29333e-05 2.29288e-05 -4.42153e-06
-5.07547e-05 1.52248e-05 1.52271e-05 -4.9743e-06
-2.54784e-05 7.63741e-06 7.64613e-06 -5.30601e-06
-5.11578e-05 1.53455e-05 1.53482e-05 -4.9743e-06
-5.09563e-05 1.52851e-05 1.52876e-05 -4.9743e-06
-7.61314e-05 2.28427e-05 2.2838e-05 -4.42153e-06
-7.55269e-05 2.26615e-05 2.26566e-05 -4.42153e-06
-2.51758e-05 7.54707e-06 7.55516e-06 -5.30601e-06
-2.53775e-05 7.6073e-06 7.61581e-06 -5.30601e-06
-7.58291e-05 2.27521e-05 2.27473e-05 -4.42153e-06
-5.03515e-05 1.51041e-05 1.51061e-05 -4.9743e-06
-2.52766e-05 7.57718e-06 7.58548e-06 -5.30601e-06
-5.07547e-05 1.52248e-05 1.52271e-05 -4.9743e-06
-5.05531e-05 1.51644e-05 1.51666e-05 -4.9743e-06
-7.55269e-05 2.26615e-05 2.26566e-05 -4.42153e-06
-7.49223e-05 2.24804e-05 2.24751e-05 -4.42153e-06
-2.4974e-05 7.48684e-06 7.49451e-06 -5.30601e-06
-2.51758e-05 7.54707e-06 7.55516e-06 -5.30601e-06
-7.52246e-05 2.2571e-05 2.25659e-05 -4.42153e-06
-4.99484e-05 1.49834e-05 1.4985e-05 -4.97431e-06
-2.50749e-05 7.51696e-06 7.52483e-06 -5.30601e-06
-5.03515e-05 1.51041e-05 1.51061e-05 -4.9743e-06
-5.015e-05 1.50437e-05 1.50455e-05 -4.9743e-06
-7.49223e-05 2.24804e-05 2.24751e-05 -4.42153e-06
-7.43178e-05 2.22992e-05 2.22937e-05 -4.42153e-06
-2.47723e-05 7.42661e-06 7.43386e-06 -5.30601e-06
-2.4974e-05 7.48684e-06 7.49451e-06 -5.30601e-06
-7.46201e-05 2.23898e-05 2.23844e-05 -4.42153e-06
-4.95453e-05 1.48627e-05 1.4864e-05 -4.97431e-06
-2.48732e-05 7.45673e-06 7.46418e-06 -5.30601e-06
-4.99484e-05 1.49834e-05 1.4985e-05 -4.97431e-06
-4.97468e-05 1.4923e-05 1.49245e-05 -4.97431e-06
-7.43178e-05 2.22992e-05 2.22937e-05 -4.42153e-06
-7.37133e-05 2.21181e-05 2.21122e-05 -4.42153e-06
-2.45705e-05 7.36639e-06 7.37321e-06 -5.30601e-06
-2.47723e-05 7.42661e-06 7.43386e-06 -5.30601e-06
-7.40155e-05 2.22086e-05 2.2203e-05 -4.42153e-06
-4.91421e-05 1.4742e-05 1.47429e-05 -4.97431e-06
-2.46714e-05 7.3965e-06 7.40353e-06 -5.30601e-06
-4.95453e-05 1.48627e-05 1.4864e-05 -4.97431e-06
-4.93437e-05 1.48024e-05 1.48034e-05 -4.97431e-06
-7.37133e-05 2.21181e-05 2.21122e-05 -4.42153e-06
-7.31087e-05 2.19369e-05 2.19308e-05 -4.42154e-06
-2.43688e-05 7.30616e-06 7.31256e-06 -5.30601e-06
-2.45705e-05 7.36639e-06 7.37321e-06 -5.30601e-06
-7.3411e-05 2.20275e-05 2.20215e-05 -4.42153e-06
-4.8739e-05 1.46213e-05 1.46219e-05 -4.97431e-06
-2.44697e-05 7.33627e-06 7.34289e-06 -5.30601e-06
-4.91421e-05 1.4742e-05 1.47429e-05 -4.97431e-06
-4.89405e-05 1.46817e-05 1.46824e-05 -4.97431e-06
-7.31087e-05 2.19369e-05 2.19308e-05 -4.42154e-06
-7.25042e-05 2.17557e-05 2.17493e-05 -4.42154e-06
-2.41671e-05 7.24593e-06 7.25192e-06 -5.30601e-06
-2.43688e-05 7.30616e-06 7.31256e-06 -5.30601e-06
-7.28065e-05 2.18463e-05 2.18401e-05 -4.42154e-06
-4.83358e-05 1.45006e-05 1.45008e-05 -4.97431e-06
-2.42679e-05 7.27604e-06 7.28224e-06 -5.30601e-06
-4.8739e-05 1.46213e-05 1.46219e-05 -4.97431e-06
-4.85374e-05 1.4561e-05 1.45613e-05 -4.97431e-06
-7.25042e-05 2.17557e-05 2.17493e-05 -4.42154e-06
-7.18997e-05 2.15746e-05 2.15679e-05 -4.42154e-06
-2.39653e-05 7.18569e-06 7.19127e-06 -5.30601e-06
-2.41671e-05 7.24593e-06 7.25192e-06 -5.30601e-06
-7.22019e-05 2.16652e-05 2.16586e-05 -4.42154e-06
-4.79327e-05 1.43799e-05 1.43798e-05 -4.97431e-06
-2.40662e-05 7.21581e-06 7.2216e-06 -5.30601e-06
-4.83358e-05 1.45006e-05 1.45008e-05 -4.97431e-06
-4.81343e-05 1.44403e-05 1.44403e-05 -4.97431e-06
-7.18997e-05 2.15746e-05 2.15679e-05 -4.42154e-06
-7.12951e-05 2.13934e-05 2.13864e-05 -4.42154e-06
-2.37636e-05 7.12546e-06 7.13063e-06 -5.30602e-06
-2.39653e-05 7.18569e-06 7.19127e-06 -5.30601e-06
-7.15974e-05 2.1484e-05 2.14772e-05 -4.42154e-06
-4.75296e-05 1.42592e-05 1.42587e-05 -4.97431e-06
-2.38645e-05 7.15558e-06 7.16095e-06 -5.30602e-06
-4.79327e-05 1.43799e-05 1.43798e-05 -4.97431e-06
-4.77311e-05 1.43196e-05 1.43192e-05 -4.97431e-06
-7.12951e-05 2.13934e-05 2.13864e-05 -4.42154e-06
-7.06906e-05 2.12123e-05 2.1205e-05 -4.42154e-06
-2.35619e-05 7.06523e-06 7.06999e-06 -5.30602e-06
-2.37636e-05 7.12546e-06 7.13063e-06 -5.30602e-06
-7.09929e-05 2.13028e-05 2.12957e-05 -4.42154e-06
-4.71264e-05 1.41385e-05 1.41377e-05 -4.97431e-06
-2.36627e-05 7.09534e-06 7.10031e-06 -5.30602e-06
-4.75296e-05 1.42592e-05 1.42587e-05 -4.97431e-06
-4.7328e-05 1.41989e-05 1.41982e-05 -4.97431e-06
-7.06906e-05 2.12123e-05 2.1205e-05 -4.42154e-06
-7.00861e-05 2.10311e-05 2.10236e-05 -4.42154e-06
-2.33601e-05 7.00499e-06 7.00935e-06 -5.30602e-06
-2.35619e-05 7.06523e-06 7.06999e-06 -5.30602e-06
-7.03883e-05 2.11217e-05 2.11143e-05 -4.42154e-06
-4.67233e-05 1.40179e-05 1.40166e-05 -4.97431e-06
-2.3461e-05 7.03511e-06 7.03967e-06 -5.30602e-06
-4.71264e-05 1.41385e-05 1.41377e-05 -4.97431e-06
-4.69249e-05 1.40782e-05 1.40771e-05 -4.97431e-06
-7.00861e-05 2.10311e-05 2.10236e-05 -4.42154e-06
-6.94815e-05 2.08499e-05 2.08421e-05 -4.42154e-06
-2.31584e-05 6.94475e-06 6.94871e-06 -5.30602e-06
-2.33601e-05 7.00499e-06 7.00935e-06 -5.30602e-06
-6.97838e-05 2.09405e-05 2.09328e-05 -4.42154e-06
-4.63202e-05 1.38972e-05 1.38956e-05 -4.97431e-06
-2.32593e-05 6.97487e-06 6.97903e-06 -5.30602e-06
-4.67233e-05 1.40179e-05 1.40166e-05 -4.97431e-06
-4.65217e-05 1.39575e-05 1.39561e-05 -4.97431e-06
-6.94815e-05 2.08499e-05 2.08421e-05 -4.42154e-06
-6.8877e-05 2.06688e-05 2.06607e-05 -4.42154e-06
-2.29567e-05 6.88452e-06 6.88807e-06 -5.30602e-06
-2.31584e-05 6.94475e-06 6.94871e-06 -5.30602e-06
-6.91793e-05 2.07593e-05 2.07514e-05 -4.42154e-06
-4.5917e-05 1.37765e-05 1.37745e-05 -4.97431e-06
-2.30576e-05 6.91464e-06 6.91839e-06 -5.30602e-06
-4.63202e-05 1.38972e-05 1.38956e-05 -4.97431e-06
-4.61186e-05 1.38368e-05 1.38351e-05 -4.97431e-06
-6.8877e-05 2.06688e-05 2.06607e-05 -4.42154e-06
-6.82725e-05 2.04876e-05 2.04792e-05 -4.42155e-06
-2.2755e-05 6.82428e-06 6.82744e-06 -5.30602e-06
-2.29567e-05 6.88452e-06 6.88807e-06 -5.30602e-06
-6.85748e-05 2.05782e-05 2.057e-05 -4.42155e-06
-4.55139e-05 1.36558e-05 1.36535e-05 -4.97432e-06
-2.28558e-05 6.8544e-06 6.85776e-06 -5.30602e-06
-4.5917e-05 1.37765e-05 1.37745e-05 -4.97431e-06
-4.57155e-05 1.37161e-05 1.3714e-05 -4.97431e-06
-6.82725e-05 2.04876e-05 2.04792e-05 -4.42155e-06
-6.7668e-05 2.03064e-05 2.02978e-05 -4.42155e-06
-2.25532e-05 6.76404e-06 6.7668e-06 -5.30602e-06
-2.2755e-05 6.82428e-06 6.82744e-06 -5.30602e-06
-6.79702e-05 2.0397e-05 2.03885e-05 -4.42155e-06
-4.51108e-05 1.35351e-05 1.35325e-05 -4.97432e-06
-2.26541e-05 6.79416e-06 6.79712e-06 -5.30602e-06
-4.55139e-05 1.36558e-05 1.36535e-05 -4.97432e-06
-4.53124e-05 1.35954e-05 1.3593e-05 -4.97432e-06
-6.7668e-05 2.03064e-05 2.02978e-05 -4.42155e-06
-6.70635e-05 2.01253e-05 2.01164e-05 -4.42155e-06
-2.23515e-05 6.7038e-06 6.70617e-06 -5.30602e-06
-2.25532e-05 6.76404e-06 6.7668e-06 -5.30602e-06
-6.73657e-05 2.02158e-05 2.02071e-05 -4.42155e-06
-4.47077e-05 1.34144e-05 1.34114e-05 -4.97432e-06
-2.24524e-05 6.73392e-06 6.73649e-06 -5.30602e-06
-4.51108e-05 1.35351e-05 1.35325e-05 -4.97432e-06
-4.49092e-05 1.34747e-05 1.34719e-05 -4.97432e-06
-6.70635e-05 2.01253e-05 2.01164e-05 -4.42155e-06
-6.64589e-05 1.99441e-05 1.99349e-05 -4.42155e-06
-2.21498e-05 6.64356e-06 6.64554e-06 -5.30602e-06
-2.23515e-05 6.7038e-06 6.70617e-06 -5.30602e-06
-6.67612e-05 2.00347e-05 2.00257e-05 -4.42155e-06
-4.43045e-05 1.32937e-05 1.32904e-05 -4.97432e-06
-2.22507e-05 6.67368e-06 6.67585e-06 -5.30602e-06
-4.47077e-05 1.34144e-05 1.34114e-05 -4.97432e-06
-4.45061e-05 1.3354e-05 1.33509e-05 -4.97432e-06
-6.64589e-05 1.99441e-05 1.99349e-05 -4.42155e-06
-6.58544e-05 1.97629e-05 1.97535e-05 -4.42155e-06
-2.19481e-05 6.58331e-06 6.58491e-06 -5.30602e-06
-2.21498e-05 6.64356e-06 6.64554e-06 -5.30602e-06
-6.61567e-05 1.98535e-05 1.98442e-05 -4.42155e-06
-4.39014e-05 1.3173e-05 1.31693e-05 -4.97432e-06
-2.2049e-05 6.61343e-06 6.61522e-06 -5.30602e-06
-4.43045e-05 1.32937e-05 1.32904e-05 -4.97432e-06
-4.4103e-05 1.32333e-05 1.32299e-05 -4.97432e-06
-6.58544e-05 1.97629e-05 1.97535e-05 -4.42155e-06
-6.52499e-05 1.95818e-05 1.95721e-05 -4.42155e-06
-2.17464e-05 6.52307e-06 6.52428e-06 -5.30602e-06
-2.19481e-05 6.58331e-06 6.58491e-06 -5.30602e-06
-6.55522e-05 1.96723e-05 1.96628e-05 -4.42155e-06
-4.34983e-05 1.30522e-05 1.30483e-05 -4.97432e-06
-2.18472e-05 6.55319e-06 6.55459e-06 -5.30602e-06
-4.39014e-05 1.3173e-05 1.31693e-05 -4.97432e-06
-4.36999e-05 1.31126e-05 1.31088e-05 -4.97432e-06
-6.52499e-05 1.95818e-05 1.95721e-05 -4.42155e-06
-6.46454e-05 1.94006e-05 1.93906e-05 -4.42155e-06
-2.15447e-05 6.46282e-06 6.46365e-06 -5.30602e-06
-2.17464e-05 6.52307e-06 6.52428e-06 -5.30602e-06
-6.49477e-05 1.94912e-05 1.94814e-05 -4.42155e-06
-4.30952e-05 1.29315e-05 1.29273e-05 -4.97432e-06
-2.16455e-05 6.49294e-06 6.49397e-06 -5.30602e-06
-4.34983e-05 1.30522e-05 1.30483e-05 -4.97432e-06
-4.32968e-05 1.29919e-05 1.29878e-05 -4.97432e-06
-6.46454e-05 1.94006e-05 1.93906e-05 -4.42155e-06
-6.40409e-05 1.92194e-05 1.92092e-05 -4.42156e-06
-2.1343e-05 6.40257e-06 6.40303e-06 -5.30602e-06
-2.15447e-05 6.46282e-06 6.46365e-06 -5.30602e-06
-6.43432e-05 1.931e-05 1.92999e-05 -4.42156e-06
-4.26921e-05 1.28108e-05 1.28063e-05 -4.97432e-06
-2.14438e-05 6.4327e-06 6.43334e-06 -5.30602e-06
-4.30952e-05 1.29315e-05 1.29273e-05 -4.97432e-06
-4.28936e-05 1.28712e-05 1.28668e-05 -4.97432e-06
-6.40409e-05 1.92194e-05 1.92092e-05 -4.42156e-06
-6.34364e-05 1.90382e-05 1.90278e-05 -4.42156e-06
-2.11413e-05 6.34233e-06 6.3424e-06 -5.30602e-06
-2.1343e-05 6.40257e-06 6.40303e-06 -5.30602e-06
-6.37386e-05 1.91288e-05 1.91185e-05 -4.42156e-06
-4.2289e-05 1.26901e-05 1.26852e-05 -4.97432e-06
-2.12421e-05 6.37245e-06 6.37271e-06 -5.30602e-06
-4.26921e-05 1.28108e-05 1.28063e-05 -4.97432e-06
-4.24905e-05 1.27505e-05 1.27457e-05 -4.97432e-06
-6.34364e-05 1.90382e-05 1.90278e-05 -4.42156e-06
-6.28319e-05 1.88571e-05 1.88464e-05 -4.42156e-06
-2.09396e-05 6.28208e-06 6.28178e-06 -5.30602e-06
-2.11413e-05 6.34233e-06 6.3424e-06 -5.30602e-06
-6.31341e-05 1.89477e-05 1.89371e-05 -4.42156e-06
-4.18859e-05 1.25694e-05 1.25642e-05 -4.97432e-06
-2.10404e-05 6.3122e-06 6.31209e-06 -5.30602e-06
-4.2289e-05 1.26901e-05 1.26852e-05 -4.97432e-06
-4.20874e-05 1.26298e-05 1.26247e-05 -4.97432e-06
-6.28319e-05 1.88571e-05 1.88464e-05 -4.42156e-06
-6.22274e-05 1.86759e-05 1.86649e-05 -4.42156e-06
-2.07379e-05 6.22182e-06 6.22116e-06 -5.30602e-06
-2.09396e-05 6.28208e-06 6.28178e-06 -5.30602e-06
-6.25296e-05 1.87665e-05 1.87556e-05 -4.42156e-06
-4.14828e-05 1.24487e-05 1.24432e-05 -4.97432e-06
-2.08387e-05 6.25195e-06 6.25147e-06 -5.30602e-06
-4.18859e-05 1.25694e-05 1.25642e-05 -4.97432e-06
-4.16843e-05 1.25091e-05 1.25037e-05 -4.97432e-06
-6.22274e-05 1.86759e-05 1.86649e-05 -4.42156e-06
-6.16229e-05 1.84947e-05 1.84835e-05 -4.42156e-06
-2.05362e-05 6.16157e-06 6.16054e-06 -5.30602e-06
-2.07379e-05 6.22182e-06 6.22116e-06 -5.30602e-06
-6.19251e-05 1.85853e-05 1.85742e-05 -4.42156e-06
-4.10797e-05 1.2328e-05 1.23221e-05 -4.97433e-06
-2.0637e-05 6.1917e-06 6.19085e-06 -5.30602e-06
-4.14828e-05 1.24487e-05 1.24432e-05 -4.97432e-06
-4.12812e-05 1.23883e-05 1.23827e-05 -4.97432e-06
-6.16229e-05 1.84947e-05 1.84835e-05 -4.42156e-06
-6.10184e-05 1.83135e-05 1.83021e-05 -4.42156e-06
-2.03345e-05 6.10132e-06 6.09992e-06 -5.30602e-06
-2.05362e-05 6.16157e-06 6.16054e-06 -5.30602e-06
-6.13206e-05 1.84041e-05 1.83928e-05 -4.42156e-06
-4.06766e-05 1.22073e-05 1.22011e-05 -4.97433e-06
-2.04353e-05 6.13144e-06 6.13023e-06 -5.30602e-06
-4.10797e-05 1.2328e-05 1.23221e-05 -4.97433e-06
-4.08781e-05 1.22676e-05 1.22616e-05 -4.97433e-06
-6.10184e-05 1.83135e-05 1.83021e-05 -4.42156e-06
-6.04139e-05 1.81324e-05 1.81207e-05 -4.42156e-06
-2.01328e-05 6.04106e-06 6.0393e-06 -5.30602e-06
-2.03345e-05 6.10132e-06 6.09992e-06 -5.30602e-06
-6.07161e-05 1.82229e-05 1.82114e-05 -4.42156e-06
-4.02735e-05 1.20866e-05 1.20801e-05 -4.97433e-06
-2.02336e-05 6.07119e-06 6.06961e-06 -5.30602e-06
-4.06766e-05 1.22073e-05 1.22011e-05 -4.97433e-06
-4.0475e-05 1.21469e-05 1.21406e-05 -4.97433e-06
-6.04139e-05 1.81324e-05 1.81207e-05 -4.42156e-06
-5.98094e-05 1.79512e-05 1.79392e-05 -4.42157e-06
-1.99311e-05 5.98081e-06 5.97869e-06 -5.30602e-06
-2.01328e-05 6.04106e-06 6.0393e-06 -5.30602e-06
-6.01116e-05 1.80418e-05 1.80299e-05 -4.42157e-06
-3.98704e-05 1.19659e-05 1.19591e-05 -4.97433e-06
-2.00319e-05 6.01093e-06 6.009e-06 -5.30602e-06
-4.02735e-05 1.20866e-05 1.20801e-05 -4.97433e-06
-4.00719e-05 1.20262e-05 1.20196e-05 -4.97433e-06
-5.98094e-05 1.79512e-05 1.79392e-05 -4.42157e-06
-5.92049e-05 1.777e-05 1.77578e-05 -4.42157e-06
-1.97294e-05 5.92055e-06 5.91807e-06 -5.30602e-06
-1.99311e-05 5.98081e-06 5.97869e-06 -5.30602e-06
-5.95071e-05 1.78606e-05 1.78485e-05 -4.42157e-06
-3.94673e-05 1.18451e-05 1.18381e-05 -4.97433e-06
-1.98302e-05 5.95068e-06 5.94838e-06 -5.30602e-06
-3.98704e-05 1.19659e-05 1.19591e-05 -4.97433e-06
-3.96688e-05 1.19055e-05 1.18986e-05 -4.97433e-06
-5.92049e-05 1.777e-05 1.77578e-05 -4.42157e-06
-5.86004e-05 1.75888e-05 1.75764e-05 -4.42157e-06
-1.95277e-05 5.86029e-06 5.85746e-06 -5.30602e-06
-1.97294e-05 5.92055e-06 5.91807e-06 -5.30602e-06
-5.89027e-05 1.76794e-05 1.76671e-05 -4.42157e-06
-3.90642e-05 1.17244e-05 1.1717e-05 -4.97433e-06
-1.96285e-05 5.89042e-06 5.88777e-06 -5.30602e-06
-3.94673e-05 1.18451e-05 1.18381e-05 -4.97433e-06
-3.92657e-05 1.17848e-05 1.17776e-05 -4.97433e-06
-5.86004e-05 1.75888e-05 1.75764e-05 -4.42157e-06
-5.79959e-05 1.74076e-05 1.7395e-05 -4.42157e-06
-1.9326e-05 5.80003e-06 5.79685e-06 -5.30602e-06
-1.95277e-05 5.86029e-06 5.85746e-06 -5.30602e-06
-5.82982e-05 1.74982e-05 1.74857e-05 -4.42157e-06
-3.86611e-05 1.16037e-05 1.1596e-05 -4.97433e-06
-1.94269e-05 5.83016e-06 5.82716e-06 -5.30602e-06
-3.90642e-05 1.17244e-05 1.1717e-05 -4.97433e-06
-3.88626e-05 1.16641e-05 1.16565e-05 -4.97433e-06
-5.79959e-05 1.74076e-05 1.7395e-05 -4.42157e-06
-5.73914e-05 1.72264e-05 1.72136e-05 -4.42157e-06
-1.91243e-05 5.73976e-06 5.73624e-06 -5.30602e-06
-1.9326e-05 5.80003e-06 5.79685e-06 -5.30602e-06
-5.76937e-05 1.7317e-05 1.73043e-05 -4.42157e-06
-3.8258e-05 1.1483e-05 1.1475e-05 -4.97433e-06
-1.92252e-05 5.7699e-06 5.76655e-06 -5.30602e-06
-3.86611e-05 1.16037e-05 1.1596e-05 -4.97433e-06
-3.84596e-05 1.15433e-05 1.15355e-05 -4.97433e-06
-5.73914e-05 1.72264e-05 1.72136e-05 -4.42157e-06
-5.6787e-05 1.70453e-05 1.70322e-05 -4.42157e-06
-1.89227e-05 5.6795e-06 5.67564e-06 -5.30602e-06
-1.91243e-05 5.73976e-06 5.73624e-06 -5.30602e-06
-5.70892e-05 1.71358e-05 1.71229e-05 -4.42157e-06
-3.78549e-05 1.13623e-05 1.1354e-05 -4.97433e-06
-1.90235e-05 5.70963e-06 5.70594e-06 -5.30602e-06
-3.8258e-05 1.1483e-05 1.1475e-05 -4.97433e-06
-3.80565e-05 1.14226e-05 1.14145e-05 -4.97433e-06
-5.6787e-05 1.70453e-05 1.70322e-05 -4.42157e-06
-5.61825e-05 1.68641e-05 1.68507e-05 -4.42157e-06
-1.8721e-05 5.61924e-06 5.61503e-06 -5.30602e-06
-1.89227e-05 5.6795e-06 5.67564e-06 -5.30602e-06
-5.64847e-05 1.69547e-05 1.69415e-05 -4.42157e-06
-3.74519e-05 1.12415e-05 1.1233e-05 -4.97433e-06
-1.88218e-05 5.64937e-06 5.64533e-06 -5.30602e-06
-3.78549e-05 1.13623e-05 1.1354e-05 -4.97433e-06
-3.76534e-05 1.13019e-05 1.12935e-05 -4.97433e-06
-5.61825e-05 1.68641e-05 1.68507e-05 -4.42157e-06
-5.5578e-05 1.66829e-05 1.66693e-05 -4.42158e-06
-1.85193e-05 5.55897e-06 5.55443e-06 -5.30602e-06
-1.8721e-05 5.61924e-06 5.61503e-06 -5.30602e-06
-5.58802e-05 1.67735e-05 1.676e-05 -4.42158e-06
-3.70488e-05 1.11208e-05 1.1112e-05 -4.97433e-06
-1.86201e-05 5.5891e-06 5.58473e-06 -5.30602e-06
-3.74519e-05 1.12415e-05 1.1233e-05 -4.97433e-06
-3.72503e-05 1.11812e-05 1.11725e-05 -4.97433e-06
-5.5578e-05 1.66829e-05 1.66693e-05 -4.42158e-06
-5.49735e-05 1.65017e-05 1.64879e-05 -4.42158e-06
-1.83176e-05 5.4987e-06 5.49383e-06 -5.30602e-06
-1.85193e-05 5.55897e-06 5.55443e-06 -5.30602e-06
-5.52758e-05 1.65923e-05 1.65786e-05 -4.42158e-06
-3.66457e-05 1.10001e-05 1.0991e-05 -4.97434e-06
-1.84185e-05 5.52883e-06 5.52413e-06 -5.30602e-06
-3.70488e-05 1.11208e-05 1.1112e-05 -4.97433e-06
-3.68472e-05 1.10604e-05 1.10515e-05 -4.97433e-06
-5.49735e-05 1.65017e-05 1.64879e-05 -4.42158e-06
-5.4369e-05 1.63205e-05 1.63065e-05 -4.42158e-06
-1.8116e-05 5.43843e-06 5.43323e-06 -5.30602e-06
-1.83176e-05 5.4987e-06 5.49383e-06 -5.30602e-06
-5.46713e-05 1.64111e-05 1.63972e-05 -4.42158e-06
-3.62426e-05 1.08793e-05 1.087e-05 -4.97434e-06
-1.82168e-05 5.46856e-06 5.46353e-06 -5.30602e-06
-3.66457e-05 1.10001e-05 1.0991e-05 -4.97434e-06
-3.64442e-05 1.09397e-05 1.09305e-05 -4.97434e-06
-5.4369e-05 1.63205e-05 1.63065e-05 -4.42158e-06
-5.37646e-05 1.61393e-05 1.61251e-05 -4.42158e-06
-1.79143e-05 5.37816e-06 5.37263e-06 -5.30602e-06
-1.8116e-05 5.43843e-06 5.43323e-06 -5.30602e-06
-5.40668e-05 1.62299e-05 1.62158e-05 -4.42158e-06
-3.58395e-05 1.07586e-05 1.0749e-05 -4.97434e-06
-1.80151e-05 5.40829e-06 5.40293e-06 -5.30602e-06
-3.62426e-05 1.08793e-05 1.087e-05 -4.97434e-06
-3.60411e-05 1.0819e-05 1.08095e-05 -4.97434e-06
-5.37646e-05 1.61393e-05 1.61251e-05 -4.42158e-06
-5.31601e-05 1.59581e-05 1.59437e-05 -4.42158e-06
-1.77126e-05 5.31788e-06 5.31203e-06 -5.30602e-06
-1.79143e-05 5.37816e-06 5.37263e-06 -5.30602e-06
-5.34623e-05 1.60487e-05 1.60344e-05 -4.42158e-06
-3.54365e-05 1.06379e-05 1.0628e-05 -4.97434e-06
-1.78135e-05 5.34802e-06 5.34233e-06 -5.30602e-06
-3.58395e-05 1.07586e-05 1.0749e-05 -4.97434e-06
-3.5638e-05 1.06983e-05 1.06885e-05 -4.97434e-06
-5.31601e-05 1.59581e-05 1.59437e-05 -4.42158e-06
-5.25556e-05 1.57769e-05 1.57623e-05 -4.42158e-06
-1.7511e-05 5.25761e-06 5.25144e-06 -5.30602e-06
-1.77126e-05 5.31788e-06 5.31203e-06 -5.30602e-06
-5.28579e-05 1.58675e-05 1.5853e-05 -4.42158e-06
-3.50334e-05 1.05172e-05 1.0507e-05 -4.97434e-06
-1.76118e-05 5.28775e-06 5.28173e-06 -5.30602e-06
-3.54365e-05 1.06379e-05 1.0628e-05 -4.97434e-06
-3.52349e-05 1.05775e-05 1.05675e-05 -4.97434e-06
-5.25556e-05 1.57769e-05 1.57623e-05 -4.42158e-06
-5.19512e-05 1.55957e-05 1.55809e-05 -4.42158e-06
-1.73093e-05 5.19733e-06 5.19084e-06 -5.30602e-06
-1.7511e-05 5.25761e-06 5.25144e-06 -5.30602e-06
-5.22534e-05 1.56863e-05 1.56716e-05 -4.42158e-06
-3.46303e-05 1.03964e-05 1.0386e-05 -4.97434e-06
-1.74101e-05 5.22747e-06 5.22114e-06 -5.30602e-06
-3.50334e-05 1.05172e-05 1.0507e-05 -4.97434e-06
-3.48319e-05 1.04568e-05 1.04465e-05 -4.97434e-06
-5.19512e-05 1.55957e-05 1.55809e-05 -4.42158e-06
-5.13467e-05 1.54145e-05 1.53995e-05 -4.42159e-06
-1.71076e-05 5.13706e-06 5.13025e-06 -5.30602e-06
-1.73093e-05 5.19733e-06 5.19084e-06 -5.30602e-06
-5.16489e-05 1.55051e-05 1.54902e-05 -4.42159e-06
-3.42273e-05 1.02757e-05 1.0265e-05 -4.97434e-06
-1.72085e-05 5.16719e-06 5.16055e-06 -5.30602e-06
-3.46303e-05 1.03964e-05 1.0386e-05 -4.97434e-06
-3.44288e-05 1.0336e-05 1.03255e-05 -4.97434e-06
-5.13467e-05 1.54145e-05 1.53995e-05 -4.42159e-06
-5.07423e-05 1.52333e-05 1.52181e-05 -4.42159e-06
-1.6906e-05 5.07678e-06 5.06966e-06 -5.30602e-06
-1.71076e-05 5.13706e-06 5.13025e-06 -5.30602e-06
-5.10445e-05 1.53239e-05 1.53088e-05 -4.42159e-06
-3.38242e-05 1.01549e-05 1.0144e-05 -4.97434e-06
-1.70068e-05 5.10692e-06 5.09996e-06 -5.30602e-06
-3.42273e-05 1.02757e-05 1.0265e-05 -4.97434e-06
-3.40257e-05 1.02153e-05 1.02045e-05 -4.97434e-06
-5.07423e-05 1.52333e-05 1.52181e-05 -4.42159e-06
-5.01378e-05 1.50521e-05 1.50367e-05 -4.42159e-06
-1.67043e-05 5.01649e-06 5.00907e-06 -5.30602e-06
-1.6906e-05 5.07678e-06 5.06966e-06 -5.30602e-06
-5.044e-05 1.51427e-05 1.51274e-05 -4.42159e-06
-3.34212e-05 1.00342e-05 1.0023e-05 -4.97434e-06
-1.68052e-05 5.04664e-06 5.03937e-06 -5.30602e-06
-3.38242e-05 1.01549e-05 1.0144e-05 -4.97434e-06
-3.36227e-05 1.00946e-05 1.00835e-05 -4.97434e-06
-5.01378e-05 1.50521e-05 1.50367e-05 -4.42159e-06
-4.95333e-05 1.48709e-05 1.48553e-05 -4.42159e-06
-1.65027e-05 4.95621e-06 4.94849e-06 -5.30603e-06
-1.67043e-05 5.01649e-06 5.00907e-06 -5.30602e-06
-4.98356e-05 1.49615e-05 1.4946e-05 -4.42159e-06
-3.30181e-05 9.91346e-06 9.90199e-06 -4.97434e-06
-1.66035e-05 4.98635e-06 4.97878e-06 -5.30602e-06
-3.34212e-05 1.00342e-05 1.0023e-05 -4.97434e-06
-3.32196e-05 9.97383e-06 9.96249e-06 -4.97434e-06
-4.95333e-05 1.48709e-05 1.48553e-05 -4.42159e-06
-4.89289e-05 1.46897e-05 1.46739e-05 -4.42159e-06
-1.6301e-05 4.89593e-06 4.8879e-06 -5.30603e-06
-1.65027e-05 4.95621e-06 4.94849e-06 -5.30603e-06
-4.92311e-05 1.47803e-05 1.47646e-05 -4.42159e-06
-3.26151e-05 9.79272e-06 9.781e-06 -4.97434e-06
-1.64019e-05 4.92607e-06 4.91819e-06 -5.30603e-06
-3.30181e-05 9.91346e-06 9.90199e-06 -4.97434e-06
-3.28166e-05 9.85309e-06 9.84149e-06 -4.97434e-06
-4.89289e-05 1.46897e-05 1.46739e-05 -4.42159e-06
-4.83244e-05 1.45085e-05 1.44925e-05 -4.42159e-06
-1.60994e-05 4.83564e-06 4.82732e-06 -5.30603e-06
-1.6301e-05 4.89593e-06 4.8879e-06 -5.30603e-06
-4.86267e-05 1.45991e-05 1.45832e-05 -4.42159e-06
-3.2212e-05 9.67198e-06 9.66001e-06 -4.97435e-06
-1.62002e-05 4.86578e-06 4.85761e-06 -5.30603e-06
-3.26151e-05 9.79272e-06 9.781e-06 -4.97434e-06
-3.24135e-05 9.73235e-06 9.7205e-06 -4.97435e-06
-4.83244e-05 1.45085e-05 1.44925e-05 -4.42159e-06
-4.772e-05 1.43273e-05 1.43112e-05 -4.42159e-06
-1.58977e-05 4.77535e-06 4.76674e-06 -5.30603e-06
-1.60994e-05 4.83564e-06 4.82732e-06 -5.30603e-06
-4.80222e-05 1.44179e-05 1.44018e-05 -4.42159e-06
-3.1809e-05 9.55123e-06 9.53902e-06 -4.97435e-06
-1.59986e-05 4.8055e-06 4.79703e-06 -5.30603e-06
-3.2212e-05 9.67198e-06 9.66001e-06 -4.97435e-06
-3.20105e-05 9.6116e-06 9.59952e-06 -4.97435e-06
-4.772e-05 1.43273e-05 1.43112e-05 -4.42159e-06
-4.71155e-05 1.41461e-05 1.41298e-05 -4.4216e-06
-1.56961e-05 4.71506e-06 4.70616e-06 -5.30603e-06
-1.58977e-05 4.77535e-06 4.76674e-06 -5.30603e-06
-4.74178e-05 1.42367e-05 1.42205e-05 -4.4216e-06
-3.14059e-05 9.43048e-06 9.41804e-06 -4.97435e-06
-1.57969e-05 4.74521e-06 4.73645e-06 -5.30603e-06
-3.1809e-05 9.55123e-06 9.53902e-06 -4.97435e-06
-3.16074e-05 9.49086e-06 9.47853e-06 -4.97435e-06
-4.71155e-05 1.41461e-05 1.41298e-05 -4.4216e-06
-4.65111e-05 1.39649e-05 1.39484e-05 -4.4216e-06
-1.54945e-05 4.65477e-06 4.64558e-06 -5.30603e-06
-1.56961e-05 4.71506e-06 4.70616e-06 -5.30603e-06
-4.68133e-05 1.40555e-05 1.40391e-05 -4.4216e-06
-3.10029e-05 9.30974e-06 9.29706e-06 -4.97435e-06
-1.55953e-05 4.68492e-06 4.67587e-06 -5.30603e-06
-3.14059e-05 9.43048e-06 9.41804e-06 -4.97435e-06
-3.12044e-05 9.37011e-06 9.35755e-06 -4.97435e-06
-4.65111e-05 1.39649e-05 1.39484e-05 -4.4216e-06
-4.59067e-05 1.37837e-05 1.3767e-05 -4.4216e-06
-1.52928e-05 4.59448e-06 4.58501e-06 -5.30603e-06
-1.54945e-05 4.65477e-06 4.64558e-06 -5.30603e-06
-4.62089e-05 1.38743e-05 1.38577e-05 -4.4216e-06
-3.05998e-05 9.18899e-06 9.17607e-06 -4.97435e-06
-1.53936e-05 4.62463e-06 4.6153e-06 -5.30603e-06
-3.10029e-05 9.30974e-06 9.29706e-06 -4.97435e-06
-3.08013e-05 9.24936e-06 9.23656e-06 -4.97435e-06
-4.59067e-05 1.37837e-05 1.3767e-05 -4.4216e-06
-4.53022e-05 1.36024e-05 1.35856e-05 -4.4216e-06
-1.50912e-05 4.53418e-06 4.52443e-06 -5.30603e-06
-1.52928e-05 4.59448e-06 4.58501e-06 -5.30603e-06
-4.56044e-05 1.36931e-05 1.36763e-05 -4.4216e-06
-3.01968e-05 9.06823e-06 9.05509e-06 -4.97435e-06
-1.5192e-05 4.56433e-06 4.55472e-06 -5.30603e-06
-3.05998e-05 9.18899e-06 9.17607e-06 -4.97435e-06
-3.03983e-05 9.12861e-06 9.11558e-06 -4.97435e-06
-4.53022e-05 1.36024e-05 1.35856e-05 -4.4216e-06
-4.46978e-05 1.34212e-05 1.34042e-05 -4.4216e-06
-1.48896e-05 4.47389e-06 4.46386e-06 -5.30603e-06
-1.50912e-05 4.53418e-06 4.52443e-06 -5.30603e-06
-4.5e-05 1.35118e-05 1.34949e-05 -4.4216e-06
-2.97938e-05 8.94748e-06 8.93412e-06 -4.97435e-06
-1.49904e-05 4.50404e-06 4.49415e-06 -5.30603e-06
-3.01968e-05 9.06823e-06 9.05509e-06 -4.97435e-06
-2.99953e-05 9.00786e-06 8.99461e-06 -4.97435e-06
-4.46978e-05 1.34212e-05 1.34042e-05 -4.4216e-06
-4.40933e-05 1.324e-05 1.32229e-05 -4.4216e-06
-1.46879e-05 4.41359e-06 4.40329e-06 -5.30603e-06
-1.48896e-05 4.47389e-06 4.46386e-06 -5.30603e-06
-4.43956e-05 1.33306e-05 1.33135e-05 -4.4216e-06
-2.93907e-05 8.82672e-06 8.81314e-06 -4.97435e-06
-1.47888e-05 4.44374e-06 4.43358e-06 -5.30603e-06
-2.97938e-05 8.94748e-06 8.93412e-06 -4.97435e-06
-2.95922e-05 8.8871e-06 8.87363e-06 -4.97435e-06
-4.40933e-05 1.324e-05 1.32229e-05 -4.4216e-06
-4.34889e-05 1.30588e-05 1.30415e-05 -4.4216e-06
-1.44863e-05 4.35329e-06 4.34273e-06 -5.30603e-06
-1.46879e-05 4.41359e-06 4.40329e-06 -5.30603e-06
-4.37911e-05 1.31494e-05 1.31322e-05 -4.4216e-06
-2.89877e-05 8.70597e-06 8.69217e-06 -4.97435e-06
-1.45871e-05 4.38344e-06 4.37301e-06 -5.30603e-06
-2.93907e-05 8.82672e-06 8.81314e-06 -4.97435e-06
-2.91892e-05 8.76635e-06 8.75265e-06 -4.97435e-06
-4.34889e-05 1.30588e-05 1.30415e-05 -4.4216e-06
-4.28845e-05 1.28776e-05 1.28601e-05 -4.42161e-06
-1.42847e-05 4.29299e-06 4.28216e-06 -5.30603e-06
-1.44863e-05 4.35329e-06 4.34273e-06 -5.30603e-06
-4.31867e-05 1.29682e-05 1.29508e-05 -4.42161e-06
-2.85847e-05 8.58521e-06 8.57119e-06 -4.97435e-06
-1.43855e-05 4.32314e-06 4.31244e-06 -5.30603e-06
-2.89877e-05 8.70597e-06 8.69217e-06 -4.97435e-06
-2.87862e-05 8.64559e-06 8.63168e-06 -4.97435e-06
-4.28845e-05 1.28776e-05 1.28601e-05 -4.42161e-06
-4.22801e-05 1.26964e-05 1.26787e-05 -4.42161e-06
-1.40831e-05 4.23268e-06 4.2216e-06 -5.30603e-06
-1.42847e-05 4.29299e-06 4.28216e-06 -5.30603e-06
-4.25823e-05 1.2787e-05 1.27694e-05 -4.42161e-06
-2.81816e-05 8.46445e-06 8.45022e-06 -4.97436e-06
-1.41839e-05 4.26283e-06 4.25188e-06 -5.30603e-06
-2.85847e-05 8.58521e-06 8.57119e-06 -4.97435e-06
-2.83831e-05 8.52483e-06 8.51071e-06 -4.97436e-06
-4.22801e-05 1.26964e-05 1.26787e-05 -4.42161e-06
-4.16756e-05 1.25151e-05 1.24974e-05 -4.42161e-06
-1.38815e-05 4.17238e-06 4.16104e-06 -5.30603e-06
-1.40831e-05 4.23268e-06 4.2216e-06 -5.30603e-06
-4.19778e-05 1.26057e-05 1.2588e-05 -4.42161e-06
-2.77786e-05 8.34369e-06 8.32926e-06 -4.97436e-06
-1.39823e-05 4.20253e-06 4.19132e-06 -5.30603e-06
-2.81816e-05 8.46445e-06 8.45022e-06 -4.97436e-06
-2.79801e-05 8.40407e-06 8.38974e-06 -4.97436e-06
-4.16756e-05 1.25151e-05 1.24974e-05 -4.42161e-06
-4.10712e-05 1.23339e-05 1.2316e-05 -4.42161e-06
-1.36798e-05 4.11207e-06 4.10048e-06 -5.30603e-06
-1.38815e-05 4.17238e-06 4.16104e-06 -5.30603e-06
-4.13734e-05 1.24245e-05 1.24067e-05 -4.42161e-06
-2.73756e-05 8.22292e-06 8.20829e-06 -4.97436e-06
-1.37807e-05 4.14222e-06 4.13076e-06 -5.30603e-06
-2.77786e-05 8.34369e-06 8.32926e-06 -4.97436e-06
-2.75771e-05 8.2833e-06 8.26877e-06 -4.97436e-06
-4.10712e-05 1.23339e-05 1.2316e-05 -4.42161e-06
-4.04668e-05 1.21527e-05 1.21346e-05 -4.42161e-06
-1.34782e-05 4.05176e-06 4.03992e-06 -5.30603e-06
-1.36798e-05 4.11207e-06 4.10048e-06 -5.30603e-06
-4.0769e-05 1.22433e-05 1.22253e-05 -4.42161e-06
-2.69726e-05 8.10216e-06 8.08732e-06 -4.97436e-06
-1.3579e-05 4.08191e-06 4.0702e-06 -5.30603e-06
-2.73756e-05 8.22292e-06 8.20829e-06 -4.97436e-06
-2.71741e-05 8.16254e-06 8.14781e-06 -4.97436e-06
-4.04668e-05 1.21527e-05 1.21346e-05 -4.42161e-06
-3.98624e-05 1.19715e-05 1.19533e-05 -4.42161e-06
-1.32766e-05 3.99145e-06 3.97936e-06 -5.30603e-06
-1.34782e-05 4.05176e-06 4.03992e-06 -5.30603e-06
-4.01646e-05 1.20621e-05 1.20439e-05 -4.42161e-06
-2.65696e-05 7.98139e-06 7.96636e-06 -4.97436e-06
-1.33774e-05 4.0216e-06 4.00964e-06 -5.30603e-06
-2.69726e-05 8.10216e-06 8.08732e-06 -4.97436e-06
-2.67711e-05 8.04177e-06 8.02684e-06 -4.97436e-06
-3.98624e-05 1.19715e-05 1.19533e-05 -4.42161e-06
-3.9258e-05 1.17902e-05 1.17719e-05 -4.42162e-06
-1.3075e-05 3.93114e-06 3.91881e-06 -5.30603e-06
-1.32766e-05 3.99145e-06 3.97936e-06 -5.30603e-06
-3.95602e-05 1.18808e-05 1.18626e-05 -4.42161e-06
-2.61666e-05 7.86062e-06 7.8454e-06 -4.97436e-06
-1.31758e-05 3.96129e-06 3.94908e-06 -5.30603e-06
-2.65696e-05 7.98139e-06 7.96636e-06 -4.97436e-06
-2.63681e-05 7.921e-06 7.90588e-06 -4.97436e-06
-3.9258e-05 1.17902e-05 1.17719e-05 -4.42162e-06
-3.86536e-05 1.1609e-05 1.15905e-05 -4.42162e-06
-1.28734e-05 3.87082e-06 3.85826e-06 -5.30603e-06
-1.3075e-05 3.93114e-06 3.91881e-06 -5.30603e-06
-3.89558e-05 1.16996e-05 1.16812e-05 -4.42162e-06
-2.57635e-05 7.73985e-06 7.72444e-06 -4.97436e-06
-1.29742e-05 3.90098e-06 3.88853e-06 -5.30603e-06
-2.61666e-05 7.86062e-06 7.8454e-06 -4.97436e-06
-2.5965e-05 7.80023e-06 7.78492e-06 -4.97436e-06
-3.86536e-05 1.1609e-05 1.15905e-05 -4.42162e-06
-3.80491e-05 1.14278e-05 1.14092e-05 -4.42162e-06
-1.26718e-05 3.8105e-06 3.79771e-06 -5.30603e-06
-1.28734e-05 3.87082e-06 3.85826e-06 -5.30603e-06
-3.83513e-05 1.15184e-05 1.14998e-05 -4.42162e-06
-2.53605e-05 7.61907e-06 7.60348e-06 -4.97436e-06
-1.27726e-05 3.84066e-06 3.82798e-06 -5.30603e-06
-2.57635e-05 7.73985e-06 7.72444e-06 -4.97436e-06
-2.5562e-05 7.67946e-06 7.66396e-06 -4.97436e-06
-3.80491e-05 1.14278e-05 1.14092e-05 -4.42162e-06
-3.74447e-05 1.12465e-05 1.12278e-05 -4.42162e-06
-1.24702e-05 3.75018e-06 3.73716e-06 -5.30603e-06
-1.26718e-05 3.8105e-06 3.79771e-06 -5.30603e-06
-3.77469e-05 1.13371e-05 1.13185e-05 -4.42162e-06
-2.49575e-05 7.4983e-06 7.48253e-06 -4.97436e-06
-1.2571e-05 3.78034e-06 3.76743e-06 -5.30603e-06
-2.53605e-05 7.61907e-06 7.60348e-06 -4.97436e-06
-2.5159e-05 7.55869e-06 7.54301e-06 -4.97436e-06
-3.74447e-05 1.12465e-05 1.12278e-05 -4.42162e-06
-3.68403e-05 1.10653e-05 1.10464e-05 -4.42162e-06
-1.22686e-05 3.68986e-06 3.67661e-06 -5.30603e-06
-1.24702e-05 3.75018e-06 3.73716e-06 -5.30603e-06
-3.71425e-05 1.11559e-05 1.11371e-05 -4.42162e-06
-2.45545e-05 7.37752e-06 7.36158e-06 -4.97436e-06
-1.23694e-05 3.72002e-06 3.70688e-06 -5.30603e-06
-2.49575e-05 7.4983e-06 7.48253e-06 -4.97436e-06
-2.4756e-05 7.43791e-06 7.42205e-06 -4.97436e-06
-3.68403e-05 1.10653e-05 1.10464e-05 -4.42162e-06
-3.62359e-05 1.08841e-05 1.08651e-05 -4.42162e-06
-1.2067e-05 3.62954e-06 3.61607e-06 -5.30603e-06
-1.22686e-05 3.68986e-06 3.67661e-06 -5.30603e-06
-3.65381e-05 1.09747e-05 1.09558e-05 -4.42162e-06
-2.41515e-05 7.25674e-06 7.24062e-06 -4.97437e-06
-1.21678e-05 3.6597e-06 3.64634e-06 -5.30603e-06
-2.45545e-05 7.37752e-06 7.36158e-06 -4.97436e-06
-2.4353e-05 7.31713e-06 7.3011e-06 -4.97437e-06
-3.62359e-05 1.08841e-05 1.08651e-05 -4.42162e-06
-3.56315e-05 1.07028e-05 1.06837e-05 -4.42162e-06
-1.18654e-05 3.56922e-06 3.55553e-06 -5.30603e-06
-1.2067e-05 3.62954e-06 3.61607e-06 -5.30603e-06
-3.59337e-05 1.07934e-05 1.07744e-05 -4.42162e-06
-2.37485e-05 7.13596e-06 7.11968e-06 -4.97437e-06
-1.19662e-05 3.59938e-06 3.5858e-06 -5.30603e-06
-2.41515e-05 7.25674e-06 7.24062e-06 -4.97437e-06
-2.395e-05 7.19635e-06 7.18015e-06 -4.97437e-06
-3.56315e-05 1.07028e-05 1.06837e-05 -4.42162e-06
-3.50271e-05 1.05216e-05 1.05024e-05 -4.42163e-06
-1.16639e-05 3.50889e-06 3.49499e-06 -5.30603e-06
-1.18654e-05 3.56922e-06 3.55553e-06 -5.30603e-06
-3.53293e-05 1.06122e-05 1.05931e-05 -4.42162e-06
-2.33455e-05 7.01518e-06 6.99873e-06 -4.97437e-06
-1.17647e-05 3.53905e-06 3.52526e-06 -5.30603e-06
-2.37485e-05 7.13596e-06 7.11968e-06 -4.97437e-06
-2.3547e-05 7.07557e-06 7.0592e-06 -4.97437e-06
-3.50271e-05 1.05216e-05 1.05024e-05 -4.42163e-06
-3.44227e-05 1.03403e-05 1.0321e-05 -4.42163e-06
-1.14623e-05 3.44856e-06 3.43445e-06 -5.30603e-06
-1.16639e-05 3.50889e-06 3.49499e-06 -5.30603e-06
-3.47249e-05 1.04309e-05 1.04117e-05 -4.42163e-06
-2.29426e-05 6.8944e-06 6.87778e-06 -4.97437e-06
-1.15631e-05 3.47873e-06 3.46472e-06 -5.30603e-06
-2.33455e-05 7.01518e-06 6.99873e-06 -4.97437e-06
-2.31441e-05 6.95479e-06 6.93826e-06 -4.97437e-06
-3.44227e-05 1.03403e-05 1.0321e-05 -4.42163e-06
-3.38184e-05 1.01591e-05 1.01397e-05 -4.42163e-06
-1.12607e-05 3.38823e-06 3.37391e-06 -5.30603e-06
-1.14623e-05 3.44856e-06 3.43445e-06 -5.30603e-06
-3.41206e-05 1.02497e-05 1.02304e-05 -4.42163e-06
-2.25396e-05 6.77361e-06 6.75684e-06 -4.97437e-06
-1.13615e-05 3.4184e-06 3.40418e-06 -5.30603e-06
-2.29426e-05 6.8944e-06 6.87778e-06 -4.97437e-06
-2.27411e-05 6.83401e-06 6.81731e-06 -4.97437e-06
-3.38184e-05 1.01591e-05 1.01397e-05 -4.42163e-06
-3.3214e-05 9.97784e-06 9.95834e-06 -4.42163e-06
-1.10591e-05 3.3279e-06 3.31338e-06 -5.30603e-06
-1.12607e-05 3.38823e-06 3.37391e-06 -5.30603e-06
-3.35162e-05 1.00685e-05 1.0049e-05 -4.42163e-06
-2.21366e-05 6.65282e-06 6.6359e-06 -4.97437e-06
-1.11599e-05 3.35807e-06 3.34365e-06 -5.30603e-06
-2.25396e-05 6.77361e-06 6.75684e-06 -4.97437e-06
-2.23381e-05 6.71322e-06 6.69637e-06 -4.97437e-06
-3.3214e-05 9.97784e-06 9.95834e-06 -4.42163e-06
-3.26096e-05 9.79659e-06 9.777e-06 -4.42163e-06
-1.08575e-05 3.26757e-06 3.25285e-06 -5.30604e-06
-1.10591e-05 3.3279e-06 3.31338e-06 -5.30603e-06
-3.29118e-05 9.88721e-06 9.86767e-06 -4.42163e-06
-2.17336e-05 6.53203e-06 6.51496e-06 -4.97437e-06
-1.09583e-05 3.29773e-06 3.28311e-06 -5.30603e-06
-2.21366e-05 6.65282e-06 6.6359e-06 -4.97437e-06
-2.19351e-05 6.59243e-06 6.57543e-06 -4.97437e-06
-3.26096e-05 9.79659e-06 9.777e-06 -4.42163e-06
-3.20052e-05 9.61534e-06 9.59566e-06 -4.42163e-06
-1.0656e-05 3.20723e-06 3.19232e-06 -5.30604e-06
-1.08575e-05 3.26757e-06 3.25285e-06 -5.30604e-06
-3.23074e-05 9.70596e-06 9.68633e-06 -4.42163e-06
-2.13306e-05 6.41124e-06 6.39402e-06 -4.97437e-06
-1.07568e-05 3.2374e-06 3.22258e-06 -5.30604e-06
-2.17336e-05 6.53203e-06 6.51496e-06 -4.97437e-06
-2.15321e-05 6.47164e-06 6.45449e-06 -4.97437e-06
-3.20052e-05 9.61534e-06 9.59566e-06 -4.42163e-06
-3.14008e-05 9.43409e-06 9.41432e-06 -4.42163e-06
-1.04544e-05 3.14689e-06 3.13179e-06 -5.30604e-06
-1.0656e-05 3.20723e-06 3.19232e-06 -5.30604e-06
-3.1703e-05 9.52471e-06 9.50499e-06 -4.42163e-06
-2.09277e-05 6.29045e-06 6.27309e-06 -4.97437e-06
-1.05552e-05 3.17706e-06 3.16205e-06 -5.30604e-06
-2.13306e-05 6.41124e-06 6.39402e-06 -4.97437e-06
-2.11291e-05 6.35085e-06 6.33355e-06 -4.97437e-06
-3.14008e-05 9.43409e-06 9.41432e-06 -4.42163e-06
-3.07964e-05 9.25283e-06 9.23298e-06 -4.42164e-06
-1.02528e-05 3.08655e-06 3.07126e-06 -5.30604e-06
-1.04544e-05 3.14689e-06 3.13179e-06 -5.30604e-06
-3.10986e-05 9.34346e-06 9.32365e-06 -4.42164e-06
-2.05247e-05 6.16965e-06 6.15215e-06 -4.97438e-06
-1.03536e-05 3.11672e-06 3.10153e-06 -5.30604e-06
-2.09277e-05 6.29045e-06 6.27309e-06 -4.97437e-06
-2.07262e-05 6.23005e-06 6.21262e-06 -4.97437e-06
-3.07964e-05 9.25283e-06 9.23298e-06 -4.42164e-06
-3.01921e-05 9.07158e-06 9.05164e-06 -4.42164e-06
-1.00513e-05 3.02621e-06 3.01074e-06 -5.30604e-06
-1.02528e-05 3.08655e-06 3.07126e-06 -5.30604e-06
-3.04943e-05 9.1622e-06 9.14231e-06 -4.42164e-06
-2.01217e-05 6.04886e-06 6.03122e-06 -4.97438e-06
-1.01521e-05 3.05638e-06 3.041e-06 -5.30604e-06
-2.05247e-05 6.16965e-06 6.15215e-06 -4.97438e-06
-2.03232e-05 6.10926e-06 6.09169e-06 -4.97438e-06
-3.01921e-05 9.07158e-06 9.05164e-06 -4.42164e-06
-2.95877e-05 8.89032e-06 8.87031e-06 -4.42164e-06
-9.84971e-06 2.96586e-06 2.95022e-06 -5.30604e-06
-1.00513e-05 3.02621e-06 3.01074e-06 -5.30604e-06
-2.98899e-05 8.98095e-06 8.96097e-06 -4.42164e-06
-1.97187e-05 5.92806e-06 5.91029e-06 -4.97438e-06
-9.95049e-06 2.99604e-06 2.98048e-06 -5.30604e-06
-2.01217e-05 6.04886e-06 6.03122e-06 -4.97438e-06
-1.99202e-05 5.98846e-06 5.97076e-06 -4.97438e-06
-2.95877e-05 8.89032e-06 8.87031e-06 -4.42164e-06
-2.89833e-05 8.70906e-06 8.68897e-06 -4.42164e-06
-9.64815e-06 2.90552e-06 2.8897e-06 -5.30604e-06
-9.84971e-06 2.96586e-06 2.95022e-06 -5.30604e-06
-2.92855e-05 8.79969e-06 8.77964e-06 -4.42164e-06
-1.93158e-05 5.80726e-06 5.78937e-06 -4.97438e-06
-9.74893e-06 2.93569e-06 2.91996e-06 -5.30604e-06
-1.97187e-05 5.92806e-06 5.91029e-06 -4.97438e-06
-1.95173e-05 5.86766e-06 5.84983e-06 -4.97438e-06
-2.89833e-05 8.70906e-06 8.68897e-06 -4.42164e-06
-2.8379e-05 8.5278e-06 8.50764e-06 -4.42164e-06
-9.4466e-06 2.84517e-06 2.82918e-06 -5.30604e-06
-9.64815e-06 2.90552e-06 2.8897e-06 -5.30604e-06
-2.86811e-05 8.61843e-06 8.59831e-06 -4.42164e-06
-1.89128e-05 5.68645e-06 5.66844e-06 -4.97438e-06
-9.54738e-06 2.87534e-06 2.85944e-06 -5.30604e-06
-1.93158e-05 5.80726e-06 5.78937e-06 -4.97438e-06
-1.91143e-05 5.74686e-06 5.7289e-06 -4.97438e-06
-2.8379e-05 8.5278e-06 8.50764e-06 -4.42164e-06
-2.77746e-05 8.34654e-06 8.32631e-06 -4.42164e-06
-9.24505e-06 2.78482e-06 2.76867e-06 -5.30604e-06
-9.4466e-06 2.84517e-06 2.82918e-06 -5.30604e-06
-2.80768e-05 8.43717e-06 8.41698e-06 -4.42164e-06
-1.85099e-05 5.56565e-06 5.54752e-06 -4.97438e-06
-9.34582e-06 2.81499e-06 2.79893e-06 -5.30604e-06
-1.89128e-05 5.68645e-06 5.66844e-06 -4.97438e-06
-1.87113e-05 5.62605e-06 5.60798e-06 -4.97438e-06
-2.77746e-05 8.34654e-06 8.32631e-06 -4.42164e-06
-2.71702e-05 8.16527e-06 8.14499e-06 -4.42165e-06
-9.0435e-06 2.72447e-06 2.70816e-06 -5.30604e-06
-9.24505e-06 2.78482e-06 2.76867e-06 -5.30604e-06
-2.74724e-05 8.25591e-06 8.23565e-06 -4.42165e-06
-1.81069e-05 5.44484e-06 5.4266e-06 -4.97438e-06
-9.14427e-06 2.75464e-06 2.73841e-06 -5.30604e-06
-1.85099e-05 5.56565e-06 5.54752e-06 -4.97438e-06
-1.83084e-05 5.50524e-06 5.48706e-06 -4.97438e-06
-2.71702e-05 8.16527e-06 8.14499e-06 -4.42165e-06
-2.65659e-05 7.98401e-06 7.96366e-06 -4.42165e-06
-8.84195e-06 2.66411e-06 2.64765e-06 -5.30604e-06
-9.0435e-06 2.72447e-06 2.70816e-06 -5.30604e-06
-2.68681e-05 8.07464e-06 8.05432e-06 -4.42165e-06
-1.77039e-05 5.32403e-06 5.30568e-06 -4.97438e-06
-8.94273e-06 2.69429e-06 2.6779e-06 -5.30604e-06
-1.81069e-05 5.44484e-06 5.4266e-06 -4.97438e-06
-1.79054e-05 5.38444e-06 5.36614e-06 -4.97438e-06
-2.65659e-05 7.98401e-06 7.96366e-06 -4.42165e-06
-2.59615e-05 7.80274e-06 7.78234e-06 -4.42165e-06
-8.64041e-06 2.60376e-06 2.58714e-06 -5.30604e-06
-8.84195e-06 2.66411e-06 2.64765e-06 -5.30604e-06
-2.62637e-05 7.89337e-06 7.873e-06 -4.42165e-06
-1.7301e-05 5.20322e-06 5.18476e-06 -4.97438e-06
-8.74118e-06 2.63393e-06 2.61739e-06 -5.30604e-06
-1.77039e-05 5.32403e-06 5.30568e-06 -4.97438e-06
-1.75025e-05 5.26363e-06 5.24522e-06 -4.97438e-06
-2.59615e-05 7.80274e-06 7.78234e-06 -4.42165e-06
-2.53572e-05 7.62147e-06 7.60102e-06 -4.42165e-06
-8.43887e-06 2.5434e-06 2.52663e-06 -5.30604e-06
-8.64041e-06 2.60376e-06 2.58714e-06 -5.30604e-06
-2.56593e-05 7.7121e-06 7.69168e-06 -4.42165e-06
-1.6898e-05 5.08241e-06 5.06385e-06 -4.97438e-06
-8.53964e-06 2.57358e-06 2.55688e-06 -5.30604e-06
-1.7301e-05 5.20322e-06 5.18476e-06 -4.97438e-06
-1.70995e-05 5.14281e-06 5.1243e-06 -4.97438e-06
-2.53572e-05 7.62147e-06 7.60102e-06 -4.42165e-06
-2.47528e-05 7.4402e-06 7.4197e-06 -4.42165e-06
-8.23733e-06 2.48304e-06 2.46613e-06 -5.30604e-06
-8.43887e-06 2.5434e-06 2.52663e-06 -5.30604e-06
-2.5055e-05 7.53083e-06 7.51036e-06 -4.42165e-06
-1.64951e-05 4.96159e-06 4.94293e-06 -4.97439e-06
-8.3381e-06 2.51322e-06 2.49638e-06 -5.30604e-06
-1.6898e-05 5.08241e-06 5.06385e-06 -4.97438e-06
-1.66966e-05 5.022e-06 5.00339e-06 -4.97439e-06
-2.47528e-05 7.4402e-06 7.4197e-06 -4.42165e-06
-2.41485e-05 7.25892e-06 7.23838e-06 -4.42165e-06
-8.0358e-06 2.42267e-06 2.40563e-06 -5.30604e-06
-8.23733e-06 2.48304e-06 2.46613e-06 -5.30604e-06
-2.44507e-05 7.34956e-06 7.32904e-06 -4.42165e-06
-1.60922e-05 4.84078e-06 4.82202e-06 -4.97439e-06
-8.13657e-06 2.45286e-06 2.43588e-06 -5.30604e-06
-1.64951e-05 4.96159e-06 4.94293e-06 -4.97439e-06
-1.62936e-05 4.90118e-06 4.88248e-06 -4.97439e-06
-2.41485e-05 7.25892e-06 7.23838e-06 -4.42165e-06
-2.35441e-05 7.07765e-06 7.05706e-06 -4.42166e-06
-7.83427e-06 2.36231e-06 2.34513e-06 -5.30604e-06
-8.0358e-06 2.42267e-06 2.40563e-06 -5.30604e-06
-2.38463e-05 7.16829e-06 7.14772e-06 -4.42165e-06
-1.56892e-05 4.71996e-06 4.70111e-06 -4.97439e-06
-7.93503e-06 2.39249e-06 2.37538e-06 -5.30604e-06
-1.60922e-05 4.84078e-06 4.82202e-06 -4.97439e-06
-1.58907e-05 4.78037e-06 4.76157e-06 -4.97439e-06
-2.35441e-05 7.07765e-06 7.05706e-06 -4.42166e-06
-2.29398e-05 6.89637e-06 6.87575e-06 -4.42166e-06
-7.63274e-06 2.30194e-06 2.28463e-06 -5.30604e-06
-7.83427e-06 2.36231e-06 2.34513e-06 -5.30604e-06
-2.3242e-05 6.98701e-06 6.96641e-06 -4.42166e-06
-1.52863e-05 4.59914e-06 4.58021e-06 -4.97439e-06
-7.7335e-06 2.33213e-06 2.31488e-06 -5.30604e-06
-1.56892e-05 4.71996e-06 4.70111e-06 -4.97439e-06
-1.54878e-05 4.65955e-06 4.64066e-06 -4.97439e-06
-2.29398e-05 6.89637e-06 6.87575e-06 -4.42166e-06
-2.23355e-05 6.71509e-06 6.69444e-06 -4.42166e-06
-7.43122e-06 2.24157e-06 2.22413e-06 -5.30604e-06
-7.63274e-06 2.30194e-06 2.28463e-06 -5.30604e-06
-2.26376e-05 6.80573e-06 6.7851e-06 -4.42166e-06
-1.48834e-05 4.47831e-06 4.4593e-06 -4.97439e-06
-7.53198e-06 2.27176e-06 2.25438e-06 -5.30604e-06
-1.52863e-05 4.59914e-06 4.58021e-06 -4.97439e-06
-1.50848e-05 4.53872e-06 4.51976e-06 -4.97439e-06
-2.23355e-05 6.71509e-06 6.69444e-06 -4.42166e-06
-2.17311e-05 6.53381e-06 6.51313e-06 -4.42166e-06
-7.22969e-06 2.1812e-06 2.16364e-06 -5.30604e-06
-7.43122e-06 2.24157e-06 2.22413e-06 -5.30604e-06
-2.20333e-05 6.62445e-06 6.60379e-06 -4.42166e-06
-1.44804e-05 4.35749e-06 4.3384e-06 -4.97439e-06
-7.33045e-06 2.21139e-06 2.19389e-06 -5.30604e-06
-1.48834e-05 4.47831e-06 4.4593e-06 -4.97439e-06
-1.46819e-05 4.4179e-06 4.39885e-06 -4.97439e-06
-2.17311e-05 6.53381e-06 6.51313e-06 -4.42166e-06
-2.11268e-05 6.35253e-06 6.33182e-06 -4.42166e-06
-7.02817e-06 2.12083e-06 2.10315e-06 -5.30604e-06
-7.22969e-06 2.1812e-06 2.16364e-06 -5.30604e-06
-2.14289e-05 6.44317e-06 6.42248e-06 -4.42166e-06
-1.40775e-05 4.23666e-06 4.2175e-06 -4.97439e-06
-7.12893e-06 2.15102e-06 2.13339e-06 -5.30604e-06
-1.44804e-05 4.35749e-06 4.3384e-06 -4.97439e-06
-1.4279e-05 4.29707e-06 4.27795e-06 -4.97439e-06
-2.11268e-05 6.35253e-06 6.33182e-06 -4.42166e-06
-2.05225e-05 6.17124e-06 6.15052e-06 -4.42166e-06
-6.82666e-06 2.06045e-06 2.04266e-06 -5.30604e-06
-7.02817e-06 2.12083e-06 2.10315e-06 -5.30604e-06
-2.08246e-05 6.26189e-06 6.24117e-06 -4.42166e-06
-1.36746e-05 4.11583e-06 4.0966e-06 -4.97439e-06
-6.92742e-06 2.09064e-06 2.0729e-06 -5.30604e-06
-1.40775e-05 4.23666e-06 4.2175e-06 -4.97439e-06
-1.3876e-05 4.17625e-06 4.15705e-06 -4.97439e-06
-2.05225e-05 6.17124e-06 6.15052e-06 -4.42166e-06
-1.99181e-05 5.98996e-06 5.96922e-06 -4.42166e-06
-6.62515e-06 2.00008e-06 1.98217e-06 -5.30604e-06
-6.82666e-06 2.06045e-06 2.04266e-06 -5.30604e-06
-2.02203e-05 6.0806e-06 6.05987e-06 -4.42166e-06
-1.32717e-05 3.995e-06 3.97571e-06 -4.9744e-06
-6.7259e-06 2.03026e-06 2.01242e-06 -5.30604e-06
-1.36746e-05 4.11583e-06 4.0966e-06 -4.97439e-06
-1.34731e-05 4.05542e-06 4.03616e-06 -4.97439e-06
-1.99181e-05 5.98996e-06 5.96922e-06 -4.42166e-06
-1.93138e-05 5.80867e-06 5.78791e-06 -4.42167e-06
-6.42363e-06 1.9397e-06 1.92169e-06 -5.30605e-06
-6.62515e-06 2.00008e-06 1.98217e-06 -5.30604e-06
-1.9616e-05 5.89931e-06 5.87856e-06 -4.42167e-06
-1.28687e-05 3.87417e-06 3.85481e-06 -4.9744e-06
-6.52439e-06 1.96989e-06 1.95193e-06 -5.30605e-06
-1.32717e-05 3.995e-06 3.97571e-06 -4.9744e-06
-1.30702e-05 3.93458e-06 3.91526e-06 -4.9744e-06
-1.93138e-05 5.80867e-06 5.78791e-06 -4.42167e-06
-1.87095e-05 5.62738e-06 5.60662e-06 -4.42167e-06
-6.22213e-06 1.87931e-06 1.86121e-06 -5.30605e-06
-6.42363e-06 1.9397e-06 1.92169e-06 -5.30605e-06
-1.90116e-05 5.71802e-06 5.69726e-06 -4.42167e-06
-1.24658e-05 3.75333e-06 3.73392e-06 -4.9744e-06
-6.32288e-06 1.9095e-06 1.89145e-06 -5.30605e-06
-1.28687e-05 3.87417e-06 3.85481e-06 -4.9744e-06
-1.26673e-05 3.81375e-06 3.79437e-06 -4.9744e-06
-1.87095e-05 5.62738e-06 5.60662e-06 -4.42167e-06
-1.81052e-05 5.44608e-06 5.42532e-06 -4.42167e-06
-6.02062e-06 1.81893e-06 1.80073e-06 -5.30605e-06
-6.22213e-06 1.87931e-06 1.86121e-06 -5.30605e-06
-1.84073e-05 5.53673e-06 5.51597e-06 -4.42167e-06
-1.20629e-05 3.63249e-06 3.61303e-06 -4.9744e-06
-6.12138e-06 1.84912e-06 1.83097e-06 -5.30605e-06
-1.24658e-05 3.75333e-06 3.73392e-06 -4.9744e-06
-1.22644e-05 3.69291e-06 3.67348e-06 -4.9744e-06
-1.81052e-05 5.44608e-06 5.42532e-06 -4.42167e-06
-1.75008e-05 5.26479e-06 5.24402e-06 -4.42167e-06
-5.81912e-06 1.75854e-06 1.74025e-06 -5.30605e-06
-6.02062e-06 1.81893e-06 1.80073e-06 -5.30605e-06
-1.7803e-05 5.35544e-06 5.33467e-06 -4.42167e-06
-1.166e-05 3.51165e-06 3.49215e-06 -4.9744e-06
-5.91987e-06 1.78874e-06 1.77049e-06 -5.30605e-06
-1.20629e-05 3.63249e-06 3.61303e-06 -4.9744e-06
-1.18615e-05 3.57207e-06 3.55259e-06 -4.9744e-06
-1.75008e-05 5.26479e-06 5.24402e-06 -4.42167e-06
-1.68965e-05 5.08349e-06 5.06273e-06 -4.42167e-06
-5.61762e-06 1.69815e-06 1.67977e-06 -5.30605e-06
-5.81912e-06 1.75854e-06 1.74025e-06 -5.30605e-06
-1.71987e-05 5.17414e-06 5.15338e-06 -4.42167e-06
-1.12571e-05 3.39081e-06 3.37126e-06 -4.9744e-06
-5.71837e-06 1.72835e-06 1.71001e-06 -5.30605e-06
-1.166e-05 3.51165e-06 3.49215e-06 -4.9744e-06
-1.14585e-05 3.45123e-06 3.4317e-06 -4.9744e-06
-1.68965e-05 5.08349e-06 5.06273e-06 -4.42167e-06
-1.62922e-05 4.90219e-06 4.88144e-06 -4.42167e-06
-5.41613e-06 1.63776e-06 1.6193e-06 -5.30605e-06
-5.61762e-06 1.69815e-06 1.67977e-06 -5.30605e-06
-1.65944e-05 4.99284e-06 4.97208e-06 -4.42167e-06
-1.08542e-05 3.26997e-06 3.25038e-06 -4.9744e-06
-5.51688e-06 1.66796e-06 1.64954e-06 -5.30605e-06
-1.12571e-05 3.39081e-06 3.37126e-06 -4.9744e-06
-1.10556e-05 3.33039e-06 3.31082e-06 -4.9744e-06
-1.62922e-05 4.90219e-06 4.88144e-06 -4.42167e-06
-1.56879e-05 4.72089e-06 4.70015e-06 -4.42167e-06
-5.21464e-06 1.57737e-06 1.55883e-06 -5.30605e-06
-5.41613e-06 1.63776e-06 1.6193e-06 -5.30605e-06
-1.59901e-05 4.81154e-06 4.79079e-06 -4.42167e-06
-1.04513e-05 3.14912e-06 3.1295e-06 -4.9744e-06
-5.31538e-06 1.60757e-06 1.58906e-06 -5.30605e-06
-1.08542e-05 3.26997e-06 3.25038e-06 -4.9744e-06
-1.06527e-05 3.20955e-06 3.18994e-06 -4.9744e-06
-1.56879e-05 4.72089e-06 4.70015e-06 -4.42167e-06
-1.50836e-05 4.53959e-06 4.51886e-06 -4.42168e-06
-5.01315e-06 1.51698e-06 1.49836e-06 -5.30605e-06
-5.21464e-06 1.57737e-06 1.55883e-06 -5.30605e-06
-1.53858e-05 4.63024e-06 4.60951e-06 -4.42168e-06
-1.00484e-05 3.02828e-06 3.00862e-06 -4.9744e-06
-5.11389e-06 1.54717e-06 1.52859e-06 -5.30605e-06
-1.04513e-05 3.14912e-06 3.1295e-06 -4.9744e-06
-1.02498e-05 3.0887e-06 3.06906e-06 -4.9744e-06
-1.50836e-05 4.53959e-06 4.51886e-06 -4.42168e-06
-1.44793e-05 4.35829e-06 4.33758e-06 -4.42168e-06
-4.81166e-06 1.45658e-06 1.43789e-06 -5.30605e-06
-5.01315e-06 1.51698e-06 1.49836e-06 -5.30605e-06
-1.47815e-05 4.44894e-06 4.42822e-06 -4.42168e-06
-9.64549e-06 2.90743e-06 2.88774e-06 -4.9744e-06
-4.9124e-06 1.48678e-06 1.46813e-06 -5.30605e-06
-1.00484e-05 3.02828e-06 3.00862e-06 -4.9744e-06
-9.84694e-06 2.96785e-06 2.94818e-06 -4.9744e-06
-1.44793e-05 4.35829e-06 4.33758e-06 -4.42168e-06
-1.3875e-05 4.17699e-06 4.1563e-06 -4.42168e-06
-4.61018e-06 1.39618e-06 1.37743e-06 -5.30604e-06
-4.81166e-06 1.45658e-06 1.43789e-06 -5.30605e-06
-1.41772e-05 4.26764e-06 4.24694e-06 -4.42168e-06
-9.2426e-06 2.78658e-06 2.76687e-06 -4.9744e-06
-4.71092e-06 1.42638e-06 1.40766e-06 -5.30604e-06
-9.64549e-06 2.90743e-06 2.88774e-06 -4.9744e-06
-9.44405e-06 2.847e-06 2.82731e-06 -4.9744e-06
-1.3875e-05 4.17699e-06 4.1563e-06 -4.42168e-06
-1.32707e-05 3.99568e-06 3.97501e-06 -4.42168e-06
-4.4087e-06 1.33578e-06 1.31696e-06 -5.30604e-06
-4.61018e-06 1.39618e-06 1.37743e-06 -5.30604e-06
-1.35729e-05 4.08633e-06 4.06566e-06 -4.42168e-06
-8.83972e-06 2.66573e-06 2.646e-06 -4.9744e-06
-4.50944e-06 1.36598e-06 1.3472e-06 -5.30604e-06
-9.2426e-06 2.78658e-06 2.76687e-06 -4.9744e-06
-9.04116e-06 2.72615e-06 2.70643e-06 -4.9744e-06
-1.32707e-05 3.99568e-06 3.97501e-06 -4.42168e-06
-1.26664e-05 3.81438e-06 3.79374e-06 -4.42168e-06
-4.20723e-06 1.27538e-06 1.2565e-06 -5.30603e-06
-4.4087e-06 1.33578e-06 1.31696e-06 -5.30604e-06
-1.29686e-05 3.90503e-06 3.88438e-06 -4.42168e-06
-8.43684e-06 2.54488e-06 2.52513e-06 -4.97439e-06
-4.30796e-06 1.30558e-06 1.28673e-06 -5.30603e-06
-8.83972e-06 2.66573e-06 2.646e-06 -4.9744e-06
-8.63828e-06 2.6053e-06 2.58556e-06 -4.9744e-06
-1.26664e-05 3.81438e-06 3.79374e-06 -4.42168e-06
-1.20622e-05 3.63308e-06 3.61246e-06 -4.42168e-06
-4.00576e-06 1.21498e-06 1.19605e-06 -5.30601e-06
-4.20723e-06 1.27538e-06 1.2565e-06 -5.30603e-06
-1.23643e-05 3.72373e-06 3.7031e-06 -4.42168e-06
-8.03397e-06 2.42403e-06 2.40426e-06 -4.97438e-06
-4.10649e-06 1.24518e-06 1.22628e-06 -5.30602e-06
-8.43684e-06 2.54488e-06 2.52513e-06 -4.97439e-06
-8.23541e-06 2.48446e-06 2.46469e-06 -4.97439e-06
-1.20622e-05 3.63308e-06 3.61246e-06 -4.42168e-06
-1.14579e-05 3.45179e-06 3.43119e-06 -4.42168e-06
-3.8043e-06 1.15459e-06 1.13559e-06 -5.30599e-06
-4.00576e-06 1.21498e-06 1.19605e-06 -5.30601e-06
-1.176e-05 3.54244e-06 3.52182e-06 -4.42168e-06
-7.63112e-06 2.30319e-06 2.2834e-06 -4.97437e-06
-3.90503e-06 1.18479e-06 1.16582e-06 -5.306e-06
-8.03397e-06 2.42403e-06 2.40426e-06 -4.97438e-06
-7.83254e-06 2.36361e-06 2.34383e-06 -4.97438e-06
-1.14579e-05 3.45179e-06 3.43119e-06 -4.42168e-06
-1.08537e-05 3.2705e-06 3.24992e-06 -4.42168e-06
-3.60285e-06 1.09419e-06 1.07514e-06 -5.30596e-06
-3.8043e-06 1.15459e-06 1.13559e-06 -5.30599e-06
-1.11558e-05 3.36115e-06 3.34056e-06 -4.42168e-06
-7.22828e-06 2.18235e-06 2.16254e-06 -4.97435e-06
-3.70358e-06 1.12439e-06 1.10537e-06 -5.30598e-06
-7.63112e-06 2.30319e-06 2.2834e-06 -4.97437e-06
-7.4297e-06 2.24277e-06 2.22297e-06 -4.97436e-06
-1.08537e-05 3.2705e-06 3.24992e-06 -4.42168e-06
-1.02494e-05 3.0892e-06 3.06867e-06 -4.42167e-06
-3.40141e-06 1.03379e-06 1.0147e-06 -5.30594e-06
-3.60285e-06 1.09419e-06 1.07514e-06 -5.30596e-06
-1.05515e-05 3.17985e-06 3.1593e-06 -4.42168e-06
-6.82544e-06 2.06149e-06 2.04169e-06 -4.97433e-06
-3.50213e-06 1.06399e-06 1.04492e-06 -5.30595e-06
-7.22828e-06 2.18235e-06 2.16254e-06 -4.97435e-06
-7.02686e-06 2.12192e-06 2.10212e-06 -4.97434e-06
-1.02494e-05 3.0892e-06 3.06867e-06 -4.42167e-06
-9.64519e-06 2.90783e-06 2.88744e-06 -4.42165e-06
-3.19996e-06 9.73349e-07 9.5426e-07 -5.30595e-06
-3.40141e-06 1.03379e-06 1.0147e-06 -5.30594e-06
-9.94731e-06 2.99853e-06 2.97805e-06 -4.42167e-06
-6.42259e-06 1.94057e-06 1.92087e-06 -4.97433e-06
-3.30069e-06 1.00357e-06 9.84478e-07 -5.30594e-06
-6.82544e-06 2.06149e-06 2.04169e-06 -4.97433e-06
-6.62402e-06 2.00104e-06 1.98128e-06 -4.97433e-06
-9.64519e-06 2.90783e-06 2.88744e-06 -4.42165e-06
-9.04088e-06 2.72631e-06 2.70624e-06 -4.42161e-06
-2.99845e-06 9.12819e-07 8.93844e-07 -5.30608e-06
-3.19996e-06 9.73349e-07 9.5426e-07 -5.30595e-06
-9.34306e-06 2.8171e-06 2.79684e-06 -4.42163e-06
-6.01966e-06 1.8195e-06 1.80007e-06 -4.97437e-06
-3.09921e-06 9.43101e-07 9.24047e-07 -5.306e-06
-6.42259e-06 1.94057e-06 1.92087e-06 -4.97433e-06
-6.22114e-06 1.88006e-06 1.86046e-06 -4.97434e-06
-9.04088e-06 2.72631e-06 2.70624e-06 -4.42161e-06
-8.43634e-06 2.54441e-06 2.52511e-06 -4.4215e-06
-2.79676e-06 8.52076e-07 8.33437e-07 -5.30652e-06
-2.99845e-06 9.12819e-07 8.93844e-07 -5.30608e-06
-8.73864e-06 2.63543e-06 2.61566e-06 -4.42156e-06
-5.61646e-06 1.69805e-06 1.67932e-06 -4.97455e-06
-2.89765e-06 8.82488e-07 8.63641e-07 -5.30625e-06
-6.01966e-06 1.8195e-06 1.80007e-06 -4.97437e-06
-5.8181e-06 1.75884e-06 1.73968e-06 -4.97444e-06
-8.43634e-06 2.54441e-06 2.52511e-06 -4.4215e-06
-7.83115e-06 2.36168e-06 2.34406e-06 -4.42128e-06
-2.59472e-06 7.9086e-07 7.73082e-07 -5.30766e-06
-2.79676e-06 8.52076e-07 8.33437e-07 -5.30652e-06
-8.13388e-06 2.4532e-06 2.43458e-06 -4.4214e-06
-5.21262e-06 1.57579e-06 1.55864e-06 -4.97506e-06
-2.69579e-06 8.21548e-07 8.03246e-07 -5.30697e-06
-5.61646e-06 1.69805e-06 1.67932e-06 -4.97455e-06
-5.41465e-06 1.63706e-06 1.61897e-06 -4.97474e-06
-7.83115e-06 2.36168e-06 2.34406e-06 -4.42128e-06
-7.22465e-06 2.17724e-06 2.16318e-06 -4.42085e-06
-2.3917e-06 7.28717e-07 7.12705e-07 -5.31029e-06
-2.59472e-06 7.9086e-07 7.73082e-07 -5.30766e-06
-7.5281e-06 2.26975e-06 2.25358e-06 -4.42111e-06
-4.80736e-06 1.45192e-06 1.43804e-06 -4.97631e-06
-2.49341e-06 7.59955e-07 7.42908e-07 -5.30871e-06
-5.21262e-06 1.57579e-06 1.55864e-06 -4.97506e-06
-5.01023e-06 1.51414e-06 1.49832e-06 -4.97558e-06
-7.22465e-06 2.17724e-06 2.16318e-06 -4.42085e-06
-6.615e-06 1.98955e-06 1.98234e-06 -4.42017e-06
-2.18708e-06 6.64757e-07 6.52426e-07 -5.31585e-06
-2.3917e-06 7.28717e-07 7.12705e-07 -5.31029e-06
-6.92042e-06 2.08395e-06 2.07277e-06 -4.42054e-06
-4.39917e-06 1.32495e-06 1.31752e-06 -4.97908e-06
-2.28959e-06 6.97021e-07 6.82528e-07 -5.31258e-06
-4.80736e-06 1.45192e-06 1.43804e-06 -4.97631e-06
-4.60375e-06 1.38894e-06 1.37778e-06 -4.9774e-06
-6.615e-06 1.98955e-06 1.98234e-06 -4.42017e-06
-5.99991e-06 1.79582e-06 1.80175e-06 -4.41893e-06
-1.97867e-06 5.977e-07 5.91844e-07 -5.327e-06
-2.18708e-06 6.64757e-07 6.52426e-07 -5.31585e-06
-6.30822e-06 1.89363e-06 1.89197e-06 -4.41967e-06
-3.98538e-06 1.19257e-06 1.19692e-06 -4.98481e-06
-2.08363e-06 6.31766e-07 6.22227e-07 -5.32049e-06
-4.39917e-06 1.32495e-06 1.31752e-06 -4.97908e-06
-4.19319e-06 1.25967e-06 1.25722e-06 -4.98153e-06
-5.99991e-06 1.79582e-06 1.80175e-06 -4.41893e-06
-5.37313e-06 1.59206e-06 1.62046e-06 -4.41755e-06
-1.76492e-06 5.2522e-07 5.31302e-07 -5.34789e-06
-1.97867e-06 5.977e-07 5.91844e-07 -5.327e-06
-5.68868e-06 1.69561e-06 1.71131e-06 -4.41817e-06
-3.56128e-06 1.05087e-06 1.07589e-06 -4.99604e-06
-1.87238e-06 5.6222e-07 5.61497e-07 -5.3359e-06
-3.98538e-06 1.19257e-06 1.19692e-06 -4.98481e-06
-3.77499e-06 1.12309e-06 1.13653e-06 -4.98936e-06
-5.37313e-06 1.59206e-06 1.62046e-06 -4.41755e-06
-4.72868e-06 1.3718e-06 1.43866e-06 -4.41573e-06
-1.53963e-06 4.45255e-07 4.69018e-07 -5.38527e-06
-1.76492e-06 5.2522e-07 5.31302e-07 -5.34789e-06
-5.05317e-06 1.48425e-06 1.52954e-06 -4.4168e-06
-3.11994e-06 8.95667e-07 9.53261e-07 -5.01697e-06
-1.65458e-06 4.86501e-07 5.00607e-07 -5.36395e-06
-3.56128e-06 1.05087e-06 1.07589e-06 -4.99604e-06
-3.34326e-06 9.75433e-07 1.01478e-06 -5.00528e-06
-4.72868e-06 1.3718e-06 1.43866e-06 -4.41573e-06
-4.04992e-06 1.12959e-06 1.25157e-06 -4.41726e-06
-1.30178e-06 3.54457e-07 4.05994e-07 -5.44693e-06
-1.53963e-06 4.45255e-07 4.69018e-07 -5.38527e-06
-4.39562e-06 1.25417e-06 1.34633e-06 -4.41553e-06
-2.65101e-06 7.21422e-07 8.26965e-07 -5.05395e-06
-1.42154e-06 4.00909e-07 4.37412e-07 -5.41258e-06
-3.11994e-06 8.95667e-07 9.53261e-07 -5.01697e-06
-2.88972e-06 8.1073e-07 8.90997e-07 -5.03227e-06
-4.04992e-06 1.12959e-06 1.25157e-06 -4.41726e-06
-3.32967e-06 8.5957e-07 1.05861e-06 -4.42451e-06
-1.03996e-06 2.57194e-07 3.35473e-07 -5.54153e-06
-1.30178e-06 3.54457e-07 4.05994e-07 -5.44693e-06
-3.69385e-06 9.97017e-07 1.15579e-06 -4.42019e-06
-2.14612e-06 5.3216e-07 6.91695e-07 -5.11524e-06
-1.17603e-06 3.06839e-07 3.72509e-07 -5.48951e-06
-2.65101e-06 7.21422e-07 8.26965e-07 -5.05395e-06
-2.4033e-06 6.28659e-07 7.60561e-07 -5.08225e-06
-3.32967e-06 8.5957e-07 1.05861e-06 -4.42451e-06
-2.54168e-06 5.80554e-07 8.40481e-07 -4.45812e-06
-7.69986e-07 1.61551e-07 2.60758e-07 -5.66447e-06
-1.03996e-06 2.57194e-07 3.35473e-07 -5.54153e-06
-2.94855e-06 7.20647e-07 9.54814e-07 -4.43553e-06
-1.60077e-06 3.42771e-07 5.3914e-07 -5.20865e-06
-9.01859e-07 2.06087e-07 2.98188e-07 -5.6006e-06
-2.14612e-06 5.3216e-07 6.91695e-07 -5.11524e-06
-1.87881e-06 4.33488e-07 6.19426e-07 -5.15498e-06
-2.54168e-06 5.80554e-07 8.40481e-07 -4.45812e-06
-1.72486e-06 3.38422e-07 5.94187e-07 -4.53226e-06
-4.93297e-07 1.1918e-07 1.60336e-07 -5.78571e-06
-7.69986e-07 1.61551e-07 2.60758e-07 -5.66447e-06
-2.1276e-06 4.44257e-07 7.21433e-07 -4.48954e-06
-1.05279e-06 2.29382e-07 3.52888e-07 -5.32876e-06
-6.36436e-07 1.3191e-07 2.16225e-07 -5.7285e-06
-1.60077e-06 3.42771e-07 5.3914e-07 -5.20865e-06
-1.32206e-06 2.71666e-07 4.50169e-07 -5.27114e-06
-1.72486e-06 3.38422e-07 5.94187e-07 -4.53226e-06
-9.32176e-07 3.32645e-07 2.56942e-07 -4.69544e-06
-2.99266e-07 1.89054e-07 4.72337e-08 -5.79093e-06
-4.93297e-07 1.1918e-07 1.60336e-07 -5.78571e-06
-1.32815e-06 2.9341e-07 4.4346e-07 -4.59835e-06
-5.86485e-07 3.15735e-07 1.16036e-07 -5.41765e-06
-3.70823e-07 1.29154e-07 1.03573e-07 -5.81444e-06
-1.05279e-06 2.29382e-07 3.52888e-07 -5.32876e-06
-8.03935e-07 2.30775e-07 2.4564e-07 -5.37554e-06
-9.32176e-07 3.32645e-07 2.56942e-07 -4.69544e-06
-5.12791e-07 9.17578e-07 -1.7348e-07 -4.8188e-06
-1.95318e-07 4.90708e-07 -1.26595e-07 -5.46859e-06
-2.99266e-07 1.89054e-07 4.72337e-08 -5.79093e-06
-6.29526e-07 4.98687e-07 5.60735e-08 -4.78038e-06
-4.20004e-07 8.39894e-07 -1.79953e-07 -5.24641e-06
-2.5023e-07 3.19179e-07 -2.95495e-08 -5.68786e-06
-5.86485e-07 3.15735e-07 1.16036e-07 -5.41765e-06
-4.43991e-07 5.20276e-07 -3.26937e-08 -5.40364e-06
-5.12791e-07 9.17578e-07 -1.7348e-07 -4.8188e-06
-7.22227e-07 2.75376e-06 -8.70657e-07 -4.42575e-06
-2.862e-07 8.85004e-07 -2.56631e-07 -4.46863e-06
-1.95318e-07 4.90708e-07 -1.26595e-07 -5.46859e-06
-5.53261e-07 1.69276e-06 -4.88355e-07 -4.7486e-06
-5.38052e-07 1.79322e-06 -5.3793e-07 -4.36427e-06
-1.89114e-07 6.7397e-07 -2.07795e-07 -5.07659e-06
-4.20004e-07 8.39894e-07 -1.79953e-07 -5.24641e-06
-4.67149e-07 1.26338e-06 -3.41241e-07 -4.901e-06
-7.22227e-07 2.75376e-06 -8.70657e-07 -4.42575e-06
-1.34664e-06 4.97863e-06 -1.55657e-06 -2.3408e-06
-5.39793e-07 1.4479e-06 -3.89191e-07 -2.55564e-06
-2.862e-07 8.85004e-07 -2.56631e-07 -4.46863e-06
-9.94937e-07 3.94929e-06 -1.26615e-06 -3.65773e-06
-8.20106e-07 3.05366e-06 -9.57235e-07 -2.58415e-06
-4.23963e-07 1.14473e-06 -3.08901e-07 -3.63427e-06
-5.38052e-07 1.79322e-06 -5.3793e-07 -4.36427e-06
-6.49956e-07 2.41759e-06 -7.57557e-07 -3.61094e-06
-3.50178e-05 0 1.50076e-05 2.00324e-05
-3.56349e-05 4.86247e-06 1.31882e-05 6.63772e-06
3.55683e-05 -4.87756e-06 -1.31532e-05 6.63348e-06
3.49436e-05 0 -1.49758e-05 2.00226e-05
-3.41891e-05 2.06284e-06 1.37684e-05 1.2635e-05
-3.39588e-08 -7.9867e-09 1.79766e-08 7.52237e-06
3.41191e-05 -2.07115e-06 -1.37348e-05 1.26291e-05
-3.83539e-08 0 1.64374e-08 2.04433e-05
-3.56687e-08 -4.91993e-09 1.73951e-08 1.41436e-05
-3.56349e-05 4.86247e-06 1.31882e-05 6.63772e-06
-3.84205e-05 8.00819e-06 1.30339e-05 -1.3835e-06
3.83595e-05 -8.03342e-06 -1.29969e-05 -1.38633e-06
3.55683e-05 -4.87756e-06 -1.31532e-05 6.63348e-06
-3.76229e-05 6.74466e-06 1.32335e-05 1.92114e-06
-3.11007e-08 -1.29698e-08 1.88874e-08 -9.63808e-07
3.75591e-05 -6.76529e-06 -1.31974e-05 1.91767e-06
-3.39588e-08 -7.9867e-09 1.79766e-08 7.52237e-06
-3.2582e-08 -1.05987e-08 1.8506e-08 2.29755e-06
-3.84205e-05 8.00819e-06 1.30339e-05 -1.3835e-06
-3.92467e-05 1.03463e-05 1.23859e-05 -5.01778e-06
3.91904e-05 -1.0379e-05 -1.23477e-05 -5.01994e-06
3.83595e-05 -8.03342e-06 -1.29969e-05 -1.38633e-06
-3.87284e-05 9.25495e-06 1.26315e-05 -3.57452e-06
-2.86298e-08 -1.69661e-08 1.95411e-08 -4.89672e-06
3.86698e-05 -9.28415e-06 -1.25938e-05 -3.57698e-06
-3.11007e-08 -1.29698e-08 1.88874e-08 -9.63808e-07
-2.97485e-08 -1.50957e-08 1.92189e-08 -3.19897e-06
-3.92467e-05 1.03463e-05 1.23859e-05 -5.01778e-06
-3.96815e-05 1.1452e-05 1.20984e-05 -6.31318e-06
3.96293e-05 -1.14908e-05 -1.20594e-05 -6.31473e-06
3.91904e-05 -1.0379e-05 -1.23477e-05 -5.01994e-06
-3.96672e-05 1.10439e-05 1.22671e-05 -5.88584e-06
-2.66329e-08 -1.99422e-08 1.99608e-08 -6.41622e-06
3.9613e-05 -1.10799e-05 -1.22285e-05 -5.88767e-06
-2.86298e-08 -1.69661e-08 1.95411e-08 -4.89672e-06
-2.76289e-08 -1.85616e-08 1.97959e-08 -5.94072e-06
-3.96815e-05 1.1452e-05 1.20984e-05 -6.31318e-06
-3.94226e-05 1.18814e-05 1.18034e-05 -6.45017e-06
3.93737e-05 -1.19249e-05 -1.17638e-05 -6.45116e-06
3.96293e-05 -1.14908e-05 -1.20594e-05 -6.31473e-06
-3.95224e-05 1.17255e-05 1.19129e-05 -6.45375e-06
-2.49568e-08 -2.22654e-08 2.02381e-08 -6.67548e-06
3.9472e-05 -1.17669e-05 -1.18736e-05 -6.45505e-06
-2.66329e-08 -1.99422e-08 1.99608e-08 -6.41622e-06
-2.57251e-08 -2.1185e-08 2.01044e-08 -6.60968e-06
-3.94226e-05 1.18814e-05 1.18034e-05 -6.45017e-06
-3.9096e-05 1.18781e-05 1.16649e-05 -6.22011e-06
3.90496e-05 -1.19248e-05 -1.16249e-05 -6.22052e-06
3.93737e-05 -1.19249e-05 -1.17638e-05 -6.45116e-06
-3.93058e-05 1.19153e-05 1.17388e-05 -6.35858e-06
-2.3749e-08 -2.38387e-08 2.03947e-08 -6.45064e-06
3.92583e-05 -1.19606e-05 -1.1699e-05 -6.35925e-06
-2.49568e-08 -2.22654e-08 2.02381e-08 -6.67548e-06
-2.43064e-08 -2.31419e-08 2.0335e-08 -6.6071e-06
-3.9096e-05 1.18781e-05 1.16649e-05 -6.22011e-06
-3.86769e-05 1.17569e-05 1.15371e-05 -5.9233e-06
3.8632e-05 -1.18056e-05 -1.1497e-05 -5.92333e-06
3.90496e-05 -1.19248e-05 -1.16249e-05 -6.22052e-06
-3.88631e-05 1.18227e-05 1.15888e-05 -6.06553e-06
-2.29338e-08 -2.48134e-08 2.04631e-08 -6.13231e-06
3.88175e-05 -1.18705e-05 -1.15487e-05 -6.06574e-06
-2.3749e-08 -2.38387e-08 2.03947e-08 -6.45064e-06
-2.32918e-08 -2.43941e-08 2.04368e-08 -6.28087e-06
-3.86769e-05 1.17569e-05 1.15371e-05 -5.9233e-06
-3.83355e-05 1.16008e-05 1.14577e-05 -5.68781e-06
3.82915e-05 -1.16503e-05 -1.14176e-05 -5.6876e-06
3.8632e-05 -1.18056e-05 -1.1497e-05 -5.92333e-06
-3.85101e-05 1.16798e-05 1.14987e-05 -5.79677e-06
-2.24304e-08 -2.52676e-08 2.0442e-08 -5.86332e-06
3.84657e-05 -1.1729e-05 -1.14586e-05 -5.79666e-06
-2.29338e-08 -2.48134e-08 2.04631e-08 -6.13231e-06
-2.26539e-08 -2.50963e-08 2.04644e-08 -5.99187e-06
-3.83355e-05 1.16008e-05 1.14577e-05 -5.68781e-06
-3.8023e-05 1.14653e-05 1.13819e-05 -5.52495e-06
3.79797e-05 -1.15151e-05 -1.1342e-05 -5.52467e-06
3.82915e-05 -1.16503e-05 -1.14176e-05 -5.6876e-06
-3.81681e-05 1.15295e-05 1.14165e-05 -5.59682e-06
-2.21117e-08 -2.53732e-08 2.03507e-08 -5.6762e-06
3.81244e-05 -1.15792e-05 -1.13765e-05 -5.59657e-06
-2.24304e-08 -2.52676e-08 2.0442e-08 -5.86332e-06
-2.22534e-08 -2.53555e-08 2.04038e-08 -5.75757e-06
-3.8023e-05 1.14653e-05 1.13819e-05 -5.52495e-06
-3.77612e-05 1.13516e-05 1.13184e-05 -5.42497e-06
3.77183e-05 -1.1401e-05 -1.12788e-05 -5.4247e-06
3.79797e-05 -1.15151e-05 -1.1342e-05 -5.52467e-06
-3.78907e-05 1.14059e-05 1.13506e-05 -5.46865e-06
-2.18892e-08 -2.52428e-08 2.01994e-08 -5.55835e-06
3.78476e-05 -1.14555e-05 -1.13109e-05 -5.46837e-06
-2.21117e-08 -2.53732e-08 2.03507e-08 -5.6762e-06
-2.1994e-08 -2.53308e-08 2.02821e-08 -5.61077e-06
-3.77612e-05 1.13516e-05 1.13184e-05 -5.42497e-06
-3.75212e-05 1.12587e-05 1.12553e-05 -5.36689e-06
3.74786e-05 -1.13077e-05 -1.12161e-05 -5.36669e-06
3.77183e-05 -1.1401e-05 -1.12788e-05 -5.4247e-06
-3.76372e-05 1.13029e-05 1.12861e-05 -5.3916e-06
-2.16956e-08 -2.49819e-08 2.00046e-08 -5.48992e-06
3.75944e-05 -1.13521e-05 -1.12467e-05 -5.39137e-06
-2.18892e-08 -2.52428e-08 2.01994e-08 -5.55835e-06
-2.17916e-08 -2.51238e-08 2.01066e-08 -5.51874e-06
-3.75212e-05 1.12587e-05 1.12553e-05 -5.36689e-06
-3.73007e-05 1.11794e-05 1.11948e-05 -5.33548e-06
3.72586e-05 -1.12277e-05 -1.11561e-05 -5.33536e-06
3.74786e-05 -1.13077e-05 -1.12161e-05 -5.36669e-06
-3.741e-05 1.12177e-05 1.12253e-05 -5.34874e-06
-2.14941e-08 -2.46535e-08 1.97775e-08 -5.45227e-06
3.73677e-05 -1.12664e-05 -1.11863e-05 -5.34858e-06
-2.16956e-08 -2.49819e-08 2.00046e-08 -5.48992e-06
-2.15976e-08 -2.4823e-08 1.98946e-08 -5.46838e-06
-3.73007e-05 1.11794e-05 1.11948e-05 -5.33548e-06
-3.70885e-05 1.11089e-05 1.11341e-05 -5.31925e-06
3.70469e-05 -1.11565e-05 -1.10959e-05 -5.31921e-06
3.72586e-05 -1.12277e-05 -1.11561e-05 -5.33536e-06
-3.71934e-05 1.11433e-05 1.11643e-05 -5.32595e-06
-2.12653e-08 -2.43021e-08 1.95289e-08 -5.43284e-06
3.71515e-05 -1.11912e-05 -1.11258e-05 -5.32588e-06
-2.14941e-08 -2.46535e-08 1.97775e-08 -5.45227e-06
-2.13837e-08 -2.44788e-08 1.96554e-08 -5.44079e-06
-3.70885e-05 1.11089e-05 1.11341e-05 -5.31925e-06
-3.68822e-05 1.10434e-05 1.10738e-05 -5.31141e-06
3.68411e-05 -1.10903e-05 -1.1036e-05 -5.31145e-06
3.70469e-05 -1.11565e-05 -1.10959e-05 -5.31921e-06
-3.69851e-05 1.10757e-05 1.1104e-05 -5.31461e-06
-2.10031e-08 -2.39507e-08 1.92659e-08 -5.42331e-06
3.69437e-05 -1.1123e-05 -1.1066e-05 -5.31461e-06
-2.12653e-08 -2.43021e-08 1.95289e-08 -5.43284e-06
-2.11385e-08 -2.41254e-08 1.93988e-08 -5.42724e-06
-3.68822e-05 1.10434e-05 1.10738e-05 -5.31141e-06
-3.66782e-05 1.09807e-05 1.10132e-05 -5.30785e-06
3.66377e-05 -1.1027e-05 -1.09761e-05 -5.30795e-06
3.68411e-05 -1.10903e-05 -1.1036e-05 -5.31145e-06
-3.67799e-05 1.10118e-05 1.10435e-05 -5.30926e-06
-2.07082e-08 -2.36118e-08 1.89943e-08 -5.41898e-06
3.67391e-05 -1.10584e-05 -1.1006e-05 -5.30933e-06
-2.10031e-08 -2.39507e-08 1.92659e-08 -5.42331e-06
-2.08595e-08 -2.37793e-08 1.91309e-08 -5.42068e-06
-3.66782e-05 1.09807e-05 1.10132e-05 -5.30785e-06
-3.64757e-05 1.09194e-05 1.09527e-05 -5.30639e-06
3.64358e-05 -1.0965e-05 -1.09161e-05 -5.30654e-06
3.66377e-05 -1.1027e-05 -1.09761e-05 -5.30795e-06
-3.65769e-05 1.09499e-05 1.0983e-05 -5.30695e-06
-2.0385e-08 -2.32897e-08 1.87177e-08 -5.41718e-06
3.65367e-05 -1.09959e-05 -1.09461e-05 -5.30708e-06
-2.07082e-08 -2.36118e-08 1.89943e-08 -5.41898e-06
-2.05498e-08 -2.34486e-08 1.88565e-08 -5.41788e-06
-3.64757e-05 1.09194e-05 1.09527e-05 -5.30639e-06
-3.62736e-05 1.08587e-05 1.08921e-05 -5.30588e-06
3.62345e-05 -1.09038e-05 -1.0856e-05 -5.30607e-06
3.64358e-05 -1.0965e-05 -1.09161e-05 -5.30654e-06
-3.63746e-05 1.0889e-05 1.09224e-05 -5.30606e-06
-2.0039e-08 -2.29847e-08 1.84387e-08 -5.41655e-06
3.63351e-05 -1.09343e-05 -1.0886e-05 -5.30623e-06
-2.0385e-08 -2.32897e-08 1.87177e-08 -5.41718e-06
-2.02145e-08 -2.31352e-08 1.85784e-08 -5.41677e-06
-3.62736e-05 1.08587e-05 1.08921e-05 -5.30588e-06
-3.60718e-05 1.07984e-05 1.08315e-05 -5.30577e-06
3.60334e-05 -1.08429e-05 -1.07959e-05 -5.30598e-06
3.62345e-05 -1.09038e-05 -1.0856e-05 -5.30607e-06
-3.61727e-05 1.08285e-05 1.08618e-05 -5.3058e-06
-1.96757e-08 -2.26948e-08 1.81588e-08 -5.4164e-06
3.61339e-05 -1.08733e-05 -1.0826e-05 -5.306e-06
-2.0039e-08 -2.29847e-08 1.84387e-08 -5.41655e-06
-1.98592e-08 -2.28381e-08 1.82988e-08 -5.41644e-06
-3.60718e-05 1.07984e-05 1.08315e-05 -5.30577e-06
-3.58701e-05 1.07382e-05 1.07708e-05 -5.30579e-06
3.58324e-05 -1.07821e-05 -1.07358e-05 -5.30602e-06
3.60334e-05 -1.08429e-05 -1.07959e-05 -5.30598e-06
-3.59709e-05 1.07683e-05 1.08011e-05 -5.30577e-06
-1.92998e-08 -2.24172e-08 1.78787e-08 -5.41642e-06
3.59329e-05 -1.08125e-05 -1.07659e-05 -5.30599e-06
-1.96757e-08 -2.26948e-08 1.81588e-08 -5.4164e-06
-1.9489e-08 -2.25547e-08 1.80187e-08 -5.4164e-06
-3.58701e-05 1.07382e-05 1.07708e-05 -5.30579e-06
-3.56683e-05 1.0678e-05 1.07101e-05 -5.30585e-06
3.56314e-05 -1.07214e-05 -1.06757e-05 -5.30609e-06
3.58324e-05 -1.07821e-05 -1.07358e-05 -5.30602e-06
-3.57692e-05 1.07081e-05 1.07405e-05 -5.30582e-06
-1.89152e-08 -2.21492e-08 1.7599e-08 -5.41649e-06
3.57319e-05 -1.07518e-05 -1.07058e-05 -5.30606e-06
-1.92998e-08 -2.24172e-08 1.78787e-08 -5.41642e-06
-1.91084e-08 -2.22822e-08 1.77388e-08 -5.41646e-06
-3.56683e-05 1.0678e-05 1.07101e-05 -5.30585e-06
-3.54666e-05 1.06178e-05 1.06495e-05 -5.3059e-06
3.54304e-05 -1.06607e-05 -1.06156e-05 -5.30615e-06
3.56314e-05 -1.07214e-05 -1.06757e-05 -5.30609e-06
-3.55674e-05 1.06479e-05 1.06798e-05 -5.30588e-06
-1.8525e-08 -2.18882e-08 1.73199e-08 -5.41655e-06
3.55309e-05 -1.06911e-05 -1.06456e-05 -5.30612e-06
-1.89152e-08 -2.21492e-08 1.7599e-08 -5.41649e-06
-1.87207e-08 -2.2018e-08 1.74594e-08 -5.41652e-06
-3.54666e-05 1.06178e-05 1.06495e-05 -5.3059e-06
-3.52648e-05 1.05576e-05 1.05888e-05 -5.30594e-06
3.52294e-05 -1.06e-05 -1.05554e-05 -5.30619e-06
3.54304e-05 -1.06607e-05 -1.06156e-05 -5.30615e-06
-3.53657e-05 1.05877e-05 1.06191e-05 -5.30592e-06
-1.81313e-08 -2.16321e-08 1.70415e-08 -5.4166e-06
3.53299e-05 -1.06304e-05 -1.05855e-05 -5.30617e-06
-1.8525e-08 -2.18882e-08 1.73199e-08 -5.41655e-06
-1.83285e-08 -2.17597e-08 1.71806e-08 -5.41658e-06
-3.52648e-05 1.05576e-05 1.05888e-05 -5.30594e-06
-3.5063e-05 1.04975e-05 1.05281e-05 -5.30597e-06
3.50284e-05 -1.05394e-05 -1.04953e-05 -5.30621e-06
3.52294e-05 -1.06e-05 -1.05554e-05 -5.30619e-06
-3.51639e-05 1.05276e-05 1.05584e-05 -5.30595e-06
-1.77357e-08 -2.13794e-08 1.67636e-08 -5.41663e-06
3.51289e-05 -1.05697e-05 -1.05254e-05 -5.3062e-06
-1.81313e-08 -2.16321e-08 1.70415e-08 -5.4166e-06
-1.79337e-08 -2.15054e-08 1.69025e-08 -5.41661e-06
-3.5063e-05 1.04975e-05 1.05281e-05 -5.30597e-06
-3.48612e-05 1.04373e-05 1.04674e-05 -5.30598e-06
3.48274e-05 -1.04787e-05 -1.04352e-05 -5.30623e-06
3.50284e-05 -1.05394e-05 -1.04953e-05 -5.30621e-06
-3.49621e-05 1.04674e-05 1.04977e-05 -5.30597e-06
-1.73392e-08 -2.11289e-08 1.64863e-08 -5.41664e-06
3.49279e-05 -1.0509e-05 -1.04652e-05 -5.30622e-06
-1.77357e-08 -2.13794e-08 1.67636e-08 -5.41663e-06
-1.75375e-08 -2.1254e-08 1.66249e-08 -5.41664e-06
-3.48612e-05 1.04373e-05 1.04674e-05 -5.30598e-06
-3.46594e-05 1.03771e-05 1.04067e-05 -5.30599e-06
3.46263e-05 -1.0418e-05 -1.0375e-05 -5.30624e-06
3.48274e-05 -1.04787e-05 -1.04352e-05 -5.30623e-06
-3.47603e-05 1.04072e-05 1.04371e-05 -5.30598e-06
-1.69427e-08 -2.08797e-08 1.62096e-08 -5.41665e-06
3.47269e-05 -1.04483e-05 -1.04051e-05 -5.30623e-06
-1.73392e-08 -2.11289e-08 1.64863e-08 -5.41664e-06
-1.71409e-08 -2.10042e-08 1.63479e-08 -5.41665e-06
-3.46594e-05 1.03771e-05 1.04067e-05 -5.30599e-06
-3.44576e-05 1.03169e-05 1.0346e-05 -5.30599e-06
3.44253e-05 -1.03573e-05 -1.03149e-05 -5.30624e-06
3.46263e-05 -1.0418e-05 -1.0375e-05 -5.30624e-06
-3.45585e-05 1.0347e-05 1.03764e-05 -5.30599e-06
-1.65464e-08 -2.06312e-08 1.59333e-08 -5.41666e-06
3.45258e-05 -1.03876e-05 -1.03449e-05 -5.30624e-06
-1.69427e-08 -2.08797e-08 1.62096e-08 -5.41665e-06
-1.67445e-08 -2.07554e-08 1.60714e-08 -5.41666e-06
-3.44576e-05 1.03169e-05 1.0346e-05 -5.30599e-06
-3.42558e-05 1.02566e-05 1.02853e-05 -5.306e-06
3.42243e-05 -1.02966e-05 -1.02547e-05 -5.30624e-06
3.44253e-05 -1.03573e-05 -1.03149e-05 -5.30624e-06
-3.43567e-05 1.02868e-05 1.03157e-05 -5.30599e-06
-1.61508e-08 -2.0383e-08 1.56574e-08 -5.41666e-06
3.43248e-05 -1.03269e-05 -1.02848e-05 -5.30624e-06
-1.65464e-08 -2.06312e-08 1.59333e-08 -5.41666e-06
-1.63485e-08 -2.05071e-08 1.57953e-08 -5.41666e-06
-3.42558e-05 1.02566e-05 1.02853e-05 -5.306e-06
-3.4054e-05 1.01964e-05 1.02247e-05 -5.306e-06
3.40233e-05 -1.02359e-05 -1.01946e-05 -5.30624e-06
3.42243e-05 -1.02966e-05 -1.02547e-05 -5.30624e-06
-3.41549e-05 1.02265e-05 1.0255e-05 -5.306e-06
-1.5756e-08 -2.01351e-08 1.53819e-08 -5.41666e-06
3.41238e-05 -1.02662e-05 -1.02247e-05 -5.30624e-06
-1.61508e-08 -2.0383e-08 1.56574e-08 -5.41666e-06
-1.59533e-08 -2.0259e-08 1.55196e-08 -5.41666e-06
-3.4054e-05 1.01964e-05 1.02247e-05 -5.306e-06
-3.38522e-05 1.01362e-05 1.0164e-05 -5.306e-06
3.38223e-05 -1.01752e-05 -1.01345e-05 -5.30624e-06
3.40233e-05 -1.02359e-05 -1.01946e-05 -5.30624e-06
-3.39531e-05 1.01663e-05 1.01943e-05 -5.306e-06
-1.5362e-08 -1.98871e-08 1.51067e-08 -5.41666e-06
3.39228e-05 -1.02056e-05 -1.01645e-05 -5.30624e-06
-1.5756e-08 -2.01351e-08 1.53819e-08 -5.41666e-06
-1.55589e-08 -2.00111e-08 1.52443e-08 -5.41666e-06
-3.38522e-05 1.01362e-05 1.0164e-05 -5.306e-06
-3.36504e-05 1.0076e-05 1.01033e-05 -5.306e-06
3.36212e-05 -1.01145e-05 -1.00743e-05 -5.30624e-06
3.38223e-05 -1.01752e-05 -1.01345e-05 -5.30624e-06
-3.37513e-05 1.01061e-05 1.01336e-05 -5.306e-06
-1.49689e-08 -1.96391e-08 1.4832e-08 -5.41666e-06
3.37217e-05 -1.01449e-05 -1.01044e-05 -5.30624e-06
-1.5362e-08 -1.98871e-08 1.51067e-08 -5.41666e-06
-1.51653e-08 -1.97631e-08 1.49693e-08 -5.41666e-06
-3.36504e-05 1.0076e-05 1.01033e-05 -5.306e-06
-3.34486e-05 1.00158e-05 1.00426e-05 -5.306e-06
3.34202e-05 -1.00538e-05 -1.00142e-05 -5.30624e-06
3.36212e-05 -1.01145e-05 -1.00743e-05 -5.30624e-06
-3.35495e-05 1.00459e-05 1.0073e-05 -5.306e-06
-1.45767e-08 -1.9391e-08 1.45576e-08 -5.41666e-06
3.35207e-05 -1.00842e-05 -1.00442e-05 -5.30624e-06
-1.49689e-08 -1.96391e-08 1.4832e-08 -5.41666e-06
-1.47727e-08 -1.9515e-08 1.46947e-08 -5.41666e-06
-3.34486e-05 1.00158e-05 1.00426e-05 -5.306e-06
-3.32468e-05 9.95561e-06 9.98193e-06 -5.306e-06
3.32192e-05 -9.99313e-06 -9.95402e-06 -5.30624e-06
3.34202e-05 -1.00538e-05 -1.00142e-05 -5.30624e-06
-3.33477e-05 9.98572e-06 1.00123e-05 -5.306e-06
-1.41855e-08 -1.91428e-08 1.42836e-08 -5.41666e-06
3.33197e-05 -1.00235e-05 -9.98409e-06 -5.30624e-06
-1.45767e-08 -1.9391e-08 1.45576e-08 -5.41666e-06
-1.4381e-08 -1.92669e-08 1.44205e-08 -5.41666e-06
-3.32468e-05 9.95561e-06 9.98193e-06 -5.306e-06
-3.3045e-05 9.8954e-06 9.92125e-06 -5.306e-06
3.30182e-05 -9.93243e-06 -9.89388e-06 -5.30623e-06
3.32192e-05 -9.99313e-06 -9.95402e-06 -5.30624e-06
-3.31459e-05 9.92551e-06 9.95159e-06 -5.306e-06
-1.37953e-08 -1.88947e-08 1.401e-08 -5.41666e-06
3.31187e-05 -9.96278e-06 -9.92395e-06 -5.30624e-06
-1.41855e-08 -1.91428e-08 1.42836e-08 -5.41666e-06
-1.39903e-08 -1.90188e-08 1.41467e-08 -5.41666e-06
-3.3045e-05 9.8954e-06 9.92125e-06 -5.306e-06
-3.28432e-05 9.8352e-06 9.86056e-06 -5.306e-06
3.28171e-05 -9.87174e-06 -9.83374e-06 -5.30623e-06
3.30182e-05 -9.93243e-06 -9.89388e-06 -5.30623e-06
-3.29441e-05 9.8653e-06 9.8909e-06 -5.306e-06
-1.3406e-08 -1.86465e-08 1.37368e-08 -5.41666e-06
3.29176e-05 -9.90208e-06 -9.86381e-06 -5.30623e-06
-1.37953e-08 -1.88947e-08 1.401e-08 -5.41666e-06
-1.36005e-08 -1.87706e-08 1.38733e-08 -5.41666e-06
-3.28432e-05 9.8352e-06 9.86056e-06 -5.306e-06
-3.26414e-05 9.77499e-06 9.79988e-06 -5.306e-06
3.26161e-05 -9.81104e-06 -9.77359e-06 -5.30623e-06
3.28171e-05 -9.87174e-06 -9.83374e-06 -5.30623e-06
-3.27423e-05 9.80509e-06 9.83022e-06 -5.306e-06
-1.30177e-08 -1.83984e-08 1.3464e-08 -5.41666e-06
3.27166e-05 -9.84139e-06 -9.80367e-06 -5.30623e-06
-1.3406e-08 -1.86465e-08 1.37368e-08 -5.41666e-06
-1.32117e-08 -1.85224e-08 1.36004e-08 -5.41666e-06
-3.26414e-05 9.77499e-06 9.79988e-06 -5.306e-06
-3.24396e-05 9.71478e-06 9.7392e-06 -5.306e-06
3.24151e-05 -9.75035e-06 -9.71345e-06 -5.30623e-06
3.26161e-05 -9.81104e-06 -9.77359e-06 -5.30623e-06
-3.25405e-05 9.74489e-06 9.76954e-06 -5.306e-06
-1.26304e-08 -1.81503e-08 1.31917e-08 -5.41666e-06
3.25156e-05 -9.7807e-06 -9.74352e-06 -5.30623e-06
-1.30177e-08 -1.83984e-08 1.3464e-08 -5.41666e-06
-1.2824e-08 -1.82743e-08 1.33278e-08 -5.41666e-06
-3.24396e-05 9.71478e-06 9.7392e-06 -5.306e-06
-3.22378e-05 9.65458e-06 9.67852e-06 -5.306e-06
3.2214e-05 -9.68966e-06 -9.6533e-06 -5.30623e-06
3.24151e-05 -9.75035e-06 -9.71345e-06 -5.30623e-06
-3.23387e-05 9.68468e-06 9.70886e-06 -5.306e-06
-1.22441e-08 -1.79023e-08 1.29199e-08 -5.41666e-06
3.23145e-05 -9.72e-06 -9.68338e-06 -5.30623e-06
-1.26304e-08 -1.81503e-08 1.31917e-08 -5.41666e-06
-1.24372e-08 -1.80263e-08 1.30558e-08 -5.41666e-06
-3.22378e-05 9.65458e-06 9.67852e-06 -5.306e-06
-3.2036e-05 9.59437e-06 9.61784e-06 -5.306e-06
3.2013e-05 -9.62896e-06 -9.59316e-06 -5.30623e-06
3.2214e-05 -9.68966e-06 -9.6533e-06 -5.30623e-06
-3.21369e-05 9.62447e-06 9.64818e-06 -5.306e-06
-1.18589e-08 -1.76545e-08 1.26486e-08 -5.41666e-06
3.21135e-05 -9.65931e-06 -9.62323e-06 -5.30623e-06
-1.22441e-08 -1.79023e-08 1.29199e-08 -5.41666e-06
-1.20514e-08 -1.77784e-08 1.27842e-08 -5.41666e-06
-3.2036e-05 9.59437e-06 9.61784e-06 -5.306e-06
-3.18342e-05 9.53416e-06 9.55716e-06 -5.306e-06
3.1812e-05 -9.56827e-06 -9.53301e-06 -5.30623e-06
3.2013e-05 -9.62896e-06 -9.59316e-06 -5.30623e-06
-3.19351e-05 9.56427e-06 9.5875e-06 -5.306e-06
-1.14747e-08 -1.74069e-08 1.23778e-08 -5.41666e-06
3.19125e-05 -9.59861e-06 -9.56309e-06 -5.30623e-06
-1.18589e-08 -1.76545e-08 1.26486e-08 -5.41666e-06
-1.16667e-08 -1.75307e-08 1.25131e-08 -5.41666e-06
-3.18342e-05 9.53416e-06 9.55716e-06 -5.306e-06
-3.16324e-05 9.47395e-06 9.49648e-06 -5.306e-06
3.16109e-05 -9.50757e-06 -9.47287e-06 -5.30623e-06
3.1812e-05 -9.56827e-06 -9.53301e-06 -5.30623e-06
-3.17333e-05 9.50406e-06 9.52682e-06 -5.306e-06
-1.10915e-08 -1.71594e-08 1.21076e-08 -5.41666e-06
3.17114e-05 -9.53792e-06 -9.50294e-06 -5.30623e-06
-1.14747e-08 -1.74069e-08 1.23778e-08 -5.41666e-06
-1.1283e-08 -1.72831e-08 1.22426e-08 -5.41666e-06
-3.16324e-05 9.47395e-06 9.49648e-06 -5.306e-06
-3.14306e-05 9.41375e-06 9.4358e-06 -5.306e-06
3.14099e-05 -9.44688e-06 -9.41272e-06 -5.30623e-06
3.16109e-05 -9.50757e-06 -9.47287e-06 -5.30623e-06
-3.15315e-05 9.44385e-06 9.46614e-06 -5.306e-06
-1.07095e-08 -1.69122e-08 1.18379e-08 -5.41666e-06
3.15104e-05 -9.47723e-06 -9.44279e-06 -5.30623e-06
-1.10915e-08 -1.71594e-08 1.21076e-08 -5.41666e-06
-1.09004e-08 -1.70358e-08 1.19726e-08 -5.41666e-06
-3.14306e-05 9.41375e-06 9.4358e-06 -5.306e-06
-3.12288e-05 9.35354e-06 9.37513e-06 -5.306e-06
3.12089e-05 -9.38619e-06 -9.35257e-06 -5.30623e-06
3.14099e-05 -9.44688e-06 -9.41272e-06 -5.30623e-06
-3.13297e-05 9.38364e-06 9.40546e-06 -5.306e-06
-1.03286e-08 -1.66652e-08 1.15688e-08 -5.41666e-06
3.13094e-05 -9.41653e-06 -9.38265e-06 -5.30623e-06
-1.07095e-08 -1.69122e-08 1.18379e-08 -5.41666e-06
-1.05189e-08 -1.67887e-08 1.17032e-08 -5.41666e-06
-3.12288e-05 9.35354e-06 9.37513e-06 -5.306e-06
-3.1027e-05 9.29333e-06 9.31445e-06 -5.306e-06
3.10078e-05 -9.32549e-06 -9.29242e-06 -5.30622e-06
3.12089e-05 -9.38619e-06 -9.35257e-06 -5.30623e-06
-3.11279e-05 9.32343e-06 9.34479e-06 -5.306e-06
-9.94883e-09 -1.64185e-08 1.13003e-08 -5.41666e-06
3.11083e-05 -9.35584e-06 -9.3225e-06 -5.30622e-06
-1.03286e-08 -1.66652e-08 1.15688e-08 -5.41666e-06
-1.01386e-08 -1.65418e-08 1.14345e-08 -5.41666e-06
-3.1027e-05 9.29333e-06 9.31445e-06 -5.306e-06
-3.08253e-05 9.23312e-06 9.25377e-06 -5.30601e-06
3.08068e-05 -9.2648e-06 -9.23228e-06 -5.30622e-06
3.10078e-05 -9.32549e-06 -9.29242e-06 -5.30622e-06
-3.09261e-05 9.26323e-06 9.28411e-06 -5.306e-06
-9.57023e-09 -1.61721e-08 1.10324e-08 -5.41666e-06
3.09073e-05 -9.29515e-06 -9.26235e-06 -5.30622e-06
-9.94883e-09 -1.64185e-08 1.13003e-08 -5.41666e-06
-9.75938e-09 -1.62953e-08 1.11663e-08 -5.41666e-06
-3.08253e-05 9.23312e-06 9.25377e-06 -5.30601e-06
-3.06235e-05 9.17291e-06 9.19309e-06 -5.30601e-06
3.06057e-05 -9.20411e-06 -9.17213e-06 -5.30622e-06
3.08068e-05 -9.2648e-06 -9.23228e-06 -5.30622e-06
-3.07244e-05 9.20302e-06 9.22343e-06 -5.30601e-06
-9.19282e-09 -1.59261e-08 1.07652e-08 -5.41666e-06
3.07063e-05 -9.23446e-06 -9.2022e-06 -5.30622e-06
-9.57023e-09 -1.61721e-08 1.10324e-08 -5.41666e-06
-9.38137e-09 -1.60491e-08 1.08988e-08 -5.41666e-06
-3.06235e-05 9.17291e-06 9.19309e-06 -5.30601e-06
-3.04217e-05 9.1127e-06 9.13242e-06 -5.30601e-06
3.04047e-05 -9.14342e-06 -9.11198e-06 -5.30622e-06
3.06057e-05 -9.20411e-06 -9.17213e-06 -5.30622e-06
-3.05226e-05 9.14281e-06 9.16276e-06 -5.30601e-06
-8.81664e-09 -1.56804e-08 1.04987e-08 -5.41666e-06
3.05052e-05 -9.17376e-06 -9.14205e-06 -5.30622e-06
-9.19282e-09 -1.59261e-08 1.07652e-08 -5.41666e-06
-9.00458e-09 -1.58032e-08 1.06319e-08 -5.41666e-06
-3.04217e-05 9.1127e-06 9.13242e-06 -5.30601e-06
-3.02199e-05 9.05249e-06 9.07174e-06 -5.30601e-06
3.02037e-05 -9.08273e-06 -9.05183e-06 -5.30622e-06
3.04047e-05 -9.14342e-06 -9.11198e-06 -5.30622e-06
-3.03208e-05 9.0826e-06 9.10208e-06 -5.30601e-06
-8.4417e-09 -1.54351e-08 1.02329e-08 -5.41666e-06
3.03042e-05 -9.11307e-06 -9.0819e-06 -5.30622e-06
-8.81664e-09 -1.56804e-08 1.04987e-08 -5.41666e-06
-8.62901e-09 -1.55577e-08 1.03657e-08 -5.41666e-06
-3.02199e-05 9.05249e-06 9.07174e-06 -5.30601e-06
-3.00181e-05 8.99228e-06 9.01107e-06 -5.30601e-06
3.00026e-05 -9.02203e-06 -8.99168e-06 -5.30622e-06
3.02037e-05 -9.08273e-06 -9.05183e-06 -5.30622e-06
-3.0119e-05 9.02239e-06 9.04141e-06 -5.30601e-06
-8.06802e-09 -1.51902e-08 9.9678e-09 -5.41666e-06
3.01031e-05 -9.05238e-06 -9.02175e-06 -5.30622e-06
-8.4417e-09 -1.54351e-08 1.02329e-08 -5.41666e-06
-8.2547e-09 -1.53126e-08 1.01003e-08 -5.41666e-06
-3.00181e-05 8.99228e-06 9.01107e-06 -5.30601e-06
-2.98163e-05 8.93207e-06 8.9504e-06 -5.30601e-06
2.98016e-05 -8.96134e-06 -8.93152e-06 -5.30622e-06
3.00026e-05 -9.02203e-06 -8.99168e-06 -5.30622e-06
-2.99172e-05 8.96218e-06 8.98073e-06 -5.30601e-06
-7.69565e-09 -1.49457e-08 9.70343e-09 -5.41666e-06
2.99021e-05 -8.99169e-06 -8.9616e-06 -5.30622e-06
-8.06802e-09 -1.51902e-08 9.9678e-09 -5.41666e-06
-7.88168e-09 -1.50679e-08 9.83552e-09 -5.41666e-06
-2.98163e-05 8.93207e-06 8.9504e-06 -5.30601e-06
-2.96146e-05 8.87186e-06 8.88972e-06 -5.30601e-06
2.96005e-05 -8.90065e-06 -8.87137e-06 -5.30622e-06
2.98016e-05 -8.96134e-06 -8.93152e-06 -5.30622e-06
-2.97154e-05 8.90197e-06 8.92006e-06 -5.30601e-06
-7.32459e-09 -1.47017e-08 9.43983e-09 -5.41666e-06
2.9701e-05 -8.931e-06 -8.90145e-06 -5.30622e-06
-7.69565e-09 -1.49457e-08 9.70343e-09 -5.41666e-06
-7.50995e-09 -1.48236e-08 9.57154e-09 -5.41666e-06
-2.96146e-05 8.87186e-06 8.88972e-06 -5.30601e-06
-2.94128e-05 8.81165e-06 8.82905e-06 -5.30601e-06
2.93995e-05 -8.83996e-06 -8.81122e-06 -5.30622e-06
2.96005e-05 -8.90065e-06 -8.87137e-06 -5.30622e-06
-2.95137e-05 8.84176e-06 8.85939e-06 -5.30601e-06
-6.95488e-09 -1.44581e-08 9.17701e-09 -5.41666e-06
2.95e-05 -8.87031e-06 -8.84129e-06 -5.30622e-06
-7.32459e-09 -1.47017e-08 9.43983e-09 -5.41666e-06
-7.13955e-09 -1.45799e-08 9.30832e-09 -5.41666e-06
-2.94128e-05 8.81165e-06 8.82905e-06 -5.30601e-06
-2.9211e-05 8.75144e-06 8.76838e-06 -5.30601e-06
2.91984e-05 -8.77927e-06 -8.75106e-06 -5.30621e-06
2.93995e-05 -8.83996e-06 -8.81122e-06 -5.30622e-06
-2.93119e-05 8.78155e-06 8.79872e-06 -5.30601e-06
-6.58652e-09 -1.42151e-08 8.91499e-09 -5.41665e-06
2.92989e-05 -8.80962e-06 -8.78114e-06 -5.30621e-06
-6.95488e-09 -1.44581e-08 9.17701e-09 -5.41666e-06
-6.77053e-09 -1.43366e-08 9.0459e-09 -5.41666e-06
-2.9211e-05 8.75144e-06 8.76838e-06 -5.30601e-06
-2.90092e-05 8.69123e-06 8.70771e-06 -5.30601e-06
2.89974e-05 -8.71858e-06 -8.69091e-06 -5.30621e-06
2.91984e-05 -8.77927e-06 -8.75106e-06 -5.30621e-06
-2.91101e-05 8.72133e-06 8.73805e-06 -5.30601e-06
-6.21955e-09 -1.39726e-08 8.65379e-09 -5.41665e-06
2.90979e-05 -8.74893e-06 -8.72099e-06 -5.30621e-06
-6.58653e-09 -1.42151e-08 8.91499e-09 -5.41665e-06
-6.40287e-09 -1.40938e-08 8.78429e-09 -5.41665e-06
-2.90092e-05 8.69123e-06 8.70771e-06 -5.30601e-06
-2.88074e-05 8.63101e-06 8.64704e-06 -5.30601e-06
2.87963e-05 -8.6579e-06 -8.63075e-06 -5.30621e-06
2.89974e-05 -8.71858e-06 -8.69091e-06 -5.30621e-06
-2.89083e-05 8.66112e-06 8.67738e-06 -5.30601e-06
-5.854e-09 -1.37307e-08 8.39343e-09 -5.41665e-06
2.88968e-05 -8.68824e-06 -8.66083e-06 -5.30621e-06
-6.21956e-09 -1.39726e-08 8.65379e-09 -5.41665e-06
-6.0366e-09 -1.38516e-08 8.5235e-09 -5.41665e-06
-2.88074e-05 8.63101e-06 8.64704e-06 -5.30601e-06
-2.86057e-05 8.5708e-06 8.58637e-06 -5.30601e-06
2.85953e-05 -8.59721e-06 -8.5706e-06 -5.30621e-06
2.87963e-05 -8.6579e-06 -8.63075e-06 -5.30621e-06
-2.87066e-05 8.60091e-06 8.61671e-06 -5.30601e-06
-5.4899e-09 -1.34893e-08 8.13394e-09 -5.41665e-06
2.86958e-05 -8.62755e-06 -8.60067e-06 -5.30621e-06
-5.854e-09 -1.37307e-08 8.39343e-09 -5.41665e-06
-5.67177e-09 -1.36099e-08 8.26358e-09 -5.41665e-06
-2.86057e-05 8.5708e-06 8.58637e-06 -5.30601e-06
-2.84039e-05 8.51059e-06 8.52571e-06 -5.30601e-06
2.83942e-05 -8.53652e-06 -8.51044e-06 -5.30621e-06
2.85953e-05 -8.59721e-06 -8.5706e-06 -5.30621e-06
-2.85048e-05 8.54069e-06 8.55604e-06 -5.30601e-06
-5.12724e-09 -1.32485e-08 7.87533e-09 -5.41665e-06
2.84947e-05 -8.56686e-06 -8.54052e-06 -5.30621e-06
-5.4899e-09 -1.34893e-08 8.13394e-09 -5.41665e-06
-5.30838e-09 -1.33688e-08 8.00452e-09 -5.41665e-06
-2.84039e-05 8.51059e-06 8.52571e-06 -5.30601e-06
-2.82021e-05 8.45037e-06 8.46504e-06 -5.30601e-06
2.81932e-05 -8.47583e-06 -8.45028e-06 -5.30621e-06
2.83942e-05 -8.53652e-06 -8.51044e-06 -5.30621e-06
-2.8303e-05 8.48048e-06 8.49537e-06 -5.30601e-06
-4.76607e-09 -1.30084e-08 7.61762e-09 -5.41665e-06
2.82937e-05 -8.50618e-06 -8.48036e-06 -5.30621e-06
-5.12724e-09 -1.32485e-08 7.87533e-09 -5.41665e-06
-4.94647e-09 -1.31284e-08 7.74636e-09 -5.41665e-06
-2.82021e-05 8.45037e-06 8.46504e-06 -5.30601e-06
-2.80004e-05 8.39016e-06 8.40437e-06 -5.30601e-06
2.79921e-05 -8.41515e-06 -8.39012e-06 -5.30621e-06
2.81932e-05 -8.47583e-06 -8.45028e-06 -5.30621e-06
-2.81012e-05 8.42027e-06 8.43471e-06 -5.30601e-06
-4.40641e-09 -1.27689e-08 7.36084e-09 -5.41665e-06
2.80926e-05 -8.44549e-06 -8.4202e-06 -5.30621e-06
-4.76607e-09 -1.30084e-08 7.61762e-09 -5.41665e-06
-4.58606e-09 -1.28885e-08 7.48912e-09 -5.41665e-06
-2.80004e-05 8.39016e-06 8.40437e-06 -5.30601e-06
-2.77986e-05 8.32994e-06 8.34371e-06 -5.30601e-06
2.7791e-05 -8.35446e-06 -8.32996e-06 -5.30621e-06
2.79921e-05 -8.41515e-06 -8.39012e-06 -5.30621e-06
-2.78995e-05 8.36005e-06 8.37404e-06 -5.30601e-06
-4.04828e-09 -1.253e-08 7.10499e-09 -5.41665e-06
2.78916e-05 -8.3848e-06 -8.36004e-06 -5.30621e-06
-4.40641e-09 -1.27689e-08 7.36084e-09 -5.41665e-06
-4.22715e-09 -1.26494e-08 7.23279e-09 -5.41665e-06
-2.77986e-05 8.32994e-06 8.34371e-06 -5.30601e-06
-2.75968e-05 8.26973e-06 8.28304e-06 -5.30601e-06
2.759e-05 -8.29378e-06 -8.2698e-06 -5.30621e-06
2.7791e-05 -8.35446e-06 -8.32996e-06 -5.30621e-06
-2.76977e-05 8.29983e-06 8.31338e-06 -5.30601e-06
-3.69169e-09 -1.22919e-08 6.85011e-09 -5.41665e-06
2.76905e-05 -8.32412e-06 -8.29988e-06 -5.30621e-06
-4.04828e-09 -1.253e-08 7.10499e-09 -5.41665e-06
-3.86979e-09 -1.24109e-08 6.97743e-09 -5.41665e-06
-2.75968e-05 8.26973e-06 8.28304e-06 -5.30601e-06
-2.73951e-05 8.20951e-06 8.22238e-06 -5.30601e-06
2.73889e-05 -8.23309e-06 -8.20964e-06 -5.3062e-06
2.759e-05 -8.29378e-06 -8.2698e-06 -5.30621e-06
-2.74959e-05 8.23962e-06 8.25271e-06 -5.30601e-06
-3.33669e-09 -1.20545e-08 6.5962e-09 -5.41665e-06
2.74894e-05 -8.26344e-06 -8.23972e-06 -5.3062e-06
-3.69169e-09 -1.22919e-08 6.8501e-09 -5.41665e-06
-3.51399e-09 -1.21731e-08 6.72303e-09 -5.41665e-06
-2.73951e-05 8.20951e-06 8.22238e-06 -5.30601e-06
-2.71933e-05 8.14929e-06 8.16172e-06 -5.30601e-06
2.71879e-05 -8.17241e-06 -8.14948e-06 -5.3062e-06
2.73889e-05 -8.23309e-06 -8.20964e-06 -5.3062e-06
-2.72942e-05 8.1794e-06 8.19205e-06 -5.30601e-06
-2.98327e-09 -1.18178e-08 6.3433e-09 -5.41665e-06
2.72884e-05 -8.20275e-06 -8.17956e-06 -5.3062e-06
-3.33669e-09 -1.20545e-08 6.5962e-09 -5.41665e-06
-3.15979e-09 -1.1936e-08 6.46963e-09 -5.41665e-06
-2.71933e-05 8.14929e-06 8.16172e-06 -5.30601e-06
-2.69915e-05 8.08907e-06 8.10106e-06 -5.30601e-06
2.69868e-05 -8.11173e-06 -8.08931e-06 -5.3062e-06
2.71879e-05 -8.17241e-06 -8.14948e-06 -5.3062e-06
-2.70924e-05 8.11918e-06 8.13139e-06 -5.30601e-06
-2.63148e-09 -1.15818e-08 6.09141e-09 -5.41665e-06
2.70873e-05 -8.14207e-06 -8.11939e-06 -5.3062e-06
-2.98327e-09 -1.18178e-08 6.3433e-09 -5.41665e-06
-2.80718e-09 -1.16997e-08 6.21723e-09 -5.41665e-06
-2.69915e-05 8.08907e-06 8.10106e-06 -5.30601e-06
-2.67898e-05 8.02885e-06 8.0404e-06 -5.30601e-06
2.67857e-05 -8.05104e-06 -8.02915e-06 -5.3062e-06
2.69868e-05 -8.11173e-06 -8.08931e-06 -5.3062e-06
-2.68907e-05 8.05896e-06 8.07073e-06 -5.30601e-06
-2.28133e-09 -1.13466e-08 5.84056e-09 -5.41665e-06
2.68863e-05 -8.08139e-06 -8.05923e-06 -5.3062e-06
-2.63148e-09 -1.15818e-08 6.09141e-09 -5.41665e-06
-2.4562e-09 -1.14641e-08 5.96586e-09 -5.41665e-06
-2.67898e-05 8.02885e-06 8.0404e-06 -5.30601e-06
-2.6588e-05 7.96863e-06 7.97974e-06 -5.30601e-06
2.65847e-05 -7.99036e-06 -7.96898e-06 -5.3062e-06
2.67857e-05 -8.05104e-06 -8.02915e-06 -5.3062e-06
-2.66889e-05 7.99874e-06 8.01007e-06 -5.30601e-06
-1.93284e-09 -1.11123e-08 5.59077e-09 -5.41665e-06
2.66852e-05 -8.0207e-06 -7.99906e-06 -5.3062e-06
-2.28133e-09 -1.13466e-08 5.84056e-09 -5.41665e-06
-2.10688e-09 -1.12294e-08 5.71553e-09 -5.41665e-06
-2.6588e-05 7.96863e-06 7.97974e-06 -5.30601e-06
-2.63863e-05 7.90841e-06 7.91908e-06 -5.30601e-06
2.63836e-05 -7.92968e-06 -7.90881e-06 -5.3062e-06
2.65847e-05 -7.99036e-06 -7.96898e-06 -5.3062e-06
-2.64871e-05 7.93852e-06 7.94941e-06 -5.30601e-06
-1.58604e-09 -1.08787e-08 5.34205e-09 -5.41665e-06
2.64841e-05 -7.96002e-06 -7.9389e-06 -5.3062e-06
-1.93284e-09 -1.11123e-08 5.59077e-09 -5.41665e-06
-1.75923e-09 -1.09954e-08 5.46628e-09 -5.41665e-06
-2.63863e-05 7.90841e-06 7.91908e-06 -5.30601e-06
-2.61845e-05 7.84819e-06 7.85842e-06 -5.30601e-06
2.61825e-05 -7.869e-06 -7.84865e-06 -5.3062e-06
2.63836e-05 -7.92968e-06 -7.90881e-06 -5.3062e-06
-2.62854e-05 7.8783e-06 7.88875e-06 -5.30601e-06
-1.24094e-09 -1.06461e-08 5.09442e-09 -5.41665e-06
2.6283e-05 -7.89934e-06 -7.87873e-06 -5.3062e-06
-1.58604e-09 -1.08787e-08 5.34205e-09 -5.41665e-06
-1.41328e-09 -1.07623e-08 5.2181e-09 -5.41665e-06
-2.61845e-05 7.84819e-06 7.85842e-06 -5.30601e-06
-2.59828e-05 7.78797e-06 7.79777e-06 -5.30601e-06
2.59814e-05 -7.80832e-06 -7.78848e-06 -5.3062e-06
2.61825e-05 -7.869e-06 -7.84865e-06 -5.3062e-06
-2.60836e-05 7.81808e-06 7.8281e-06 -5.30601e-06
-8.97569e-10 -1.04142e-08 4.84791e-09 -5.41665e-06
2.6082e-05 -7.83866e-06 -7.81856e-06 -5.3062e-06
-1.24094e-09 -1.06461e-08 5.09442e-09 -5.41665e-06
-1.06903e-09 -1.053e-08 4.97103e-09 -5.41665e-06
-2.59828e-05 7.78797e-06 7.79777e-06 -5.30601e-06
-2.5781e-05 7.72775e-06 7.73711e-06 -5.30601e-06
2.57804e-05 -7.74765e-06 -7.72831e-06 -5.30619e-06
2.59814e-05 -7.80832e-06 -7.78848e-06 -5.3062e-06
-2.58819e-05 7.75786e-06 7.76744e-06 -5.30601e-06
-5.55944e-10 -1.01833e-08 4.60252e-09 -5.41665e-06
2.58809e-05 -7.77799e-06 -7.75839e-06 -5.3062e-06
-8.97558e-10 -1.04142e-08 4.84791e-09 -5.41665e-06
-7.26536e-10 -1.02986e-08 4.72507e-09 -5.41665e-06
-2.5781e-05 7.72775e-06 7.73711e-06 -5.30601e-06
-2.55793e-05 7.66752e-06 7.67646e-06 -5.30601e-06
2.55793e-05 -7.68697e-06 -7.66814e-06 -5.30619e-06
2.57804e-05 -7.74765e-06 -7.72831e-06 -5.30619e-06
-2.56801e-05 7.69763e-06 7.70679e-06 -5.30601e-06
-2.16089e-10 -9.95324e-09 4.35829e-09 -5.41665e-06
2.56798e-05 -7.71731e-06 -7.69822e-06 -5.30619e-06
-5.55944e-10 -1.01833e-08 4.60252e-09 -5.41665e-06
-3.85801e-10 -1.00681e-08 4.48026e-09 -5.41665e-06
-2.55793e-05 7.66752e-06 7.67646e-06 -5.30601e-06
-2.53775e-05 7.6073e-06 7.61581e-06 -5.30601e-06
2.53782e-05 -7.62629e-06 -7.60796e-06 -5.30619e-06
2.55793e-05 -7.68697e-06 -7.66814e-06 -5.30619e-06
-2.54784e-05 7.63741e-06 7.64613e-06 -5.30601e-06
1.21975e-10 -9.72414e-09 4.11521e-09 -5.41665e-06
2.54787e-05 -7.65663e-06 -7.63805e-06 -5.30619e-06
-2.16089e-10 -9.95324e-09 4.35829e-09 -5.41665e-06
-4.68387e-11 -9.83857e-09 4.23661e-09 -5.41665e-06
-2.53775e-05 7.6073e-06 7.61581e-06 -5.30601e-06
-2.51758e-05 7.54707e-06 7.55516e-06 -5.30601e-06
2.51771e-05 -7.56562e-06 -7.54779e-06 -5.30619e-06
2.53782e-05 -7.62629e-06 -7.60796e-06 -5.30619e-06
-2.52766e-05 7.57718e-06 7.58548e-06 -5.30601e-06
4.58231e-10 -9.49598e-09 3.87332e-09 -5.41665e-06
2.52777e-05 -7.59596e-06 -7.57788e-06 -5.30619e-06
1.21975e-10 -9.72414e-09 4.11521e-09 -5.41665e-06
2.90327e-10 -9.60994e-09 3.99412e-09 -5.41665e-06
-2.51758e-05 7.54707e-06 7.55516e-06 -5.30601e-06
-2.4974e-05 7.48684e-06 7.49451e-06 -5.30601e-06
2.4976e-05 -7.50494e-06 -7.48761e-06 -5.30619e-06
2.51771e-05 -7.56562e-06 -7.54779e-06 -5.30619e-06
-2.50749e-05 7.51696e-06 7.52483e-06 -5.30601e-06
7.92658e-10 -9.2688e-09 3.63263e-09 -5.41665e-06
2.50766e-05 -7.53528e-06 -7.5177e-06 -5.30619e-06
4.58228e-10 -9.49598e-09 3.87332e-09 -5.41665e-06
6.25673e-10 -9.38227e-09 3.75283e-09 -5.41665e-06
-2.4974e-05 7.48684e-06 7.49451e-06 -5.30601e-06
-2.47723e-05 7.42661e-06 7.43386e-06 -5.30601e-06
2.4775e-05 -7.44427e-06 -7.42744e-06 -5.30619e-06
2.4976e-05 -7.50494e-06 -7.48761e-06 -5.30619e-06
-2.48732e-05 7.45673e-06 7.46418e-06 -5.30601e-06
1.12522e-09 -9.0426e-09 3.39316e-09 -5.41665e-06
2.48755e-05 -7.47461e-06 -7.45753e-06 -5.30619e-06
7.9266e-10 -9.2688e-09 3.63263e-09 -5.41665e-06
9.59178e-10 -9.15557e-09 3.51274e-09 -5.41665e-06
-2.47723e-05 7.42661e-06 7.43386e-06 -5.30601e-06
-2.45705e-05 7.36639e-06 7.37321e-06 -5.30601e-06
2.45739e-05 -7.3836e-06 -7.36726e-06 -5.30619e-06
2.4775e-05 -7.44427e-06 -7.42744e-06 -5.30619e-06
-2.46714e-05 7.3965e-06 7.40353e-06 -5.30601e-06
1.45592e-09 -8.81741e-09 3.15492e-09 -5.41664e-06
2.46744e-05 -7.41393e-06 -7.39735e-06 -5.30619e-06
1.12522e-09 -9.0426e-09 3.39316e-09 -5.41665e-06
1.2908e-09 -8.92988e-09 3.27389e-09 -5.41665e-06
-2.45705e-05 7.36639e-06 7.37321e-06 -5.30601e-06
-2.43688e-05 7.30616e-06 7.31256e-06 -5.30601e-06
2.43728e-05 -7.32293e-06 -7.30708e-06 -5.30619e-06
2.45739e-05 -7.3836e-06 -7.36726e-06 -5.30619e-06
-2.44697e-05 7.33627e-06 7.34289e-06 -5.30601e-06
1.78473e-09 -8.59326e-09 2.91794e-09 -5.41664e-06
2.44733e-05 -7.35326e-06 -7.33717e-06 -5.30619e-06
1.45592e-09 -8.81741e-09 3.15492e-09 -5.41664e-06
1.62056e-09 -8.7052e-09 3.03628e-09 -5.41664e-06
-2.43688e-05 7.30616e-06 7.31256e-06 -5.30601e-06
-2.41671e-05 7.24593e-06 7.25192e-06 -5.30601e-06
2.41717e-05 -7.26226e-06 -7.2469e-06 -5.30619e-06
2.43728e-05 -7.32293e-06 -7.30708e-06 -5.30619e-06
-2.42679e-05 7.27604e-06 7.28224e-06 -5.30601e-06
2.11163e-09 -8.37015e-09 2.68222e-09 -5.41664e-06
2.42722e-05 -7.29259e-06 -7.27699e-06 -5.30619e-06
1.78473e-09 -8.59326e-09 2.91794e-09 -5.41664e-06
1.94843e-09 -8.48157e-09 2.79992e-09 -5.41664e-06
-2.41671e-05 7.24593e-06 7.25192e-06 -5.30601e-06
-2.39653e-05 7.18569e-06 7.19127e-06 -5.30601e-06
2.39706e-05 -7.20159e-06 -7.18672e-06 -5.30618e-06
2.41717e-05 -7.26226e-06 -7.2469e-06 -5.30619e-06
-2.40662e-05 7.21581e-06 7.2216e-06 -5.30601e-06
2.43659e-09 -8.14812e-09 2.4478e-09 -5.41664e-06
2.40712e-05 -7.23192e-06 -7.21681e-06 -5.30619e-06
2.11163e-09 -8.37015e-09 2.68222e-09 -5.41664e-06
2.27434e-09 -8.259e-09 2.56485e-09 -5.41664e-06
-2.39653e-05 7.18569e-06 7.19127e-06 -5.30601e-06
-2.37636e-05 7.12546e-06 7.13063e-06 -5.30602e-06
2.37695e-05 -7.14092e-06 -7.12654e-06 -5.30618e-06
2.39706e-05 -7.20159e-06 -7.18672e-06 -5.30618e-06
-2.38645e-05 7.15558e-06 7.16095e-06 -5.30602e-06
2.75961e-09 -7.92717e-09 2.21467e-09 -5.41664e-06
2.38701e-05 -7.17125e-06 -7.15663e-06 -5.30618e-06
2.43659e-09 -8.14812e-09 2.4478e-09 -5.41664e-06
2.59834e-09 -8.03751e-09 2.33107e-09 -5.41664e-06
-2.37636e-05 7.12546e-06 7.13063e-06 -5.30602e-06
-2.35619e-05 7.06523e-06 7.06999e-06 -5.30602e-06
2.35684e-05 -7.08025e-06 -7.06636e-06 -5.30618e-06
2.37695e-05 -7.14092e-06 -7.12654e-06 -5.30618e-06
-2.36627e-05 7.09534e-06 7.10031e-06 -5.30602e-06
3.08066e-09 -7.70734e-09 1.98286e-09 -5.41664e-06
2.3669e-05 -7.11059e-06 -7.09645e-06 -5.30618e-06
2.75961e-09 -7.92717e-09 2.21467e-09 -5.41664e-06
2.92037e-09 -7.81711e-09 2.0986e-09 -5.41664e-06
-2.35619e-05 7.06523e-06 7.06999e-06 -5.30602e-06
-2.33601e-05 7.00499e-06 7.00935e-06 -5.30602e-06
2.33673e-05 -7.01959e-06 -7.00617e-06 -5.30618e-06
2.35684e-05 -7.08025e-06 -7.06636e-06 -5.30618e-06
-2.3461e-05 7.03511e-06 7.03967e-06 -5.30602e-06
3.39971e-09 -7.48863e-09 1.75239e-09 -5.41664e-06
2.34679e-05 -7.04992e-06 -7.03627e-06 -5.30618e-06
3.08065e-09 -7.70734e-09 1.98286e-09 -5.41664e-06
3.24043e-09 -7.59784e-09 1.86746e-09 -5.41664e-06
-2.33601e-05 7.00499e-06 7.00935e-06 -5.30602e-06
-2.31584e-05 6.94475e-06 6.94871e-06 -5.30602e-06
2.31662e-05 -6.95892e-06 -6.94599e-06 -5.30618e-06
2.33673e-05 -7.01959e-06 -7.00617e-06 -5.30618e-06
-2.32593e-05 6.97487e-06 6.97903e-06 -5.30602e-06
3.71675e-09 -7.27107e-09 1.52328e-09 -5.41664e-06
2.32668e-05 -6.98925e-06 -6.97608e-06 -5.30618e-06
3.3997e-09 -7.48863e-09 1.7524e-09 -5.41664e-06
3.55848e-09 -7.3797e-09 1.63767e-09 -5.41664e-06
-2.31584e-05 6.94475e-06 6.94871e-06 -5.30602e-06
-2.29567e-05 6.88452e-06 6.88807e-06 -5.30602e-06
2.29651e-05 -6.89826e-06 -6.8858e-06 -5.30618e-06
2.31662e-05 -6.95892e-06 -6.94599e-06 -5.30618e-06
-2.30576e-05 6.91464e-06 6.91839e-06 -5.30602e-06
4.03177e-09 -7.05467e-09 1.29553e-09 -5.41664e-06
2.30657e-05 -6.92859e-06 -6.91589e-06 -5.30618e-06
3.71675e-09 -7.27107e-09 1.52328e-09 -5.41664e-06
3.87451e-09 -7.16272e-09 1.40923e-09 -5.41664e-06
-2.29567e-05 6.88452e-06 6.88807e-06 -5.30602e-06
-2.2755e-05 6.82428e-06 6.82744e-06 -5.30602e-06
2.2764e-05 -6.8376e-06 -6.82561e-06 -5.30618e-06
2.29651e-05 -6.89826e-06 -6.8858e-06 -5.30618e-06
-2.28558e-05 6.8544e-06 6.85776e-06 -5.30602e-06
4.34474e-09 -6.83946e-09 1.06917e-09 -5.41664e-06
2.28646e-05 -6.86793e-06 -6.85571e-06 -5.30618e-06
4.03177e-09 -7.05467e-09 1.29553e-09 -5.41664e-06
4.18851e-09 -6.94692e-09 1.18218e-09 -5.41664e-06
-2.2755e-05 6.82428e-06 6.82744e-06 -5.30602e-06
-2.25532e-05 6.76404e-06 6.7668e-06 -5.30602e-06
2.25629e-05 -6.77693e-06 -6.76542e-06 -5.30618e-06
2.2764e-05 -6.8376e-06 -6.82561e-06 -5.30618e-06
-2.26541e-05 6.79416e-06 6.79712e-06 -5.30602e-06
4.65564e-09 -6.62545e-09 8.44203e-10 -5.41664e-06
2.26635e-05 -6.80726e-06 -6.79552e-06 -5.30618e-06
4.34474e-09 -6.83946e-09 1.06917e-09 -5.41664e-06
4.50045e-09 -6.7323e-09 9.56508e-10 -5.41664e-06
-2.25532e-05 6.76404e-06 6.7668e-06 -5.30602e-06
-2.23515e-05 6.7038e-06 6.70617e-06 -5.30602e-06
2.23618e-05 -6.71627e-06 -6.70523e-06 -5.30618e-06
2.25629e-05 -6.77693e-06 -6.76542e-06 -5.30618e-06
-2.24524e-05 6.73392e-06 6.73649e-06 -5.30602e-06
4.96447e-09 -6.41267e-09 6.20654e-10 -5.41664e-06
2.24624e-05 -6.7466e-06 -6.73533e-06 -5.30618e-06
4.65564e-09 -6.62545e-09 8.44203e-10 -5.41664e-06
4.81031e-09 -6.51891e-09 7.32257e-10 -5.41664e-06
-2.23515e-05 6.7038e-06 6.70617e-06 -5.30602e-06
-2.21498e-05 6.64356e-06 6.64554e-06 -5.30602e-06
2.21607e-05 -6.65561e-06 -6.64504e-06 -5.30617e-06
2.23618e-05 -6.71627e-06 -6.70523e-06 -5.30618e-06
-2.22507e-05 6.67368e-06 6.67585e-06 -5.30602e-06
5.27119e-09 -6.20112e-09 3.98542e-10 -5.41664e-06
2.22613e-05 -6.68594e-06 -6.67513e-06 -5.30617e-06
4.96447e-09 -6.41267e-09 6.20654e-10 -5.41664e-06
5.1181e-09 -6.30674e-09 5.09418e-10 -5.41664e-06
-2.21498e-05 6.64356e-06 6.64554e-06 -5.30602e-06
-2.19481e-05 6.58331e-06 6.58491e-06 -5.30602e-06
2.19596e-05 -6.59496e-06 -6.58484e-06 -5.30617e-06
2.21607e-05 -6.65561e-06 -6.64504e-06 -5.30617e-06
-2.2049e-05 6.61343e-06 6.61522e-06 -5.30602e-06
5.5758e-09 -5.99083e-09 1.77873e-10 -5.41664e-06
2.20601e-05 -6.62529e-06 -6.61494e-06 -5.30617e-06
5.27119e-09 -6.20112e-09 3.98542e-10 -5.41664e-06
5.42376e-09 -6.09582e-09 2.88027e-10 -5.41664e-06
-2.19481e-05 6.58331e-06 6.58491e-06 -5.30602e-06
-2.17464e-05 6.52307e-06 6.52428e-06 -5.30602e-06
2.17585e-05 -6.5343e-06 -6.52465e-06 -5.30617e-06
2.19596e-05 -6.59496e-06 -6.58484e-06 -5.30617e-06
-2.18472e-05 6.55319e-06 6.55459e-06 -5.30602e-06
5.87827e-09 -5.78182e-09 -4.13332e-11 -5.41664e-06
2.1859e-05 -6.56463e-06 -6.55474e-06 -5.30617e-06
5.5758e-09 -5.99083e-09 1.77873e-10 -5.41664e-06
5.7273e-09 -5.88617e-09 6.80838e-11 -5.41664e-06
-2.17464e-05 6.52307e-06 6.52428e-06 -5.30602e-06
-2.15447e-05 6.46282e-06 6.46365e-06 -5.30602e-06
2.15574e-05 -6.47364e-06 -6.46445e-06 -5.30617e-06
2.17585e-05 -6.5343e-06 -6.52465e-06 -5.30617e-06
-2.16455e-05 6.49294e-06 6.49397e-06 -5.30602e-06
6.17858e-09 -5.5741e-09 -2.5906e-10 -5.41664e-06
2.16579e-05 -6.50397e-06 -6.49455e-06 -5.30617e-06
5.87827e-09 -5.78182e-09 -4.1333e-11 -5.41664e-06
6.02868e-09 -5.6778e-09 -1.50379e-10 -5.41664e-06
-2.15447e-05 6.46282e-06 6.46365e-06 -5.30602e-06
-2.1343e-05 6.40257e-06 6.40303e-06 -5.30602e-06
2.13562e-05 -6.41299e-06 -6.40425e-06 -5.30617e-06
2.15574e-05 -6.47364e-06 -6.46445e-06 -5.30617e-06
-2.14438e-05 6.4327e-06 6.43334e-06 -5.30602e-06
6.47672e-09 -5.3677e-09 -4.75294e-10 -5.41664e-06
2.14568e-05 -6.44332e-06 -6.43435e-06 -5.30617e-06
6.17858e-09 -5.5741e-09 -2.5906e-10 -5.41664e-06
6.32792e-09 -5.47073e-09 -3.67366e-10 -5.41664e-06
-2.1343e-05 6.40257e-06 6.40303e-06 -5.30602e-06
-2.11413e-05 6.34233e-06 6.3424e-06 -5.30602e-06
2.11551e-05 -6.35234e-06 -6.34405e-06 -5.30617e-06
2.13562e-05 -6.41299e-06 -6.40425e-06 -5.30617e-06
-2.12421e-05 6.37245e-06 6.37271e-06 -5.30602e-06
6.77266e-09 -5.16262e-09 -6.90018e-10 -5.41664e-06
2.12557e-05 -6.38266e-06 -6.37415e-06 -5.30617e-06
6.47672e-09 -5.3677e-09 -4.75294e-10 -5.41664e-06
6.62496e-09 -5.26499e-09 -5.82846e-10 -5.41664e-06
-2.11413e-05 6.34233e-06 6.3424e-06 -5.30602e-06
-2.09396e-05 6.28208e-06 6.28178e-06 -5.30602e-06
2.0954e-05 -6.29169e-06 -6.28385e-06 -5.30617e-06
2.11551e-05 -6.35234e-06 -6.34405e-06 -5.30617e-06
-2.10404e-05 6.3122e-06 6.31209e-06 -5.30602e-06
7.0664e-09 -4.95889e-09 -9.03221e-10 -5.41664e-06
2.10546e-05 -6.32201e-06 -6.31395e-06 -5.30617e-06
6.77266e-09 -5.16262e-09 -6.90019e-10 -5.41664e-06
6.9198e-09 -5.06058e-09 -7.96809e-10 -5.41664e-06
-2.09396e-05 6.28208e-06 6.28178e-06 -5.30602e-06
-2.07379e-05 6.22182e-06 6.22116e-06 -5.30602e-06
2.07529e-05 -6.23104e-06 -6.22365e-06 -5.30617e-06
2.0954e-05 -6.29169e-06 -6.28385e-06 -5.30617e-06
-2.08387e-05 6.25195e-06 6.25147e-06 -5.30602e-06
7.35792e-09 -4.75652e-09 -1.11489e-09 -5.41664e-06
2.08534e-05 -6.26136e-06 -6.25375e-06 -5.30617e-06
7.0664e-09 -4.95888e-09 -9.03221e-10 -5.41664e-06
7.21243e-09 -4.85753e-09 -1.00924e-09 -5.41664e-06
-2.07379e-05 6.22182e-06 6.22116e-06 -5.30602e-06
-2.05362e-05 6.16157e-06 6.16054e-06 -5.30602e-06
2.05518e-05 -6.17039e-06 -6.16344e-06 -5.30616e-06
2.07529e-05 -6.23104e-06 -6.22365e-06 -5.30617e-06
-2.0637e-05 6.1917e-06 6.19085e-06 -5.30602e-06
7.6472e-09 -4.55553e-09 -1.325e-09 -5.41664e-06
2.06523e-05 -6.20071e-06 -6.19354e-06 -5.30617e-06
7.35792e-09 -4.75652e-09 -1.11489e-09 -5.41664e-06
7.50284e-09 -4.65585e-09 -1.22014e-09 -5.41664e-06
-2.05362e-05 6.16157e-06 6.16054e-06 -5.30602e-06
-2.03345e-05 6.10132e-06 6.09992e-06 -5.30602e-06
2.03506e-05 -6.10974e-06 -6.10324e-06 -5.30616e-06
2.05518e-05 -6.17039e-06 -6.16344e-06 -5.30616e-06
-2.04353e-05 6.13144e-06 6.13023e-06 -5.30602e-06
7.93422e-09 -4.35593e-09 -1.53355e-09 -5.41664e-06
2.04512e-05 -6.14006e-06 -6.13334e-06 -5.30616e-06
7.6472e-09 -4.55553e-09 -1.325e-09 -5.41664e-06
7.791e-09 -4.45555e-09 -1.42948e-09 -5.41664e-06
-2.03345e-05 6.10132e-06 6.09992e-06 -5.30602e-06
-2.01328e-05 6.04106e-06 6.0393e-06 -5.30602e-06
2.01495e-05 -6.04909e-06 -6.04303e-06 -5.30616e-06
2.03506e-05 -6.10974e-06 -6.10324e-06 -5.30616e-06
-2.02336e-05 6.07119e-06 6.06961e-06 -5.30602e-06
8.21896e-09 -4.15775e-09 -1.74052e-09 -5.41663e-06
2.02501e-05 -6.07942e-06 -6.07313e-06 -5.30616e-06
7.93422e-09 -4.35593e-09 -1.53355e-09 -5.41664e-06
8.07688e-09 -4.25667e-09 -1.63723e-09 -5.41663e-06
-2.01328e-05 6.04106e-06 6.0393e-06 -5.30602e-06
-1.99311e-05 5.98081e-06 5.97869e-06 -5.30602e-06
1.99484e-05 -5.98845e-06 -5.98282e-06 -5.30616e-06
2.01495e-05 -6.04909e-06 -6.04303e-06 -5.30616e-06
-2.00319e-05 6.01093e-06 6.009e-06 -5.30602e-06
8.50142e-09 -3.961e-09 -1.94589e-09 -5.41663e-06
2.00489e-05 -6.01877e-06 -6.01292e-06 -5.30616e-06
8.21897e-09 -4.15776e-09 -1.74052e-09 -5.41663e-06
8.36048e-09 -4.0592e-09 -1.84341e-09 -5.41663e-06
-1.99311e-05 5.98081e-06 5.97869e-06 -5.30602e-06
-1.97294e-05 5.92055e-06 5.91807e-06 -5.30602e-06
1.97472e-05 -5.92781e-06 -5.92261e-06 -5.30616e-06
1.99484e-05 -5.98845e-06 -5.98282e-06 -5.30616e-06
-1.98302e-05 5.95068e-06 5.94838e-06 -5.30602e-06
8.78156e-09 -3.7657e-09 -2.14965e-09 -5.41663e-06
1.98478e-05 -5.95813e-06 -5.95271e-06 -5.30616e-06
8.50142e-09 -3.961e-09 -1.94589e-09 -5.41663e-06
8.64178e-09 -3.86317e-09 -2.04798e-09 -5.41663e-06
-1.97294e-05 5.92055e-06 5.91807e-06 -5.30602e-06
-1.95277e-05 5.86029e-06 5.85746e-06 -5.30602e-06
1.95461e-05 -5.86716e-06 -5.8624e-06 -5.30616e-06
1.97472e-05 -5.92781e-06 -5.92261e-06 -5.30616e-06
-1.96285e-05 5.89042e-06 5.88777e-06 -5.30602e-06
9.05938e-09 -3.57186e-09 -2.3518e-09 -5.41663e-06
1.96467e-05 -5.89749e-06 -5.8925e-06 -5.30616e-06
8.78156e-09 -3.7657e-09 -2.14965e-09 -5.41663e-06
8.92076e-09 -3.66859e-09 -2.25093e-09 -5.41663e-06
-1.95277e-05 5.86029e-06 5.85746e-06 -5.30602e-06
-1.9326e-05 5.80003e-06 5.79685e-06 -5.30602e-06
1.93449e-05 -5.80652e-06 -5.80218e-06 -5.30616e-06
1.95461e-05 -5.86716e-06 -5.8624e-06 -5.30616e-06
-1.94269e-05 5.83016e-06 5.82716e-06 -5.30602e-06
9.33486e-09 -3.37949e-09 -2.5523e-09 -5.41663e-06
1.94455e-05 -5.83684e-06 -5.83229e-06 -5.30616e-06
9.05938e-09 -3.57186e-09 -2.3518e-09 -5.41663e-06
9.19741e-09 -3.47549e-09 -2.45225e-09 -5.41663e-06
-1.9326e-05 5.80003e-06 5.79685e-06 -5.30602e-06
-1.91243e-05 5.73976e-06 5.73624e-06 -5.30602e-06
1.91438e-05 -5.74589e-06 -5.74197e-06 -5.30616e-06
1.93449e-05 -5.80652e-06 -5.80218e-06 -5.30616e-06
-1.92252e-05 5.7699e-06 5.76655e-06 -5.30602e-06
9.60799e-09 -3.18862e-09 -2.75116e-09 -5.41663e-06
1.92444e-05 -5.7762e-06 -5.77207e-06 -5.30616e-06
9.33486e-09 -3.37949e-09 -2.5523e-09 -5.41663e-06
9.47172e-09 -3.28387e-09 -2.65194e-09 -5.41663e-06
-1.91243e-05 5.73976e-06 5.73624e-06 -5.30602e-06
-1.89227e-05 5.6795e-06 5.67564e-06 -5.30602e-06
1.89427e-05 -5.68525e-06 -5.68175e-06 -5.30616e-06
1.91438e-05 -5.74589e-06 -5.74197e-06 -5.30616e-06
-1.90235e-05 5.70963e-06 5.70594e-06 -5.30602e-06
9.87875e-09 -2.99926e-09 -2.94835e-09 -5.41663e-06
1.90432e-05 -5.71557e-06 -5.71186e-06 -5.30616e-06
9.60799e-09 -3.18862e-09 -2.75116e-09 -5.41663e-06
9.74367e-09 -3.09375e-09 -2.84996e-09 -5.41663e-06
-1.89227e-05 5.6795e-06 5.67564e-06 -5.30602e-06
-1.8721e-05 5.61924e-06 5.61503e-06 -5.30602e-06
1.87415e-05 -5.62461e-06 -5.62153e-06 -5.30615e-06
1.89427e-05 -5.68525e-06 -5.68175e-06 -5.30616e-06
-1.88218e-05 5.64937e-06 5.64533e-06 -5.30602e-06
1.01471e-08 -2.81143e-09 -3.14387e-09 -5.41663e-06
1.88421e-05 -5.65493e-06 -5.65164e-06 -5.30615e-06
9.87875e-09 -2.99926e-09 -2.94835e-09 -5.41663e-06
1.00132e-08 -2.90515e-09 -3.04632e-09 -5.41663e-06
-1.8721e-05 5.61924e-06 5.61503e-06 -5.30602e-06
-1.85193e-05 5.55897e-06 5.55443e-06 -5.30602e-06
1.85404e-05 -5.56398e-06 -5.56131e-06 -5.30615e-06
1.87415e-05 -5.62461e-06 -5.62153e-06 -5.30615e-06
-1.86201e-05 5.5891e-06 5.58473e-06 -5.30602e-06
1.04131e-08 -2.62513e-09 -3.3377e-09 -5.41663e-06
1.86409e-05 -5.5943e-06 -5.59142e-06 -5.30615e-06
1.01471e-08 -2.81143e-09 -3.14387e-09 -5.41663e-06
1.02804e-08 -2.71808e-09 -3.24099e-09 -5.41663e-06
-1.85193e-05 5.55897e-06 5.55443e-06 -5.30602e-06
-1.83176e-05 5.4987e-06 5.49383e-06 -5.30602e-06
1.83392e-05 -5.50335e-06 -5.50109e-06 -5.30615e-06
1.85404e-05 -5.56398e-06 -5.56131e-06 -5.30615e-06
-1.84185e-05 5.52883e-06 5.52413e-06 -5.30602e-06
1.06766e-08 -2.44039e-09 -3.52982e-09 -5.41663e-06
1.84398e-05 -5.53366e-06 -5.5312e-06 -5.30615e-06
1.04131e-08 -2.62513e-09 -3.33769e-09 -5.41663e-06
1.05452e-08 -2.53256e-09 -3.43397e-09 -5.41663e-06
-1.83176e-05 5.4987e-06 5.49383e-06 -5.30602e-06
-1.8116e-05 5.43843e-06 5.43323e-06 -5.30602e-06
1.81381e-05 -5.44271e-06 -5.44086e-06 -5.30615e-06
1.83392e-05 -5.50335e-06 -5.50109e-06 -5.30615e-06
-1.82168e-05 5.46856e-06 5.46353e-06 -5.30602e-06
1.09378e-08 -2.25722e-09 -3.72023e-09 -5.41663e-06
1.82386e-05 -5.47303e-06 -5.47098e-06 -5.30615e-06
1.06766e-08 -2.44039e-09 -3.52982e-09 -5.41663e-06
1.08075e-08 -2.34861e-09 -3.62524e-09 -5.41663e-06
-1.8116e-05 5.43843e-06 5.43323e-06 -5.30602e-06
-1.79143e-05 5.37816e-06 5.37263e-06 -5.30602e-06
1.79369e-05 -5.38208e-06 -5.38064e-06 -5.30615e-06
1.81381e-05 -5.44271e-06 -5.44086e-06 -5.30615e-06
-1.80151e-05 5.40829e-06 5.40293e-06 -5.30602e-06
1.11964e-08 -2.07563e-09 -3.90892e-09 -5.41663e-06
1.80375e-05 -5.4124e-06 -5.41075e-06 -5.30615e-06
1.09378e-08 -2.25722e-09 -3.72023e-09 -5.41663e-06
1.10674e-08 -2.16623e-09 -3.81479e-09 -5.41663e-06
-1.79143e-05 5.37816e-06 5.37263e-06 -5.30602e-06
-1.77126e-05 5.31788e-06 5.31203e-06 -5.30602e-06
1.77358e-05 -5.32146e-06 -5.32041e-06 -5.30615e-06
1.79369e-05 -5.38208e-06 -5.38064e-06 -5.30615e-06
-1.78135e-05 5.34802e-06 5.34233e-06 -5.30602e-06
1.14527e-08 -1.89565e-09 -4.09586e-09 -5.41663e-06
1.78363e-05 -5.35177e-06 -5.35053e-06 -5.30615e-06
1.11964e-08 -2.07563e-09 -3.90892e-09 -5.41663e-06
1.13249e-08 -1.98544e-09 -4.00261e-09 -5.41663e-06
-1.77126e-05 5.31788e-06 5.31203e-06 -5.30602e-06
-1.7511e-05 5.25761e-06 5.25144e-06 -5.30602e-06
1.75346e-05 -5.26083e-06 -5.26018e-06 -5.30615e-06
1.77358e-05 -5.32146e-06 -5.32041e-06 -5.30615e-06
-1.76118e-05 5.28775e-06 5.28173e-06 -5.30602e-06
1.17064e-08 -1.71728e-09 -4.28105e-09 -5.41663e-06
1.76352e-05 -5.29114e-06 -5.2903e-06 -5.30615e-06
1.14527e-08 -1.89565e-09 -4.09586e-09 -5.41663e-06
1.15798e-08 -1.80626e-09 -4.18867e-09 -5.41663e-06
-1.7511e-05 5.25761e-06 5.25144e-06 -5.30602e-06
-1.73093e-05 5.19733e-06 5.19084e-06 -5.30602e-06
1.73334e-05 -5.2002e-06 -5.19995e-06 -5.30615e-06
1.75346e-05 -5.26083e-06 -5.26018e-06 -5.30615e-06
-1.74101e-05 5.22747e-06 5.22114e-06 -5.30602e-06
1.19576e-08 -1.54053e-09 -4.46447e-09 -5.41663e-06
1.7434e-05 -5.23052e-06 -5.23007e-06 -5.30615e-06
1.17064e-08 -1.71728e-09 -4.28105e-09 -5.41663e-06
1.18323e-08 -1.6287e-09 -4.37299e-09 -5.41663e-06
-1.73093e-05 5.19733e-06 5.19084e-06 -5.30602e-06
-1.71076e-05 5.13706e-06 5.13025e-06 -5.30602e-06
1.71323e-05 -5.13958e-06 -5.13972e-06 -5.30615e-06
1.73334e-05 -5.2002e-06 -5.19995e-06 -5.30615e-06
-1.72085e-05 5.16719e-06 5.16055e-06 -5.30602e-06
1.22064e-08 -1.36543e-09 -4.64612e-09 -5.41663e-06
1.72328e-05 -5.16989e-06 -5.16984e-06 -5.30615e-06
1.19576e-08 -1.54053e-09 -4.46447e-09 -5.41663e-06
1.20823e-08 -1.45277e-09 -4.55552e-09 -5.41663e-06
-1.71076e-05 5.13706e-06 5.13025e-06 -5.30602e-06
-1.6906e-05 5.07678e-06 5.06966e-06 -5.30602e-06
1.69311e-05 -5.07896e-06 -5.07949e-06 -5.30614e-06
1.71323e-05 -5.13958e-06 -5.13972e-06 -5.30615e-06
-1.70068e-05 5.10692e-06 5.09996e-06 -5.30602e-06
1.24526e-08 -1.19199e-09 -4.82598e-09 -5.41663e-06
1.70317e-05 -5.10927e-06 -5.1096e-06 -5.30614e-06
1.22064e-08 -1.36543e-09 -4.64612e-09 -5.41663e-06
1.23298e-08 -1.2785e-09 -4.73627e-09 -5.41663e-06
-1.6906e-05 5.07678e-06 5.06966e-06 -5.30602e-06
-1.67043e-05 5.01649e-06 5.00907e-06 -5.30602e-06
1.67299e-05 -5.01834e-06 -5.01925e-06 -5.30614e-06
1.69311e-05 -5.07896e-06 -5.07949e-06 -5.30614e-06
-1.68052e-05 5.04664e-06 5.03937e-06 -5.30602e-06
1.26963e-08 -1.02021e-09 -5.00405e-09 -5.41663e-06
1.68305e-05 -5.04865e-06 -5.04937e-06 -5.30614e-06
1.24526e-08 -1.19199e-09 -4.82598e-09 -5.41663e-06
1.25748e-08 -1.10589e-09 -4.91524e-09 -5.41663e-06
-1.67043e-05 5.01649e-06 5.00907e-06 -5.30602e-06
-1.65027e-05 4.95621e-06 4.94849e-06 -5.30603e-06
1.65287e-05 -4.95772e-06 -4.95901e-06 -5.30614e-06
1.67299e-05 -5.01834e-06 -5.01925e-06 -5.30614e-06
-1.66035e-05 4.98635e-06 4.97878e-06 -5.30602e-06
1.29375e-08 -8.50121e-10 -5.18029e-09 -5.41663e-06
1.66293e-05 -4.98803e-06 -4.98913e-06 -5.30614e-06
1.26963e-08 -1.02021e-09 -5.00405e-09 -5.41663e-06
1.28172e-08 -9.34955e-10 -5.0924e-09 -5.41663e-06
-1.65027e-05 4.95621e-06 4.94849e-06 -5.30603e-06
-1.6301e-05 4.89593e-06 4.8879e-06 -5.30603e-06
1.63276e-05 -4.8971e-06 -4.89877e-06 -5.30614e-06
1.65287e-05 -4.95772e-06 -4.95901e-06 -5.30614e-06
-1.64019e-05 4.92607e-06 4.91819e-06 -5.30603e-06
1.3176e-08 -6.81728e-10 -5.35471e-09 -5.41663e-06
1.64282e-05 -4.92741e-06 -4.92889e-06 -5.30614e-06
1.29375e-08 -8.50121e-10 -5.18029e-09 -5.41663e-06
1.30571e-08 -7.65712e-10 -5.26773e-09 -5.41663e-06
-1.6301e-05 4.89593e-06 4.8879e-06 -5.30603e-06
-1.60994e-05 4.83564e-06 4.82732e-06 -5.30603e-06
1.61264e-05 -4.83649e-06 -4.83853e-06 -5.30614e-06
1.63276e-05 -4.8971e-06 -4.89877e-06 -5.30614e-06
-1.62002e-05 4.86578e-06 4.85761e-06 -5.30603e-06
1.34121e-08 -5.15046e-10 -5.52729e-09 -5.41663e-06
1.6227e-05 -4.8668e-06 -4.86865e-06 -5.30614e-06
1.3176e-08 -6.81729e-10 -5.35471e-09 -5.41663e-06
1.32944e-08 -5.98173e-10 -5.44123e-09 -5.41663e-06
-1.60994e-05 4.83564e-06 4.82732e-06 -5.30603e-06
-1.58977e-05 4.77535e-06 4.76674e-06 -5.30603e-06
1.59252e-05 -4.77588e-06 -4.77829e-06 -5.30614e-06
1.61264e-05 -4.83649e-06 -4.83853e-06 -5.30614e-06
-1.59986e-05 4.8055e-06 4.79703e-06 -5.30603e-06
1.36455e-08 -3.50089e-10 -5.69804e-09 -5.41663e-06
1.60258e-05 -4.80618e-06 -4.80841e-06 -5.30614e-06
1.34121e-08 -5.15046e-10 -5.52729e-09 -5.41663e-06
1.35291e-08 -4.32351e-10 -5.6129e-09 -5.41663e-06
-1.58977e-05 4.77535e-06 4.76674e-06 -5.30603e-06
-1.56961e-05 4.71506e-06 4.70616e-06 -5.30603e-06
1.5724e-05 -4.71526e-06 -4.71804e-06 -5.30614e-06
1.59252e-05 -4.77588e-06 -4.77829e-06 -5.30614e-06
-1.57969e-05 4.74521e-06 4.73645e-06 -5.30603e-06
1.38763e-08 -1.86868e-10 -5.86692e-09 -5.41663e-06
1.58246e-05 -4.74557e-06 -4.74817e-06 -5.30614e-06
1.36455e-08 -3.50089e-10 -5.69804e-09 -5.41663e-06
1.37613e-08 -2.68261e-10 -5.78271e-09 -5.41663e-06
-1.56961e-05 4.71506e-06 4.70616e-06 -5.30603e-06
-1.54945e-05 4.65477e-06 4.64558e-06 -5.30603e-06
1.55228e-05 -4.65465e-06 -4.6578e-06 -5.30614e-06
1.5724e-05 -4.71526e-06 -4.71804e-06 -5.30614e-06
-1.55953e-05 4.68492e-06 4.67587e-06 -5.30603e-06
1.41046e-08 -2.5396e-11 -6.03393e-09 -5.41662e-06
1.56234e-05 -4.68496e-06 -4.68792e-06 -5.30614e-06
1.38763e-08 -1.86868e-10 -5.86692e-09 -5.41663e-06
1.39908e-08 -1.05912e-10 -5.95066e-09 -5.41663e-06
-1.54945e-05 4.65477e-06 4.64558e-06 -5.30603e-06
-1.52928e-05 4.59448e-06 4.58501e-06 -5.30603e-06
1.53217e-05 -4.59405e-06 -4.59755e-06 -5.30614e-06
1.55228e-05 -4.65465e-06 -4.6578e-06 -5.30614e-06
-1.53936e-05 4.62463e-06 4.6153e-06 -5.30603e-06
1.43302e-08 1.34314e-10 -6.19907e-09 -5.41662e-06
1.54223e-05 -4.62435e-06 -4.62767e-06 -5.30614e-06
1.41046e-08 -2.53959e-11 -6.03393e-09 -5.41662e-06
1.42177e-08 5.46799e-11 -6.11673e-09 -5.41662e-06
-1.52928e-05 4.59448e-06 4.58501e-06 -5.30603e-06
-1.50912e-05 4.53418e-06 4.52443e-06 -5.30603e-06
1.51205e-05 -4.53344e-06 -4.5373e-06 -5.30613e-06
1.53217e-05 -4.59405e-06 -4.59755e-06 -5.30614e-06
-1.5192e-05 4.56433e-06 4.55472e-06 -5.30603e-06
1.45531e-08 2.92247e-10 -6.3623e-09 -5.41662e-06
1.52211e-05 -4.56374e-06 -4.56742e-06 -5.30613e-06
1.43302e-08 1.34314e-10 -6.19907e-09 -5.41662e-06
1.4442e-08 2.13503e-10 -6.28092e-09 -5.41662e-06
-1.50912e-05 4.53418e-06 4.52443e-06 -5.30603e-06
-1.48896e-05 4.47389e-06 4.46386e-06 -5.30603e-06
1.49193e-05 -4.47283e-06 -4.47705e-06 -5.30613e-06
1.51205e-05 -4.53344e-06 -4.5373e-06 -5.30613e-06
-1.49904e-05 4.50404e-06 4.49415e-06 -5.30603e-06
1.47734e-08 4.48393e-10 -6.52364e-09 -5.41662e-06
1.50199e-05 -4.50314e-06 -4.50717e-06 -5.30613e-06
1.45531e-08 2.92247e-10 -6.3623e-09 -5.41662e-06
1.46636e-08 3.70545e-10 -6.44321e-09 -5.41662e-06
-1.48896e-05 4.47389e-06 4.46386e-06 -5.30603e-06
-1.46879e-05 4.41359e-06 4.40329e-06 -5.30603e-06
1.47181e-05 -4.41223e-06 -4.41679e-06 -5.30613e-06
1.49193e-05 -4.47283e-06 -4.47705e-06 -5.30613e-06
-1.47888e-05 4.44374e-06 4.43358e-06 -5.30603e-06
1.49911e-08 6.0274e-10 -6.68308e-09 -5.41662e-06
1.48187e-05 -4.44253e-06 -4.44692e-06 -5.30613e-06
1.47734e-08 4.48393e-10 -6.52364e-09 -5.41662e-06
1.48826e-08 5.25793e-10 -6.6036e-09 -5.41662e-06
-1.46879e-05 4.41359e-06 4.40329e-06 -5.30603e-06
-1.44863e-05 4.35329e-06 4.34273e-06 -5.30603e-06
1.45169e-05 -4.35163e-06 -4.35653e-06 -5.30613e-06
1.47181e-05 -4.41223e-06 -4.41679e-06 -5.30613e-06
-1.45871e-05 4.38344e-06 4.37301e-06 -5.30603e-06
1.52061e-08 7.55278e-10 -6.84058e-09 -5.41662e-06
1.46175e-05 -4.38193e-06 -4.38666e-06 -5.30613e-06
1.49911e-08 6.0274e-10 -6.68308e-09 -5.41662e-06
1.50989e-08 6.79236e-10 -6.76207e-09 -5.41662e-06
-1.44863e-05 4.35329e-06 4.34273e-06 -5.30603e-06
-1.42847e-05 4.29299e-06 4.28216e-06 -5.30603e-06
1.43157e-05 -4.29103e-06 -4.29628e-06 -5.30613e-06
1.45169e-05 -4.35163e-06 -4.35653e-06 -5.30613e-06
-1.43855e-05 4.32314e-06 4.31244e-06 -5.30603e-06
1.54184e-08 9.05989e-10 -6.99616e-09 -5.41662e-06
1.44163e-05 -4.32133e-06 -4.32641e-06 -5.30613e-06
1.52061e-08 7.55277e-10 -6.84058e-09 -5.41662e-06
1.53126e-08 8.30862e-10 -6.91861e-09 -5.41662e-06
-1.42847e-05 4.29299e-06 4.28216e-06 -5.30603e-06
-1.40831e-05 4.23268e-06 4.2216e-06 -5.30603e-06
1.41145e-05 -4.23043e-06 -4.23602e-06 -5.30613e-06
1.43157e-05 -4.29103e-06 -4.29628e-06 -5.30613e-06
-1.41839e-05 4.26283e-06 4.25188e-06 -5.30603e-06
1.5628e-08 1.05487e-09 -7.14979e-09 -5.41662e-06
1.42151e-05 -4.26073e-06 -4.26615e-06 -5.30613e-06
1.54184e-08 9.05989e-10 -6.99616e-09 -5.41662e-06
1.55235e-08 9.80658e-10 -7.07322e-09 -5.41662e-06
-1.40831e-05 4.23268e-06 4.2216e-06 -5.30603e-06
-1.38815e-05 4.17238e-06 4.16104e-06 -5.30603e-06
1.39133e-05 -4.16984e-06 -4.17576e-06 -5.30613e-06
1.41145e-05 -4.23043e-06 -4.23602e-06 -5.30613e-06
-1.39823e-05 4.20253e-06 4.19132e-06 -5.30603e-06
1.58349e-08 1.2019e-09 -7.30147e-09 -5.41662e-06
1.40139e-05 -4.20014e-06 -4.20589e-06 -5.30613e-06
1.5628e-08 1.05487e-09 -7.14979e-09 -5.41662e-06
1.57318e-08 1.12861e-09 -7.22588e-09 -5.41662e-06
-1.38815e-05 4.17238e-06 4.16104e-06 -5.30603e-06
-1.36798e-05 4.11207e-06 4.10048e-06 -5.30603e-06
1.37121e-05 -4.10924e-06 -4.11549e-06 -5.30613e-06
1.39133e-05 -4.16984e-06 -4.17576e-06 -5.30613e-06
-1.37807e-05 4.14222e-06 4.13076e-06 -5.30603e-06
1.60391e-08 1.34707e-09 -7.45119e-09 -5.41662e-06
1.38127e-05 -4.13954e-06 -4.14562e-06 -5.30613e-06
1.58349e-08 1.2019e-09 -7.30147e-09 -5.41662e-06
1.59373e-08 1.27472e-09 -7.37658e-09 -5.41662e-06
-1.36798e-05 4.11207e-06 4.10048e-06 -5.30603e-06
-1.34782e-05 4.05176e-06 4.03992e-06 -5.30603e-06
1.35108e-05 -4.04865e-06 -4.05523e-06 -5.30613e-06
1.37121e-05 -4.10924e-06 -4.11549e-06 -5.30613e-06
-1.3579e-05 4.08191e-06 4.0702e-06 -5.30603e-06
1.62405e-08 1.49037e-09 -7.59894e-09 -5.41662e-06
1.36115e-05 -4.07895e-06 -4.08536e-06 -5.30613e-06
1.6039e-08 1.34707e-09 -7.45119e-09 -5.41662e-06
1.61401e-08 1.41895e-09 -7.52531e-09 -5.41662e-06
-1.34782e-05 4.05176e-06 4.03992e-06 -5.30603e-06
-1.32766e-05 3.99145e-06 3.97936e-06 -5.30603e-06
1.33096e-05 -3.98806e-06 -3.99496e-06 -5.30612e-06
1.35108e-05 -4.04865e-06 -4.05523e-06 -5.30613e-06
-1.33774e-05 4.0216e-06 4.00964e-06 -5.30603e-06
1.64392e-08 1.6318e-09 -7.74471e-09 -5.41662e-06
1.34102e-05 -4.01836e-06 -4.02509e-06 -5.30613e-06
1.62405e-08 1.49037e-09 -7.59894e-09 -5.41662e-06
1.63402e-08 1.56132e-09 -7.67208e-09 -5.41662e-06
-1.32766e-05 3.99145e-06 3.97936e-06 -5.30603e-06
-1.3075e-05 3.93114e-06 3.91881e-06 -5.30603e-06
1.31084e-05 -3.92747e-06 -3.93469e-06 -5.30612e-06
1.33096e-05 -3.98806e-06 -3.99496e-06 -5.30612e-06
-1.31758e-05 3.96129e-06 3.94908e-06 -5.30603e-06
1.66352e-08 1.77133e-09 -7.88849e-09 -5.41662e-06
1.3209e-05 -3.95777e-06 -3.96482e-06 -5.30612e-06
1.64392e-08 1.6318e-09 -7.74471e-09 -5.41662e-06
1.65375e-08 1.7018e-09 -7.81685e-09 -5.41662e-06
-1.3075e-05 3.93114e-06 3.91881e-06 -5.30603e-06
-1.28734e-05 3.87082e-06 3.85826e-06 -5.30603e-06
1.29072e-05 -3.86689e-06 -3.87442e-06 -5.30612e-06
1.31084e-05 -3.92747e-06 -3.93469e-06 -5.30612e-06
-1.29742e-05 3.90098e-06 3.88853e-06 -5.30603e-06
1.68283e-08 1.90896e-09 -8.03027e-09 -5.41662e-06
1.30078e-05 -3.89718e-06 -3.90455e-06 -5.30612e-06
1.66352e-08 1.77133e-09 -7.88849e-09 -5.41662e-06
1.67321e-08 1.84038e-09 -7.95963e-09 -5.41662e-06
-1.28734e-05 3.87082e-06 3.85826e-06 -5.30603e-06
-1.26718e-05 3.8105e-06 3.79771e-06 -5.30603e-06
1.2706e-05 -3.8063e-06 -3.81414e-06 -5.30612e-06
1.29072e-05 -3.86689e-06 -3.87442e-06 -5.30612e-06
-1.27726e-05 3.84066e-06 3.82798e-06 -5.30603e-06
1.70188e-08 2.04468e-09 -8.17004e-09 -5.41662e-06
1.28066e-05 -3.83659e-06 -3.84428e-06 -5.30612e-06
1.68283e-08 1.90896e-09 -8.03027e-09 -5.41662e-06
1.69239e-08 1.97706e-09 -8.10041e-09 -5.41662e-06
-1.26718e-05 3.8105e-06 3.79771e-06 -5.30603e-06
-1.24702e-05 3.75018e-06 3.73716e-06 -5.30603e-06
1.25047e-05 -3.74572e-06 -3.75387e-06 -5.30612e-06
1.2706e-05 -3.8063e-06 -3.81414e-06 -5.30612e-06
-1.2571e-05 3.78034e-06 3.76743e-06 -5.30603e-06
1.72064e-08 2.17847e-09 -8.30779e-09 -5.41662e-06
1.26054e-05 -3.77601e-06 -3.78401e-06 -5.30612e-06
1.70188e-08 2.04468e-09 -8.17004e-09 -5.41662e-06
1.71129e-08 2.11182e-09 -8.23917e-09 -5.41662e-06
-1.24702e-05 3.75018e-06 3.73716e-06 -5.30603e-06
-1.22686e-05 3.68986e-06 3.67661e-06 -5.30603e-06
1.23035e-05 -3.68514e-06 -3.69359e-06 -5.30612e-06
1.25047e-05 -3.74572e-06 -3.75387e-06 -5.30612e-06
-1.23694e-05 3.72002e-06 3.70688e-06 -5.30603e-06
1.73912e-08 2.31034e-09 -8.44351e-09 -5.41662e-06
1.24041e-05 -3.71543e-06 -3.72373e-06 -5.30612e-06
1.72064e-08 2.17847e-09 -8.30779e-09 -5.41662e-06
1.72991e-08 2.24465e-09 -8.37591e-09 -5.41662e-06
-1.22686e-05 3.68986e-06 3.67661e-06 -5.30603e-06
-1.2067e-05 3.62954e-06 3.61607e-06 -5.30603e-06
1.21023e-05 -3.62456e-06 -3.63331e-06 -5.30612e-06
1.23035e-05 -3.68514e-06 -3.69359e-06 -5.30612e-06
-1.21678e-05 3.6597e-06 3.64634e-06 -5.30603e-06
1.75732e-08 2.44026e-09 -8.57721e-09 -5.41662e-06
1.22029e-05 -3.65485e-06 -3.66345e-06 -5.30612e-06
1.73912e-08 2.31034e-09 -8.44352e-09 -5.41662e-06
1.74826e-08 2.37554e-09 -8.51062e-09 -5.41662e-06
-1.2067e-05 3.62954e-06 3.61607e-06 -5.30603e-06
-1.18654e-05 3.56922e-06 3.55553e-06 -5.30603e-06
1.19011e-05 -3.56398e-06 -3.57303e-06 -5.30612e-06
1.21023e-05 -3.62456e-06 -3.63331e-06 -5.30612e-06
-1.19662e-05 3.59938e-06 3.5858e-06 -5.30603e-06
1.77525e-08 2.56822e-09 -8.70886e-09 -5.41662e-06
1.20017e-05 -3.59427e-06 -3.60317e-06 -5.30612e-06
1.75732e-08 2.44026e-09 -8.57721e-09 -5.41662e-06
1.76632e-08 2.50448e-09 -8.64329e-09 -5.41662e-06
-1.18654e-05 3.56922e-06 3.55553e-06 -5.30603e-06
-1.16639e-05 3.50889e-06 3.49499e-06 -5.30603e-06
1.16998e-05 -3.50341e-06 -3.51275e-06 -5.30612e-06
1.19011e-05 -3.56398e-06 -3.57303e-06 -5.30612e-06
-1.17647e-05 3.53905e-06 3.52526e-06 -5.30603e-06
1.79288e-08 2.69423e-09 -8.83846e-09 -5.41662e-06
1.18004e-05 -3.53369e-06 -3.54289e-06 -5.30612e-06
1.77525e-08 2.56822e-09 -8.70886e-09 -5.41662e-06
1.7841e-08 2.63147e-09 -8.77391e-09 -5.41662e-06
-1.16639e-05 3.50889e-06 3.49499e-06 -5.30603e-06
-1.14623e-05 3.44856e-06 3.43445e-06 -5.30603e-06
1.14986e-05 -3.44283e-06 -3.45246e-06 -5.30612e-06
1.16998e-05 -3.50341e-06 -3.51275e-06 -5.30612e-06
-1.15631e-05 3.47873e-06 3.46472e-06 -5.30603e-06
1.81024e-08 2.81826e-09 -8.966e-09 -5.41662e-06
1.15992e-05 -3.47312e-06 -3.4826e-06 -5.30612e-06
1.79288e-08 2.69423e-09 -8.83846e-09 -5.41662e-06
1.8016e-08 2.75649e-09 -8.90249e-09 -5.41662e-06
-1.14623e-05 3.44856e-06 3.43445e-06 -5.30603e-06
-1.12607e-05 3.38823e-06 3.37391e-06 -5.30603e-06
1.12973e-05 -3.38226e-06 -3.39217e-06 -5.30611e-06
1.14986e-05 -3.44283e-06 -3.45246e-06 -5.30612e-06
-1.13615e-05 3.4184e-06 3.40418e-06 -5.30603e-06
1.82731e-08 2.94031e-09 -9.09147e-09 -5.41662e-06
1.1398e-05 -3.41255e-06 -3.42232e-06 -5.30611e-06
1.81024e-08 2.81826e-09 -8.966e-09 -5.41662e-06
1.81881e-08 2.87953e-09 -9.02899e-09 -5.41662e-06
-1.12607e-05 3.38823e-06 3.37391e-06 -5.30603e-06
-1.10591e-05 3.3279e-06 3.31338e-06 -5.30603e-06
1.10961e-05 -3.32169e-06 -3.33188e-06 -5.30611e-06
1.12973e-05 -3.38226e-06 -3.39217e-06 -5.30611e-06
-1.11599e-05 3.35807e-06 3.34365e-06 -5.30603e-06
1.8441e-08 3.06037e-09 -9.21487e-09 -5.41662e-06
1.11967e-05 -3.35198e-06 -3.36203e-06 -5.30611e-06
1.82731e-08 2.94031e-09 -9.09147e-09 -5.41662e-06
1.83574e-08 3.00059e-09 -9.15343e-09 -5.41662e-06
-1.10591e-05 3.3279e-06 3.31338e-06 -5.30603e-06
-1.08575e-05 3.26757e-06 3.25285e-06 -5.30604e-06
1.08948e-05 -3.26113e-06 -3.27159e-06 -5.30611e-06
1.10961e-05 -3.32169e-06 -3.33188e-06 -5.30611e-06
-1.09583e-05 3.29773e-06 3.28311e-06 -5.30603e-06
1.8606e-08 3.17843e-09 -9.33618e-09 -5.41662e-06
1.09955e-05 -3.29141e-06 -3.30174e-06 -5.30611e-06
1.8441e-08 3.06037e-09 -9.21487e-09 -5.41662e-06
1.85239e-08 3.11965e-09 -9.27579e-09 -5.41662e-06
-1.08575e-05 3.26757e-06 3.25285e-06 -5.30604e-06
-1.0656e-05 3.20723e-06 3.19232e-06 -5.30604e-06
1.06936e-05 -3.20056e-06 -3.2113e-06 -5.30611e-06
1.08948e-05 -3.26113e-06 -3.27159e-06 -5.30611e-06
-1.07568e-05 3.2374e-06 3.22258e-06 -5.30604e-06
1.87681e-08 3.29448e-09 -9.4554e-09 -5.41662e-06
1.07942e-05 -3.23084e-06 -3.24145e-06 -5.30611e-06
1.8606e-08 3.17843e-09 -9.33618e-09 -5.41662e-06
1.86874e-08 3.23671e-09 -9.39604e-09 -5.41662e-06
-1.0656e-05 3.20723e-06 3.19232e-06 -5.30604e-06
-1.04544e-05 3.14689e-06 3.13179e-06 -5.30604e-06
1.04923e-05 -3.14e-06 -3.151e-06 -5.30611e-06
1.06936e-05 -3.20056e-06 -3.2113e-06 -5.30611e-06
-1.05552e-05 3.17706e-06 3.16205e-06 -5.30604e-06
1.89274e-08 3.40851e-09 -9.57253e-09 -5.41662e-06
1.0593e-05 -3.17028e-06 -3.18115e-06 -5.30611e-06
1.87681e-08 3.29448e-09 -9.4554e-09 -5.41662e-06
1.88481e-08 3.35175e-09 -9.51422e-09 -5.41662e-06
-1.04544e-05 3.14689e-06 3.13179e-06 -5.30604e-06
-1.02528e-05 3.08655e-06 3.07126e-06 -5.30604e-06
1.02911e-05 -3.07944e-06 -3.0907e-06 -5.30611e-06
1.04923e-05 -3.14e-06 -3.151e-06 -5.30611e-06
-1.03536e-05 3.11672e-06 3.10153e-06 -5.30604e-06
1.90837e-08 3.52052e-09 -9.68754e-09 -5.41662e-06
1.03917e-05 -3.10972e-06 -3.12085e-06 -5.30611e-06
1.89274e-08 3.40851e-09 -9.57253e-09 -5.41662e-06
1.90059e-08 3.46477e-09 -9.63029e-09 -5.41662e-06
-1.02528e-05 3.08655e-06 3.07126e-06 -5.30604e-06
-1.00513e-05 3.02621e-06 3.01074e-06 -5.30604e-06
1.00898e-05 -3.01888e-06 -3.0304e-06 -5.30611e-06
1.02911e-05 -3.07944e-06 -3.0907e-06 -5.30611e-06
-1.01521e-05 3.05638e-06 3.041e-06 -5.30604e-06
1.92372e-08 3.63049e-09 -9.80044e-09 -5.41662e-06
1.01905e-05 -3.04916e-06 -3.06055e-06 -5.30611e-06
1.90837e-08 3.52052e-09 -9.68754e-09 -5.41662e-06
1.91608e-08 3.57576e-09 -9.74426e-09 -5.41662e-06
-1.00513e-05 3.02621e-06 3.01074e-06 -5.30604e-06
-9.84971e-06 2.96586e-06 2.95022e-06 -5.30604e-06
9.88856e-06 -2.95832e-06 -2.9701e-06 -5.30611e-06
1.00898e-05 -3.01888e-06 -3.0304e-06 -5.30611e-06
-9.95049e-06 2.99604e-06 2.98048e-06 -5.30604e-06
1.93878e-08 3.73843e-09 -9.91123e-09 -5.41662e-06
9.98919e-06 -2.9886e-06 -3.00025e-06 -5.30611e-06
1.92372e-08 3.63049e-09 -9.80044e-09 -5.41662e-06
1.93129e-08 3.68471e-09 -9.8561e-09 -5.41662e-06
-9.84971e-06 2.96586e-06 2.95022e-06 -5.30604e-06
-9.64815e-06 2.90552e-06 2.8897e-06 -5.30604e-06
9.68729e-06 -2.89776e-06 -2.9098e-06 -5.30611e-06
9.88856e-06 -2.95832e-06 -2.9701e-06 -5.30611e-06
-9.74893e-06 2.93569e-06 2.91996e-06 -5.30604e-06
1.95354e-08 3.84431e-09 -1.00199e-08 -5.41662e-06
9.78793e-06 -2.92804e-06 -2.93995e-06 -5.30611e-06
1.93878e-08 3.73843e-09 -9.91123e-09 -5.41662e-06
1.9462e-08 3.79162e-09 -9.96582e-09 -5.41662e-06
-9.64815e-06 2.90552e-06 2.8897e-06 -5.30604e-06
-9.4466e-06 2.84517e-06 2.82918e-06 -5.30604e-06
9.48603e-06 -2.83721e-06 -2.84949e-06 -5.30611e-06
9.68729e-06 -2.89776e-06 -2.9098e-06 -5.30611e-06
-9.54738e-06 2.87534e-06 2.85944e-06 -5.30604e-06
1.96802e-08 3.94812e-09 -1.01264e-08 -5.41661e-06
9.58666e-06 -2.86749e-06 -2.87965e-06 -5.30611e-06
1.95354e-08 3.84431e-09 -1.00199e-08 -5.41662e-06
1.96082e-08 3.89647e-09 -1.00734e-08 -5.41661e-06
-9.4466e-06 2.84517e-06 2.82918e-06 -5.30604e-06
-9.24505e-06 2.78482e-06 2.76867e-06 -5.30604e-06
9.28475e-06 -2.77666e-06 -2.78918e-06 -5.3061e-06
9.48603e-06 -2.83721e-06 -2.84949e-06 -5.30611e-06
-9.34582e-06 2.81499e-06 2.79893e-06 -5.30604e-06
1.9822e-08 4.04988e-09 -1.02308e-08 -5.41661e-06
9.38539e-06 -2.80693e-06 -2.81934e-06 -5.3061e-06
1.96802e-08 3.94812e-09 -1.01264e-08 -5.41661e-06
1.97514e-08 3.99926e-09 -1.01789e-08 -5.41661e-06
-9.24505e-06 2.78482e-06 2.76867e-06 -5.30604e-06
-9.0435e-06 2.72447e-06 2.70816e-06 -5.30604e-06
9.08348e-06 -2.71611e-06 -2.72887e-06 -5.3061e-06
9.28475e-06 -2.77666e-06 -2.78918e-06 -5.3061e-06
-9.14427e-06 2.75464e-06 2.73841e-06 -5.30604e-06
1.99608e-08 4.14956e-09 -1.0333e-08 -5.41661e-06
9.18412e-06 -2.74638e-06 -2.75903e-06 -5.3061e-06
1.9822e-08 4.04988e-09 -1.02308e-08 -5.41661e-06
1.98918e-08 4.09998e-09 -1.02822e-08 -5.41661e-06
-9.0435e-06 2.72447e-06 2.70816e-06 -5.30604e-06
-8.84195e-06 2.66411e-06 2.64765e-06 -5.30604e-06
8.8822e-06 -2.65556e-06 -2.66856e-06 -5.3061e-06
9.08348e-06 -2.71611e-06 -2.72887e-06 -5.3061e-06
-8.94273e-06 2.69429e-06 2.6779e-06 -5.30604e-06
2.00968e-08 4.24716e-09 -1.04331e-08 -5.41661e-06
8.98284e-06 -2.68584e-06 -2.69872e-06 -5.3061e-06
1.99608e-08 4.14956e-09 -1.0333e-08 -5.41661e-06
2.00292e-08 4.19862e-09 -1.03833e-08 -5.41661e-06
-8.84195e-06 2.66411e-06 2.64765e-06 -5.30604e-06
-8.64041e-06 2.60376e-06 2.58714e-06 -5.30604e-06
8.68093e-06 -2.59502e-06 -2.60825e-06 -5.3061e-06
8.8822e-06 -2.65556e-06 -2.66856e-06 -5.3061e-06
-8.74118e-06 2.63393e-06 2.61739e-06 -5.30604e-06
2.02297e-08 4.34267e-09 -1.0531e-08 -5.41661e-06
8.78157e-06 -2.62529e-06 -2.6384e-06 -5.3061e-06
2.00968e-08 4.24716e-09 -1.04331e-08 -5.41661e-06
2.01636e-08 4.29518e-09 -1.04823e-08 -5.41661e-06
-8.64041e-06 2.60376e-06 2.58714e-06 -5.30604e-06
-8.43887e-06 2.5434e-06 2.52663e-06 -5.30604e-06
8.47964e-06 -2.53447e-06 -2.54793e-06 -5.3061e-06
8.68093e-06 -2.59502e-06 -2.60825e-06 -5.3061e-06
-8.53964e-06 2.57358e-06 2.55688e-06 -5.30604e-06
2.03598e-08 4.43609e-09 -1.06268e-08 -5.41661e-06
8.58028e-06 -2.56475e-06 -2.57809e-06 -5.3061e-06
2.02297e-08 4.34267e-09 -1.0531e-08 -5.41661e-06
2.02951e-08 4.38964e-09 -1.05792e-08 -5.41661e-06
-8.43887e-06 2.5434e-06 2.52663e-06 -5.30604e-06
-8.23733e-06 2.48304e-06 2.46613e-06 -5.30604e-06
8.27836e-06 -2.47393e-06 -2.48761e-06 -5.3061e-06
8.47964e-06 -2.53447e-06 -2.54793e-06 -5.3061e-06
-8.3381e-06 2.51322e-06 2.49638e-06 -5.30604e-06
2.04868e-08 4.5274e-09 -1.07204e-08 -5.41661e-06
8.379e-06 -2.5042e-06 -2.51777e-06 -5.3061e-06
2.03598e-08 4.43609e-09 -1.06268e-08 -5.41661e-06
2.04237e-08 4.48201e-09 -1.06739e-08 -5.41661e-06
-8.23733e-06 2.48304e-06 2.46613e-06 -5.30604e-06
-8.0358e-06 2.42267e-06 2.40563e-06 -5.30604e-06
8.07707e-06 -2.41339e-06 -2.42729e-06 -5.3061e-06
8.27836e-06 -2.47393e-06 -2.48761e-06 -5.3061e-06
-8.13657e-06 2.45286e-06 2.43588e-06 -5.30604e-06
2.06109e-08 4.6166e-09 -1.08118e-08 -5.41661e-06
8.17771e-06 -2.44366e-06 -2.45745e-06 -5.3061e-06
2.04868e-08 4.5274e-09 -1.07204e-08 -5.41661e-06
2.05492e-08 4.57227e-09 -1.07663e-08 -5.41661e-06
-8.0358e-06 2.42267e-06 2.40563e-06 -5.30604e-06
-7.83427e-06 2.36231e-06 2.34513e-06 -5.30604e-06
7.87578e-06 -2.35286e-06 -2.36697e-06 -5.3061e-06
8.07707e-06 -2.41339e-06 -2.42729e-06 -5.3061e-06
-7.93503e-06 2.39249e-06 2.37538e-06 -5.30604e-06
2.0732e-08 4.70369e-09 -1.0901e-08 -5.41661e-06
7.97642e-06 -2.38313e-06 -2.39713e-06 -5.3061e-06
2.06109e-08 4.6166e-09 -1.08118e-08 -5.41661e-06
2.06718e-08 4.66041e-09 -1.08567e-08 -5.41661e-06
-7.83427e-06 2.36231e-06 2.34513e-06 -5.30604e-06
-7.63274e-06 2.30194e-06 2.28463e-06 -5.30604e-06
7.67448e-06 -2.29232e-06 -2.30664e-06 -5.3061e-06
7.87578e-06 -2.35286e-06 -2.36697e-06 -5.3061e-06
-7.7335e-06 2.33213e-06 2.31488e-06 -5.30604e-06
2.08501e-08 4.78866e-09 -1.0988e-08 -5.41661e-06
7.77513e-06 -2.32259e-06 -2.3368e-06 -5.3061e-06
2.0732e-08 4.70369e-09 -1.0901e-08 -5.41661e-06
2.07914e-08 4.74644e-09 -1.09448e-08 -5.41661e-06
-7.63274e-06 2.30194e-06 2.28463e-06 -5.30604e-06
-7.43122e-06 2.24157e-06 2.22413e-06 -5.30604e-06
7.47319e-06 -2.23179e-06 -2.24631e-06 -5.3061e-06
7.67448e-06 -2.29232e-06 -2.30664e-06 -5.3061e-06
-7.53198e-06 2.27176e-06 2.25438e-06 -5.30604e-06
2.09652e-08 4.87149e-09 -1.10729e-08 -5.41661e-06
7.57384e-06 -2.26206e-06 -2.27648e-06 -5.3061e-06
2.08501e-08 4.78866e-09 -1.0988e-08 -5.41661e-06
2.0908e-08 4.83034e-09 -1.10307e-08 -5.41661e-06
-7.43122e-06 2.24157e-06 2.22413e-06 -5.30604e-06
-7.22969e-06 2.1812e-06 2.16364e-06 -5.30604e-06
7.27189e-06 -2.17126e-06 -2.18598e-06 -5.30609e-06
7.47319e-06 -2.23179e-06 -2.24631e-06 -5.3061e-06
-7.33045e-06 2.21139e-06 2.19389e-06 -5.30604e-06
2.10774e-08 4.95218e-09 -1.11555e-08 -5.41661e-06
7.37254e-06 -2.20153e-06 -2.21615e-06 -5.3061e-06
2.09652e-08 4.87149e-09 -1.10729e-08 -5.41661e-06
2.10217e-08 4.9121e-09 -1.11145e-08 -5.41661e-06
-7.22969e-06 2.1812e-06 2.16364e-06 -5.30604e-06
-7.02817e-06 2.12083e-06 2.10315e-06 -5.30604e-06
7.07058e-06 -2.11073e-06 -2.12565e-06 -5.30609e-06
7.27189e-06 -2.17126e-06 -2.18598e-06 -5.30609e-06
-7.12893e-06 2.15102e-06 2.13339e-06 -5.30604e-06
2.11865e-08 5.03073e-09 -1.1236e-08 -5.41661e-06
7.17124e-06 -2.141e-06 -2.15582e-06 -5.30609e-06
2.10774e-08 4.95218e-09 -1.11555e-08 -5.41661e-06
2.11323e-08 4.99172e-09 -1.1196e-08 -5.41661e-06
-7.02817e-06 2.12083e-06 2.10315e-06 -5.30604e-06
-6.82666e-06 2.06045e-06 2.04266e-06 -5.30604e-06
6.86928e-06 -2.05021e-06 -2.06532e-06 -5.30609e-06
7.07058e-06 -2.11073e-06 -2.12565e-06 -5.30609e-06
-6.92742e-06 2.09064e-06 2.0729e-06 -5.30604e-06
2.12926e-08 5.10711e-09 -1.13142e-08 -5.41661e-06
6.96993e-06 -2.08047e-06 -2.09548e-06 -5.30609e-06
2.11865e-08 5.03073e-09 -1.1236e-08 -5.41661e-06
2.12399e-08 5.06919e-09 -1.12753e-08 -5.41661e-06
-6.82666e-06 2.06045e-06 2.04266e-06 -5.30604e-06
-6.62515e-06 2.00008e-06 1.98217e-06 -5.30604e-06
6.66797e-06 -1.98968e-06 -2.00498e-06 -5.30609e-06
6.86928e-06 -2.05021e-06 -2.06532e-06 -5.30609e-06
-6.7259e-06 2.03026e-06 2.01242e-06 -5.30604e-06
2.13957e-08 5.18133e-09 -1.13902e-08 -5.41661e-06
6.76863e-06 -2.01994e-06 -2.03515e-06 -5.30609e-06
2.12926e-08 5.10711e-09 -1.13142e-08 -5.41661e-06
2.13446e-08 5.14449e-09 -1.13524e-08 -5.41661e-06
-6.62515e-06 2.00008e-06 1.98217e-06 -5.30604e-06
-6.42363e-06 1.9397e-06 1.92169e-06 -5.30605e-06
6.46666e-06 -1.92916e-06 -1.94464e-06 -5.30609e-06
6.66797e-06 -1.98968e-06 -2.00498e-06 -5.30609e-06
-6.52439e-06 1.96989e-06 1.95193e-06 -5.30605e-06
2.14959e-08 5.25335e-09 -1.14639e-08 -5.41661e-06
6.56731e-06 -1.95942e-06 -1.97481e-06 -5.30609e-06
2.13957e-08 5.18133e-09 -1.13902e-08 -5.41661e-06
2.14462e-08 5.21761e-09 -1.14273e-08 -5.41661e-06
-6.42363e-06 1.9397e-06 1.92169e-06 -5.30605e-06
-6.22213e-06 1.87931e-06 1.86121e-06 -5.30605e-06
6.26534e-06 -1.86864e-06 -1.8843e-06 -5.30609e-06
6.46666e-06 -1.92916e-06 -1.94464e-06 -5.30609e-06
-6.32288e-06 1.9095e-06 1.89145e-06 -5.30605e-06
2.1593e-08 5.32317e-09 -1.15355e-08 -5.41661e-06
6.366e-06 -1.8989e-06 -1.91447e-06 -5.30609e-06
2.14959e-08 5.25335e-09 -1.14639e-08 -5.41661e-06
2.15448e-08 5.28854e-09 -1.15e-08 -5.41661e-06
-6.22213e-06 1.87931e-06 1.86121e-06 -5.30605e-06
-6.02062e-06 1.81893e-06 1.80073e-06 -5.30605e-06
6.06403e-06 -1.80812e-06 -1.82396e-06 -5.30609e-06
6.26534e-06 -1.86864e-06 -1.8843e-06 -5.30609e-06
-6.12138e-06 1.84912e-06 1.83097e-06 -5.30605e-06
2.16872e-08 5.39075e-09 -1.16048e-08 -5.41661e-06
6.16469e-06 -1.83838e-06 -1.85413e-06 -5.30609e-06
2.1593e-08 5.32317e-09 -1.15355e-08 -5.41661e-06
2.16404e-08 5.35724e-09 -1.15704e-08 -5.41661e-06
-6.02062e-06 1.81893e-06 1.80073e-06 -5.30605e-06
-5.81912e-06 1.75854e-06 1.74025e-06 -5.30605e-06
5.86271e-06 -1.74761e-06 -1.76361e-06 -5.30609e-06
6.06403e-06 -1.80812e-06 -1.82396e-06 -5.30609e-06
-5.91987e-06 1.78874e-06 1.77049e-06 -5.30605e-06
2.17784e-08 5.45607e-09 -1.16719e-08 -5.41661e-06
5.96337e-06 -1.77786e-06 -1.79379e-06 -5.30609e-06
2.16872e-08 5.39075e-09 -1.16048e-08 -5.41661e-06
2.17331e-08 5.42369e-09 -1.16386e-08 -5.41661e-06
-5.81912e-06 1.75854e-06 1.74025e-06 -5.30605e-06
-5.61762e-06 1.69815e-06 1.67977e-06 -5.30605e-06
5.66138e-06 -1.68709e-06 -1.70327e-06 -5.30609e-06
5.86271e-06 -1.74761e-06 -1.76361e-06 -5.30609e-06
-5.71837e-06 1.72835e-06 1.71001e-06 -5.30605e-06
2.18666e-08 5.5191e-09 -1.17367e-08 -5.41661e-06
5.76204e-06 -1.71735e-06 -1.73344e-06 -5.30609e-06
2.17784e-08 5.45607e-09 -1.16719e-08 -5.41661e-06
2.18229e-08 5.48787e-09 -1.17046e-08 -5.41661e-06
-5.61762e-06 1.69815e-06 1.67977e-06 -5.30605e-06
-5.41613e-06 1.63776e-06 1.6193e-06 -5.30605e-06
5.46006e-06 -1.62658e-06 -1.64292e-06 -5.30609e-06
5.66138e-06 -1.68709e-06 -1.70327e-06 -5.30609e-06
-5.51688e-06 1.66796e-06 1.64954e-06 -5.30605e-06
2.1952e-08 5.57979e-09 -1.17994e-08 -5.41661e-06
5.56072e-06 -1.65684e-06 -1.67309e-06 -5.30609e-06
2.18666e-08 5.5191e-09 -1.17367e-08 -5.41661e-06
2.19097e-08 5.54974e-09 -1.17683e-08 -5.41661e-06
-5.41613e-06 1.63776e-06 1.6193e-06 -5.30605e-06
-5.21464e-06 1.57737e-06 1.55883e-06 -5.30605e-06
5.25873e-06 -1.56607e-06 -1.58257e-06 -5.30609e-06
5.46006e-06 -1.62658e-06 -1.64292e-06 -5.30609e-06
-5.31538e-06 1.60757e-06 1.58906e-06 -5.30605e-06
2.20346e-08 5.63814e-09 -1.18597e-08 -5.41661e-06
5.35939e-06 -1.59633e-06 -1.61274e-06 -5.30609e-06
2.1952e-08 5.57979e-09 -1.17994e-08 -5.41661e-06
2.19937e-08 5.60926e-09 -1.18298e-08 -5.41661e-06
-5.21464e-06 1.57737e-06 1.55883e-06 -5.30605e-06
-5.01315e-06 1.51698e-06 1.49836e-06 -5.30605e-06
5.0574e-06 -1.50557e-06 -1.52221e-06 -5.30608e-06
5.25873e-06 -1.56607e-06 -1.58257e-06 -5.30609e-06
-5.11389e-06 1.54717e-06 1.52859e-06 -5.30605e-06
2.21144e-08 5.6941e-09 -1.19179e-08 -5.41661e-06
5.15806e-06 -1.53582e-06 -1.55239e-06 -5.30609e-06
2.20346e-08 5.63814e-09 -1.18597e-08 -5.41661e-06
2.20748e-08 5.66641e-09 -1.18891e-08 -5.41661e-06
-5.01315e-06 1.51698e-06 1.49836e-06 -5.30605e-06
-4.81166e-06 1.45658e-06 1.43789e-06 -5.30605e-06
4.85606e-06 -1.44507e-06 -1.46186e-06 -5.30608e-06
5.0574e-06 -1.50557e-06 -1.52221e-06 -5.30608e-06
-4.9124e-06 1.48678e-06 1.46813e-06 -5.30605e-06
2.21914e-08 5.7477e-09 -1.19739e-08 -5.41661e-06
4.95673e-06 -1.47532e-06 -1.49203e-06 -5.30608e-06
2.21144e-08 5.6941e-09 -1.19179e-08 -5.41661e-06
2.21532e-08 5.72119e-09 -1.19462e-08 -5.41661e-06
-4.81166e-06 1.45658e-06 1.43789e-06 -5.30605e-06
-4.61018e-06 1.39618e-06 1.37743e-06 -5.30604e-06
4.65473e-06 -1.38457e-06 -1.4015e-06 -5.30608e-06
4.85606e-06 -1.44507e-06 -1.46186e-06 -5.30608e-06
-4.71092e-06 1.42638e-06 1.40766e-06 -5.30604e-06
2.22658e-08 5.79901e-09 -1.20278e-08 -5.4166e-06
4.75539e-06 -1.41482e-06 -1.43168e-06 -5.30608e-06
2.21914e-08 5.7477e-09 -1.19739e-08 -5.41661e-06
2.22289e-08 5.77364e-09 -1.20011e-08 -5.41661e-06
-4.61018e-06 1.39618e-06 1.37743e-06 -5.30604e-06
-4.4087e-06 1.33578e-06 1.31696e-06 -5.30604e-06
4.45339e-06 -1.32407e-06 -1.34114e-06 -5.30607e-06
4.65473e-06 -1.38457e-06 -1.4015e-06 -5.30608e-06
-4.50944e-06 1.36598e-06 1.3472e-06 -5.30604e-06
2.23375e-08 5.8482e-09 -1.20796e-08 -5.4166e-06
4.55406e-06 -1.35432e-06 -1.37132e-06 -5.30608e-06
2.22658e-08 5.79901e-09 -1.20278e-08 -5.4166e-06
2.2302e-08 5.82385e-09 -1.20539e-08 -5.4166e-06
-4.4087e-06 1.33578e-06 1.31696e-06 -5.30604e-06
-4.20723e-06 1.27538e-06 1.2565e-06 -5.30603e-06
4.25205e-06 -1.26358e-06 -1.28078e-06 -5.30606e-06
4.45339e-06 -1.32407e-06 -1.34114e-06 -5.30607e-06
-4.30796e-06 1.30558e-06 1.28673e-06 -5.30603e-06
2.24064e-08 5.8956e-09 -1.21294e-08 -5.41659e-06
4.35272e-06 -1.29382e-06 -1.31096e-06 -5.30607e-06
2.23375e-08 5.8482e-09 -1.20796e-08 -5.4166e-06
2.23723e-08 5.87209e-09 -1.21047e-08 -5.41659e-06
-4.20723e-06 1.27538e-06 1.2565e-06 -5.30603e-06
-4.00576e-06 1.21498e-06 1.19605e-06 -5.30601e-06
4.05072e-06 -1.20309e-06 -1.22041e-06 -5.30605e-06
4.25205e-06 -1.26358e-06 -1.28078e-06 -5.30606e-06
-4.10649e-06 1.24518e-06 1.22628e-06 -5.30602e-06
2.24722e-08 5.94178e-09 -1.21774e-08 -5.41657e-06
4.15139e-06 -1.23333e-06 -1.25059e-06 -5.30606e-06
2.24064e-08 5.8956e-09 -1.21294e-08 -5.41659e-06
2.24397e-08 5.91879e-09 -1.21536e-08 -5.41658e-06
-4.00576e-06 1.21498e-06 1.19605e-06 -5.30601e-06
-3.8043e-06 1.15459e-06 1.13559e-06 -5.30599e-06
3.84938e-06 -1.1426e-06 -1.16005e-06 -5.30602e-06
4.05072e-06 -1.20309e-06 -1.22041e-06 -5.30605e-06
-3.90503e-06 1.18479e-06 1.16582e-06 -5.306e-06
2.25345e-08 5.98772e-09 -1.22238e-08 -5.41654e-06
3.95005e-06 -1.17285e-06 -1.19023e-06 -5.30604e-06
2.24722e-08 5.94178e-09 -1.21774e-08 -5.41657e-06
2.25038e-08 5.9647e-09 -1.22008e-08 -5.41655e-06
-3.8043e-06 1.15459e-06 1.13559e-06 -5.30599e-06
-3.60285e-06 1.09419e-06 1.07514e-06 -5.30596e-06
3.64805e-06 -1.08211e-06 -1.09969e-06 -5.30599e-06
3.84938e-06 -1.1426e-06 -1.16005e-06 -5.30602e-06
-3.70358e-06 1.12439e-06 1.10537e-06 -5.30598e-06
2.25923e-08 6.03489e-09 -1.22688e-08 -5.41651e-06
3.74872e-06 -1.11236e-06 -1.12987e-06 -5.30601e-06
2.25345e-08 5.98772e-09 -1.22238e-08 -5.41654e-06
2.2564e-08 6.01103e-09 -1.22464e-08 -5.41652e-06
-3.60285e-06 1.09419e-06 1.07514e-06 -5.30596e-06
-3.40141e-06 1.03379e-06 1.0147e-06 -5.30594e-06
3.44671e-06 -1.02161e-06 -1.03933e-06 -5.30596e-06
3.64805e-06 -1.08211e-06 -1.09969e-06 -5.30599e-06
-3.50213e-06 1.06399e-06 1.04492e-06 -5.30595e-06
2.26439e-08 6.08553e-09 -1.23126e-08 -5.41648e-06
3.54738e-06 -1.05186e-06 -1.06951e-06 -5.30598e-06
2.25923e-08 6.03489e-09 -1.22688e-08 -5.41651e-06
2.2619e-08 6.0596e-09 -1.22908e-08 -5.41649e-06
-3.40141e-06 1.03379e-06 1.0147e-06 -5.30594e-06
-3.19996e-06 9.73349e-07 9.5426e-07 -5.30595e-06
3.24534e-06 -9.6106e-07 -9.78978e-07 -5.30597e-06
3.44671e-06 -1.02161e-06 -1.03933e-06 -5.30596e-06
-3.30069e-06 1.00357e-06 9.84478e-07 -5.30594e-06
2.26869e-08 6.14286e-09 -1.23556e-08 -5.4165e-06
3.34603e-06 -9.91343e-07 -1.00915e-06 -5.30596e-06
2.26439e-08 6.08553e-09 -1.23126e-08 -5.41648e-06
2.26667e-08 6.11311e-09 -1.23342e-08 -5.41648e-06
-3.19996e-06 9.73349e-07 9.5426e-07 -5.30595e-06
-2.99845e-06 9.12819e-07 8.93844e-07 -5.30608e-06
3.0439e-06 -9.00398e-07 -9.18645e-07 -5.30608e-06
3.24534e-06 -9.6106e-07 -9.78978e-07 -5.30597e-06
-3.09921e-06 9.43101e-07 9.24047e-07 -5.306e-06
2.27173e-08 6.21135e-09 -1.2398e-08 -5.41667e-06
3.14463e-06 -9.30749e-07 -9.48807e-07 -5.306e-06
2.26869e-08 6.14286e-09 -1.23556e-08 -5.4165e-06
2.27039e-08 6.17537e-09 -1.23768e-08 -5.41656e-06
-2.99845e-06 9.12819e-07 8.93844e-07 -5.30608e-06
-2.79676e-06 8.52076e-07 8.33437e-07 -5.30652e-06
2.84224e-06 -8.39491e-07 -8.58321e-07 -5.30649e-06
3.0439e-06 -9.00398e-07 -9.18645e-07 -5.30608e-06
-2.89765e-06 8.82488e-07 8.63641e-07 -5.30625e-06
2.27294e-08 6.29699e-09 -1.24399e-08 -5.4172e-06
2.94312e-06 -8.6999e-07 -8.88484e-07 -5.30623e-06
2.27173e-08 6.21135e-09 -1.2398e-08 -5.41667e-06
2.2726e-08 6.25159e-09 -1.2419e-08 -5.41686e-06
-2.79676e-06 8.52076e-07 8.33437e-07 -5.30652e-06
-2.59472e-06 7.9086e-07 7.73082e-07 -5.30766e-06
2.64018e-06 -7.78064e-07 -7.98049e-07 -5.30758e-06
2.84224e-06 -8.39491e-07 -8.58321e-07 -5.30649e-06
-2.69579e-06 8.21548e-07 8.03246e-07 -5.30697e-06
2.27153e-08 6.40736e-09 -1.24811e-08 -5.41859e-06
2.74126e-06 -8.08864e-07 -8.28171e-07 -5.30692e-06
2.27294e-08 6.29699e-09 -1.24399e-08 -5.4172e-06
2.27262e-08 6.34853e-09 -1.24606e-08 -5.41775e-06
-2.59472e-06 7.9086e-07 7.73082e-07 -5.30766e-06
-2.3917e-06 7.28717e-07 7.12705e-07 -5.31029e-06
2.43706e-06 -7.15645e-07 -7.37751e-07 -5.31014e-06
2.64018e-06 -7.78064e-07 -7.98049e-07 -5.30758e-06
-2.49341e-06 7.59955e-07 7.42908e-07 -5.30871e-06
2.26639e-08 6.55176e-09 -1.2521e-08 -5.42175e-06
2.53883e-06 -7.4703e-07 -7.67914e-07 -5.3086e-06
2.27153e-08 6.40736e-09 -1.24811e-08 -5.41859e-06
2.2695e-08 6.47472e-09 -1.25013e-08 -5.41984e-06
-2.3917e-06 7.28717e-07 7.12705e-07 -5.31029e-06
-2.18708e-06 6.64757e-07 6.52426e-07 -5.31585e-06
2.23227e-06 -6.51326e-07 -6.77547e-07 -5.3156e-06
2.43706e-06 -7.15645e-07 -7.37751e-07 -5.31014e-06
-2.28959e-06 6.97021e-07 6.82528e-07 -5.31258e-06
2.25613e-08 6.74005e-09 -1.25577e-08 -5.42844e-06
2.33488e-06 -6.83782e-07 -7.07613e-07 -5.31239e-06
2.26639e-08 6.55176e-09 -1.2521e-08 -5.42175e-06
2.262e-08 6.63973e-09 -1.25399e-08 -5.42454e-06
-2.18708e-06 6.64757e-07 6.52426e-07 -5.31585e-06
-1.97867e-06 5.977e-07 5.91844e-07 -5.327e-06
2.02354e-06 -5.83808e-07 -6.17029e-07 -5.32662e-06
2.23227e-06 -6.51326e-07 -6.77547e-07 -5.3156e-06
-2.08363e-06 6.31766e-07 6.22227e-07 -5.32049e-06
2.23901e-08 6.9822e-09 -1.25881e-08 -5.44167e-06
2.12868e-06 -6.18119e-07 -6.47382e-07 -5.32018e-06
2.25613e-08 6.74005e-09 -1.25577e-08 -5.42844e-06
2.24855e-08 6.85402e-09 -1.25741e-08 -5.4339e-06
-1.97867e-06 5.977e-07 5.91844e-07 -5.327e-06
-1.76492e-06 5.2522e-07 5.31302e-07 -5.34789e-06
1.80932e-06 -5.10752e-07 -5.5653e-07 -5.34733e-06
2.02354e-06 -5.83808e-07 -6.17029e-07 -5.32662e-06
-1.87238e-06 5.6222e-07 5.61497e-07 -5.3359e-06
2.21314e-08 7.28282e-09 -1.26061e-08 -5.46644e-06
1.91704e-06 -5.48054e-07 -5.86706e-07 -5.33544e-06
2.23901e-08 6.9822e-09 -1.25881e-08 -5.44167e-06
2.22728e-08 7.12497e-09 -1.2599e-08 -5.45237e-06
-1.76492e-06 5.2522e-07 5.31302e-07 -5.34789e-06
-1.53963e-06 4.45255e-07 4.69018e-07 -5.38527e-06
1.58335e-06 -4.30103e-07 -4.94248e-07 -5.38449e-06
1.80932e-06 -5.10752e-07 -5.5653e-07 -5.34733e-06
-1.65458e-06 4.86501e-07 5.00607e-07 -5.36395e-06
2.17667e-08 7.63941e-09 -1.26026e-08 -5.51e-06
1.69867e-06 -4.71704e-07 -5.25842e-07 -5.36328e-06
2.21314e-08 7.28282e-09 -1.26061e-08 -5.46644e-06
2.19635e-08 7.45548e-09 -1.26081e-08 -5.48497e-06
-1.53963e-06 4.45255e-07 4.69018e-07 -5.38527e-06
-1.30178e-06 3.54457e-07 4.05994e-07 -5.44693e-06
1.34459e-06 -3.38554e-07 -4.3116e-07 -5.44589e-06
1.58335e-06 -4.30103e-07 -4.94248e-07 -5.38449e-06
-1.42154e-06 4.00909e-07 4.37412e-07 -5.41258e-06
2.12886e-08 8.02342e-09 -1.25623e-08 -5.58134e-06
1.46483e-06 -3.85384e-07 -4.62621e-07 -5.41167e-06
2.17667e-08 7.63941e-09 -1.26026e-08 -5.51e-06
2.15415e-08 7.83024e-09 -1.25879e-08 -5.54224e-06
-1.30178e-06 3.54457e-07 4.05994e-07 -5.44693e-06
-1.03996e-06 2.57194e-07 3.35473e-07 -5.54153e-06
1.08167e-06 -2.40581e-07 -3.60467e-07 -5.54023e-06
1.34459e-06 -3.38554e-07 -4.3116e-07 -5.44589e-06
-1.17603e-06 3.06839e-07 3.72509e-07 -5.48951e-06
2.07065e-08 8.37871e-09 -1.24651e-08 -5.68717e-06
1.21831e-06 -2.90564e-07 -3.97607e-07 -5.48833e-06
2.12886e-08 8.02342e-09 -1.25623e-08 -5.58134e-06
2.10097e-08 8.21189e-09 -1.25235e-08 -5.62844e-06
-1.03996e-06 2.57194e-07 3.35473e-07 -5.54153e-06
-7.69986e-07 1.61551e-07 2.60758e-07 -5.66447e-06
8.10467e-07 -1.44491e-07 -2.85419e-07 -5.66301e-06
1.08167e-06 -2.40581e-07 -3.60467e-07 -5.54023e-06
-9.01859e-07 2.06087e-07 2.98188e-07 -5.6006e-06
2.0086e-08 8.57021e-09 -1.22812e-08 -5.82024e-06
9.42958e-07 -1.89196e-07 -3.2304e-07 -5.59921e-06
2.07065e-08 8.37871e-09 -1.24651e-08 -5.68717e-06
2.03938e-08 8.5045e-09 -1.2385e-08 -5.75396e-06
-7.69986e-07 1.61551e-07 2.60758e-07 -5.66447e-06
-4.93297e-07 1.1918e-07 1.60336e-07 -5.78571e-06
5.32651e-07 -1.02333e-07 -1.84422e-07 -5.78432e-06
8.10467e-07 -1.44491e-07 -2.85419e-07 -5.66301e-06
-6.36436e-07 1.3191e-07 2.16225e-07 -5.7285e-06
1.95457e-08 8.40981e-09 -1.19809e-08 -5.93375e-06
6.76324e-07 -1.14842e-07 -2.40635e-07 -5.72703e-06
2.0086e-08 8.57021e-09 -1.22812e-08 -5.82024e-06
1.97983e-08 8.55241e-09 -1.21503e-08 -5.88017e-06
-4.93297e-07 1.1918e-07 1.60336e-07 -5.78571e-06
-2.99266e-07 1.89054e-07 4.72337e-08 -5.79093e-06
3.38009e-07 -1.73653e-07 -7.0438e-08 -5.78997e-06
5.32651e-07 -1.02333e-07 -1.84422e-07 -5.78432e-06
-3.70823e-07 1.29154e-07 1.03573e-07 -5.81444e-06
1.93285e-08 7.59416e-09 -1.15383e-08 -5.90417e-06
4.09772e-07 -1.12832e-07 -1.2726e-07 -5.81321e-06
1.95457e-08 8.40981e-09 -1.19809e-08 -5.93375e-06
1.93739e-08 8.10002e-09 -1.17745e-08 -5.95578e-06
-2.99266e-07 1.89054e-07 4.72337e-08 -5.79093e-06
-1.95318e-07 4.90708e-07 -1.26595e-07 -5.46859e-06
2.34454e-07 -4.78616e-07 1.04641e-07 -5.46849e-06
3.38009e-07 -1.73653e-07 -7.0438e-08 -5.78997e-06
-2.5023e-07 3.19179e-07 -2.95495e-08 -5.68786e-06
1.96247e-08 5.90776e-09 -1.09425e-08 -5.52432e-06
2.89017e-07 -3.05178e-07 6.92617e-09 -5.68729e-06
1.93285e-08 7.59416e-09 -1.15383e-08 -5.90417e-06
1.94114e-08 6.8687e-09 -1.12629e-08 -5.75962e-06
-1.95318e-07 4.90708e-07 -1.26595e-07 -5.46859e-06
-2.862e-07 8.85004e-07 -2.56631e-07 -4.46863e-06
3.2705e-07 -8.78041e-07 2.36139e-07 -4.46961e-06
2.34454e-07 -4.78616e-07 1.04641e-07 -5.46849e-06
-1.89114e-07 6.7397e-07 -2.07795e-07 -5.07659e-06
2.06442e-08 3.21406e-09 -1.0225e-08 -4.53021e-06
2.28929e-07 -6.64275e-07 1.86577e-07 -5.07699e-06
1.96247e-08 5.90776e-09 -1.09425e-08 -5.52432e-06
2.00187e-08 4.6962e-09 -1.05921e-08 -5.14521e-06
-2.862e-07 8.85004e-07 -2.56631e-07 -4.46863e-06
-5.39793e-07 1.4479e-06 -3.89191e-07 -2.55564e-06
5.8318e-07 -1.44633e-06 3.6992e-07 -2.55496e-06
3.2705e-07 -8.78041e-07 2.36139e-07 -4.46961e-06
-4.23963e-07 1.14473e-06 -3.08901e-07 -3.63427e-06
2.2441e-08 1.27742e-09 -1.0165e-08 -2.48152e-06
4.66055e-07 -1.14061e-06 2.89095e-07 -3.63512e-06
2.06442e-08 3.21406e-09 -1.0225e-08 -4.53021e-06
2.14639e-08 1.68072e-09 -9.91911e-09 -3.64137e-06
3.49436e-05 0 -1.49758e-05 2.00226e-05
3.55683e-05 -4.87756e-06 -1.31532e-05 6.63348e-06
0.000110147 -1.45818e-05 -4.09565e-05 -4.53262e-07
9.73767e-05 0 -4.17329e-05 1.27536e-05
3.41191e-05 -2.07115e-06 -1.37348e-05 1.26291e-05
7.28377e-05 -9.73818e-06 -2.70427e-05 3.89936e-06
0.000105538 -8.20047e-06 -4.17161e-05 4.77614e-06
6.47167e-05 0 -2.77357e-05 1.82804e-05
6.98004e-05 -4.63621e-06 -2.79275e-05 9.04641e-06
3.55683e-05 -4.87756e-06 -1.31532e-05 6.63348e-06
3.83595e-05 -8.03342e-06 -1.29969e-05 -1.38633e-06
0.000115786 -2.66678e-05 -3.81936e-05 -4.56109e-06
0.000110147 -1.45818e-05 -4.09565e-05 -4.53262e-07
3.75591e-05 -6.76529e-06 -1.31974e-05 1.91767e-06
7.65951e-05 -1.67021e-05 -2.56684e-05 -2.52263e-06
0.000112973 -2.10081e-05 -3.94136e-05 -3.10056e-06
7.28377e-05 -9.73818e-06 -2.70427e-05 3.89936e-06
7.4784e-05 -1.37032e-05 -2.61775e-05 4.21622e-07
3.83595e-05 -8.03342e-06 -1.29969e-05 -1.38633e-06
3.91904e-05 -1.0379e-05 -1.23477e-05 -5.01994e-06
0.000118651 -3.27751e-05 -3.68041e-05 -5.35109e-06
0.000115786 -2.66678e-05 -3.81936e-05 -4.56109e-06
3.86698e-05 -9.28415e-06 -1.25938e-05 -3.57698e-06
7.8799e-05 -2.11587e-05 -2.4703e-05 -5.28743e-06
0.000117906 -3.04568e-05 -3.74782e-05 -5.27923e-06
7.65951e-05 -1.67021e-05 -2.56684e-05 -2.52263e-06
7.80178e-05 -1.92116e-05 -2.52026e-05 -4.43279e-06
3.91904e-05 -1.0379e-05 -1.23477e-05 -5.01994e-06
3.96293e-05 -1.14908e-05 -1.20594e-05 -6.31473e-06
0.000118552 -3.51788e-05 -3.57314e-05 -4.94662e-06
0.000118651 -3.27751e-05 -3.68041e-05 -5.35109e-06
3.9613e-05 -1.10799e-05 -1.22285e-05 -5.88767e-06
7.91758e-05 -2.3148e-05 -2.40119e-05 -5.89681e-06
0.000118656 -3.42834e-05 -3.61596e-05 -5.12499e-06
7.8799e-05 -2.11587e-05 -2.4703e-05 -5.28743e-06
7.91234e-05 -2.24111e-05 -2.43053e-05 -5.67037e-06
3.96293e-05 -1.14908e-05 -1.20594e-05 -6.31473e-06
3.93737e-05 -1.19249e-05 -1.17638e-05 -6.45116e-06
0.000117726 -3.56415e-05 -3.51789e-05 -4.67092e-06
0.000118552 -3.51788e-05 -3.57314e-05 -4.94662e-06
3.9472e-05 -1.17669e-05 -1.18736e-05 -6.45505e-06
7.87165e-05 -2.38051e-05 -2.35334e-05 -5.8015e-06
0.000118267 -3.55659e-05 -3.54432e-05 -4.80977e-06
7.91758e-05 -2.3148e-05 -2.40119e-05 -5.89681e-06
7.90192e-05 -2.35893e-05 -2.37556e-05 -5.92134e-06
3.93737e-05 -1.19249e-05 -1.17638e-05 -6.45116e-06
3.90496e-05 -1.19248e-05 -1.16249e-05 -6.22052e-06
0.000116556 -3.54644e-05 -3.47536e-05 -4.4862e-06
0.000117726 -3.56415e-05 -3.51789e-05 -4.67092e-06
3.92583e-05 -1.19606e-05 -1.1699e-05 -6.35925e-06
7.79477e-05 -2.376e-05 -2.32233e-05 -5.55735e-06
0.000117099 -3.55913e-05 -3.49317e-05 -4.54997e-06
7.87165e-05 -2.38051e-05 -2.35334e-05 -5.8015e-06
7.83365e-05 -2.38368e-05 -2.3357e-05 -5.66293e-06
3.90496e-05 -1.19248e-05 -1.16249e-05 -6.22052e-06
3.8632e-05 -1.18056e-05 -1.1497e-05 -5.92333e-06
0.000115537 -3.50716e-05 -3.44851e-05 -4.42907e-06
0.000116556 -3.54644e-05 -3.47536e-05 -4.4862e-06
3.88175e-05 -1.18705e-05 -1.15487e-05 -6.06574e-06
7.71907e-05 -2.35122e-05 -2.30051e-05 -5.34015e-06
0.000116051 -3.52795e-05 -3.46164e-05 -4.45487e-06
7.79477e-05 -2.376e-05 -2.32233e-05 -5.55735e-06
7.75618e-05 -2.36456e-05 -2.3107e-05 -5.44958e-06
3.8632e-05 -1.18056e-05 -1.1497e-05 -5.92333e-06
3.82915e-05 -1.16503e-05 -1.14176e-05 -5.6876e-06
0.000114608 -3.46867e-05 -3.42522e-05 -4.40437e-06
0.000115537 -3.50716e-05 -3.44851e-05 -4.42907e-06
3.84657e-05 -1.1729e-05 -1.14586e-05 -5.79666e-06
7.6517e-05 -2.32217e-05 -2.28408e-05 -5.18786e-06
0.000115045 -3.48728e-05 -3.43596e-05 -4.41022e-06
7.71907e-05 -2.35122e-05 -2.30051e-05 -5.34015e-06
7.68403e-05 -2.33666e-05 -2.29173e-05 -5.25152e-06
3.82915e-05 -1.16503e-05 -1.14176e-05 -5.6876e-06
3.79797e-05 -1.15151e-05 -1.1342e-05 -5.52467e-06
0.000113817 -3.43483e-05 -3.40579e-05 -4.40527e-06
0.000114608 -3.46867e-05 -3.42522e-05 -4.40437e-06
3.81244e-05 -1.15792e-05 -1.13765e-05 -5.59657e-06
7.59378e-05 -2.2968e-05 -2.27014e-05 -5.09127e-06
0.000114206 -3.45111e-05 -3.41548e-05 -4.40501e-06
7.6517e-05 -2.32217e-05 -2.28408e-05 -5.18786e-06
7.62173e-05 -2.30888e-05 -2.27693e-05 -5.13551e-06
3.79797e-05 -1.15151e-05 -1.1342e-05 -5.52467e-06
3.77183e-05 -1.1401e-05 -1.12788e-05 -5.4247e-06
0.000113095 -3.40652e-05 -3.387e-05 -4.40821e-06
0.000113817 -3.43483e-05 -3.40579e-05 -4.40527e-06
3.78476e-05 -1.14555e-05 -1.13109e-05 -5.46837e-06
7.54283e-05 -2.27547e-05 -2.25744e-05 -5.03525e-06
0.000113445 -3.42004e-05 -3.3962e-05 -4.40586e-06
7.59378e-05 -2.2968e-05 -2.27014e-05 -5.09127e-06
7.56757e-05 -2.28566e-05 -2.26368e-05 -5.05827e-06
3.77183e-05 -1.1401e-05 -1.12788e-05 -5.4247e-06
3.74786e-05 -1.13077e-05 -1.12161e-05 -5.36669e-06
0.00011243 -3.38217e-05 -3.36894e-05 -4.41322e-06
0.000113095 -3.40652e-05 -3.387e-05 -4.40821e-06
3.75944e-05 -1.13521e-05 -1.12467e-05 -5.39137e-06
7.49656e-05 -2.25773e-05 -2.24522e-05 -5.00417e-06
0.000112759 -3.39394e-05 -3.37799e-05 -4.41112e-06
7.54283e-05 -2.27547e-05 -2.25744e-05 -5.03525e-06
7.51925e-05 -2.26621e-05 -2.2513e-05 -5.01777e-06
3.74786e-05 -1.13077e-05 -1.12161e-05 -5.36669e-06
3.72586e-05 -1.12277e-05 -1.11561e-05 -5.33536e-06
0.000111793 -3.36054e-05 -3.3509e-05 -4.41648e-06
0.00011243 -3.38217e-05 -3.36894e-05 -4.41322e-06
3.73677e-05 -1.12664e-05 -1.11863e-05 -5.34858e-06
7.4531e-05 -2.24234e-05 -2.23319e-05 -4.98815e-06
0.000112108 -3.37109e-05 -3.35989e-05 -4.41487e-06
7.49656e-05 -2.25773e-05 -2.24522e-05 -5.00417e-06
7.47457e-05 -2.2498e-05 -2.23919e-05 -4.99458e-06
3.72586e-05 -1.12277e-05 -1.11561e-05 -5.33536e-06
3.70469e-05 -1.11565e-05 -1.10959e-05 -5.31921e-06
0.000111174 -3.34052e-05 -3.33293e-05 -4.41892e-06
0.000111793 -3.36054e-05 -3.3509e-05 -4.41648e-06
3.71515e-05 -1.11912e-05 -1.11258e-05 -5.32588e-06
7.41124e-05 -2.22845e-05 -2.22119e-05 -4.98021e-06
0.000111482 -3.35038e-05 -3.34193e-05 -4.4179e-06
7.4531e-05 -2.24234e-05 -2.23319e-05 -4.98815e-06
7.43203e-05 -2.23525e-05 -2.22719e-05 -4.98356e-06
3.70469e-05 -1.11565e-05 -1.10959e-05 -5.31921e-06
3.68411e-05 -1.10903e-05 -1.1036e-05 -5.31145e-06
0.000110562 -3.32142e-05 -3.31491e-05 -4.42031e-06
0.000111174 -3.34052e-05 -3.33293e-05 -4.41892e-06
3.69437e-05 -1.1123e-05 -1.1066e-05 -5.31461e-06
7.37023e-05 -2.21543e-05 -2.2092e-05 -4.97663e-06
0.000110867 -3.33088e-05 -3.32392e-05 -4.41968e-06
7.41124e-05 -2.22845e-05 -2.22119e-05 -4.98021e-06
7.39066e-05 -2.22186e-05 -2.2152e-05 -4.97801e-06
3.68411e-05 -1.10903e-05 -1.1036e-05 -5.31145e-06
3.66377e-05 -1.1027e-05 -1.09761e-05 -5.30795e-06
0.000109955 -3.30282e-05 -3.29688e-05 -4.42116e-06
0.000110562 -3.32142e-05 -3.31491e-05 -4.42031e-06
3.67391e-05 -1.10584e-05 -1.1006e-05 -5.30933e-06
7.32965e-05 -2.20287e-05 -2.19719e-05 -4.97512e-06
0.000110259 -3.31208e-05 -3.3059e-05 -4.42081e-06
7.37023e-05 -2.21543e-05 -2.2092e-05 -4.97663e-06
7.3499e-05 -2.2091e-05 -2.2032e-05 -4.97572e-06
3.66377e-05 -1.1027e-05 -1.09761e-05 -5.30795e-06
3.64358e-05 -1.0965e-05 -1.09161e-05 -5.30654e-06
0.00010935 -3.28446e-05 -3.27882e-05 -4.42161e-06
0.000109955 -3.30282e-05 -3.29688e-05 -4.42116e-06
3.65367e-05 -1.09959e-05 -1.09461e-05 -5.30708e-06
7.28927e-05 -2.19055e-05 -2.18517e-05 -4.9746e-06
0.000109653 -3.29362e-05 -3.28785e-05 -4.42142e-06
7.32965e-05 -2.20287e-05 -2.19719e-05 -4.97512e-06
7.30944e-05 -2.19669e-05 -2.19118e-05 -4.97477e-06
3.64358e-05 -1.0965e-05 -1.09161e-05 -5.30654e-06
3.62345e-05 -1.09038e-05 -1.0856e-05 -5.30607e-06
0.000108746 -3.26623e-05 -3.26074e-05 -4.42186e-06
0.00010935 -3.28446e-05 -3.27882e-05 -4.42161e-06
3.63351e-05 -1.09343e-05 -1.0886e-05 -5.30623e-06
7.24899e-05 -2.17836e-05 -2.17313e-05 -4.97448e-06
0.000109048 -3.27533e-05 -3.26978e-05 -4.42176e-06
7.28927e-05 -2.19055e-05 -2.18517e-05 -4.9746e-06
7.26912e-05 -2.18444e-05 -2.17915e-05 -4.97451e-06
3.62345e-05 -1.09038e-05 -1.0856e-05 -5.30607e-06
3.60334e-05 -1.08429e-05 -1.07959e-05 -5.30598e-06
0.000108142 -3.24805e-05 -3.24265e-05 -4.42198e-06
0.000108746 -3.26623e-05 -3.26074e-05 -4.42186e-06
3.61339e-05 -1.08733e-05 -1.0826e-05 -5.306e-06
7.20874e-05 -2.16621e-05 -2.16108e-05 -4.9745e-06
0.000108444 -3.25713e-05 -3.2517e-05 -4.42193e-06
7.24899e-05 -2.17836e-05 -2.17313e-05 -4.97448e-06
7.22886e-05 -2.17228e-05 -2.1671e-05 -4.97448e-06
3.60334e-05 -1.08429e-05 -1.07959e-05 -5.30598e-06
3.58324e-05 -1.07821e-05 -1.07358e-05 -5.30602e-06
0.000107539 -3.22989e-05 -3.22456e-05 -4.42204e-06
0.000108142 -3.24805e-05 -3.24265e-05 -4.42198e-06
3.59329e-05 -1.08125e-05 -1.07659e-05 -5.30599e-06
7.1685e-05 -2.15409e-05 -2.14903e-05 -4.97457e-06
0.00010784 -3.23896e-05 -3.2336e-05 -4.42202e-06
7.20874e-05 -2.16621e-05 -2.16108e-05 -4.9745e-06
7.18861e-05 -2.16015e-05 -2.15506e-05 -4.97454e-06
3.58324e-05 -1.07821e-05 -1.07358e-05 -5.30602e-06
3.56314e-05 -1.07214e-05 -1.06757e-05 -5.30609e-06
0.000106935 -3.21173e-05 -3.20646e-05 -4.42207e-06
0.000107539 -3.22989e-05 -3.22456e-05 -4.42204e-06
3.57319e-05 -1.07518e-05 -1.07058e-05 -5.30606e-06
7.12826e-05 -2.14198e-05 -2.13698e-05 -4.97462e-06
0.000107237 -3.22081e-05 -3.21551e-05 -4.42206e-06
7.1685e-05 -2.15409e-05 -2.14903e-05 -4.97457e-06
7.14838e-05 -2.14804e-05 -2.143e-05 -4.9746e-06
3.56314e-05 -1.07214e-05 -1.06757e-05 -5.30609e-06
3.54304e-05 -1.06607e-05 -1.06156e-05 -5.30615e-06
0.000106331 -3.19358e-05 -3.18836e-05 -4.42208e-06
0.000106935 -3.21173e-05 -3.20646e-05 -4.42207e-06
3.55309e-05 -1.06911e-05 -1.06456e-05 -5.30612e-06
7.08802e-05 -2.12987e-05 -2.12492e-05 -4.97466e-06
0.000106633 -3.20266e-05 -3.19741e-05 -4.42207e-06
7.12826e-05 -2.14198e-05 -2.13698e-05 -4.97462e-06
7.10814e-05 -2.13592e-05 -2.13095e-05 -4.97465e-06
3.54304e-05 -1.06607e-05 -1.06156e-05 -5.30615e-06
3.52294e-05 -1.06e-05 -1.05554e-05 -5.30619e-06
0.000105727 -3.17543e-05 -3.17026e-05 -4.42208e-06
0.000106331 -3.19358e-05 -3.18836e-05 -4.42208e-06
3.53299e-05 -1.06304e-05 -1.05855e-05 -5.30617e-06
7.04778e-05 -2.11776e-05 -2.11287e-05 -4.97469e-06
0.000106029 -3.18451e-05 -3.17931e-05 -4.42208e-06
7.08802e-05 -2.12987e-05 -2.12492e-05 -4.97466e-06
7.0679e-05 -2.12381e-05 -2.11889e-05 -4.97468e-06
3.52294e-05 -1.06e-05 -1.05554e-05 -5.30619e-06
3.50284e-05 -1.05394e-05 -1.04953e-05 -5.30621e-06
0.000105123 -3.15728e-05 -3.15216e-05 -4.42208e-06
0.000105727 -3.17543e-05 -3.17026e-05 -4.42208e-06
3.51289e-05 -1.05697e-05 -1.05254e-05 -5.3062e-06
7.00754e-05 -2.10565e-05 -2.10081e-05 -4.9747e-06
0.000105425 -3.16635e-05 -3.16121e-05 -4.42208e-06
7.04778e-05 -2.11776e-05 -2.11287e-05 -4.97469e-06
7.02766e-05 -2.1117e-05 -2.10684e-05 -4.9747e-06
3.50284e-05 -1.05394e-05 -1.04953e-05 -5.30621e-06
3.48274e-05 -1.04787e-05 -1.04352e-05 -5.30623e-06
0.000104519 -3.13912e-05 -3.13406e-05 -4.42208e-06
0.000105123 -3.15728e-05 -3.15216e-05 -4.42208e-06
3.49279e-05 -1.0509e-05 -1.04652e-05 -5.30622e-06
6.96729e-05 -2.09354e-05 -2.08875e-05 -4.97471e-06
0.000104821 -3.1482e-05 -3.14311e-05 -4.42208e-06
7.00754e-05 -2.10565e-05 -2.10081e-05 -4.9747e-06
6.98741e-05 -2.09959e-05 -2.09478e-05 -4.97471e-06
3.48274e-05 -1.04787e-05 -1.04352e-05 -5.30623e-06
3.46263e-05 -1.0418e-05 -1.0375e-05 -5.30624e-06
0.000103915 -3.12097e-05 -3.11596e-05 -4.42208e-06
0.000104519 -3.13912e-05 -3.13406e-05 -4.42208e-06
3.47269e-05 -1.04483e-05 -1.04051e-05 -5.30623e-06
6.92705e-05 -2.08142e-05 -2.0767e-05 -4.97471e-06
0.000104217 -3.13004e-05 -3.12501e-05 -4.42208e-06
6.96729e-05 -2.09354e-05 -2.08875e-05 -4.97471e-06
6.94717e-05 -2.08748e-05 -2.08272e-05 -4.97471e-06
3.46263e-05 -1.0418e-05 -1.0375e-05 -5.30624e-06
3.44253e-05 -1.03573e-05 -1.03149e-05 -5.30624e-06
0.000103312 -3.10281e-05 -3.09786e-05 -4.42207e-06
0.000103915 -3.12097e-05 -3.11596e-05 -4.42208e-06
3.45258e-05 -1.03876e-05 -1.03449e-05 -5.30624e-06
6.8868e-05 -2.06931e-05 -2.06464e-05 -4.97472e-06
0.000103614 -3.11189e-05 -3.10691e-05 -4.42208e-06
6.92705e-05 -2.08142e-05 -2.0767e-05 -4.97471e-06
6.90693e-05 -2.07537e-05 -2.07067e-05 -4.97472e-06
3.44253e-05 -1.03573e-05 -1.03149e-05 -5.30624e-06
3.42243e-05 -1.02966e-05 -1.02547e-05 -5.30624e-06
0.000102708 -3.08466e-05 -3.07976e-05 -4.42207e-06
0.000103312 -3.10281e-05 -3.09786e-05 -4.42207e-06
3.43248e-05 -1.03269e-05 -1.02848e-05 -5.30624e-06
6.84656e-05 -2.0572e-05 -2.05258e-05 -4.97471e-06
0.00010301 -3.09373e-05 -3.08881e-05 -4.42207e-06
6.8868e-05 -2.06931e-05 -2.06464e-05 -4.97472e-06
6.86668e-05 -2.06326e-05 -2.05861e-05 -4.97472e-06
3.42243e-05 -1.02966e-05 -1.02547e-05 -5.30624e-06
3.40233e-05 -1.02359e-05 -1.01946e-05 -5.30624e-06
0.000102104 -3.0665e-05 -3.06166e-05 -4.42207e-06
0.000102708 -3.08466e-05 -3.07976e-05 -4.42207e-06
3.41238e-05 -1.02662e-05 -1.02247e-05 -5.30624e-06
6.80631e-05 -2.04509e-05 -2.04053e-05 -4.97471e-06
0.000102406 -3.07558e-05 -3.07071e-05 -4.42207e-06
6.84656e-05 -2.0572e-05 -2.05258e-05 -4.97471e-06
6.82644e-05 -2.05114e-05 -2.04655e-05 -4.97471e-06
3.40233e-05 -1.02359e-05 -1.01946e-05 -5.30624e-06
3.38223e-05 -1.01752e-05 -1.01345e-05 -5.30624e-06
0.0001015 -3.04834e-05 -3.04356e-05 -4.42207e-06
0.000102104 -3.0665e-05 -3.06166e-05 -4.42207e-06
3.39228e-05 -1.02056e-05 -1.01645e-05 -5.30624e-06
6.76607e-05 -2.03297e-05 -2.02847e-05 -4.97471e-06
0.000101802 -3.05742e-05 -3.05261e-05 -4.42207e-06
6.80631e-05 -2.04509e-05 -2.04053e-05 -4.97471e-06
6.78619e-05 -2.03903e-05 -2.0345e-05 -4.97471e-06
3.38223e-05 -1.01752e-05 -1.01345e-05 -5.30624e-06
3.36212e-05 -1.01145e-05 -1.00743e-05 -5.30624e-06
0.000100896 -3.03019e-05 -3.02546e-05 -4.42206e-06
0.0001015 -3.04834e-05 -3.04356e-05 -4.42207e-06
3.37217e-05 -1.01449e-05 -1.01044e-05 -5.30624e-06
6.72582e-05 -2.02086e-05 -2.01641e-05 -4.97471e-06
0.000101198 -3.03927e-05 -3.03451e-05 -4.42206e-06
6.76607e-05 -2.03297e-05 -2.02847e-05 -4.97471e-06
6.74595e-05 -2.02692e-05 -2.02244e-05 -4.97471e-06
3.36212e-05 -1.01145e-05 -1.00743e-05 -5.30624e-06
3.34202e-05 -1.00538e-05 -1.00142e-05 -5.30624e-06
0.000100292 -3.01203e-05 -3.00736e-05 -4.42206e-06
0.000100896 -3.03019e-05 -3.02546e-05 -4.42206e-06
3.35207e-05 -1.00842e-05 -1.00442e-05 -5.30624e-06
6.68558e-05 -2.00875e-05 -2.00436e-05 -4.97471e-06
0.000100594 -3.02111e-05 -3.01641e-05 -4.42206e-06
6.72582e-05 -2.02086e-05 -2.01641e-05 -4.97471e-06
6.7057e-05 -2.0148e-05 -2.01038e-05 -4.97471e-06
3.34202e-05 -1.00538e-05 -1.00142e-05 -5.30624e-06
3.32192e-05 -9.99313e-06 -9.95402e-06 -5.30624e-06
9.96882e-05 -2.99388e-05 -2.98926e-05 -4.42206e-06
0.000100292 -3.01203e-05 -3.00736e-05 -4.42206e-06
3.33197e-05 -1.00235e-05 -9.98409e-06 -5.30624e-06
6.64533e-05 -1.99663e-05 -1.9923e-05 -4.97471e-06
9.99902e-05 -3.00296e-05 -2.99831e-05 -4.42206e-06
6.68558e-05 -2.00875e-05 -2.00436e-05 -4.97471e-06
6.66545e-05 -2.00269e-05 -1.99833e-05 -4.97471e-06
3.32192e-05 -9.99313e-06 -9.95402e-06 -5.30624e-06
3.30182e-05 -9.93243e-06 -9.89388e-06 -5.30623e-06
9.90843e-05 -2.97572e-05 -2.97116e-05 -4.42206e-06
9.96882e-05 -2.99388e-05 -2.98926e-05 -4.42206e-06
3.31187e-05 -9.96278e-06 -9.92395e-06 -5.30624e-06
6.60509e-05 -1.98452e-05 -1.98024e-05 -4.9747e-06
9.93863e-05 -2.9848e-05 -2.98021e-05 -4.42206e-06
6.64533e-05 -1.99663e-05 -1.9923e-05 -4.97471e-06
6.62521e-05 -1.99058e-05 -1.98627e-05 -4.97471e-06
3.30182e-05 -9.93243e-06 -9.89388e-06 -5.30623e-06
3.28171e-05 -9.87174e-06 -9.83374e-06 -5.30623e-06
9.84804e-05 -2.95757e-05 -2.95306e-05 -4.42205e-06
9.90843e-05 -2.97572e-05 -2.97116e-05 -4.42206e-06
3.29176e-05 -9.90208e-06 -9.86381e-06 -5.30623e-06
6.56484e-05 -1.97241e-05 -1.96819e-05 -4.9747e-06
9.87824e-05 -2.96664e-05 -2.96211e-05 -4.42206e-06
6.60509e-05 -1.98452e-05 -1.98024e-05 -4.9747e-06
6.58496e-05 -1.97846e-05 -1.97421e-05 -4.9747e-06
3.28171e-05 -9.87174e-06 -9.83374e-06 -5.30623e-06
3.26161e-05 -9.81104e-06 -9.77359e-06 -5.30623e-06
9.78766e-05 -2.93941e-05 -2.93496e-05 -4.42205e-06
9.84804e-05 -2.95757e-05 -2.95306e-05 -4.42205e-06
3.27166e-05 -9.84139e-06 -9.80367e-06 -5.30623e-06
6.5246e-05 -1.96029e-05 -1.95613e-05 -4.9747e-06
9.81785e-05 -2.94849e-05 -2.94401e-05 -4.42205e-06
6.56484e-05 -1.97241e-05 -1.96819e-05 -4.9747e-06
6.54472e-05 -1.96635e-05 -1.96216e-05 -4.9747e-06
3.26161e-05 -9.81104e-06 -9.77359e-06 -5.30623e-06
3.24151e-05 -9.75035e-06 -9.71345e-06 -5.30623e-06
9.72727e-05 -2.92125e-05 -2.91686e-05 -4.42205e-06
9.78766e-05 -2.93941e-05 -2.93496e-05 -4.42205e-06
3.25156e-05 -9.7807e-06 -9.74352e-06 -5.30623e-06
6.48435e-05 -1.94818e-05 -1.94407e-05 -4.9747e-06
9.75746e-05 -2.93033e-05 -2.92591e-05 -4.42205e-06
6.5246e-05 -1.96029e-05 -1.95613e-05 -4.9747e-06
6.50447e-05 -1.95424e-05 -1.9501e-05 -4.9747e-06
3.24151e-05 -9.75035e-06 -9.71345e-06 -5.30623e-06
3.2214e-05 -9.68966e-06 -9.6533e-06 -5.30623e-06
9.66688e-05 -2.9031e-05 -2.89876e-05 -4.42205e-06
9.72727e-05 -2.92125e-05 -2.91686e-05 -4.42205e-06
3.23145e-05 -9.72e-06 -9.68338e-06 -5.30623e-06
6.4441e-05 -1.93607e-05 -1.93202e-05 -4.9747e-06
9.69707e-05 -2.91218e-05 -2.90781e-05 -4.42205e-06
6.48435e-05 -1.94818e-05 -1.94407e-05 -4.9747e-06
6.46423e-05 -1.94212e-05 -1.93804e-05 -4.9747e-06
3.2214e-05 -9.68966e-06 -9.6533e-06 -5.30623e-06
3.2013e-05 -9.62896e-06 -9.59316e-06 -5.30623e-06
9.60649e-05 -2.88494e-05 -2.88066e-05 -4.42205e-06
9.66688e-05 -2.9031e-05 -2.89876e-05 -4.42205e-06
3.21135e-05 -9.65931e-06 -9.62323e-06 -5.30623e-06
6.40386e-05 -1.92396e-05 -1.91996e-05 -4.9747e-06
9.63668e-05 -2.89402e-05 -2.88971e-05 -4.42205e-06
6.4441e-05 -1.93607e-05 -1.93202e-05 -4.9747e-06
6.42398e-05 -1.93001e-05 -1.92599e-05 -4.9747e-06
3.2013e-05 -9.62896e-06 -9.59316e-06 -5.30623e-06
3.1812e-05 -9.56827e-06 -9.53301e-06 -5.30623e-06
9.5461e-05 -2.86679e-05 -2.86256e-05 -4.42204e-06
9.60649e-05 -2.88494e-05 -2.88066e-05 -4.42205e-06
3.19125e-05 -9.59861e-06 -9.56309e-06 -5.30623e-06
6.36361e-05 -1.91184e-05 -1.9079e-05 -4.97469e-06
9.57629e-05 -2.87586e-05 -2.87161e-05 -4.42205e-06
6.40386e-05 -1.92396e-05 -1.91996e-05 -4.9747e-06
6.38373e-05 -1.9179e-05 -1.91393e-05 -4.9747e-06
3.1812e-05 -9.56827e-06 -9.53301e-06 -5.30623e-06
3.16109e-05 -9.50757e-06 -9.47287e-06 -5.30623e-06
9.48571e-05 -2.84863e-05 -2.84446e-05 -4.42204e-06
9.5461e-05 -2.86679e-05 -2.86256e-05 -4.42204e-06
3.17114e-05 -9.53792e-06 -9.50294e-06 -5.30623e-06
6.32337e-05 -1.89973e-05 -1.89584e-05 -4.97469e-06
9.5159e-05 -2.85771e-05 -2.85351e-05 -4.42204e-06
6.36361e-05 -1.91184e-05 -1.9079e-05 -4.97469e-06
6.34349e-05 -1.90579e-05 -1.90187e-05 -4.97469e-06
3.16109e-05 -9.50757e-06 -9.47287e-06 -5.30623e-06
3.14099e-05 -9.44688e-06 -9.41272e-06 -5.30623e-06
9.42532e-05 -2.83047e-05 -2.82636e-05 -4.42204e-06
9.48571e-05 -2.84863e-05 -2.84446e-05 -4.42204e-06
3.15104e-05 -9.47723e-06 -9.44279e-06 -5.30623e-06
6.28312e-05 -1.88762e-05 -1.88379e-05 -4.97469e-06
9.45551e-05 -2.83955e-05 -2.83541e-05 -4.42204e-06
6.32337e-05 -1.89973e-05 -1.89584e-05 -4.97469e-06
6.30324e-05 -1.89367e-05 -1.88982e-05 -4.97469e-06
3.14099e-05 -9.44688e-06 -9.41272e-06 -5.30623e-06
3.12089e-05 -9.38619e-06 -9.35257e-06 -5.30623e-06
9.36493e-05 -2.81232e-05 -2.80826e-05 -4.42204e-06
9.42532e-05 -2.83047e-05 -2.82636e-05 -4.42204e-06
3.13094e-05 -9.41653e-06 -9.38265e-06 -5.30623e-06
6.24287e-05 -1.8755e-05 -1.87173e-05 -4.97469e-06
9.39512e-05 -2.8214e-05 -2.81731e-05 -4.42204e-06
6.28312e-05 -1.88762e-05 -1.88379e-05 -4.97469e-06
6.263e-05 -1.88156e-05 -1.87776e-05 -4.97469e-06
3.12089e-05 -9.38619e-06 -9.35257e-06 -5.30623e-06
3.10078e-05 -9.32549e-06 -9.29242e-06 -5.30622e-06
9.30454e-05 -2.79416e-05 -2.79016e-05 -4.42204e-06
9.36493e-05 -2.81232e-05 -2.80826e-05 -4.42204e-06
3.11083e-05 -9.35584e-06 -9.3225e-06 -5.30622e-06
6.20263e-05 -1.86339e-05 -1.85967e-05 -4.97469e-06
9.33473e-05 -2.80324e-05 -2.79921e-05 -4.42204e-06
6.24287e-05 -1.8755e-05 -1.87173e-05 -4.97469e-06
6.22275e-05 -1.86945e-05 -1.8657e-05 -4.97469e-06
3.10078e-05 -9.32549e-06 -9.29242e-06 -5.30622e-06
3.08068e-05 -9.2648e-06 -9.23228e-06 -5.30622e-06
9.24415e-05 -2.77601e-05 -2.77206e-05 -4.42203e-06
9.30454e-05 -2.79416e-05 -2.79016e-05 -4.42204e-06
3.09073e-05 -9.29515e-06 -9.26235e-06 -5.30622e-06
6.16238e-05 -1.85128e-05 -1.84762e-05 -4.97469e-06
9.27434e-05 -2.78508e-05 -2.78111e-05 -4.42204e-06
6.20263e-05 -1.86339e-05 -1.85967e-05 -4.97469e-06
6.1825e-05 -1.85733e-05 -1.85364e-05 -4.97469e-06
3.08068e-05 -9.2648e-06 -9.23228e-06 -5.30622e-06
3.06057e-05 -9.20411e-06 -9.17213e-06 -5.30622e-06
9.18376e-05 -2.75785e-05 -2.75396e-05 -4.42203e-06
9.24415e-05 -2.77601e-05 -2.77206e-05 -4.42203e-06
3.07063e-05 -9.23446e-06 -9.2022e-06 -5.30622e-06
6.12213e-05 -1.83916e-05 -1.83556e-05 -4.97468e-06
9.21395e-05 -2.76693e-05 -2.76301e-05 -4.42203e-06
6.16238e-05 -1.85128e-05 -1.84762e-05 -4.97469e-06
6.14226e-05 -1.84522e-05 -1.84159e-05 -4.97469e-06
3.06057e-05 -9.20411e-06 -9.17213e-06 -5.30622e-06
3.04047e-05 -9.14342e-06 -9.11198e-06 -5.30622e-06
9.12337e-05 -2.7397e-05 -2.73586e-05 -4.42203e-06
9.18376e-05 -2.75785e-05 -2.75396e-05 -4.42203e-06
3.05052e-05 -9.17376e-06 -9.14205e-06 -5.30622e-06
6.08189e-05 -1.82705e-05 -1.8235e-05 -4.97468e-06
9.15356e-05 -2.74877e-05 -2.74491e-05 -4.42203e-06
6.12213e-05 -1.83916e-05 -1.83556e-05 -4.97468e-06
6.10201e-05 -1.83311e-05 -1.82953e-05 -4.97468e-06
3.04047e-05 -9.14342e-06 -9.11198e-06 -5.30622e-06
3.02037e-05 -9.08273e-06 -9.05183e-06 -5.30622e-06
9.06298e-05 -2.72154e-05 -2.71776e-05 -4.42203e-06
9.12337e-05 -2.7397e-05 -2.73586e-05 -4.42203e-06
3.03042e-05 -9.11307e-06 -9.0819e-06 -5.30622e-06
6.04164e-05 -1.81494e-05 -1.81144e-05 -4.97468e-06
9.09317e-05 -2.73062e-05 -2.72681e-05 -4.42203e-06
6.08189e-05 -1.82705e-05 -1.8235e-05 -4.97468e-06
6.06176e-05 -1.82099e-05 -1.81747e-05 -4.97468e-06
3.02037e-05 -9.08273e-06 -9.05183e-06 -5.30622e-06
3.00026e-05 -9.02203e-06 -8.99168e-06 -5.30622e-06
9.00259e-05 -2.70338e-05 -2.69966e-05 -4.42203e-06
9.06298e-05 -2.72154e-05 -2.71776e-05 -4.42203e-06
3.01031e-05 -9.05238e-06 -9.02175e-06 -5.30622e-06
6.00139e-05 -1.80282e-05 -1.79939e-05 -4.97468e-06
9.03278e-05 -2.71246e-05 -2.70871e-05 -4.42203e-06
6.04164e-05 -1.81494e-05 -1.81144e-05 -4.97468e-06
6.02152e-05 -1.80888e-05 -1.80541e-05 -4.97468e-06
3.00026e-05 -9.02203e-06 -8.99168e-06 -5.30622e-06
2.98016e-05 -8.96134e-06 -8.93152e-06 -5.30622e-06
8.9422e-05 -2.68523e-05 -2.68156e-05 -4.42202e-06
9.00259e-05 -2.70338e-05 -2.69966e-05 -4.42203e-06
2.99021e-05 -8.99169e-06 -8.9616e-06 -5.30622e-06
5.96114e-05 -1.79071e-05 -1.78733e-05 -4.97468e-06
8.97239e-05 -2.69431e-05 -2.69061e-05 -4.42202e-06
6.00139e-05 -1.80282e-05 -1.79939e-05 -4.97468e-06
5.98127e-05 -1.79677e-05 -1.79336e-05 -4.97468e-06
2.98016e-05 -8.96134e-06 -8.93152e-06 -5.30622e-06
2.96005e-05 -8.90065e-06 -8.87137e-06 -5.30622e-06
8.88181e-05 -2.66707e-05 -2.66346e-05 -4.42202e-06
8.9422e-05 -2.68523e-05 -2.68156e-05 -4.42202e-06
2.9701e-05 -8.931e-06 -8.90145e-06 -5.30622e-06
5.9209e-05 -1.7786e-05 -1.77527e-05 -4.97468e-06
8.912e-05 -2.67615e-05 -2.67251e-05 -4.42202e-06
5.96114e-05 -1.79071e-05 -1.78733e-05 -4.97468e-06
5.94102e-05 -1.78466e-05 -1.7813e-05 -4.97468e-06
2.96005e-05 -8.90065e-06 -8.87137e-06 -5.30622e-06
2.93995e-05 -8.83996e-06 -8.81122e-06 -5.30622e-06
8.82141e-05 -2.64892e-05 -2.64536e-05 -4.42202e-06
8.88181e-05 -2.66707e-05 -2.66346e-05 -4.42202e-06
2.95e-05 -8.87031e-06 -8.84129e-06 -5.30622e-06
5.88065e-05 -1.76649e-05 -1.76321e-05 -4.97467e-06
8.85161e-05 -2.65799e-05 -2.65441e-05 -4.42202e-06
5.9209e-05 -1.7786e-05 -1.77527e-05 -4.97468e-06
5.90077e-05 -1.77254e-05 -1.76924e-05 -4.97468e-06
2.93995e-05 -8.83996e-06 -8.81122e-06 -5.30622e-06
2.91984e-05 -8.77927e-06 -8.75106e-06 -5.30621e-06
8.76102e-05 -2.63076e-05 -2.62726e-05 -4.42202e-06
8.82141e-05 -2.64892e-05 -2.64536e-05 -4.42202e-06
2.92989e-05 -8.80962e-06 -8.78114e-06 -5.30621e-06
5.8404e-05 -1.75437e-05 -1.75116e-05 -4.97467e-06
8.79122e-05 -2.63984e-05 -2.63631e-05 -4.42202e-06
5.88065e-05 -1.76649e-05 -1.76321e-05 -4.97467e-06
5.86053e-05 -1.76043e-05 -1.75718e-05 -4.97467e-06
2.91984e-05 -8.77927e-06 -8.75106e-06 -5.30621e-06
2.89974e-05 -8.71858e-06 -8.69091e-06 -5.30621e-06
8.70063e-05 -2.6126e-05 -2.60915e-05 -4.42202e-06
8.76102e-05 -2.63076e-05 -2.62726e-05 -4.42202e-06
2.90979e-05 -8.74893e-06 -8.72099e-06 -5.30621e-06
5.80016e-05 -1.74226e-05 -1.7391e-05 -4.97467e-06
8.73083e-05 -2.62168e-05 -2.61821e-05 -4.42202e-06
5.8404e-05 -1.75437e-05 -1.75116e-05 -4.97467e-06
5.82028e-05 -1.74832e-05 -1.74513e-05 -4.97467e-06
2.89974e-05 -8.71858e-06 -8.69091e-06 -5.30621e-06
2.87963e-05 -8.6579e-06 -8.63075e-06 -5.30621e-06
8.64024e-05 -2.59445e-05 -2.59105e-05 -4.42201e-06
8.70063e-05 -2.6126e-05 -2.60915e-05 -4.42202e-06
2.88968e-05 -8.68824e-06 -8.66083e-06 -5.30621e-06
5.75991e-05 -1.73015e-05 -1.72704e-05 -4.97467e-06
8.67044e-05 -2.60353e-05 -2.6001e-05 -4.42201e-06
5.80016e-05 -1.74226e-05 -1.7391e-05 -4.97467e-06
5.78003e-05 -1.7362e-05 -1.73307e-05 -4.97467e-06
2.87963e-05 -8.6579e-06 -8.63075e-06 -5.30621e-06
2.85953e-05 -8.59721e-06 -8.5706e-06 -5.30621e-06
8.57985e-05 -2.57629e-05 -2.57295e-05 -4.42201e-06
8.64024e-05 -2.59445e-05 -2.59105e-05 -4.42201e-06
2.86958e-05 -8.62755e-06 -8.60067e-06 -5.30621e-06
5.71966e-05 -1.71804e-05 -1.71498e-05 -4.97467e-06
8.61005e-05 -2.58537e-05 -2.582e-05 -4.42201e-06
5.75991e-05 -1.73015e-05 -1.72704e-05 -4.97467e-06
5.73978e-05 -1.72409e-05 -1.72101e-05 -4.97467e-06
2.85953e-05 -8.59721e-06 -8.5706e-06 -5.30621e-06
2.83942e-05 -8.53652e-06 -8.51044e-06 -5.30621e-06
8.51946e-05 -2.55814e-05 -2.55485e-05 -4.42201e-06
8.57985e-05 -2.57629e-05 -2.57295e-05 -4.42201e-06
2.84947e-05 -8.56686e-06 -8.54052e-06 -5.30621e-06
5.67941e-05 -1.70592e-05 -1.70292e-05 -4.97467e-06
8.54965e-05 -2.56722e-05 -2.5639e-05 -4.42201e-06
5.71966e-05 -1.71804e-05 -1.71498e-05 -4.97467e-06
5.69954e-05 -1.71198e-05 -1.70895e-05 -4.97467e-06
2.83942e-05 -8.53652e-06 -8.51044e-06 -5.30621e-06
2.81932e-05 -8.47583e-06 -8.45028e-06 -5.30621e-06
8.45907e-05 -2.53998e-05 -2.53675e-05 -4.42201e-06
8.51946e-05 -2.55814e-05 -2.55485e-05 -4.42201e-06
2.82937e-05 -8.50618e-06 -8.48036e-06 -5.30621e-06
5.63916e-05 -1.69381e-05 -1.69087e-05 -4.97466e-06
8.48926e-05 -2.54906e-05 -2.5458e-05 -4.42201e-06
5.67941e-05 -1.70592e-05 -1.70292e-05 -4.97467e-06
5.65929e-05 -1.69987e-05 -1.69689e-05 -4.97466e-06
2.81932e-05 -8.47583e-06 -8.45028e-06 -5.30621e-06
2.79921e-05 -8.41515e-06 -8.39012e-06 -5.30621e-06
8.39868e-05 -2.52183e-05 -2.51865e-05 -4.422e-06
8.45907e-05 -2.53998e-05 -2.53675e-05 -4.42201e-06
2.80926e-05 -8.44549e-06 -8.4202e-06 -5.30621e-06
5.59892e-05 -1.6817e-05 -1.67881e-05 -4.97466e-06
8.42887e-05 -2.5309e-05 -2.5277e-05 -4.42201e-06
5.63916e-05 -1.69381e-05 -1.69087e-05 -4.97466e-06
5.61904e-05 -1.68775e-05 -1.68484e-05 -4.97466e-06
2.79921e-05 -8.41515e-06 -8.39012e-06 -5.30621e-06
2.7791e-05 -8.35446e-06 -8.32996e-06 -5.30621e-06
8.33828e-05 -2.50367e-05 -2.50055e-05 -4.422e-06
8.39868e-05 -2.52183e-05 -2.51865e-05 -4.422e-06
2.78916e-05 -8.3848e-06 -8.36004e-06 -5.30621e-06
5.55867e-05 -1.66959e-05 -1.66675e-05 -4.97466e-06
8.36848e-05 -2.51275e-05 -2.5096e-05 -4.422e-06
5.59892e-05 -1.6817e-05 -1.67881e-05 -4.97466e-06
5.57879e-05 -1.67564e-05 -1.67278e-05 -4.97466e-06
2.7791e-05 -8.35446e-06 -8.32996e-06 -5.30621e-06
2.759e-05 -8.29378e-06 -8.2698e-06 -5.30621e-06
8.27789e-05 -2.48552e-05 -2.48245e-05 -4.422e-06
8.33828e-05 -2.50367e-05 -2.50055e-05 -4.422e-06
2.76905e-05 -8.32412e-06 -8.29988e-06 -5.30621e-06
5.51842e-05 -1.65747e-05 -1.65469e-05 -4.97466e-06
8.30809e-05 -2.49459e-05 -2.4915e-05 -4.422e-06
5.55867e-05 -1.66959e-05 -1.66675e-05 -4.97466e-06
5.53854e-05 -1.66353e-05 -1.66072e-05 -4.97466e-06
2.759e-05 -8.29378e-06 -8.2698e-06 -5.30621e-06
2.73889e-05 -8.23309e-06 -8.20964e-06 -5.3062e-06
8.2175e-05 -2.46736e-05 -2.46435e-05 -4.422e-06
8.27789e-05 -2.48552e-05 -2.48245e-05 -4.422e-06
2.74894e-05 -8.26344e-06 -8.23972e-06 -5.3062e-06
5.47817e-05 -1.64536e-05 -1.64263e-05 -4.97466e-06
8.2477e-05 -2.47644e-05 -2.4734e-05 -4.422e-06
5.51842e-05 -1.65747e-05 -1.65469e-05 -4.97466e-06
5.49829e-05 -1.65142e-05 -1.64866e-05 -4.97466e-06
2.73889e-05 -8.23309e-06 -8.20964e-06 -5.3062e-06
2.71879e-05 -8.17241e-06 -8.14948e-06 -5.3062e-06
8.15711e-05 -2.4492e-05 -2.44624e-05 -4.422e-06
8.2175e-05 -2.46736e-05 -2.46435e-05 -4.422e-06
2.72884e-05 -8.20275e-06 -8.17956e-06 -5.3062e-06
5.43792e-05 -1.63325e-05 -1.63057e-05 -4.97466e-06
8.1873e-05 -2.45828e-05 -2.4553e-05 -4.422e-06
5.47817e-05 -1.64536e-05 -1.64263e-05 -4.97466e-06
5.45805e-05 -1.6393e-05 -1.6366e-05 -4.97466e-06
2.71879e-05 -8.17241e-06 -8.14948e-06 -5.3062e-06
2.69868e-05 -8.11173e-06 -8.08931e-06 -5.3062e-06
8.09672e-05 -2.43105e-05 -2.42814e-05 -4.42199e-06
8.15711e-05 -2.4492e-05 -2.44624e-05 -4.422e-06
2.70873e-05 -8.14207e-06 -8.11939e-06 -5.3062e-06
5.39767e-05 -1.62114e-05 -1.61852e-05 -4.97465e-06
8.12691e-05 -2.44013e-05 -2.43719e-05 -4.42199e-06
5.43792e-05 -1.63325e-05 -1.63057e-05 -4.97466e-06
5.4178e-05 -1.62719e-05 -1.62454e-05 -4.97465e-06
2.69868e-05 -8.11173e-06 -8.08931e-06 -5.3062e-06
2.67857e-05 -8.05104e-06 -8.02915e-06 -5.3062e-06
8.03632e-05 -2.41289e-05 -2.41004e-05 -4.42199e-06
8.09672e-05 -2.43105e-05 -2.42814e-05 -4.42199e-06
2.68863e-05 -8.08139e-06 -8.05923e-06 -5.3062e-06
5.35742e-05 -1.60902e-05 -1.60646e-05 -4.97465e-06
8.06652e-05 -2.42197e-05 -2.41909e-05 -4.42199e-06
5.39767e-05 -1.62114e-05 -1.61852e-05 -4.97465e-06
5.37755e-05 -1.61508e-05 -1.61249e-05 -4.97465e-06
2.67857e-05 -8.05104e-06 -8.02915e-06 -5.3062e-06
2.65847e-05 -7.99036e-06 -7.96898e-06 -5.3062e-06
7.97593e-05 -2.39474e-05 -2.39194e-05 -4.42199e-06
8.03632e-05 -2.41289e-05 -2.41004e-05 -4.42199e-06
2.66852e-05 -8.0207e-06 -7.99906e-06 -5.3062e-06
5.31717e-05 -1.59691e-05 -1.5944e-05 -4.97465e-06
8.00613e-05 -2.40382e-05 -2.40099e-05 -4.42199e-06
5.35742e-05 -1.60902e-05 -1.60646e-05 -4.97465e-06
5.3373e-05 -1.60297e-05 -1.60043e-05 -4.97465e-06
2.65847e-05 -7.99036e-06 -7.96898e-06 -5.3062e-06
2.63836e-05 -7.92968e-06 -7.90881e-06 -5.3062e-06
7.91554e-05 -2.37658e-05 -2.37384e-05 -4.42199e-06
7.97593e-05 -2.39474e-05 -2.39194e-05 -4.42199e-06
2.64841e-05 -7.96002e-06 -7.9389e-06 -5.3062e-06
5.27692e-05 -1.5848e-05 -1.58234e-05 -4.97465e-06
7.94574e-05 -2.38566e-05 -2.38289e-05 -4.42199e-06
5.31717e-05 -1.59691e-05 -1.5944e-05 -4.97465e-06
5.29705e-05 -1.59086e-05 -1.58837e-05 -4.97465e-06
2.63836e-05 -7.92968e-06 -7.90881e-06 -5.3062e-06
2.61825e-05 -7.869e-06 -7.84865e-06 -5.3062e-06
7.85515e-05 -2.35843e-05 -2.35574e-05 -4.42199e-06
7.91554e-05 -2.37658e-05 -2.37384e-05 -4.42199e-06
2.6283e-05 -7.89934e-06 -7.87873e-06 -5.3062e-06
5.23667e-05 -1.57269e-05 -1.57028e-05 -4.97465e-06
7.88534e-05 -2.36751e-05 -2.36479e-05 -4.42199e-06
5.27692e-05 -1.5848e-05 -1.58234e-05 -4.97465e-06
5.2568e-05 -1.57874e-05 -1.57631e-05 -4.97465e-06
2.61825e-05 -7.869e-06 -7.84865e-06 -5.3062e-06
2.59814e-05 -7.80832e-06 -7.78848e-06 -5.3062e-06
7.79475e-05 -2.34027e-05 -2.33763e-05 -4.42198e-06
7.85515e-05 -2.35843e-05 -2.35574e-05 -4.42199e-06
2.6082e-05 -7.83866e-06 -7.81856e-06 -5.3062e-06
5.19642e-05 -1.56058e-05 -1.55822e-05 -4.97464e-06
7.82495e-05 -2.34935e-05 -2.34669e-05 -4.42198e-06
5.23667e-05 -1.57269e-05 -1.57028e-05 -4.97465e-06
5.21655e-05 -1.56663e-05 -1.56425e-05 -4.97465e-06
2.59814e-05 -7.80832e-06 -7.78848e-06 -5.3062e-06
2.57804e-05 -7.74765e-06 -7.72831e-06 -5.30619e-06
7.73436e-05 -2.32212e-05 -2.31953e-05 -4.42198e-06
7.79475e-05 -2.34027e-05 -2.33763e-05 -4.42198e-06
2.58809e-05 -7.77799e-06 -7.75839e-06 -5.3062e-06
5.15617e-05 -1.54846e-05 -1.54616e-05 -4.97464e-06
7.76456e-05 -2.3312e-05 -2.32858e-05 -4.42198e-06
5.19642e-05 -1.56058e-05 -1.55822e-05 -4.97464e-06
5.1763e-05 -1.55452e-05 -1.55219e-05 -4.97464e-06
2.57804e-05 -7.74765e-06 -7.72831e-06 -5.30619e-06
2.55793e-05 -7.68697e-06 -7.66814e-06 -5.30619e-06
7.67397e-05 -2.30396e-05 -2.30143e-05 -4.42198e-06
7.73436e-05 -2.32212e-05 -2.31953e-05 -4.42198e-06
2.56798e-05 -7.71731e-06 -7.69822e-06 -5.30619e-06
5.11592e-05 -1.53635e-05 -1.5341e-05 -4.97464e-06
7.70416e-05 -2.31304e-05 -2.31048e-05 -4.42198e-06
5.15617e-05 -1.54846e-05 -1.54616e-05 -4.97464e-06
5.13605e-05 -1.54241e-05 -1.54013e-05 -4.97464e-06
2.55793e-05 -7.68697e-06 -7.66814e-06 -5.30619e-06
2.53782e-05 -7.62629e-06 -7.60796e-06 -5.30619e-06
7.61357e-05 -2.28581e-05 -2.28333e-05 -4.42198e-06
7.67397e-05 -2.30396e-05 -2.30143e-05 -4.42198e-06
2.54787e-05 -7.65663e-06 -7.63805e-06 -5.30619e-06
5.07567e-05 -1.52424e-05 -1.52204e-05 -4.97464e-06
7.64377e-05 -2.29489e-05 -2.29238e-05 -4.42198e-06
5.11592e-05 -1.53635e-05 -1.5341e-05 -4.97464e-06
5.0958e-05 -1.5303e-05 -1.52807e-05 -4.97464e-06
2.53782e-05 -7.62629e-06 -7.60796e-06 -5.30619e-06
2.51771e-05 -7.56562e-06 -7.54779e-06 -5.30619e-06
7.55318e-05 -2.26765e-05 -2.26523e-05 -4.42197e-06
7.61357e-05 -2.28581e-05 -2.28333e-05 -4.42198e-06
2.52777e-05 -7.59596e-06 -7.57788e-06 -5.30619e-06
5.03542e-05 -1.51213e-05 -1.50998e-05 -4.97464e-06
7.58338e-05 -2.27673e-05 -2.27428e-05 -4.42198e-06
5.07567e-05 -1.52424e-05 -1.52204e-05 -4.97464e-06
5.05555e-05 -1.51819e-05 -1.51601e-05 -4.97464e-06
2.51771e-05 -7.56562e-06 -7.54779e-06 -5.30619e-06
2.4976e-05 -7.50494e-06 -7.48761e-06 -5.30619e-06
7.49279e-05 -2.2495e-05 -2.24712e-05 -4.42197e-06
7.55318e-05 -2.26765e-05 -2.26523e-05 -4.42197e-06
2.50766e-05 -7.53528e-06 -7.5177e-06 -5.30619e-06
4.99517e-05 -1.50002e-05 -1.49792e-05 -4.97464e-06
7.52298e-05 -2.25858e-05 -2.25617e-05 -4.42197e-06
5.03542e-05 -1.51213e-05 -1.50998e-05 -4.97464e-06
5.0153e-05 -1.50607e-05 -1.50395e-05 -4.97464e-06
2.4976e-05 -7.50494e-06 -7.48761e-06 -5.30619e-06
2.4775e-05 -7.44427e-06 -7.42744e-06 -5.30619e-06
7.43239e-05 -2.23134e-05 -2.22902e-05 -4.42197e-06
7.49279e-05 -2.2495e-05 -2.24712e-05 -4.42197e-06
2.48755e-05 -7.47461e-06 -7.45753e-06 -5.30619e-06
4.95492e-05 -1.48791e-05 -1.48586e-05 -4.97463e-06
7.46259e-05 -2.24042e-05 -2.23807e-05 -4.42197e-06
4.99517e-05 -1.50002e-05 -1.49792e-05 -4.97464e-06
4.97505e-05 -1.49396e-05 -1.49189e-05 -4.97464e-06
2.4775e-05 -7.44427e-06 -7.42744e-06 -5.30619e-06
2.45739e-05 -7.3836e-06 -7.36726e-06 -5.30619e-06
7.372e-05 -2.21319e-05 -2.21092e-05 -4.42197e-06
7.43239e-05 -2.23134e-05 -2.22902e-05 -4.42197e-06
2.46744e-05 -7.41393e-06 -7.39735e-06 -5.30619e-06
4.91467e-05 -1.4758e-05 -1.4738e-05 -4.97463e-06
7.4022e-05 -2.22227e-05 -2.21997e-05 -4.42197e-06
4.95492e-05 -1.48791e-05 -1.48586e-05 -4.97463e-06
4.9348e-05 -1.48185e-05 -1.47983e-05 -4.97463e-06
2.45739e-05 -7.3836e-06 -7.36726e-06 -5.30619e-06
2.43728e-05 -7.32293e-06 -7.30708e-06 -5.30619e-06
7.31161e-05 -2.19504e-05 -2.19282e-05 -4.42197e-06
7.372e-05 -2.21319e-05 -2.21092e-05 -4.42197e-06
2.44733e-05 -7.35326e-06 -7.33717e-06 -5.30619e-06
4.87442e-05 -1.46368e-05 -1.46174e-05 -4.97463e-06
7.3418e-05 -2.20411e-05 -2.20187e-05 -4.42197e-06
4.91467e-05 -1.4758e-05 -1.4738e-05 -4.97463e-06
4.89455e-05 -1.46974e-05 -1.46777e-05 -4.97463e-06
2.43728e-05 -7.32293e-06 -7.30708e-06 -5.30619e-06
2.41717e-05 -7.26226e-06 -7.2469e-06 -5.30619e-06
7.25121e-05 -2.17688e-05 -2.17471e-05 -4.42196e-06
7.31161e-05 -2.19504e-05 -2.19282e-05 -4.42197e-06
2.42722e-05 -7.29259e-06 -7.27699e-06 -5.30619e-06
4.83417e-05 -1.45157e-05 -1.44968e-05 -4.97463e-06
7.28141e-05 -2.18596e-05 -2.18376e-05 -4.42196e-06
4.87442e-05 -1.46368e-05 -1.46174e-05 -4.97463e-06
4.8543e-05 -1.45763e-05 -1.45571e-05 -4.97463e-06
2.41717e-05 -7.26226e-06 -7.2469e-06 -5.30619e-06
2.39706e-05 -7.20159e-06 -7.18672e-06 -5.30618e-06
7.19082e-05 -2.15873e-05 -2.15661e-05 -4.42196e-06
7.25121e-05 -2.17688e-05 -2.17471e-05 -4.42196e-06
2.40712e-05 -7.23192e-06 -7.21681e-06 -5.30619e-06
4.79392e-05 -1.43946e-05 -1.43762e-05 -4.97463e-06
7.22101e-05 -2.1678e-05 -2.16566e-05 -4.42196e-06
4.83417e-05 -1.45157e-05 -1.44968e-05 -4.97463e-06
4.81404e-05 -1.44552e-05 -1.44365e-05 -4.97463e-06
2.39706e-05 -7.20159e-06 -7.18672e-06 -5.30618e-06
2.37695e-05 -7.14092e-06 -7.12654e-06 -5.30618e-06
7.13042e-05 -2.14057e-05 -2.13851e-05 -4.42196e-06
7.19082e-05 -2.15873e-05 -2.15661e-05 -4.42196e-06
2.38701e-05 -7.17125e-06 -7.15663e-06 -5.30618e-06
4.75367e-05 -1.42735e-05 -1.42556e-05 -4.97463e-06
7.16062e-05 -2.14965e-05 -2.14756e-05 -4.42196e-06
4.79392e-05 -1.43946e-05 -1.43762e-05 -4.97463e-06
4.77379e-05 -1.43341e-05 -1.43159e-05 -4.97463e-06
2.37695e-05 -7.14092e-06 -7.12654e-06 -5.30618e-06
2.35684e-05 -7.08025e-06 -7.06636e-06 -5.30618e-06
7.07003e-05 -2.12242e-05 -2.1204e-05 -4.42196e-06
7.13042e-05 -2.14057e-05 -2.13851e-05 -4.42196e-06
2.3669e-05 -7.11059e-06 -7.09645e-06 -5.30618e-06
4.71342e-05 -1.41524e-05 -1.4135e-05 -4.97462e-06
7.10022e-05 -2.13149e-05 -2.12946e-05 -4.42196e-06
4.75367e-05 -1.42735e-05 -1.42556e-05 -4.97463e-06
4.73354e-05 -1.4213e-05 -1.41953e-05 -4.97462e-06
2.35684e-05 -7.08025e-06 -7.06636e-06 -5.30618e-06
2.33673e-05 -7.01959e-06 -7.00617e-06 -5.30618e-06
7.00963e-05 -2.10426e-05 -2.1023e-05 -4.42196e-06
7.07003e-05 -2.12242e-05 -2.1204e-05 -4.42196e-06
2.34679e-05 -7.04992e-06 -7.03627e-06 -5.30618e-06
4.67316e-05 -1.40313e-05 -1.40144e-05 -4.97462e-06
7.03983e-05 -2.11334e-05 -2.11135e-05 -4.42196e-06
4.71342e-05 -1.41524e-05 -1.4135e-05 -4.97462e-06
4.69329e-05 -1.40919e-05 -1.40747e-05 -4.97462e-06
2.33673e-05 -7.01959e-06 -7.00617e-06 -5.30618e-06
2.31662e-05 -6.95892e-06 -6.94599e-06 -5.30618e-06
6.94924e-05 -2.08611e-05 -2.0842e-05 -4.42195e-06
7.00963e-05 -2.10426e-05 -2.1023e-05 -4.42196e-06
2.32668e-05 -6.98925e-06 -6.97608e-06 -5.30618e-06
4.63291e-05 -1.39102e-05 -1.38938e-05 -4.97462e-06
6.97943e-05 -2.09519e-05 -2.09325e-05 -4.42195e-06
4.67316e-05 -1.40313e-05 -1.40144e-05 -4.97462e-06
4.65304e-05 -1.39707e-05 -1.39541e-05 -4.97462e-06
2.31662e-05 -6.95892e-06 -6.94599e-06 -5.30618e-06
2.29651e-05 -6.89826e-06 -6.8858e-06 -5.30618e-06
6.88884e-05 -2.06796e-05 -2.06609e-05 -4.42195e-06
6.94924e-05 -2.08611e-05 -2.0842e-05 -4.42195e-06
2.30657e-05 -6.92859e-06 -6.91589e-06 -5.30618e-06
4.59266e-05 -1.37891e-05 -1.37732e-05 -4.97462e-06
6.91904e-05 -2.07703e-05 -2.07515e-05 -4.42195e-06
4.63291e-05 -1.39102e-05 -1.38938e-05 -4.97462e-06
4.61278e-05 -1.38496e-05 -1.38335e-05 -4.97462e-06
2.29651e-05 -6.89826e-06 -6.8858e-06 -5.30618e-06
2.2764e-05 -6.8376e-06 -6.82561e-06 -5.30618e-06
6.82845e-05 -2.0498e-05 -2.04799e-05 -4.42195e-06
6.88884e-05 -2.06796e-05 -2.06609e-05 -4.42195e-06
2.28646e-05 -6.86793e-06 -6.85571e-06 -5.30618e-06
4.55241e-05 -1.3668e-05 -1.36526e-05 -4.97462e-06
6.85864e-05 -2.05888e-05 -2.05704e-05 -4.42195e-06
4.59266e-05 -1.37891e-05 -1.37732e-05 -4.97462e-06
4.57253e-05 -1.37285e-05 -1.37129e-05 -4.97462e-06
2.2764e-05 -6.8376e-06 -6.82561e-06 -5.30618e-06
2.25629e-05 -6.77693e-06 -6.76542e-06 -5.30618e-06
6.76805e-05 -2.03165e-05 -2.02989e-05 -4.42195e-06
6.82845e-05 -2.0498e-05 -2.04799e-05 -4.42195e-06
2.26635e-05 -6.80726e-06 -6.79552e-06 -5.30618e-06
4.51215e-05 -1.35469e-05 -1.3532e-05 -4.97462e-06
6.79825e-05 -2.04073e-05 -2.03894e-05 -4.42195e-06
4.55241e-05 -1.3668e-05 -1.36526e-05 -4.97462e-06
4.53228e-05 -1.36074e-05 -1.35923e-05 -4.97462e-06
2.25629e-05 -6.77693e-06 -6.76542e-06 -5.30618e-06
2.23618e-05 -6.71627e-06 -6.70523e-06 -5.30618e-06
6.70766e-05 -2.01349e-05 -2.01178e-05 -4.42194e-06
6.76805e-05 -2.03165e-05 -2.02989e-05 -4.42195e-06
2.24624e-05 -6.7466e-06 -6.73533e-06 -5.30618e-06
4.4719e-05 -1.34258e-05 -1.34114e-05 -4.97461e-06
6.73785e-05 -2.02257e-05 -2.02084e-05 -4.42195e-06
4.51215e-05 -1.35469e-05 -1.3532e-05 -4.97462e-06
4.49203e-05 -1.34863e-05 -1.34717e-05 -4.97461e-06
2.23618e-05 -6.71627e-06 -6.70523e-06 -5.30618e-06
2.21607e-05 -6.65561e-06 -6.64504e-06 -5.30617e-06
6.64726e-05 -1.99534e-05 -1.99368e-05 -4.42194e-06
6.70766e-05 -2.01349e-05 -2.01178e-05 -4.42194e-06
2.22613e-05 -6.68594e-06 -6.67513e-06 -5.30617e-06
4.43165e-05 -1.33047e-05 -1.32908e-05 -4.97461e-06
6.67746e-05 -2.00442e-05 -2.00273e-05 -4.42194e-06
4.4719e-05 -1.34258e-05 -1.34114e-05 -4.97461e-06
4.45177e-05 -1.33652e-05 -1.33511e-05 -4.97461e-06
2.21607e-05 -6.65561e-06 -6.64504e-06 -5.30617e-06
2.19596e-05 -6.59496e-06 -6.58484e-06 -5.30617e-06
6.58686e-05 -1.97719e-05 -1.97558e-05 -4.42194e-06
6.64726e-05 -1.99534e-05 -1.99368e-05 -4.42194e-06
2.20601e-05 -6.62529e-06 -6.61494e-06 -5.30617e-06
4.39139e-05 -1.31836e-05 -1.31702e-05 -4.97461e-06
6.61706e-05 -1.98626e-05 -1.98463e-05 -4.42194e-06
4.43165e-05 -1.33047e-05 -1.32908e-05 -4.97461e-06
4.41152e-05 -1.32441e-05 -1.32305e-05 -4.97461e-06
2.19596e-05 -6.59496e-06 -6.58484e-06 -5.30617e-06
2.17585e-05 -6.5343e-06 -6.52465e-06 -5.30617e-06
6.52647e-05 -1.95903e-05 -1.95747e-05 -4.42194e-06
6.58686e-05 -1.97719e-05 -1.97558e-05 -4.42194e-06
2.1859e-05 -6.56463e-06 -6.55474e-06 -5.30617e-06
4.35114e-05 -1.30625e-05 -1.30495e-05 -4.97461e-06
6.55667e-05 -1.96811e-05 -1.96652e-05 -4.42194e-06
4.39139e-05 -1.31836e-05 -1.31702e-05 -4.97461e-06
4.37127e-05 -1.3123e-05 -1.31098e-05 -4.97461e-06
2.17585e-05 -6.5343e-06 -6.52465e-06 -5.30617e-06
2.15574e-05 -6.47364e-06 -6.46445e-06 -5.30617e-06
6.46607e-05 -1.94088e-05 -1.93937e-05 -4.42194e-06
6.52647e-05 -1.95903e-05 -1.95747e-05 -4.42194e-06
2.16579e-05 -6.50397e-06 -6.49455e-06 -5.30617e-06
4.31089e-05 -1.29414e-05 -1.29289e-05 -4.97461e-06
6.49627e-05 -1.94996e-05 -1.94842e-05 -4.42194e-06
4.35114e-05 -1.30625e-05 -1.30495e-05 -4.97461e-06
4.33101e-05 -1.30019e-05 -1.29892e-05 -4.97461e-06
2.15574e-05 -6.47364e-06 -6.46445e-06 -5.30617e-06
2.13562e-05 -6.41299e-06 -6.40425e-06 -5.30617e-06
6.40567e-05 -1.92273e-05 -1.92126e-05 -4.42193e-06
6.46607e-05 -1.94088e-05 -1.93937e-05 -4.42194e-06
2.14568e-05 -6.44332e-06 -6.43435e-06 -5.30617e-06
4.27063e-05 -1.28203e-05 -1.28083e-05 -4.9746e-06
6.43587e-05 -1.9318e-05 -1.93031e-05 -4.42193e-06
4.31089e-05 -1.29414e-05 -1.29289e-05 -4.97461e-06
4.29076e-05 -1.28808e-05 -1.28686e-05 -4.97461e-06
2.13562e-05 -6.41299e-06 -6.40425e-06 -5.30617e-06
2.11551e-05 -6.35234e-06 -6.34405e-06 -5.30617e-06
6.34528e-05 -1.90458e-05 -1.90316e-05 -4.42193e-06
6.40567e-05 -1.92273e-05 -1.92126e-05 -4.42193e-06
2.12557e-05 -6.38266e-06 -6.37415e-06 -5.30617e-06
4.23038e-05 -1.26992e-05 -1.26877e-05 -4.9746e-06
6.37548e-05 -1.91365e-05 -1.91221e-05 -4.42193e-06
4.27063e-05 -1.28203e-05 -1.28083e-05 -4.9746e-06
4.25051e-05 -1.27597e-05 -1.2748e-05 -4.9746e-06
2.11551e-05 -6.35234e-06 -6.34405e-06 -5.30617e-06
2.0954e-05 -6.29169e-06 -6.28385e-06 -5.30617e-06
6.28488e-05 -1.88642e-05 -1.88505e-05 -4.42193e-06
6.34528e-05 -1.90458e-05 -1.90316e-05 -4.42193e-06
2.10546e-05 -6.32201e-06 -6.31395e-06 -5.30617e-06
4.19012e-05 -1.25781e-05 -1.25671e-05 -4.9746e-06
6.31508e-05 -1.8955e-05 -1.89411e-05 -4.42193e-06
4.23038e-05 -1.26992e-05 -1.26877e-05 -4.9746e-06
4.21025e-05 -1.26387e-05 -1.26274e-05 -4.9746e-06
2.0954e-05 -6.29169e-06 -6.28385e-06 -5.30617e-06
2.07529e-05 -6.23104e-06 -6.22365e-06 -5.30617e-06
6.22448e-05 -1.86827e-05 -1.86695e-05 -4.42193e-06
6.28488e-05 -1.88642e-05 -1.88505e-05 -4.42193e-06
2.08534e-05 -6.26136e-06 -6.25375e-06 -5.30617e-06
4.14987e-05 -1.2457e-05 -1.24464e-05 -4.9746e-06
6.25468e-05 -1.87735e-05 -1.876e-05 -4.42193e-06
4.19012e-05 -1.25781e-05 -1.25671e-05 -4.9746e-06
4.17e-05 -1.25176e-05 -1.25067e-05 -4.9746e-06
2.07529e-05 -6.23104e-06 -6.22365e-06 -5.30617e-06
2.05518e-05 -6.17039e-06 -6.16344e-06 -5.30616e-06
6.16409e-05 -1.85012e-05 -1.84884e-05 -4.42193e-06
6.22448e-05 -1.86827e-05 -1.86695e-05 -4.42193e-06
2.06523e-05 -6.20071e-06 -6.19354e-06 -5.30617e-06
4.10962e-05 -1.23359e-05 -1.23258e-05 -4.9746e-06
6.19428e-05 -1.85919e-05 -1.8579e-05 -4.42193e-06
4.14987e-05 -1.2457e-05 -1.24464e-05 -4.9746e-06
4.12974e-05 -1.23965e-05 -1.23861e-05 -4.9746e-06
2.05518e-05 -6.17039e-06 -6.16344e-06 -5.30616e-06
2.03506e-05 -6.10974e-06 -6.10324e-06 -5.30616e-06
6.10369e-05 -1.83196e-05 -1.83074e-05 -4.42192e-06
6.16409e-05 -1.85012e-05 -1.84884e-05 -4.42193e-06
2.04512e-05 -6.14006e-06 -6.13334e-06 -5.30616e-06
4.06936e-05 -1.22148e-05 -1.22052e-05 -4.9746e-06
6.13389e-05 -1.84104e-05 -1.83979e-05 -4.42192e-06
4.10962e-05 -1.23359e-05 -1.23258e-05 -4.9746e-06
4.08949e-05 -1.22754e-05 -1.22655e-05 -4.9746e-06
2.03506e-05 -6.10974e-06 -6.10324e-06 -5.30616e-06
2.01495e-05 -6.04909e-06 -6.04303e-06 -5.30616e-06
6.04329e-05 -1.81381e-05 -1.81263e-05 -4.42192e-06
6.10369e-05 -1.83196e-05 -1.83074e-05 -4.42192e-06
2.02501e-05 -6.07942e-06 -6.07313e-06 -5.30616e-06
4.02911e-05 -1.20937e-05 -1.20846e-05 -4.97459e-06
6.07349e-05 -1.82289e-05 -1.82169e-05 -4.42192e-06
4.06936e-05 -1.22148e-05 -1.22052e-05 -4.9746e-06
4.04923e-05 -1.21543e-05 -1.21449e-05 -4.97459e-06
2.01495e-05 -6.04909e-06 -6.04303e-06 -5.30616e-06
1.99484e-05 -5.98845e-06 -5.98282e-06 -5.30616e-06
5.98289e-05 -1.79566e-05 -1.79453e-05 -4.42192e-06
6.04329e-05 -1.81381e-05 -1.81263e-05 -4.42192e-06
2.00489e-05 -6.01877e-06 -6.01292e-06 -5.30616e-06
3.98885e-05 -1.19727e-05 -1.19639e-05 -4.97459e-06
6.01309e-05 -1.80474e-05 -1.80358e-05 -4.42192e-06
4.02911e-05 -1.20937e-05 -1.20846e-05 -4.97459e-06
4.00898e-05 -1.20332e-05 -1.20242e-05 -4.97459e-06
1.99484e-05 -5.98845e-06 -5.98282e-06 -5.30616e-06
1.97472e-05 -5.92781e-06 -5.92261e-06 -5.30616e-06
5.92249e-05 -1.77751e-05 -1.77642e-05 -4.42192e-06
5.98289e-05 -1.79566e-05 -1.79453e-05 -4.42192e-06
1.98478e-05 -5.95813e-06 -5.95271e-06 -5.30616e-06
3.94859e-05 -1.18516e-05 -1.18433e-05 -4.97459e-06
5.95269e-05 -1.78658e-05 -1.78548e-05 -4.42192e-06
3.98885e-05 -1.19727e-05 -1.19639e-05 -4.97459e-06
3.96872e-05 -1.19121e-05 -1.19036e-05 -4.97459e-06
1.97472e-05 -5.92781e-06 -5.92261e-06 -5.30616e-06
1.95461e-05 -5.86716e-06 -5.8624e-06 -5.30616e-06
5.8621e-05 -1.75936e-05 -1.75832e-05 -4.42191e-06
5.92249e-05 -1.77751e-05 -1.77642e-05 -4.42192e-06
1.96467e-05 -5.89749e-06 -5.8925e-06 -5.30616e-06
3.90834e-05 -1.17305e-05 -1.17227e-05 -4.97459e-06
5.89229e-05 -1.76843e-05 -1.76737e-05 -4.42192e-06
3.94859e-05 -1.18516e-05 -1.18433e-05 -4.97459e-06
3.92847e-05 -1.1791e-05 -1.1783e-05 -4.97459e-06
1.95461e-05 -5.86716e-06 -5.8624e-06 -5.30616e-06
1.93449e-05 -5.80652e-06 -5.80218e-06 -5.30616e-06
5.8017e-05 -1.7412e-05 -1.74021e-05 -4.42191e-06
5.8621e-05 -1.75936e-05 -1.75832e-05 -4.42191e-06
1.94455e-05 -5.83684e-06 -5.83229e-06 -5.30616e-06
3.86808e-05 -1.16094e-05 -1.1602e-05 -4.97459e-06
5.8319e-05 -1.75028e-05 -1.74926e-05 -4.42191e-06
3.90834e-05 -1.17305e-05 -1.17227e-05 -4.97459e-06
3.88821e-05 -1.16699e-05 -1.16624e-05 -4.97459e-06
1.93449e-05 -5.80652e-06 -5.80218e-06 -5.30616e-06
1.91438e-05 -5.74589e-06 -5.74197e-06 -5.30616e-06
5.7413e-05 -1.72305e-05 -1.72211e-05 -4.42191e-06
5.8017e-05 -1.7412e-05 -1.74021e-05 -4.42191e-06
1.92444e-05 -5.7762e-06 -5.77207e-06 -5.30616e-06
3.82783e-05 -1.14883e-05 -1.14814e-05 -4.97459e-06
5.7715e-05 -1.73213e-05 -1.73116e-05 -4.42191e-06
3.86808e-05 -1.16094e-05 -1.1602e-05 -4.97459e-06
3.84795e-05 -1.15489e-05 -1.15417e-05 -4.97459e-06
1.91438e-05 -5.74589e-06 -5.74197e-06 -5.30616e-06
1.89427e-05 -5.68525e-06 -5.68175e-06 -5.30616e-06
5.6809e-05 -1.7049e-05 -1.704e-05 -4.42191e-06
5.7413e-05 -1.72305e-05 -1.72211e-05 -4.42191e-06
1.90432e-05 -5.71557e-06 -5.71186e-06 -5.30616e-06
3.78757e-05 -1.13672e-05 -1.13608e-05 -4.97458e-06
5.7111e-05 -1.71398e-05 -1.71305e-05 -4.42191e-06
3.82783e-05 -1.14883e-05 -1.14814e-05 -4.97459e-06
3.8077e-05 -1.14278e-05 -1.14211e-05 -4.97458e-06
1.89427e-05 -5.68525e-06 -5.68175e-06 -5.30616e-06
1.87415e-05 -5.62461e-06 -5.62153e-06 -5.30615e-06
5.6205e-05 -1.68675e-05 -1.68589e-05 -4.42191e-06
5.6809e-05 -1.7049e-05 -1.704e-05 -4.42191e-06
1.88421e-05 -5.65493e-06 -5.65164e-06 -5.30615e-06
3.74731e-05 -1.12462e-05 -1.12401e-05 -4.97458e-06
5.6507e-05 -1.69582e-05 -1.69495e-05 -4.42191e-06
3.78757e-05 -1.13672e-05 -1.13608e-05 -4.97458e-06
3.76744e-05 -1.13067e-05 -1.13004e-05 -4.97458e-06
1.87415e-05 -5.62461e-06 -5.62153e-06 -5.30615e-06
1.85404e-05 -5.56398e-06 -5.56131e-06 -5.30615e-06
5.5601e-05 -1.6686e-05 -1.66779e-05 -4.4219e-06
5.6205e-05 -1.68675e-05 -1.68589e-05 -4.42191e-06
1.86409e-05 -5.5943e-06 -5.59142e-06 -5.30615e-06
3.70706e-05 -1.11251e-05 -1.11195e-05 -4.97458e-06
5.5903e-05 -1.67767e-05 -1.67684e-05 -4.4219e-06
3.74731e-05 -1.12462e-05 -1.12401e-05 -4.97458e-06
3.72719e-05 -1.11856e-05 -1.11798e-05 -4.97458e-06
1.85404e-05 -5.56398e-06 -5.56131e-06 -5.30615e-06
1.83392e-05 -5.50335e-06 -5.50109e-06 -5.30615e-06
5.4997e-05 -1.65045e-05 -1.64968e-05 -4.4219e-06
5.5601e-05 -1.6686e-05 -1.66779e-05 -4.4219e-06
1.84398e-05 -5.53366e-06 -5.5312e-06 -5.30615e-06
3.6668e-05 -1.1004e-05 -1.09988e-05 -4.97458e-06
5.5299e-05 -1.65952e-05 -1.65873e-05 -4.4219e-06
3.70706e-05 -1.11251e-05 -1.11195e-05 -4.97458e-06
3.68693e-05 -1.10646e-05 -1.10592e-05 -4.97458e-06
1.83392e-05 -5.50335e-06 -5.50109e-06 -5.30615e-06
1.81381e-05 -5.44271e-06 -5.44086e-06 -5.30615e-06
5.4393e-05 -1.63229e-05 -1.63157e-05 -4.4219e-06
5.4997e-05 -1.65045e-05 -1.64968e-05 -4.4219e-06
1.82386e-05 -5.47303e-06 -5.47098e-06 -5.30615e-06
3.62654e-05 -1.08829e-05 -1.08782e-05 -4.97458e-06
5.4695e-05 -1.64137e-05 -1.64063e-05 -4.4219e-06
3.6668e-05 -1.1004e-05 -1.09988e-05 -4.97458e-06
3.64667e-05 -1.09435e-05 -1.09385e-05 -4.97458e-06
1.81381e-05 -5.44271e-06 -5.44086e-06 -5.30615e-06
1.79369e-05 -5.38208e-06 -5.38064e-06 -5.30615e-06
5.3789e-05 -1.61414e-05 -1.61347e-05 -4.4219e-06
5.4393e-05 -1.63229e-05 -1.63157e-05 -4.4219e-06
1.80375e-05 -5.4124e-06 -5.41075e-06 -5.30615e-06
3.58628e-05 -1.07619e-05 -1.07576e-05 -4.97457e-06
5.4091e-05 -1.62322e-05 -1.62252e-05 -4.4219e-06
3.62654e-05 -1.08829e-05 -1.08782e-05 -4.97458e-06
3.60641e-05 -1.08224e-05 -1.08179e-05 -4.97458e-06
1.79369e-05 -5.38208e-06 -5.38064e-06 -5.30615e-06
1.77358e-05 -5.32146e-06 -5.32041e-06 -5.30615e-06
5.3185e-05 -1.59599e-05 -1.59536e-05 -4.4219e-06
5.3789e-05 -1.61414e-05 -1.61347e-05 -4.4219e-06
1.78363e-05 -5.35177e-06 -5.35053e-06 -5.30615e-06
3.54603e-05 -1.06408e-05 -1.06369e-05 -4.97457e-06
5.3487e-05 -1.60507e-05 -1.60441e-05 -4.4219e-06
3.58628e-05 -1.07619e-05 -1.07576e-05 -4.97457e-06
3.56616e-05 -1.07013e-05 -1.06972e-05 -4.97457e-06
1.77358e-05 -5.32146e-06 -5.32041e-06 -5.30615e-06
1.75346e-05 -5.26083e-06 -5.26018e-06 -5.30615e-06
5.2581e-05 -1.57784e-05 -1.57725e-05 -4.42189e-06
5.3185e-05 -1.59599e-05 -1.59536e-05 -4.4219e-06
1.76352e-05 -5.29114e-06 -5.2903e-06 -5.30615e-06
3.50577e-05 -1.05197e-05 -1.05163e-05 -4.97457e-06
5.2883e-05 -1.58692e-05 -1.58631e-05 -4.42189e-06
3.54603e-05 -1.06408e-05 -1.06369e-05 -4.97457e-06
3.5259e-05 -1.05803e-05 -1.05766e-05 -4.97457e-06
1.75346e-05 -5.26083e-06 -5.26018e-06 -5.30615e-06
1.73334e-05 -5.2002e-06 -5.19995e-06 -5.30615e-06
5.1977e-05 -1.55969e-05 -1.55915e-05 -4.42189e-06
5.2581e-05 -1.57784e-05 -1.57725e-05 -4.42189e-06
1.7434e-05 -5.23052e-06 -5.23007e-06 -5.30615e-06
3.46551e-05 -1.03987e-05 -1.03956e-05 -4.97457e-06
5.2279e-05 -1.56877e-05 -1.5682e-05 -4.42189e-06
3.50577e-05 -1.05197e-05 -1.05163e-05 -4.97457e-06
3.48564e-05 -1.04592e-05 -1.04559e-05 -4.97457e-06
1.73334e-05 -5.2002e-06 -5.19995e-06 -5.30615e-06
1.71323e-05 -5.13958e-06 -5.13972e-06 -5.30615e-06
5.1373e-05 -1.54154e-05 -1.54104e-05 -4.42189e-06
5.1977e-05 -1.55969e-05 -1.55915e-05 -4.42189e-06
1.72328e-05 -5.16989e-06 -5.16984e-06 -5.30615e-06
3.42525e-05 -1.02776e-05 -1.0275e-05 -4.97457e-06
5.1675e-05 -1.55062e-05 -1.55009e-05 -4.42189e-06
3.46551e-05 -1.03987e-05 -1.03956e-05 -4.97457e-06
3.44538e-05 -1.03381e-05 -1.03353e-05 -4.97457e-06
1.71323e-05 -5.13958e-06 -5.13972e-06 -5.30615e-06
1.69311e-05 -5.07896e-06 -5.07949e-06 -5.30614e-06
5.0769e-05 -1.52339e-05 -1.52293e-05 -4.42189e-06
5.1373e-05 -1.54154e-05 -1.54104e-05 -4.42189e-06
1.70317e-05 -5.10927e-06 -5.1096e-06 -5.30614e-06
3.38499e-05 -1.01565e-05 -1.01543e-05 -4.97457e-06
5.1071e-05 -1.53246e-05 -1.53199e-05 -4.42189e-06
3.42525e-05 -1.02776e-05 -1.0275e-05 -4.97457e-06
3.40512e-05 -1.02171e-05 -1.02146e-05 -4.97457e-06
1.69311e-05 -5.07896e-06 -5.07949e-06 -5.30614e-06
1.67299e-05 -5.01834e-06 -5.01925e-06 -5.30614e-06
5.0165e-05 -1.50524e-05 -1.50482e-05 -4.42188e-06
5.0769e-05 -1.52339e-05 -1.52293e-05 -4.42189e-06
1.68305e-05 -5.04865e-06 -5.04937e-06 -5.30614e-06
3.34473e-05 -1.00355e-05 -1.00337e-05 -4.97456e-06
5.0467e-05 -1.51431e-05 -1.51388e-05 -4.42189e-06
3.38499e-05 -1.01565e-05 -1.01543e-05 -4.97457e-06
3.36486e-05 -1.0096e-05 -1.0094e-05 -4.97457e-06
1.67299e-05 -5.01834e-06 -5.01925e-06 -5.30614e-06
1.65287e-05 -4.95772e-06 -4.95901e-06 -5.30614e-06
4.9561e-05 -1.48709e-05 -1.48672e-05 -4.42188e-06
5.0165e-05 -1.50524e-05 -1.50482e-05 -4.42188e-06
1.66293e-05 -4.98803e-06 -4.98913e-06 -5.30614e-06
3.30448e-05 -9.9144e-06 -9.91301e-06 -4.97456e-06
4.9863e-05 -1.49616e-05 -1.49577e-05 -4.42188e-06
3.34473e-05 -1.00355e-05 -1.00337e-05 -4.97456e-06
3.3246e-05 -9.97493e-06 -9.97334e-06 -4.97456e-06
1.65287e-05 -4.95772e-06 -4.95901e-06 -5.30614e-06
1.63276e-05 -4.8971e-06 -4.89877e-06 -5.30614e-06
4.89569e-05 -1.46894e-05 -1.46861e-05 -4.42188e-06
4.9561e-05 -1.48709e-05 -1.48672e-05 -4.42188e-06
1.64282e-05 -4.92741e-06 -4.92889e-06 -5.30614e-06
3.26422e-05 -9.79334e-06 -9.79235e-06 -4.97456e-06
4.92589e-05 -1.47801e-05 -1.47766e-05 -4.42188e-06
3.30448e-05 -9.9144e-06 -9.91301e-06 -4.97456e-06
3.28435e-05 -9.85387e-06 -9.85268e-06 -4.97456e-06
1.63276e-05 -4.8971e-06 -4.89877e-06 -5.30614e-06
1.61264e-05 -4.83649e-06 -4.83853e-06 -5.30614e-06
4.83529e-05 -1.45079e-05 -1.4505e-05 -4.42188e-06
4.89569e-05 -1.46894e-05 -1.46861e-05 -4.42188e-06
1.6227e-05 -4.8668e-06 -4.86865e-06 -5.30614e-06
3.22396e-05 -9.67228e-06 -9.67169e-06 -4.97456e-06
4.86549e-05 -1.45986e-05 -1.45955e-05 -4.42188e-06
3.26422e-05 -9.79334e-06 -9.79235e-06 -4.97456e-06
3.24409e-05 -9.73281e-06 -9.73202e-06 -4.97456e-06
1.61264e-05 -4.83649e-06 -4.83853e-06 -5.30614e-06
1.59252e-05 -4.77588e-06 -4.77829e-06 -5.30614e-06
4.77489e-05 -1.43264e-05 -1.43239e-05 -4.42188e-06
4.83529e-05 -1.45079e-05 -1.4505e-05 -4.42188e-06
1.60258e-05 -4.80618e-06 -4.80841e-06 -5.30614e-06
3.1837e-05 -9.55122e-06 -9.55103e-06 -4.97456e-06
4.80509e-05 -1.44171e-05 -1.44145e-05 -4.42188e-06
3.22396e-05 -9.67228e-06 -9.67169e-06 -4.97456e-06
3.20383e-05 -9.61175e-06 -9.61136e-06 -4.97456e-06
1.59252e-05 -4.77588e-06 -4.77829e-06 -5.30614e-06
1.5724e-05 -4.71526e-06 -4.71804e-06 -5.30614e-06
4.71449e-05 -1.41449e-05 -1.41428e-05 -4.42187e-06
4.77489e-05 -1.43264e-05 -1.43239e-05 -4.42188e-06
1.58246e-05 -4.74557e-06 -4.74817e-06 -5.30614e-06
3.14344e-05 -9.43017e-06 -9.43037e-06 -4.97456e-06
4.74469e-05 -1.42356e-05 -1.42334e-05 -4.42187e-06
3.1837e-05 -9.55122e-06 -9.55103e-06 -4.97456e-06
3.16357e-05 -9.4907e-06 -9.4907e-06 -4.97456e-06
1.5724e-05 -4.71526e-06 -4.71804e-06 -5.30614e-06
1.55228e-05 -4.65465e-06 -4.6578e-06 -5.30614e-06
4.65408e-05 -1.39634e-05 -1.39618e-05 -4.42187e-06
4.71449e-05 -1.41449e-05 -1.41428e-05 -4.42187e-06
1.56234e-05 -4.68496e-06 -4.68792e-06 -5.30614e-06
3.10318e-05 -9.30911e-06 -9.3097e-06 -4.97455e-06
4.68429e-05 -1.40542e-05 -1.40523e-05 -4.42187e-06
3.14344e-05 -9.43017e-06 -9.43037e-06 -4.97456e-06
3.12331e-05 -9.36964e-06 -9.37004e-06 -4.97456e-06
1.55228e-05 -4.65465e-06 -4.6578e-06 -5.30614e-06
1.53217e-05 -4.59405e-06 -4.59755e-06 -5.30614e-06
4.59368e-05 -1.37819e-05 -1.37807e-05 -4.42187e-06
4.65408e-05 -1.39634e-05 -1.39618e-05 -4.42187e-06
1.54223e-05 -4.62435e-06 -4.62767e-06 -5.30614e-06
3.06292e-05 -9.18806e-06 -9.18904e-06 -4.97455e-06
4.62388e-05 -1.38727e-05 -1.38712e-05 -4.42187e-06
3.10318e-05 -9.30911e-06 -9.3097e-06 -4.97455e-06
3.08305e-05 -9.24859e-06 -9.24937e-06 -4.97455e-06
1.53217e-05 -4.59405e-06 -4.59755e-06 -5.30614e-06
1.51205e-05 -4.53344e-06 -4.5373e-06 -5.30613e-06
4.53328e-05 -1.36004e-05 -1.35996e-05 -4.42187e-06
4.59368e-05 -1.37819e-05 -1.37807e-05 -4.42187e-06
1.52211e-05 -4.56374e-06 -4.56742e-06 -5.30613e-06
3.02265e-05 -9.06701e-06 -9.06837e-06 -4.97455e-06
4.56348e-05 -1.36912e-05 -1.36901e-05 -4.42187e-06
3.06292e-05 -9.18806e-06 -9.18904e-06 -4.97455e-06
3.04278e-05 -9.12754e-06 -9.1287e-06 -4.97455e-06
1.51205e-05 -4.53344e-06 -4.5373e-06 -5.30613e-06
1.49193e-05 -4.47283e-06 -4.47705e-06 -5.30613e-06
4.47287e-05 -1.34189e-05 -1.34185e-05 -4.42187e-06
4.53328e-05 -1.36004e-05 -1.35996e-05 -4.42187e-06
1.50199e-05 -4.50314e-06 -4.50717e-06 -5.30613e-06
2.98239e-05 -8.94596e-06 -8.9477e-06 -4.97455e-06
4.50308e-05 -1.35097e-05 -1.3509e-05 -4.42187e-06
3.02265e-05 -9.06701e-06 -9.06837e-06 -4.97455e-06
3.00252e-05 -9.00649e-06 -9.00804e-06 -4.97455e-06
1.49193e-05 -4.47283e-06 -4.47705e-06 -5.30613e-06
1.47181e-05 -4.41223e-06 -4.41679e-06 -5.30613e-06
4.41247e-05 -1.32374e-05 -1.32374e-05 -4.42186e-06
4.47287e-05 -1.34189e-05 -1.34185e-05 -4.42187e-06
1.48187e-05 -4.44253e-06 -4.44692e-06 -5.30613e-06
2.94213e-05 -8.82491e-06 -8.82703e-06 -4.97455e-06
4.44267e-05 -1.33282e-05 -1.33279e-05 -4.42186e-06
2.98239e-05 -8.94596e-06 -8.9477e-06 -4.97455e-06
2.96226e-05 -8.88544e-06 -8.88737e-06 -4.97455e-06
1.47181e-05 -4.41223e-06 -4.41679e-06 -5.30613e-06
1.45169e-05 -4.35163e-06 -4.35653e-06 -5.30613e-06
4.35207e-05 -1.3056e-05 -1.30563e-05 -4.42186e-06
4.41247e-05 -1.32374e-05 -1.32374e-05 -4.42186e-06
1.46175e-05 -4.38193e-06 -4.38666e-06 -5.30613e-06
2.90187e-05 -8.70387e-06 -8.70636e-06 -4.97455e-06
4.38227e-05 -1.31467e-05 -1.31469e-05 -4.42186e-06
2.94213e-05 -8.82491e-06 -8.82703e-06 -4.97455e-06
2.922e-05 -8.76439e-06 -8.76669e-06 -4.97455e-06
1.45169e-05 -4.35163e-06 -4.35653e-06 -5.30613e-06
1.43157e-05 -4.29103e-06 -4.29628e-06 -5.30613e-06
4.29166e-05 -1.28745e-05 -1.28752e-05 -4.42186e-06
4.35207e-05 -1.3056e-05 -1.30563e-05 -4.42186e-06
1.44163e-05 -4.32133e-06 -4.32641e-06 -5.30613e-06
2.86161e-05 -8.58282e-06 -8.58568e-06 -4.97454e-06
4.32187e-05 -1.29652e-05 -1.29658e-05 -4.42186e-06
2.90187e-05 -8.70387e-06 -8.70636e-06 -4.97455e-06
2.88174e-05 -8.64335e-06 -8.64602e-06 -4.97454e-06
1.43157e-05 -4.29103e-06 -4.29628e-06 -5.30613e-06
1.41145e-05 -4.23043e-06 -4.23602e-06 -5.30613e-06
4.23126e-05 -1.2693e-05 -1.26941e-05 -4.42186e-06
4.29166e-05 -1.28745e-05 -1.28752e-05 -4.42186e-06
1.42151e-05 -4.26073e-06 -4.26615e-06 -5.30613e-06
2.82135e-05 -8.46178e-06 -8.465e-06 -4.97454e-06
4.26146e-05 -1.27837e-05 -1.27847e-05 -4.42186e-06
2.86161e-05 -8.58282e-06 -8.58568e-06 -4.97454e-06
2.84148e-05 -8.5223e-06 -8.52534e-06 -4.97454e-06
1.41145e-05 -4.23043e-06 -4.23602e-06 -5.30613e-06
1.39133e-05 -4.16984e-06 -4.17576e-06 -5.30613e-06
4.17085e-05 -1.25115e-05 -1.2513e-05 -4.42185e-06
4.23126e-05 -1.2693e-05 -1.26941e-05 -4.42186e-06
1.40139e-05 -4.20014e-06 -4.20589e-06 -5.30613e-06
2.78108e-05 -8.34074e-06 -8.34433e-06 -4.97454e-06
4.20106e-05 -1.26023e-05 -1.26036e-05 -4.42186e-06
2.82135e-05 -8.46178e-06 -8.465e-06 -4.97454e-06
2.80121e-05 -8.40126e-06 -8.40467e-06 -4.97454e-06
1.39133e-05 -4.16984e-06 -4.17576e-06 -5.30613e-06
1.37121e-05 -4.10924e-06 -4.11549e-06 -5.30613e-06
4.11045e-05 -1.233e-05 -1.23319e-05 -4.42185e-06
4.17085e-05 -1.25115e-05 -1.2513e-05 -4.42185e-06
1.38127e-05 -4.13954e-06 -4.14562e-06 -5.30613e-06
2.74082e-05 -8.2197e-06 -8.22365e-06 -4.97454e-06
4.14065e-05 -1.24208e-05 -1.24225e-05 -4.42185e-06
2.78108e-05 -8.34074e-06 -8.34433e-06 -4.97454e-06
2.76095e-05 -8.28022e-06 -8.28399e-06 -4.97454e-06
1.37121e-05 -4.10924e-06 -4.11549e-06 -5.30613e-06
1.35108e-05 -4.04865e-06 -4.05523e-06 -5.30613e-06
4.05004e-05 -1.21486e-05 -1.21508e-05 -4.42185e-06
4.11045e-05 -1.233e-05 -1.23319e-05 -4.42185e-06
1.36115e-05 -4.07895e-06 -4.08536e-06 -5.30613e-06
2.70056e-05 -8.09867e-06 -8.10296e-06 -4.97454e-06
4.08025e-05 -1.22393e-05 -1.22414e-05 -4.42185e-06
2.74082e-05 -8.2197e-06 -8.22365e-06 -4.97454e-06
2.72069e-05 -8.15918e-06 -8.1633e-06 -4.97454e-06
1.35108e-05 -4.04865e-06 -4.05523e-06 -5.30613e-06
1.33096e-05 -3.98806e-06 -3.99496e-06 -5.30612e-06
3.98964e-05 -1.19671e-05 -1.19697e-05 -4.42185e-06
4.05004e-05 -1.21486e-05 -1.21508e-05 -4.42185e-06
1.34102e-05 -4.01836e-06 -4.02509e-06 -5.30613e-06
2.66029e-05 -7.97763e-06 -7.98228e-06 -4.97454e-06
4.01984e-05 -1.20578e-05 -1.20603e-05 -4.42185e-06
2.70056e-05 -8.09867e-06 -8.10296e-06 -4.97454e-06
2.68043e-05 -8.03815e-06 -8.04262e-06 -4.97454e-06
1.33096e-05 -3.98806e-06 -3.99496e-06 -5.30612e-06
1.31084e-05 -3.92747e-06 -3.93469e-06 -5.30612e-06
3.92923e-05 -1.17856e-05 -1.17886e-05 -4.42185e-06
3.98964e-05 -1.19671e-05 -1.19697e-05 -4.42185e-06
1.3209e-05 -3.95777e-06 -3.96482e-06 -5.30612e-06
2.62003e-05 -7.8566e-06 -7.86159e-06 -4.97453e-06
3.95944e-05 -1.18763e-05 -1.18792e-05 -4.42185e-06
2.66029e-05 -7.97763e-06 -7.98228e-06 -4.97454e-06
2.64016e-05 -7.91711e-06 -7.92194e-06 -4.97453e-06
1.31084e-05 -3.92747e-06 -3.93469e-06 -5.30612e-06
1.29072e-05 -3.86689e-06 -3.87442e-06 -5.30612e-06
3.86883e-05 -1.16041e-05 -1.16075e-05 -4.42184e-06
3.92923e-05 -1.17856e-05 -1.17886e-05 -4.42185e-06
1.30078e-05 -3.89718e-06 -3.90455e-06 -5.30612e-06
2.57977e-05 -7.73556e-06 -7.7409e-06 -4.97453e-06
3.89903e-05 -1.16949e-05 -1.1698e-05 -4.42185e-06
2.62003e-05 -7.8566e-06 -7.86159e-06 -4.97453e-06
2.5999e-05 -7.79608e-06 -7.80125e-06 -4.97453e-06
1.29072e-05 -3.86689e-06 -3.87442e-06 -5.30612e-06
1.2706e-05 -3.8063e-06 -3.81414e-06 -5.30612e-06
3.80842e-05 -1.14227e-05 -1.14264e-05 -4.42184e-06
3.86883e-05 -1.16041e-05 -1.16075e-05 -4.42184e-06
1.28066e-05 -3.83659e-06 -3.84428e-06 -5.30612e-06
2.5395e-05 -7.61453e-06 -7.62021e-06 -4.97453e-06
3.83862e-05 -1.15134e-05 -1.15169e-05 -4.42184e-06
2.57977e-05 -7.73556e-06 -7.7409e-06 -4.97453e-06
2.55964e-05 -7.67505e-06 -7.68056e-06 -4.97453e-06
1.2706e-05 -3.8063e-06 -3.81414e-06 -5.30612e-06
1.25047e-05 -3.74572e-06 -3.75387e-06 -5.30612e-06
3.74802e-05 -1.12412e-05 -1.12453e-05 -4.42184e-06
3.80842e-05 -1.14227e-05 -1.14264e-05 -4.42184e-06
1.26054e-05 -3.77601e-06 -3.78401e-06 -5.30612e-06
2.49924e-05 -7.49351e-06 -7.49952e-06 -4.97453e-06
3.77822e-05 -1.13319e-05 -1.13358e-05 -4.42184e-06
2.5395e-05 -7.61453e-06 -7.62021e-06 -4.97453e-06
2.51937e-05 -7.55402e-06 -7.55987e-06 -4.97453e-06
1.25047e-05 -3.74572e-06 -3.75387e-06 -5.30612e-06
1.23035e-05 -3.68514e-06 -3.69359e-06 -5.30612e-06
3.68761e-05 -1.10597e-05 -1.10642e-05 -4.42184e-06
3.74802e-05 -1.12412e-05 -1.12453e-05 -4.42184e-06
1.24041e-05 -3.71543e-06 -3.72373e-06 -5.30612e-06
2.45897e-05 -7.37248e-06 -7.37883e-06 -4.97453e-06
3.71781e-05 -1.11505e-05 -1.11547e-05 -4.42184e-06
2.49924e-05 -7.49351e-06 -7.49952e-06 -4.97453e-06
2.47911e-05 -7.43299e-06 -7.43918e-06 -4.97453e-06
1.23035e-05 -3.68514e-06 -3.69359e-06 -5.30612e-06
1.21023e-05 -3.62456e-06 -3.63331e-06 -5.30612e-06
3.6272e-05 -1.08783e-05 -1.0883e-05 -4.42184e-06
3.68761e-05 -1.10597e-05 -1.10642e-05 -4.42184e-06
1.22029e-05 -3.65485e-06 -3.66345e-06 -5.30612e-06
2.41871e-05 -7.25146e-06 -7.25813e-06 -4.97453e-06
3.65741e-05 -1.0969e-05 -1.09736e-05 -4.42184e-06
2.45897e-05 -7.37248e-06 -7.37883e-06 -4.97453e-06
2.43884e-05 -7.31197e-06 -7.31848e-06 -4.97453e-06
1.21023e-05 -3.62456e-06 -3.63331e-06 -5.30612e-06
1.19011e-05 -3.56398e-06 -3.57303e-06 -5.30612e-06
3.5668e-05 -1.06968e-05 -1.07019e-05 -4.42183e-06
3.6272e-05 -1.08783e-05 -1.0883e-05 -4.42184e-06
1.20017e-05 -3.59427e-06 -3.60317e-06 -5.30612e-06
2.37845e-05 -7.13043e-06 -7.13744e-06 -4.97452e-06
3.597e-05 -1.07875e-05 -1.07925e-05 -4.42184e-06
2.41871e-05 -7.25146e-06 -7.25813e-06 -4.97453e-06
2.39858e-05 -7.19094e-06 -7.19779e-06 -4.97453e-06
1.19011e-05 -3.56398e-06 -3.57303e-06 -5.30612e-06
1.16998e-05 -3.50341e-06 -3.51275e-06 -5.30612e-06
3.50639e-05 -1.05153e-05 -1.05208e-05 -4.42183e-06
3.5668e-05 -1.06968e-05 -1.07019e-05 -4.42183e-06
1.18004e-05 -3.53369e-06 -3.54289e-06 -5.30612e-06
2.33818e-05 -7.00941e-06 -7.01674e-06 -4.97452e-06
3.53659e-05 -1.06061e-05 -1.06114e-05 -4.42183e-06
2.37845e-05 -7.13043e-06 -7.13744e-06 -4.97452e-06
2.35831e-05 -7.06992e-06 -7.07709e-06 -4.97452e-06
1.16998e-05 -3.50341e-06 -3.51275e-06 -5.30612e-06
1.14986e-05 -3.44283e-06 -3.45246e-06 -5.30612e-06
3.44598e-05 -1.03339e-05 -1.03397e-05 -4.42183e-06
3.50639e-05 -1.05153e-05 -1.05208e-05 -4.42183e-06
1.15992e-05 -3.47312e-06 -3.4826e-06 -5.30612e-06
2.29791e-05 -6.88839e-06 -6.89604e-06 -4.97452e-06
3.47618e-05 -1.04246e-05 -1.04303e-05 -4.42183e-06
2.33818e-05 -7.00941e-06 -7.01674e-06 -4.97452e-06
2.31805e-05 -6.9489e-06 -6.95639e-06 -4.97452e-06
1.14986e-05 -3.44283e-06 -3.45246e-06 -5.30612e-06
1.12973e-05 -3.38226e-06 -3.39217e-06 -5.30611e-06
3.38557e-05 -1.01524e-05 -1.01586e-05 -4.42183e-06
3.44598e-05 -1.03339e-05 -1.03397e-05 -4.42183e-06
1.1398e-05 -3.41255e-06 -3.42232e-06 -5.30611e-06
2.25765e-05 -6.76738e-06 -6.77533e-06 -4.97452e-06
3.41578e-05 -1.02431e-05 -1.02491e-05 -4.42183e-06
2.29791e-05 -6.88839e-06 -6.89604e-06 -4.97452e-06
2.27778e-05 -6.82788e-06 -6.83568e-06 -4.97452e-06
1.12973e-05 -3.38226e-06 -3.39217e-06 -5.30611e-06
1.10961e-05 -3.32169e-06 -3.33188e-06 -5.30611e-06
3.32516e-05 -9.97094e-06 -9.97744e-06 -4.42183e-06
3.38557e-05 -1.01524e-05 -1.01586e-05 -4.42183e-06
1.11967e-05 -3.35198e-06 -3.36203e-06 -5.30611e-06
2.21738e-05 -6.64636e-06 -6.65463e-06 -4.97452e-06
3.35537e-05 -1.00617e-05 -1.0068e-05 -4.42183e-06
2.25765e-05 -6.76738e-06 -6.77533e-06 -4.97452e-06
2.23752e-05 -6.70687e-06 -6.71498e-06 -4.97452e-06
1.10961e-05 -3.32169e-06 -3.33188e-06 -5.30611e-06
1.08948e-05 -3.26113e-06 -3.27159e-06 -5.30611e-06
3.26476e-05 -9.78949e-06 -9.79632e-06 -4.42182e-06
3.32516e-05 -9.97094e-06 -9.97744e-06 -4.42183e-06
1.09955e-05 -3.29141e-06 -3.30174e-06 -5.30611e-06
2.17712e-05 -6.52535e-06 -6.53392e-06 -4.97452e-06
3.29496e-05 -9.88021e-06 -9.88688e-06 -4.42183e-06
2.21738e-05 -6.64636e-06 -6.65463e-06 -4.97452e-06
2.19725e-05 -6.58585e-06 -6.59427e-06 -4.97452e-06
1.08948e-05 -3.26113e-06 -3.27159e-06 -5.30611e-06
1.06936e-05 -3.20056e-06 -3.2113e-06 -5.30611e-06
3.20435e-05 -9.60803e-06 -9.61519e-06 -4.42182e-06
3.26476e-05 -9.78949e-06 -9.79632e-06 -4.42182e-06
1.07942e-05 -3.23084e-06 -3.24145e-06 -5.30611e-06
2.13685e-05 -6.40434e-06 -6.41321e-06 -4.97451e-06
3.23455e-05 -9.69876e-06 -9.70576e-06 -4.42182e-06
2.17712e-05 -6.52535e-06 -6.53392e-06 -4.97452e-06
2.15698e-05 -6.46484e-06 -6.47357e-06 -4.97452e-06
1.06936e-05 -3.20056e-06 -3.2113e-06 -5.30611e-06
1.04923e-05 -3.14e-06 -3.151e-06 -5.30611e-06
3.14394e-05 -9.42658e-06 -9.43406e-06 -4.42182e-06
3.20435e-05 -9.60803e-06 -9.61519e-06 -4.42182e-06
1.0593e-05 -3.17028e-06 -3.18115e-06 -5.30611e-06
2.09658e-05 -6.28333e-06 -6.2925e-06 -4.97451e-06
3.17414e-05 -9.5173e-06 -9.52463e-06 -4.42182e-06
2.13685e-05 -6.40434e-06 -6.41321e-06 -4.97451e-06
2.11672e-05 -6.34383e-06 -6.35285e-06 -4.97451e-06
1.04923e-05 -3.14e-06 -3.151e-06 -5.30611e-06
1.02911e-05 -3.07944e-06 -3.0907e-06 -5.30611e-06
3.08353e-05 -9.24513e-06 -9.25293e-06 -4.42182e-06
3.14394e-05 -9.42658e-06 -9.43406e-06 -4.42182e-06
1.03917e-05 -3.10972e-06 -3.12085e-06 -5.30611e-06
2.05632e-05 -6.16232e-06 -6.17179e-06 -4.97451e-06
3.11373e-05 -9.33585e-06 -9.3435e-06 -4.42182e-06
2.09658e-05 -6.28333e-06 -6.2925e-06 -4.97451e-06
2.07645e-05 -6.22282e-06 -6.23214e-06 -4.97451e-06
1.02911e-05 -3.07944e-06 -3.0907e-06 -5.30611e-06
1.00898e-05 -3.01888e-06 -3.0304e-06 -5.30611e-06
3.02312e-05 -9.06368e-06 -9.0718e-06 -4.42182e-06
3.08353e-05 -9.24513e-06 -9.25293e-06 -4.42182e-06
1.01905e-05 -3.04916e-06 -3.06055e-06 -5.30611e-06
2.01605e-05 -6.04131e-06 -6.05107e-06 -4.97451e-06
3.05333e-05 -9.1544e-06 -9.16237e-06 -4.42182e-06
2.05632e-05 -6.16232e-06 -6.17179e-06 -4.97451e-06
2.03618e-05 -6.10181e-06 -6.11143e-06 -4.97451e-06
1.00898e-05 -3.01888e-06 -3.0304e-06 -5.30611e-06
9.88856e-06 -2.95832e-06 -2.9701e-06 -5.30611e-06
2.96271e-05 -8.88223e-06 -8.89066e-06 -4.42181e-06
3.02312e-05 -9.06368e-06 -9.0718e-06 -4.42182e-06
9.98919e-06 -2.9886e-06 -3.00025e-06 -5.30611e-06
1.97578e-05 -5.92031e-06 -5.93035e-06 -4.97451e-06
2.99292e-05 -8.97295e-06 -8.98123e-06 -4.42182e-06
2.01605e-05 -6.04131e-06 -6.05107e-06 -4.97451e-06
1.99591e-05 -5.98081e-06 -5.99071e-06 -4.97451e-06
9.88856e-06 -2.95832e-06 -2.9701e-06 -5.30611e-06
9.68729e-06 -2.89776e-06 -2.9098e-06 -5.30611e-06
2.9023e-05 -8.70078e-06 -8.70953e-06 -4.42181e-06
2.96271e-05 -8.88223e-06 -8.89066e-06 -4.42181e-06
9.78793e-06 -2.92804e-06 -2.93995e-06 -5.30611e-06
1.93551e-05 -5.79931e-06 -5.80963e-06 -4.97451e-06
2.93251e-05 -8.79151e-06 -8.8001e-06 -4.42181e-06
1.97578e-05 -5.92031e-06 -5.93035e-06 -4.97451e-06
1.95565e-05 -5.85981e-06 -5.86999e-06 -4.97451e-06
9.68729e-06 -2.89776e-06 -2.9098e-06 -5.30611e-06
9.48603e-06 -2.83721e-06 -2.84949e-06 -5.30611e-06
2.84189e-05 -8.51934e-06 -8.52839e-06 -4.42181e-06
2.9023e-05 -8.70078e-06 -8.70953e-06 -4.42181e-06
9.58666e-06 -2.86749e-06 -2.87965e-06 -5.30611e-06
1.89524e-05 -5.67831e-06 -5.68891e-06 -4.9745e-06
2.8721e-05 -8.61006e-06 -8.61896e-06 -4.42181e-06
1.93551e-05 -5.79931e-06 -5.80963e-06 -4.97451e-06
1.91538e-05 -5.73881e-06 -5.74927e-06 -4.97451e-06
9.48603e-06 -2.83721e-06 -2.84949e-06 -5.30611e-06
9.28475e-06 -2.77666e-06 -2.78918e-06 -5.3061e-06
2.78148e-05 -8.3379e-06 -8.34725e-06 -4.42181e-06
2.84189e-05 -8.51934e-06 -8.52839e-06 -4.42181e-06
9.38539e-06 -2.80693e-06 -2.81934e-06 -5.3061e-06
1.85498e-05 -5.55731e-06 -5.56819e-06 -4.9745e-06
2.81169e-05 -8.42862e-06 -8.43782e-06 -4.42181e-06
1.89524e-05 -5.67831e-06 -5.68891e-06 -4.9745e-06
1.87511e-05 -5.61781e-06 -5.62855e-06 -4.9745e-06
9.28475e-06 -2.77666e-06 -2.78918e-06 -5.3061e-06
9.08348e-06 -2.71611e-06 -2.72887e-06 -5.3061e-06
2.72107e-05 -8.15646e-06 -8.16611e-06 -4.42181e-06
2.78148e-05 -8.3379e-06 -8.34725e-06 -4.42181e-06
9.18412e-06 -2.74638e-06 -2.75903e-06 -5.3061e-06
1.81471e-05 -5.43631e-06 -5.44746e-06 -4.9745e-06
2.75128e-05 -8.24718e-06 -8.25668e-06 -4.42181e-06
1.85498e-05 -5.55731e-06 -5.56819e-06 -4.9745e-06
1.83484e-05 -5.49681e-06 -5.50783e-06 -4.9745e-06
9.08348e-06 -2.71611e-06 -2.72887e-06 -5.3061e-06
8.8822e-06 -2.65556e-06 -2.66856e-06 -5.3061e-06
2.66066e-05 -7.97502e-06 -7.98496e-06 -4.4218e-06
2.72107e-05 -8.15646e-06 -8.16611e-06 -4.42181e-06
8.98284e-06 -2.68584e-06 -2.69872e-06 -5.3061e-06
1.77444e-05 -5.31532e-06 -5.32674e-06 -4.9745e-06
2.69086e-05 -8.06574e-06 -8.07553e-06 -4.42181e-06
1.81471e-05 -5.43631e-06 -5.44746e-06 -4.9745e-06
1.79457e-05 -5.37581e-06 -5.3871e-06 -4.9745e-06
8.8822e-06 -2.65556e-06 -2.66856e-06 -5.3061e-06
8.68093e-06 -2.59502e-06 -2.60825e-06 -5.3061e-06
2.60025e-05 -7.79358e-06 -7.80381e-06 -4.4218e-06
2.66066e-05 -7.97502e-06 -7.98496e-06 -4.4218e-06
8.78157e-06 -2.62529e-06 -2.6384e-06 -5.3061e-06
1.73417e-05 -5.19433e-06 -5.20601e-06 -4.9745e-06
2.63045e-05 -7.8843e-06 -7.89439e-06 -4.4218e-06
1.77444e-05 -5.31532e-06 -5.32674e-06 -4.9745e-06
1.7543e-05 -5.25482e-06 -5.26637e-06 -4.9745e-06
8.68093e-06 -2.59502e-06 -2.60825e-06 -5.3061e-06
8.47964e-06 -2.53447e-06 -2.54793e-06 -5.3061e-06
2.53984e-05 -7.61215e-06 -7.62267e-06 -4.4218e-06
2.60025e-05 -7.79358e-06 -7.80381e-06 -4.4218e-06
8.58028e-06 -2.56475e-06 -2.57809e-06 -5.3061e-06
1.6939e-05 -5.07334e-06 -5.08528e-06 -4.9745e-06
2.57004e-05 -7.70286e-06 -7.71324e-06 -4.4218e-06
1.73417e-05 -5.19433e-06 -5.20601e-06 -4.9745e-06
1.71403e-05 -5.13383e-06 -5.14564e-06 -4.9745e-06
8.47964e-06 -2.53447e-06 -2.54793e-06 -5.3061e-06
8.27836e-06 -2.47393e-06 -2.48761e-06 -5.3061e-06
2.47943e-05 -7.43071e-06 -7.44152e-06 -4.4218e-06
2.53984e-05 -7.61215e-06 -7.62267e-06 -4.4218e-06
8.379e-06 -2.5042e-06 -2.51777e-06 -5.3061e-06
1.65363e-05 -4.95235e-06 -4.96454e-06 -4.9745e-06
2.50963e-05 -7.52143e-06 -7.53209e-06 -4.4218e-06
1.6939e-05 -5.07334e-06 -5.08528e-06 -4.9745e-06
1.67376e-05 -5.01284e-06 -5.02491e-06 -4.9745e-06
8.27836e-06 -2.47393e-06 -2.48761e-06 -5.3061e-06
8.07707e-06 -2.41339e-06 -2.42729e-06 -5.3061e-06
2.41901e-05 -7.24928e-06 -7.26036e-06 -4.4218e-06
2.47943e-05 -7.43071e-06 -7.44152e-06 -4.4218e-06
8.17771e-06 -2.44366e-06 -2.45745e-06 -5.3061e-06
1.61336e-05 -4.83136e-06 -4.84381e-06 -4.97449e-06
2.44922e-05 -7.34e-06 -7.35094e-06 -4.4218e-06
1.65363e-05 -4.95235e-06 -4.96454e-06 -4.9745e-06
1.63349e-05 -4.89185e-06 -4.90417e-06 -4.97449e-06
8.07707e-06 -2.41339e-06 -2.42729e-06 -5.3061e-06
7.87578e-06 -2.35286e-06 -2.36697e-06 -5.3061e-06
2.3586e-05 -7.06785e-06 -7.07921e-06 -4.42179e-06
2.41901e-05 -7.24928e-06 -7.26036e-06 -4.4218e-06
7.97642e-06 -2.38313e-06 -2.39713e-06 -5.3061e-06
1.57309e-05 -4.71038e-06 -4.72307e-06 -4.97449e-06
2.38881e-05 -7.15857e-06 -7.16979e-06 -4.4218e-06
1.61336e-05 -4.83136e-06 -4.84381e-06 -4.97449e-06
1.59322e-05 -4.77087e-06 -4.78344e-06 -4.97449e-06
7.87578e-06 -2.35286e-06 -2.36697e-06 -5.3061e-06
7.67448e-06 -2.29232e-06 -2.30664e-06 -5.3061e-06
2.29819e-05 -6.88642e-06 -6.89805e-06 -4.42179e-06
2.3586e-05 -7.06785e-06 -7.07921e-06 -4.42179e-06
7.77513e-06 -2.32259e-06 -2.3368e-06 -5.3061e-06
1.53282e-05 -4.58939e-06 -4.60233e-06 -4.97449e-06
2.32839e-05 -6.97714e-06 -6.98863e-06 -4.42179e-06
1.57309e-05 -4.71038e-06 -4.72307e-06 -4.97449e-06
1.55295e-05 -4.64989e-06 -4.6627e-06 -4.97449e-06
7.67448e-06 -2.29232e-06 -2.30664e-06 -5.3061e-06
7.47319e-06 -2.23179e-06 -2.24631e-06 -5.3061e-06
2.23778e-05 -6.705e-06 -6.7169e-06 -4.42179e-06
2.29819e-05 -6.88642e-06 -6.89805e-06 -4.42179e-06
7.57384e-06 -2.26206e-06 -2.27648e-06 -5.3061e-06
1.49255e-05 -4.46841e-06 -4.48159e-06 -4.97449e-06
2.26798e-05 -6.79571e-06 -6.80748e-06 -4.42179e-06
1.53282e-05 -4.58939e-06 -4.60233e-06 -4.97449e-06
1.51268e-05 -4.5289e-06 -4.54196e-06 -4.97449e-06
7.47319e-06 -2.23179e-06 -2.24631e-06 -5.3061e-06
7.27189e-06 -2.17126e-06 -2.18598e-06 -5.30609e-06
2.17736e-05 -6.52357e-06 -6.53574e-06 -4.42179e-06
2.23778e-05 -6.705e-06 -6.7169e-06 -4.42179e-06
7.37254e-06 -2.20153e-06 -2.21615e-06 -5.3061e-06
1.45227e-05 -4.34744e-06 -4.36084e-06 -4.97449e-06
2.20757e-05 -6.61429e-06 -6.62632e-06 -4.42179e-06
1.49255e-05 -4.46841e-06 -4.48159e-06 -4.97449e-06
1.47241e-05 -4.40792e-06 -4.42122e-06 -4.97449e-06
7.27189e-06 -2.17126e-06 -2.18598e-06 -5.30609e-06
7.07058e-06 -2.11073e-06 -2.12565e-06 -5.30609e-06
2.11695e-05 -6.34215e-06 -6.35458e-06 -4.42179e-06
2.17736e-05 -6.52357e-06 -6.53574e-06 -4.42179e-06
7.17124e-06 -2.141e-06 -2.15582e-06 -5.30609e-06
1.412e-05 -4.22646e-06 -4.2401e-06 -4.97449e-06
2.14716e-05 -6.43286e-06 -6.44516e-06 -4.42179e-06
1.45227e-05 -4.34744e-06 -4.36084e-06 -4.97449e-06
1.43214e-05 -4.28695e-06 -4.30047e-06 -4.97449e-06
7.07058e-06 -2.11073e-06 -2.12565e-06 -5.30609e-06
6.86928e-06 -2.05021e-06 -2.06532e-06 -5.30609e-06
2.05654e-05 -6.16073e-06 -6.17341e-06 -4.42178e-06
2.11695e-05 -6.34215e-06 -6.35458e-06 -4.42179e-06
6.96993e-06 -2.08047e-06 -2.09548e-06 -5.30609e-06
1.37173e-05 -4.10549e-06 -4.11935e-06 -4.97448e-06
2.08674e-05 -6.25144e-06 -6.26399e-06 -4.42179e-06
1.412e-05 -4.22646e-06 -4.2401e-06 -4.97449e-06
1.39187e-05 -4.16597e-06 -4.17972e-06 -4.97449e-06
6.86928e-06 -2.05021e-06 -2.06532e-06 -5.30609e-06
6.66797e-06 -1.98968e-06 -2.00498e-06 -5.30609e-06
1.99612e-05 -5.97931e-06 -5.99225e-06 -4.42178e-06
2.05654e-05 -6.16073e-06 -6.17341e-06 -4.42178e-06
6.76863e-06 -2.01994e-06 -2.03515e-06 -5.30609e-06
1.33146e-05 -3.98451e-06 -3.9986e-06 -4.97448e-06
2.02633e-05 -6.07002e-06 -6.08283e-06 -4.42178e-06
1.37173e-05 -4.10549e-06 -4.11935e-06 -4.97448e-06
1.35159e-05 -4.045e-06 -4.05897e-06 -4.97448e-06
6.66797e-06 -1.98968e-06 -2.00498e-06 -5.30609e-06
6.46666e-06 -1.92916e-06 -1.94464e-06 -5.30609e-06
1.93571e-05 -5.7979e-06 -5.81108e-06 -4.42178e-06
1.99612e-05 -5.97931e-06 -5.99225e-06 -4.42178e-06
6.56731e-06 -1.95942e-06 -1.97481e-06 -5.30609e-06
1.29119e-05 -3.86354e-06 -3.87785e-06 -4.97448e-06
1.96592e-05 -5.88861e-06 -5.90166e-06 -4.42178e-06
1.33146e-05 -3.98451e-06 -3.9986e-06 -4.97448e-06
1.31132e-05 -3.92403e-06 -3.93822e-06 -4.97448e-06
6.46666e-06 -1.92916e-06 -1.94464e-06 -5.30609e-06
6.26534e-06 -1.86864e-06 -1.8843e-06 -5.30609e-06
1.87529e-05 -5.61648e-06 -5.62991e-06 -4.42178e-06
1.93571e-05 -5.7979e-06 -5.81108e-06 -4.42178e-06
6.366e-06 -1.8989e-06 -1.91447e-06 -5.30609e-06
1.25091e-05 -3.74258e-06 -3.75709e-06 -4.97448e-06
1.9055e-05 -5.70719e-06 -5.72049e-06 -4.42178e-06
1.29119e-05 -3.86354e-06 -3.87785e-06 -4.97448e-06
1.27105e-05 -3.80306e-06 -3.81747e-06 -4.97448e-06
6.26534e-06 -1.86864e-06 -1.8843e-06 -5.30609e-06
6.06403e-06 -1.80812e-06 -1.82396e-06 -5.30609e-06
1.81488e-05 -5.43507e-06 -5.44874e-06 -4.42178e-06
1.87529e-05 -5.61648e-06 -5.62991e-06 -4.42178e-06
6.16469e-06 -1.83838e-06 -1.85413e-06 -5.30609e-06
1.21064e-05 -3.62161e-06 -3.63634e-06 -4.97448e-06
1.84509e-05 -5.52578e-06 -5.53932e-06 -4.42178e-06
1.25091e-05 -3.74258e-06 -3.75709e-06 -4.97448e-06
1.23078e-05 -3.68209e-06 -3.69671e-06 -4.97448e-06
6.06403e-06 -1.80812e-06 -1.82396e-06 -5.30609e-06
5.86271e-06 -1.74761e-06 -1.76361e-06 -5.30609e-06
1.75446e-05 -5.25366e-06 -5.26756e-06 -4.42178e-06
1.81488e-05 -5.43507e-06 -5.44874e-06 -4.42178e-06
5.96337e-06 -1.77786e-06 -1.79379e-06 -5.30609e-06
1.17037e-05 -3.50065e-06 -3.51558e-06 -4.97448e-06
1.78467e-05 -5.34437e-06 -5.35815e-06 -4.42178e-06
1.21064e-05 -3.62161e-06 -3.63634e-06 -4.97448e-06
1.1905e-05 -3.56113e-06 -3.57596e-06 -4.97448e-06
5.86271e-06 -1.74761e-06 -1.76361e-06 -5.30609e-06
5.66138e-06 -1.68709e-06 -1.70327e-06 -5.30609e-06
1.69405e-05 -5.07225e-06 -5.08639e-06 -4.42177e-06
1.75446e-05 -5.25366e-06 -5.26756e-06 -4.42178e-06
5.76204e-06 -1.71735e-06 -1.73344e-06 -5.30609e-06
1.13009e-05 -3.37968e-06 -3.39482e-06 -4.97448e-06
1.72426e-05 -5.16296e-06 -5.17697e-06 -4.42177e-06
1.17037e-05 -3.50065e-06 -3.51558e-06 -4.97448e-06
1.15023e-05 -3.44016e-06 -3.4552e-06 -4.97448e-06
5.66138e-06 -1.68709e-06 -1.70327e-06 -5.30609e-06
5.46006e-06 -1.62658e-06 -1.64292e-06 -5.30609e-06
1.63363e-05 -4.89085e-06 -4.90521e-06 -4.42177e-06
1.69405e-05 -5.07225e-06 -5.08639e-06 -4.42177e-06
5.56072e-06 -1.65684e-06 -1.67309e-06 -5.30609e-06
1.08982e-05 -3.25873e-06 -3.27405e-06 -4.97448e-06
1.66384e-05 -4.98155e-06 -4.9958e-06 -4.42177e-06
1.13009e-05 -3.37968e-06 -3.39482e-06 -4.97448e-06
1.10996e-05 -3.3192e-06 -3.33444e-06 -4.97448e-06
5.46006e-06 -1.62658e-06 -1.64292e-06 -5.30609e-06
5.25873e-06 -1.56607e-06 -1.58257e-06 -5.30609e-06
1.57322e-05 -4.70944e-06 -4.72403e-06 -4.42177e-06
1.63363e-05 -4.89085e-06 -4.90521e-06 -4.42177e-06
5.35939e-06 -1.59633e-06 -1.61274e-06 -5.30609e-06
1.04954e-05 -3.13777e-06 -3.15329e-06 -4.97447e-06
1.60343e-05 -4.80014e-06 -4.81462e-06 -4.42177e-06
1.08982e-05 -3.25873e-06 -3.27405e-06 -4.97448e-06
1.06968e-05 -3.19825e-06 -3.21367e-06 -4.97447e-06
5.25873e-06 -1.56607e-06 -1.58257e-06 -5.30609e-06
5.0574e-06 -1.50557e-06 -1.52221e-06 -5.30608e-06
1.5128e-05 -4.52804e-06 -4.54285e-06 -4.42177e-06
1.57322e-05 -4.70944e-06 -4.72403e-06 -4.42177e-06
5.15806e-06 -1.53582e-06 -1.55239e-06 -5.30609e-06
1.00927e-05 -3.01681e-06 -3.03252e-06 -4.97447e-06
1.54301e-05 -4.61874e-06 -4.63344e-06 -4.42177e-06
1.04954e-05 -3.13777e-06 -3.15329e-06 -4.97447e-06
1.02941e-05 -3.07729e-06 -3.0929e-06 -4.97447e-06
5.0574e-06 -1.50557e-06 -1.52221e-06 -5.30608e-06
4.85606e-06 -1.44507e-06 -1.46186e-06 -5.30608e-06
1.45239e-05 -4.34664e-06 -4.36166e-06 -4.42177e-06
1.5128e-05 -4.52804e-06 -4.54285e-06 -4.42177e-06
4.95673e-06 -1.47532e-06 -1.49203e-06 -5.30608e-06
9.68995e-06 -2.89586e-06 -2.91175e-06 -4.97447e-06
1.48259e-05 -4.43734e-06 -4.45226e-06 -4.42177e-06
1.00927e-05 -3.01681e-06 -3.03252e-06 -4.97447e-06
9.89132e-06 -2.95634e-06 -2.97214e-06 -4.97447e-06
4.85606e-06 -1.44507e-06 -1.46186e-06 -5.30608e-06
4.65473e-06 -1.38457e-06 -1.4015e-06 -5.30608e-06
1.39197e-05 -4.16525e-06 -4.18048e-06 -4.42177e-06
1.45239e-05 -4.34664e-06 -4.36166e-06 -4.42177e-06
4.75539e-06 -1.41482e-06 -1.43168e-06 -5.30608e-06
9.2872e-06 -2.77492e-06 -2.79098e-06 -4.97447e-06
1.42218e-05 -4.25594e-06 -4.27107e-06 -4.42177e-06
9.68995e-06 -2.89586e-06 -2.91175e-06 -4.97447e-06
9.48858e-06 -2.83539e-06 -2.85137e-06 -4.97447e-06
4.65473e-06 -1.38457e-06 -1.4015e-06 -5.30608e-06
4.45339e-06 -1.32407e-06 -1.34114e-06 -5.30607e-06
1.33155e-05 -3.98386e-06 -3.99929e-06 -4.42177e-06
1.39197e-05 -4.16525e-06 -4.18048e-06 -4.42177e-06
4.55406e-06 -1.35432e-06 -1.37132e-06 -5.30608e-06
8.88445e-06 -2.65397e-06 -2.67021e-06 -4.97447e-06
1.36176e-05 -4.07455e-06 -4.08988e-06 -4.42177e-06
9.2872e-06 -2.77492e-06 -2.79098e-06 -4.97447e-06
9.08583e-06 -2.71444e-06 -2.73059e-06 -4.97447e-06
4.45339e-06 -1.32407e-06 -1.34114e-06 -5.30607e-06
4.25205e-06 -1.26358e-06 -1.28078e-06 -5.30606e-06
1.27114e-05 -3.80247e-06 -3.8181e-06 -4.42177e-06
1.33155e-05 -3.98386e-06 -3.99929e-06 -4.42177e-06
4.35272e-06 -1.29382e-06 -1.31096e-06 -5.30607e-06
8.48171e-06 -2.53303e-06 -2.54943e-06 -4.97446e-06
1.30135e-05 -3.89316e-06 -3.90869e-06 -4.42177e-06
8.88445e-06 -2.65397e-06 -2.67021e-06 -4.97447e-06
8.68308e-06 -2.5935e-06 -2.60982e-06 -4.97446e-06
4.25205e-06 -1.26358e-06 -1.28078e-06 -5.30606e-06
4.05072e-06 -1.20309e-06 -1.22041e-06 -5.30605e-06
1.21072e-05 -3.62109e-06 -3.63691e-06 -4.42177e-06
1.27114e-05 -3.80247e-06 -3.8181e-06 -4.42177e-06
4.15139e-06 -1.23333e-06 -1.25059e-06 -5.30606e-06
8.07897e-06 -2.4121e-06 -2.42866e-06 -4.97445e-06
1.24093e-05 -3.71178e-06 -3.72751e-06 -4.42177e-06
8.48171e-06 -2.53303e-06 -2.54943e-06 -4.97446e-06
8.28034e-06 -2.47257e-06 -2.48904e-06 -4.97446e-06
4.05072e-06 -1.20309e-06 -1.22041e-06 -5.30605e-06
3.84938e-06 -1.1426e-06 -1.16005e-06 -5.30602e-06
1.15031e-05 -3.43972e-06 -3.45572e-06 -4.42176e-06
1.21072e-05 -3.62109e-06 -3.63691e-06 -4.42177e-06
3.95005e-06 -1.17285e-06 -1.19023e-06 -5.30604e-06
7.67623e-06 -2.29117e-06 -2.30788e-06 -4.97443e-06
1.18051e-05 -3.53041e-06 -3.54632e-06 -4.42177e-06
8.07897e-06 -2.4121e-06 -2.42866e-06 -4.97445e-06
7.8776e-06 -2.35164e-06 -2.36827e-06 -4.97444e-06
3.84938e-06 -1.1426e-06 -1.16005e-06 -5.30602e-06
3.64805e-06 -1.08211e-06 -1.09969e-06 -5.30599e-06
1.08989e-05 -3.25835e-06 -3.27454e-06 -4.42176e-06
1.15031e-05 -3.43972e-06 -3.45572e-06 -4.42176e-06
3.74872e-06 -1.11236e-06 -1.12987e-06 -5.30601e-06
7.2735e-06 -2.17024e-06 -2.18711e-06 -4.97441e-06
1.1201e-05 -3.34904e-06 -3.36513e-06 -4.42176e-06
7.67623e-06 -2.29117e-06 -2.30788e-06 -4.97443e-06
7.47487e-06 -2.23071e-06 -2.2475e-06 -4.97442e-06
3.64805e-06 -1.08211e-06 -1.09969e-06 -5.30599e-06
3.44671e-06 -1.02161e-06 -1.03933e-06 -5.30596e-06
1.02948e-05 -3.07696e-06 -3.09336e-06 -4.42174e-06
1.08989e-05 -3.25835e-06 -3.27454e-06 -4.42176e-06
3.54738e-06 -1.05186e-06 -1.06951e-06 -5.30598e-06
6.87077e-06 -2.04929e-06 -2.06635e-06 -4.97438e-06
1.05969e-05 -3.16766e-06 -3.18395e-06 -4.42175e-06
7.2735e-06 -2.17024e-06 -2.18711e-06 -4.97441e-06
7.07214e-06 -2.10977e-06 -2.12673e-06 -4.9744e-06
3.44671e-06 -1.02161e-06 -1.03933e-06 -5.30596e-06
3.24534e-06 -9.6106e-07 -9.78978e-07 -5.30597e-06
9.69066e-06 -2.89551e-06 -2.91221e-06 -4.42169e-06
1.02948e-05 -3.07696e-06 -3.09336e-06 -4.42174e-06
3.34603e-06 -9.91343e-07 -1.00915e-06 -5.30596e-06
6.46801e-06 -1.92827e-06 -1.9456e-06 -4.97436e-06
9.99274e-06 -2.98625e-06 -3.00278e-06 -4.42172e-06
6.87077e-06 -2.04929e-06 -2.06635e-06 -4.97438e-06
6.6694e-06 -1.9888e-06 -2.00597e-06 -4.97437e-06
3.24534e-06 -9.6106e-07 -9.78978e-07 -5.30597e-06
3.0439e-06 -9.00398e-07 -9.18645e-07 -5.30608e-06
9.08642e-06 -2.71389e-06 -2.73108e-06 -4.42161e-06
9.69066e-06 -2.89551e-06 -2.91221e-06 -4.42169e-06
3.14463e-06 -9.30749e-07 -9.48807e-07 -5.306e-06
6.06514e-06 -1.80708e-06 -1.82489e-06 -4.97436e-06
9.38857e-06 -2.80474e-06 -2.82164e-06 -4.42166e-06
6.46801e-06 -1.92827e-06 -1.9456e-06 -4.97436e-06
6.2666e-06 -1.86771e-06 -1.88524e-06 -4.97435e-06
3.0439e-06 -9.00398e-07 -9.18645e-07 -5.30608e-06
2.84224e-06 -8.39491e-07 -8.58321e-07 -5.30649e-06
8.48195e-06 -2.53187e-06 -2.55003e-06 -4.42143e-06
9.08642e-06 -2.71389e-06 -2.73108e-06 -4.42161e-06
2.94312e-06 -8.6999e-07 -8.88484e-07 -5.30623e-06
5.66199e-06 -1.68548e-06 -1.70422e-06 -4.97449e-06
8.78423e-06 -2.62296e-06 -2.64054e-06 -4.42154e-06
6.06514e-06 -1.80708e-06 -1.82489e-06 -4.97436e-06
5.86362e-06 -1.74635e-06 -1.76454e-06 -4.97441e-06
2.84224e-06 -8.39491e-07 -8.58321e-07 -5.30649e-06
2.64018e-06 -7.78064e-07 -7.98049e-07 -5.30758e-06
7.8768e-06 -2.349e-06 -2.36906e-06 -4.42112e-06
8.48195e-06 -2.53187e-06 -2.55003e-06 -4.42143e-06
2.74126e-06 -8.08864e-07 -8.28171e-07 -5.30692e-06
5.25815e-06 -1.56304e-06 -1.58362e-06 -4.97492e-06
8.17951e-06 -2.44059e-06 -2.45954e-06 -4.42129e-06
5.66199e-06 -1.68548e-06 -1.70422e-06 -4.97449e-06
5.46019e-06 -1.62441e-06 -1.64391e-06 -4.97464e-06
2.64018e-06 -7.78064e-07 -7.98049e-07 -5.30758e-06
2.43706e-06 -7.15645e-07 -7.37751e-07 -5.31014e-06
7.27031e-06 -2.16437e-06 -2.18826e-06 -4.42053e-06
7.8768e-06 -2.349e-06 -2.36906e-06 -4.42112e-06
2.53883e-06 -7.4703e-07 -7.67914e-07 -5.3086e-06
4.85285e-06 -1.43893e-06 -1.4631e-06 -4.97605e-06
7.57376e-06 -2.25698e-06 -2.27862e-06 -4.42087e-06
5.25815e-06 -1.56304e-06 -1.58362e-06 -4.97492e-06
5.05575e-06 -1.50128e-06 -1.52335e-06 -4.97538e-06
2.43706e-06 -7.15645e-07 -7.37751e-07 -5.31014e-06
2.23227e-06 -6.51326e-07 -6.77547e-07 -5.3156e-06
6.66063e-06 -1.97645e-06 -2.00751e-06 -4.41961e-06
7.27031e-06 -2.16437e-06 -2.18826e-06 -4.42053e-06
2.33488e-06 -6.83782e-07 -7.07613e-07 -5.31239e-06
4.44454e-06 -1.31165e-06 -1.34267e-06 -4.97863e-06
6.96607e-06 -2.07098e-06 -2.0979e-06 -4.42011e-06
4.85285e-06 -1.43893e-06 -1.4631e-06 -4.97605e-06
4.64919e-06 -1.3758e-06 -1.40288e-06 -4.97706e-06
2.23227e-06 -6.51326e-07 -6.77547e-07 -5.3156e-06
2.02354e-06 -5.83808e-07 -6.17029e-07 -5.32662e-06
6.04545e-06 -1.78242e-06 -1.82701e-06 -4.41805e-06
6.66063e-06 -1.97645e-06 -2.00751e-06 -4.41961e-06
2.12868e-06 -6.18119e-07 -6.47382e-07 -5.32018e-06
4.03052e-06 -1.17888e-06 -1.22213e-06 -4.98412e-06
6.35381e-06 -1.88039e-06 -1.91718e-06 -4.41896e-06
4.44454e-06 -1.31165e-06 -1.34267e-06 -4.97863e-06
4.23846e-06 -1.24619e-06 -1.2824e-06 -4.98097e-06
2.02354e-06 -5.83808e-07 -6.17029e-07 -5.32662e-06
1.80932e-06 -5.10752e-07 -5.5653e-07 -5.34733e-06
5.4185e-06 -1.57829e-06 -1.6458e-06 -4.41623e-06
6.04545e-06 -1.78242e-06 -1.82701e-06 -4.41805e-06
1.91704e-06 -5.48054e-07 -5.86706e-07 -5.33544e-06
3.60607e-06 -1.03668e-06 -1.10117e-06 -4.99501e-06
5.73414e-06 -1.68204e-06 -1.73661e-06 -4.41708e-06
4.03052e-06 -1.17888e-06 -1.22213e-06 -4.98412e-06
3.81997e-06 -1.10916e-06 -1.16178e-06 -4.98851e-06
1.80932e-06 -5.10752e-07 -5.5653e-07 -5.34733e-06
1.58335e-06 -4.30103e-07 -4.94248e-07 -5.38449e-06
4.77377e-06 -1.35758e-06 -1.46408e-06 -4.41383e-06
5.4185e-06 -1.57829e-06 -1.6458e-06 -4.41623e-06
1.69867e-06 -4.71704e-07 -5.25842e-07 -5.36328e-06
3.1642e-06 -8.80874e-07 -9.78569e-07 -5.01551e-06
5.09841e-06 -1.47026e-06 -1.55492e-06 -4.41521e-06
3.60607e-06 -1.03668e-06 -1.10117e-06 -4.99501e-06
3.38781e-06 -9.60952e-07 -1.04008e-06 -5.00405e-06
1.58335e-06 -4.30103e-07 -4.94248e-07 -5.38449e-06
1.34459e-06 -3.38554e-07 -4.3116e-07 -5.44589e-06
4.09458e-06 -1.11484e-06 -1.27703e-06 -4.41465e-06
4.77377e-06 -1.35758e-06 -1.46408e-06 -4.41383e-06
1.46483e-06 -3.85384e-07 -4.62621e-07 -5.41167e-06
2.69454e-06 -7.0595e-07 -8.52252e-07 -5.05199e-06
4.44051e-06 -1.23969e-06 -1.37178e-06 -4.41329e-06
3.1642e-06 -8.80874e-07 -9.78569e-07 -5.01551e-06
2.93364e-06 -7.95603e-07 -9.16304e-07 -5.03057e-06
1.34459e-06 -3.38554e-07 -4.3116e-07 -5.44589e-06
1.08167e-06 -2.40581e-07 -3.60467e-07 -5.54023e-06
3.37371e-06 -8.44237e-07 -1.08406e-06 -4.42111e-06
4.09458e-06 -1.11484e-06 -1.27703e-06 -4.41465e-06
1.21831e-06 -2.90564e-07 -3.97607e-07 -5.48833e-06
2.1887e-06 -5.16011e-07 -7.16869e-07 -5.11277e-06
3.73823e-06 -9.81976e-07 -1.18125e-06 -4.41719e-06
2.69454e-06 -7.0595e-07 -8.52252e-07 -5.05199e-06
2.44639e-06 -6.12842e-07 -7.85805e-07 -5.08003e-06
1.08167e-06 -2.40581e-07 -3.60467e-07 -5.54023e-06
8.10467e-07 -1.44491e-07 -2.85419e-07 -5.66301e-06
2.58485e-06 -5.64665e-07 -8.65795e-07 -4.454e-06
3.37371e-06 -8.44237e-07 -1.08406e-06 -4.42111e-06
9.42958e-07 -1.89196e-07 -3.2304e-07 -5.59921e-06
1.6422e-06 -3.26085e-07 -5.6405e-07 -5.20578e-06
2.9922e-06 -7.05027e-07 -9.80216e-07 -4.43174e-06
2.1887e-06 -5.16011e-07 -7.16869e-07 -5.11277e-06
1.92085e-06 -4.17034e-07 -6.44494e-07 -5.15228e-06
8.10467e-07 -1.44491e-07 -2.85419e-07 -5.66301e-06
5.32651e-07 -1.02333e-07 -1.84422e-07 -5.78432e-06
1.76688e-06 -3.22147e-07 -6.19172e-07 -4.52773e-06
2.58485e-06 -5.64665e-07 -8.65795e-07 -4.454e-06
6.76324e-07 -1.14842e-07 -2.40635e-07 -5.72703e-06
1.093e-06 -2.12651e-07 -3.77292e-07 -5.32587e-06
2.17023e-06 -4.28131e-07 -7.46614e-07 -4.48515e-06
1.6422e-06 -3.26085e-07 -5.6405e-07 -5.20578e-06
1.36287e-06 -2.54871e-07 -4.74858e-07 -5.2682e-06
5.32651e-07 -1.02333e-07 -1.84422e-07 -5.78432e-06
3.38009e-07 -1.73653e-07 -7.0438e-08 -5.78997e-06
9.72782e-07 -3.16601e-07 -2.81221e-07 -4.69131e-06
1.76688e-06 -3.22147e-07 -6.19172e-07 -4.52773e-06
4.09772e-07 -1.12832e-07 -1.2726e-07 -5.81321e-06
6.25631e-07 -2.99961e-07 -1.39573e-07 -5.41543e-06
1.3695e-06 -2.77136e-07 -4.68157e-07 -4.59388e-06
1.093e-06 -2.12651e-07 -3.77292e-07 -5.32587e-06
8.43585e-07 -2.14344e-07 -2.69675e-07 -5.37287e-06
3.38009e-07 -1.73653e-07 -7.0438e-08 -5.78997e-06
2.34454e-07 -4.78616e-07 1.04641e-07 -5.46849e-06
5.52239e-07 -9.03361e-07 1.50481e-07 -4.81636e-06
9.72782e-07 -3.16601e-07 -2.81221e-07 -4.69131e-06
2.89017e-07 -3.05178e-07 6.92617e-09 -5.68729e-06
4.58953e-07 -8.26995e-07 1.57732e-07 -5.24571e-06
6.69452e-07 -4.83228e-07 -7.98104e-08 -4.77691e-06
6.25631e-07 -2.99961e-07 -1.39573e-07 -5.41543e-06
4.8285e-07 -5.05649e-07 9.77082e-09 -5.4021e-06
2.34454e-07 -4.78616e-07 1.04641e-07 -5.46849e-06
3.2705e-07 -8.78041e-07 2.36139e-07 -4.46961e-06
7.61728e-07 -2.74533e-06 8.50115e-07 -4.4255e-06
5.52239e-07 -9.03361e-07 1.50481e-07 -4.81636e-06
2.28929e-07 -6.64275e-07 1.86577e-07 -5.07699e-06
5.77857e-07 -1.78536e-06 5.175e-07 -4.36509e-06
5.92535e-07 -1.68078e-06 4.66391e-07 -4.74738e-06
4.58953e-07 -8.26995e-07 1.57732e-07 -5.24571e-06
5.06452e-07 -1.25281e-06 3.19868e-07 -4.90113e-06
3.2705e-07 -8.78041e-07 2.36139e-07 -4.46961e-06
5.8318e-07 -1.44633e-06 3.6992e-07 -2.55496e-06
1.38733e-06 -4.98102e-06 1.54015e-06 -2.3413e-06
7.61728e-07 -2.74533e-06 8.50115e-07 -4.4255e-06
4.66055e-07 -1.14061e-06 2.89095e-07 -3.63512e-06
8.60168e-07 -3.05405e-06 9.40234e-07 -2.58514e-06
1.03495e-06 -3.94584e-06 1.24752e-06 -3.65814e-06
5.77857e-07 -1.78536e-06 5.175e-07 -4.36509e-06
6.90115e-07 -2.41287e-06 7.38324e-07 -3.61211e-06
9.73767e-05 0 -4.17329e-05 1.27536e-05
0.000110147 -1.45818e-05 -4.09565e-05 -4.53262e-07
0.000190312 -3.77603e-05 -6.53792e-05 -1.41957e-05
0.000169052 2.22045e-16 -7.24508e-05 -9.73125e-06
0.000105538 -8.20047e-06 -4.17161e-05 4.77614e-06
0.000146949 -2.2794e-05 -5.32092e-05 -5.89209e-06
0.000180975 -1.78274e-05 -6.99205e-05 -1.64685e-05
0.000138348 0 -5.92919e-05 1.95444e-06
0.000140696 -1.26391e-05 -5.48816e-05 -1.90475e-06
0.000110147 -1.45818e-05 -4.09565e-05 -4.53262e-07
0.000115786 -2.66678e-05 -3.81936e-05 -4.56109e-06
0.000197749 -5.35882e-05 -6.1783e-05 -6.77208e-06
0.000190312 -3.77603e-05 -6.53792e-05 -1.41957e-05
0.000112973 -2.10081e-05 -3.94136e-05 -3.10056e-06
0.000156736 -3.87051e-05 -5.05848e-05 -6.87458e-06
0.000196192 -4.89251e-05 -6.31145e-05 -1.02459e-05
0.000146949 -2.2794e-05 -5.32092e-05 -5.89209e-06
0.000153498 -3.17316e-05 -5.21857e-05 -7.72118e-06
0.000115786 -2.66678e-05 -3.81936e-05 -4.56109e-06
0.000118651 -3.27751e-05 -3.68041e-05 -5.35109e-06
0.0001968 -5.80338e-05 -5.94713e-05 -2.52917e-06
0.000197749 -5.35882e-05 -6.1783e-05 -6.77208e-06
0.000117906 -3.04568e-05 -3.74782e-05 -5.27923e-06
0.000158322 -4.51071e-05 -4.85207e-05 -4.62068e-06
0.000197208 -5.63532e-05 -6.03665e-05 -3.9881e-06
0.000156736 -3.87051e-05 -5.05848e-05 -6.87458e-06
0.000157924 -4.28829e-05 -4.93033e-05 -5.43878e-06
0.000118651 -3.27751e-05 -3.68041e-05 -5.35109e-06
0.000118552 -3.51788e-05 -3.57314e-05 -4.94662e-06
0.000195415 -5.86483e-05 -5.86143e-05 -1.57952e-06
0.0001968 -5.80338e-05 -5.94713e-05 -2.52917e-06
0.000118656 -3.42834e-05 -3.61596e-05 -5.12499e-06
0.000157562 -4.71549e-05 -4.73173e-05 -3.51165e-06
0.000196283 -5.86264e-05 -5.89956e-05 -1.89147e-06
0.000158322 -4.51071e-05 -4.85207e-05 -4.62068e-06
0.000158134 -4.64405e-05 -4.78686e-05 -4.02445e-06
0.000118552 -3.51788e-05 -3.57314e-05 -4.94662e-06
0.000117726 -3.56415e-05 -3.51789e-05 -4.67092e-06
0.000193815 -5.85518e-05 -5.79698e-05 -1.53428e-06
0.000195415 -5.86483e-05 -5.86143e-05 -1.57952e-06
0.000118267 -3.55659e-05 -3.54432e-05 -4.80977e-06
0.000156118 -4.72763e-05 -4.66466e-05 -3.16265e-06
0.000194493 -5.86196e-05 -5.82317e-05 -1.46296e-06
0.000157562 -4.71549e-05 -4.73173e-05 -3.51165e-06
0.000156819 -4.73562e-05 -4.69127e-05 -3.22161e-06
0.000117726 -3.56415e-05 -3.51789e-05 -4.67092e-06
0.000116556 -3.54644e-05 -3.47536e-05 -4.4862e-06
0.0001926 -5.81237e-05 -5.76325e-05 -1.85337e-06
0.000193815 -5.85518e-05 -5.79698e-05 -1.53428e-06
0.000117099 -3.55913e-05 -3.49317e-05 -4.54997e-06
0.000154787 -4.69487e-05 -4.62166e-05 -3.18673e-06
0.000193232 -5.83652e-05 -5.78001e-05 -1.70192e-06
0.000156118 -4.72763e-05 -4.66466e-05 -3.16265e-06
0.000155446 -4.71316e-05 -4.64203e-05 -3.17345e-06
0.000116556 -3.54644e-05 -3.47536e-05 -4.4862e-06
0.000115537 -3.50716e-05 -3.44851e-05 -4.42907e-06
0.000191425 -5.77047e-05 -5.73086e-05 -2.12235e-06
0.0001926 -5.81237e-05 -5.76325e-05 -1.85337e-06
0.000116051 -3.52795e-05 -3.46164e-05 -4.45487e-06
0.000153589 -4.64728e-05 -4.59069e-05 -3.30633e-06
0.000191977 -5.79057e-05 -5.74591e-05 -1.98809e-06
0.000154787 -4.69487e-05 -4.62166e-05 -3.18673e-06
0.000154162 -4.67177e-05 -4.60477e-05 -3.23271e-06
0.000115537 -3.50716e-05 -3.44851e-05 -4.42907e-06
0.000114608 -3.46867e-05 -3.42522e-05 -4.40437e-06
0.00019037 -5.72969e-05 -5.70313e-05 -2.34206e-06
0.000191425 -5.77047e-05 -5.73086e-05 -2.12235e-06
0.000115045 -3.48728e-05 -3.43596e-05 -4.41022e-06
0.000152546 -4.60452e-05 -4.56432e-05 -3.42633e-06
0.000190902 -5.74995e-05 -5.71726e-05 -2.24664e-06
0.000153589 -4.64728e-05 -4.59069e-05 -3.30633e-06
0.000153055 -4.62497e-05 -4.57735e-05 -3.37442e-06
0.000114608 -3.46867e-05 -3.42522e-05 -4.40437e-06
0.000113817 -3.43483e-05 -3.40579e-05 -4.40527e-06
0.000189328 -5.6928e-05 -5.67427e-05 -2.47586e-06
0.00019037 -5.72969e-05 -5.70313e-05 -2.34206e-06
0.000114206 -3.45111e-05 -3.41548e-05 -4.40501e-06
0.000151598 -4.56652e-05 -4.53999e-05 -3.51584e-06
0.000189841 -5.71075e-05 -5.68856e-05 -2.4155e-06
0.000152546 -4.60452e-05 -4.56432e-05 -3.42633e-06
0.000152061 -4.58495e-05 -4.55194e-05 -3.47322e-06
0.000113817 -3.43483e-05 -3.40579e-05 -4.40527e-06
0.000113095 -3.40652e-05 -3.387e-05 -4.40821e-06
0.000188313 -5.65831e-05 -5.64558e-05 -2.56046e-06
0.000189328 -5.6928e-05 -5.67427e-05 -2.47586e-06
0.000113445 -3.42004e-05 -3.3962e-05 -4.40586e-06
0.000150716 -4.53391e-05 -4.51616e-05 -3.57394e-06
0.000188822 -5.67533e-05 -5.66007e-05 -2.52478e-06
0.000151598 -4.56652e-05 -4.53999e-05 -3.51584e-06
0.000151152 -4.54962e-05 -4.52809e-05 -3.54944e-06
0.000113095 -3.40652e-05 -3.387e-05 -4.40821e-06
0.00011243 -3.38217e-05 -3.36894e-05 -4.41322e-06
0.000187301 -5.62569e-05 -5.61619e-05 -2.60602e-06
0.000188313 -5.65831e-05 -5.64558e-05 -2.56046e-06
0.000112759 -3.39394e-05 -3.37799e-05 -4.41112e-06
0.00014987 -4.50464e-05 -4.49245e-05 -3.60898e-06
0.000187806 -5.64181e-05 -5.6309e-05 -2.58637e-06
0.000150716 -4.53391e-05 -4.51616e-05 -3.57394e-06
0.00015029 -4.51895e-05 -4.5043e-05 -3.59341e-06
0.00011243 -3.38217e-05 -3.36894e-05 -4.41322e-06
0.000111793 -3.36054e-05 -3.3509e-05 -4.41648e-06
0.000186295 -5.59413e-05 -5.58657e-05 -2.63125e-06
0.000187301 -5.62569e-05 -5.61619e-05 -2.60602e-06
0.000112108 -3.37109e-05 -3.35989e-05 -4.41487e-06
0.000149045 -4.4777e-05 -4.46863e-05 -3.62851e-06
0.000186798 -5.60981e-05 -5.60143e-05 -2.62087e-06
0.00014987 -4.50464e-05 -4.49245e-05 -3.60898e-06
0.000149456 -4.49094e-05 -4.48057e-05 -3.62045e-06
0.000111793 -3.36054e-05 -3.3509e-05 -4.41648e-06
0.000111174 -3.34052e-05 -3.33293e-05 -4.41892e-06
0.000185288 -5.56321e-05 -5.55667e-05 -2.64353e-06
0.000186295 -5.59413e-05 -5.58657e-05 -2.63125e-06
0.000111482 -3.35038e-05 -3.34193e-05 -4.4179e-06
0.000148231 -4.45204e-05 -4.44472e-05 -3.63897e-06
0.000185791 -5.57861e-05 -5.57163e-05 -2.63842e-06
0.000149045 -4.4777e-05 -4.46863e-05 -3.62851e-06
0.000148637 -4.46475e-05 -4.45669e-05 -3.63451e-06
0.000111174 -3.34052e-05 -3.33293e-05 -4.41892e-06
0.000110562 -3.32142e-05 -3.31491e-05 -4.42031e-06
0.000184282 -5.53265e-05 -5.52665e-05 -2.64957e-06
0.000185288 -5.56321e-05 -5.55667e-05 -2.64353e-06
0.000110867 -3.33088e-05 -3.32392e-05 -4.41968e-06
0.000147421 -4.42713e-05 -4.42072e-05 -3.64419e-06
0.000184785 -5.5479e-05 -5.54167e-05 -2.64716e-06
0.000148231 -4.45204e-05 -4.44472e-05 -3.63897e-06
0.000147826 -4.43951e-05 -4.43273e-05 -3.6421e-06
0.000110562 -3.32142e-05 -3.31491e-05 -4.42031e-06
0.000109955 -3.30282e-05 -3.29688e-05 -4.42116e-06
0.000183275 -5.50226e-05 -5.49654e-05 -2.65214e-06
0.000184282 -5.53265e-05 -5.52665e-05 -2.64957e-06
0.000110259 -3.31208e-05 -3.3059e-05 -4.42081e-06
0.000146615 -4.40259e-05 -4.39666e-05 -3.64669e-06
0.000183778 -5.51744e-05 -5.5116e-05 -2.65111e-06
0.000147421 -4.42713e-05 -4.42072e-05 -3.64419e-06
0.000147018 -4.41483e-05 -4.40869e-05 -3.64566e-06
0.000109955 -3.30282e-05 -3.29688e-05 -4.42116e-06
0.00010935 -3.28446e-05 -3.27882e-05 -4.42161e-06
0.000182269 -5.47196e-05 -5.46639e-05 -2.6532e-06
0.000183275 -5.50226e-05 -5.49654e-05 -2.65214e-06
0.000109653 -3.29362e-05 -3.28785e-05 -4.42142e-06
0.000145809 -4.37825e-05 -4.37256e-05 -3.64778e-06
0.000182772 -5.4871e-05 -5.48147e-05 -2.6528e-06
0.000146615 -4.40259e-05 -4.39666e-05 -3.64669e-06
0.000146212 -4.39041e-05 -4.38461e-05 -3.64736e-06
0.00010935 -3.28446e-05 -3.27882e-05 -4.42161e-06
0.000108746 -3.26623e-05 -3.26074e-05 -4.42186e-06
0.000181262 -5.4417e-05 -5.43622e-05 -2.65352e-06
0.000182269 -5.47196e-05 -5.46639e-05 -2.6532e-06
0.000109048 -3.27533e-05 -3.26978e-05 -4.42176e-06
0.000145004 -4.354e-05 -4.34843e-05 -3.64822e-06
0.000181765 -5.45683e-05 -5.4513e-05 -2.65341e-06
0.000145809 -4.37825e-05 -4.37256e-05 -3.64778e-06
0.000145406 -4.36612e-05 -4.3605e-05 -3.64805e-06
0.000108746 -3.26623e-05 -3.26074e-05 -4.42186e-06
0.000108142 -3.24805e-05 -3.24265e-05 -4.42198e-06
0.000180255 -5.41146e-05 -5.40604e-05 -2.65358e-06
0.000181262 -5.4417e-05 -5.43622e-05 -2.65352e-06
0.000108444 -3.25713e-05 -3.2517e-05 -4.42193e-06
0.000144198 -4.32979e-05 -4.3243e-05 -3.64836e-06
0.000180759 -5.42658e-05 -5.42113e-05 -2.65357e-06
0.000145004 -4.354e-05 -4.34843e-05 -3.64822e-06
0.000144601 -4.34189e-05 -4.33637e-05 -3.64832e-06
0.000108142 -3.24805e-05 -3.24265e-05 -4.42198e-06
0.000107539 -3.22989e-05 -3.22456e-05 -4.42204e-06
0.000179249 -5.38122e-05 -5.37585e-05 -2.65355e-06
0.000180255 -5.41146e-05 -5.40604e-05 -2.65358e-06
0.00010784 -3.23896e-05 -3.2336e-05 -4.42202e-06
0.000143393 -4.30559e-05 -4.30016e-05 -3.64839e-06
0.000179752 -5.39634e-05 -5.39094e-05 -2.65357e-06
0.000144198 -4.32979e-05 -4.3243e-05 -3.64836e-06
0.000143796 -4.31769e-05 -4.31223e-05 -3.64838e-06
0.000107539 -3.22989e-05 -3.22456e-05 -4.42204e-06
0.000106935 -3.21173e-05 -3.20646e-05 -4.42207e-06
0.000178242 -5.35098e-05 -5.34566e-05 -2.65349e-06
0.000179249 -5.38122e-05 -5.37585e-05 -2.65355e-06
0.000107237 -3.22081e-05 -3.21551e-05 -4.42206e-06
0.000142588 -4.2814e-05 -4.27602e-05 -3.64837e-06
0.000178745 -5.3661e-05 -5.36075e-05 -2.65352e-06
0.000143393 -4.30559e-05 -4.30016e-05 -3.64839e-06
0.00014299 -4.2935e-05 -4.28809e-05 -3.64838e-06
0.000106935 -3.21173e-05 -3.20646e-05 -4.42207e-06
0.000106331 -3.19358e-05 -3.18836e-05 -4.42208e-06
0.000177235 -5.32075e-05 -5.31547e-05 -2.65345e-06
0.000178242 -5.35098e-05 -5.34566e-05 -2.65349e-06
0.000106633 -3.20266e-05 -3.19741e-05 -4.42207e-06
0.000141783 -4.25721e-05 -4.25188e-05 -3.64835e-06
0.000177739 -5.33587e-05 -5.33056e-05 -2.65347e-06
0.000142588 -4.2814e-05 -4.27602e-05 -3.64837e-06
0.000142185 -4.2693e-05 -4.26395e-05 -3.64836e-06
0.000106331 -3.19358e-05 -3.18836e-05 -4.42208e-06
0.000105727 -3.17543e-05 -3.17026e-05 -4.42208e-06
0.000176228 -5.29051e-05 -5.28528e-05 -2.65342e-06
0.000177235 -5.32075e-05 -5.31547e-05 -2.65345e-06
0.000106029 -3.18451e-05 -3.17931e-05 -4.42208e-06
0.000140977 -4.23301e-05 -4.22773e-05 -3.64833e-06
0.000176732 -5.30563e-05 -5.30038e-05 -2.65343e-06
0.000141783 -4.25721e-05 -4.25188e-05 -3.64835e-06
0.00014138 -4.24511e-05 -4.23981e-05 -3.64834e-06
0.000105727 -3.17543e-05 -3.17026e-05 -4.42208e-06
0.000105123 -3.15728e-05 -3.15216e-05 -4.42208e-06
0.000175222 -5.26028e-05 -5.25509e-05 -2.6534e-06
0.000176228 -5.29051e-05 -5.28528e-05 -2.65342e-06
0.000105425 -3.16635e-05 -3.16121e-05 -4.42208e-06
0.000140172 -4.20882e-05 -4.20359e-05 -3.64832e-06
0.000175725 -5.27539e-05 -5.27019e-05 -2.65341e-06
0.000140977 -4.23301e-05 -4.22773e-05 -3.64833e-06
0.000140575 -4.22092e-05 -4.21566e-05 -3.64833e-06
0.000105123 -3.15728e-05 -3.15216e-05 -4.42208e-06
0.000104519 -3.13912e-05 -3.13406e-05 -4.42208e-06
0.000174215 -5.23004e-05 -5.2249e-05 -2.65338e-06
0.000175222 -5.26028e-05 -5.25509e-05 -2.6534e-06
0.000104821 -3.1482e-05 -3.14311e-05 -4.42208e-06
0.000139367 -4.18462e-05 -4.17945e-05 -3.64831e-06
0.000174718 -5.24516e-05 -5.24e-05 -2.65339e-06
0.000140172 -4.20882e-05 -4.20359e-05 -3.64832e-06
0.000139769 -4.19672e-05 -4.19152e-05 -3.64831e-06
0.000104519 -3.13912e-05 -3.13406e-05 -4.42208e-06
0.000103915 -3.12097e-05 -3.11596e-05 -4.42208e-06
0.000173208 -5.1998e-05 -5.19471e-05 -2.65337e-06
0.000174215 -5.23004e-05 -5.2249e-05 -2.65338e-06
0.000104217 -3.13004e-05 -3.12501e-05 -4.42208e-06
0.000138561 -4.16043e-05 -4.1553e-05 -3.6483e-06
0.000173711 -5.21492e-05 -5.20981e-05 -2.65338e-06
0.000139367 -4.18462e-05 -4.17945e-05 -3.64831e-06
0.000138964 -4.17252e-05 -4.16737e-05 -3.64831e-06
0.000103915 -3.12097e-05 -3.11596e-05 -4.42208e-06
0.000103312 -3.10281e-05 -3.09786e-05 -4.42207e-06
0.000172201 -5.16956e-05 -5.16452e-05 -2.65337e-06
0.000173208 -5.1998e-05 -5.19471e-05 -2.65337e-06
0.000103614 -3.11189e-05 -3.10691e-05 -4.42208e-06
0.000137756 -4.13623e-05 -4.13116e-05 -3.6483e-06
0.000172705 -5.18468e-05 -5.17962e-05 -2.65337e-06
0.000138561 -4.16043e-05 -4.1553e-05 -3.6483e-06
0.000138159 -4.14833e-05 -4.14323e-05 -3.6483e-06
0.000103312 -3.10281e-05 -3.09786e-05 -4.42207e-06
0.000102708 -3.08466e-05 -3.07976e-05 -4.42207e-06
0.000171194 -5.13933e-05 -5.13433e-05 -2.65337e-06
0.000172201 -5.16956e-05 -5.16452e-05 -2.65337e-06
0.00010301 -3.09373e-05 -3.08881e-05 -4.42207e-06
0.000136951 -4.11203e-05 -4.10701e-05 -3.64829e-06
0.000171698 -5.15444e-05 -5.14943e-05 -2.65337e-06
0.000137756 -4.13623e-05 -4.13116e-05 -3.6483e-06
0.000137353 -4.12413e-05 -4.11908e-05 -3.6483e-06
0.000102708 -3.08466e-05 -3.07976e-05 -4.42207e-06
0.000102104 -3.0665e-05 -3.06166e-05 -4.42207e-06
0.000170188 -5.10909e-05 -5.10414e-05 -2.65336e-06
0.000171194 -5.13933e-05 -5.13433e-05 -2.65337e-06
0.000102406 -3.07558e-05 -3.07071e-05 -4.42207e-06
0.000136145 -4.08783e-05 -4.08287e-05 -3.64829e-06
0.000170691 -5.12421e-05 -5.11924e-05 -2.65336e-06
0.000136951 -4.11203e-05 -4.10701e-05 -3.64829e-06
0.000136548 -4.09993e-05 -4.09494e-05 -3.64829e-06
0.000102104 -3.0665e-05 -3.06166e-05 -4.42207e-06
0.0001015 -3.04834e-05 -3.04356e-05 -4.42207e-06
0.000169181 -5.07885e-05 -5.07395e-05 -2.65336e-06
0.000170188 -5.10909e-05 -5.10414e-05 -2.65336e-06
0.000101802 -3.05742e-05 -3.05261e-05 -4.42207e-06
0.00013534 -4.06364e-05 -4.05872e-05 -3.64829e-06
0.000169684 -5.09397e-05 -5.08905e-05 -2.65336e-06
0.000136145 -4.08783e-05 -4.08287e-05 -3.64829e-06
0.000135743 -4.07574e-05 -4.0708e-05 -3.64829e-06
0.0001015 -3.04834e-05 -3.04356e-05 -4.42207e-06
0.000100896 -3.03019e-05 -3.02546e-05 -4.42206e-06
0.000168174 -5.04861e-05 -5.04377e-05 -2.65336e-06
0.000169181 -5.07885e-05 -5.07395e-05 -2.65336e-06
0.000101198 -3.03927e-05 -3.03451e-05 -4.42206e-06
0.000134535 -4.03944e-05 -4.03458e-05 -3.64828e-06
0.000168677 -5.06373e-05 -5.05886e-05 -2.65336e-06
0.00013534 -4.06364e-05 -4.05872e-05 -3.64829e-06
0.000134937 -4.05154e-05 -4.04665e-05 -3.64829e-06
0.000100896 -3.03019e-05 -3.02546e-05 -4.42206e-06
0.000100292 -3.01203e-05 -3.00736e-05 -4.42206e-06
0.000167167 -5.01837e-05 -5.01358e-05 -2.65336e-06
0.000168174 -5.04861e-05 -5.04377e-05 -2.65336e-06
0.000100594 -3.02111e-05 -3.01641e-05 -4.42206e-06
0.000133729 -4.01524e-05 -4.01044e-05 -3.64828e-06
0.000167671 -5.03349e-05 -5.02867e-05 -2.65336e-06
0.000134535 -4.03944e-05 -4.03458e-05 -3.64828e-06
0.000134132 -4.02734e-05 -4.02251e-05 -3.64828e-06
0.000100292 -3.01203e-05 -3.00736e-05 -4.42206e-06
9.96882e-05 -2.99388e-05 -2.98926e-05 -4.42206e-06
0.00016616 -4.98813e-05 -4.98339e-05 -2.65335e-06
0.000167167 -5.01837e-05 -5.01358e-05 -2.65336e-06
9.99902e-05 -3.00296e-05 -2.99831e-05 -4.42206e-06
0.000132924 -3.99104e-05 -3.98629e-05 -3.64828e-06
0.000166664 -5.00325e-05 -4.99848e-05 -2.65335e-06
0.000133729 -4.01524e-05 -4.01044e-05 -3.64828e-06
0.000133327 -4.00314e-05 -3.99836e-05 -3.64828e-06
9.96882e-05 -2.99388e-05 -2.98926e-05 -4.42206e-06
9.90843e-05 -2.97572e-05 -2.97116e-05 -4.42206e-06
0.000165154 -4.9579e-05 -4.9532e-05 -2.65335e-06
0.00016616 -4.98813e-05 -4.98339e-05 -2.65335e-06
9.93863e-05 -2.9848e-05 -2.98021e-05 -4.42206e-06
0.000132119 -3.96685e-05 -3.96215e-05 -3.64828e-06
0.000165657 -4.97301e-05 -4.96829e-05 -2.65335e-06
0.000132924 -3.99104e-05 -3.98629e-05 -3.64828e-06
0.000132521 -3.97895e-05 -3.97422e-05 -3.64828e-06
9.90843e-05 -2.97572e-05 -2.97116e-05 -4.42206e-06
9.84804e-05 -2.95757e-05 -2.95306e-05 -4.42205e-06
0.000164147 -4.92766e-05 -4.92301e-05 -2.65335e-06
0.000165154 -4.9579e-05 -4.9532e-05 -2.65335e-06
9.87824e-05 -2.96664e-05 -2.96211e-05 -4.42206e-06
0.000131313 -3.94265e-05 -3.938e-05 -3.64828e-06
0.00016465 -4.94278e-05 -4.9381e-05 -2.65335e-06
0.000132119 -3.96685e-05 -3.96215e-05 -3.64828e-06
0.000131716 -3.95475e-05 -3.95008e-05 -3.64828e-06
9.84804e-05 -2.95757e-05 -2.95306e-05 -4.42205e-06
9.78766e-05 -2.93941e-05 -2.93496e-05 -4.42205e-06
0.00016314 -4.89742e-05 -4.89282e-05 -2.65335e-06
0.000164147 -4.92766e-05 -4.92301e-05 -2.65335e-06
9.81785e-05 -2.94849e-05 -2.94401e-05 -4.42205e-06
0.000130508 -3.91845e-05 -3.91386e-05 -3.64827e-06
0.000163643 -4.91254e-05 -4.90792e-05 -2.65335e-06
0.000131313 -3.94265e-05 -3.938e-05 -3.64828e-06
0.000130911 -3.93055e-05 -3.92593e-05 -3.64827e-06
9.78766e-05 -2.93941e-05 -2.93496e-05 -4.42205e-06
9.72727e-05 -2.92125e-05 -2.91686e-05 -4.42205e-06
0.000162133 -4.86718e-05 -4.86263e-05 -2.65334e-06
0.00016314 -4.89742e-05 -4.89282e-05 -2.65335e-06
9.75746e-05 -2.93033e-05 -2.92591e-05 -4.42205e-06
0.000129703 -3.89425e-05 -3.88972e-05 -3.64827e-06
0.000162637 -4.8823e-05 -4.87773e-05 -2.65335e-06
0.000130508 -3.91845e-05 -3.91386e-05 -3.64827e-06
0.000130105 -3.90635e-05 -3.90179e-05 -3.64827e-06
9.72727e-05 -2.92125e-05 -2.91686e-05 -4.42205e-06
9.66688e-05 -2.9031e-05 -2.89876e-05 -4.42205e-06
0.000161126 -4.83694e-05 -4.83244e-05 -2.65334e-06
0.000162133 -4.86718e-05 -4.86263e-05 -2.65334e-06
9.69707e-05 -2.91218e-05 -2.90781e-05 -4.42205e-06
0.000128897 -3.87006e-05 -3.86557e-05 -3.64827e-06
0.00016163 -4.85206e-05 -4.84754e-05 -2.65334e-06
0.000129703 -3.89425e-05 -3.88972e-05 -3.64827e-06
0.0001293 -3.88215e-05 -3.87764e-05 -3.64827e-06
9.66688e-05 -2.9031e-05 -2.89876e-05 -4.42205e-06
9.60649e-05 -2.88494e-05 -2.88066e-05 -4.42205e-06
0.00016012 -4.8067e-05 -4.80225e-05 -2.65334e-06
0.000161126 -4.83694e-05 -4.83244e-05 -2.65334e-06
9.63668e-05 -2.89402e-05 -2.88971e-05 -4.42205e-06
0.000128092 -3.84586e-05 -3.84143e-05 -3.64827e-06
0.000160623 -4.82182e-05 -4.81735e-05 -2.65334e-06
0.000128897 -3.87006e-05 -3.86557e-05 -3.64827e-06
0.000128495 -3.85796e-05 -3.8535e-05 -3.64827e-06
9.60649e-05 -2.88494e-05 -2.88066e-05 -4.42205e-06
9.5461e-05 -2.86679e-05 -2.86256e-05 -4.42204e-06
0.000159113 -4.77646e-05 -4.77207e-05 -2.65334e-06
0.00016012 -4.8067e-05 -4.80225e-05 -2.65334e-06
9.57629e-05 -2.87586e-05 -2.87161e-05 -4.42205e-06
0.000127287 -3.82166e-05 -3.81728e-05 -3.64826e-06
0.000159616 -4.79158e-05 -4.78716e-05 -2.65334e-06
0.000128092 -3.84586e-05 -3.84143e-05 -3.64827e-06
0.000127689 -3.83376e-05 -3.82936e-05 -3.64827e-06
9.5461e-05 -2.86679e-05 -2.86256e-05 -4.42204e-06
9.48571e-05 -2.84863e-05 -2.84446e-05 -4.42204e-06
0.000158106 -4.74622e-05 -4.74188e-05 -2.65334e-06
0.000159113 -4.77646e-05 -4.77207e-05 -2.65334e-06
9.5159e-05 -2.85771e-05 -2.85351e-05 -4.42204e-06
0.000126481 -3.79746e-05 -3.79314e-05 -3.64826e-06
0.000158609 -4.76134e-05 -4.75697e-05 -2.65334e-06
0.000127287 -3.82166e-05 -3.81728e-05 -3.64826e-06
0.000126884 -3.80956e-05 -3.80521e-05 -3.64826e-06
9.48571e-05 -2.84863e-05 -2.84446e-05 -4.42204e-06
9.42532e-05 -2.83047e-05 -2.82636e-05 -4.42204e-06
0.000157099 -4.71599e-05 -4.71169e-05 -2.65334e-06
0.000158106 -4.74622e-05 -4.74188e-05 -2.65334e-06
9.45551e-05 -2.83955e-05 -2.83541e-05 -4.42204e-06
0.000125676 -3.77326e-05 -3.76899e-05 -3.64826e-06
0.000157603 -4.7311e-05 -4.72678e-05 -2.65334e-06
0.000126481 -3.79746e-05 -3.79314e-05 -3.64826e-06
0.000126079 -3.78536e-05 -3.78107e-05 -3.64826e-06
9.42532e-05 -2.83047e-05 -2.82636e-05 -4.42204e-06
9.36493e-05 -2.81232e-05 -2.80826e-05 -4.42204e-06
0.000156092 -4.68575e-05 -4.6815e-05 -2.65333e-06
0.000157099 -4.71599e-05 -4.71169e-05 -2.65334e-06
9.39512e-05 -2.8214e-05 -2.81731e-05 -4.42204e-06
0.000124871 -3.74907e-05 -3.74485e-05 -3.64826e-06
0.000156596 -4.70087e-05 -4.69659e-05 -2.65333e-06
0.000125676 -3.77326e-05 -3.76899e-05 -3.64826e-06
0.000125273 -3.76117e-05 -3.75692e-05 -3.64826e-06
9.36493e-05 -2.81232e-05 -2.80826e-05 -4.42204e-06
9.30454e-05 -2.79416e-05 -2.79016e-05 -4.42204e-06
0.000155086 -4.65551e-05 -4.65131e-05 -2.65333e-06
0.000156092 -4.68575e-05 -4.6815e-05 -2.65333e-06
9.33473e-05 -2.80324e-05 -2.79921e-05 -4.42204e-06
0.000124065 -3.72487e-05 -3.72071e-05 -3.64826e-06
0.000155589 -4.67063e-05 -4.6664e-05 -2.65333e-06
0.000124871 -3.74907e-05 -3.74485e-05 -3.64826e-06
0.000124468 -3.73697e-05 -3.73278e-05 -3.64826e-06
9.30454e-05 -2.79416e-05 -2.79016e-05 -4.42204e-06
9.24415e-05 -2.77601e-05 -2.77206e-05 -4.42203e-06
0.000154079 -4.62527e-05 -4.62112e-05 -2.65333e-06
0.000155086 -4.65551e-05 -4.65131e-05 -2.65333e-06
9.27434e-05 -2.78508e-05 -2.78111e-05 -4.42204e-06
0.00012326 -3.70067e-05 -3.69656e-05 -3.64825e-06
0.000154582 -4.64039e-05 -4.63622e-05 -2.65333e-06
0.000124065 -3.72487e-05 -3.72071e-05 -3.64826e-06
0.000123662 -3.71277e-05 -3.70863e-05 -3.64825e-06
9.24415e-05 -2.77601e-05 -2.77206e-05 -4.42203e-06
9.18376e-05 -2.75785e-05 -2.75396e-05 -4.42203e-06
0.000153072 -4.59503e-05 -4.59093e-05 -2.65333e-06
0.000154079 -4.62527e-05 -4.62112e-05 -2.65333e-06
9.21395e-05 -2.76693e-05 -2.76301e-05 -4.42203e-06
0.000122454 -3.67647e-05 -3.67242e-05 -3.64825e-06
0.000153575 -4.61015e-05 -4.60603e-05 -2.65333e-06
0.00012326 -3.70067e-05 -3.69656e-05 -3.64825e-06
0.000122857 -3.68857e-05 -3.68449e-05 -3.64825e-06
9.18376e-05 -2.75785e-05 -2.75396e-05 -4.42203e-06
9.12337e-05 -2.7397e-05 -2.73586e-05 -4.42203e-06
0.000152065 -4.56479e-05 -4.56074e-05 -2.65333e-06
0.000153072 -4.59503e-05 -4.59093e-05 -2.65333e-06
9.15356e-05 -2.74877e-05 -2.74491e-05 -4.42203e-06
0.000121649 -3.65227e-05 -3.64827e-05 -3.64825e-06
0.000152569 -4.57991e-05 -4.57584e-05 -2.65333e-06
0.000122454 -3.67647e-05 -3.67242e-05 -3.64825e-06
0.000122052 -3.66437e-05 -3.66035e-05 -3.64825e-06
9.12337e-05 -2.7397e-05 -2.73586e-05 -4.42203e-06
9.06298e-05 -2.72154e-05 -2.71776e-05 -4.42203e-06
0.000151058 -4.53455e-05 -4.53055e-05 -2.65332e-06
0.000152065 -4.56479e-05 -4.56074e-05 -2.65333e-06
9.09317e-05 -2.73062e-05 -2.72681e-05 -4.42203e-06
0.000120844 -3.62808e-05 -3.62413e-05 -3.64825e-06
0.000151562 -4.54967e-05 -4.54565e-05 -2.65332e-06
0.000121649 -3.65227e-05 -3.64827e-05 -3.64825e-06
0.000121246 -3.64018e-05 -3.6362e-05 -3.64825e-06
9.06298e-05 -2.72154e-05 -2.71776e-05 -4.42203e-06
9.00259e-05 -2.70338e-05 -2.69966e-05 -4.42203e-06
0.000150052 -4.50431e-05 -4.50037e-05 -2.65332e-06
0.000151058 -4.53455e-05 -4.53055e-05 -2.65332e-06
9.03278e-05 -2.71246e-05 -2.70871e-05 -4.42203e-06
0.000120038 -3.60388e-05 -3.59998e-05 -3.64824e-06
0.000150555 -4.51943e-05 -4.51546e-05 -2.65332e-06
0.000120844 -3.62808e-05 -3.62413e-05 -3.64825e-06
0.000120441 -3.61598e-05 -3.61206e-05 -3.64825e-06
9.00259e-05 -2.70338e-05 -2.69966e-05 -4.42203e-06
8.9422e-05 -2.68523e-05 -2.68156e-05 -4.42202e-06
0.000149045 -4.47407e-05 -4.47018e-05 -2.65332e-06
0.000150052 -4.50431e-05 -4.50037e-05 -2.65332e-06
8.97239e-05 -2.69431e-05 -2.69061e-05 -4.42202e-06
0.000119233 -3.57968e-05 -3.57584e-05 -3.64824e-06
0.000149548 -4.48919e-05 -4.48527e-05 -2.65332e-06
0.000120038 -3.60388e-05 -3.59998e-05 -3.64824e-06
0.000119636 -3.59178e-05 -3.58791e-05 -3.64824e-06
8.9422e-05 -2.68523e-05 -2.68156e-05 -4.42202e-06
8.88181e-05 -2.66707e-05 -2.66346e-05 -4.42202e-06
0.000148038 -4.44383e-05 -4.43999e-05 -2.65332e-06
0.000149045 -4.47407e-05 -4.47018e-05 -2.65332e-06
8.912e-05 -2.67615e-05 -2.67251e-05 -4.42202e-06
0.000118428 -3.55548e-05 -3.5517e-05 -3.64824e-06
0.000148541 -4.45895e-05 -4.45508e-05 -2.65332e-06
0.000119233 -3.57968e-05 -3.57584e-05 -3.64824e-06
0.00011883 -3.56758e-05 -3.56377e-05 -3.64824e-06
8.88181e-05 -2.66707e-05 -2.66346e-05 -4.42202e-06
8.82141e-05 -2.64892e-05 -2.64536e-05 -4.42202e-06
0.000147031 -4.41359e-05 -4.4098e-05 -2.65332e-06
0.000148038 -4.44383e-05 -4.43999e-05 -2.65332e-06
8.85161e-05 -2.65799e-05 -2.65441e-05 -4.42202e-06
0.000117622 -3.53129e-05 -3.52755e-05 -3.64824e-06
0.000147535 -4.42871e-05 -4.42489e-05 -2.65332e-06
0.000118428 -3.55548e-05 -3.5517e-05 -3.64824e-06
0.000118025 -3.54338e-05 -3.53962e-05 -3.64824e-06
8.82141e-05 -2.64892e-05 -2.64536e-05 -4.42202e-06
8.76102e-05 -2.63076e-05 -2.62726e-05 -4.42202e-06
0.000146024 -4.38335e-05 -4.37961e-05 -2.65331e-06
0.000147031 -4.41359e-05 -4.4098e-05 -2.65332e-06
8.79122e-05 -2.63984e-05 -2.63631e-05 -4.42202e-06
0.000116817 -3.50709e-05 -3.50341e-05 -3.64824e-06
0.000146528 -4.39847e-05 -4.3947e-05 -2.65331e-06
0.000117622 -3.53129e-05 -3.52755e-05 -3.64824e-06
0.00011722 -3.51919e-05 -3.51548e-05 -3.64824e-06
8.76102e-05 -2.63076e-05 -2.62726e-05 -4.42202e-06
8.70063e-05 -2.6126e-05 -2.60915e-05 -4.42202e-06
0.000145018 -4.35312e-05 -4.34942e-05 -2.65331e-06
0.000146024 -4.38335e-05 -4.37961e-05 -2.65331e-06
8.73083e-05 -2.62168e-05 -2.61821e-05 -4.42202e-06
0.000116012 -3.48289e-05 -3.47926e-05 -3.64823e-06
0.000145521 -4.36823e-05 -4.36452e-05 -2.65331e-06
0.000116817 -3.50709e-05 -3.50341e-05 -3.64824e-06
0.000116414 -3.49499e-05 -3.49133e-05 -3.64823e-06
8.70063e-05 -2.6126e-05 -2.60915e-05 -4.42202e-06
8.64024e-05 -2.59445e-05 -2.59105e-05 -4.42201e-06
0.000144011 -4.32288e-05 -4.31923e-05 -2.65331e-06
0.000145018 -4.35312e-05 -4.34942e-05 -2.65331e-06
8.67044e-05 -2.60353e-05 -2.6001e-05 -4.42201e-06
0.000115206 -3.45869e-05 -3.45512e-05 -3.64823e-06
0.000144514 -4.338e-05 -4.33433e-05 -2.65331e-06
0.000116012 -3.48289e-05 -3.47926e-05 -3.64823e-06
0.000115609 -3.47079e-05 -3.46719e-05 -3.64823e-06
8.64024e-05 -2.59445e-05 -2.59105e-05 -4.42201e-06
8.57985e-05 -2.57629e-05 -2.57295e-05 -4.42201e-06
0.000143004 -4.29264e-05 -4.28904e-05 -2.65331e-06
0.000144011 -4.32288e-05 -4.31923e-05 -2.65331e-06
8.61005e-05 -2.58537e-05 -2.582e-05 -4.42201e-06
0.000114401 -3.43449e-05 -3.43097e-05 -3.64823e-06
0.000143507 -4.30776e-05 -4.30414e-05 -2.65331e-06
0.000115206 -3.45869e-05 -3.45512e-05 -3.64823e-06
0.000114804 -3.44659e-05 -3.44305e-05 -3.64823e-06
8.57985e-05 -2.57629e-05 -2.57295e-05 -4.42201e-06
8.51946e-05 -2.55814e-05 -2.55485e-05 -4.42201e-06
0.000141997 -4.2624e-05 -4.25885e-05 -2.65331e-06
0.000143004 -4.29264e-05 -4.28904e-05 -2.65331e-06
8.54965e-05 -2.56722e-05 -2.5639e-05 -4.42201e-06
0.000113596 -3.4103e-05 -3.40683e-05 -3.64823e-06
0.000142501 -4.27752e-05 -4.27395e-05 -2.65331e-06
0.000114401 -3.43449e-05 -3.43097e-05 -3.64823e-06
0.000113998 -3.42239e-05 -3.4189e-05 -3.64823e-06
8.51946e-05 -2.55814e-05 -2.55485e-05 -4.42201e-06
8.45907e-05 -2.53998e-05 -2.53675e-05 -4.42201e-06
0.00014099 -4.23216e-05 -4.22866e-05 -2.6533e-06
0.000141997 -4.2624e-05 -4.25885e-05 -2.65331e-06
8.48926e-05 -2.54906e-05 -2.5458e-05 -4.42201e-06
0.00011279 -3.3861e-05 -3.38268e-05 -3.64822e-06
0.000141494 -4.24728e-05 -4.24376e-05 -2.6533e-06
0.000113596 -3.4103e-05 -3.40683e-05 -3.64823e-06
0.000113193 -3.3982e-05 -3.39476e-05 -3.64823e-06
8.45907e-05 -2.53998e-05 -2.53675e-05 -4.42201e-06
8.39868e-05 -2.52183e-05 -2.51865e-05 -4.422e-06
0.000139984 -4.20192e-05 -4.19848e-05 -2.6533e-06
0.00014099 -4.23216e-05 -4.22866e-05 -2.6533e-06
8.42887e-05 -2.5309e-05 -2.5277e-05 -4.42201e-06
0.000111985 -3.3619e-05 -3.35854e-05 -3.64822e-06
0.000140487 -4.21704e-05 -4.21357e-05 -2.6533e-06
0.00011279 -3.3861e-05 -3.38268e-05 -3.64822e-06
0.000112388 -3.374e-05 -3.37061e-05 -3.64822e-06
8.39868e-05 -2.52183e-05 -2.51865e-05 -4.422e-06
8.33828e-05 -2.50367e-05 -2.50055e-05 -4.422e-06
0.000138977 -4.17168e-05 -4.16829e-05 -2.6533e-06
0.000139984 -4.20192e-05 -4.19848e-05 -2.6533e-06
8.36848e-05 -2.51275e-05 -2.5096e-05 -4.422e-06
0.00011118 -3.3377e-05 -3.33439e-05 -3.64822e-06
0.00013948 -4.1868e-05 -4.18338e-05 -2.6533e-06
0.000111985 -3.3619e-05 -3.35854e-05 -3.64822e-06
0.000111582 -3.3498e-05 -3.34647e-05 -3.64822e-06
8.33828e-05 -2.50367e-05 -2.50055e-05 -4.422e-06
8.27789e-05 -2.48552e-05 -2.48245e-05 -4.422e-06
0.00013797 -4.14144e-05 -4.1381e-05 -2.6533e-06
0.000138977 -4.17168e-05 -4.16829e-05 -2.6533e-06
8.30809e-05 -2.49459e-05 -2.4915e-05 -4.422e-06
0.000110374 -3.3135e-05 -3.31025e-05 -3.64822e-06
0.000138473 -4.15656e-05 -4.15319e-05 -2.6533e-06
0.00011118 -3.3377e-05 -3.33439e-05 -3.64822e-06
0.000110777 -3.3256e-05 -3.32232e-05 -3.64822e-06
8.27789e-05 -2.48552e-05 -2.48245e-05 -4.422e-06
8.2175e-05 -2.46736e-05 -2.46435e-05 -4.422e-06
0.000136963 -4.1112e-05 -4.10791e-05 -2.6533e-06
0.00013797 -4.14144e-05 -4.1381e-05 -2.6533e-06
8.2477e-05 -2.47644e-05 -2.4734e-05 -4.422e-06
0.000109569 -3.28931e-05 -3.2861e-05 -3.64822e-06
0.000137467 -4.12632e-05 -4.123e-05 -2.6533e-06
0.000110374 -3.3135e-05 -3.31025e-05 -3.64822e-06
0.000109972 -3.30141e-05 -3.29818e-05 -3.64822e-06
8.2175e-05 -2.46736e-05 -2.46435e-05 -4.422e-06
8.15711e-05 -2.4492e-05 -2.44624e-05 -4.422e-06
0.000135956 -4.08096e-05 -4.07772e-05 -2.65329e-06
0.000136963 -4.1112e-05 -4.10791e-05 -2.6533e-06
8.1873e-05 -2.45828e-05 -2.4553e-05 -4.422e-06
0.000108763 -3.26511e-05 -3.26196e-05 -3.64821e-06
0.00013646 -4.09608e-05 -4.09281e-05 -2.65329e-06
0.000109569 -3.28931e-05 -3.2861e-05 -3.64822e-06
0.000109166 -3.27721e-05 -3.27403e-05 -3.64821e-06
8.15711e-05 -2.4492e-05 -2.44624e-05 -4.422e-06
8.09672e-05 -2.43105e-05 -2.42814e-05 -4.42199e-06
0.00013495 -4.05072e-05 -4.04753e-05 -2.65329e-06
0.000135956 -4.08096e-05 -4.07772e-05 -2.65329e-06
8.12691e-05 -2.44013e-05 -2.43719e-05 -4.42199e-06
0.000107958 -3.24091e-05 -3.23781e-05 -3.64821e-06
0.000135453 -4.06584e-05 -4.06262e-05 -2.65329e-06
0.000108763 -3.26511e-05 -3.26196e-05 -3.64821e-06
0.000108361 -3.25301e-05 -3.24989e-05 -3.64821e-06
8.09672e-05 -2.43105e-05 -2.42814e-05 -4.42199e-06
8.03632e-05 -2.41289e-05 -2.41004e-05 -4.42199e-06
0.000133943 -4.02048e-05 -4.01734e-05 -2.65329e-06
0.00013495 -4.05072e-05 -4.04753e-05 -2.65329e-06
8.06652e-05 -2.42197e-05 -2.41909e-05 -4.42199e-06
0.000107153 -3.21671e-05 -3.21367e-05 -3.64821e-06
0.000134446 -4.0356e-05 -4.03244e-05 -2.65329e-06
0.000107958 -3.24091e-05 -3.23781e-05 -3.64821e-06
0.000107555 -3.22881e-05 -3.22574e-05 -3.64821e-06
8.03632e-05 -2.41289e-05 -2.41004e-05 -4.42199e-06
7.97593e-05 -2.39474e-05 -2.39194e-05 -4.42199e-06
0.000132936 -3.99024e-05 -3.98715e-05 -2.65329e-06
0.000133943 -4.02048e-05 -4.01734e-05 -2.65329e-06
8.00613e-05 -2.40382e-05 -2.40099e-05 -4.42199e-06
0.000106347 -3.19252e-05 -3.18952e-05 -3.64821e-06
0.000133439 -4.00536e-05 -4.00225e-05 -2.65329e-06
0.000107153 -3.21671e-05 -3.21367e-05 -3.64821e-06
0.00010675 -3.20461e-05 -3.2016e-05 -3.64821e-06
7.97593e-05 -2.39474e-05 -2.39194e-05 -4.42199e-06
7.91554e-05 -2.37658e-05 -2.37384e-05 -4.42199e-06
0.000131929 -3.96e-05 -3.95696e-05 -2.65329e-06
0.000132936 -3.99024e-05 -3.98715e-05 -2.65329e-06
7.94574e-05 -2.38566e-05 -2.38289e-05 -4.42199e-06
0.000105542 -3.16832e-05 -3.16538e-05 -3.6482e-06
0.000132433 -3.97512e-05 -3.97206e-05 -2.65329e-06
0.000106347 -3.19252e-05 -3.18952e-05 -3.64821e-06
0.000105945 -3.18042e-05 -3.17745e-05 -3.6482e-06
7.91554e-05 -2.37658e-05 -2.37384e-05 -4.42199e-06
7.85515e-05 -2.35843e-05 -2.35574e-05 -4.42199e-06
0.000130922 -3.92976e-05 -3.92677e-05 -2.65328e-06
0.000131929 -3.96e-05 -3.95696e-05 -2.65329e-06
7.88534e-05 -2.36751e-05 -2.36479e-05 -4.42199e-06
0.000104737 -3.14412e-05 -3.14123e-05 -3.6482e-06
0.000131426 -3.94488e-05 -3.94187e-05 -2.65328e-06
0.000105542 -3.16832e-05 -3.16538e-05 -3.6482e-06
0.000105139 -3.15622e-05 -3.15331e-05 -3.6482e-06
7.85515e-05 -2.35843e-05 -2.35574e-05 -4.42199e-06
7.79475e-05 -2.34027e-05 -2.33763e-05 -4.42198e-06
0.000129916 -3.89952e-05 -3.89658e-05 -2.65328e-06
0.000130922 -3.92976e-05 -3.92677e-05 -2.65328e-06
7.82495e-05 -2.34935e-05 -2.34669e-05 -4.42198e-06
0.000103931 -3.11992e-05 -3.11709e-05 -3.6482e-06
0.000130419 -3.91464e-05 -3.91168e-05 -2.65328e-06
0.000104737 -3.14412e-05 -3.14123e-05 -3.6482e-06
0.000104334 -3.13202e-05 -3.12916e-05 -3.6482e-06
7.79475e-05 -2.34027e-05 -2.33763e-05 -4.42198e-06
7.73436e-05 -2.32212e-05 -2.31953e-05 -4.42198e-06
0.000128909 -3.86929e-05 -3.86639e-05 -2.65328e-06
0.000129916 -3.89952e-05 -3.89658e-05 -2.65328e-06
7.76456e-05 -2.3312e-05 -2.32858e-05 -4.42198e-06
0.000103126 -3.09573e-05 -3.09294e-05 -3.6482e-06
0.000129412 -3.88441e-05 -3.88149e-05 -2.65328e-06
0.000103931 -3.11992e-05 -3.11709e-05 -3.6482e-06
0.000103529 -3.10782e-05 -3.10502e-05 -3.6482e-06
7.73436e-05 -2.32212e-05 -2.31953e-05 -4.42198e-06
7.67397e-05 -2.30396e-05 -2.30143e-05 -4.42198e-06
0.000127902 -3.83905e-05 -3.8362e-05 -2.65328e-06
0.000128909 -3.86929e-05 -3.86639e-05 -2.65328e-06
7.70416e-05 -2.31304e-05 -2.31048e-05 -4.42198e-06
0.000102321 -3.07153e-05 -3.0688e-05 -3.64819e-06
0.000128405 -3.85417e-05 -3.8513e-05 -2.65328e-06
0.000103126 -3.09573e-05 -3.09294e-05 -3.6482e-06
0.000102723 -3.08363e-05 -3.08087e-05 -3.6482e-06
7.67397e-05 -2.30396e-05 -2.30143e-05 -4.42198e-06
7.61357e-05 -2.28581e-05 -2.28333e-05 -4.42198e-06
0.000126895 -3.80881e-05 -3.80601e-05 -2.65328e-06
0.000127902 -3.83905e-05 -3.8362e-05 -2.65328e-06
7.64377e-05 -2.29489e-05 -2.29238e-05 -4.42198e-06
0.000101515 -3.04733e-05 -3.04465e-05 -3.64819e-06
0.000127398 -3.82393e-05 -3.82111e-05 -2.65328e-06
0.000102321 -3.07153e-05 -3.0688e-05 -3.64819e-06
0.000101918 -3.05943e-05 -3.05672e-05 -3.64819e-06
7.61357e-05 -2.28581e-05 -2.28333e-05 -4.42198e-06
7.55318e-05 -2.26765e-05 -2.26523e-05 -4.42197e-06
0.000125888 -3.77857e-05 -3.77582e-05 -2.65327e-06
0.000126895 -3.80881e-05 -3.80601e-05 -2.65328e-06
7.58338e-05 -2.27673e-05 -2.27428e-05 -4.42198e-06
0.00010071 -3.02313e-05 -3.02051e-05 -3.64819e-06
0.000126392 -3.79369e-05 -3.79092e-05 -2.65327e-06
0.000101515 -3.04733e-05 -3.04465e-05 -3.64819e-06
0.000101112 -3.03523e-05 -3.03258e-05 -3.64819e-06
7.55318e-05 -2.26765e-05 -2.26523e-05 -4.42197e-06
7.49279e-05 -2.2495e-05 -2.24712e-05 -4.42197e-06
0.000124881 -3.74833e-05 -3.74564e-05 -2.65327e-06
0.000125888 -3.77857e-05 -3.77582e-05 -2.65327e-06
7.52298e-05 -2.25858e-05 -2.25617e-05 -4.42197e-06
9.99044e-05 -2.99894e-05 -2.99636e-05 -3.64819e-06
0.000125385 -3.76345e-05 -3.76073e-05 -2.65327e-06
0.00010071 -3.02313e-05 -3.02051e-05 -3.64819e-06
0.000100307 -3.01103e-05 -3.00843e-05 -3.64819e-06
7.49279e-05 -2.2495e-05 -2.24712e-05 -4.42197e-06
7.43239e-05 -2.23134e-05 -2.22902e-05 -4.42197e-06
0.000123875 -3.71809e-05 -3.71545e-05 -2.65327e-06
0.000124881 -3.74833e-05 -3.74564e-05 -2.65327e-06
7.46259e-05 -2.24042e-05 -2.23807e-05 -4.42197e-06
9.90991e-05 -2.97474e-05 -2.97221e-05 -3.64819e-06
0.000124378 -3.73321e-05 -3.73054e-05 -2.65327e-06
9.99044e-05 -2.99894e-05 -2.99636e-05 -3.64819e-06
9.95017e-05 -2.98684e-05 -2.98429e-05 -3.64819e-06
7.43239e-05 -2.23134e-05 -2.22902e-05 -4.42197e-06
7.372e-05 -2.21319e-05 -2.21092e-05 -4.42197e-06
0.000122868 -3.68785e-05 -3.68526e-05 -2.65327e-06
0.000123875 -3.71809e-05 -3.71545e-05 -2.65327e-06
7.4022e-05 -2.22227e-05 -2.21997e-05 -4.42197e-06
9.82937e-05 -2.95054e-05 -2.94807e-05 -3.64818e-06
0.000123371 -3.70297e-05 -3.70035e-05 -2.65327e-06
9.90991e-05 -2.97474e-05 -2.97221e-05 -3.64819e-06
9.86964e-05 -2.96264e-05 -2.96014e-05 -3.64818e-06
7.372e-05 -2.21319e-05 -2.21092e-05 -4.42197e-06
7.31161e-05 -2.19504e-05 -2.19282e-05 -4.42197e-06
0.000121861 -3.65761e-05 -3.65507e-05 -2.65327e-06
0.000122868 -3.68785e-05 -3.68526e-05 -2.65327e-06
7.3418e-05 -2.20411e-05 -2.20187e-05 -4.42197e-06
9.74883e-05 -2.92634e-05 -2.92392e-05 -3.64818e-06
0.000122364 -3.67273e-05 -3.67016e-05 -2.65327e-06
9.82937e-05 -2.95054e-05 -2.94807e-05 -3.64818e-06
9.7891e-05 -2.93844e-05 -2.936e-05 -3.64818e-06
7.31161e-05 -2.19504e-05 -2.19282e-05 -4.42197e-06
7.25121e-05 -2.17688e-05 -2.17471e-05 -4.42196e-06
0.000120854 -3.62737e-05 -3.62488e-05 -2.65326e-06
0.000121861 -3.65761e-05 -3.65507e-05 -2.65327e-06
7.28141e-05 -2.18596e-05 -2.18376e-05 -4.42196e-06
9.66829e-05 -2.90215e-05 -2.89978e-05 -3.64818e-06
0.000121358 -3.64249e-05 -3.63997e-05 -2.65326e-06
9.74883e-05 -2.92634e-05 -2.92392e-05 -3.64818e-06
9.70856e-05 -2.91425e-05 -2.91185e-05 -3.64818e-06
7.25121e-05 -2.17688e-05 -2.17471e-05 -4.42196e-06
7.19082e-05 -2.15873e-05 -2.15661e-05 -4.42196e-06
0.000119847 -3.59713e-05 -3.59469e-05 -2.65326e-06
0.000120854 -3.62737e-05 -3.62488e-05 -2.65326e-06
7.22101e-05 -2.1678e-05 -2.16566e-05 -4.42196e-06
9.58775e-05 -2.87795e-05 -2.87563e-05 -3.64818e-06
0.000120351 -3.61225e-05 -3.60978e-05 -2.65326e-06
9.66829e-05 -2.90215e-05 -2.89978e-05 -3.64818e-06
9.62802e-05 -2.89005e-05 -2.8877e-05 -3.64818e-06
7.19082e-05 -2.15873e-05 -2.15661e-05 -4.42196e-06
7.13042e-05 -2.14057e-05 -2.13851e-05 -4.42196e-06
0.000118841 -3.56689e-05 -3.5645e-05 -2.65326e-06
0.000119847 -3.59713e-05 -3.59469e-05 -2.65326e-06
7.16062e-05 -2.14965e-05 -2.14756e-05 -4.42196e-06
9.50722e-05 -2.85375e-05 -2.85148e-05 -3.64817e-06
0.000119344 -3.58201e-05 -3.57959e-05 -2.65326e-06
9.58775e-05 -2.87795e-05 -2.87563e-05 -3.64818e-06
9.54749e-05 -2.86585e-05 -2.86356e-05 -3.64818e-06
7.13042e-05 -2.14057e-05 -2.13851e-05 -4.42196e-06
7.07003e-05 -2.12242e-05 -2.1204e-05 -4.42196e-06
0.000117834 -3.53666e-05 -3.53431e-05 -2.65326e-06
0.000118841 -3.56689e-05 -3.5645e-05 -2.65326e-06
7.10022e-05 -2.13149e-05 -2.12946e-05 -4.42196e-06
9.42668e-05 -2.82956e-05 -2.82734e-05 -3.64817e-06
0.000118337 -3.55177e-05 -3.5494e-05 -2.65326e-06
9.50722e-05 -2.85375e-05 -2.85148e-05 -3.64817e-06
9.46695e-05 -2.84165e-05 -2.83941e-05 -3.64817e-06
7.07003e-05 -2.12242e-05 -2.1204e-05 -4.42196e-06
7.00963e-05 -2.10426e-05 -2.1023e-05 -4.42196e-06
0.000116827 -3.50642e-05 -3.50412e-05 -2.65326e-06
0.000117834 -3.53666e-05 -3.53431e-05 -2.65326e-06
7.03983e-05 -2.11334e-05 -2.11135e-05 -4.42196e-06
9.34614e-05 -2.80536e-05 -2.80319e-05 -3.64817e-06
0.00011733 -3.52154e-05 -3.51921e-05 -2.65326e-06
9.42668e-05 -2.82956e-05 -2.82734e-05 -3.64817e-06
9.38641e-05 -2.81746e-05 -2.81526e-05 -3.64817e-06
7.00963e-05 -2.10426e-05 -2.1023e-05 -4.42196e-06
6.94924e-05 -2.08611e-05 -2.0842e-05 -4.42195e-06
0.00011582 -3.47618e-05 -3.47393e-05 -2.65325e-06
0.000116827 -3.50642e-05 -3.50412e-05 -2.65326e-06
6.97943e-05 -2.09519e-05 -2.09325e-05 -4.42195e-06
9.2656e-05 -2.78116e-05 -2.77905e-05 -3.64817e-06
0.000116323 -3.4913e-05 -3.48902e-05 -2.65325e-06
9.34614e-05 -2.80536e-05 -2.80319e-05 -3.64817e-06
9.30587e-05 -2.79326e-05 -2.79112e-05 -3.64817e-06
6.94924e-05 -2.08611e-05 -2.0842e-05 -4.42195e-06
6.88884e-05 -2.06796e-05 -2.06609e-05 -4.42195e-06
0.000114813 -3.44594e-05 -3.44373e-05 -2.65325e-06
0.00011582 -3.47618e-05 -3.47393e-05 -2.65325e-06
6.91904e-05 -2.07703e-05 -2.07515e-05 -4.42195e-06
9.18506e-05 -2.75697e-05 -2.7549e-05 -3.64817e-06
0.000115317 -3.46106e-05 -3.45883e-05 -2.65325e-06
9.2656e-05 -2.78116e-05 -2.77905e-05 -3.64817e-06
9.22533e-05 -2.76906e-05 -2.76697e-05 -3.64817e-06
6.88884e-05 -2.06796e-05 -2.06609e-05 -4.42195e-06
6.82845e-05 -2.0498e-05 -2.04799e-05 -4.42195e-06
0.000113806 -3.4157e-05 -3.41354e-05 -2.65325e-06
0.000114813 -3.44594e-05 -3.44373e-05 -2.65325e-06
6.85864e-05 -2.05888e-05 -2.05704e-05 -4.42195e-06
9.10452e-05 -2.73277e-05 -2.73075e-05 -3.64816e-06
0.00011431 -3.43082e-05 -3.42864e-05 -2.65325e-06
9.18506e-05 -2.75697e-05 -2.7549e-05 -3.64817e-06
9.14479e-05 -2.74487e-05 -2.74283e-05 -3.64816e-06
6.82845e-05 -2.0498e-05 -2.04799e-05 -4.42195e-06
6.76805e-05 -2.03165e-05 -2.02989e-05 -4.42195e-06
0.0001128 -3.38546e-05 -3.38335e-05 -2.65325e-06
0.000113806 -3.4157e-05 -3.41354e-05 -2.65325e-06
6.79825e-05 -2.04073e-05 -2.03894e-05 -4.42195e-06
9.02398e-05 -2.70857e-05 -2.70661e-05 -3.64816e-06
0.000113303 -3.40058e-05 -3.39845e-05 -2.65325e-06
9.10452e-05 -2.73277e-05 -2.73075e-05 -3.64816e-06
9.06425e-05 -2.72067e-05 -2.71868e-05 -3.64816e-06
6.76805e-05 -2.03165e-05 -2.02989e-05 -4.42195e-06
6.70766e-05 -2.01349e-05 -2.01178e-05 -4.42194e-06
0.000111793 -3.35522e-05 -3.35316e-05 -2.65325e-06
0.0001128 -3.38546e-05 -3.38335e-05 -2.65325e-06
6.73785e-05 -2.02257e-05 -2.02084e-05 -4.42195e-06
8.94345e-05 -2.68438e-05 -2.68246e-05 -3.64816e-06
0.000112296 -3.37034e-05 -3.36826e-05 -2.65325e-06
9.02398e-05 -2.70857e-05 -2.70661e-05 -3.64816e-06
8.98371e-05 -2.69647e-05 -2.69453e-05 -3.64816e-06
6.70766e-05 -2.01349e-05 -2.01178e-05 -4.42194e-06
6.64726e-05 -1.99534e-05 -1.99368e-05 -4.42194e-06
0.000110786 -3.32498e-05 -3.32297e-05 -2.65324e-06
0.000111793 -3.35522e-05 -3.35316e-05 -2.65325e-06
6.67746e-05 -2.00442e-05 -2.00273e-05 -4.42194e-06
8.86291e-05 -2.66018e-05 -2.65831e-05 -3.64816e-06
0.000111289 -3.3401e-05 -3.33807e-05 -2.65324e-06
8.94345e-05 -2.68438e-05 -2.68246e-05 -3.64816e-06
8.90318e-05 -2.67228e-05 -2.67038e-05 -3.64816e-06
6.64726e-05 -1.99534e-05 -1.99368e-05 -4.42194e-06
6.58686e-05 -1.97719e-05 -1.97558e-05 -4.42194e-06
0.000109779 -3.29475e-05 -3.29278e-05 -2.65324e-06
0.000110786 -3.32498e-05 -3.32297e-05 -2.65324e-06
6.61706e-05 -1.98626e-05 -1.98463e-05 -4.42194e-06
8.78237e-05 -2.63598e-05 -2.63416e-05 -3.64815e-06
0.000110282 -3.30986e-05 -3.30788e-05 -2.65324e-06
8.86291e-05 -2.66018e-05 -2.65831e-05 -3.64816e-06
8.82264e-05 -2.64808e-05 -2.64624e-05 -3.64816e-06
6.58686e-05 -1.97719e-05 -1.97558e-05 -4.42194e-06
6.52647e-05 -1.95903e-05 -1.95747e-05 -4.42194e-06
0.000108772 -3.26451e-05 -3.26259e-05 -2.65324e-06
0.000109779 -3.29475e-05 -3.29278e-05 -2.65324e-06
6.55667e-05 -1.96811e-05 -1.96652e-05 -4.42194e-06
8.70183e-05 -2.61179e-05 -2.61002e-05 -3.64815e-06
0.000109276 -3.27963e-05 -3.27769e-05 -2.65324e-06
8.78237e-05 -2.63598e-05 -2.63416e-05 -3.64815e-06
8.7421e-05 -2.62389e-05 -2.62209e-05 -3.64815e-06
6.52647e-05 -1.95903e-05 -1.95747e-05 -4.42194e-06
6.46607e-05 -1.94088e-05 -1.93937e-05 -4.42194e-06
0.000107765 -3.23427e-05 -3.2324e-05 -2.65324e-06
0.000108772 -3.26451e-05 -3.26259e-05 -2.65324e-06
6.49627e-05 -1.94996e-05 -1.94842e-05 -4.42194e-06
8.62129e-05 -2.58759e-05 -2.58587e-05 -3.64815e-06
0.000108269 -3.24939e-05 -3.2475e-05 -2.65324e-06
8.70183e-05 -2.61179e-05 -2.61002e-05 -3.64815e-06
8.66156e-05 -2.59969e-05 -2.59794e-05 -3.64815e-06
6.46607e-05 -1.94088e-05 -1.93937e-05 -4.42194e-06
6.40567e-05 -1.92273e-05 -1.92126e-05 -4.42193e-06
0.000106759 -3.20403e-05 -3.20221e-05 -2.65324e-06
0.000107765 -3.23427e-05 -3.2324e-05 -2.65324e-06
6.43587e-05 -1.9318e-05 -1.93031e-05 -4.42193e-06
8.54075e-05 -2.56339e-05 -2.56172e-05 -3.64815e-06
0.000107262 -3.21915e-05 -3.21731e-05 -2.65324e-06
8.62129e-05 -2.58759e-05 -2.58587e-05 -3.64815e-06
8.58102e-05 -2.57549e-05 -2.5738e-05 -3.64815e-06
6.40567e-05 -1.92273e-05 -1.92126e-05 -4.42193e-06
6.34528e-05 -1.90458e-05 -1.90316e-05 -4.42193e-06
0.000105752 -3.17379e-05 -3.17202e-05 -2.65323e-06
0.000106759 -3.20403e-05 -3.20221e-05 -2.65324e-06
6.37548e-05 -1.91365e-05 -1.91221e-05 -4.42193e-06
8.46021e-05 -2.5392e-05 -2.53757e-05 -3.64814e-06
0.000106255 -3.18891e-05 -3.18711e-05 -2.65323e-06
8.54075e-05 -2.56339e-05 -2.56172e-05 -3.64815e-06
8.50048e-05 -2.5513e-05 -2.54965e-05 -3.64815e-06
6.34528e-05 -1.90458e-05 -1.90316e-05 -4.42193e-06
6.28488e-05 -1.88642e-05 -1.88505e-05 -4.42193e-06
0.000104745 -3.14355e-05 -3.14183e-05 -2.65323e-06
0.000105752 -3.17379e-05 -3.17202e-05 -2.65323e-06
6.31508e-05 -1.8955e-05 -1.89411e-05 -4.42193e-06
8.37967e-05 -2.515e-05 -2.51343e-05 -3.64814e-06
0.000105248 -3.15867e-05 -3.15692e-05 -2.65323e-06
8.46021e-05 -2.5392e-05 -2.53757e-05 -3.64814e-06
8.41994e-05 -2.5271e-05 -2.5255e-05 -3.64814e-06
6.28488e-05 -1.88642e-05 -1.88505e-05 -4.42193e-06
6.22448e-05 -1.86827e-05 -1.86695e-05 -4.42193e-06
0.000103738 -3.11331e-05 -3.11164e-05 -2.65323e-06
0.000104745 -3.14355e-05 -3.14183e-05 -2.65323e-06
6.25468e-05 -1.87735e-05 -1.876e-05 -4.42193e-06
8.29913e-05 -2.49081e-05 -2.48928e-05 -3.64814e-06
0.000104241 -3.12843e-05 -3.12673e-05 -2.65323e-06
8.37967e-05 -2.515e-05 -2.51343e-05 -3.64814e-06
8.3394e-05 -2.50291e-05 -2.50135e-05 -3.64814e-06
6.22448e-05 -1.86827e-05 -1.86695e-05 -4.42193e-06
6.16409e-05 -1.85012e-05 -1.84884e-05 -4.42193e-06
0.000102731 -3.08308e-05 -3.08144e-05 -2.65323e-06
0.000103738 -3.11331e-05 -3.11164e-05 -2.65323e-06
6.19428e-05 -1.85919e-05 -1.8579e-05 -4.42193e-06
8.21859e-05 -2.46661e-05 -2.46513e-05 -3.64814e-06
0.000103235 -3.0982e-05 -3.09654e-05 -2.65323e-06
8.29913e-05 -2.49081e-05 -2.48928e-05 -3.64814e-06
8.25886e-05 -2.47871e-05 -2.47721e-05 -3.64814e-06
6.16409e-05 -1.85012e-05 -1.84884e-05 -4.42193e-06
6.10369e-05 -1.83196e-05 -1.83074e-05 -4.42192e-06
0.000101724 -3.05284e-05 -3.05125e-05 -2.65323e-06
0.000102731 -3.08308e-05 -3.08144e-05 -2.65323e-06
6.13389e-05 -1.84104e-05 -1.83979e-05 -4.42192e-06
8.13804e-05 -2.44242e-05 -2.44098e-05 -3.64814e-06
0.000102228 -3.06796e-05 -3.06635e-05 -2.65323e-06
8.21859e-05 -2.46661e-05 -2.46513e-05 -3.64814e-06
8.17831e-05 -2.45451e-05 -2.45306e-05 -3.64814e-06
6.10369e-05 -1.83196e-05 -1.83074e-05 -4.42192e-06
6.04329e-05 -1.81381e-05 -1.81263e-05 -4.42192e-06
0.000100717 -3.0226e-05 -3.02106e-05 -2.65322e-06
0.000101724 -3.05284e-05 -3.05125e-05 -2.65323e-06
6.07349e-05 -1.82289e-05 -1.82169e-05 -4.42192e-06
8.0575e-05 -2.41822e-05 -2.41684e-05 -3.64813e-06
0.000101221 -3.03772e-05 -3.03616e-05 -2.65322e-06
8.13804e-05 -2.44242e-05 -2.44098e-05 -3.64814e-06
8.09777e-05 -2.43032e-05 -2.42891e-05 -3.64813e-06
6.04329e-05 -1.81381e-05 -1.81263e-05 -4.42192e-06
5.98289e-05 -1.79566e-05 -1.79453e-05 -4.42192e-06
9.97106e-05 -2.99236e-05 -2.99087e-05 -2.65322e-06
0.000100717 -3.0226e-05 -3.02106e-05 -2.65322e-06
6.01309e-05 -1.80474e-05 -1.80358e-05 -4.42192e-06
7.97696e-05 -2.39402e-05 -2.39269e-05 -3.64813e-06
0.000100214 -3.00748e-05 -3.00597e-05 -2.65322e-06
8.0575e-05 -2.41822e-05 -2.41684e-05 -3.64813e-06
8.01723e-05 -2.40612e-05 -2.40476e-05 -3.64813e-06
5.98289e-05 -1.79566e-05 -1.79453e-05 -4.42192e-06
5.92249e-05 -1.77751e-05 -1.77642e-05 -4.42192e-06
9.87038e-05 -2.96212e-05 -2.96068e-05 -2.65322e-06
9.97106e-05 -2.99236e-05 -2.99087e-05 -2.65322e-06
5.95269e-05 -1.78658e-05 -1.78548e-05 -4.42192e-06
7.89642e-05 -2.36983e-05 -2.36854e-05 -3.64813e-06
9.92072e-05 -2.97724e-05 -2.97577e-05 -2.65322e-06
7.97696e-05 -2.39402e-05 -2.39269e-05 -3.64813e-06
7.93669e-05 -2.38193e-05 -2.38061e-05 -3.64813e-06
5.92249e-05 -1.77751e-05 -1.77642e-05 -4.42192e-06
5.8621e-05 -1.75936e-05 -1.75832e-05 -4.42191e-06
9.76969e-05 -2.93189e-05 -2.93049e-05 -2.65322e-06
9.87038e-05 -2.96212e-05 -2.96068e-05 -2.65322e-06
5.89229e-05 -1.76843e-05 -1.76737e-05 -4.42192e-06
7.81588e-05 -2.34563e-05 -2.34439e-05 -3.64813e-06
9.82003e-05 -2.94701e-05 -2.94558e-05 -2.65322e-06
7.89642e-05 -2.36983e-05 -2.36854e-05 -3.64813e-06
7.85615e-05 -2.35773e-05 -2.35647e-05 -3.64813e-06
5.8621e-05 -1.75936e-05 -1.75832e-05 -4.42191e-06
5.8017e-05 -1.7412e-05 -1.74021e-05 -4.42191e-06
9.669e-05 -2.90165e-05 -2.9003e-05 -2.65322e-06
9.76969e-05 -2.93189e-05 -2.93049e-05 -2.65322e-06
5.8319e-05 -1.75028e-05 -1.74926e-05 -4.42191e-06
7.73534e-05 -2.32144e-05 -2.32024e-05 -3.64812e-06
9.71935e-05 -2.91677e-05 -2.91539e-05 -2.65322e-06
7.81588e-05 -2.34563e-05 -2.34439e-05 -3.64813e-06
7.77561e-05 -2.33354e-05 -2.33232e-05 -3.64813e-06
5.8017e-05 -1.7412e-05 -1.74021e-05 -4.42191e-06
5.7413e-05 -1.72305e-05 -1.72211e-05 -4.42191e-06
9.56832e-05 -2.87141e-05 -2.8701e-05 -2.65321e-06
9.669e-05 -2.90165e-05 -2.9003e-05 -2.65322e-06
5.7715e-05 -1.73213e-05 -1.73116e-05 -4.42191e-06
7.6548e-05 -2.29724e-05 -2.29609e-05 -3.64812e-06
9.61866e-05 -2.88653e-05 -2.8852e-05 -2.65321e-06
7.73534e-05 -2.32144e-05 -2.32024e-05 -3.64812e-06
7.69507e-05 -2.30934e-05 -2.30817e-05 -3.64812e-06
5.7413e-05 -1.72305e-05 -1.72211e-05 -4.42191e-06
5.6809e-05 -1.7049e-05 -1.704e-05 -4.42191e-06
9.46763e-05 -2.84117e-05 -2.83991e-05 -2.65321e-06
9.56832e-05 -2.87141e-05 -2.8701e-05 -2.65321e-06
5.7111e-05 -1.71398e-05 -1.71305e-05 -4.42191e-06
7.57425e-05 -2.27305e-05 -2.27194e-05 -3.64812e-06
9.51798e-05 -2.85629e-05 -2.85501e-05 -2.65321e-06
7.6548e-05 -2.29724e-05 -2.29609e-05 -3.64812e-06
7.61452e-05 -2.28515e-05 -2.28402e-05 -3.64812e-06
5.6809e-05 -1.7049e-05 -1.704e-05 -4.42191e-06
5.6205e-05 -1.68675e-05 -1.68589e-05 -4.42191e-06
9.36695e-05 -2.81094e-05 -2.80972e-05 -2.65321e-06
9.46763e-05 -2.84117e-05 -2.83991e-05 -2.65321e-06
5.6507e-05 -1.69582e-05 -1.69495e-05 -4.42191e-06
7.49371e-05 -2.24885e-05 -2.2478e-05 -3.64812e-06
9.41729e-05 -2.82606e-05 -2.82482e-05 -2.65321e-06
7.57425e-05 -2.27305e-05 -2.27194e-05 -3.64812e-06
7.53398e-05 -2.26095e-05 -2.25987e-05 -3.64812e-06
5.6205e-05 -1.68675e-05 -1.68589e-05 -4.42191e-06
5.5601e-05 -1.6686e-05 -1.66779e-05 -4.4219e-06
9.26626e-05 -2.7807e-05 -2.77953e-05 -2.65321e-06
9.36695e-05 -2.81094e-05 -2.80972e-05 -2.65321e-06
5.5903e-05 -1.67767e-05 -1.67684e-05 -4.4219e-06
7.41317e-05 -2.22466e-05 -2.22365e-05 -3.64812e-06
9.3166e-05 -2.79582e-05 -2.79462e-05 -2.65321e-06
7.49371e-05 -2.24885e-05 -2.2478e-05 -3.64812e-06
7.45344e-05 -2.23676e-05 -2.23572e-05 -3.64812e-06
5.5601e-05 -1.6686e-05 -1.66779e-05 -4.4219e-06
5.4997e-05 -1.65045e-05 -1.64968e-05 -4.4219e-06
9.16558e-05 -2.75046e-05 -2.74933e-05 -2.65321e-06
9.26626e-05 -2.7807e-05 -2.77953e-05 -2.65321e-06
5.5299e-05 -1.65952e-05 -1.65873e-05 -4.4219e-06
7.33263e-05 -2.20047e-05 -2.1995e-05 -3.64811e-06
9.21592e-05 -2.76558e-05 -2.76443e-05 -2.65321e-06
7.41317e-05 -2.22466e-05 -2.22365e-05 -3.64812e-06
7.3729e-05 -2.21256e-05 -2.21157e-05 -3.64811e-06
5.4997e-05 -1.65045e-05 -1.64968e-05 -4.4219e-06
5.4393e-05 -1.63229e-05 -1.63157e-05 -4.4219e-06
9.06489e-05 -2.72022e-05 -2.71914e-05 -2.6532e-06
9.16558e-05 -2.75046e-05 -2.74933e-05 -2.65321e-06
5.4695e-05 -1.64137e-05 -1.64063e-05 -4.4219e-06
7.25208e-05 -2.17627e-05 -2.17535e-05 -3.64811e-06
9.11523e-05 -2.73534e-05 -2.73424e-05 -2.6532e-06
7.33263e-05 -2.20047e-05 -2.1995e-05 -3.64811e-06
7.29236e-05 -2.18837e-05 -2.18742e-05 -3.64811e-06
5.4393e-05 -1.63229e-05 -1.63157e-05 -4.4219e-06
5.3789e-05 -1.61414e-05 -1.61347e-05 -4.4219e-06
8.9642e-05 -2.68999e-05 -2.68895e-05 -2.6532e-06
9.06489e-05 -2.72022e-05 -2.71914e-05 -2.6532e-06
5.4091e-05 -1.62322e-05 -1.62252e-05 -4.4219e-06
7.17154e-05 -2.15208e-05 -2.1512e-05 -3.64811e-06
9.01455e-05 -2.70511e-05 -2.70405e-05 -2.6532e-06
7.25208e-05 -2.17627e-05 -2.17535e-05 -3.64811e-06
7.21181e-05 -2.16417e-05 -2.16327e-05 -3.64811e-06
5.3789e-05 -1.61414e-05 -1.61347e-05 -4.4219e-06
5.3185e-05 -1.59599e-05 -1.59536e-05 -4.4219e-06
8.86352e-05 -2.65975e-05 -2.65876e-05 -2.6532e-06
8.9642e-05 -2.68999e-05 -2.68895e-05 -2.6532e-06
5.3487e-05 -1.60507e-05 -1.60441e-05 -4.4219e-06
7.091e-05 -2.12788e-05 -2.12705e-05 -3.64811e-06
8.91386e-05 -2.67487e-05 -2.67385e-05 -2.6532e-06
7.17154e-05 -2.15208e-05 -2.1512e-05 -3.64811e-06
7.13127e-05 -2.13998e-05 -2.13912e-05 -3.64811e-06
5.3185e-05 -1.59599e-05 -1.59536e-05 -4.4219e-06
5.2581e-05 -1.57784e-05 -1.57725e-05 -4.42189e-06
8.76283e-05 -2.62951e-05 -2.62856e-05 -2.6532e-06
8.86352e-05 -2.65975e-05 -2.65876e-05 -2.6532e-06
5.2883e-05 -1.58692e-05 -1.58631e-05 -4.42189e-06
7.01045e-05 -2.10369e-05 -2.1029e-05 -3.6481e-06
8.81317e-05 -2.64463e-05 -2.64366e-05 -2.6532e-06
7.091e-05 -2.12788e-05 -2.12705e-05 -3.64811e-06
7.05073e-05 -2.11578e-05 -2.11497e-05 -3.64811e-06
5.2581e-05 -1.57784e-05 -1.57725e-05 -4.42189e-06
5.1977e-05 -1.55969e-05 -1.55915e-05 -4.42189e-06
8.66214e-05 -2.59928e-05 -2.59837e-05 -2.6532e-06
8.76283e-05 -2.62951e-05 -2.62856e-05 -2.6532e-06
5.2279e-05 -1.56877e-05 -1.5682e-05 -4.42189e-06
6.92991e-05 -2.07949e-05 -2.07875e-05 -3.6481e-06
8.71249e-05 -2.61439e-05 -2.61347e-05 -2.6532e-06
7.01045e-05 -2.10369e-05 -2.1029e-05 -3.6481e-06
6.97018e-05 -2.09159e-05 -2.09082e-05 -3.6481e-06
5.1977e-05 -1.55969e-05 -1.55915e-05 -4.42189e-06
5.1373e-05 -1.54154e-05 -1.54104e-05 -4.42189e-06
8.56146e-05 -2.56904e-05 -2.56818e-05 -2.65319e-06
8.66214e-05 -2.59928e-05 -2.59837e-05 -2.6532e-06
5.1675e-05 -1.55062e-05 -1.55009e-05 -4.42189e-06
6.84937e-05 -2.0553e-05 -2.0546e-05 -3.6481e-06
8.6118e-05 -2.58416e-05 -2.58327e-05 -2.65319e-06
6.92991e-05 -2.07949e-05 -2.07875e-05 -3.6481e-06
6.88964e-05 -2.0674e-05 -2.06668e-05 -3.6481e-06
5.1373e-05 -1.54154e-05 -1.54104e-05 -4.42189e-06
5.0769e-05 -1.52339e-05 -1.52293e-05 -4.42189e-06
8.46077e-05 -2.5388e-05 -2.53798e-05 -2.65319e-06
8.56146e-05 -2.56904e-05 -2.56818e-05 -2.65319e-06
5.1071e-05 -1.53246e-05 -1.53199e-05 -4.42189e-06
6.76882e-05 -2.03111e-05 -2.03045e-05 -3.6481e-06
8.51111e-05 -2.55392e-05 -2.55308e-05 -2.65319e-06
6.84937e-05 -2.0553e-05 -2.0546e-05 -3.6481e-06
6.80909e-05 -2.0432e-05 -2.04253e-05 -3.6481e-06
5.0769e-05 -1.52339e-05 -1.52293e-05 -4.42189e-06
5.0165e-05 -1.50524e-05 -1.50482e-05 -4.42188e-06
8.36008e-05 -2.50857e-05 -2.50779e-05 -2.65319e-06
8.46077e-05 -2.5388e-05 -2.53798e-05 -2.65319e-06
5.0467e-05 -1.51431e-05 -1.51388e-05 -4.42189e-06
6.68828e-05 -2.00691e-05 -2.0063e-05 -3.6481e-06
8.41042e-05 -2.52368e-05 -2.52289e-05 -2.65319e-06
6.76882e-05 -2.03111e-05 -2.03045e-05 -3.6481e-06
6.72855e-05 -2.01901e-05 -2.01837e-05 -3.6481e-06
5.0165e-05 -1.50524e-05 -1.50482e-05 -4.42188e-06
4.9561e-05 -1.48709e-05 -1.48672e-05 -4.42188e-06
8.25939e-05 -2.47833e-05 -2.4776e-05 -2.65319e-06
8.36008e-05 -2.50857e-05 -2.50779e-05 -2.65319e-06
4.9863e-05 -1.49616e-05 -1.49577e-05 -4.42188e-06
6.60773e-05 -1.98272e-05 -1.98215e-05 -3.64809e-06
8.30974e-05 -2.49345e-05 -2.4927e-05 -2.65319e-06
6.68828e-05 -2.00691e-05 -2.0063e-05 -3.6481e-06
6.64801e-05 -1.99482e-05 -1.99422e-05 -3.64809e-06
4.9561e-05 -1.48709e-05 -1.48672e-05 -4.42188e-06
4.89569e-05 -1.46894e-05 -1.46861e-05 -4.42188e-06
8.1587e-05 -2.44809e-05 -2.4474e-05 -2.65319e-06
8.25939e-05 -2.47833e-05 -2.4776e-05 -2.65319e-06
4.92589e-05 -1.47801e-05 -1.47766e-05 -4.42188e-06
6.52719e-05 -1.95853e-05 -1.958e-05 -3.64809e-06
8.20905e-05 -2.46321e-05 -2.4625e-05 -2.65319e-06
6.60773e-05 -1.98272e-05 -1.98215e-05 -3.64809e-06
6.56746e-05 -1.97062e-05 -1.97007e-05 -3.64809e-06
4.89569e-05 -1.46894e-05 -1.46861e-05 -4.42188e-06
4.83529e-05 -1.45079e-05 -1.4505e-05 -4.42188e-06
8.05802e-05 -2.41786e-05 -2.41721e-05 -2.65318e-06
8.1587e-05 -2.44809e-05 -2.4474e-05 -2.65319e-06
4.86549e-05 -1.45986e-05 -1.45955e-05 -4.42188e-06
6.44664e-05 -1.93433e-05 -1.93385e-05 -3.64809e-06
8.10836e-05 -2.43298e-05 -2.43231e-05 -2.65318e-06
6.52719e-05 -1.95853e-05 -1.958e-05 -3.64809e-06
6.48692e-05 -1.94643e-05 -1.94592e-05 -3.64809e-06
4.83529e-05 -1.45079e-05 -1.4505e-05 -4.42188e-06
4.77489e-05 -1.43264e-05 -1.43239e-05 -4.42188e-06
7.95733e-05 -2.38762e-05 -2.38702e-05 -2.65318e-06
8.05802e-05 -2.41786e-05 -2.41721e-05 -2.65318e-06
4.80509e-05 -1.44171e-05 -1.44145e-05 -4.42188e-06
6.3661e-05 -1.91014e-05 -1.9097e-05 -3.64809e-06
8.00767e-05 -2.40274e-05 -2.40211e-05 -2.65318e-06
6.44664e-05 -1.93433e-05 -1.93385e-05 -3.64809e-06
6.40637e-05 -1.92224e-05 -1.92177e-05 -3.64809e-06
4.77489e-05 -1.43264e-05 -1.43239e-05 -4.42188e-06
4.71449e-05 -1.41449e-05 -1.41428e-05 -4.42187e-06
7.85664e-05 -2.35738e-05 -2.35682e-05 -2.65318e-06
7.95733e-05 -2.38762e-05 -2.38702e-05 -2.65318e-06
4.74469e-05 -1.42356e-05 -1.42334e-05 -4.42187e-06
6.28555e-05 -1.88595e-05 -1.88555e-05 -3.64808e-06
7.90698e-05 -2.3725e-05 -2.37192e-05 -2.65318e-06
6.3661e-05 -1.91014e-05 -1.9097e-05 -3.64809e-06
6.32583e-05 -1.89804e-05 -1.89762e-05 -3.64809e-06
4.71449e-05 -1.41449e-05 -1.41428e-05 -4.42187e-06
4.65408e-05 -1.39634e-05 -1.39618e-05 -4.42187e-06
7.75595e-05 -2.32715e-05 -2.32663e-05 -2.65318e-06
7.85664e-05 -2.35738e-05 -2.35682e-05 -2.65318e-06
4.68429e-05 -1.40542e-05 -1.40523e-05 -4.42187e-06
6.20501e-05 -1.86175e-05 -1.8614e-05 -3.64808e-06
7.8063e-05 -2.34227e-05 -2.34173e-05 -2.65318e-06
6.28555e-05 -1.88595e-05 -1.88555e-05 -3.64808e-06
6.24528e-05 -1.87385e-05 -1.87347e-05 -3.64808e-06
4.65408e-05 -1.39634e-05 -1.39618e-05 -4.42187e-06
4.59368e-05 -1.37819e-05 -1.37807e-05 -4.42187e-06
7.65526e-05 -2.29691e-05 -2.29644e-05 -2.65318e-06
7.75595e-05 -2.32715e-05 -2.32663e-05 -2.65318e-06
4.62388e-05 -1.38727e-05 -1.38712e-05 -4.42187e-06
6.12446e-05 -1.83756e-05 -1.83724e-05 -3.64808e-06
7.70561e-05 -2.31203e-05 -2.31153e-05 -2.65318e-06
6.20501e-05 -1.86175e-05 -1.8614e-05 -3.64808e-06
6.16474e-05 -1.84966e-05 -1.84932e-05 -3.64808e-06
4.59368e-05 -1.37819e-05 -1.37807e-05 -4.42187e-06
4.53328e-05 -1.36004e-05 -1.35996e-05 -4.42187e-06
7.55457e-05 -2.26668e-05 -2.26624e-05 -2.65317e-06
7.65526e-05 -2.29691e-05 -2.29644e-05 -2.65318e-06
4.56348e-05 -1.36912e-05 -1.36901e-05 -4.42187e-06
6.04392e-05 -1.81337e-05 -1.81309e-05 -3.64808e-06
7.60492e-05 -2.28179e-05 -2.28134e-05 -2.65317e-06
6.12446e-05 -1.83756e-05 -1.83724e-05 -3.64808e-06
6.08419e-05 -1.82546e-05 -1.82517e-05 -3.64808e-06
4.53328e-05 -1.36004e-05 -1.35996e-05 -4.42187e-06
4.47287e-05 -1.34189e-05 -1.34185e-05 -4.42187e-06
7.45388e-05 -2.23644e-05 -2.23605e-05 -2.65317e-06
7.55457e-05 -2.26668e-05 -2.26624e-05 -2.65317e-06
4.50308e-05 -1.35097e-05 -1.3509e-05 -4.42187e-06
5.96337e-05 -1.78918e-05 -1.78894e-05 -3.64808e-06
7.50423e-05 -2.25156e-05 -2.25114e-05 -2.65317e-06
6.04392e-05 -1.81337e-05 -1.81309e-05 -3.64808e-06
6.00364e-05 -1.80127e-05 -1.80102e-05 -3.64808e-06
4.47287e-05 -1.34189e-05 -1.34185e-05 -4.42187e-06
4.41247e-05 -1.32374e-05 -1.32374e-05 -4.42186e-06
7.3532e-05 -2.20621e-05 -2.20585e-05 -2.65317e-06
7.45388e-05 -2.23644e-05 -2.23605e-05 -2.65317e-06
4.44267e-05 -1.33282e-05 -1.33279e-05 -4.42186e-06
5.88283e-05 -1.76498e-05 -1.76479e-05 -3.64807e-06
7.40354e-05 -2.22132e-05 -2.22095e-05 -2.65317e-06
5.96337e-05 -1.78918e-05 -1.78894e-05 -3.64808e-06
5.9231e-05 -1.77708e-05 -1.77687e-05 -3.64807e-06
4.41247e-05 -1.32374e-05 -1.32374e-05 -4.42186e-06
4.35207e-05 -1.3056e-05 -1.30563e-05 -4.42186e-06
7.25251e-05 -2.17597e-05 -2.17566e-05 -2.65317e-06
7.3532e-05 -2.20621e-05 -2.20585e-05 -2.65317e-06
4.38227e-05 -1.31467e-05 -1.31469e-05 -4.42186e-06
5.80228e-05 -1.74079e-05 -1.74064e-05 -3.64807e-06
7.30285e-05 -2.19109e-05 -2.19076e-05 -2.65317e-06
5.88283e-05 -1.76498e-05 -1.76479e-05 -3.64807e-06
5.84255e-05 -1.75289e-05 -1.75271e-05 -3.64807e-06
4.35207e-05 -1.3056e-05 -1.30563e-05 -4.42186e-06
4.29166e-05 -1.28745e-05 -1.28752e-05 -4.42186e-06
7.15182e-05 -2.14573e-05 -2.14546e-05 -2.65317e-06
7.25251e-05 -2.17597e-05 -2.17566e-05 -2.65317e-06
4.32187e-05 -1.29652e-05 -1.29658e-05 -4.42186e-06
5.72173e-05 -1.7166e-05 -1.71649e-05 -3.64807e-06
7.20216e-05 -2.16085e-05 -2.16056e-05 -2.65317e-06
5.80228e-05 -1.74079e-05 -1.74064e-05 -3.64807e-06
5.76201e-05 -1.72869e-05 -1.72856e-05 -3.64807e-06
4.29166e-05 -1.28745e-05 -1.28752e-05 -4.42186e-06
4.23126e-05 -1.2693e-05 -1.26941e-05 -4.42186e-06
7.05113e-05 -2.1155e-05 -2.11527e-05 -2.65316e-06
7.15182e-05 -2.14573e-05 -2.14546e-05 -2.65317e-06
4.26146e-05 -1.27837e-05 -1.27847e-05 -4.42186e-06
5.64119e-05 -1.69241e-05 -1.69233e-05 -3.64807e-06
7.10147e-05 -2.13062e-05 -2.13037e-05 -2.65317e-06
5.72173e-05 -1.7166e-05 -1.71649e-05 -3.64807e-06
5.68146e-05 -1.7045e-05 -1.70441e-05 -3.64807e-06
4.23126e-05 -1.2693e-05 -1.26941e-05 -4.42186e-06
4.17085e-05 -1.25115e-05 -1.2513e-05 -4.42185e-06
6.95044e-05 -2.08526e-05 -2.08507e-05 -2.65316e-06
7.05113e-05 -2.1155e-05 -2.11527e-05 -2.65316e-06
4.20106e-05 -1.26023e-05 -1.26036e-05 -4.42186e-06
5.56064e-05 -1.66821e-05 -1.66818e-05 -3.64806e-06
7.00078e-05 -2.10038e-05 -2.10017e-05 -2.65316e-06
5.64119e-05 -1.69241e-05 -1.69233e-05 -3.64807e-06
5.60091e-05 -1.68031e-05 -1.68026e-05 -3.64807e-06
4.17085e-05 -1.25115e-05 -1.2513e-05 -4.42185e-06
4.11045e-05 -1.233e-05 -1.23319e-05 -4.42185e-06
6.84975e-05 -2.05503e-05 -2.05488e-05 -2.65316e-06
6.95044e-05 -2.08526e-05 -2.08507e-05 -2.65316e-06
4.14065e-05 -1.24208e-05 -1.24225e-05 -4.42185e-06
5.48009e-05 -1.64402e-05 -1.64403e-05 -3.64806e-06
6.90009e-05 -2.07015e-05 -2.06998e-05 -2.65316e-06
5.56064e-05 -1.66821e-05 -1.66818e-05 -3.64806e-06
5.52036e-05 -1.65612e-05 -1.65611e-05 -3.64806e-06
4.11045e-05 -1.233e-05 -1.23319e-05 -4.42185e-06
4.05004e-05 -1.21486e-05 -1.21508e-05 -4.42185e-06
6.74906e-05 -2.02479e-05 -2.02468e-05 -2.65316e-06
6.84975e-05 -2.05503e-05 -2.05488e-05 -2.65316e-06
4.08025e-05 -1.22393e-05 -1.22414e-05 -4.42185e-06
5.39954e-05 -1.61983e-05 -1.61988e-05 -3.64806e-06
6.7994e-05 -2.03991e-05 -2.03978e-05 -2.65316e-06
5.48009e-05 -1.64402e-05 -1.64403e-05 -3.64806e-06
5.43982e-05 -1.63193e-05 -1.63195e-05 -3.64806e-06
4.05004e-05 -1.21486e-05 -1.21508e-05 -4.42185e-06
3.98964e-05 -1.19671e-05 -1.19697e-05 -4.42185e-06
6.64837e-05 -1.99456e-05 -1.99449e-05 -2.65316e-06
6.74906e-05 -2.02479e-05 -2.02468e-05 -2.65316e-06
4.01984e-05 -1.20578e-05 -1.20603e-05 -4.42185e-06
5.319e-05 -1.59564e-05 -1.59572e-05 -3.64806e-06
6.69871e-05 -2.00968e-05 -2.00959e-05 -2.65316e-06
5.39954e-05 -1.61983e-05 -1.61988e-05 -3.64806e-06
5.35927e-05 -1.60774e-05 -1.6078e-05 -3.64806e-06
3.98964e-05 -1.19671e-05 -1.19697e-05 -4.42185e-06
3.92923e-05 -1.17856e-05 -1.17886e-05 -4.42185e-06
6.54767e-05 -1.96432e-05 -1.96429e-05 -2.65315e-06
6.64837e-05 -1.99456e-05 -1.99449e-05 -2.65316e-06
3.95944e-05 -1.18763e-05 -1.18792e-05 -4.42185e-06
5.23845e-05 -1.57145e-05 -1.57157e-05 -3.64806e-06
6.59802e-05 -1.97944e-05 -1.97939e-05 -2.65316e-06
5.319e-05 -1.59564e-05 -1.59572e-05 -3.64806e-06
5.27872e-05 -1.58354e-05 -1.58365e-05 -3.64806e-06
3.92923e-05 -1.17856e-05 -1.17886e-05 -4.42185e-06
3.86883e-05 -1.16041e-05 -1.16075e-05 -4.42184e-06
6.44698e-05 -1.93409e-05 -1.9341e-05 -2.65315e-06
6.54767e-05 -1.96432e-05 -1.96429e-05 -2.65315e-06
3.89903e-05 -1.16949e-05 -1.1698e-05 -4.42185e-06
5.1579e-05 -1.54726e-05 -1.54742e-05 -3.64805e-06
6.49733e-05 -1.94921e-05 -1.94919e-05 -2.65315e-06
5.23845e-05 -1.57145e-05 -1.57157e-05 -3.64806e-06
5.19817e-05 -1.55935e-05 -1.55949e-05 -3.64805e-06
3.86883e-05 -1.16041e-05 -1.16075e-05 -4.42184e-06
3.80842e-05 -1.14227e-05 -1.14264e-05 -4.42184e-06
6.34629e-05 -1.90386e-05 -1.9039e-05 -2.65315e-06
6.44698e-05 -1.93409e-05 -1.9341e-05 -2.65315e-06
3.83862e-05 -1.15134e-05 -1.15169e-05 -4.42184e-06
5.07735e-05 -1.52307e-05 -1.52326e-05 -3.64805e-06
6.39664e-05 -1.91897e-05 -1.919e-05 -2.65315e-06
5.1579e-05 -1.54726e-05 -1.54742e-05 -3.64805e-06
5.11763e-05 -1.53516e-05 -1.53534e-05 -3.64805e-06
3.80842e-05 -1.14227e-05 -1.14264e-05 -4.42184e-06
3.74802e-05 -1.12412e-05 -1.12453e-05 -4.42184e-06
6.2456e-05 -1.87362e-05 -1.87371e-05 -2.65315e-06
6.34629e-05 -1.90386e-05 -1.9039e-05 -2.65315e-06
3.77822e-05 -1.13319e-05 -1.13358e-05 -4.42184e-06
4.9968e-05 -1.49888e-05 -1.49911e-05 -3.64805e-06
6.29595e-05 -1.88874e-05 -1.8888e-05 -2.65315e-06
5.07735e-05 -1.52307e-05 -1.52326e-05 -3.64805e-06
5.03708e-05 -1.51097e-05 -1.51119e-05 -3.64805e-06
3.74802e-05 -1.12412e-05 -1.12453e-05 -4.42184e-06
3.68761e-05 -1.10597e-05 -1.10642e-05 -4.42184e-06
6.14491e-05 -1.84339e-05 -1.84351e-05 -2.65315e-06
6.2456e-05 -1.87362e-05 -1.87371e-05 -2.65315e-06
3.71781e-05 -1.11505e-05 -1.11547e-05 -4.42184e-06
4.91625e-05 -1.47468e-05 -1.47496e-05 -3.64805e-06
6.19526e-05 -1.8585e-05 -1.85861e-05 -2.65315e-06
4.9968e-05 -1.49888e-05 -1.49911e-05 -3.64805e-06
4.95653e-05 -1.48678e-05 -1.48703e-05 -3.64805e-06
3.68761e-05 -1.10597e-05 -1.10642e-05 -4.42184e-06
3.6272e-05 -1.08783e-05 -1.0883e-05 -4.42184e-06
6.04422e-05 -1.81315e-05 -1.81331e-05 -2.65314e-06
6.14491e-05 -1.84339e-05 -1.84351e-05 -2.65315e-06
3.65741e-05 -1.0969e-05 -1.09736e-05 -4.42184e-06
4.8357e-05 -1.45049e-05 -1.4508e-05 -3.64804e-06
6.09456e-05 -1.82827e-05 -1.82841e-05 -2.65315e-06
4.91625e-05 -1.47468e-05 -1.47496e-05 -3.64805e-06
4.87598e-05 -1.46259e-05 -1.46288e-05 -3.64805e-06
3.6272e-05 -1.08783e-05 -1.0883e-05 -4.42184e-06
3.5668e-05 -1.06968e-05 -1.07019e-05 -4.42183e-06
5.94353e-05 -1.78292e-05 -1.78312e-05 -2.65314e-06
6.04422e-05 -1.81315e-05 -1.81331e-05 -2.65314e-06
3.597e-05 -1.07875e-05 -1.07925e-05 -4.42184e-06
4.75516e-05 -1.4263e-05 -1.42665e-05 -3.64804e-06
5.99387e-05 -1.79804e-05 -1.79822e-05 -2.65314e-06
4.8357e-05 -1.45049e-05 -1.4508e-05 -3.64804e-06
4.79543e-05 -1.4384e-05 -1.43873e-05 -3.64804e-06
3.5668e-05 -1.06968e-05 -1.07019e-05 -4.42183e-06
3.50639e-05 -1.05153e-05 -1.05208e-05 -4.42183e-06
5.84283e-05 -1.75269e-05 -1.75292e-05 -2.65314e-06
5.94353e-05 -1.78292e-05 -1.78312e-05 -2.65314e-06
3.53659e-05 -1.06061e-05 -1.06114e-05 -4.42183e-06
4.67461e-05 -1.40211e-05 -1.4025e-05 -3.64804e-06
5.89318e-05 -1.7678e-05 -1.76802e-05 -2.65314e-06
4.75516e-05 -1.4263e-05 -1.42665e-05 -3.64804e-06
4.71488e-05 -1.41421e-05 -1.41457e-05 -3.64804e-06
3.50639e-05 -1.05153e-05 -1.05208e-05 -4.42183e-06
3.44598e-05 -1.03339e-05 -1.03397e-05 -4.42183e-06
5.74214e-05 -1.72245e-05 -1.72272e-05 -2.65314e-06
5.84283e-05 -1.75269e-05 -1.75292e-05 -2.65314e-06
3.47618e-05 -1.04246e-05 -1.04303e-05 -4.42183e-06
4.59406e-05 -1.37792e-05 -1.37834e-05 -3.64804e-06
5.79249e-05 -1.73757e-05 -1.73782e-05 -2.65314e-06
4.67461e-05 -1.40211e-05 -1.4025e-05 -3.64804e-06
4.63433e-05 -1.39002e-05 -1.39042e-05 -3.64804e-06
3.44598e-05 -1.03339e-05 -1.03397e-05 -4.42183e-06
3.38557e-05 -1.01524e-05 -1.01586e-05 -4.42183e-06
5.64145e-05 -1.69222e-05 -1.69253e-05 -2.65314e-06
5.74214e-05 -1.72245e-05 -1.72272e-05 -2.65314e-06
3.41578e-05 -1.02431e-05 -1.02491e-05 -4.42183e-06
4.51351e-05 -1.35373e-05 -1.35419e-05 -3.64804e-06
5.69179e-05 -1.70733e-05 -1.70763e-05 -2.65314e-06
4.59406e-05 -1.37792e-05 -1.37834e-05 -3.64804e-06
4.55378e-05 -1.36583e-05 -1.36627e-05 -3.64804e-06
3.38557e-05 -1.01524e-05 -1.01586e-05 -4.42183e-06
3.32516e-05 -9.97094e-06 -9.97744e-06 -4.42183e-06
5.54076e-05 -1.66198e-05 -1.66233e-05 -2.65313e-06
5.64145e-05 -1.69222e-05 -1.69253e-05 -2.65314e-06
3.35537e-05 -1.00617e-05 -1.0068e-05 -4.42183e-06
4.43296e-05 -1.32954e-05 -1.33003e-05 -3.64803e-06
5.5911e-05 -1.6771e-05 -1.67743e-05 -2.65314e-06
4.51351e-05 -1.35373e-05 -1.35419e-05 -3.64804e-06
4.47323e-05 -1.34164e-05 -1.34211e-05 -3.64803e-06
3.32516e-05 -9.97094e-06 -9.97744e-06 -4.42183e-06
3.26476e-05 -9.78949e-06 -9.79632e-06 -4.42182e-06
5.44006e-05 -1.63175e-05 -1.63213e-05 -2.65313e-06
5.54076e-05 -1.66198e-05 -1.66233e-05 -2.65313e-06
3.29496e-05 -9.88021e-06 -9.88688e-06 -4.42183e-06
4.35241e-05 -1.30535e-05 -1.30588e-05 -3.64803e-06
5.49041e-05 -1.64687e-05 -1.64723e-05 -2.65313e-06
4.43296e-05 -1.32954e-05 -1.33003e-05 -3.64803e-06
4.39268e-05 -1.31745e-05 -1.31796e-05 -3.64803e-06
3.26476e-05 -9.78949e-06 -9.79632e-06 -4.42182e-06
3.20435e-05 -9.60803e-06 -9.61519e-06 -4.42182e-06
5.33937e-05 -1.60152e-05 -1.60194e-05 -2.65313e-06
5.44006e-05 -1.63175e-05 -1.63213e-05 -2.65313e-06
3.23455e-05 -9.69876e-06 -9.70576e-06 -4.42182e-06
4.27185e-05 -1.28116e-05 -1.28172e-05 -3.64803e-06
5.38972e-05 -1.61663e-05 -1.61703e-05 -2.65313e-06
4.35241e-05 -1.30535e-05 -1.30588e-05 -3.64803e-06
4.31213e-05 -1.29326e-05 -1.2938e-05 -3.64803e-06
3.20435e-05 -9.60803e-06 -9.61519e-06 -4.42182e-06
3.14394e-05 -9.42658e-06 -9.43406e-06 -4.42182e-06
5.23868e-05 -1.57129e-05 -1.57174e-05 -2.65313e-06
5.33937e-05 -1.60152e-05 -1.60194e-05 -2.65313e-06
3.17414e-05 -9.5173e-06 -9.52463e-06 -4.42182e-06
4.1913e-05 -1.25698e-05 -1.25757e-05 -3.64803e-06
5.28902e-05 -1.5864e-05 -1.58684e-05 -2.65313e-06
4.27185e-05 -1.28116e-05 -1.28172e-05 -3.64803e-06
4.23158e-05 -1.26907e-05 -1.26965e-05 -3.64803e-06
3.14394e-05 -9.42658e-06 -9.43406e-06 -4.42182e-06
3.08353e-05 -9.24513e-06 -9.25293e-06 -4.42182e-06
5.13798e-05 -1.54105e-05 -1.54154e-05 -2.65313e-06
5.23868e-05 -1.57129e-05 -1.57174e-05 -2.65313e-06
3.11373e-05 -9.33585e-06 -9.3435e-06 -4.42182e-06
4.11075e-05 -1.23279e-05 -1.23341e-05 -3.64802e-06
5.18833e-05 -1.55617e-05 -1.55664e-05 -2.65313e-06
4.1913e-05 -1.25698e-05 -1.25757e-05 -3.64803e-06
4.15103e-05 -1.24488e-05 -1.24549e-05 -3.64803e-06
3.08353e-05 -9.24513e-06 -9.25293e-06 -4.42182e-06
3.02312e-05 -9.06368e-06 -9.0718e-06 -4.42182e-06
5.03729e-05 -1.51082e-05 -1.51134e-05 -2.65313e-06
5.13798e-05 -1.54105e-05 -1.54154e-05 -2.65313e-06
3.05333e-05 -9.1544e-06 -9.16237e-06 -4.42182e-06
4.0302e-05 -1.2086e-05 -1.20926e-05 -3.64802e-06
5.08764e-05 -1.52594e-05 -1.52644e-05 -2.65313e-06
4.11075e-05 -1.23279e-05 -1.23341e-05 -3.64802e-06
4.07048e-05 -1.22069e-05 -1.22134e-05 -3.64802e-06
3.02312e-05 -9.06368e-06 -9.0718e-06 -4.42182e-06
2.96271e-05 -8.88223e-06 -8.89066e-06 -4.42181e-06
4.93659e-05 -1.48059e-05 -1.48115e-05 -2.65312e-06
5.03729e-05 -1.51082e-05 -1.51134e-05 -2.65313e-06
2.99292e-05 -8.97295e-06 -8.98123e-06 -4.42182e-06
3.94965e-05 -1.18441e-05 -1.1851e-05 -3.64802e-06
4.98694e-05 -1.4957e-05 -1.49625e-05 -2.65312e-06
4.0302e-05 -1.2086e-05 -1.20926e-05 -3.64802e-06
3.98993e-05 -1.1965e-05 -1.19718e-05 -3.64802e-06
2.96271e-05 -8.88223e-06 -8.89066e-06 -4.42181e-06
2.9023e-05 -8.70078e-06 -8.70953e-06 -4.42181e-06
4.8359e-05 -1.45035e-05 -1.45095e-05 -2.65312e-06
4.93659e-05 -1.48059e-05 -1.48115e-05 -2.65312e-06
2.93251e-05 -8.79151e-06 -8.8001e-06 -4.42181e-06
3.8691e-05 -1.16022e-05 -1.16095e-05 -3.64802e-06
4.88625e-05 -1.46547e-05 -1.46605e-05 -2.65312e-06
3.94965e-05 -1.18441e-05 -1.1851e-05 -3.64802e-06
3.90937e-05 -1.17231e-05 -1.17303e-05 -3.64802e-06
2.9023e-05 -8.70078e-06 -8.70953e-06 -4.42181e-06
2.84189e-05 -8.51934e-06 -8.52839e-06 -4.42181e-06
4.73521e-05 -1.42012e-05 -1.42075e-05 -2.65312e-06
4.8359e-05 -1.45035e-05 -1.45095e-05 -2.65312e-06
2.8721e-05 -8.61006e-06 -8.61896e-06 -4.42181e-06
3.78855e-05 -1.13603e-05 -1.13679e-05 -3.64802e-06
4.78555e-05 -1.43524e-05 -1.43585e-05 -2.65312e-06
3.8691e-05 -1.16022e-05 -1.16095e-05 -3.64802e-06
3.82882e-05 -1.14813e-05 -1.14887e-05 -3.64802e-06
2.84189e-05 -8.51934e-06 -8.52839e-06 -4.42181e-06
2.78148e-05 -8.3379e-06 -8.34725e-06 -4.42181e-06
4.63451e-05 -1.38989e-05 -1.39055e-05 -2.65312e-06
4.73521e-05 -1.42012e-05 -1.42075e-05 -2.65312e-06
2.81169e-05 -8.42862e-06 -8.43782e-06 -4.42181e-06
3.70799e-05 -1.11184e-05 -1.11264e-05 -3.64801e-06
4.68486e-05 -1.40501e-05 -1.40565e-05 -2.65312e-06
3.78855e-05 -1.13603e-05 -1.13679e-05 -3.64802e-06
3.74827e-05 -1.12394e-05 -1.12471e-05 -3.64802e-06
2.78148e-05 -8.3379e-06 -8.34725e-06 -4.42181e-06
2.72107e-05 -8.15646e-06 -8.16611e-06 -4.42181e-06
4.53382e-05 -1.35966e-05 -1.36035e-05 -2.65312e-06
4.63451e-05 -1.38989e-05 -1.39055e-05 -2.65312e-06
2.75128e-05 -8.24718e-06 -8.25668e-06 -4.42181e-06
3.62744e-05 -1.08765e-05 -1.08848e-05 -3.64801e-06
4.58416e-05 -1.37477e-05 -1.37545e-05 -2.65312e-06
3.70799e-05 -1.11184e-05 -1.11264e-05 -3.64801e-06
3.66772e-05 -1.09975e-05 -1.10056e-05 -3.64801e-06
2.72107e-05 -8.15646e-06 -8.16611e-06 -4.42181e-06
2.66066e-05 -7.97502e-06 -7.98496e-06 -4.4218e-06
4.43312e-05 -1.32943e-05 -1.33016e-05 -2.65311e-06
4.53382e-05 -1.35966e-05 -1.36035e-05 -2.65312e-06
2.69086e-05 -8.06574e-06 -8.07553e-06 -4.42181e-06
3.54689e-05 -1.06347e-05 -1.06432e-05 -3.64801e-06
4.48347e-05 -1.34454e-05 -1.34525e-05 -2.65311e-06
3.62744e-05 -1.08765e-05 -1.08848e-05 -3.64801e-06
3.58716e-05 -1.07556e-05 -1.0764e-05 -3.64801e-06
2.66066e-05 -7.97502e-06 -7.98496e-06 -4.4218e-06
2.60025e-05 -7.79358e-06 -7.80381e-06 -4.4218e-06
4.33243e-05 -1.29919e-05 -1.29996e-05 -2.65311e-06
4.43312e-05 -1.32943e-05 -1.33016e-05 -2.65311e-06
2.63045e-05 -7.8843e-06 -7.89439e-06 -4.4218e-06
3.46633e-05 -1.03928e-05 -1.04017e-05 -3.64801e-06
4.38277e-05 -1.31431e-05 -1.31506e-05 -2.65311e-06
3.54689e-05 -1.06347e-05 -1.06432e-05 -3.64801e-06
3.50661e-05 -1.05137e-05 -1.05225e-05 -3.64801e-06
2.60025e-05 -7.79358e-06 -7.80381e-06 -4.4218e-06
2.53984e-05 -7.61215e-06 -7.62267e-06 -4.4218e-06
4.23173e-05 -1.26896e-05 -1.26976e-05 -2.65311e-06
4.33243e-05 -1.29919e-05 -1.29996e-05 -2.65311e-06
2.57004e-05 -7.70286e-06 -7.71324e-06 -4.4218e-06
3.38578e-05 -1.01509e-05 -1.01601e-05 -3.64801e-06
4.28208e-05 -1.28408e-05 -1.28486e-05 -2.65311e-06
3.46633e-05 -1.03928e-05 -1.04017e-05 -3.64801e-06
3.42606e-05 -1.02718e-05 -1.02809e-05 -3.64801e-06
2.53984e-05 -7.61215e-06 -7.62267e-06 -4.4218e-06
2.47943e-05 -7.43071e-06 -7.44152e-06 -4.4218e-06
4.13103e-05 -1.23873e-05 -1.23956e-05 -2.65311e-06
4.23173e-05 -1.26896e-05 -1.26976e-05 -2.65311e-06
2.50963e-05 -7.52143e-06 -7.53209e-06 -4.4218e-06
3.30523e-05 -9.90903e-06 -9.91853e-06 -3.648e-06
4.18138e-05 -1.25385e-05 -1.25466e-05 -2.65311e-06
3.38578e-05 -1.01509e-05 -1.01601e-05 -3.64801e-06
3.3455e-05 -1.003e-05 -1.00393e-05 -3.648e-06
2.47943e-05 -7.43071e-06 -7.44152e-06 -4.4218e-06
2.41901e-05 -7.24928e-06 -7.26036e-06 -4.4218e-06
4.03034e-05 -1.2085e-05 -1.20936e-05 -2.65311e-06
4.13103e-05 -1.23873e-05 -1.23956e-05 -2.65311e-06
2.44922e-05 -7.34e-06 -7.35094e-06 -4.4218e-06
3.22467e-05 -9.66716e-06 -9.67696e-06 -3.648e-06
4.08069e-05 -1.22361e-05 -1.22446e-05 -2.65311e-06
3.30523e-05 -9.90903e-06 -9.91853e-06 -3.648e-06
3.26495e-05 -9.78809e-06 -9.79775e-06 -3.648e-06
2.41901e-05 -7.24928e-06 -7.26036e-06 -4.4218e-06
2.3586e-05 -7.06785e-06 -7.07921e-06 -4.42179e-06
3.92964e-05 -1.17827e-05 -1.17916e-05 -2.6531e-06
4.03034e-05 -1.2085e-05 -1.20936e-05 -2.65311e-06
2.38881e-05 -7.15857e-06 -7.16979e-06 -4.4218e-06
3.14412e-05 -9.42528e-06 -9.43539e-06 -3.648e-06
3.97999e-05 -1.19338e-05 -1.19426e-05 -2.65311e-06
3.22467e-05 -9.66716e-06 -9.67696e-06 -3.648e-06
3.1844e-05 -9.54622e-06 -9.55618e-06 -3.648e-06
2.3586e-05 -7.06785e-06 -7.07921e-06 -4.42179e-06
2.29819e-05 -6.88642e-06 -6.89805e-06 -4.42179e-06
3.82895e-05 -1.14804e-05 -1.14896e-05 -2.6531e-06
3.92964e-05 -1.17827e-05 -1.17916e-05 -2.6531e-06
2.32839e-05 -6.97714e-06 -6.98863e-06 -4.42179e-06
3.06357e-05 -9.18341e-06 -9.19382e-06 -3.648e-06
3.87929e-05 -1.16315e-05 -1.16406e-05 -2.6531e-06
3.14412e-05 -9.42528e-06 -9.43539e-06 -3.648e-06
3.10384e-05 -9.30435e-06 -9.3146e-06 -3.648e-06
2.29819e-05 -6.88642e-06 -6.89805e-06 -4.42179e-06
2.23778e-05 -6.705e-06 -6.7169e-06 -4.42179e-06
3.72825e-05 -1.11781e-05 -1.11876e-05 -2.6531e-06
3.82895e-05 -1.14804e-05 -1.14896e-05 -2.6531e-06
2.26798e-05 -6.79571e-06 -6.80748e-06 -4.42179e-06
2.98301e-05 -8.94154e-06 -8.95224e-06 -3.648e-06
3.7786e-05 -1.13292e-05 -1.13386e-05 -2.6531e-06
3.06357e-05 -9.18341e-06 -9.19382e-06 -3.648e-06
3.02329e-05 -9.06248e-06 -9.07303e-06 -3.648e-06
2.23778e-05 -6.705e-06 -6.7169e-06 -4.42179e-06
2.17736e-05 -6.52357e-06 -6.53574e-06 -4.42179e-06
3.62755e-05 -1.08757e-05 -1.08856e-05 -2.6531e-06
3.72825e-05 -1.11781e-05 -1.11876e-05 -2.6531e-06
2.20757e-05 -6.61429e-06 -6.62632e-06 -4.42179e-06
2.90246e-05 -8.69968e-06 -8.71066e-06 -3.64799e-06
3.6779e-05 -1.10269e-05 -1.10366e-05 -2.6531e-06
2.98301e-05 -8.94154e-06 -8.95224e-06 -3.648e-06
2.94273e-05 -8.82061e-06 -8.83145e-06 -3.64799e-06
2.17736e-05 -6.52357e-06 -6.53574e-06 -4.42179e-06
2.11695e-05 -6.34215e-06 -6.35458e-06 -4.42179e-06
3.52686e-05 -1.05734e-05 -1.05836e-05 -2.6531e-06
3.62755e-05 -1.08757e-05 -1.08856e-05 -2.6531e-06
2.14716e-05 -6.43286e-06 -6.44516e-06 -4.42179e-06
2.8219e-05 -8.45781e-06 -8.46908e-06 -3.64799e-06
3.5772e-05 -1.07246e-05 -1.07346e-05 -2.6531e-06
2.90246e-05 -8.69968e-06 -8.71066e-06 -3.64799e-06
2.86218e-05 -8.57874e-06 -8.58987e-06 -3.64799e-06
2.11695e-05 -6.34215e-06 -6.35458e-06 -4.42179e-06
2.05654e-05 -6.16073e-06 -6.17341e-06 -4.42178e-06
3.42616e-05 -1.02711e-05 -1.02816e-05 -2.65309e-06
3.52686e-05 -1.05734e-05 -1.05836e-05 -2.6531e-06
2.08674e-05 -6.25144e-06 -6.26399e-06 -4.42179e-06
2.74135e-05 -8.21595e-06 -8.2275e-06 -3.64799e-06
3.47651e-05 -1.04223e-05 -1.04326e-05 -2.6531e-06
2.8219e-05 -8.45781e-06 -8.46908e-06 -3.64799e-06
2.78162e-05 -8.33688e-06 -8.34829e-06 -3.64799e-06
2.05654e-05 -6.16073e-06 -6.17341e-06 -4.42178e-06
1.99612e-05 -5.97931e-06 -5.99225e-06 -4.42178e-06
3.32546e-05 -9.96882e-06 -9.97962e-06 -2.65309e-06
3.42616e-05 -1.02711e-05 -1.02816e-05 -2.65309e-06
2.02633e-05 -6.07002e-06 -6.08283e-06 -4.42178e-06
2.66079e-05 -7.97408e-06 -7.98592e-06 -3.64799e-06
3.37581e-05 -1.012e-05 -1.01306e-05 -2.65309e-06
2.74135e-05 -8.21595e-06 -8.2275e-06 -3.64799e-06
2.70107e-05 -8.09502e-06 -8.10671e-06 -3.64799e-06
1.99612e-05 -5.97931e-06 -5.99225e-06 -4.42178e-06
1.93571e-05 -5.7979e-06 -5.81108e-06 -4.42178e-06
3.22476e-05 -9.66652e-06 -9.67762e-06 -2.65309e-06
3.32546e-05 -9.96882e-06 -9.97962e-06 -2.65309e-06
1.96592e-05 -5.88861e-06 -5.90166e-06 -4.42178e-06
2.58023e-05 -7.73222e-06 -7.74433e-06 -3.64798e-06
3.27511e-05 -9.81767e-06 -9.82862e-06 -2.65309e-06
2.66079e-05 -7.97408e-06 -7.98592e-06 -3.64799e-06
2.62051e-05 -7.85315e-06 -7.86513e-06 -3.64799e-06
1.93571e-05 -5.7979e-06 -5.81108e-06 -4.42178e-06
1.87529e-05 -5.61648e-06 -5.62991e-06 -4.42178e-06
3.12406e-05 -9.36422e-06 -9.37561e-06 -2.65309e-06
3.22476e-05 -9.66652e-06 -9.67762e-06 -2.65309e-06
1.9055e-05 -5.70719e-06 -5.72049e-06 -4.42178e-06
2.49968e-05 -7.49036e-06 -7.50275e-06 -3.64798e-06
3.17441e-05 -9.51537e-06 -9.52661e-06 -2.65309e-06
2.58023e-05 -7.73222e-06 -7.74433e-06 -3.64798e-06
2.53996e-05 -7.61129e-06 -7.62354e-06 -3.64798e-06
1.87529e-05 -5.61648e-06 -5.62991e-06 -4.42178e-06
1.81488e-05 -5.43507e-06 -5.44874e-06 -4.42178e-06
3.02337e-05 -9.06192e-06 -9.07361e-06 -2.65309e-06
3.12406e-05 -9.36422e-06 -9.37561e-06 -2.65309e-06
1.84509e-05 -5.52578e-06 -5.53932e-06 -4.42178e-06
2.41912e-05 -7.24851e-06 -7.26116e-06 -3.64798e-06
3.07372e-05 -9.21307e-06 -9.22461e-06 -2.65309e-06
2.49968e-05 -7.49036e-06 -7.50275e-06 -3.64798e-06
2.4594e-05 -7.36944e-06 -7.38195e-06 -3.64798e-06
1.81488e-05 -5.43507e-06 -5.44874e-06 -4.42178e-06
1.75446e-05 -5.25366e-06 -5.26756e-06 -4.42178e-06
2.92267e-05 -8.75962e-06 -8.7716e-06 -2.65309e-06
3.02337e-05 -9.06192e-06 -9.07361e-06 -2.65309e-06
1.78467e-05 -5.34437e-06 -5.35815e-06 -4.42178e-06
2.33856e-05 -7.00665e-06 -7.01957e-06 -3.64798e-06
2.97302e-05 -8.91077e-06 -8.9226e-06 -2.65309e-06
2.41912e-05 -7.24851e-06 -7.26116e-06 -3.64798e-06
2.37884e-05 -7.12758e-06 -7.14036e-06 -3.64798e-06
1.75446e-05 -5.25366e-06 -5.26756e-06 -4.42178e-06
1.69405e-05 -5.07225e-06 -5.08639e-06 -4.42177e-06
2.82197e-05 -8.45732e-06 -8.46959e-06 -2.65308e-06
2.92267e-05 -8.75962e-06 -8.7716e-06 -2.65309e-06
1.72426e-05 -5.16296e-06 -5.17697e-06 -4.42177e-06
2.25801e-05 -6.7648e-06 -6.77798e-06 -3.64798e-06
2.87232e-05 -8.60847e-06 -8.62059e-06 -2.65308e-06
2.33856e-05 -7.00665e-06 -7.01957e-06 -3.64798e-06
2.29829e-05 -6.88572e-06 -6.89877e-06 -3.64798e-06
1.69405e-05 -5.07225e-06 -5.08639e-06 -4.42177e-06
1.63363e-05 -4.89085e-06 -4.90521e-06 -4.42177e-06
2.72127e-05 -8.15503e-06 -8.16758e-06 -2.65308e-06
2.82197e-05 -8.45732e-06 -8.46959e-06 -2.65308e-06
1.66384e-05 -4.98155e-06 -4.9958e-06 -4.42177e-06
2.17745e-05 -6.52295e-06 -6.53638e-06 -3.64798e-06
2.77162e-05 -8.30617e-06 -8.31858e-06 -2.65308e-06
2.25801e-05 -6.7648e-06 -6.77798e-06 -3.64798e-06
2.21773e-05 -6.64387e-06 -6.65718e-06 -3.64798e-06
1.63363e-05 -4.89085e-06 -4.90521e-06 -4.42177e-06
1.57322e-05 -4.70944e-06 -4.72403e-06 -4.42177e-06
2.62057e-05 -7.85273e-06 -7.86556e-06 -2.65308e-06
2.72127e-05 -8.15503e-06 -8.16758e-06 -2.65308e-06
1.60343e-05 -4.80014e-06 -4.81462e-06 -4.42177e-06
2.09689e-05 -6.2811e-06 -6.29479e-06 -3.64797e-06
2.67092e-05 -8.00388e-06 -8.01657e-06 -2.65308e-06
2.17745e-05 -6.52295e-06 -6.53638e-06 -3.64798e-06
2.13717e-05 -6.40202e-06 -6.41559e-06 -3.64797e-06
1.57322e-05 -4.70944e-06 -4.72403e-06 -4.42177e-06
1.5128e-05 -4.52804e-06 -4.54285e-06 -4.42177e-06
2.51987e-05 -7.55044e-06 -7.56355e-06 -2.65308e-06
2.62057e-05 -7.85273e-06 -7.86556e-06 -2.65308e-06
1.54301e-05 -4.61874e-06 -4.63344e-06 -4.42177e-06
2.01634e-05 -6.03925e-06 -6.05319e-06 -3.64797e-06
2.57022e-05 -7.70158e-06 -7.71456e-06 -2.65308e-06
2.09689e-05 -6.2811e-06 -6.29479e-06 -3.64797e-06
2.05661e-05 -6.16017e-06 -6.17399e-06 -3.64797e-06
1.5128e-05 -4.52804e-06 -4.54285e-06 -4.42177e-06
1.45239e-05 -4.34664e-06 -4.36166e-06 -4.42177e-06
2.41917e-05 -7.24815e-06 -7.26153e-06 -2.65308e-06
2.51987e-05 -7.55044e-06 -7.56355e-06 -2.65308e-06
1.48259e-05 -4.43734e-06 -4.45226e-06 -4.42177e-06
1.93578e-05 -5.7974e-06 -5.81159e-06 -3.64797e-06
2.46952e-05 -7.39929e-06 -7.41254e-06 -2.65308e-06
2.01634e-05 -6.03925e-06 -6.05319e-06 -3.64797e-06
1.97606e-05 -5.91833e-06 -5.93239e-06 -3.64797e-06
1.45239e-05 -4.34664e-06 -4.36166e-06 -4.42177e-06
1.39197e-05 -4.16525e-06 -4.18048e-06 -4.42177e-06
2.31847e-05 -6.94586e-06 -6.95951e-06 -2.65308e-06
2.41917e-05 -7.24815e-06 -7.26153e-06 -2.65308e-06
1.42218e-05 -4.25594e-06 -4.27107e-06 -4.42177e-06
1.85522e-05 -5.55556e-06 -5.56999e-06 -3.64797e-06
2.36882e-05 -7.097e-06 -7.11052e-06 -2.65308e-06
1.93578e-05 -5.7974e-06 -5.81159e-06 -3.64797e-06
1.8955e-05 -5.67648e-06 -5.69079e-06 -3.64797e-06
1.39197e-05 -4.16525e-06 -4.18048e-06 -4.42177e-06
1.33155e-05 -3.98386e-06 -3.99929e-06 -4.42177e-06
2.21777e-05 -6.64357e-06 -6.65749e-06 -2.65309e-06
2.31847e-05 -6.94586e-06 -6.95951e-06 -2.65308e-06
1.36176e-05 -4.07455e-06 -4.08988e-06 -4.42177e-06
1.77466e-05 -5.31372e-06 -5.32838e-06 -3.64798e-06
2.26812e-05 -6.79471e-06 -6.8085e-06 -2.65308e-06
1.85522e-05 -5.55556e-06 -5.56999e-06 -3.64797e-06
1.81494e-05 -5.43464e-06 -5.44919e-06 -3.64798e-06
1.33155e-05 -3.98386e-06 -3.99929e-06 -4.42177e-06
1.27114e-05 -3.80247e-06 -3.8181e-06 -4.42177e-06
2.11707e-05 -6.34129e-06 -6.35547e-06 -2.65309e-06
2.21777e-05 -6.64357e-06 -6.65749e-06 -2.65309e-06
1.30135e-05 -3.89316e-06 -3.90869e-06 -4.42177e-06
1.6941e-05 -5.07189e-06 -5.08678e-06 -3.64798e-06
2.16742e-05 -6.49243e-06 -6.50648e-06 -2.65309e-06
1.77466e-05 -5.31372e-06 -5.32838e-06 -3.64798e-06
1.73438e-05 -5.19281e-06 -5.20758e-06 -3.64798e-06
1.27114e-05 -3.80247e-06 -3.8181e-06 -4.42177e-06
1.21072e-05 -3.62109e-06 -3.63691e-06 -4.42177e-06
2.01637e-05 -6.03901e-06 -6.05344e-06 -2.65311e-06
2.11707e-05 -6.34129e-06 -6.35547e-06 -2.65309e-06
1.24093e-05 -3.71178e-06 -3.72751e-06 -4.42177e-06
1.61355e-05 -4.83006e-06 -4.84517e-06 -3.64799e-06
2.06672e-05 -6.19015e-06 -6.20446e-06 -2.6531e-06
1.6941e-05 -5.07189e-06 -5.08678e-06 -3.64798e-06
1.65383e-05 -4.95097e-06 -4.96598e-06 -3.64799e-06
1.21072e-05 -3.62109e-06 -3.63691e-06 -4.42177e-06
1.15031e-05 -3.43972e-06 -3.45572e-06 -4.42176e-06
1.91567e-05 -5.73673e-06 -5.75142e-06 -2.65313e-06
2.01637e-05 -6.03901e-06 -6.05344e-06 -2.65311e-06
1.18051e-05 -3.53041e-06 -3.54632e-06 -4.42177e-06
1.53299e-05 -4.58824e-06 -4.60357e-06 -3.648e-06
1.96602e-05 -5.88787e-06 -5.90243e-06 -2.65312e-06
1.61355e-05 -4.83006e-06 -4.84517e-06 -3.64799e-06
1.57327e-05 -4.70915e-06 -4.72437e-06 -3.648e-06
1.15031e-05 -3.43972e-06 -3.45572e-06 -4.42176e-06
1.08989e-05 -3.25835e-06 -3.27454e-06 -4.42176e-06
1.81497e-05 -5.43446e-06 -5.44939e-06 -2.65315e-06
1.91567e-05 -5.73673e-06 -5.75142e-06 -2.65313e-06
1.1201e-05 -3.34904e-06 -3.36513e-06 -4.42176e-06
1.45243e-05 -4.34642e-06 -4.36196e-06 -3.64801e-06
1.86532e-05 -5.5856e-06 -5.6004e-06 -2.65314e-06
1.53299e-05 -4.58824e-06 -4.60357e-06 -3.648e-06
1.49271e-05 -4.46733e-06 -4.48276e-06 -3.64801e-06
1.08989e-05 -3.25835e-06 -3.27454e-06 -4.42176e-06
1.02948e-05 -3.07696e-06 -3.09336e-06 -4.42174e-06
1.71427e-05 -5.13219e-06 -5.14737e-06 -2.65318e-06
1.81497e-05 -5.43446e-06 -5.44939e-06 -2.65315e-06
1.05969e-05 -3.16766e-06 -3.18395e-06 -4.42175e-06
1.37188e-05 -4.1046e-06 -4.12037e-06 -3.64801e-06
1.76462e-05 -5.28332e-06 -5.29838e-06 -2.65317e-06
1.45243e-05 -4.34642e-06 -4.36196e-06 -3.64801e-06
1.41216e-05 -4.22551e-06 -4.24116e-06 -3.64801e-06
1.02948e-05 -3.07696e-06 -3.09336e-06 -4.42174e-06
9.69066e-06 -2.89551e-06 -2.91221e-06 -4.42169e-06
1.61357e-05 -4.8299e-06 -4.84536e-06 -2.65318e-06
1.71427e-05 -5.13219e-06 -5.14737e-06 -2.65318e-06
9.99274e-06 -2.98625e-06 -3.00278e-06 -4.42172e-06
1.29133e-05 -3.86273e-06 -3.87879e-06 -3.64798e-06
1.66392e-05 -4.98105e-06 -4.99636e-06 -2.65318e-06
1.37188e-05 -4.1046e-06 -4.12037e-06 -3.64801e-06
1.3316e-05 -3.98367e-06 -3.99958e-06 -3.648e-06
9.69066e-06 -2.89551e-06 -2.91221e-06 -4.42169e-06
9.08642e-06 -2.71389e-06 -2.73108e-06 -4.42161e-06
1.51288e-05 -4.52756e-06 -4.54339e-06 -2.6531e-06
1.61357e-05 -4.8299e-06 -4.84536e-06 -2.65318e-06
9.38857e-06 -2.80474e-06 -2.82164e-06 -4.42166e-06
1.21077e-05 -3.62075e-06 -3.63726e-06 -3.64785e-06
1.56323e-05 -4.67874e-06 -4.69437e-06 -2.65316e-06
1.29133e-05 -3.86273e-06 -3.87879e-06 -3.64798e-06
1.25105e-05 -3.74177e-06 -3.75802e-06 -3.64793e-06
9.08642e-06 -2.71389e-06 -2.73108e-06 -4.42161e-06
8.48195e-06 -2.53187e-06 -2.55003e-06 -4.42143e-06
1.41219e-05 -4.22509e-06 -4.24149e-06 -2.6528e-06
1.51288e-05 -4.52756e-06 -4.54339e-06 -2.6531e-06
8.78423e-06 -2.62296e-06 -2.64054e-06 -4.42154e-06
1.1302e-05 -3.37847e-06 -3.3958e-06 -3.6475e-06
1.46253e-05 -4.37635e-06 -4.39243e-06 -2.65299e-06
1.21077e-05 -3.62075e-06 -3.63726e-06 -3.64785e-06
1.17049e-05 -3.49966e-06 -3.51652e-06 -3.64771e-06
8.48195e-06 -2.53187e-06 -2.55003e-06 -4.42143e-06
7.8768e-06 -2.349e-06 -2.36906e-06 -4.42112e-06
1.31151e-05 -3.92232e-06 -3.93975e-06 -2.65195e-06
1.41219e-05 -4.22509e-06 -4.24149e-06 -2.6528e-06
8.17951e-06 -2.44059e-06 -2.45954e-06 -4.42129e-06
1.0496e-05 -3.13556e-06 -3.15449e-06 -3.64667e-06
1.36185e-05 -4.07376e-06 -4.09059e-06 -2.65248e-06
1.1302e-05 -3.37847e-06 -3.3958e-06 -3.6475e-06
1.08991e-05 -3.25714e-06 -3.27512e-06 -3.64717e-06
7.8768e-06 -2.349e-06 -2.36906e-06 -4.42112e-06
7.27031e-06 -2.16437e-06 -2.18826e-06 -4.42053e-06
1.21082e-05 -3.61894e-06 -3.63827e-06 -2.65001e-06
1.31151e-05 -3.92232e-06 -3.93975e-06 -2.65195e-06
7.57376e-06 -2.25698e-06 -2.27862e-06 -4.42087e-06
9.68923e-06 -2.89127e-06 -2.91341e-06 -3.64485e-06
1.26117e-05 -3.77075e-06 -3.78897e-06 -2.65117e-06
1.0496e-05 -3.13556e-06 -3.15449e-06 -3.64667e-06
1.00928e-05 -3.01364e-06 -3.03391e-06 -3.64591e-06
7.27031e-06 -2.16437e-06 -2.18826e-06 -4.42053e-06
6.66063e-06 -1.97645e-06 -2.00751e-06 -4.41961e-06
1.11016e-05 -3.31431e-06 -3.3374e-06 -2.64565e-06
1.21082e-05 -3.61894e-06 -3.63827e-06 -2.65001e-06
6.96607e-06 -2.07098e-06 -2.0979e-06 -4.42011e-06
8.88068e-06 -2.64443e-06 -2.67268e-06 -3.64117e-06
1.16048e-05 -3.46682e-06 -3.48772e-06 -2.64826e-06
9.68923e-06 -2.89127e-06 -2.91341e-06 -3.64485e-06
9.28525e-06 -2.76832e-06 -2.79297e-06 -3.64336e-06
6.66063e-06 -1.97645e-06 -2.00751e-06 -4.41961e-06
6.04545e-06 -1.78242e-06 -1.82701e-06 -4.41805e-06
1.00943e-05 -3.0074e-06 -3.03722e-06 -2.63707e-06
1.11016e-05 -3.31431e-06 -3.3374e-06 -2.64565e-06
6.35381e-06 -1.88039e-06 -1.91718e-06 -4.41896e-06
8.06833e-06 -2.39256e-06 -2.43247e-06 -3.63406e-06
1.05981e-05 -3.16128e-06 -3.18723e-06 -2.64203e-06
8.88068e-06 -2.64443e-06 -2.67268e-06 -3.64117e-06
8.47515e-06 -2.51925e-06 -2.55253e-06 -3.6381e-06
6.04545e-06 -1.78242e-06 -1.82701e-06 -4.41805e-06
5.4185e-06 -1.57829e-06 -1.6458e-06 -4.41623e-06
9.08686e-06 -2.69615e-06 -2.73888e-06 -2.61992e-06
1.00943e-05 -3.0074e-06 -3.03722e-06 -2.63707e-06
5.73414e-06 -1.68204e-06 -1.73661e-06 -4.41708e-06
7.24883e-06 -2.13249e-06 -2.19272e-06 -3.62112e-06
9.59034e-06 -2.85237e-06 -2.8877e-06 -2.62999e-06
8.06833e-06 -2.39256e-06 -2.43247e-06 -3.63406e-06
7.65971e-06 -2.26401e-06 -2.31245e-06 -3.62869e-06
5.4185e-06 -1.57829e-06 -1.6458e-06 -4.41623e-06
4.77377e-06 -1.35758e-06 -1.46408e-06 -4.41383e-06
8.07519e-06 -2.37819e-06 -2.44157e-06 -2.58981e-06
9.08686e-06 -2.69615e-06 -2.73888e-06 -2.61992e-06
5.09841e-06 -1.47026e-06 -1.55492e-06 -4.41521e-06
6.41508e-06 -1.85756e-06 -1.95322e-06 -3.59905e-06
8.58231e-06 -2.53852e-06 -2.5902e-06 -2.60678e-06
7.24883e-06 -2.13249e-06 -2.19272e-06 -3.62112e-06
6.83438e-06 -1.997e-06 -2.07316e-06 -3.61113e-06
4.77377e-06 -1.35758e-06 -1.46408e-06 -4.41383e-06
4.09458e-06 -1.11484e-06 -1.27703e-06 -4.41465e-06
7.06064e-06 -2.04762e-06 -2.14844e-06 -2.53554e-06
8.07519e-06 -2.37819e-06 -2.44157e-06 -2.58981e-06
4.44051e-06 -1.23969e-06 -1.37178e-06 -4.41329e-06
5.55804e-06 -1.56285e-06 -1.71222e-06 -3.5641e-06
7.56735e-06 -2.21416e-06 -2.29422e-06 -2.56679e-06
6.41508e-06 -1.85756e-06 -1.95322e-06 -3.59905e-06
5.98996e-06 -1.71382e-06 -1.83263e-06 -3.58418e-06
4.09458e-06 -1.11484e-06 -1.27703e-06 -4.41465e-06
3.37371e-06 -8.44237e-07 -1.08406e-06 -4.42111e-06
6.02416e-06 -1.70297e-06 -1.85194e-06 -2.4528e-06
7.06064e-06 -2.04762e-06 -2.14844e-06 -2.53554e-06
3.73823e-06 -9.81976e-07 -1.18125e-06 -4.41719e-06
4.65673e-06 -1.23623e-06 -1.46593e-06 -3.51616e-06
6.54845e-06 -1.87894e-06 -2.00122e-06 -2.49776e-06
5.55804e-06 -1.56285e-06 -1.71222e-06 -3.5641e-06
5.11506e-06 -1.4025e-06 -1.5911e-06 -3.54002e-06
3.37371e-06 -8.44237e-07 -1.08406e-06 -4.42111e-06
2.58485e-06 -5.64665e-07 -8.65795e-07 -4.454e-06
4.96704e-06 -1.32986e-06 -1.55879e-06 -2.32473e-06
6.02416e-06 -1.70297e-06 -1.85194e-06 -2.4528e-06
2.9922e-06 -7.05027e-07 -9.80216e-07 -4.43174e-06
3.69729e-06 -8.895e-07 -1.20334e-06 -3.464e-06
5.49471e-06 -1.51654e-06 -1.70493e-06 -2.39591e-06
4.65673e-06 -1.23623e-06 -1.46593e-06 -3.51616e-06
4.18387e-06 -1.06694e-06 -1.33583e-06 -3.49254e-06
2.58485e-06 -5.64665e-07 -8.65795e-07 -4.454e-06
1.76688e-06 -3.22147e-07 -6.19172e-07 -4.52773e-06
3.81439e-06 -9.58409e-07 -1.22399e-06 -2.18682e-06
4.96704e-06 -1.32986e-06 -1.55879e-06 -2.32473e-06
2.17023e-06 -4.28131e-07 -7.46614e-07 -4.48515e-06
2.63475e-06 -5.35755e-07 -8.99569e-07 -3.45241e-06
4.41549e-06 -1.15006e-06 -1.39947e-06 -2.25313e-06
3.69729e-06 -8.895e-07 -1.20334e-06 -3.464e-06
3.18493e-06 -7.03551e-07 -1.06345e-06 -3.44215e-06
1.76688e-06 -3.22147e-07 -6.19172e-07 -4.52773e-06
9.72782e-07 -3.16601e-07 -2.81221e-07 -4.69131e-06
2.57341e-06 -5.89978e-07 -8.50044e-07 -2.09752e-06
3.81439e-06 -9.58409e-07 -1.22399e-06 -2.18682e-06
1.3695e-06 -2.77136e-07 -4.68157e-07 -4.59388e-06
1.53094e-06 -3.65848e-07 -4.99324e-07 -3.57821e-06
3.19121e-06 -7.48627e-07 -1.04682e-06 -2.12727e-06
2.63475e-06 -5.35755e-07 -8.99569e-07 -3.45241e-06
2.07425e-06 -4.16725e-07 -7.10366e-07 -3.50051e-06
9.72782e-07 -3.16601e-07 -2.81221e-07 -4.69131e-06
5.52239e-07 -9.03361e-07 1.50481e-07 -4.81636e-06
1.13083e-06 -6.22102e-07 -2.18027e-07 -2.45178e-06
2.57341e-06 -5.89978e-07 -8.50044e-07 -2.09752e-06
6.69452e-07 -4.83228e-07 -7.98104e-08 -4.77691e-06
5.23247e-07 -8.03228e-07 1.19992e-07 -4.02976e-06
1.90521e-06 -5.51043e-07 -5.80359e-07 -2.18105e-06
1.53094e-06 -3.65848e-07 -4.99324e-07 -3.57821e-06
1.01166e-06 -4.33248e-07 -2.4789e-07 -3.7263e-06
5.52239e-07 -9.03361e-07 1.50481e-07 -4.81636e-06
7.61728e-07 -2.74533e-06 8.50115e-07 -4.4255e-06
4.54535e-07 -2.28576e-06 7.84809e-07 -3.75733e-06
1.13083e-06 -6.22102e-07 -2.18027e-07 -2.45178e-06
5.92535e-07 -1.68078e-06 4.66391e-07 -4.74738e-06
8.19206e-07 -3.12359e-06 9.87592e-07 -4.38953e-06
5.48021e-07 -9.37453e-07 1.66899e-07 -2.91752e-06
5.23247e-07 -8.03228e-07 1.19992e-07 -4.02976e-06
3.60747e-07 -1.66879e-06 5.60591e-07 -4.34e-06
7.61728e-07 -2.74533e-06 8.50115e-07 -4.4255e-06
1.38733e-06 -4.98102e-06 1.54015e-06 -2.3413e-06
3.17365e-06 -1.01129e-05 2.97395e-06 -3.80803e-06
4.54535e-07 -2.28576e-06 7.84809e-07 -3.75733e-06
1.03495e-06 -3.94584e-06 1.24752e-06 -3.65814e-06
2.53134e-06 -7.30727e-06 2.04683e-06 -2.21467e-06
1.2099e-06 -5.39709e-06 1.79451e-06 -4.43271e-06
8.19206e-07 -3.12359e-06 9.87592e-07 -4.38953e-06
1.63171e-06 -5.14032e-06 1.50369e-06 -3.80207e-06
0.000169052 2.22045e-16 -7.24508e-05 -9.73125e-06
0.000190312 -3.77603e-05 -6.53792e-05 -1.41957e-05
0.000265288 -8.41139e-05 -7.76459e-05 4.83474e-06
0.000372086 -1.11022e-16 -0.000159465 -0.000126475
0.000180975 -1.78274e-05 -6.99205e-05 -1.64685e-05
0.000240794 -5.85208e-05 -7.81171e-05 -1.83889e-05
0.00029512 -9.37261e-05 -8.63117e-05 -1.78361e-05
0.000198747 0 -8.51771e-05 -3.07154e-05
0.000232297 -3.95848e-05 -8.25908e-05 -2.88122e-05
0.000190312 -3.77603e-05 -6.53792e-05 -1.41957e-05
0.000197749 -5.35882e-05 -6.1783e-05 -6.77208e-06
0.000262119 -8.12457e-05 -7.75172e-05 1.50885e-06
0.000265288 -8.41139e-05 -7.76459e-05 4.83474e-06
0.000196192 -4.89251e-05 -6.31145e-05 -1.02459e-05
0.000235432 -6.86555e-05 -7.14757e-05 -3.10344e-06
0.000261359 -7.76201e-05 -7.87454e-05 2.1262e-06
0.000240794 -5.85208e-05 -7.81171e-05 -1.83889e-05
0.000237439 -6.63131e-05 -7.33395e-05 -7.46547e-06
0.000197749 -5.35882e-05 -6.1783e-05 -6.77208e-06
0.0001968 -5.80338e-05 -5.94713e-05 -2.52917e-06
0.000265809 -7.89409e-05 -8.00865e-05 7.00718e-07
0.000262119 -8.12457e-05 -7.75172e-05 1.50885e-06
0.000197208 -5.63532e-05 -6.03665e-05 -3.9881e-06
0.000232961 -6.98725e-05 -6.9895e-05 -3.30438e-07
0.000264594 -8.10709e-05 -7.86527e-05 1.52614e-06
0.000235432 -6.86555e-05 -7.14757e-05 -3.10344e-06
0.000234148 -6.95288e-05 -7.05513e-05 -1.51205e-06
0.0001968 -5.80338e-05 -5.94713e-05 -2.52917e-06
0.000195415 -5.86483e-05 -5.86143e-05 -1.57952e-06
0.000267323 -8.04719e-05 -8.00789e-05 -7.97558e-08
0.000265809 -7.89409e-05 -8.00865e-05 7.00718e-07
0.000196283 -5.86264e-05 -5.89956e-05 -1.89147e-06
0.000231601 -6.97301e-05 -6.93732e-05 7.56028e-08
0.000266481 -7.9206e-05 -8.02606e-05 -1.37541e-07
0.000232961 -6.98725e-05 -6.9895e-05 -3.30438e-07
0.000232051 -6.98714e-05 -6.95056e-05 1.9309e-07
0.000195415 -5.86483e-05 -5.86143e-05 -1.57952e-06
0.000193815 -5.85518e-05 -5.79698e-05 -1.53428e-06
0.000268099 -8.01824e-05 -8.05356e-05 5.41516e-08
0.000267323 -8.04719e-05 -8.00789e-05 -7.97558e-08
0.000194493 -5.86196e-05 -5.82317e-05 -1.46296e-06
0.000230922 -6.95075e-05 -6.91777e-05 -3.30529e-07
0.00026798 -8.05953e-05 -8.03079e-05 1.34738e-07
0.000231601 -6.97301e-05 -6.93732e-05 7.56028e-08
0.000231321 -6.96135e-05 -6.93031e-05 -1.86403e-07
0.000193815 -5.85518e-05 -5.79698e-05 -1.53428e-06
0.0001926 -5.81237e-05 -5.76325e-05 -1.85337e-06
0.000267805 -8.04109e-05 -8.03117e-05 -4.94909e-08
0.000268099 -8.01824e-05 -8.05356e-05 5.41516e-08
0.000193232 -5.83652e-05 -5.78001e-05 -1.70192e-06
0.000230082 -6.92056e-05 -6.89471e-05 -7.05539e-07
0.00026795 -8.0213e-05 -8.04586e-05 -8.4812e-08
0.000230922 -6.95075e-05 -6.91777e-05 -3.30529e-07
0.000230483 -6.93673e-05 -6.90496e-05 -4.96773e-07
0.0001926 -5.81237e-05 -5.76325e-05 -1.85337e-06
0.000191425 -5.77047e-05 -5.73086e-05 -2.12235e-06
0.000267152 -8.01158e-05 -8.01585e-05 2.67164e-09
0.000267805 -8.04109e-05 -8.03117e-05 -4.94909e-08
0.000191977 -5.79057e-05 -5.74591e-05 -1.98809e-06
0.000229191 -6.88811e-05 -6.87042e-05 -1.00162e-06
0.00026757 -8.03322e-05 -8.02449e-05 1.54855e-08
0.000230082 -6.92056e-05 -6.89471e-05 -7.05539e-07
0.000229668 -6.90439e-05 -6.88391e-05 -8.81905e-07
0.000191425 -5.77047e-05 -5.73086e-05 -2.12235e-06
0.00019037 -5.72969e-05 -5.70313e-05 -2.34206e-06
0.000266095 -7.98693e-05 -7.98109e-05 -1.60675e-08
0.000267152 -8.01158e-05 -8.01585e-05 2.67164e-09
0.000190902 -5.74995e-05 -5.71726e-05 -2.24664e-06
0.00022816 -6.85392e-05 -6.84088e-05 -1.19256e-06
0.000266633 -7.9979e-05 -7.99946e-05 -2.70888e-08
0.000229191 -6.88811e-05 -6.87042e-05 -1.00162e-06
0.000228678 -6.87125e-05 -6.85568e-05 -1.10372e-06
0.00019037 -5.72969e-05 -5.70313e-05 -2.34206e-06
0.000189328 -5.6928e-05 -5.67427e-05 -2.47586e-06
0.000264897 -7.94911e-05 -7.94595e-05 -1.91333e-09
0.000266095 -7.98693e-05 -7.98109e-05 -1.60675e-08
0.000189841 -5.71075e-05 -5.68856e-05 -2.4155e-06
0.000227068 -6.81866e-05 -6.8092e-05 -1.30607e-06
0.000265521 -7.96967e-05 -7.96391e-05 6.18331e-10
0.00022816 -6.85392e-05 -6.84088e-05 -1.19256e-06
0.000227626 -6.83637e-05 -6.82553e-05 -1.25935e-06
0.000189328 -5.6928e-05 -5.67427e-05 -2.47586e-06
0.000188313 -5.65831e-05 -5.64558e-05 -2.56046e-06
0.000263577 -7.91096e-05 -7.90577e-05 -4.48758e-09
0.000264897 -7.94911e-05 -7.94595e-05 -1.91333e-09
0.000188822 -5.67533e-05 -5.66007e-05 -2.52478e-06
0.000225918 -6.78293e-05 -6.77524e-05 -1.3715e-06
0.000264242 -7.92984e-05 -7.92614e-05 -7.88215e-09
0.000227068 -6.81866e-05 -6.8092e-05 -1.30607e-06
0.000226495 -6.80084e-05 -6.7923e-05 -1.34299e-06
0.000188313 -5.65831e-05 -5.64558e-05 -2.56046e-06
0.000187301 -5.62569e-05 -5.61619e-05 -2.60602e-06
0.000262215 -7.86974e-05 -7.86505e-05 -1.02383e-09
0.000263577 -7.91096e-05 -7.90577e-05 -4.48758e-09
0.000187806 -5.64181e-05 -5.6309e-05 -2.58637e-06
0.000224744 -6.74686e-05 -6.74036e-05 -1.40554e-06
0.000262902 -7.89072e-05 -7.88551e-05 -4.60107e-10
0.000225918 -6.78293e-05 -6.77524e-05 -1.3715e-06
0.000225335 -6.76492e-05 -6.75795e-05 -1.39163e-06
0.000187301 -5.62569e-05 -5.61619e-05 -2.60602e-06
0.000186295 -5.59413e-05 -5.58657e-05 -2.63125e-06
0.000260823 -7.82822e-05 -7.82319e-05 -1.0936e-09
0.000262215 -7.86974e-05 -7.86505e-05 -1.02383e-09
0.000186798 -5.60981e-05 -5.60143e-05 -2.62087e-06
0.000223551 -6.71068e-05 -6.70473e-05 -1.4234e-06
0.000261521 -7.84896e-05 -7.84419e-05 -2.06762e-09
0.000224744 -6.74686e-05 -6.74036e-05 -1.40554e-06
0.000224148 -6.72878e-05 -6.72258e-05 -1.41594e-06
0.000186295 -5.59413e-05 -5.58657e-05 -2.63125e-06
0.000185288 -5.56321e-05 -5.55667e-05 -2.64353e-06
0.000259421 -7.78607e-05 -7.78116e-05 -3.2495e-10
0.000260823 -7.82822e-05 -7.82319e-05 -1.0936e-09
0.000185791 -5.57861e-05 -5.57163e-05 -2.63842e-06
0.00022235 -6.67443e-05 -6.66883e-05 -1.43164e-06
0.000260123 -7.80722e-05 -7.80219e-05 -1.88711e-10
0.000223551 -6.71068e-05 -6.70473e-05 -1.4234e-06
0.000222951 -6.69256e-05 -6.68682e-05 -1.42835e-06
0.000185288 -5.56321e-05 -5.55667e-05 -2.64353e-06
0.000184282 -5.53265e-05 -5.52665e-05 -2.64957e-06
0.000258013 -7.74385e-05 -7.73891e-05 -2.20655e-10
0.000259421 -7.78607e-05 -7.78116e-05 -3.2495e-10
0.000184785 -5.5479e-05 -5.54167e-05 -2.64716e-06
0.000221145 -6.63816e-05 -6.63272e-05 -1.43547e-06
0.000258717 -7.76495e-05 -7.76005e-05 -4.70082e-10
0.00022235 -6.67443e-05 -6.66883e-05 -1.43164e-06
0.000221748 -6.6563e-05 -6.65078e-05 -1.43394e-06
0.000184282 -5.53265e-05 -5.52665e-05 -2.64957e-06
0.000183275 -5.50226e-05 -5.49654e-05 -2.65214e-06
0.000256603 -7.70152e-05 -7.69663e-05 -7.30137e-11
0.000258013 -7.74385e-05 -7.73891e-05 -2.20655e-10
0.000183778 -5.51744e-05 -5.5116e-05 -2.65111e-06
0.000219938 -6.60188e-05 -6.59654e-05 -1.43694e-06
0.000257308 -7.7227e-05 -7.71777e-05 -3.72111e-11
0.000221145 -6.63816e-05 -6.63272e-05 -1.43547e-06
0.000220542 -6.62002e-05 -6.61464e-05 -1.43639e-06
0.000183275 -5.50226e-05 -5.49654e-05 -2.65214e-06
0.000182269 -5.47196e-05 -5.46639e-05 -2.6532e-06
0.000255193 -7.65919e-05 -7.65433e-05 -3.00608e-11
0.000256603 -7.70152e-05 -7.69663e-05 -7.30137e-11
0.000182772 -5.4871e-05 -5.48147e-05 -2.6528e-06
0.00021873 -6.5656e-05 -6.56032e-05 -1.43746e-06
0.000255898 -7.68036e-05 -7.67549e-05 -8.4952e-11
0.000219938 -6.60188e-05 -6.59654e-05 -1.43694e-06
0.000219334 -6.58374e-05 -6.57843e-05 -1.43727e-06
0.000182269 -5.47196e-05 -5.46639e-05 -2.6532e-06
0.000181262 -5.4417e-05 -5.43622e-05 -2.65352e-06
0.000253783 -7.61686e-05 -7.61204e-05 -9.32246e-12
0.000255193 -7.65919e-05 -7.65433e-05 -3.00608e-11
0.000181765 -5.45683e-05 -5.4513e-05 -2.65341e-06
0.000217522 -6.52932e-05 -6.52409e-05 -1.43755e-06
0.000254488 -7.63803e-05 -7.63318e-05 1.04213e-12
0.00021873 -6.5656e-05 -6.56032e-05 -1.43746e-06
0.000218126 -6.54746e-05 -6.54221e-05 -1.43753e-06
0.000181262 -5.4417e-05 -5.43622e-05 -2.65352e-06
0.000180255 -5.41146e-05 -5.40604e-05 -2.65358e-06
0.000252373 -7.57453e-05 -7.56974e-05 1.06358e-12
0.000253783 -7.61686e-05 -7.61204e-05 -9.32246e-12
0.000180759 -5.42658e-05 -5.42113e-05 -2.65357e-06
0.000216314 -6.49304e-05 -6.48785e-05 -1.43751e-06
0.000253078 -7.59569e-05 -7.59089e-05 -8.53453e-12
0.000217522 -6.52932e-05 -6.52409e-05 -1.43755e-06
0.000216918 -6.51118e-05 -6.50597e-05 -1.43754e-06
0.000180255 -5.41146e-05 -5.40604e-05 -2.65358e-06
0.000179249 -5.38122e-05 -5.37585e-05 -2.65355e-06
0.000250963 -7.53221e-05 -7.52745e-05 1.11642e-12
0.000252373 -7.57453e-05 -7.56974e-05 1.06358e-12
0.000179752 -5.39634e-05 -5.39094e-05 -2.65357e-06
0.000215105 -6.45676e-05 -6.45161e-05 -1.43744e-06
0.000251668 -7.55337e-05 -7.5486e-05 4.35363e-12
0.000216314 -6.49304e-05 -6.48785e-05 -1.43751e-06
0.000215709 -6.4749e-05 -6.46973e-05 -1.43748e-06
0.000179249 -5.38122e-05 -5.37585e-05 -2.65355e-06
0.000178242 -5.35098e-05 -5.34566e-05 -2.65349e-06
0.000249553 -7.48989e-05 -7.48516e-05 2.49871e-12
0.000250963 -7.53221e-05 -7.52745e-05 1.11642e-12
0.000178745 -5.3661e-05 -5.36075e-05 -2.65352e-06
0.000213897 -6.42048e-05 -6.41537e-05 -1.43738e-06
0.000250258 -7.51105e-05 -7.50631e-05 1.54558e-12
0.000215105 -6.45676e-05 -6.45161e-05 -1.43744e-06
0.000214501 -6.43862e-05 -6.43349e-05 -1.43741e-06
0.000178242 -5.35098e-05 -5.34566e-05 -2.65349e-06
0.000177235 -5.32075e-05 -5.31547e-05 -2.65345e-06
0.000248143 -7.44757e-05 -7.44288e-05 1.08161e-12
0.000249553 -7.48989e-05 -7.48516e-05 2.49871e-12
0.000177739 -5.33587e-05 -5.33056e-05 -2.65347e-06
0.000212689 -6.3842e-05 -6.37914e-05 -1.43734e-06
0.000248848 -7.46873e-05 -7.46402e-05 2.10259e-12
0.000213897 -6.42048e-05 -6.41537e-05 -1.43738e-06
0.000213293 -6.40234e-05 -6.39726e-05 -1.43736e-06
0.000177235 -5.32075e-05 -5.31547e-05 -2.65345e-06
0.000176228 -5.29051e-05 -5.28528e-05 -2.65342e-06
0.000246733 -7.40525e-05 -7.4006e-05 9.20599e-13
0.000248143 -7.44757e-05 -7.44288e-05 1.08161e-12
0.000176732 -5.30563e-05 -5.30038e-05 -2.65343e-06
0.00021148 -6.34792e-05 -6.3429e-05 -1.43731e-06
0.000247438 -7.42641e-05 -7.42174e-05 1.08132e-12
0.000212689 -6.3842e-05 -6.37914e-05 -1.43734e-06
0.000212084 -6.36606e-05 -6.36102e-05 -1.43732e-06
0.000176228 -5.29051e-05 -5.28528e-05 -2.65342e-06
0.000175222 -5.26028e-05 -5.25509e-05 -2.6534e-06
0.000245323 -7.36293e-05 -7.35831e-05 2.09027e-13
0.000246733 -7.40525e-05 -7.4006e-05 9.20599e-13
0.000175725 -5.27539e-05 -5.27019e-05 -2.65341e-06
0.000210272 -6.31165e-05 -6.30667e-05 -1.4373e-06
0.000246028 -7.38409e-05 -7.37945e-05 5.27495e-13
0.00021148 -6.34792e-05 -6.3429e-05 -1.43731e-06
0.000210876 -6.32979e-05 -6.32478e-05 -1.4373e-06
0.000175222 -5.26028e-05 -5.25509e-05 -2.6534e-06
0.000174215 -5.23004e-05 -5.2249e-05 -2.65338e-06
0.000243914 -7.32062e-05 -7.31603e-05 4.80542e-14
0.000245323 -7.36293e-05 -7.35831e-05 2.09027e-13
0.000174718 -5.24516e-05 -5.24e-05 -2.65339e-06
0.000209064 -6.27537e-05 -6.27043e-05 -1.43728e-06
0.000244618 -7.34177e-05 -7.33717e-05 1.73991e-13
0.000210272 -6.31165e-05 -6.30667e-05 -1.4373e-06
0.000209668 -6.29351e-05 -6.28855e-05 -1.43729e-06
0.000174215 -5.23004e-05 -5.2249e-05 -2.65338e-06
0.000173208 -5.1998e-05 -5.19471e-05 -2.65337e-06
0.000242504 -7.2783e-05 -7.27375e-05 -2.00688e-13
0.000243914 -7.32062e-05 -7.31603e-05 4.47356e-14
0.000173711 -5.21492e-05 -5.20981e-05 -2.65338e-06
0.000207855 -6.23909e-05 -6.23419e-05 -1.43728e-06
0.000243209 -7.29946e-05 -7.29489e-05 -1.17389e-13
0.000209064 -6.27537e-05 -6.27043e-05 -1.43728e-06
0.00020846 -6.25723e-05 -6.25231e-05 -1.43728e-06
0.000173208 -5.1998e-05 -5.19471e-05 -2.65337e-06
0.000172201 -5.16956e-05 -5.16452e-05 -2.65337e-06
0.000241094 -7.23598e-05 -7.23147e-05 -2.67341e-13
0.000242504 -7.2783e-05 -7.27375e-05 -2.00688e-13
0.000172705 -5.18468e-05 -5.17962e-05 -2.65337e-06
0.000206647 -6.20281e-05 -6.19796e-05 -1.43728e-06
0.000241799 -7.25714e-05 -7.25261e-05 -2.22307e-13
0.000207855 -6.23909e-05 -6.23419e-05 -1.43728e-06
0.000207251 -6.22095e-05 -6.21608e-05 -1.43728e-06
0.000172201 -5.16956e-05 -5.16452e-05 -2.65337e-06
0.000171194 -5.13933e-05 -5.13433e-05 -2.65337e-06
0.000239684 -7.19367e-05 -7.18919e-05 -3.34924e-13
0.000241094 -7.23598e-05 -7.23147e-05 -2.6734e-13
0.000171698 -5.15444e-05 -5.14943e-05 -2.65337e-06
0.000205439 -6.16654e-05 -6.16172e-05 -1.43727e-06
0.000240389 -7.21482e-05 -7.21033e-05 -3.15741e-13
0.000206647 -6.20281e-05 -6.19796e-05 -1.43728e-06
0.000206043 -6.18468e-05 -6.17984e-05 -1.43727e-06
0.000171194 -5.13933e-05 -5.13433e-05 -2.65337e-06
0.000170188 -5.10909e-05 -5.10414e-05 -2.65336e-06
0.000238275 -7.15135e-05 -7.1469e-05 -3.48669e-13
0.000239684 -7.19367e-05 -7.18919e-05 -3.34924e-13
0.000170691 -5.12421e-05 -5.11924e-05 -2.65336e-06
0.000204231 -6.13026e-05 -6.12549e-05 -1.43727e-06
0.000238979 -7.17251e-05 -7.16804e-05 -3.41884e-13
0.000205439 -6.16654e-05 -6.16172e-05 -1.43727e-06
0.000204835 -6.1484e-05 -6.14361e-05 -1.43727e-06
0.000170188 -5.10909e-05 -5.10414e-05 -2.65336e-06
0.000169181 -5.07885e-05 -5.07395e-05 -2.65336e-06
0.000236865 -7.10903e-05 -7.10462e-05 -3.63924e-13
0.000238275 -7.15135e-05 -7.1469e-05 -3.51285e-13
0.000169684 -5.09397e-05 -5.08905e-05 -2.65336e-06
0.000203022 -6.09398e-05 -6.08925e-05 -1.43727e-06
0.00023757 -7.13019e-05 -7.12576e-05 -3.59735e-13
0.000204231 -6.13026e-05 -6.12549e-05 -1.43727e-06
0.000203627 -6.11212e-05 -6.10737e-05 -1.43727e-06
0.000169181 -5.07885e-05 -5.07395e-05 -2.65336e-06
0.000168174 -5.04861e-05 -5.04377e-05 -2.65336e-06
0.000235455 -7.06672e-05 -7.06234e-05 -3.60519e-13
0.000236865 -7.10903e-05 -7.10462e-05 -3.63924e-13
0.000168677 -5.06373e-05 -5.05886e-05 -2.65336e-06
0.000201814 -6.0577e-05 -6.05302e-05 -1.43727e-06
0.00023616 -7.08787e-05 -7.08348e-05 -3.6284e-13
0.000203022 -6.09398e-05 -6.08925e-05 -1.43727e-06
0.000202418 -6.07584e-05 -6.07114e-05 -1.43727e-06
0.000168174 -5.04861e-05 -5.04377e-05 -2.65336e-06
0.000167167 -5.01837e-05 -5.01358e-05 -2.65336e-06
0.000234045 -7.0244e-05 -7.02006e-05 -3.64305e-13
0.000235455 -7.06672e-05 -7.06234e-05 -3.66802e-13
0.000167671 -5.03349e-05 -5.02867e-05 -2.65336e-06
0.000200606 -6.02142e-05 -6.01678e-05 -1.43727e-06
0.00023475 -7.04556e-05 -7.0412e-05 -3.62016e-13
0.000201814 -6.0577e-05 -6.05302e-05 -1.43727e-06
0.00020121 -6.03956e-05 -6.0349e-05 -1.43727e-06
0.000167167 -5.01837e-05 -5.01358e-05 -2.65336e-06
0.00016616 -4.98813e-05 -4.98339e-05 -2.65335e-06
0.000232636 -6.98208e-05 -6.97778e-05 -3.63638e-13
0.000234045 -7.0244e-05 -7.02006e-05 -3.64305e-13
0.000166664 -5.00325e-05 -4.99848e-05 -2.65335e-06
0.000199398 -5.98515e-05 -5.98055e-05 -1.43726e-06
0.00023334 -7.00324e-05 -6.99892e-05 -3.65018e-13
0.000200606 -6.02142e-05 -6.01678e-05 -1.43727e-06
0.000200002 -6.00329e-05 -5.99867e-05 -1.43727e-06
0.00016616 -4.98813e-05 -4.98339e-05 -2.65335e-06
0.000165154 -4.9579e-05 -4.9532e-05 -2.65335e-06
0.000231226 -6.93976e-05 -6.9355e-05 -3.64271e-13
0.000232636 -6.98208e-05 -6.97778e-05 -3.66957e-13
0.000165657 -4.97301e-05 -4.96829e-05 -2.65335e-06
0.000198189 -5.94887e-05 -5.94432e-05 -1.43726e-06
0.000231931 -6.96092e-05 -6.95664e-05 -3.58942e-13
0.000199398 -5.98515e-05 -5.98055e-05 -1.43726e-06
0.000198793 -5.96701e-05 -5.96243e-05 -1.43726e-06
0.000165154 -4.9579e-05 -4.9532e-05 -2.65335e-06
0.000164147 -4.92766e-05 -4.92301e-05 -2.65335e-06
0.000229816 -6.89745e-05 -6.89322e-05 -3.59691e-13
0.000231226 -6.93976e-05 -6.9355e-05 -3.64271e-13
0.00016465 -4.94278e-05 -4.9381e-05 -2.65335e-06
0.000196981 -5.91259e-05 -5.90808e-05 -1.43726e-06
0.000230521 -6.9186e-05 -6.91436e-05 -3.54164e-13
0.000198189 -5.94887e-05 -5.94432e-05 -1.43726e-06
0.000197585 -5.93073e-05 -5.9262e-05 -1.43726e-06
0.000164147 -4.92766e-05 -4.92301e-05 -2.65335e-06
0.00016314 -4.89742e-05 -4.89282e-05 -2.65335e-06
0.000228406 -6.85513e-05 -6.85093e-05 -3.46517e-13
0.000229816 -6.89745e-05 -6.89322e-05 -3.52577e-13
0.000163643 -4.91254e-05 -4.90792e-05 -2.65335e-06
0.000195773 -5.87631e-05 -5.87185e-05 -1.43726e-06
0.000229111 -6.87629e-05 -6.87208e-05 -3.55753e-13
0.000196981 -5.91259e-05 -5.90808e-05 -1.43726e-06
0.000196377 -5.89445e-05 -5.88996e-05 -1.43726e-06
0.00016314 -4.89742e-05 -4.89282e-05 -2.65335e-06
0.000162133 -4.86718e-05 -4.86263e-05 -2.65334e-06
0.000226997 -6.81281e-05 -6.80865e-05 -3.5432e-13
0.000228406 -6.85513e-05 -6.85093e-05 -3.46517e-13
0.000162637 -4.8823e-05 -4.87773e-05 -2.65335e-06
0.000194565 -5.84003e-05 -5.83561e-05 -1.43726e-06
0.000227702 -6.83397e-05 -6.82979e-05 -3.58459e-13
0.000195773 -5.87631e-05 -5.87185e-05 -1.43726e-06
0.000195169 -5.85817e-05 -5.85373e-05 -1.43726e-06
0.000162133 -4.86718e-05 -4.86263e-05 -2.65334e-06
0.000161126 -4.83694e-05 -4.83244e-05 -2.65334e-06
0.000225587 -6.77049e-05 -6.76637e-05 -3.48519e-13
0.000226997 -6.81281e-05 -6.80865e-05 -3.54318e-13
0.00016163 -4.85206e-05 -4.84754e-05 -2.65334e-06
0.000193356 -5.80375e-05 -5.79938e-05 -1.43726e-06
0.000226292 -6.79165e-05 -6.78751e-05 -3.47018e-13
0.000194565 -5.84003e-05 -5.83561e-05 -1.43726e-06
0.00019396 -5.82189e-05 -5.81749e-05 -1.43726e-06
0.000161126 -4.83694e-05 -4.83244e-05 -2.65334e-06
0.00016012 -4.8067e-05 -4.80225e-05 -2.65334e-06
0.000224177 -6.72817e-05 -6.72409e-05 -3.41677e-13
0.000225587 -6.77049e-05 -6.76637e-05 -3.48519e-13
0.000160623 -4.82182e-05 -4.81735e-05 -2.65334e-06
0.000192148 -5.76747e-05 -5.76314e-05 -1.43726e-06
0.000224882 -6.74933e-05 -6.74523e-05 -3.54333e-13
0.000193356 -5.80375e-05 -5.79938e-05 -1.43726e-06
0.000192752 -5.78561e-05 -5.78126e-05 -1.43726e-06
0.00016012 -4.8067e-05 -4.80225e-05 -2.65334e-06
0.000159113 -4.77646e-05 -4.77207e-05 -2.65334e-06
0.000222768 -6.68586e-05 -6.68181e-05 -3.40608e-13
0.000224177 -6.72817e-05 -6.72409e-05 -3.38358e-13
0.000159616 -4.79158e-05 -4.78716e-05 -2.65334e-06
0.00019094 -5.7312e-05 -5.72691e-05 -1.43726e-06
0.000223472 -6.70702e-05 -6.70295e-05 -3.35368e-13
0.000192148 -5.76747e-05 -5.76314e-05 -1.43726e-06
0.000191544 -5.74933e-05 -5.74503e-05 -1.43726e-06
0.000159113 -4.77646e-05 -4.77207e-05 -2.65334e-06
0.000158106 -4.74622e-05 -4.74188e-05 -2.65334e-06
0.000221358 -6.64354e-05 -6.63953e-05 -3.31881e-13
0.000222768 -6.68586e-05 -6.68181e-05 -3.40608e-13
0.000158609 -4.76134e-05 -4.75697e-05 -2.65334e-06
0.000189732 -5.69492e-05 -5.69067e-05 -1.43725e-06
0.000222063 -6.6647e-05 -6.66067e-05 -3.3667e-13
0.00019094 -5.7312e-05 -5.72691e-05 -1.43726e-06
0.000190336 -5.71306e-05 -5.70879e-05 -1.43726e-06
0.000158106 -4.74622e-05 -4.74188e-05 -2.65334e-06
0.000157099 -4.71599e-05 -4.71169e-05 -2.65334e-06
0.000219948 -6.60122e-05 -6.59725e-05 -3.31053e-13
0.000221358 -6.64354e-05 -6.63953e-05 -3.31881e-13
0.000157603 -4.7311e-05 -4.72678e-05 -2.65334e-06
0.000188523 -5.65864e-05 -5.65444e-05 -1.43725e-06
0.000220653 -6.62238e-05 -6.61839e-05 -3.392e-13
0.000189732 -5.69492e-05 -5.69067e-05 -1.43725e-06
0.000189127 -5.67678e-05 -5.67256e-05 -1.43725e-06
0.000157099 -4.71599e-05 -4.71169e-05 -2.65334e-06
0.000156092 -4.68575e-05 -4.6815e-05 -2.65333e-06
0.000218538 -6.5589e-05 -6.55497e-05 -3.34051e-13
0.000219948 -6.60122e-05 -6.59725e-05 -3.38381e-13
0.000156596 -4.70087e-05 -4.69659e-05 -2.65333e-06
0.000187315 -5.62236e-05 -5.61821e-05 -1.43725e-06
0.000219243 -6.58006e-05 -6.57611e-05 -3.27026e-13
0.000188523 -5.65864e-05 -5.65444e-05 -1.43725e-06
0.000187919 -5.6405e-05 -5.63632e-05 -1.43725e-06
0.000156092 -4.68575e-05 -4.6815e-05 -2.65333e-06
0.000155086 -4.65551e-05 -4.65131e-05 -2.65333e-06
0.000217129 -6.51658e-05 -6.51269e-05 -3.29969e-13
0.000218538 -6.5589e-05 -6.55497e-05 -3.34051e-13
0.000155589 -4.67063e-05 -4.6664e-05 -2.65333e-06
0.000186107 -5.58608e-05 -5.58197e-05 -1.43725e-06
0.000217833 -6.53774e-05 -6.53383e-05 -3.31223e-13
0.000187315 -5.62236e-05 -5.61821e-05 -1.43725e-06
0.000186711 -5.60422e-05 -5.60009e-05 -1.43725e-06
0.000155086 -4.65551e-05 -4.65131e-05 -2.65333e-06
0.000154079 -4.62527e-05 -4.62112e-05 -2.65333e-06
0.000215719 -6.47426e-05 -6.47041e-05 -3.19505e-13
0.000217129 -6.51658e-05 -6.51269e-05 -3.37077e-13
0.000154582 -4.64039e-05 -4.63622e-05 -2.65333e-06
0.000184899 -5.5498e-05 -5.54574e-05 -1.43725e-06
0.000216424 -6.49542e-05 -6.49155e-05 -3.14034e-13
0.000186107 -5.58608e-05 -5.58197e-05 -1.43725e-06
0.000185503 -5.56794e-05 -5.56385e-05 -1.43725e-06
0.000154079 -4.62527e-05 -4.62112e-05 -2.65333e-06
0.000153072 -4.59503e-05 -4.59093e-05 -2.65333e-06
0.000214309 -6.43194e-05 -6.42813e-05 -3.28248e-13
0.000215719 -6.47426e-05 -6.47041e-05 -3.19505e-13
0.000153575 -4.61015e-05 -4.60603e-05 -2.65333e-06
0.00018369 -5.51352e-05 -5.5095e-05 -1.43725e-06
0.000215014 -6.4531e-05 -6.44927e-05 -3.17838e-13
0.000184899 -5.5498e-05 -5.54574e-05 -1.43725e-06
0.000184294 -5.53166e-05 -5.52762e-05 -1.43725e-06
0.000153072 -4.59503e-05 -4.59093e-05 -2.65333e-06
0.000152065 -4.56479e-05 -4.56074e-05 -2.65333e-06
0.000212899 -6.38963e-05 -6.38585e-05 -3.14906e-13
0.000214309 -6.43194e-05 -6.42813e-05 -3.21262e-13
0.000152569 -4.57991e-05 -4.57584e-05 -2.65333e-06
0.000182482 -5.47724e-05 -5.47327e-05 -1.43725e-06
0.000213604 -6.41079e-05 -6.40699e-05 -3.17647e-13
0.00018369 -5.51352e-05 -5.5095e-05 -1.43725e-06
0.000183086 -5.49538e-05 -5.49139e-05 -1.43725e-06
0.000152065 -4.56479e-05 -4.56074e-05 -2.65333e-06
0.000151058 -4.53455e-05 -4.53055e-05 -2.65332e-06
0.00021149 -6.34731e-05 -6.34357e-05 -3.19415e-13
0.000212899 -6.38963e-05 -6.38585e-05 -3.14906e-13
0.000151562 -4.54967e-05 -4.54565e-05 -2.65332e-06
0.000181274 -5.44096e-05 -5.43703e-05 -1.43725e-06
0.000212195 -6.36847e-05 -6.36471e-05 -3.13369e-13
0.000182482 -5.47724e-05 -5.47327e-05 -1.43725e-06
0.000181878 -5.4591e-05 -5.45515e-05 -1.43725e-06
0.000151058 -4.53455e-05 -4.53055e-05 -2.65332e-06
0.000150052 -4.50431e-05 -4.50037e-05 -2.65332e-06
0.00021008 -6.30499e-05 -6.30129e-05 -3.19995e-13
0.00021149 -6.34731e-05 -6.34357e-05 -3.1313e-13
0.000150555 -4.51943e-05 -4.51546e-05 -2.65332e-06
0.000180065 -5.40468e-05 -5.4008e-05 -1.43724e-06
0.000210785 -6.32615e-05 -6.32243e-05 -3.22418e-13
0.000181274 -5.44096e-05 -5.43703e-05 -1.43725e-06
0.00018067 -5.42282e-05 -5.41892e-05 -1.43725e-06
0.000150052 -4.50431e-05 -4.50037e-05 -2.65332e-06
0.000149045 -4.47407e-05 -4.47018e-05 -2.65332e-06
0.00020867 -6.26267e-05 -6.25901e-05 -3.11978e-13
0.00021008 -6.30499e-05 -6.30129e-05 -3.19995e-13
0.000149548 -4.48919e-05 -4.48527e-05 -2.65332e-06
0.000178857 -5.3684e-05 -5.36457e-05 -1.43724e-06
0.000209375 -6.28383e-05 -6.28015e-05 -3.01083e-13
0.000180065 -5.40468e-05 -5.4008e-05 -1.43724e-06
0.000179461 -5.38654e-05 -5.38268e-05 -1.43724e-06
0.000149045 -4.47407e-05 -4.47018e-05 -2.65332e-06
0.000148038 -4.44383e-05 -4.43999e-05 -2.65332e-06
0.00020726 -6.22035e-05 -6.21673e-05 -3.13561e-13
0.00020867 -6.26267e-05 -6.25901e-05 -3.05344e-13
0.000148541 -4.45895e-05 -4.45508e-05 -2.65332e-06
0.000177649 -5.33212e-05 -5.32833e-05 -1.43724e-06
0.000207965 -6.24151e-05 -6.23787e-05 -3.07266e-13
0.000178857 -5.3684e-05 -5.36457e-05 -1.43724e-06
0.000178253 -5.35026e-05 -5.34645e-05 -1.43724e-06
0.000148038 -4.44383e-05 -4.43999e-05 -2.65332e-06
0.000147031 -4.41359e-05 -4.4098e-05 -2.65332e-06
0.000205851 -6.17803e-05 -6.17445e-05 -2.98323e-13
0.00020726 -6.22035e-05 -6.21673e-05 -3.13561e-13
0.000147535 -4.42871e-05 -4.42489e-05 -2.65332e-06
0.000176441 -5.29584e-05 -5.2921e-05 -1.43724e-06
0.000206556 -6.19919e-05 -6.19559e-05 -3.05613e-13
0.000177649 -5.33212e-05 -5.32833e-05 -1.43724e-06
0.000177045 -5.31398e-05 -5.31021e-05 -1.43724e-06
0.000147031 -4.41359e-05 -4.4098e-05 -2.65332e-06
0.000146024 -4.38335e-05 -4.37961e-05 -2.65331e-06
0.000204441 -6.13571e-05 -6.13217e-05 -2.95755e-13
0.000205851 -6.17803e-05 -6.17445e-05 -2.98323e-13
0.000146528 -4.39847e-05 -4.3947e-05 -2.65331e-06
0.000175232 -5.25956e-05 -5.25586e-05 -1.43724e-06
0.000205146 -6.15687e-05 -6.15331e-05 -3.06149e-13
0.000176441 -5.29584e-05 -5.2921e-05 -1.43724e-06
0.000175837 -5.2777e-05 -5.27398e-05 -1.43724e-06
0.000146024 -4.38335e-05 -4.37961e-05 -2.65331e-06
0.000145018 -4.35312e-05 -4.34942e-05 -2.65331e-06
0.000203031 -6.09339e-05 -6.08989e-05 -2.77912e-13
0.000204441 -6.13571e-05 -6.13217e-05 -2.89118e-13
0.000145521 -4.36823e-05 -4.36452e-05 -2.65331e-06
0.000174024 -5.22328e-05 -5.21963e-05 -1.43724e-06
0.000203736 -6.11455e-05 -6.11103e-05 -2.9402e-13
0.000175232 -5.25956e-05 -5.25586e-05 -1.43724e-06
0.000174628 -5.24142e-05 -5.23775e-05 -1.43724e-06
0.000145018 -4.35312e-05 -4.34942e-05 -2.65331e-06
0.000144011 -4.32288e-05 -4.31923e-05 -2.65331e-06
0.000201622 -6.05107e-05 -6.04761e-05 -2.92408e-13
0.000203031 -6.09339e-05 -6.08989e-05 -2.84193e-13
0.000144514 -4.338e-05 -4.33433e-05 -2.65331e-06
0.000172816 -5.187e-05 -5.1834e-05 -1.43724e-06
0.000202326 -6.07223e-05 -6.06875e-05 -2.77365e-13
0.000174024 -5.22328e-05 -5.21963e-05 -1.43724e-06
0.00017342 -5.20514e-05 -5.20151e-05 -1.43724e-06
0.000144011 -4.32288e-05 -4.31923e-05 -2.65331e-06
0.000143004 -4.29264e-05 -4.28904e-05 -2.65331e-06
0.000200212 -6.00875e-05 -6.00533e-05 -2.77534e-13
0.000201622 -6.05107e-05 -6.04761e-05 -2.92408e-13
0.000143507 -4.30776e-05 -4.30414e-05 -2.65331e-06
0.000171608 -5.15072e-05 -5.14716e-05 -1.43724e-06
0.000200917 -6.02991e-05 -6.02647e-05 -2.76622e-13
0.000172816 -5.187e-05 -5.1834e-05 -1.43724e-06
0.000172212 -5.16886e-05 -5.16528e-05 -1.43724e-06
0.000143004 -4.29264e-05 -4.28904e-05 -2.65331e-06
0.000141997 -4.2624e-05 -4.25885e-05 -2.65331e-06
0.000198802 -5.96643e-05 -5.96305e-05 -2.9469e-13
0.000200212 -6.00875e-05 -6.00533e-05 -2.77534e-13
0.000142501 -4.27752e-05 -4.27395e-05 -2.65331e-06
0.000170399 -5.11444e-05 -5.11093e-05 -1.43723e-06
0.000199507 -5.98759e-05 -5.98419e-05 -2.84752e-13
0.000171608 -5.15072e-05 -5.14716e-05 -1.43724e-06
0.000171004 -5.13258e-05 -5.12904e-05 -1.43724e-06
0.000141997 -4.2624e-05 -4.25885e-05 -2.65331e-06
0.00014099 -4.23216e-05 -4.22866e-05 -2.6533e-06
0.000197392 -5.92411e-05 -5.92077e-05 -2.81754e-13
0.000198802 -5.96643e-05 -5.96305e-05 -2.95048e-13
0.000141494 -4.24728e-05 -4.24376e-05 -2.6533e-06
0.000169191 -5.07816e-05 -5.07469e-05 -1.43723e-06
0.000198097 -5.94527e-05 -5.94191e-05 -2.85827e-13
0.000170399 -5.11444e-05 -5.11093e-05 -1.43723e-06
0.000169795 -5.0963e-05 -5.09281e-05 -1.43723e-06
0.00014099 -4.23216e-05 -4.22866e-05 -2.6533e-06
0.000139984 -4.20192e-05 -4.19848e-05 -2.6533e-06
0.000195983 -5.88179e-05 -5.87849e-05 -2.85189e-13
0.000197392 -5.92411e-05 -5.92077e-05 -2.88046e-13
0.000140487 -4.21704e-05 -4.21357e-05 -2.6533e-06
0.000167983 -5.04188e-05 -5.03846e-05 -1.43723e-06
0.000196688 -5.90295e-05 -5.89963e-05 -2.78866e-13
0.000169191 -5.07816e-05 -5.07469e-05 -1.43723e-06
0.000168587 -5.06002e-05 -5.05658e-05 -1.43723e-06
0.000139984 -4.20192e-05 -4.19848e-05 -2.6533e-06
0.000138977 -4.17168e-05 -4.16829e-05 -2.6533e-06
0.000194573 -5.83947e-05 -5.83621e-05 -2.81788e-13
0.000195983 -5.88179e-05 -5.87849e-05 -2.85189e-13
0.00013948 -4.1868e-05 -4.18338e-05 -2.6533e-06
0.000166775 -5.0056e-05 -5.00223e-05 -1.43723e-06
0.000195278 -5.86063e-05 -5.85735e-05 -2.96302e-13
0.000167983 -5.04188e-05 -5.03846e-05 -1.43723e-06
0.000167379 -5.02374e-05 -5.02034e-05 -1.43723e-06
0.000138977 -4.17168e-05 -4.16829e-05 -2.6533e-06
0.00013797 -4.14144e-05 -4.1381e-05 -2.6533e-06
0.000193163 -5.79715e-05 -5.79393e-05 -2.73792e-13
0.000194573 -5.83947e-05 -5.83621e-05 -2.81788e-13
0.000138473 -4.15656e-05 -4.15319e-05 -2.6533e-06
0.000165566 -4.96932e-05 -4.96599e-05 -1.43723e-06
0.000193868 -5.81831e-05 -5.81507e-05 -2.87281e-13
0.000166775 -5.0056e-05 -5.00223e-05 -1.43723e-06
0.00016617 -4.98746e-05 -4.98411e-05 -1.43723e-06
0.00013797 -4.14144e-05 -4.1381e-05 -2.6533e-06
0.000136963 -4.1112e-05 -4.10791e-05 -2.6533e-06
0.000191753 -5.75483e-05 -5.75165e-05 -2.68344e-13
0.000193163 -5.79715e-05 -5.79393e-05 -2.73799e-13
0.000137467 -4.12632e-05 -4.123e-05 -2.6533e-06
0.000164358 -4.93304e-05 -4.92976e-05 -1.43723e-06
0.000192458 -5.77599e-05 -5.77279e-05 -2.71918e-13
0.000165566 -4.96932e-05 -4.96599e-05 -1.43723e-06
0.000164962 -4.95118e-05 -4.94787e-05 -1.43723e-06
0.000136963 -4.1112e-05 -4.10791e-05 -2.6533e-06
0.000135956 -4.08096e-05 -4.07772e-05 -2.65329e-06
0.000190344 -5.71251e-05 -5.70937e-05 -2.76947e-13
0.000191753 -5.75483e-05 -5.75165e-05 -2.61359e-13
0.00013646 -4.09608e-05 -4.09281e-05 -2.65329e-06
0.00016315 -4.89676e-05 -4.89352e-05 -1.43723e-06
0.000191049 -5.73367e-05 -5.73051e-05 -2.7423e-13
0.000164358 -4.93304e-05 -4.92976e-05 -1.43723e-06
0.000163754 -4.9149e-05 -4.91164e-05 -1.43723e-06
0.000135956 -4.08096e-05 -4.07772e-05 -2.65329e-06
0.00013495 -4.05072e-05 -4.04753e-05 -2.65329e-06
0.000188934 -5.67019e-05 -5.66709e-05 -2.6763e-13
0.000190344 -5.71251e-05 -5.70937e-05 -2.76947e-13
0.000135453 -4.06584e-05 -4.06262e-05 -2.65329e-06
0.000161942 -4.86048e-05 -4.85729e-05 -1.43723e-06
0.000189639 -5.69135e-05 -5.68823e-05 -2.6705e-13
0.00016315 -4.89676e-05 -4.89352e-05 -1.43723e-06
0.000162546 -4.87862e-05 -4.87541e-05 -1.43723e-06
0.00013495 -4.05072e-05 -4.04753e-05 -2.65329e-06
0.000133943 -4.02048e-05 -4.01734e-05 -2.65329e-06
0.000187524 -5.62787e-05 -5.62481e-05 -2.70129e-13
0.000188934 -5.67019e-05 -5.66709e-05 -2.6763e-13
0.000134446 -4.0356e-05 -4.03244e-05 -2.65329e-06
0.000160733 -4.8242e-05 -4.82105e-05 -1.43722e-06
0.000188229 -5.64903e-05 -5.64595e-05 -2.59867e-13
0.000161942 -4.86048e-05 -4.85729e-05 -1.43723e-06
0.000161337 -4.84234e-05 -4.83917e-05 -1.43722e-06
0.000133943 -4.02048e-05 -4.01734e-05 -2.65329e-06
0.000132936 -3.99024e-05 -3.98715e-05 -2.65329e-06
0.000186115 -5.58555e-05 -5.58253e-05 -2.61593e-13
0.000187524 -5.62787e-05 -5.62481e-05 -2.65155e-13
0.000133439 -4.00536e-05 -4.00225e-05 -2.65329e-06
0.000159525 -4.78792e-05 -4.78482e-05 -1.43722e-06
0.000186819 -5.60671e-05 -5.60367e-05 -2.63282e-13
0.000160733 -4.8242e-05 -4.82105e-05 -1.43722e-06
0.000160129 -4.80606e-05 -4.80294e-05 -1.43722e-06
0.000132936 -3.99024e-05 -3.98715e-05 -2.65329e-06
0.000131929 -3.96e-05 -3.95696e-05 -2.65329e-06
0.000184705 -5.54323e-05 -5.54025e-05 -2.49743e-13
0.000186115 -5.58555e-05 -5.58253e-05 -2.62553e-13
0.000132433 -3.97512e-05 -3.97206e-05 -2.65329e-06
0.000158317 -4.75164e-05 -4.74859e-05 -1.43722e-06
0.00018541 -5.56439e-05 -5.56139e-05 -2.58187e-13
0.000159525 -4.78792e-05 -4.78482e-05 -1.43722e-06
0.000158921 -4.76978e-05 -4.7667e-05 -1.43722e-06
0.000131929 -3.96e-05 -3.95696e-05 -2.65329e-06
0.000130922 -3.92976e-05 -3.92677e-05 -2.65328e-06
0.000183295 -5.50091e-05 -5.49797e-05 -2.59181e-13
0.000184705 -5.54323e-05 -5.54025e-05 -2.49743e-13
0.000131426 -3.94488e-05 -3.94187e-05 -2.65328e-06
0.000157108 -4.71536e-05 -4.71235e-05 -1.43722e-06
0.000184 -5.52207e-05 -5.51911e-05 -2.48165e-13
0.000158317 -4.75164e-05 -4.74859e-05 -1.43722e-06
0.000157713 -4.7335e-05 -4.73047e-05 -1.43722e-06
0.000130922 -3.92976e-05 -3.92677e-05 -2.65328e-06
0.000129916 -3.89952e-05 -3.89658e-05 -2.65328e-06
0.000181885 -5.45859e-05 -5.45569e-05 -2.46582e-13
0.000183295 -5.50091e-05 -5.49797e-05 -2.59181e-13
0.000130419 -3.91464e-05 -3.91168e-05 -2.65328e-06
0.0001559 -4.67908e-05 -4.67612e-05 -1.43722e-06
0.00018259 -5.47975e-05 -5.47683e-05 -2.56876e-13
0.000157108 -4.71536e-05 -4.71235e-05 -1.43722e-06
0.000156504 -4.69722e-05 -4.69424e-05 -1.43722e-06
0.000129916 -3.89952e-05 -3.89658e-05 -2.65328e-06
0.000128909 -3.86929e-05 -3.86639e-05 -2.65328e-06
0.000180476 -5.41627e-05 -5.41341e-05 -2.43036e-13
0.000181885 -5.45859e-05 -5.45569e-05 -2.58191e-13
0.000129412 -3.88441e-05 -3.88149e-05 -2.65328e-06
0.000154692 -4.6428e-05 -4.63988e-05 -1.43722e-06
0.000181181 -5.43743e-05 -5.43455e-05 -2.4802e-13
0.0001559 -4.67908e-05 -4.67612e-05 -1.43722e-06
0.000155296 -4.66094e-05 -4.658e-05 -1.43722e-06
0.000128909 -3.86929e-05 -3.86639e-05 -2.65328e-06
0.000127902 -3.83905e-05 -3.8362e-05 -2.65328e-06
0.000179066 -5.37395e-05 -5.37114e-05 -2.31198e-13
0.000180476 -5.41627e-05 -5.41341e-05 -2.5595e-13
0.000128405 -3.85417e-05 -3.8513e-05 -2.65328e-06
0.000153484 -4.60652e-05 -4.60365e-05 -1.43722e-06
0.000179771 -5.39511e-05 -5.39227e-05 -2.49016e-13
0.000154692 -4.6428e-05 -4.63988e-05 -1.43722e-06
0.000154088 -4.62466e-05 -4.62177e-05 -1.43722e-06
0.000127902 -3.83905e-05 -3.8362e-05 -2.65328e-06
0.000126895 -3.80881e-05 -3.80601e-05 -2.65328e-06
0.000177656 -5.33163e-05 -5.32886e-05 -2.25231e-13
0.000179066 -5.37395e-05 -5.37114e-05 -2.31198e-13
0.000127398 -3.82393e-05 -3.82111e-05 -2.65328e-06
0.000152275 -4.57024e-05 -4.56742e-05 -1.43722e-06
0.000178361 -5.35279e-05 -5.35e-05 -2.31467e-13
0.000153484 -4.60652e-05 -4.60365e-05 -1.43722e-06
0.00015288 -4.58838e-05 -4.58553e-05 -1.43722e-06
0.000126895 -3.80881e-05 -3.80601e-05 -2.65328e-06
0.000125888 -3.77857e-05 -3.77582e-05 -2.65327e-06
0.000176246 -5.2893e-05 -5.28658e-05 -2.36261e-13
0.000177656 -5.33163e-05 -5.32886e-05 -2.25231e-13
0.000126392 -3.79369e-05 -3.79092e-05 -2.65327e-06
0.000151067 -4.53396e-05 -4.53118e-05 -1.43721e-06
0.000176951 -5.31047e-05 -5.30772e-05 -2.55586e-13
0.000152275 -4.57024e-05 -4.56742e-05 -1.43722e-06
0.000151671 -4.5521e-05 -4.5493e-05 -1.43721e-06
0.000125888 -3.77857e-05 -3.77582e-05 -2.65327e-06
0.000124881 -3.74833e-05 -3.74564e-05 -2.65327e-06
0.000174837 -5.24698e-05 -5.2443e-05 -2.37906e-13
0.000176246 -5.2893e-05 -5.28658e-05 -2.36257e-13
0.000125385 -3.76345e-05 -3.76073e-05 -2.65327e-06
0.000149859 -4.49768e-05 -4.49495e-05 -1.43721e-06
0.000175542 -5.26814e-05 -5.26544e-05 -2.55293e-13
0.000151067 -4.53396e-05 -4.53118e-05 -1.43721e-06
0.000150463 -4.51582e-05 -4.51306e-05 -1.43721e-06
0.000124881 -3.74833e-05 -3.74564e-05 -2.65327e-06
0.000123875 -3.71809e-05 -3.71545e-05 -2.65327e-06
0.000173427 -5.20466e-05 -5.20202e-05 -2.32069e-13
0.000174837 -5.24698e-05 -5.2443e-05 -2.43838e-13
0.000124378 -3.73321e-05 -3.73054e-05 -2.65327e-06
0.000148651 -4.4614e-05 -4.45871e-05 -1.43721e-06
0.000174132 -5.22582e-05 -5.22316e-05 -2.51275e-13
0.000149859 -4.49768e-05 -4.49495e-05 -1.43721e-06
0.000149255 -4.47954e-05 -4.47683e-05 -1.43721e-06
0.000123875 -3.71809e-05 -3.71545e-05 -2.65327e-06
0.000122868 -3.68785e-05 -3.68526e-05 -2.65327e-06
0.000172017 -5.16234e-05 -5.15974e-05 -2.53993e-13
0.000173427 -5.20466e-05 -5.20202e-05 -2.32069e-13
0.000123371 -3.70297e-05 -3.70035e-05 -2.65327e-06
0.000147442 -4.42512e-05 -4.42248e-05 -1.43721e-06
0.000172722 -5.1835e-05 -5.18088e-05 -2.60404e-13
0.000148651 -4.4614e-05 -4.45871e-05 -1.43721e-06
0.000148046 -4.44326e-05 -4.4406e-05 -1.43721e-06
0.000122868 -3.68785e-05 -3.68526e-05 -2.65327e-06
0.000121861 -3.65761e-05 -3.65507e-05 -2.65327e-06
0.000170608 -5.12002e-05 -5.11746e-05 -2.34957e-13
0.000172017 -5.16234e-05 -5.15974e-05 -2.53993e-13
0.000122364 -3.67273e-05 -3.67016e-05 -2.65327e-06
0.000146234 -4.38884e-05 -4.38624e-05 -1.43721e-06
0.000171312 -5.14118e-05 -5.1386e-05 -2.36147e-13
0.000147442 -4.42512e-05 -4.42248e-05 -1.43721e-06
0.000146838 -4.40698e-05 -4.40436e-05 -1.43721e-06
0.000121861 -3.65761e-05 -3.65507e-05 -2.65327e-06
0.000120854 -3.62737e-05 -3.62488e-05 -2.65326e-06
0.000169198 -5.0777e-05 -5.07518e-05 -2.19989e-13
0.000170608 -5.12002e-05 -5.11746e-05 -2.35308e-13
0.000121358 -3.64249e-05 -3.63997e-05 -2.65326e-06
0.000145026 -4.35256e-05 -4.35001e-05 -1.43721e-06
0.000169903 -5.09886e-05 -5.09632e-05 -2.42729e-13
0.000146234 -4.38884e-05 -4.38624e-05 -1.43721e-06
0.00014563 -4.3707e-05 -4.36813e-05 -1.43721e-06
0.000120854 -3.62737e-05 -3.62488e-05 -2.65326e-06
0.000119847 -3.59713e-05 -3.59469e-05 -2.65326e-06
0.000167788 -5.03538e-05 -5.0329e-05 -2.25915e-13
0.000169198 -5.0777e-05 -5.07518e-05 -2.3292e-13
0.000120351 -3.61225e-05 -3.60978e-05 -2.65326e-06
0.000143818 -4.31628e-05 -4.31378e-05 -1.43721e-06
0.000168493 -5.05654e-05 -5.05404e-05 -2.06248e-13
0.000145026 -4.35256e-05 -4.35001e-05 -1.43721e-06
0.000144422 -4.33442e-05 -4.33189e-05 -1.43721e-06
0.000119847 -3.59713e-05 -3.59469e-05 -2.65326e-06
0.000118841 -3.56689e-05 -3.5645e-05 -2.65326e-06
0.000166378 -4.99306e-05 -4.99062e-05 -2.21805e-13
0.000167788 -5.03538e-05 -5.0329e-05 -2.25915e-13
0.000119344 -3.58201e-05 -3.57959e-05 -2.65326e-06
0.000142609 -4.28e-05 -4.27754e-05 -1.43721e-06
0.000167083 -5.01422e-05 -5.01176e-05 -2.29172e-13
0.000143818 -4.31628e-05 -4.31378e-05 -1.43721e-06
0.000143213 -4.29814e-05 -4.29566e-05 -1.43721e-06
0.000118841 -3.56689e-05 -3.5645e-05 -2.65326e-06
0.000117834 -3.53666e-05 -3.53431e-05 -2.65326e-06
0.000164969 -4.95074e-05 -4.94834e-05 -2.26807e-13
0.000166378 -4.99306e-05 -4.99062e-05 -2.21805e-13
0.000118337 -3.55177e-05 -3.5494e-05 -2.65326e-06
0.000141401 -4.24372e-05 -4.24131e-05 -1.4372e-06
0.000165674 -4.9719e-05 -4.96948e-05 -2.35275e-13
0.000142609 -4.28e-05 -4.27754e-05 -1.43721e-06
0.000142005 -4.26186e-05 -4.25942e-05 -1.4372e-06
0.000117834 -3.53666e-05 -3.53431e-05 -2.65326e-06
0.000116827 -3.50642e-05 -3.50412e-05 -2.65326e-06
0.000163559 -4.90842e-05 -4.90606e-05 -2.15901e-13
0.000164969 -4.95074e-05 -4.94834e-05 -2.33787e-13
0.00011733 -3.52154e-05 -3.51921e-05 -2.65326e-06
0.000140193 -4.20744e-05 -4.20507e-05 -1.4372e-06
0.000164264 -4.92958e-05 -4.9272e-05 -2.36382e-13
0.000141401 -4.24372e-05 -4.24131e-05 -1.4372e-06
0.000140797 -4.22558e-05 -4.22319e-05 -1.4372e-06
0.000116827 -3.50642e-05 -3.50412e-05 -2.65326e-06
0.00011582 -3.47618e-05 -3.47393e-05 -2.65325e-06
0.000162149 -4.86609e-05 -4.86378e-05 -2.17842e-13
0.000163559 -4.90842e-05 -4.90606e-05 -2.29518e-13
0.000116323 -3.4913e-05 -3.48902e-05 -2.65325e-06
0.000138984 -4.17115e-05 -4.16884e-05 -1.4372e-06
0.000162854 -4.88726e-05 -4.88492e-05 -2.10855e-13
0.000140193 -4.20744e-05 -4.20507e-05 -1.4372e-06
0.000139589 -4.18929e-05 -4.18695e-05 -1.4372e-06
0.00011582 -3.47618e-05 -3.47393e-05 -2.65325e-06
0.000114813 -3.44594e-05 -3.44373e-05 -2.65325e-06
0.000160739 -4.82377e-05 -4.8215e-05 -2.06153e-13
0.000162149 -4.86609e-05 -4.86378e-05 -2.17842e-13
0.000115317 -3.46106e-05 -3.45883e-05 -2.65325e-06
0.000137776 -4.13487e-05 -4.1326e-05 -1.4372e-06
0.000161444 -4.84493e-05 -4.84264e-05 -2.14031e-13
0.000138984 -4.17115e-05 -4.16884e-05 -1.4372e-06
0.00013838 -4.15301e-05 -4.15072e-05 -1.4372e-06
0.000114813 -3.44594e-05 -3.44373e-05 -2.65325e-06
0.000113806 -3.4157e-05 -3.41354e-05 -2.65325e-06
0.00015933 -4.78145e-05 -4.77922e-05 -2.19631e-13
0.000160739 -4.82377e-05 -4.8215e-05 -2.06153e-13
0.00011431 -3.43082e-05 -3.42864e-05 -2.65325e-06
0.000136568 -4.09859e-05 -4.09637e-05 -1.4372e-06
0.000160035 -4.80261e-05 -4.80036e-05 -2.2173e-13
0.000137776 -4.13487e-05 -4.1326e-05 -1.4372e-06
0.000137172 -4.11673e-05 -4.11449e-05 -1.4372e-06
0.000113806 -3.4157e-05 -3.41354e-05 -2.65325e-06
0.0001128 -3.38546e-05 -3.38335e-05 -2.65325e-06
0.00015792 -4.73913e-05 -4.73694e-05 -2.37244e-13
0.00015933 -4.78145e-05 -4.77922e-05 -2.33258e-13
0.000113303 -3.40058e-05 -3.39845e-05 -2.65325e-06
0.00013536 -4.06231e-05 -4.06013e-05 -1.4372e-06
0.000158625 -4.76029e-05 -4.75808e-05 -2.02854e-13
0.000136568 -4.09859e-05 -4.09637e-05 -1.4372e-06
0.000135964 -4.08045e-05 -4.07825e-05 -1.4372e-06
0.0001128 -3.38546e-05 -3.38335e-05 -2.65325e-06
0.000111793 -3.35522e-05 -3.35316e-05 -2.65325e-06
0.00015651 -4.69681e-05 -4.69466e-05 -2.15754e-13
0.00015792 -4.73913e-05 -4.73694e-05 -2.12367e-13
0.000112296 -3.37034e-05 -3.36826e-05 -2.65325e-06
0.000134151 -4.02603e-05 -4.0239e-05 -1.4372e-06
0.000157215 -4.71797e-05 -4.7158e-05 -2.12779e-13
0.00013536 -4.06231e-05 -4.06013e-05 -1.4372e-06
0.000134755 -4.04417e-05 -4.04202e-05 -1.4372e-06
0.000111793 -3.35522e-05 -3.35316e-05 -2.65325e-06
0.000110786 -3.32498e-05 -3.32297e-05 -2.65324e-06
0.000155101 -4.65449e-05 -4.65238e-05 -2.18459e-13
0.00015651 -4.69681e-05 -4.69466e-05 -2.15754e-13
0.000111289 -3.3401e-05 -3.33807e-05 -2.65324e-06
0.000132943 -3.98975e-05 -3.98766e-05 -1.43719e-06
0.000155805 -4.67565e-05 -4.67352e-05 -2.1185e-13
0.000134151 -4.02603e-05 -4.0239e-05 -1.4372e-06
0.000133547 -4.00789e-05 -4.00578e-05 -1.4372e-06
0.000110786 -3.32498e-05 -3.32297e-05 -2.65324e-06
0.000109779 -3.29475e-05 -3.29278e-05 -2.65324e-06
0.000153691 -4.61217e-05 -4.61011e-05 -2.00804e-13
0.000155101 -4.65449e-05 -4.65238e-05 -2.18459e-13
0.000110282 -3.30986e-05 -3.30788e-05 -2.65324e-06
0.000131735 -3.95347e-05 -3.95143e-05 -1.43719e-06
0.000154396 -4.63333e-05 -4.63124e-05 -2.10205e-13
0.000132943 -3.98975e-05 -3.98766e-05 -1.43719e-06
0.000132339 -3.97161e-05 -3.96955e-05 -1.43719e-06
0.000109779 -3.29475e-05 -3.29278e-05 -2.65324e-06
0.000108772 -3.26451e-05 -3.26259e-05 -2.65324e-06
0.000152281 -4.56985e-05 -4.56783e-05 -2.25076e-13
0.000153691 -4.61217e-05 -4.61011e-05 -2.0115e-13
0.000109276 -3.27963e-05 -3.27769e-05 -2.65324e-06
0.000130526 -3.91719e-05 -3.91519e-05 -1.43719e-06
0.000152986 -4.59101e-05 -4.58897e-05 -2.21605e-13
0.000131735 -3.95347e-05 -3.95143e-05 -1.43719e-06
0.000131131 -3.93533e-05 -3.93331e-05 -1.43719e-06
0.000108772 -3.26451e-05 -3.26259e-05 -2.65324e-06
0.000107765 -3.23427e-05 -3.2324e-05 -2.65324e-06
0.000150871 -4.52752e-05 -4.52555e-05 -2.12907e-13
0.000152281 -4.56985e-05 -4.56783e-05 -2.38705e-13
0.000108269 -3.24939e-05 -3.2475e-05 -2.65324e-06
0.000129318 -3.88091e-05 -3.87896e-05 -1.43719e-06
0.000151576 -4.54869e-05 -4.54669e-05 -2.26759e-13
0.000130526 -3.91719e-05 -3.91519e-05 -1.43719e-06
0.000129922 -3.89905e-05 -3.89708e-05 -1.43719e-06
0.000107765 -3.23427e-05 -3.2324e-05 -2.65324e-06
0.000106759 -3.20403e-05 -3.20221e-05 -2.65324e-06
0.000149462 -4.4852e-05 -4.48327e-05 -2.02427e-13
0.000150871 -4.52752e-05 -4.52555e-05 -2.12907e-13
0.000107262 -3.21915e-05 -3.21731e-05 -2.65324e-06
0.00012811 -3.84463e-05 -3.84272e-05 -1.43719e-06
0.000150166 -4.50636e-05 -4.50441e-05 -2.14194e-13
0.000129318 -3.88091e-05 -3.87896e-05 -1.43719e-06
0.000128714 -3.86277e-05 -3.86084e-05 -1.43719e-06
0.000106759 -3.20403e-05 -3.20221e-05 -2.65324e-06
0.000105752 -3.17379e-05 -3.17202e-05 -2.65323e-06
0.000148052 -4.44288e-05 -4.44099e-05 -2.00018e-13
0.000149462 -4.4852e-05 -4.48327e-05 -2.02427e-13
0.000106255 -3.18891e-05 -3.18711e-05 -2.65323e-06
0.000126902 -3.80835e-05 -3.80649e-05 -1.43719e-06
0.000148757 -4.46404e-05 -4.46213e-05 -2.22422e-13
0.00012811 -3.84463e-05 -3.84272e-05 -1.43719e-06
0.000127506 -3.82649e-05 -3.82461e-05 -1.43719e-06
0.000105752 -3.17379e-05 -3.17202e-05 -2.65323e-06
0.000104745 -3.14355e-05 -3.14183e-05 -2.65323e-06
0.000146642 -4.40056e-05 -4.39871e-05 -2.10951e-13
0.000148052 -4.44288e-05 -4.44099e-05 -2.00381e-13
0.000105248 -3.15867e-05 -3.15692e-05 -2.65323e-06
0.000125693 -3.77207e-05 -3.77025e-05 -1.43719e-06
0.000147347 -4.42172e-05 -4.41985e-05 -1.96889e-13
0.000126902 -3.80835e-05 -3.80649e-05 -1.43719e-06
0.000126297 -3.79021e-05 -3.78837e-05 -1.43719e-06
0.000104745 -3.14355e-05 -3.14183e-05 -2.65323e-06
0.000103738 -3.11331e-05 -3.11164e-05 -2.65323e-06
0.000145232 -4.35824e-05 -4.35643e-05 -2.0969e-13
0.000146642 -4.40056e-05 -4.39871e-05 -2.17589e-13
0.000104241 -3.12843e-05 -3.12673e-05 -2.65323e-06
0.000124485 -3.73579e-05 -3.73402e-05 -1.43719e-06
0.000145937 -4.3794e-05 -4.37757e-05 -1.99958e-13
0.000125693 -3.77207e-05 -3.77025e-05 -1.43719e-06
0.000125089 -3.75393e-05 -3.75214e-05 -1.43719e-06
0.000103738 -3.11331e-05 -3.11164e-05 -2.65323e-06
0.000102731 -3.08308e-05 -3.08144e-05 -2.65323e-06
0.000143823 -4.31592e-05 -4.31415e-05 -2.04366e-13
0.000145232 -4.35824e-05 -4.35643e-05 -2.0969e-13
0.000103235 -3.0982e-05 -3.09654e-05 -2.65323e-06
0.000123277 -3.69951e-05 -3.69778e-05 -1.43718e-06
0.000144527 -4.33708e-05 -4.33529e-05 -2.17897e-13
0.000124485 -3.73579e-05 -3.73402e-05 -1.43719e-06
0.000123881 -3.71765e-05 -3.7159e-05 -1.43719e-06
0.000102731 -3.08308e-05 -3.08144e-05 -2.65323e-06
0.000101724 -3.05284e-05 -3.05125e-05 -2.65323e-06
0.000142413 -4.2736e-05 -4.27187e-05 -1.98289e-13
0.000143823 -4.31592e-05 -4.31415e-05 -2.04366e-13
0.000102228 -3.06796e-05 -3.06635e-05 -2.65323e-06
0.000122068 -3.66323e-05 -3.66155e-05 -1.43718e-06
0.000143118 -4.29476e-05 -4.29301e-05 -2.10285e-13
0.000123277 -3.69951e-05 -3.69778e-05 -1.43718e-06
0.000122673 -3.68137e-05 -3.67967e-05 -1.43718e-06
0.000101724 -3.05284e-05 -3.05125e-05 -2.65323e-06
0.000100717 -3.0226e-05 -3.02106e-05 -2.65322e-06
0.000141003 -4.23128e-05 -4.22959e-05 -1.91805e-13
0.000142413 -4.2736e-05 -4.27187e-05 -1.98661e-13
0.000101221 -3.03772e-05 -3.03616e-05 -2.65322e-06
0.00012086 -3.62695e-05 -3.62531e-05 -1.43718e-06
0.000141708 -4.25244e-05 -4.25073e-05 -1.82742e-13
0.000122068 -3.66323e-05 -3.66155e-05 -1.43718e-06
0.000121464 -3.64509e-05 -3.64343e-05 -1.43718e-06
0.000100717 -3.0226e-05 -3.02106e-05 -2.65322e-06
9.97106e-05 -2.99236e-05 -2.99087e-05 -2.65322e-06
0.000139593 -4.18895e-05 -4.18731e-05 -1.83604e-13
0.000141003 -4.23128e-05 -4.22959e-05 -2.05076e-13
0.000100214 -3.00748e-05 -3.00597e-05 -2.65322e-06
0.000119652 -3.59067e-05 -3.58908e-05 -1.43718e-06
0.000140298 -4.21011e-05 -4.20845e-05 -1.83533e-13
0.00012086 -3.62695e-05 -3.62531e-05 -1.43718e-06
0.000120256 -3.60881e-05 -3.6072e-05 -1.43718e-06
9.97106e-05 -2.99236e-05 -2.99087e-05 -2.65322e-06
9.87038e-05 -2.96212e-05 -2.96068e-05 -2.65322e-06
0.000138184 -4.14663e-05 -4.14503e-05 -2.04079e-13
0.000139593 -4.18895e-05 -4.18731e-05 -1.83604e-13
9.92072e-05 -2.97724e-05 -2.97577e-05 -2.65322e-06
0.000118444 -3.55439e-05 -3.55284e-05 -1.43718e-06
0.000138889 -4.16779e-05 -4.16617e-05 -2.02517e-13
0.000119652 -3.59067e-05 -3.58908e-05 -1.43718e-06
0.000119048 -3.57253e-05 -3.57096e-05 -1.43718e-06
9.87038e-05 -2.96212e-05 -2.96068e-05 -2.65322e-06
9.76969e-05 -2.93189e-05 -2.93049e-05 -2.65322e-06
0.000136774 -4.10431e-05 -4.10275e-05 -1.99052e-13
0.000138184 -4.14663e-05 -4.14503e-05 -2.04079e-13
9.82003e-05 -2.94701e-05 -2.94558e-05 -2.65322e-06
0.000117235 -3.51811e-05 -3.51661e-05 -1.43718e-06
0.000137479 -4.12547e-05 -4.12389e-05 -1.91103e-13
0.000118444 -3.55439e-05 -3.55284e-05 -1.43718e-06
0.000117839 -3.53625e-05 -3.53472e-05 -1.43718e-06
9.76969e-05 -2.93189e-05 -2.93049e-05 -2.65322e-06
9.669e-05 -2.90165e-05 -2.9003e-05 -2.65322e-06
0.000135364 -4.06199e-05 -4.06047e-05 -2.02055e-13
0.000136774 -4.10431e-05 -4.10275e-05 -1.98698e-13
9.71935e-05 -2.91677e-05 -2.91539e-05 -2.65322e-06
0.000116027 -3.48183e-05 -3.48037e-05 -1.43718e-06
0.000136069 -4.08315e-05 -4.08161e-05 -2.02202e-13
0.000117235 -3.51811e-05 -3.51661e-05 -1.43718e-06
0.000116631 -3.49997e-05 -3.49849e-05 -1.43718e-06
9.669e-05 -2.90165e-05 -2.9003e-05 -2.65322e-06
9.56832e-05 -2.87141e-05 -2.8701e-05 -2.65321e-06
0.000133954 -4.01967e-05 -4.01819e-05 -2.02955e-13
0.000135364 -4.06199e-05 -4.06047e-05 -2.02045e-13
9.61866e-05 -2.88653e-05 -2.8852e-05 -2.65321e-06
0.000114819 -3.44555e-05 -3.44414e-05 -1.43718e-06
0.000134659 -4.04083e-05 -4.03933e-05 -1.84199e-13
0.000116027 -3.48183e-05 -3.48037e-05 -1.43718e-06
0.000115423 -3.46369e-05 -3.46225e-05 -1.43718e-06
9.56832e-05 -2.87141e-05 -2.8701e-05 -2.65321e-06
9.46763e-05 -2.84117e-05 -2.83991e-05 -2.65321e-06
0.000132545 -3.97735e-05 -3.97591e-05 -1.6153e-13
0.000133954 -4.01967e-05 -4.01819e-05 -2.02955e-13
9.51798e-05 -2.85629e-05 -2.85501e-05 -2.65321e-06
0.00011361 -3.40927e-05 -3.4079e-05 -1.43717e-06
0.00013325 -3.99851e-05 -3.99705e-05 -1.79195e-13
0.000114819 -3.44555e-05 -3.44414e-05 -1.43718e-06
0.000114215 -3.42741e-05 -3.42602e-05 -1.43718e-06
9.46763e-05 -2.84117e-05 -2.83991e-05 -2.65321e-06
9.36695e-05 -2.81094e-05 -2.80972e-05 -2.65321e-06
0.000131135 -3.93503e-05 -3.93363e-05 -2.00878e-13
0.000132545 -3.97735e-05 -3.97591e-05 -1.6153e-13
9.41729e-05 -2.82606e-05 -2.82482e-05 -2.65321e-06
0.000112402 -3.37299e-05 -3.37166e-05 -1.43717e-06
0.00013184 -3.95619e-05 -3.95477e-05 -1.88609e-13
0.00011361 -3.40927e-05 -3.4079e-05 -1.43717e-06
0.000113006 -3.39113e-05 -3.38978e-05 -1.43717e-06
9.36695e-05 -2.81094e-05 -2.80972e-05 -2.65321e-06
9.26626e-05 -2.7807e-05 -2.77953e-05 -2.65321e-06
0.000129725 -3.89271e-05 -3.89135e-05 -1.6695e-13
0.000131135 -3.93503e-05 -3.93363e-05 -2.00858e-13
9.3166e-05 -2.79582e-05 -2.79462e-05 -2.65321e-06
0.000111194 -3.33671e-05 -3.33543e-05 -1.43717e-06
0.00013043 -3.91387e-05 -3.91249e-05 -1.88766e-13
0.000112402 -3.37299e-05 -3.37166e-05 -1.43717e-06
0.000111798 -3.35485e-05 -3.35355e-05 -1.43717e-06
9.26626e-05 -2.7807e-05 -2.77953e-05 -2.65321e-06
9.16558e-05 -2.75046e-05 -2.74933e-05 -2.65321e-06
0.000128315 -3.85038e-05 -3.84907e-05 -1.90601e-13
0.000129725 -3.89271e-05 -3.89135e-05 -1.79843e-13
9.21592e-05 -2.76558e-05 -2.76443e-05 -2.65321e-06
0.000109985 -3.30043e-05 -3.29919e-05 -1.43717e-06
0.00012902 -3.87154e-05 -3.87021e-05 -1.83048e-13
0.000111194 -3.33671e-05 -3.33543e-05 -1.43717e-06
0.00011059 -3.31857e-05 -3.31731e-05 -1.43717e-06
9.16558e-05 -2.75046e-05 -2.74933e-05 -2.65321e-06
9.06489e-05 -2.72022e-05 -2.71914e-05 -2.6532e-06
0.000126906 -3.80806e-05 -3.80679e-05 -1.7325e-13
0.000128315 -3.85038e-05 -3.84907e-05 -1.90601e-13
9.11523e-05 -2.73534e-05 -2.73424e-05 -2.6532e-06
0.000108777 -3.26416e-05 -3.26296e-05 -1.43717e-06
0.000127611 -3.82922e-05 -3.82793e-05 -1.78868e-13
0.000109985 -3.30043e-05 -3.29919e-05 -1.43717e-06
0.000109381 -3.28229e-05 -3.28107e-05 -1.43717e-06
9.06489e-05 -2.72022e-05 -2.71914e-05 -2.6532e-06
8.9642e-05 -2.68999e-05 -2.68895e-05 -2.6532e-06
0.000125496 -3.76574e-05 -3.76451e-05 -1.77048e-13
0.000126906 -3.80806e-05 -3.80679e-05 -1.7325e-13
9.01455e-05 -2.70511e-05 -2.70405e-05 -2.6532e-06
0.000107569 -3.22788e-05 -3.22672e-05 -1.43717e-06
0.000126201 -3.7869e-05 -3.78565e-05 -1.62694e-13
0.000108777 -3.26416e-05 -3.26296e-05 -1.43717e-06
0.000108173 -3.24602e-05 -3.24484e-05 -1.43717e-06
8.9642e-05 -2.68999e-05 -2.68895e-05 -2.6532e-06
8.86352e-05 -2.65975e-05 -2.65876e-05 -2.6532e-06
0.000124086 -3.72342e-05 -3.72223e-05 -1.74693e-13
0.000125496 -3.76574e-05 -3.76451e-05 -1.63085e-13
8.91386e-05 -2.67487e-05 -2.67385e-05 -2.6532e-06
0.000106361 -3.1916e-05 -3.19048e-05 -1.43717e-06
0.000124791 -3.74458e-05 -3.74337e-05 -1.60074e-13
0.000107569 -3.22788e-05 -3.22672e-05 -1.43717e-06
0.000106965 -3.20974e-05 -3.2086e-05 -1.43717e-06
8.86352e-05 -2.65975e-05 -2.65876e-05 -2.6532e-06
8.76283e-05 -2.62951e-05 -2.62856e-05 -2.6532e-06
0.000122676 -3.6811e-05 -3.67995e-05 -1.76819e-13
0.000124086 -3.72342e-05 -3.72223e-05 -1.74672e-13
8.81317e-05 -2.64463e-05 -2.64366e-05 -2.6532e-06
0.000105152 -3.15532e-05 -3.15425e-05 -1.43717e-06
0.000123381 -3.70226e-05 -3.70109e-05 -1.81486e-13
0.000106361 -3.1916e-05 -3.19048e-05 -1.43717e-06
0.000105756 -3.17346e-05 -3.17236e-05 -1.43717e-06
8.76283e-05 -2.62951e-05 -2.62856e-05 -2.6532e-06
8.66214e-05 -2.59928e-05 -2.59837e-05 -2.6532e-06
0.000121267 -3.63878e-05 -3.63767e-05 -1.74639e-13
0.000122676 -3.6811e-05 -3.67995e-05 -1.76819e-13
8.71249e-05 -2.61439e-05 -2.61347e-05 -2.6532e-06
0.000103944 -3.11904e-05 -3.11801e-05 -1.43716e-06
0.000121972 -3.65994e-05 -3.65881e-05 -1.92546e-13
0.000105152 -3.15532e-05 -3.15425e-05 -1.43717e-06
0.000104548 -3.13718e-05 -3.13613e-05 -1.43716e-06
8.66214e-05 -2.59928e-05 -2.59837e-05 -2.6532e-06
8.56146e-05 -2.56904e-05 -2.56818e-05 -2.65319e-06
0.000119857 -3.59646e-05 -3.59539e-05 -1.65873e-13
0.000121267 -3.63878e-05 -3.63767e-05 -1.74639e-13
8.6118e-05 -2.58416e-05 -2.58327e-05 -2.65319e-06
0.000102736 -3.08276e-05 -3.08177e-05 -1.43716e-06
0.000120562 -3.61762e-05 -3.61653e-05 -1.63105e-13
0.000103944 -3.11904e-05 -3.11801e-05 -1.43716e-06
0.00010334 -3.1009e-05 -3.09989e-05 -1.43716e-06
8.56146e-05 -2.56904e-05 -2.56818e-05 -2.65319e-06
8.46077e-05 -2.5388e-05 -2.53798e-05 -2.65319e-06
0.000118447 -3.55414e-05 -3.55311e-05 -1.57902e-13
0.000119857 -3.59646e-05 -3.59539e-05 -1.65851e-13
8.51111e-05 -2.55392e-05 -2.55308e-05 -2.65319e-06
0.000101527 -3.04648e-05 -3.04554e-05 -1.43716e-06
0.000119152 -3.5753e-05 -3.57425e-05 -1.53372e-13
0.000102736 -3.08276e-05 -3.08177e-05 -1.43716e-06
0.000102131 -3.06462e-05 -3.06366e-05 -1.43716e-06
8.46077e-05 -2.5388e-05 -2.53798e-05 -2.65319e-06
8.36008e-05 -2.50857e-05 -2.50779e-05 -2.65319e-06
0.000117037 -3.51181e-05 -3.51083e-05 -1.81333e-13
0.000118447 -3.55414e-05 -3.55311e-05 -1.70783e-13
8.41042e-05 -2.52368e-05 -2.52289e-05 -2.65319e-06
0.000100319 -3.0102e-05 -3.0093e-05 -1.43716e-06
0.000117742 -3.53298e-05 -3.53197e-05 -1.87162e-13
0.000101527 -3.04648e-05 -3.04554e-05 -1.43716e-06
0.000100923 -3.02834e-05 -3.02742e-05 -1.43716e-06
8.36008e-05 -2.50857e-05 -2.50779e-05 -2.65319e-06
8.25939e-05 -2.47833e-05 -2.4776e-05 -2.65319e-06
0.000115628 -3.46949e-05 -3.46855e-05 -1.52253e-13
0.000117037 -3.51181e-05 -3.51083e-05 -1.81333e-13
8.30974e-05 -2.49345e-05 -2.4927e-05 -2.65319e-06
9.91107e-05 -2.97392e-05 -2.97306e-05 -1.43716e-06
0.000116333 -3.49065e-05 -3.48969e-05 -1.55941e-13
0.000100319 -3.0102e-05 -3.0093e-05 -1.43716e-06
9.97149e-05 -2.99206e-05 -2.99118e-05 -1.43716e-06
8.25939e-05 -2.47833e-05 -2.4776e-05 -2.65319e-06
8.1587e-05 -2.44809e-05 -2.4474e-05 -2.65319e-06
0.000114218 -3.42717e-05 -3.42627e-05 -1.46419e-13
0.000115628 -3.46949e-05 -3.46855e-05 -1.52253e-13
8.20905e-05 -2.46321e-05 -2.4625e-05 -2.65319e-06
9.79024e-05 -2.93764e-05 -2.93683e-05 -1.43716e-06
0.000114923 -3.44833e-05 -3.44741e-05 -1.76254e-13
9.91107e-05 -2.97392e-05 -2.97306e-05 -1.43716e-06
9.85065e-05 -2.95578e-05 -2.95495e-05 -1.43716e-06
8.1587e-05 -2.44809e-05 -2.4474e-05 -2.65319e-06
8.05802e-05 -2.41786e-05 -2.41721e-05 -2.65318e-06
0.000112808 -3.38485e-05 -3.38398e-05 -1.60926e-13
0.000114218 -3.42717e-05 -3.42627e-05 -1.82578e-13
8.10836e-05 -2.43298e-05 -2.43231e-05 -2.65318e-06
9.66941e-05 -2.90136e-05 -2.90059e-05 -1.43716e-06
0.000113513 -3.40601e-05 -3.40512e-05 -1.83199e-13
9.79024e-05 -2.93764e-05 -2.93683e-05 -1.43716e-06
9.72982e-05 -2.9195e-05 -2.91871e-05 -1.43716e-06
8.05802e-05 -2.41786e-05 -2.41721e-05 -2.65318e-06
7.95733e-05 -2.38762e-05 -2.38702e-05 -2.65318e-06
0.000111398 -3.34253e-05 -3.3417e-05 -1.96097e-13
0.000112808 -3.38485e-05 -3.38398e-05 -1.60926e-13
8.00767e-05 -2.40274e-05 -2.40211e-05 -2.65318e-06
9.54858e-05 -2.86508e-05 -2.86435e-05 -1.43716e-06
0.000112103 -3.36369e-05 -3.36284e-05 -1.54713e-13
9.66941e-05 -2.90136e-05 -2.90059e-05 -1.43716e-06
9.60899e-05 -2.88322e-05 -2.88247e-05 -1.43716e-06
7.95733e-05 -2.38762e-05 -2.38702e-05 -2.65318e-06
7.85664e-05 -2.35738e-05 -2.35682e-05 -2.65318e-06
0.000109989 -3.30021e-05 -3.29942e-05 -2.01663e-13
0.000111398 -3.34253e-05 -3.3417e-05 -1.96097e-13
7.90698e-05 -2.3725e-05 -2.37192e-05 -2.65318e-06
9.42774e-05 -2.82881e-05 -2.82812e-05 -1.43715e-06
0.000110694 -3.32137e-05 -3.32056e-05 -1.99052e-13
9.54858e-05 -2.86508e-05 -2.86435e-05 -1.43716e-06
9.48816e-05 -2.84695e-05 -2.84623e-05 -1.43715e-06
7.85664e-05 -2.35738e-05 -2.35682e-05 -2.65318e-06
7.75595e-05 -2.32715e-05 -2.32663e-05 -2.65318e-06
0.000108579 -3.25789e-05 -3.25714e-05 -1.71737e-13
0.000109989 -3.30021e-05 -3.29942e-05 -2.01663e-13
7.8063e-05 -2.34227e-05 -2.34173e-05 -2.65318e-06
9.30691e-05 -2.79253e-05 -2.79188e-05 -1.43715e-06
0.000109284 -3.27905e-05 -3.27828e-05 -1.92149e-13
9.42774e-05 -2.82881e-05 -2.82812e-05 -1.43715e-06
9.36733e-05 -2.81067e-05 -2.81e-05 -1.43715e-06
7.75595e-05 -2.32715e-05 -2.32663e-05 -2.65318e-06
7.65526e-05 -2.29691e-05 -2.29644e-05 -2.65318e-06
0.000107169 -3.21557e-05 -3.21486e-05 -1.67219e-13
0.000108579 -3.25789e-05 -3.25714e-05 -1.71737e-13
7.70561e-05 -2.31203e-05 -2.31153e-05 -2.65318e-06
9.18608e-05 -2.75625e-05 -2.75564e-05 -1.43715e-06
0.000107874 -3.23673e-05 -3.236e-05 -1.91194e-13
9.30691e-05 -2.79253e-05 -2.79188e-05 -1.43715e-06
9.24649e-05 -2.77439e-05 -2.77376e-05 -1.43715e-06
7.65526e-05 -2.29691e-05 -2.29644e-05 -2.65318e-06
7.55457e-05 -2.26668e-05 -2.26624e-05 -2.65317e-06
0.000105759 -3.17325e-05 -3.17258e-05 -1.56374e-13
0.000107169 -3.21557e-05 -3.21486e-05 -1.53277e-13
7.60492e-05 -2.28179e-05 -2.28134e-05 -2.65317e-06
9.06525e-05 -2.71997e-05 -2.7194e-05 -1.43715e-06
0.000106464 -3.19441e-05 -3.19372e-05 -1.55422e-13
9.18608e-05 -2.75625e-05 -2.75564e-05 -1.43715e-06
9.12566e-05 -2.73811e-05 -2.73752e-05 -1.43715e-06
7.55457e-05 -2.26668e-05 -2.26624e-05 -2.65317e-06
7.45388e-05 -2.23644e-05 -2.23605e-05 -2.65317e-06
0.00010435 -3.13093e-05 -3.1303e-05 -1.63121e-13
0.000105759 -3.17325e-05 -3.17258e-05 -1.56374e-13
7.50423e-05 -2.25156e-05 -2.25114e-05 -2.65317e-06
8.94441e-05 -2.68369e-05 -2.68317e-05 -1.43715e-06
0.000105054 -3.15209e-05 -3.15144e-05 -1.57475e-13
9.06525e-05 -2.71997e-05 -2.7194e-05 -1.43715e-06
9.00483e-05 -2.70183e-05 -2.70129e-05 -1.43715e-06
7.45388e-05 -2.23644e-05 -2.23605e-05 -2.65317e-06
7.3532e-05 -2.20621e-05 -2.20585e-05 -2.65317e-06
0.00010294 -3.08861e-05 -3.08802e-05 -1.66218e-13
0.00010435 -3.13093e-05 -3.1303e-05 -1.63121e-13
7.40354e-05 -2.22132e-05 -2.22095e-05 -2.65317e-06
8.82358e-05 -2.64741e-05 -2.64693e-05 -1.43715e-06
0.000103645 -3.10977e-05 -3.10916e-05 -1.6195e-13
8.94441e-05 -2.68369e-05 -2.68317e-05 -1.43715e-06
8.884e-05 -2.66555e-05 -2.66505e-05 -1.43715e-06
7.3532e-05 -2.20621e-05 -2.20585e-05 -2.65317e-06
7.25251e-05 -2.17597e-05 -2.17566e-05 -2.65317e-06
0.00010153 -3.04629e-05 -3.04574e-05 -1.59764e-13
0.00010294 -3.08861e-05 -3.08802e-05 -1.52608e-13
7.30285e-05 -2.19109e-05 -2.19076e-05 -2.65317e-06
8.70275e-05 -2.61114e-05 -2.61069e-05 -1.43715e-06
0.000102235 -3.06745e-05 -3.06688e-05 -1.61363e-13
8.82358e-05 -2.64741e-05 -2.64693e-05 -1.43715e-06
8.76316e-05 -2.62927e-05 -2.62881e-05 -1.43715e-06
7.25251e-05 -2.17597e-05 -2.17566e-05 -2.65317e-06
7.15182e-05 -2.14573e-05 -2.14546e-05 -2.65317e-06
0.00010012 -3.00396e-05 -3.00346e-05 -1.87032e-13
0.00010153 -3.04629e-05 -3.04574e-05 -1.59786e-13
7.20216e-05 -2.16085e-05 -2.16056e-05 -2.65317e-06
8.58192e-05 -2.57486e-05 -2.57445e-05 -1.43715e-06
0.000100825 -3.02512e-05 -3.0246e-05 -1.63364e-13
8.70275e-05 -2.61114e-05 -2.61069e-05 -1.43715e-06
8.64233e-05 -2.593e-05 -2.59257e-05 -1.43715e-06
7.15182e-05 -2.14573e-05 -2.14546e-05 -2.65317e-06
7.05113e-05 -2.1155e-05 -2.11527e-05 -2.65316e-06
9.87105e-05 -2.96164e-05 -2.96117e-05 -1.45293e-13
0.00010012 -3.00396e-05 -3.00346e-05 -1.87032e-13
7.10147e-05 -2.13062e-05 -2.13037e-05 -2.65317e-06
8.46108e-05 -2.53858e-05 -2.53822e-05 -1.43714e-06
9.94154e-05 -2.9828e-05 -2.98232e-05 -1.70428e-13
8.58192e-05 -2.57486e-05 -2.57445e-05 -1.43715e-06
8.5215e-05 -2.55672e-05 -2.55633e-05 -1.43714e-06
7.05113e-05 -2.1155e-05 -2.11527e-05 -2.65316e-06
6.95044e-05 -2.08526e-05 -2.08507e-05 -2.65316e-06
9.73007e-05 -2.91932e-05 -2.91889e-05 -1.65624e-13
9.87105e-05 -2.96164e-05 -2.96117e-05 -1.45293e-13
7.00078e-05 -2.10038e-05 -2.10017e-05 -2.65316e-06
8.34025e-05 -2.5023e-05 -2.50198e-05 -1.43714e-06
9.80056e-05 -2.94048e-05 -2.94003e-05 -1.58575e-13
8.46108e-05 -2.53858e-05 -2.53822e-05 -1.43714e-06
8.40067e-05 -2.52044e-05 -2.5201e-05 -1.43714e-06
6.95044e-05 -2.08526e-05 -2.08507e-05 -2.65316e-06
6.84975e-05 -2.05503e-05 -2.05488e-05 -2.65316e-06
9.5891e-05 -2.877e-05 -2.87661e-05 -1.66563e-13
9.73007e-05 -2.91932e-05 -2.91889e-05 -1.65647e-13
6.90009e-05 -2.07015e-05 -2.06998e-05 -2.65316e-06
8.21941e-05 -2.46602e-05 -2.46574e-05 -1.43714e-06
9.65959e-05 -2.89816e-05 -2.89775e-05 -1.59635e-13
8.34025e-05 -2.5023e-05 -2.50198e-05 -1.43714e-06
8.27983e-05 -2.48416e-05 -2.48386e-05 -1.43714e-06
6.84975e-05 -2.05503e-05 -2.05488e-05 -2.65316e-06
6.74906e-05 -2.02479e-05 -2.02468e-05 -2.65316e-06
9.44812e-05 -2.83468e-05 -2.83433e-05 -1.65509e-13
9.5891e-05 -2.877e-05 -2.87661e-05 -1.53292e-13
6.7994e-05 -2.03991e-05 -2.03978e-05 -2.65316e-06
8.09858e-05 -2.42974e-05 -2.4295e-05 -1.43714e-06
9.51861e-05 -2.85584e-05 -2.85547e-05 -1.84622e-13
8.21941e-05 -2.46602e-05 -2.46574e-05 -1.43714e-06
8.159e-05 -2.44788e-05 -2.44762e-05 -1.43714e-06
6.74906e-05 -2.02479e-05 -2.02468e-05 -2.65316e-06
6.64837e-05 -1.99456e-05 -1.99449e-05 -2.65316e-06
9.30714e-05 -2.79236e-05 -2.79205e-05 -1.67409e-13
9.44812e-05 -2.83468e-05 -2.83433e-05 -1.65509e-13
6.69871e-05 -2.00968e-05 -2.00959e-05 -2.65316e-06
7.97775e-05 -2.39347e-05 -2.39326e-05 -1.43714e-06
9.37763e-05 -2.81352e-05 -2.81319e-05 -1.47372e-13
8.09858e-05 -2.42974e-05 -2.4295e-05 -1.43714e-06
8.03816e-05 -2.41161e-05 -2.41138e-05 -1.43714e-06
6.64837e-05 -1.99456e-05 -1.99449e-05 -2.65316e-06
6.54767e-05 -1.96432e-05 -1.96429e-05 -2.65315e-06
9.16616e-05 -2.75004e-05 -2.74977e-05 -1.41112e-13
9.30714e-05 -2.79236e-05 -2.79205e-05 -1.67409e-13
6.59802e-05 -1.97944e-05 -1.97939e-05 -2.65316e-06
7.85691e-05 -2.35719e-05 -2.35702e-05 -1.43714e-06
9.23665e-05 -2.7712e-05 -2.77091e-05 -1.5291e-13
7.97775e-05 -2.39347e-05 -2.39326e-05 -1.43714e-06
7.91733e-05 -2.37533e-05 -2.37514e-05 -1.43714e-06
6.54767e-05 -1.96432e-05 -1.96429e-05 -2.65315e-06
6.44698e-05 -1.93409e-05 -1.9341e-05 -2.65315e-06
9.02519e-05 -2.70772e-05 -2.70749e-05 -1.41219e-13
9.16616e-05 -2.75004e-05 -2.74977e-05 -1.64327e-13
6.49733e-05 -1.94921e-05 -1.94919e-05 -2.65315e-06
7.73608e-05 -2.32091e-05 -2.32079e-05 -1.43714e-06
9.09568e-05 -2.72888e-05 -2.72863e-05 -1.42421e-13
7.85691e-05 -2.35719e-05 -2.35702e-05 -1.43714e-06
7.7965e-05 -2.33905e-05 -2.33891e-05 -1.43714e-06
6.44698e-05 -1.93409e-05 -1.9341e-05 -2.65315e-06
6.34629e-05 -1.90386e-05 -1.9039e-05 -2.65315e-06
8.88421e-05 -2.6654e-05 -2.6652e-05 -1.32235e-13
9.02519e-05 -2.70772e-05 -2.70749e-05 -1.41242e-13
6.39664e-05 -1.91897e-05 -1.919e-05 -2.65315e-06
7.61525e-05 -2.28463e-05 -2.28455e-05 -1.43714e-06
8.9547e-05 -2.68656e-05 -2.68634e-05 -1.32912e-13
7.73608e-05 -2.32091e-05 -2.32079e-05 -1.43714e-06
7.67566e-05 -2.30277e-05 -2.30267e-05 -1.43714e-06
6.34629e-05 -1.90386e-05 -1.9039e-05 -2.65315e-06
6.2456e-05 -1.87362e-05 -1.87371e-05 -2.65315e-06
8.74323e-05 -2.62308e-05 -2.62292e-05 -1.72637e-13
8.88421e-05 -2.6654e-05 -2.6652e-05 -1.32235e-13
6.29595e-05 -1.88874e-05 -1.8888e-05 -2.65315e-06
7.49441e-05 -2.24836e-05 -2.24831e-05 -1.43713e-06
8.81372e-05 -2.64424e-05 -2.64406e-05 -1.2101e-13
7.61525e-05 -2.28463e-05 -2.28455e-05 -1.43714e-06
7.55483e-05 -2.2665e-05 -2.26643e-05 -1.43713e-06
6.2456e-05 -1.87362e-05 -1.87371e-05 -2.65315e-06
6.14491e-05 -1.84339e-05 -1.84351e-05 -2.65315e-06
8.60225e-05 -2.58076e-05 -2.58064e-05 -1.70122e-13
8.74323e-05 -2.62308e-05 -2.62292e-05 -1.72637e-13
6.19526e-05 -1.8585e-05 -1.85861e-05 -2.65315e-06
7.37358e-05 -2.21208e-05 -2.21207e-05 -1.43713e-06
8.67274e-05 -2.60192e-05 -2.60178e-05 -1.46973e-13
7.49441e-05 -2.24836e-05 -2.24831e-05 -1.43713e-06
7.43399e-05 -2.23022e-05 -2.23019e-05 -1.43713e-06
6.14491e-05 -1.84339e-05 -1.84351e-05 -2.65315e-06
6.04422e-05 -1.81315e-05 -1.81331e-05 -2.65314e-06
8.46127e-05 -2.53844e-05 -2.53836e-05 -1.88599e-13
8.60225e-05 -2.58076e-05 -2.58064e-05 -1.70145e-13
6.09456e-05 -1.82827e-05 -1.82841e-05 -2.65315e-06
7.25274e-05 -2.1758e-05 -2.17583e-05 -1.43713e-06
8.53176e-05 -2.5596e-05 -2.5595e-05 -1.49277e-13
7.37358e-05 -2.21208e-05 -2.21207e-05 -1.43713e-06
7.31316e-05 -2.19394e-05 -2.19395e-05 -1.43713e-06
6.04422e-05 -1.81315e-05 -1.81331e-05 -2.65314e-06
5.94353e-05 -1.78292e-05 -1.78312e-05 -2.65314e-06
8.3203e-05 -2.49612e-05 -2.49608e-05 -1.76992e-13
8.46127e-05 -2.53844e-05 -2.53836e-05 -1.84581e-13
5.99387e-05 -1.79804e-05 -1.79822e-05 -2.65314e-06
7.13191e-05 -2.13952e-05 -2.13959e-05 -1.43713e-06
8.39079e-05 -2.51728e-05 -2.51722e-05 -1.65203e-13
7.25274e-05 -2.1758e-05 -2.17583e-05 -1.43713e-06
7.19232e-05 -2.15766e-05 -2.15771e-05 -1.43713e-06
5.94353e-05 -1.78292e-05 -1.78312e-05 -2.65314e-06
5.84283e-05 -1.75269e-05 -1.75292e-05 -2.65314e-06
8.17932e-05 -2.4538e-05 -2.45379e-05 -1.2651e-13
8.3203e-05 -2.49612e-05 -2.49608e-05 -1.76992e-13
5.89318e-05 -1.7678e-05 -1.76802e-05 -2.65314e-06
7.01107e-05 -2.10325e-05 -2.10335e-05 -1.43713e-06
8.24981e-05 -2.47496e-05 -2.47493e-05 -1.59435e-13
7.13191e-05 -2.13952e-05 -2.13959e-05 -1.43713e-06
7.07149e-05 -2.12139e-05 -2.12147e-05 -1.43713e-06
5.84283e-05 -1.75269e-05 -1.75292e-05 -2.65314e-06
5.74214e-05 -1.72245e-05 -1.72272e-05 -2.65314e-06
8.03834e-05 -2.41148e-05 -2.41151e-05 -1.52333e-13
8.17932e-05 -2.4538e-05 -2.45379e-05 -1.2651e-13
5.79249e-05 -1.73757e-05 -1.73782e-05 -2.65314e-06
6.89024e-05 -2.06697e-05 -2.06711e-05 -1.43713e-06
8.10883e-05 -2.43264e-05 -2.43265e-05 -1.22331e-13
7.01107e-05 -2.10325e-05 -2.10335e-05 -1.43713e-06
6.95065e-05 -2.08511e-05 -2.08523e-05 -1.43713e-06
5.74214e-05 -1.72245e-05 -1.72272e-05 -2.65314e-06
5.64145e-05 -1.69222e-05 -1.69253e-05 -2.65314e-06
7.89736e-05 -2.36916e-05 -2.36923e-05 -1.70118e-13
8.03834e-05 -2.41148e-05 -2.41151e-05 -1.649e-13
5.69179e-05 -1.70733e-05 -1.70763e-05 -2.65314e-06
6.7694e-05 -2.03069e-05 -2.03087e-05 -1.43713e-06
7.96785e-05 -2.39032e-05 -2.39037e-05 -1.38434e-13
6.89024e-05 -2.06697e-05 -2.06711e-05 -1.43713e-06
6.82982e-05 -2.04883e-05 -2.04899e-05 -1.43713e-06
5.64145e-05 -1.69222e-05 -1.69253e-05 -2.65314e-06
5.54076e-05 -1.66198e-05 -1.66233e-05 -2.65313e-06
7.75638e-05 -2.32684e-05 -2.32695e-05 -1.73057e-13
7.89736e-05 -2.36916e-05 -2.36923e-05 -1.70094e-13
5.5911e-05 -1.6771e-05 -1.67743e-05 -2.65314e-06
6.64856e-05 -1.99442e-05 -1.99463e-05 -1.43713e-06
7.82687e-05 -2.348e-05 -2.34809e-05 -1.83216e-13
6.7694e-05 -2.03069e-05 -2.03087e-05 -1.43713e-06
6.70898e-05 -2.01256e-05 -2.01275e-05 -1.43713e-06
5.54076e-05 -1.66198e-05 -1.66233e-05 -2.65313e-06
5.44006e-05 -1.63175e-05 -1.63213e-05 -2.65313e-06
7.6154e-05 -2.28452e-05 -2.28466e-05 -1.65862e-13
7.75638e-05 -2.32684e-05 -2.32695e-05 -1.73057e-13
5.49041e-05 -1.64687e-05 -1.64723e-05 -2.65313e-06
6.52773e-05 -1.95814e-05 -1.9584e-05 -1.43712e-06
7.68589e-05 -2.30568e-05 -2.30581e-05 -1.8719e-13
6.64856e-05 -1.99442e-05 -1.99463e-05 -1.43713e-06
6.58815e-05 -1.97628e-05 -1.97651e-05 -1.43712e-06
5.44006e-05 -1.63175e-05 -1.63213e-05 -2.65313e-06
5.33937e-05 -1.60152e-05 -1.60194e-05 -2.65313e-06
7.47442e-05 -2.2422e-05 -2.24238e-05 -1.63597e-13
7.6154e-05 -2.28452e-05 -2.28466e-05 -1.65862e-13
5.38972e-05 -1.61663e-05 -1.61703e-05 -2.65313e-06
6.40689e-05 -1.92186e-05 -1.92216e-05 -1.43712e-06
7.54491e-05 -2.26336e-05 -2.26352e-05 -1.40089e-13
6.52773e-05 -1.95814e-05 -1.9584e-05 -1.43712e-06
6.46731e-05 -1.94e-05 -1.94028e-05 -1.43712e-06
5.33937e-05 -1.60152e-05 -1.60194e-05 -2.65313e-06
5.23868e-05 -1.57129e-05 -1.57174e-05 -2.65313e-06
7.33344e-05 -2.19988e-05 -2.2001e-05 -1.27917e-13
7.47442e-05 -2.2422e-05 -2.24238e-05 -1.63574e-13
5.28902e-05 -1.5864e-05 -1.58684e-05 -2.65313e-06
6.28606e-05 -1.88559e-05 -1.88592e-05 -1.43712e-06
7.40393e-05 -2.22104e-05 -2.22124e-05 -1.6088e-13
6.40689e-05 -1.92186e-05 -1.92216e-05 -1.43712e-06
6.34647e-05 -1.90373e-05 -1.90404e-05 -1.43712e-06
5.23868e-05 -1.57129e-05 -1.57174e-05 -2.65313e-06
5.13798e-05 -1.54105e-05 -1.54154e-05 -2.65313e-06
7.19247e-05 -2.15756e-05 -2.15782e-05 -1.204e-13
7.33344e-05 -2.19988e-05 -2.2001e-05 -1.40455e-13
5.18833e-05 -1.55617e-05 -1.55664e-05 -2.65313e-06
6.16522e-05 -1.84931e-05 -1.84968e-05 -1.43712e-06
7.26296e-05 -2.17872e-05 -2.17896e-05 -1.51027e-13
6.28606e-05 -1.88559e-05 -1.88592e-05 -1.43712e-06
6.22564e-05 -1.86745e-05 -1.8678e-05 -1.43712e-06
5.13798e-05 -1.54105e-05 -1.54154e-05 -2.65313e-06
5.03729e-05 -1.51082e-05 -1.51134e-05 -2.65313e-06
7.05149e-05 -2.11524e-05 -2.11553e-05 -1.51009e-13
7.19247e-05 -2.15756e-05 -2.15782e-05 -1.204e-13
5.08764e-05 -1.52594e-05 -1.52644e-05 -2.65313e-06
6.04438e-05 -1.81303e-05 -1.81344e-05 -1.43712e-06
7.12198e-05 -2.1364e-05 -2.13667e-05 -1.51667e-13
6.16522e-05 -1.84931e-05 -1.84968e-05 -1.43712e-06
6.1048e-05 -1.83117e-05 -1.83156e-05 -1.43712e-06
5.03729e-05 -1.51082e-05 -1.51134e-05 -2.65313e-06
4.93659e-05 -1.48059e-05 -1.48115e-05 -2.65312e-06
6.91051e-05 -2.07292e-05 -2.07325e-05 -1.57929e-13
7.05149e-05 -2.11524e-05 -2.11553e-05 -1.2116e-13
4.98694e-05 -1.4957e-05 -1.49625e-05 -2.65312e-06
5.92355e-05 -1.77676e-05 -1.7772e-05 -1.43712e-06
6.981e-05 -2.09408e-05 -2.09439e-05 -1.67736e-13
6.04438e-05 -1.81303e-05 -1.81344e-05 -1.43712e-06
5.98397e-05 -1.7949e-05 -1.79532e-05 -1.43712e-06
4.93659e-05 -1.48059e-05 -1.48115e-05 -2.65312e-06
4.8359e-05 -1.45035e-05 -1.45095e-05 -2.65312e-06
6.76953e-05 -2.0306e-05 -2.03097e-05 -1.31328e-13
6.91051e-05 -2.07292e-05 -2.07325e-05 -1.57929e-13
4.88625e-05 -1.46547e-05 -1.46605e-05 -2.65312e-06
5.80271e-05 -1.74048e-05 -1.74095e-05 -1.43712e-06
6.84002e-05 -2.05176e-05 -2.05211e-05 -1.62888e-13
5.92355e-05 -1.77676e-05 -1.7772e-05 -1.43712e-06
5.86313e-05 -1.75862e-05 -1.75908e-05 -1.43712e-06
4.8359e-05 -1.45035e-05 -1.45095e-05 -2.65312e-06
4.73521e-05 -1.42012e-05 -1.42075e-05 -2.65312e-06
6.62855e-05 -1.98828e-05 -1.98868e-05 -1.52433e-13
6.76953e-05 -2.0306e-05 -2.03097e-05 -1.31328e-13
4.78555e-05 -1.43524e-05 -1.43585e-05 -2.65312e-06
5.68187e-05 -1.70421e-05 -1.70471e-05 -1.43712e-06
6.69904e-05 -2.00944e-05 -2.00983e-05 -1.49319e-13
5.80271e-05 -1.74048e-05 -1.74095e-05 -1.43712e-06
5.74229e-05 -1.72234e-05 -1.72283e-05 -1.43712e-06
4.73521e-05 -1.42012e-05 -1.42075e-05 -2.65312e-06
4.63451e-05 -1.38989e-05 -1.39055e-05 -2.65312e-06
6.48757e-05 -1.94596e-05 -1.9464e-05 -1.22997e-13
6.62855e-05 -1.98828e-05 -1.98868e-05 -1.52433e-13
4.68486e-05 -1.40501e-05 -1.40565e-05 -2.65312e-06
5.56104e-05 -1.66793e-05 -1.66847e-05 -1.43711e-06
6.55806e-05 -1.96712e-05 -1.96754e-05 -1.72422e-13
5.68187e-05 -1.70421e-05 -1.70471e-05 -1.43712e-06
5.62145e-05 -1.68607e-05 -1.68659e-05 -1.43711e-06
4.63451e-05 -1.38989e-05 -1.39055e-05 -2.65312e-06
4.53382e-05 -1.35966e-05 -1.36035e-05 -2.65312e-06
6.34659e-05 -1.90365e-05 -1.90412e-05 -1.37177e-13
6.48757e-05 -1.94596e-05 -1.9464e-05 -1.22639e-13
4.58416e-05 -1.37477e-05 -1.37545e-05 -2.65312e-06
5.4402e-05 -1.63165e-05 -1.63223e-05 -1.43711e-06
6.41708e-05 -1.92481e-05 -1.92526e-05 -1.55831e-13
5.56104e-05 -1.66793e-05 -1.66847e-05 -1.43711e-06
5.50062e-05 -1.64979e-05 -1.65035e-05 -1.43711e-06
4.53382e-05 -1.35966e-05 -1.36035e-05 -2.65312e-06
4.43312e-05 -1.32943e-05 -1.33016e-05 -2.65311e-06
6.20561e-05 -1.86133e-05 -1.86183e-05 -1.62604e-13
6.34659e-05 -1.90365e-05 -1.90412e-05 -1.37177e-13
4.48347e-05 -1.34454e-05 -1.34525e-05 -2.65311e-06
5.31936e-05 -1.59538e-05 -1.59599e-05 -1.43711e-06
6.2761e-05 -1.88249e-05 -1.88298e-05 -1.0127e-13
5.4402e-05 -1.63165e-05 -1.63223e-05 -1.43711e-06
5.37978e-05 -1.61352e-05 -1.61411e-05 -1.43711e-06
4.43312e-05 -1.32943e-05 -1.33016e-05 -2.65311e-06
4.33243e-05 -1.29919e-05 -1.29996e-05 -2.65311e-06
6.06463e-05 -1.81901e-05 -1.81955e-05 -1.53681e-13
6.20561e-05 -1.86133e-05 -1.86183e-05 -1.62604e-13
4.38277e-05 -1.31431e-05 -1.31506e-05 -2.65311e-06
5.19852e-05 -1.5591e-05 -1.55975e-05 -1.43711e-06
6.13512e-05 -1.84017e-05 -1.84069e-05 -1.20635e-13
5.31936e-05 -1.59538e-05 -1.59599e-05 -1.43711e-06
5.25894e-05 -1.57724e-05 -1.57787e-05 -1.43711e-06
4.33243e-05 -1.29919e-05 -1.29996e-05 -2.65311e-06
4.23173e-05 -1.26896e-05 -1.26976e-05 -2.65311e-06
5.92364e-05 -1.77669e-05 -1.77727e-05 -1.53887e-13
6.06463e-05 -1.81901e-05 -1.81955e-05 -1.7951e-13
4.28208e-05 -1.28408e-05 -1.28486e-05 -2.65311e-06
5.07768e-05 -1.52283e-05 -1.52351e-05 -1.43711e-06
5.99413e-05 -1.79785e-05 -1.79841e-05 -1.45361e-13
5.19852e-05 -1.5591e-05 -1.55975e-05 -1.43711e-06
5.1381e-05 -1.54097e-05 -1.54163e-05 -1.43711e-06
4.23173e-05 -1.26896e-05 -1.26976e-05 -2.65311e-06
4.13103e-05 -1.23873e-05 -1.23956e-05 -2.65311e-06
5.78266e-05 -1.73437e-05 -1.73498e-05 -1.65743e-13
5.92364e-05 -1.77669e-05 -1.77727e-05 -1.53887e-13
4.18138e-05 -1.25385e-05 -1.25466e-05 -2.65311e-06
4.95685e-05 -1.48655e-05 -1.48727e-05 -1.43711e-06
5.85315e-05 -1.75553e-05 -1.75613e-05 -1.36114e-13
5.07768e-05 -1.52283e-05 -1.52351e-05 -1.43711e-06
5.01727e-05 -1.50469e-05 -1.50539e-05 -1.43711e-06
4.13103e-05 -1.23873e-05 -1.23956e-05 -2.65311e-06
4.03034e-05 -1.2085e-05 -1.20936e-05 -2.65311e-06
5.64168e-05 -1.69205e-05 -1.6927e-05 -1.31778e-13
5.78266e-05 -1.73437e-05 -1.73498e-05 -1.65743e-13
4.08069e-05 -1.22361e-05 -1.22446e-05 -2.65311e-06
4.83601e-05 -1.45028e-05 -1.45103e-05 -1.43711e-06
5.71217e-05 -1.71321e-05 -1.71384e-05 -1.18303e-13
4.95685e-05 -1.48655e-05 -1.48727e-05 -1.43711e-06
4.89643e-05 -1.46841e-05 -1.46915e-05 -1.43711e-06
4.03034e-05 -1.2085e-05 -1.20936e-05 -2.65311e-06
3.92964e-05 -1.17827e-05 -1.17916e-05 -2.6531e-06
5.5007e-05 -1.64973e-05 -1.65042e-05 -1.35973e-13
5.64168e-05 -1.69205e-05 -1.6927e-05 -1.31778e-13
3.97999e-05 -1.19338e-05 -1.19426e-05 -2.65311e-06
4.71517e-05 -1.414e-05 -1.41479e-05 -1.43711e-06
5.57119e-05 -1.67089e-05 -1.67156e-05 -1.29143e-13
4.83601e-05 -1.45028e-05 -1.45103e-05 -1.43711e-06
4.77559e-05 -1.43214e-05 -1.43291e-05 -1.43711e-06
3.92964e-05 -1.17827e-05 -1.17916e-05 -2.6531e-06
3.82895e-05 -1.14804e-05 -1.14896e-05 -2.6531e-06
5.35972e-05 -1.60741e-05 -1.60813e-05 -1.2255e-13
5.5007e-05 -1.64973e-05 -1.65042e-05 -1.35973e-13
3.87929e-05 -1.16315e-05 -1.16406e-05 -2.6531e-06
4.59433e-05 -1.37773e-05 -1.37854e-05 -1.4371e-06
5.43021e-05 -1.62857e-05 -1.62927e-05 -1.57174e-13
4.71517e-05 -1.414e-05 -1.41479e-05 -1.43711e-06
4.65475e-05 -1.39586e-05 -1.39667e-05 -1.43711e-06
3.82895e-05 -1.14804e-05 -1.14896e-05 -2.6531e-06
3.72825e-05 -1.11781e-05 -1.11876e-05 -2.6531e-06
5.21874e-05 -1.56509e-05 -1.56585e-05 -1.25924e-13
5.35972e-05 -1.60741e-05 -1.60813e-05 -1.0928e-13
3.7786e-05 -1.13292e-05 -1.13386e-05 -2.6531e-06
4.47349e-05 -1.34145e-05 -1.3423e-05 -1.4371e-06
5.28923e-05 -1.58625e-05 -1.58699e-05 -1.2422e-13
4.59433e-05 -1.37773e-05 -1.37854e-05 -1.4371e-06
4.53391e-05 -1.35959e-05 -1.36042e-05 -1.4371e-06
3.72825e-05 -1.11781e-05 -1.11876e-05 -2.6531e-06
3.62755e-05 -1.08757e-05 -1.08856e-05 -2.6531e-06
5.07776e-05 -1.52278e-05 -1.52356e-05 -1.33491e-13
5.21874e-05 -1.56509e-05 -1.56585e-05 -1.25924e-13
3.6779e-05 -1.10269e-05 -1.10366e-05 -2.6531e-06
4.35265e-05 -1.30518e-05 -1.30606e-05 -1.4371e-06
5.14825e-05 -1.54394e-05 -1.54471e-05 -1.06813e-13
4.47349e-05 -1.34145e-05 -1.3423e-05 -1.4371e-06
4.41307e-05 -1.32331e-05 -1.32418e-05 -1.4371e-06
3.62755e-05 -1.08757e-05 -1.08856e-05 -2.6531e-06
3.52686e-05 -1.05734e-05 -1.05836e-05 -2.6531e-06
4.93678e-05 -1.48046e-05 -1.48128e-05 -1.4433e-13
5.07776e-05 -1.52278e-05 -1.52356e-05 -1.33491e-13
3.5772e-05 -1.07246e-05 -1.07346e-05 -2.6531e-06
4.23181e-05 -1.2689e-05 -1.26982e-05 -1.4371e-06
5.00727e-05 -1.50162e-05 -1.50242e-05 -1.2195e-13
4.35265e-05 -1.30518e-05 -1.30606e-05 -1.4371e-06
4.29223e-05 -1.28704e-05 -1.28794e-05 -1.4371e-06
3.52686e-05 -1.05734e-05 -1.05836e-05 -2.6531e-06
3.42616e-05 -1.02711e-05 -1.02816e-05 -2.65309e-06
4.79579e-05 -1.43814e-05 -1.43899e-05 -1.38643e-13
4.93678e-05 -1.48046e-05 -1.48128e-05 -1.5722e-13
3.47651e-05 -1.04223e-05 -1.04326e-05 -2.6531e-06
4.11097e-05 -1.23263e-05 -1.23358e-05 -1.4371e-06
4.86628e-05 -1.4593e-05 -1.46014e-05 -1.49554e-13
4.23181e-05 -1.2689e-05 -1.26982e-05 -1.4371e-06
4.17139e-05 -1.25076e-05 -1.2517e-05 -1.4371e-06
3.42616e-05 -1.02711e-05 -1.02816e-05 -2.65309e-06
3.32546e-05 -9.96882e-06 -9.97962e-06 -2.65309e-06
4.65481e-05 -1.39582e-05 -1.39671e-05 -1.3564e-13
4.79579e-05 -1.43814e-05 -1.43899e-05 -1.38992e-13
3.37581e-05 -1.012e-05 -1.01306e-05 -2.65309e-06
3.99013e-05 -1.19635e-05 -1.19733e-05 -1.4371e-06
4.7253e-05 -1.41698e-05 -1.41785e-05 -1.10919e-13
4.11097e-05 -1.23263e-05 -1.23358e-05 -1.4371e-06
4.05055e-05 -1.21449e-05 -1.21546e-05 -1.4371e-06
3.32546e-05 -9.96882e-06 -9.97962e-06 -2.65309e-06
3.22476e-05 -9.66652e-06 -9.67762e-06 -2.65309e-06
4.51383e-05 -1.3535e-05 -1.35443e-05 -1.33607e-13
4.65481e-05 -1.39582e-05 -1.39671e-05 -1.3564e-13
3.27511e-05 -9.81767e-06 -9.82862e-06 -2.65309e-06
3.86929e-05 -1.16008e-05 -1.16109e-05 -1.4371e-06
4.58432e-05 -1.37466e-05 -1.37557e-05 -1.5982e-13
3.99013e-05 -1.19635e-05 -1.19733e-05 -1.4371e-06
3.92971e-05 -1.17822e-05 -1.17921e-05 -1.4371e-06
3.22476e-05 -9.66652e-06 -9.67762e-06 -2.65309e-06
3.12406e-05 -9.36422e-06 -9.37561e-06 -2.65309e-06
4.37285e-05 -1.31118e-05 -1.31214e-05 -1.15885e-13
4.51383e-05 -1.3535e-05 -1.35443e-05 -1.33607e-13
3.17441e-05 -9.51537e-06 -9.52661e-06 -2.65309e-06
3.74845e-05 -1.1238e-05 -1.12485e-05 -1.4371e-06
4.44334e-05 -1.33234e-05 -1.33328e-05 -1.33625e-13
3.86929e-05 -1.16008e-05 -1.16109e-05 -1.4371e-06
3.80887e-05 -1.14194e-05 -1.14297e-05 -1.4371e-06
3.12406e-05 -9.36422e-06 -9.37561e-06 -2.65309e-06
3.02337e-05 -9.06192e-06 -9.07361e-06 -2.65309e-06
4.23186e-05 -1.26887e-05 -1.26986e-05 -1.46846e-13
4.37285e-05 -1.31118e-05 -1.31214e-05 -1.15885e-13
3.07372e-05 -9.21307e-06 -9.22461e-06 -2.65309e-06
3.62761e-05 -1.08753e-05 -1.08861e-05 -1.43709e-06
4.30236e-05 -1.29003e-05 -1.291e-05 -1.23758e-13
3.74845e-05 -1.1238e-05 -1.12485e-05 -1.4371e-06
3.68803e-05 -1.10567e-05 -1.10673e-05 -1.4371e-06
3.02337e-05 -9.06192e-06 -9.07361e-06 -2.65309e-06
2.92267e-05 -8.75962e-06 -8.7716e-06 -2.65309e-06
4.09088e-05 -1.22655e-05 -1.22757e-05 -8.61785e-14
4.23186e-05 -1.26887e-05 -1.26986e-05 -1.33575e-13
2.97302e-05 -8.91077e-06 -8.9226e-06 -2.65309e-06
3.50677e-05 -1.05126e-05 -1.05236e-05 -1.43709e-06
4.16137e-05 -1.24771e-05 -1.24871e-05 -1.6948e-13
3.62761e-05 -1.08753e-05 -1.08861e-05 -1.43709e-06
3.56719e-05 -1.06939e-05 -1.07049e-05 -1.43709e-06
2.92267e-05 -8.75962e-06 -8.7716e-06 -2.65309e-06
2.82197e-05 -8.45732e-06 -8.46959e-06 -2.65308e-06
3.9499e-05 -1.18423e-05 -1.18529e-05 -1.71997e-13
4.09088e-05 -1.22655e-05 -1.22757e-05 -8.61785e-14
2.87232e-05 -8.60847e-06 -8.62059e-06 -2.65308e-06
3.38593e-05 -1.01498e-05 -1.01612e-05 -1.43709e-06
4.02039e-05 -1.20539e-05 -1.20643e-05 -1.69512e-13
3.50677e-05 -1.05126e-05 -1.05236e-05 -1.43709e-06
3.44635e-05 -1.03312e-05 -1.03424e-05 -1.43709e-06
2.82197e-05 -8.45732e-06 -8.46959e-06 -2.65308e-06
2.72127e-05 -8.15503e-06 -8.16758e-06 -2.65308e-06
3.80892e-05 -1.14191e-05 -1.143e-05 -1.21315e-13
3.9499e-05 -1.18423e-05 -1.18529e-05 -1.71997e-13
2.77162e-05 -8.30617e-06 -8.31858e-06 -2.65308e-06
3.26509e-05 -9.78708e-06 -9.79879e-06 -1.43709e-06
3.87941e-05 -1.16307e-05 -1.16414e-05 -1.35919e-13
3.38593e-05 -1.01498e-05 -1.01612e-05 -1.43709e-06
3.32551e-05 -9.96845e-06 -9.98e-06 -1.43709e-06
2.72127e-05 -8.15503e-06 -8.16758e-06 -2.65308e-06
2.62057e-05 -7.85273e-06 -7.86556e-06 -2.65308e-06
3.66793e-05 -1.09959e-05 -1.10072e-05 -1.12196e-13
3.80892e-05 -1.14191e-05 -1.143e-05 -1.51142e-13
2.67092e-05 -8.00388e-06 -8.01657e-06 -2.65308e-06
3.14425e-05 -9.42435e-06 -9.43636e-06 -1.43709e-06
3.73842e-05 -1.12075e-05 -1.12186e-05 -1.31619e-13
3.26509e-05 -9.78708e-06 -9.79879e-06 -1.43709e-06
3.20467e-05 -9.60571e-06 -9.61757e-06 -1.43709e-06
2.62057e-05 -7.85273e-06 -7.86556e-06 -2.65308e-06
2.51987e-05 -7.55044e-06 -7.56355e-06 -2.65308e-06
3.52695e-05 -1.05728e-05 -1.05843e-05 -8.1051e-14
3.66793e-05 -1.09959e-05 -1.10072e-05 -1.12196e-13
2.57022e-05 -7.70158e-06 -7.71456e-06 -2.65308e-06
3.02341e-05 -9.06161e-06 -9.07392e-06 -1.43709e-06
3.59744e-05 -1.07844e-05 -1.07957e-05 -8.0752e-14
3.14425e-05 -9.42435e-06 -9.43636e-06 -1.43709e-06
3.08383e-05 -9.24298e-06 -9.25514e-06 -1.43709e-06
2.51987e-05 -7.55044e-06 -7.56355e-06 -2.65308e-06
2.41917e-05 -7.24815e-06 -7.26153e-06 -2.65308e-06
3.38597e-05 -1.01496e-05 -1.01615e-05 -3.40973e-14
3.52695e-05 -1.05728e-05 -1.05843e-05 -8.1051e-14
2.46952e-05 -7.39929e-06 -7.41254e-06 -2.65308e-06
2.90257e-05 -8.69888e-06 -8.71149e-06 -1.43709e-06
3.45646e-05 -1.03612e-05 -1.03729e-05 -8.6251e-14
3.02341e-05 -9.06161e-06 -9.07392e-06 -1.43709e-06
2.96299e-05 -8.88024e-06 -8.89271e-06 -1.43709e-06
2.41917e-05 -7.24815e-06 -7.26153e-06 -2.65308e-06
2.31847e-05 -6.94586e-06 -6.95951e-06 -2.65308e-06
3.24498e-05 -9.72641e-06 -9.73861e-06 1.09278e-14
3.38597e-05 -1.01496e-05 -1.01615e-05 -3.40973e-14
2.36882e-05 -7.097e-06 -7.11052e-06 -2.65308e-06
2.78173e-05 -8.33614e-06 -8.34905e-06 -1.43709e-06
3.31547e-05 -9.938e-06 -9.95003e-06 -3.42065e-14
2.90257e-05 -8.69888e-06 -8.71149e-06 -1.43709e-06
2.84215e-05 -8.51751e-06 -8.53027e-06 -1.43709e-06
2.31847e-05 -6.94586e-06 -6.95951e-06 -2.65308e-06
2.21777e-05 -6.64357e-06 -6.65749e-06 -2.65309e-06
3.104e-05 -9.30323e-06 -9.31575e-06 1.55909e-13
3.24498e-05 -9.72641e-06 -9.73861e-06 1.09289e-14
2.26812e-05 -6.79471e-06 -6.8085e-06 -2.65308e-06
2.66088e-05 -7.97341e-06 -7.98661e-06 -1.43709e-06
3.17449e-05 -9.51482e-06 -9.52718e-06 8.39633e-14
2.78173e-05 -8.33614e-06 -8.34905e-06 -1.43709e-06
2.72131e-05 -8.15477e-06 -8.16783e-06 -1.43709e-06
2.21777e-05 -6.64357e-06 -6.65749e-06 -2.65309e-06
2.11707e-05 -6.34129e-06 -6.35547e-06 -2.65309e-06
2.96301e-05 -8.88005e-06 -8.89289e-06 3.07219e-13
3.104e-05 -9.30323e-06 -9.31575e-06 1.59607e-13
2.16742e-05 -6.49243e-06 -6.50648e-06 -2.65309e-06
2.54004e-05 -7.61068e-06 -7.62417e-06 -1.4371e-06
3.03351e-05 -9.09164e-06 -9.10432e-06 2.49212e-13
2.66088e-05 -7.97341e-06 -7.98661e-06 -1.43709e-06
2.60046e-05 -7.79204e-06 -7.80539e-06 -1.4371e-06
2.11707e-05 -6.34129e-06 -6.35547e-06 -2.65309e-06
2.01637e-05 -6.03901e-06 -6.05344e-06 -2.65311e-06
2.82203e-05 -8.45687e-06 -8.47002e-06 7.01809e-13
2.96301e-05 -8.88005e-06 -8.89289e-06 3.07219e-13
2.06672e-05 -6.19015e-06 -6.20446e-06 -2.6531e-06
2.4192e-05 -7.24794e-06 -7.26173e-06 -1.43711e-06
2.89252e-05 -8.66846e-06 -8.68146e-06 5.57028e-13
2.54004e-05 -7.61068e-06 -7.62417e-06 -1.4371e-06
2.47962e-05 -7.42931e-06 -7.44295e-06 -1.43711e-06
2.01637e-05 -6.03901e-06 -6.05344e-06 -2.65311e-06
1.91567e-05 -5.73673e-06 -5.75142e-06 -2.65313e-06
2.68104e-05 -8.03369e-06 -8.04715e-06 8.91118e-13
2.82203e-05 -8.45687e-06 -8.47002e-06 7.01809e-13
1.96602e-05 -5.88787e-06 -5.90243e-06 -2.65312e-06
2.29835e-05 -6.88521e-06 -6.89928e-06 -1.43713e-06
2.75153e-05 -8.24528e-06 -8.25859e-06 6.96272e-13
2.4192e-05 -7.24794e-06 -7.26173e-06 -1.43711e-06
2.35878e-05 -7.06658e-06 -7.0805e-06 -1.43712e-06
1.91567e-05 -5.73673e-06 -5.75142e-06 -2.65313e-06
1.81497e-05 -5.43446e-06 -5.44939e-06 -2.65315e-06
2.54005e-05 -7.61049e-06 -7.62427e-06 1.23892e-12
2.68104e-05 -8.03369e-06 -8.04715e-06 8.91465e-13
1.86532e-05 -5.5856e-06 -5.6004e-06 -2.65314e-06
2.17751e-05 -6.52248e-06 -6.53682e-06 -1.43715e-06
2.61054e-05 -7.82209e-06 -7.83571e-06 1.58685e-12
2.29835e-05 -6.88521e-06 -6.89928e-06 -1.43713e-06
2.23793e-05 -6.70384e-06 -6.71805e-06 -1.43714e-06
1.81497e-05 -5.43446e-06 -5.44939e-06 -2.65315e-06
1.71427e-05 -5.13219e-06 -5.14737e-06 -2.65318e-06
2.39905e-05 -7.18728e-06 -7.20138e-06 8.36398e-13
2.54005e-05 -7.61049e-06 -7.62427e-06 1.23892e-12
1.76462e-05 -5.28332e-06 -5.29838e-06 -2.65317e-06
2.05666e-05 -6.15974e-06 -6.17437e-06 -1.43719e-06
2.46955e-05 -7.39889e-06 -7.41283e-06 3.60757e-13
2.17751e-05 -6.52248e-06 -6.53682e-06 -1.43715e-06
2.11708e-05 -6.34111e-06 -6.3556e-06 -1.43717e-06
1.71427e-05 -5.13219e-06 -5.14737e-06 -2.65318e-06
1.61357e-05 -4.8299e-06 -4.84536e-06 -2.65318e-06
2.25805e-05 -6.76405e-06 -6.77846e-06 -2.00699e-12
2.39905e-05 -7.18728e-06 -7.20138e-06 8.36398e-13
1.66392e-05 -4.98105e-06 -4.99636e-06 -2.65318e-06
1.93581e-05 -5.797e-06 -5.81191e-06 -1.43722e-06
2.32855e-05 -6.97567e-06 -6.98992e-06 2.47912e-12
2.05666e-05 -6.15974e-06 -6.17437e-06 -1.43719e-06
1.99624e-05 -5.97837e-06 -5.99313e-06 -1.4372e-06
1.61357e-05 -4.8299e-06 -4.84536e-06 -2.65318e-06
1.51288e-05 -4.52756e-06 -4.54339e-06 -2.6531e-06
2.11704e-05 -6.3408e-06 -6.35552e-06 -5.93851e-12
2.25805e-05 -6.76405e-06 -6.77846e-06 -2.00699e-12
1.56323e-05 -4.67874e-06 -4.69437e-06 -2.65316e-06
1.81497e-05 -5.43426e-06 -5.44945e-06 -1.43721e-06
2.18754e-05 -6.55243e-06 -6.567e-06 -8.00084e-12
1.93581e-05 -5.797e-06 -5.81191e-06 -1.43722e-06
1.87539e-05 -5.61563e-06 -5.63068e-06 -1.43722e-06
1.51288e-05 -4.52756e-06 -4.54339e-06 -2.6531e-06
1.41219e-05 -4.22509e-06 -4.24149e-06 -2.6528e-06
1.97602e-05 -5.91752e-06 -5.93259e-06 -3.07922e-11
2.11704e-05 -6.3408e-06 -6.35552e-06 -5.93886e-12
1.46253e-05 -4.37635e-06 -4.39243e-06 -2.65299e-06
1.69413e-05 -5.07151e-06 -5.08705e-06 -1.43709e-06
2.04653e-05 -6.12915e-06 -6.14406e-06 -3.19169e-12
1.81497e-05 -5.43426e-06 -5.44945e-06 -1.43721e-06
1.75454e-05 -5.25288e-06 -5.26824e-06 -1.43718e-06
1.41219e-05 -4.22509e-06 -4.24149e-06 -2.6528e-06
1.31151e-05 -3.92232e-06 -3.93975e-06 -2.65195e-06
1.83501e-05 -5.49432e-06 -5.50963e-06 -4.5434e-11
1.97602e-05 -5.91752e-06 -5.93259e-06 -3.08184e-11
1.36185e-05 -4.07376e-06 -4.09059e-06 -2.65248e-06
1.57332e-05 -4.70876e-06 -4.72475e-06 -1.43664e-06
1.90552e-05 -5.70594e-06 -5.7211e-06 -6.06144e-11
1.69413e-05 -5.07151e-06 -5.08705e-06 -1.43709e-06
1.63372e-05 -4.89013e-06 -4.90589e-06 -1.43692e-06
1.31151e-05 -3.92232e-06 -3.93975e-06 -2.65195e-06
1.21082e-05 -3.61894e-06 -3.63827e-06 -2.65001e-06
1.69407e-05 -5.07118e-06 -5.08694e-06 -1.7962e-10
1.83501e-05 -5.49432e-06 -5.50963e-06 -4.5434e-11
1.26117e-05 -3.77075e-06 -3.78897e-06 -2.65117e-06
1.45258e-05 -4.34603e-06 -4.36275e-06 -1.43546e-06
1.76453e-05 -5.28265e-06 -5.29826e-06 -4.4441e-11
1.57332e-05 -4.70876e-06 -4.72475e-06 -1.43664e-06
1.51293e-05 -4.52739e-06 -4.54368e-06 -1.43619e-06
1.21082e-05 -3.61894e-06 -3.63827e-06 -2.65001e-06
1.11016e-05 -3.31431e-06 -3.3374e-06 -2.64565e-06
1.55325e-05 -4.64887e-06 -4.66442e-06 -2.02958e-10
1.69407e-05 -5.07118e-06 -5.08694e-06 -1.7962e-10
1.16048e-05 -3.46682e-06 -3.48772e-06 -2.64826e-06
1.33197e-05 -3.98337e-06 -4.00127e-06 -1.43263e-06
1.62365e-05 -4.86006e-06 -4.8756e-06 -3.0487e-10
1.45258e-05 -4.34603e-06 -4.36275e-06 -1.43546e-06
1.39225e-05 -4.16468e-06 -4.18194e-06 -1.43431e-06
1.11016e-05 -3.31431e-06 -3.3374e-06 -2.64565e-06
1.00943e-05 -3.0074e-06 -3.03722e-06 -2.63707e-06
1.41289e-05 -4.22708e-06 -4.24365e-06 -7.92764e-10
1.55325e-05 -4.64887e-06 -4.66442e-06 -2.02958e-10
1.05981e-05 -3.16128e-06 -3.18723e-06 -2.64203e-06
1.21169e-05 -3.62091e-06 -3.64113e-06 -1.42664e-06
1.48297e-05 -4.43742e-06 -4.45385e-06 -2.06725e-10
1.33197e-05 -3.98337e-06 -4.00127e-06 -1.43263e-06
1.27176e-05 -3.80212e-06 -3.82093e-06 -1.43025e-06
1.00943e-05 -3.0074e-06 -3.03722e-06 -2.63707e-06
9.08686e-06 -2.69615e-06 -2.73888e-06 -2.61992e-06
1.27326e-05 -3.8101e-06 -3.82393e-06 -6.8937e-10
1.41289e-05 -4.22708e-06 -4.24365e-06 -7.92764e-10
9.59034e-06 -2.85237e-06 -2.8877e-06 -2.62999e-06
1.09193e-05 -3.25884e-06 -3.28304e-06 -1.41434e-06
1.34299e-05 -4.01877e-06 -4.03336e-06 -1.28304e-09
1.21169e-05 -3.62091e-06 -3.64113e-06 -1.42664e-06
1.15174e-05 -3.43975e-06 -3.46186e-06 -1.42139e-06
9.08686e-06 -2.69615e-06 -2.73888e-06 -2.61992e-06
8.07519e-06 -2.37819e-06 -2.44157e-06 -2.58981e-06
1.13575e-05 -3.39493e-06 -3.41251e-06 -2.97339e-09
1.27326e-05 -3.8101e-06 -3.82393e-06 -6.8937e-10
8.58231e-06 -2.53852e-06 -2.5902e-06 -2.60678e-06
9.73383e-06 -2.89785e-06 -2.92971e-06 -1.39067e-06
1.20406e-05 -3.59986e-06 -3.61745e-06 -5.96417e-10
1.09193e-05 -3.25884e-06 -3.28304e-06 -1.41434e-06
1.03242e-05 -3.07831e-06 -3.10537e-06 -1.40481e-06
8.07519e-06 -2.37819e-06 -2.44157e-06 -2.58981e-06
7.06064e-06 -2.04762e-06 -2.14844e-06 -2.53554e-06
1.00132e-05 -3.00229e-06 -3.00468e-06 -1.84963e-09
1.13575e-05 -3.39493e-06 -3.41251e-06 -2.97339e-09
7.56735e-06 -2.21416e-06 -2.29422e-06 -2.56679e-06
8.56426e-06 -2.53786e-06 -2.58274e-06 -1.34758e-06
1.06821e-05 -3.19993e-06 -3.20663e-06 -4.93422e-09
9.73383e-06 -2.89785e-06 -2.92971e-06 -1.39067e-06
9.14747e-06 -2.71732e-06 -2.75578e-06 -1.37134e-06
7.06064e-06 -2.04762e-06 -2.14844e-06 -2.53554e-06
6.02416e-06 -1.70297e-06 -1.85194e-06 -2.4528e-06
8.74765e-06 -2.61105e-06 -2.62997e-06 -9.89884e-09
1.00132e-05 -3.00229e-06 -3.00468e-06 -1.84963e-09
6.54845e-06 -1.87894e-06 -2.00122e-06 -2.49776e-06
7.43193e-06 -2.18204e-06 -2.24995e-06 -1.27021e-06
9.36403e-06 -2.79508e-06 -2.81526e-06 -5.1345e-10
8.56426e-06 -2.53786e-06 -2.58274e-06 -1.34758e-06
7.99036e-06 -2.36018e-06 -2.41294e-06 -1.3167e-06
6.02416e-06 -1.70297e-06 -1.85194e-06 -2.4528e-06
4.96704e-06 -1.32986e-06 -1.55879e-06 -2.32473e-06
7.59338e-06 -2.31575e-06 -2.26184e-06 -3.4618e-09
8.74765e-06 -2.61105e-06 -2.62997e-06 -9.89883e-09
5.49471e-06 -1.51654e-06 -1.70493e-06 -2.39591e-06
6.33084e-06 -1.8254e-06 -1.9309e-06 -1.14777e-06
8.15909e-06 -2.47193e-06 -2.43736e-06 -1.84823e-08
7.43193e-06 -2.18204e-06 -2.24995e-06 -1.27021e-06
6.88131e-06 -2.0021e-06 -2.09109e-06 -1.21102e-06
4.96704e-06 -1.32986e-06 -1.55879e-06 -2.32473e-06
3.81439e-06 -9.58409e-07 -1.22399e-06 -2.18682e-06
6.68288e-06 -1.99069e-06 -2.01094e-06 -2.72199e-08
7.59338e-06 -2.31575e-06 -2.26184e-06 -3.4618e-09
4.41549e-06 -1.15006e-06 -1.39947e-06 -2.25313e-06
5.31611e-06 -1.48007e-06 -1.64402e-06 -9.45993e-07
7.0886e-06 -2.10588e-06 -2.13545e-06 7.97598e-09
6.33084e-06 -1.8254e-06 -1.9309e-06 -1.14777e-06
5.80195e-06 -1.65504e-06 -1.77725e-06 -1.06989e-06
3.81439e-06 -9.58409e-07 -1.22399e-06 -2.18682e-06
2.57341e-06 -5.89978e-07 -8.50044e-07 -2.09752e-06
6.16218e-06 -2.03733e-06 -1.76779e-06 4.36059e-08
6.68288e-06 -1.99069e-06 -2.01094e-06 -2.72199e-08
3.19121e-06 -7.48627e-07 -1.04682e-06 -2.12727e-06
4.25846e-06 -1.1076e-06 -1.35037e-06 -7.26355e-07
6.3746e-06 -2.06661e-06 -1.84628e-06 -5.97252e-08
5.31611e-06 -1.48007e-06 -1.64402e-06 -9.45993e-07
4.81953e-06 -1.29215e-06 -1.51174e-06 -8.11585e-07
2.57341e-06 -5.89978e-07 -8.50044e-07 -2.09752e-06
1.13083e-06 -6.22102e-07 -2.18027e-07 -2.45178e-06
6.51281e-06 -1.76426e-06 -2.03509e-06 2.62951e-07
6.16218e-06 -2.03733e-06 -1.76779e-06 4.36059e-08
1.90521e-06 -5.51043e-07 -5.80359e-07 -2.18105e-06
3.1303e-06 -7.96826e-07 -1.00006e-06 -5.90519e-07
6.1676e-06 -1.71825e-06 -1.90686e-06 1.87112e-07
4.25846e-06 -1.1076e-06 -1.35037e-06 -7.26355e-07
3.67975e-06 -9.43682e-07 -1.1726e-06 -6.75397e-07
1.13083e-06 -6.22102e-07 -2.18027e-07 -2.45178e-06
4.54535e-07 -2.28576e-06 7.84809e-07 -3.75733e-06
8.86992e-06 -1.78196e-06 -3.0377e-06 2.04985e-06
6.51281e-06 -1.76426e-06 -2.03509e-06 2.62951e-07
5.48021e-07 -9.37453e-07 1.66899e-07 -2.91752e-06
7.91694e-07 -1.43687e-06 2.76504e-07 -2.16839e-06
7.35965e-06 -2.46154e-06 -2.09919e-06 5.51753e-07
3.1303e-06 -7.96826e-07 -1.00006e-06 -5.90519e-07
2.27823e-06 -7.72961e-07 -6.45114e-07 -8.89977e-07
4.54535e-07 -2.28576e-06 7.84809e-07 -3.75733e-06
3.17365e-06 -1.01129e-05 2.97395e-06 -3.80803e-06
5.24025e-06 -1.33336e-05 3.46858e-06 -1.02726e-05
8.86992e-06 -1.78196e-06 -3.0377e-06 2.04985e-06
1.2099e-06 -5.39709e-06 1.79451e-06 -4.43271e-06
2.85522e-06 -1.24408e-05 4.10809e-06 -6.12299e-06
8.88335e-06 -5.52283e-07 -3.57046e-06 9.11755e-07
7.91694e-07 -1.43687e-06 2.76504e-07 -2.16839e-06
4.05699e-07 -4.0799e-06 1.57466e-06 -4.03992e-06
      </DataArray> 
    </PointData>
    <CellData>
      <DataArray type="Float64" NumberOfComponents="1" Name="Process" format="ascii">
3
3
3
3
3
3
3
3
3
3
3
3
3
3
3
3
3
3
3
3
3
3
3
3
3
2
2
2
2
2
2
2
2
2
2
2
2
2
2
2
2
2
2
2
2
2
2
2
2
1
1
1
1
1
1
1
1
1
1
1
1
1
1
1
1
1
1
1
1
1
1
1
1
1
0
0
0
0
0
0
0
0
0
0
0
0
0
0
0
0
0
0
0
0
0
0
0
0
0
5
5
5
5
5
5
5
5
5
5
5
5
5
5
5
5
5
5
5
5
5
5
5
5
5
4
4
4
4
4
4
4
4
4
4
4
4
4
4
4
4
4
4
4
4
4
4
4
4
7
7
7
7
7
7
7
7
7
7
7
7
7
7
7
7
7
7
7
7
7
7
7
7
7
6
6
6
6
6
6
6
6
6
6
6
6
6
6
6
6
6
6
6
6
6
6
6
6
3
3
3
3
3
3
3
3
3
3
3
3
3
3
3
3
3
3
3
3
3
3
3
3
3
2
2
2
2
2
2
2
2
2
2
2
2
2
2
2
2
2
2
2
2
2
2
2
2
1
1
1
1
1
1
1
1
1
1
1
1
1
1
1
1
1
1
1
1
1
1
1
1
1
0
0
0
0
0
0
0
0
0
0
0
0
0
0
0
0
0
0
0
0
0
0
0
0
0
5
5
5
5
5
5
5
5
5
5
5
5
5
5
5
5
5
5
5
5
5
5
5
5
5
4
4
4
4
4
4
4
4
4
4
4
4
4
4
4
4
4
4
4
4
4
4
4
4
7
7
7
7
7
7
7
7
7
7
7
7
7
7
7
7
7
7
7
7
7
7
7
7
7
6
6
6
6
6
6
6
6
6
6
6
6
6
6
6
6
6
6
6
6
6
6
6
6
3
3
3
3
3
3
3
3
3
3
3
3
3
3
3
3
3
3
3
3
3
3
3
3
3
2
2
2
2
2
2
2
2
2
2
2
2
2
2
2
2
2
2
2
2
2
2
2
2
1
1
1
1
1
1
1
1
1
1
1
1
1
1
1
1
1
1
1
1
1
1
1
1
1
0
0
0
0
0
0
0
0
0
0
0
0
0
0
0
0
0
0
0
0
0
0
0
0
0
5
5
5
5
5
5
5
5
5
5
5
5
5
5
5
5
5
5
5
5
5
5
5
5
5
4
4
4
4
4
4
4
4
4
4
4
4
4
4
4
4
4
4
4
4
4
4
4
4
7
7
7
7
7
7
7
7
7
7
7
7
7
7
7
7
7
7
7
7
7
7
7
7
7
6
6
6
6
6
6
6
6
6
6
6
6
6
6
6
6
6
6
6
6
6
6
6
6
3
3
3
3
3
3
3
3
3
3
3
3
3
3
3
3
3
3
3
3
3
3
3
3
3
2
2
2
2
2
2
2
2
2
2
2
2
2
2
2
2
2
2
2
2
2
2
2
2
1
1
1
1
1
1
1
1
1
1
1
1
1
1
1
1
1
1
1
1
1
1
1
1
1
0
0
0
0
0
0
0
0
0
0
0
0
0
0
0
0
0
0
0
0
0
0
0
0
0
5
5
5
5
5
5
5
5
5
5
5
5
5
5
5
5
5
5
5
5
5
5
5
5
5
4
4
4
4
4
4
4
4
4
4
4
4
4
4
4
4
4
4
4
4
4
4
4
4
7
7
7
7
7
7
7
7
7
7
7
7
7
7
7
7
7
7
7
7
7
7
7
7
7
6
6
6
6
6
6
6
6
6
6
6
6
6
6
6
6
6
6
6
6
6
6
6
6
3
3
3
3
3
3
3
3
3
3
3
3
3
3
3
3
3
3
3
3
3
3
3
3
3
2
2
2
2
2
2
2
2
2
2
2
2
2
2
2
2
2
2
2
2
2
2
2
2
1
1
1
1
1
1
1
1
1
1
1
1
1
1
1
1
1
1
1
1
1
1
1
1
1
0
0
0
0
0
0
0
0
0
0
0
0
0
0
0
0
0
0
0
0
0
0
0
0
0
5
5
5
5
5
5
5
5
5
5
5
5
5
5
5
5
5
5
5
5
5
5
5
5
5
4
4
4
4
4
4
4
4
4
4
4
4
4
4
4
4
4
4
4
4
4
4
4
4
7
7
7
7
7
7
7
7
7
7
7
7
7
7
7
7
7
7
7
7
7
7
7
7
7
6
6
6
6
6
6
6
6
6
6
6
6
6
6
6
6
6
6
6
6
6
6
6
6
3
3
3
3
3
3
3
3
3
3
3
3
3
3
3
3
3
3
3
3
3
3
3
3
3
2
2
2
2
2
2
2
2
2
2
2
2
2
2
2
2
2
2
2
2
2
2
2
2
1
1
1
1
1
1
1
1
1
1
1
1
1
1
1
1
1
1
1
1
1
1
1
1
1
0
0
0
0
0
0
0
0
0
0
0
0
0
0
0
0
0
0
0
0
0
0
0
0
0
5
5
5
5
5
5
5
5
5
5
5
5
5
5
5
5
5
5
5
5
5
5
5
5
5
4
4
4
4
4
4
4
4
4
4
4
4
4
4
4
4
4
4
4
4
4
4
4
4
7
7
7
7
7
7
7
7
7
7
7
7
7
7
7
7
7
7
7
7
7
7
7
7
7
6
6
6
6
6
6
6
6
6
6
6
6
6
6
6
6
6
6
6
6
6
6
6
6
3
3
3
3
3
3
3
3
3
3
3
3
3
3
3
3
3
3
3
3
3
3
3
3
3
2
2
2
2
2
2
2
2
2
2
2
2
2
2
2
2
2
2
2
2
2
2
2
2
1
1
1
1
1
1
1
1
1
1
1
1
1
1
1
1
1
1
1
1
1
1
1
1
1
0
0
0
0
0
0
0
0
0
0
0
0
0
0
0
0
0
0
0
0
0
0
0
0
0
5
5
5
5
5
5
5
5
5
5
5
5
5
5
5
5
5
5
5
5
5
5
5
5
5
4
4
4
4
4
4
4
4
4
4
4
4
4
4
4
4
4
4
4
4
4
4
4
4
7
7
7
7
7
7
7
7
7
7
7
7
7
7
7
7
7
7
7
7
7
7
7
7
7
6
6
6
6
6
6
6
6
6
6
6
6
6
6
6
6
6
6
6
6
6
6
6
6
      </DataArray> 
    </CellData>
  </Piece>
  </UnstructuredGrid>
</VTKFile>
