<?xml version="1.0"?>
<VTKFile type="UnstructuredGrid">
  <UnstructuredGrid>
  <Piece NumberOfPoints="836"  NumberOfCells="392">
    <Points>
      <DataArray type="Float64" NumberOfComponents="3" format="ascii">
1.09813 1.01995 0.1
0.500651 0.510321 0.1
1.49945 0.510321 0.1
1.49947 1.52945 0.1
0.500633 1.52945 0.1
1.09332 1.0526 0.1
1.07939 1.0821 0.1
1.05768 1.10552 0.1
1.03035 1.12058 0.1
1.00004 1.12577 0.1
0.969771 1.12058 0.1
0.942418 1.10552 0.1
0.920718 1.0821 0.1
0.906777 1.0526 0.1
0.901973 1.01995 0.1
0.906774 0.987272 0.1
0.92071 0.95781 0.1
0.942425 0.934377 0.1
0.969758 0.919324 0.1
1.00006 0.914135 0.1
1.03034 0.919323 0.1
1.05768 0.934373 0.1
1.07939 0.957802 0.1
1.09333 0.987277 0.1
1.09693 1.03647 0.1
1.08743 1.06794 0.1
1.06939 1.09472 0.1
1.04456 1.11421 0.1
1.01539 1.12446 0.1
0.984718 1.12447 0.1
0.95554 1.1142 0.1
0.930712 1.09472 0.1
0.91267 1.06793 0.1
0.903173 1.03647 0.1
0.903177 1.00341 0.1
0.912654 0.97196 0.1
0.930706 0.945177 0.1
0.955542 0.92569 0.1
0.984717 0.915446 0.1
1.01539 0.915441 0.1
1.04457 0.925693 0.1
1.06939 0.945169 0.1
1.08744 0.971956 0.1
1.09692 1.00341 0.1
0.625472 0.510196 0.1
0.750296 0.50999 0.1
0.875147 0.509806 0.1
1.00005 0.509745 0.1
1.12495 0.509807 0.1
1.24981 0.509992 0.1
1.37463 0.510197 0.1
0.563061 0.510269 0.1
0.687884 0.510103 0.1
0.812715 0.509882 0.1
0.937593 0.50976 0.1
1.06251 0.509761 0.1
1.18739 0.509884 0.1
1.31222 0.510104 0.1
1.43704 0.510269 0.1
1.49933 0.637703 0.1
1.49914 0.765101 0.1
1.49898 0.8925 0.1
1.49893 1.01988 0.1
1.49898 1.14727 0.1
1.49914 1.27467 0.1
1.49933 1.40207 0.1
1.4994 0.57401 0.1
1.49924 0.7014 0.1
1.49905 0.828803 0.1
1.49894 0.956194 0.1
1.49894 1.08357 0.1
1.49904 1.21096 0.1
1.49924 1.33837 0.1
1.4994 1.46576 0.1
1.37464 1.52966 0.1
1.24981 1.52994 0.1
1.12496 1.53016 0.1
1.00005 1.53024 0.1
0.875144 1.53016 0.1
0.750288 1.52993 0.1
0.625459 1.52966 0.1
1.43706 1.52955 0.1
1.31223 1.52979 0.1
1.18739 1.53007 0.1
1.06251 1.53022 0.1
0.937591 1.53022 0.1
0.81271 1.53007 0.1
0.687874 1.52979 0.1
0.563046 1.52955 0.1
0.500773 1.40207 0.1
0.500964 1.27467 0.1
0.501125 1.14727 0.1
0.501177 1.01988 0.1
0.50112 0.892501 0.1
0.500959 0.765102 0.1
0.500774 0.637703 0.1
0.500697 1.46576 0.1
0.500862 1.33837 0.1
0.501058 1.21096 0.1
0.501165 1.08357 0.1
0.501162 0.956194 0.1
0.501053 0.828803 0.1
0.500859 0.7014 0.1
0.500705 0.57401 0.1
1.24694 0.765811 0.1
1.23415 1.25756 0.1
0.776268 1.25596 0.1
0.769517 0.790879 0.1
1.04755 0.712833 0.1
0.691988 0.976881 0.1
0.957874 1.33646 0.1
1.29889 0.971445 0.1
1.21342 1.1316 0.1
0.890212 0.800264 0.1
0.785587 1.14087 0.1
1.11923 1.24326 0.1
1.16445 0.850841 0.1
0.901307 1.22575 0.1
0.800651 0.918775 0.1
1.03143 0.815809 0.1
1.19683 0.987816 0.1
0.827077 1.05419 0.1
1.12964 1.15379 0.1
1.03408 1.20137 0.1
0.879028 0.894689 0.1
0.878149 1.14485 0.1
1.14531 0.943208 0.1
1.07445 0.868579 0.1
0.97437 0.851875 0.1
1.16083 1.04634 0.1
1.34515 1.10876 0.1
0.657291 1.10562 0.1
1.08404 1.37147 0.1
0.912979 0.666102 0.1
0.979917 1.18671 0.1
1.07088 1.16433 0.1
0.840864 0.999127 0.1
0.842778 1.40268 0.1
0.626215 0.85941 0.1
1.37138 0.855527 0.1
1.15757 0.64454 0.1
1.11659 0.801728 0.1
1.21242 0.900048 0.1
0.866676 1.09065 0.1
1.15053 0.995178 0.1
1.10521 0.910384 0.1
1.02409 0.86215 0.1
1.13741 1.08361 0.1
0.929564 0.879109 0.1
1.23832 1.07014 0.1
0.950782 0.774144 0.1
0.674316 1.40273 0.1
0.625318 0.687314 0.1
1.34139 0.628646 0.1
1.3525 1.37988 0.1
0.709637 1.05003 0.1
1.02955 1.31864 0.1
0.937038 1.14975 0.1
0.876458 0.954595 0.1
1.38963 1.24715 0.1
1.22575 1.41915 0.1
0.616153 1.25247 0.1
0.772224 0.627353 0.1
0.835919 0.853221 0.1
0.837751 1.1881 0.1
0.716196 0.858189 0.1
0.841764 1.311 0.1
1.1771 1.21615 0.1
0.971478 1.25473 0.1
0.77289 0.990734 0.1
1.09849 1.11996 0.1
1.302 1.18979 0.1
1.17213 1.33753 0.1
0.832036 0.711237 0.1
0.699263 1.19193 0.1
0.87064 1.0421 0.1
1.02186 1.16072 0.1
1.34385 0.740176 0.1
1.07283 0.589306 0.1
0.933595 1.43368 0.1
0.596121 0.952124 0.1
1.42164 0.945019 0.1
1.23066 0.834689 0.1
1.17992 0.784758 0.1
1.2846 0.894873 0.1
1.12158 0.729339 0.1
0.906155 1.10836 0.1
0.912927 0.921504 0.1
0.595227 1.34724 0.1
0.679397 0.606395 0.1
0.901828 0.735799 0.1
1.27709 1.11932 0.1
1.29877 1.05107 0.1
0.969361 0.712976 0.1
1.1142 0.958897 0.1
1.05853 0.89949 0.1
0.979973 0.887081 0.1
1.1248 1.04007 0.1
1.18415 1.08087 0.1
0.936085 0.827075 0.1
0.641566 1.02902 0.1
1.00898 1.38764 0.1
0.686216 1.30105 0.1
0.724971 0.699017 0.1
1.39444 1.0319 0.1
0.988282 0.615872 0.1
1.42294 0.688146 0.1
0.906553 1.28555 0.1
0.74184 0.924399 0.1
1.15214 0.902334 0.1
0.832373 1.1232 0.1
0.758062 1.35501 0.1
0.672461 0.772734 0.1
1.25444 0.68454 0.1
1.11453 0.859741 0.1
1.05614 1.13497 0.1
0.980829 1.14942 0.1
0.87785 0.999582 0.1
1.10404 1.29733 0.1
0.732573 1.1261 0.1
1.27173 1.35228 0.1
1.06768 0.776256 0.1
1.23901 0.953006 0.1
1.30114 1.44681 0.1
1.4174 1.32645 0.1
0.587357 0.597496 0.1
0.586231 1.44118 0.1
0.759723 1.43905 0.1
0.590114 0.774623 0.1
1.24038 0.600854 0.1
1.29549 0.818239 0.1
0.837948 0.779736 0.1
0.766465 1.18867 0.1
0.891501 1.35612 0.1
0.67226 0.909124 0.1
1.05073 1.45871 0.1
0.57152 1.07158 0.1
1.10955 1.19911 0.1
0.894109 0.850885 0.1
1.41513 1.4436 0.1
1.40856 1.16688 0.1
1.14655 1.44579 0.1
0.585523 1.16994 0.1
0.855158 0.602663 0.1
0.893681 1.07586 0.1
0.937166 1.19591 0.1
0.830777 0.955362 0.1
1.07393 0.824606 0.1
1.18871 0.944223 0.1
0.77677 1.0808 0.1
1.06138 1.25251 0.1
1.31829 1.28796 0.1
1.16115 1.26817 0.1
1.17701 1.16461 0.1
1.08345 0.931813 0.1
1.23524 1.18256 0.1
1.11718 1.0003 0.1
1.01876 0.895292 0.1
1.1062 1.07703 0.1
1.20227 1.03203 0.1
0.988227 0.81021 0.1
1.19212 0.721797 0.1
0.946521 0.907975 0.1
1.419 0.781151 0.1
0.899639 1.1796 0.1
0.845827 0.916725 0.1
1.1556 1.12217 0.1
1.00918 0.766991 0.1
1.24564 1.01092 0.1
1.43491 0.57607 0.1
0.775009 0.870341 0.1
0.853898 1.25107 0.1
1.07758 0.658342 0.1
1.35416 0.939775 0.1
1.29089 0.614748 0.1
1.3075 0.555549 0.1
1.35802 0.569421 0.1
0.717015 1.4209 0.1
0.692599 1.48434 0.1
0.649884 1.46619 0.1
0.607715 0.730977 0.1
0.545434 0.706163 0.1
0.563051 0.66252 0.1
0.731246 1.27848 0.1
0.692721 1.2465 0.1
0.737775 1.22392 0.1
0.747232 0.744946 0.1
0.778507 0.705153 0.1
0.800753 0.751038 0.1
0.806996 1.222 0.1
0.845797 1.21961 0.1
0.815086 1.25349 0.1
0.802708 0.822077 0.1
0.80548 0.861815 0.1
0.772242 0.830598 0.1
0.862438 0.905726 0.1
0.840838 0.884955 0.1
0.857456 0.873989 0.1
0.888875 1.16224 0.1
0.868699 1.1838 0.1
0.85793 1.16644 0.1
1.05252 1.18292 0.1
1.09022 1.18167 0.1
1.07184 1.20028 0.1
0.891623 0.97095 0.1
0.898543 0.956381 0.1
0.953359 1.13512 0.1
0.939603 1.12758 0.1
0.846924 1.07236 0.1
0.849502 1.10691 0.1
0.829759 1.0887 0.1
0.884068 0.634397 0.1
0.921706 0.60924 0.1
0.950626 0.640964 0.1
1.36978 1.07032 0.1
1.40148 1.09939 0.1
1.37686 1.13782 0.1
0.800033 1.02241 0.1
0.806858 0.99494 0.1
0.834029 1.02668 0.1
1.00279 1.22811 0.1
0.975692 1.22067 0.1
1.00699 1.19413 0.1
0.931707 0.562872 0.1
0.865147 0.556244 0.1
1.45376 1.15707 0.1
1.44672 1.08959 0.1
1.13948 0.855326 0.1
1.11559 0.830723 0.1
1.14054 0.826263 0.1
1.15332 1.15917 0.1
1.14328 1.18184 0.1
1.11962 1.17648 0.1
1.24509 0.555419 0.1
0.755006 1.4845 0.1
0.545538 0.769868 0.1
1.04773 1.2269 0.1
1.01644 1.25374 0.1
0.801908 1.0675 0.1
0.774913 1.03576 0.1
1.089 1.10096 0.1
1.07815 1.11261 0.1
1.18842 0.875465 0.1
1.18227 0.901236 0.1
1.15832 0.876577 0.1
1.1144 1.22118 0.1
1.14332 1.20758 0.1
1.14817 1.2297 0.1
0.545643 0.833579 0.1
0.60816 0.81701 0.1
0.563677 0.87597 0.1
0.817414 1.48463 0.1
0.801249 1.42086 0.1
0.858952 1.46641 0.1
1.18269 0.555309 0.1
1.19898 0.622708 0.1
1.14127 0.577179 0.1
1.17707 1.19039 0.1
0.835035 1.15567 0.1
0.85528 1.13398 0.1
1.16701 0.943749 0.1
1.16963 0.969673 0.1
1.14788 0.969185 0.1
0.745605 0.864278 0.1
0.74286 0.824544 0.1
0.847823 1.28104 0.1
0.809001 1.28349 0.1
1.04929 0.8653 0.1
1.04901 0.843408 0.1
1.07421 0.846592 0.1
0.888721 1.04722 0.1
0.886343 1.0311 0.1
1.02622 1.14064 0.1
1.01091 1.14325 0.1
0.994166 0.562831 0.1
1.44669 1.02589 0.1
1.25295 1.30492 0.1
1.22193 1.34489 0.1
1.20316 1.29756 0.1
0.657699 1.2222 0.1
0.65119 1.27675 0.1
0.80213 0.669312 0.1
0.748588 0.663176 0.1
0.818286 0.886004 0.1
0.823247 0.917779 0.1
0.869509 1.20693 0.1
0.900454 1.20268 0.1
1.15562 1.02078 0.1
1.17638 1.01366 0.1
1.18155 1.03917 0.1
1.35527 1.17832 0.1
1.32355 1.14926 0.1
0.678299 1.14876 0.1
0.642407 1.18091 0.1
0.621396 1.13778 0.1
1.1281 1.35453 0.1
1.15935 1.39167 0.1
1.1153 1.40861 0.1
0.872491 0.68864 0.1
0.843585 0.656934 0.1
0.98129 0.831048 0.1
1.00618 0.836164 0.1
0.999234 0.856914 0.1
1.0855 1.22588 0.1
0.804619 1.10195 0.1
0.611184 0.905769 0.1
0.54861 0.92232 0.1
0.888178 1.4182 0.1
0.904368 1.48189 0.1
1.11521 0.6169 0.1
1.09889 0.549576 0.1
1.46032 0.918763 0.1
1.39649 0.900285 0.1
1.43517 0.87403 0.1
1.03294 0.637075 0.1
1.06257 0.685598 0.1
1.01792 0.664349 0.1
1.32653 0.955609 0.1
1.37428 0.985849 0.1
1.34666 1.00169 0.1
0.865016 0.852088 0.1
0.88654 0.872759 0.1
0.801867 0.973096 0.1
0.835839 0.977231 0.1
0.954297 1.22536 0.1
0.958538 1.19134 0.1
1.19755 0.8428 0.1
1.22156 0.86736 0.1
1.3952 0.818341 0.1
1.45897 0.836839 0.1
0.894725 0.93807 0.1
0.91679 0.939665 0.1
0.92157 1.12913 0.1
0.924259 1.10687 0.1
0.964675 1.29556 0.1
1.00051 1.2867 0.1
0.99371 1.32759 0.1
0.732421 0.98381 0.1
0.741279 1.0204 0.1
0.700838 1.01345 0.1
1.34582 1.21847 0.1
1.39909 1.20702 0.1
1.18615 1.43248 0.1
1.19894 1.37833 0.1
0.600846 1.2112 0.1
0.813684 0.614998 0.1
0.803733 0.785325 0.1
0.836903 0.816456 0.1
0.771353 1.22232 0.1
0.802123 1.18835 0.1
0.799916 1.33298 0.1
0.767148 1.30549 0.1
0.694312 0.815456 0.1
0.720998 0.781834 0.1
1.09425 0.842135 0.1
1.09526 0.813189 0.1
0.975217 1.13501 0.1
0.958944 1.14965 0.1
0.892325 0.993537 0.1
0.877201 0.977045 0.1
1.17369 0.991506 0.1
1.19275 0.966024 0.1
0.675598 1.03952 0.1
0.666787 1.00296 0.1
1.01926 1.35313 0.1
0.983426 1.36206 0.1
1.05269 0.820173 0.1
1.02777 0.83901 0.1
1.14825 0.793272 0.1
1.17221 0.817791 0.1
1.2507 0.725168 0.1
1.29915 0.712368 0.1
1.29539 0.753015 0.1
1.34662 1.04148 0.1
1.2988 1.01126 0.1
1.00846 0.712863 0.1
0.978821 0.664442 0.1
0.743214 1.06539 0.1
1.04547 1.28559 0.1
1.19952 1.00993 0.1
1.00983 0.812965 0.1
1.09281 1.07949 0.1
1.10234 1.09854 0.1
1.40477 0.543141 0.1
1.38815 0.602364 0.1
0.919234 1.2108 0.1
0.936362 1.24032 0.1
0.8157 0.937064 0.1
0.786824 0.95478 0.1
1.24875 1.38573 0.1
1.20058 0.92213 0.1
1.1704 0.923306 0.1
0.544065 0.617598 0.1
0.606333 0.6424 0.1
0.605841 1.48541 0.1
0.630276 1.42195 0.1
1.0773 1.12748 0.1
1.05697 1.12023 0.1
1.44438 1.2609 0.1
1.45386 1.22078 0.1
0.543236 1.22231 0.1
0.55856 1.26356 0.1
0.802727 0.556358 0.1
0.761255 0.568693 0.1
1.19818 1.48784 0.1
1.23778 1.47452 0.1
0.808976 1.13202 0.1
0.811683 1.16446 0.1
1.10026 1.15903 0.1
1.08472 1.14221 0.1
1.11409 1.13683 0.1
1.04652 1.37959 0.1
1.0568 1.34505 0.1
0.649447 1.06731 0.1
0.68346 1.07783 0.1
1.09215 0.788965 0.1
1.09463 0.752822 0.1
1.1191 0.765532 0.1
1.1988 1.10624 0.1
1.21123 1.07548 0.1
1.22584 1.10085 0.1
0.920476 0.78716 0.1
0.943422 0.800603 0.1
0.913146 0.813693 0.1
1.24851 0.897483 0.1
1.26182 0.923934 0.1
1.2257 0.926541 0.1
0.900251 1.06425 0.1
0.882206 1.05893 0.1
0.618851 0.990567 0.1
0.60654 1.0503 0.1
0.583845 1.01185 0.1
0.971285 1.41067 0.1
1.02986 1.42317 0.1
0.992162 1.44623 0.1
0.848849 1.04813 0.1
0.868696 1.06641 0.1
1.04324 1.12778 0.1
1.03904 1.14793 0.1
0.874308 1.02087 0.1
0.889945 1.00969 0.1
1.00132 1.15517 0.1
0.990487 1.13762 0.1
0.605684 1.29986 0.1
0.548101 1.31094 0.1
0.72581 0.616887 0.1
0.714835 0.558193 0.1
0.913406 1.09519 0.1
0.927626 0.928016 0.1
1.42893 0.632106 0.1
1.38217 0.658401 0.1
1.12977 0.951085 0.1
1.10971 0.934598 0.1
1.12523 0.926831 0.1
1.08987 0.889424 0.1
1.08186 0.904945 0.1
1.06652 0.884065 0.1
1.25761 0.864801 0.1
1.13231 0.977123 0.1
1.04137 0.880729 0.1
1.0752 0.623828 0.1
1.03056 0.602576 0.1
0.911829 0.865042 0.1
0.904295 0.886909 0.1
0.892143 0.82557 0.1
0.863037 0.826715 0.1
1.40803 0.988465 0.1
1.3879 0.942401 0.1
0.892109 1.12656 0.1
0.907599 1.14725 0.1
0.89595 0.908158 0.1
0.877714 0.924598 0.1
1.16914 1.24217 0.1
1.14019 1.2557 0.1
1.15077 0.757022 0.1
1.02798 1.18101 0.1
1.04637 1.16257 0.1
1.26807 1.22366 0.1
1.31016 1.23888 0.1
1.27622 1.27274 0.1
0.855803 1.02054 0.1
1.00092 1.17379 0.1
1.45907 0.773127 0.1
1.42097 0.734649 0.1
1.46104 0.726631 0.1
1.14874 0.92276 0.1
1.23471 1.22007 0.1
1.26862 1.18616 0.1
0.921201 0.900259 0.1
1.16665 1.30285 0.1
1.19765 1.26285 0.1
0.649345 0.816079 0.1
0.671212 0.858814 0.1
0.800408 1.37886 0.1
0.842263 1.35684 0.1
1.09449 0.864185 0.1
0.945735 1.38504 0.1
0.912545 1.39491 0.1
0.924682 1.3463 0.1
0.644041 0.964502 0.1
0.6342 0.930633 0.1
0.68213 0.943001 0.1
1.14282 1.04319 0.1
1.13761 1.01755 0.1
0.543505 1.42162 0.1
0.54343 1.48531 0.1
0.606409 0.553851 0.1
0.544005 0.553922 0.1
1.00199 0.874527 0.1
0.97716 0.869502 0.1
1.46114 0.662925 0.1
1.34263 0.684401 0.1
1.29791 0.656602 0.1
1.20562 1.23684 0.1
1.20616 1.19933 0.1
0.86408 0.790022 0.1
0.869866 0.757739 0.1
0.896007 0.768019 0.1
1.25772 1.09474 0.1
1.24525 1.12544 0.1
0.926302 0.754986 0.1
1.06681 1.30803 0.1
1.09405 1.33441 0.1
0.721136 1.08805 0.1
0.694941 1.11584 0.1
1.14908 1.06495 0.1
1.13108 1.06188 0.1
1.08458 0.721057 0.1
1.05762 0.744541 0.1
1.2053 0.809727 0.1
0.834982 0.745481 0.1
0.73287 1.19029 0.1
1.26895 0.962237 0.1
1.29173 0.933166 0.1
0.954777 0.883049 0.1
0.951932 0.865396 0.1
0.8724 1.11778 0.1
0.886435 1.09944 0.1
1.09436 0.92114 0.1
1.071 0.915591 0.1
1.0988 0.945371 0.1
0.715907 1.15902 0.1
1.13809 1.31741 0.1
1.19317 1.05643 0.1
1.17249 1.06362 0.1
0.955226 0.839481 0.1
0.962141 0.818579 0.1
0.929735 0.914714 0.1
0.944425 0.921181 0.1
1.46027 0.982455 0.1
0.548655 0.986014 0.1
0.966821 1.48195 0.1
1.03644 0.549525 0.1
1.28956 1.15456 0.1
1.31112 1.11403 0.1
0.9074 0.700949 0.1
0.866929 0.723532 0.1
0.939009 1.27014 0.1
0.903918 1.25565 0.1
0.757368 0.957558 0.1
0.771253 0.921609 0.1
1.13385 0.997756 0.1
1.11564 0.97956 0.1
1.04445 0.909424 0.1
1.05819 0.916963 0.1
1.09682 0.958474 0.1
1.10375 0.973077 0.1
1.03863 0.897315 0.1
1.02144 0.878741 0.1
1.14652 1.1029 0.1
1.12703 1.12095 0.1
1.11791 1.10175 0.1
0.899938 1.09214 0.1
0.907186 1.0789 0.1
0.536351 1.04573 0.1
1.02539 1.49447 0.1
1.31968 0.779204 0.1
1.27122 0.792031 0.1
0.543329 1.1586 0.1
1.13576 1.48797 0.1
1.12093 1.02022 0.1
0.999393 0.89109 0.1
1.45827 1.30055 0.1
1.40352 1.28681 0.1
1.26344 1.43297 0.1
1.27548 1.48837 0.1
0.974775 0.903202 0.1
0.990061 0.900592 0.1
1.11143 1.03008 0.1
1.10905 1.04622 0.1
0.781193 1.11083 0.1
1.2203 1.0511 0.1
1.16078 1.08219 0.1
0.969503 0.792181 0.1
0.787814 0.894554 0.1
0.877602 1.23838 0.1
1.12181 1.08027 0.1
1.11545 1.05852 0.1
1.08143 0.944806 0.1
1.07059 0.933126 0.1
0.932788 0.853081 0.1
0.915077 0.838947 0.1
1.10524 0.993876 0.1
1.02462 0.907297 0.1
0.963218 0.897445 0.1
0.938012 0.893577 0.1
1.09032 1.24791 0.1
1.10763 1.01006 0.1
1.00937 0.90469 0.1
0.548 1.37465 0.1
0.652435 0.558314 0.1
1.09974 1.06484 0.1
0.958144 0.913643 0.1
1.06354 1.14962 0.1
1.24195 1.04053 0.1
1.27221 1.031 0.1
1.26855 1.06059 0.1
0.960068 0.743563 0.1
0.989267 0.739986 0.1
0.979974 0.770524 0.1
1.25615 1.15092 0.1
1.22435 1.15708 0.1
1.27227 0.991178 0.1
1.02837 0.739922 0.1
1.33342 0.836899 0.1
1.35762 0.797854 0.1
1.35395 1.26754 0.1
1.12867 0.906421 0.1
0.859359 0.999379 0.1
0.980355 1.16804 0.1
0.776015 1.16478 0.1
0.880168 1.08322 0.1
1.38495 1.35316 0.1
1.41627 1.38503 0.1
1.38382 1.41174 0.1
1.35813 1.44519 0.1
1.32682 1.41335 0.1
0.86714 1.37939 0.1
0.649232 0.884264 0.1
1.11758 0.651439 0.1
1.36277 0.897651 0.1
1.45723 1.42283 0.1
1.45836 1.36426 0.1
1.33788 1.48822 0.1
1.39489 1.48662 0.1
0.858732 0.976934 0.1
0.958421 1.16835 0.1
1.10991 0.885054 0.1
1.14262 1.13797 0.1
1.3834 0.714166 0.1
1.38142 0.760675 0.1
0.861112 0.935669 0.1
0.918325 1.16461 0.1
1.28791 1.08518 0.1
0.935583 0.724353 0.1
1.33541 1.33392 0.1
1.36784 1.30719 0.1
1.4573 1.48651 0.1
1.23882 0.800243 0.1
1.21343 0.775306 0.1
0.722135 1.32803 0.1
0.69871 0.735876 0.1
0.640723 1.32413 0.1
0.702179 0.652707 0.1
0.63477 1.37498 0.1
0.680255 1.3519 0.1
0.652351 0.646854 0.1
0.67515 0.693182 0.1
0.536316 1.10943 0.1
1.08785 1.49442 0.1
0.729007 0.891289 0.1
0.707044 0.916767 0.1
0.694241 0.883667 0.1
0.874156 1.29826 0.1
0.899026 1.32082 0.1
0.866622 1.33358 0.1
0.749532 1.15737 0.1
0.759091 1.13347 0.1
0.932203 1.31104 0.1
0.716937 0.950656 0.1
1.18451 1.12684 0.1
1.16985 1.10149 0.1
0.590724 1.39421 0.1
0.633379 0.601954 0.1
1.46712 0.606887 0.1
1.46718 0.543201 0.1
1.04956 0.796048 0.1
1.07081 0.800429 0.1
1.21386 0.948634 0.1
1.21793 0.970405 0.1
1.15685 0.725578 0.1
1.18603 0.753274 0.1
1.26307 0.826479 0.1
1.29005 0.856552 0.1
1.09959 0.693817 0.1
1.19521 1.14809 0.1
1.16633 1.14339 0.1
0.754659 1.10345 0.1
1.11165 1.27031 0.1
1.08271 1.2749 0.1
1.28644 1.39955 0.1
1.31936 0.917341 0.1
1.13261 1.28277 0.1
1.32196 1.07992 0.1
0.941167 0.689544 0.1
0.716193 1.37886 0.1
0.648882 0.730022 0.1
1.31211 1.36607 0.1
0.85362 0.955039 0.1
0.937064 1.17283 0.1
0.880209 1.26834 0.1
0.758439 0.897384 0.1
1.17486 0.683151 0.1
1.13958 0.686957 0.1
1.29502 1.32012 0.1
1.09865 1.45227 0.1
1.06739 1.4151 0.1
0.578536 1.12075 0.1
0.61441 1.08859 0.1
1.328 0.875205 0.1
1.13335 0.88103 0.1
1.21954 0.743802 0.1
1.20612 1.17356 0.1
1.20602 0.664532 0.1
1.22328 0.703181 0.1
1.03844 0.771581 0.1
1.2423 0.981969 0.1
0.758886 1.39704 0.1
0.631293 0.77369 0.1
1.24742 0.642689 0.1
1.02031 0.791399 0.1
1.22123 0.999385 0.1
0.838316 0.936048 0.1
0.91839 1.18778 0.1
0.998701 0.788607 0.1
1.22396 1.02147 0.1
      </DataArray>
    </Points>
    <Cells>
      <DataArray type="Int32" Name="connectivity" format="ascii">
153 229 50 274 275 276 
151 227 80 277 278 279 
152 228 95 280 281 282 
106 202 174 283 284 285 
107 203 173 286 287 288 
106 164 271 289 290 291 
107 163 270 292 293 294 
124 265 163 295 296 297 
125 264 164 298 299 300 
123 135 237 301 302 303 
15 158 16 304 305 35 
10 157 11 306 307 30 
121 143 210 308 309 310 
133 243 205 311 312 313 
130 204 240 314 315 316 
121 169 136 317 318 319 
123 168 134 320 321 322 
46 205 243 323 312 324 
63 240 204 325 315 326 
116 214 141 327 328 329 
122 253 237 330 331 332 
50 229 49 275 333 57 
80 227 79 278 334 87 
95 228 94 281 335 102 
123 250 168 336 337 320 
121 249 169 338 339 317 
6 170 7 340 341 26 
116 142 209 342 343 344 
115 237 167 345 346 347 
93 228 138 348 349 350 
78 227 137 351 352 353 
48 229 140 354 355 356 
167 237 253 346 331 357 
125 164 210 300 358 359 
126 248 144 360 361 362 
107 270 165 294 363 364 
106 271 166 291 365 366 
127 146 247 367 368 369 
13 175 14 370 371 33 
8 176 9 372 373 28 
46 47 205 54 374 323 
62 63 204 70 326 375 
105 220 172 376 377 378 
161 174 202 379 284 380 
162 173 203 381 287 382 
118 163 265 383 296 384 
117 164 264 385 299 386 
129 144 259 387 388 389 
130 240 171 316 390 391 
131 174 242 392 393 394 
132 172 241 395 396 397 
133 173 243 398 399 311 
128 260 146 400 401 402 
123 237 250 303 403 336 
121 210 249 310 404 338 
93 138 180 350 405 406 
78 137 179 353 407 408 
48 140 178 356 409 410 
61 181 139 411 412 413 
205 272 108 414 415 416 
111 273 204 417 418 419 
124 163 238 297 420 421 
136 169 246 318 422 423 
134 168 245 321 424 425 
116 182 142 426 427 342 
61 139 263 413 428 429 
16 158 187 305 430 431 
11 157 186 307 432 433 
110 168 156 434 435 436 
109 169 155 437 438 439 
159 171 240 440 390 441 
160 241 172 442 396 443 
161 242 174 444 393 379 
162 243 173 445 399 381 
107 231 163 446 447 292 
106 232 164 448 449 289 
106 166 211 366 450 451 
107 165 212 364 452 453 
141 214 247 328 454 455 
10 216 157 456 457 306 
15 217 158 458 459 304 
120 144 248 460 361 461 
109 155 200 439 462 463 
110 156 201 436 464 465 
119 247 146 466 368 467 
116 141 183 329 468 469 
104 213 177 470 471 472 
111 204 192 419 473 474 
108 193 205 475 476 416 
155 169 249 438 339 477 
156 168 250 435 337 478 
120 259 144 479 388 460 
119 146 260 467 401 480 
6 258 170 481 482 340 
50 269 153 483 484 276 
117 245 168 485 424 486 
118 246 169 487 422 488 
160 172 220 443 377 489 
142 248 209 490 491 343 
95 225 152 492 493 282 
80 226 151 494 495 279 
7 170 215 341 496 497 
64 159 240 498 441 499 
90 242 161 500 444 501 
45 243 162 502 445 503 
75 241 160 504 442 505 
114 210 164 506 358 507 
93 94 228 101 335 348 
78 79 227 86 334 351 
48 49 229 56 333 354 
122 135 170 508 509 510 
132 201 156 511 464 512 
131 200 155 513 462 514 
141 221 185 515 516 517 
112 198 149 518 519 520 
113 150 199 521 522 523 
142 184 222 524 525 526 
13 244 175 527 528 370 
180 200 236 529 530 531 
179 201 235 532 533 534 
121 175 143 535 536 308 
8 215 176 537 538 372 
14 175 217 371 539 540 
9 176 216 373 541 542 
90 161 188 501 543 544 
45 162 189 503 545 546 
11 186 12 433 547 31 
16 187 17 431 548 36 
153 269 206 484 549 550 
126 194 145 551 552 553 
127 145 195 554 555 556 
142 182 184 427 557 524 
126 144 194 362 558 551 
127 195 146 556 559 367 
178 272 205 560 414 561 
124 238 148 421 562 563 
113 238 163 564 420 565 
181 204 273 566 418 567 
125 186 157 568 432 569 
124 187 158 570 430 571 
115 167 252 347 572 573 
141 185 183 517 574 468 
123 176 135 575 576 301 
105 171 251 577 578 579 
121 136 175 319 580 535 
123 134 176 322 581 575 
60 263 206 582 583 584 
126 209 248 585 491 360 
105 255 171 586 587 577 
124 148 187 563 588 570 
105 172 252 378 589 590 
138 212 165 591 452 592 
137 211 166 593 450 594 
127 247 214 369 454 595 
110 179 233 596 597 598 
109 180 234 599 600 601 
129 197 144 602 603 387 
4 89 226 96 604 605 
1 44 225 51 606 607 
128 146 196 402 608 609 
59 60 206 67 584 610 
153 177 213 611 471 612 
105 167 255 613 614 586 
113 231 190 615 616 617 
112 149 191 520 618 619 
113 190 150 617 620 521 
132 156 218 512 621 622 
131 155 219 514 623 624 
105 252 167 590 572 613 
129 147 197 625 626 602 
110 201 179 465 532 596 
109 200 180 463 529 599 
108 185 221 627 516 628 
116 183 182 469 629 426 
107 173 231 288 630 446 
106 174 232 285 631 448 
111 222 184 632 525 633 
128 196 148 609 634 635 
125 143 186 636 637 568 
145 254 195 638 639 555 
145 194 254 552 640 638 
131 219 174 624 641 392 
132 218 172 622 642 395 
129 259 198 389 643 644 
128 199 260 645 646 400 
17 187 262 548 647 648 
61 62 181 69 649 411 
92 93 180 100 406 650 
77 78 179 85 408 651 
47 48 178 55 410 652 
130 171 191 391 653 654 
133 190 173 655 656 398 
117 168 207 486 657 658 
118 169 208 488 659 660 
144 256 194 661 662 558 
20 195 21 663 664 40 
22 194 23 665 666 42 
146 195 257 559 667 668 
147 266 170 669 670 671 
12 186 244 547 672 673 
92 180 236 650 531 674 
77 179 235 651 534 675 
4 226 80 605 494 88 
1 225 95 607 492 103 
60 61 263 68 429 582 
104 177 230 472 676 677 
90 91 242 98 678 500 
45 46 243 53 324 502 
63 64 240 71 499 325 
75 76 241 83 679 504 
144 197 256 603 680 661 
146 257 196 668 681 608 
64 224 159 682 683 498 
75 160 223 505 684 685 
18 196 19 686 687 38 
0 197 5 688 689 24 
114 249 210 690 404 506 
149 198 259 519 643 691 
129 198 147 644 692 625 
150 260 199 693 646 522 
118 270 163 694 293 383 
117 271 164 695 290 385 
147 258 197 696 697 626 
22 254 194 698 640 665 
21 195 254 664 639 699 
128 148 199 635 700 645 
148 238 199 562 701 700 
23 194 256 666 662 702 
20 257 195 703 667 663 
148 196 262 634 704 705 
115 250 237 706 403 345 
0 256 197 707 680 688 
19 196 257 687 681 708 
89 90 188 97 544 709 
44 45 189 52 546 710 
5 197 258 689 697 711 
18 262 196 712 704 686 
135 215 170 713 496 509 
149 268 192 714 715 716 
150 193 267 717 718 719 
147 170 258 671 482 696 
112 191 255 619 720 721 
111 192 268 474 715 722 
108 267 193 723 718 475 
139 230 177 724 676 725 
159 251 171 726 578 440 
126 145 209 553 727 585 
135 176 215 576 538 713 
136 217 175 728 539 580 
134 216 176 729 541 581 
113 163 231 565 447 615 
114 164 232 507 449 730 
143 244 186 731 672 637 
148 262 187 705 647 588 
154 224 239 732 733 734 
154 239 223 734 735 736 
62 204 181 375 566 649 
47 178 205 652 561 374 
122 237 135 332 302 508 
137 233 179 737 597 407 
138 234 180 738 600 405 
140 272 178 739 560 409 
139 181 273 412 567 740 
173 190 231 656 616 630 
65 239 224 741 733 742 
74 223 239 743 735 744 
136 158 217 745 459 728 
134 157 216 746 457 729 
143 175 244 536 528 731 
127 214 145 595 747 554 
125 210 143 359 309 636 
122 170 266 510 670 748 
177 206 263 749 583 750 
64 65 224 72 742 682 
74 75 223 82 685 743 
124 158 265 571 751 295 
125 157 264 569 752 298 
149 192 191 716 753 618 
150 190 193 620 754 717 
154 251 224 755 756 732 
3 74 239 81 744 757 
3 239 65 757 741 73 
153 206 177 550 749 611 
104 182 183 758 629 759 
106 211 202 451 760 283 
107 212 203 453 761 286 
161 202 188 380 762 543 
162 203 189 382 763 545 
151 188 202 764 762 765 
152 189 203 766 763 767 
7 215 8 497 537 27 
14 217 15 540 458 34 
9 216 10 542 456 29 
91 92 236 99 674 768 
76 77 235 84 675 769 
165 208 234 770 771 772 
166 207 233 773 774 775 
138 165 234 592 772 738 
137 166 233 594 775 737 
114 232 219 730 776 777 
171 255 191 587 720 653 
110 207 168 778 657 434 
109 208 169 779 659 437 
109 234 208 601 771 779 
110 233 207 598 774 778 
159 224 251 683 756 726 
112 266 198 780 781 518 
151 226 188 495 782 764 
152 225 189 493 783 766 
89 188 226 709 782 604 
44 189 225 710 783 606 
2 59 269 66 784 785 
2 269 50 785 483 58 
12 244 13 673 527 32 
119 221 247 786 787 466 
120 248 222 461 788 789 
183 185 261 574 790 791 
182 230 184 792 793 557 
108 272 185 415 794 627 
112 253 266 795 796 780 
114 219 249 777 797 690 
115 218 250 798 799 706 
21 254 22 699 698 41 
160 220 223 489 800 684 
139 177 263 725 750 428 
111 184 273 633 801 417 
115 252 218 573 802 798 
0 23 256 43 702 707 
19 257 20 708 703 39 
130 191 192 654 753 803 
133 193 190 804 754 655 
5 258 6 711 481 25 
130 192 204 803 473 314 
133 205 193 313 476 804 
151 202 211 765 760 805 
152 203 212 767 761 806 
17 262 18 648 712 37 
154 223 220 736 800 807 
136 246 158 423 808 745 
134 245 157 425 809 746 
117 207 271 658 810 695 
118 208 270 660 811 694 
140 261 185 812 790 813 
154 220 251 807 814 755 
174 219 232 641 776 631 
132 241 235 397 815 816 
131 242 236 394 817 818 
139 184 230 819 793 724 
145 214 209 747 820 727 
165 270 208 363 811 770 
166 271 207 365 810 773 
156 250 218 478 799 621 
155 249 219 477 797 623 
132 235 201 816 533 511 
131 236 200 818 530 513 
104 183 261 759 791 821 
147 198 266 692 781 669 
139 273 184 740 801 819 
140 185 272 813 794 739 
141 247 221 455 787 515 
142 222 248 526 788 490 
112 255 253 721 822 795 
104 230 182 677 792 758 
140 213 261 823 824 812 
108 221 267 628 825 723 
111 268 222 722 826 632 
167 253 255 357 822 614 
91 236 242 768 817 678 
76 235 241 769 815 679 
116 209 214 344 820 327 
105 251 220 579 814 376 
172 218 252 642 802 589 
104 261 213 821 824 470 
137 227 211 352 827 593 
138 228 212 349 828 591 
140 229 213 355 829 823 
122 266 253 748 796 330 
151 211 227 805 827 277 
152 212 228 806 828 280 
153 213 229 612 829 274 
113 199 238 523 701 564 
119 267 221 830 825 786 
120 222 268 789 826 831 
59 206 269 610 549 784 
158 246 265 808 832 751 
157 245 264 809 833 752 
119 260 267 480 834 830 
120 268 259 831 835 479 
149 259 268 691 835 714 
150 267 260 719 834 693 
117 264 245 386 833 485 
118 265 246 384 832 487 
      </DataArray>
      <DataArray type="Int32" Name="offsets" format="ascii">
6
12
18
24
30
36
42
48
54
60
66
72
78
84
90
96
102
108
114
120
126
132
138
144
150
156
162
168
174
180
186
192
198
204
210
216
222
228
234
240
246
252
258
264
270
276
282
288
294
300
306
312
318
324
330
336
342
348
354
360
366
372
378
384
390
396
402
408
414
420
426
432
438
444
450
456
462
468
474
480
486
492
498
504
510
516
522
528
534
540
546
552
558
564
570
576
582
588
594
600
606
612
618
624
630
636
642
648
654
660
666
672
678
684
690
696
702
708
714
720
726
732
738
744
750
756
762
768
774
780
786
792
798
804
810
816
822
828
834
840
846
852
858
864
870
876
882
888
894
900
906
912
918
924
930
936
942
948
954
960
966
972
978
984
990
996
1002
1008
1014
1020
1026
1032
1038
1044
1050
1056
1062
1068
1074
1080
1086
1092
1098
1104
1110
1116
1122
1128
1134
1140
1146
1152
1158
1164
1170
1176
1182
1188
1194
1200
1206
1212
1218
1224
1230
1236
1242
1248
1254
1260
1266
1272
1278
1284
1290
1296
1302
1308
1314
1320
1326
1332
1338
1344
1350
1356
1362
1368
1374
1380
1386
1392
1398
1404
1410
1416
1422
1428
1434
1440
1446
1452
1458
1464
1470
1476
1482
1488
1494
1500
1506
1512
1518
1524
1530
1536
1542
1548
1554
1560
1566
1572
1578
1584
1590
1596
1602
1608
1614
1620
1626
1632
1638
1644
1650
1656
1662
1668
1674
1680
1686
1692
1698
1704
1710
1716
1722
1728
1734
1740
1746
1752
1758
1764
1770
1776
1782
1788
1794
1800
1806
1812
1818
1824
1830
1836
1842
1848
1854
1860
1866
1872
1878
1884
1890
1896
1902
1908
1914
1920
1926
1932
1938
1944
1950
1956
1962
1968
1974
1980
1986
1992
1998
2004
2010
2016
2022
2028
2034
2040
2046
2052
2058
2064
2070
2076
2082
2088
2094
2100
2106
2112
2118
2124
2130
2136
2142
2148
2154
2160
2166
2172
2178
2184
2190
2196
2202
2208
2214
2220
2226
2232
2238
2244
2250
2256
2262
2268
2274
2280
2286
2292
2298
2304
2310
2316
2322
2328
2334
2340
2346
2352
      </DataArray>
      <DataArray type="UInt8" Name="types" format="ascii">
69
69
69
69
69
69
69
69
69
69
69
69
69
69
69
69
69
69
69
69
69
69
69
69
69
69
69
69
69
69
69
69
69
69
69
69
69
69
69
69
69
69
69
69
69
69
69
69
69
69
69
69
69
69
69
69
69
69
69
69
69
69
69
69
69
69
69
69
69
69
69
69
69
69
69
69
69
69
69
69
69
69
69
69
69
69
69
69
69
69
69
69
69
69
69
69
69
69
69
69
69
69
69
69
69
69
69
69
69
69
69
69
69
69
69
69
69
69
69
69
69
69
69
69
69
69
69
69
69
69
69
69
69
69
69
69
69
69
69
69
69
69
69
69
69
69
69
69
69
69
69
69
69
69
69
69
69
69
69
69
69
69
69
69
69
69
69
69
69
69
69
69
69
69
69
69
69
69
69
69
69
69
69
69
69
69
69
69
69
69
69
69
69
69
69
69
69
69
69
69
69
69
69
69
69
69
69
69
69
69
69
69
69
69
69
69
69
69
69
69
69
69
69
69
69
69
69
69
69
69
69
69
69
69
69
69
69
69
69
69
69
69
69
69
69
69
69
69
69
69
69
69
69
69
69
69
69
69
69
69
69
69
69
69
69
69
69
69
69
69
69
69
69
69
69
69
69
69
69
69
69
69
69
69
69
69
69
69
69
69
69
69
69
69
69
69
69
69
69
69
69
69
69
69
69
69
69
69
69
69
69
69
69
69
69
69
69
69
69
69
69
69
69
69
69
69
69
69
69
69
69
69
69
69
69
69
69
69
69
69
69
69
69
69
69
69
69
69
69
69
69
69
69
69
69
69
69
69
69
69
69
69
69
69
69
69
69
69
69
69
69
69
69
69
69
69
69
69
69
69
69
69
69
69
69
69
69
69
69
69
69
69
      </DataArray>
    </Cells>
    <PointData>
      <DataArray type="Float64" NumberOfComponents="2" Name="Displacement" format="ascii">
-0.00187096 0.0199465
0.000150753 0.00982083
-4.76768e-05 0.00982077
-3.12037e-05 0.0299543
0.000133151 0.0299537
-0.00178223 0.0217
-0.00151477 0.0233221
-0.00110314 0.024619
-0.000555465 0.0254761
4.26269e-05 0.0257738
0.000672569 0.0254769
0.00119666 0.0246224
0.0016193 0.023323
0.00188282 0.0216941
0.00197345 0.0199477
0.00188 0.0181739
0.00161166 0.0165886
0.00120317 0.0152791
0.000659775 0.0144296
5.65246e-05 0.0141352
-0.000562719 0.0144291
-0.00109355 0.0152744
-0.00151184 0.0165805
-0.00177764 0.0181782
-0.00184257 0.0208303
-0.00166688 0.022538
-0.00131628 0.0240088
-0.000840766 0.0251114
-0.000258169 0.0256896
0.000361694 0.025698
0.000939125 0.0251042
0.00142227 0.0240126
0.00177085 0.0225351
0.00194232 0.0208286
0.00194595 0.0190533
0.00175482 0.0173586
0.00141653 0.0158876
0.000941209 0.0147907
0.000360414 0.0142145
-0.000256986 0.01421
-0.000833822 0.0147939
-0.00131745 0.01588
-0.00165676 0.0173553
-0.00184403 0.0190537
9.71799e-05 0.00969592
4.59774e-05 0.0094899
2.22708e-05 0.00930561
5.0985e-05 0.00924509
7.99253e-05 0.00930744
5.68969e-05 0.00949173
6.19842e-06 0.00969683
0.00012367 0.00976851
7.12822e-05 0.00960305
2.75715e-05 0.00938228
3.00753e-05 0.00925988
7.19512e-05 0.00926102
7.49072e-05 0.00938434
3.19448e-05 0.00960442
-2.03421e-05 0.00976894
-0.000171074 0.0123277
-0.000356047 0.0148514
-0.000518332 0.0173752
-0.000574336 0.0198827
-0.000522715 0.022391
-0.000362123 0.0249174
-0.000171696 0.0274443
-0.000101678 0.0110721
-0.000255864 0.0135875
-0.000450475 0.0161153
-0.000559619 0.018631
-0.000562147 0.0211346
-0.00045604 0.023652
-0.000260668 0.026183
-9.52078e-05 0.0287014
1.70418e-05 0.0301614
6.34655e-05 0.030435
8.31378e-05 0.0306645
5.13277e-05 0.0307402
1.93093e-05 0.0306627
3.83566e-05 0.0304327
8.43934e-05 0.0301596
-6.85323e-06 0.0300495
4.04814e-05 0.0302899
7.9737e-05 0.030569
7.36681e-05 0.0307216
2.89353e-05 0.0307205
2.24497e-05 0.0305667
6.10349e-05 0.0302877
0.000108432 0.0300482
0.000273288 0.0274427
0.000464139 0.0249165
0.000625199 0.0223913
0.000676608 0.0198835
0.000620432 0.017376
0.000458739 0.0148518
0.00027435 0.0123278
0.00019688 0.0287001
0.000362375 0.0261815
0.000558375 0.0236517
0.00066461 0.0211352
0.00066171 0.0186318
0.000552775 0.016116
0.000358945 0.0135876
0.000204952 0.0110722
-0.000191351 0.0144622
-0.000218146 0.0251236
0.000307411 0.0251383
0.000334774 0.0149182
7.66182e-05 0.0125833
0.000950748 0.0190359
2.94097e-05 0.0274971
-0.000861487 0.0189209
-0.00075036 0.0224703
0.000107765 0.0143011
0.000797347 0.0226754
-1.90006e-05 0.0255866
-0.000326549 0.015796
0.000114108 0.0254739
0.000922156 0.0175823
6.13104e-05 0.01387
-0.0012323 0.0191858
0.00144338 0.0207986
-0.000460653 0.023688
4.4861e-05 0.0258102
0.000611031 0.016272
0.000620053 0.0236005
-0.00107351 0.0177958
-0.000132812 0.0149646
7.15275e-05 0.014145
-0.00144402 0.0206401
-0.0007029 0.0217174
0.000814942 0.0216552
8.12442e-05 0.0279513
1.96941e-05 0.011953
6.62176e-05 0.0257962
-0.000162559 0.0249053
0.00157675 0.0193849
3.84611e-05 0.0282699
0.000622691 0.0166697
-0.00051367 0.0165855
6.35183e-05 0.0117888
-2.15816e-05 0.0143849
-0.000697208 0.0172109
0.00126847 0.022071
-0.0015129 0.0192464
-0.000631144 0.0163375
1.86387e-05 0.0141914
-0.00123994 0.0218278
0.000288446 0.0150409
-0.00101646 0.0210241
2.85505e-05 0.0134628
0.000177029 0.0277673
0.00027769 0.0131755
-7.57441e-05 0.0119591
-0.000123755 0.0272536
0.00101516 0.0205476
6.9427e-05 0.0272606
0.000356116 0.0248781
0.00135104 0.0178157
-0.000384353 0.0244935
2.35108e-05 0.0283664
0.000472763 0.0246149
8.35889e-05 0.0116734
0.000441277 0.0158473
0.000432119 0.0240889
0.000623232 0.0165178
9.27983e-05 0.026573
-0.000239718 0.024575
3.4069e-05 0.0264022
0.00121703 0.01929
-0.000749779 0.0234975
-0.000503202 0.0234665
1.65008e-05 0.0270051
8.58721e-05 0.0130512
0.000598291 0.0235148
0.00175941 0.0206759
-2.46963e-05 0.0256592
-0.000244186 0.0141901
7.93187e-05 0.0106352
2.40254e-05 0.0290383
0.000760238 0.0185527
-0.000629671 0.0184081
-0.000383965 0.0158454
-0.000118987 0.0145315
-0.000654926 0.0172973
5.33207e-05 0.0131538
0.00103399 0.0233554
0.000854496 0.0161361
0.000311002 0.0264969
0.000140912 0.0114789
3.46165e-05 0.0131426
-0.000759104 0.0220217
-0.000889722 0.020565
3.37016e-05 0.0125495
-0.00133318 0.017763
-0.000338234 0.0150208
0.000153623 0.0142485
-0.00169895 0.0206424
-0.0011304 0.0214122
7.42401e-05 0.0142623
0.000874183 0.0200937
5.72926e-05 0.0283344
0.000322724 0.0257536
0.000204566 0.0132029
-0.000709689 0.0201416
4.52913e-05 0.0110227
-0.000207181 0.0132552
3.93409e-05 0.0264977
0.000896814 0.0178847
-0.000659182 0.0168504
0.000909363 0.022545
0.000150521 0.0270693
0.000403672 0.0148257
-5.83096e-05 0.0128524
-0.000220142 0.0154395
-0.000407026 0.0248866
0.000166263 0.0256582
0.001809 0.0192152
5.90051e-05 0.0266296
0.000845276 0.0221857
-8.56173e-05 0.026913
7.02331e-05 0.013595
-0.000948946 0.0184734
-1.17187e-05 0.0287017
-0.000249192 0.0260552
0.000189203 0.0114525
0.000187695 0.0283488
7.71346e-05 0.0287153
0.000452544 0.0149771
2.54324e-05 0.0111919
-0.00039509 0.0157003
0.00017559 0.0143226
0.000563688 0.0236566
2.69332e-05 0.0276076
0.000769549 0.0176495
7.26522e-05 0.0294852
0.000744944 0.020925
-0.000117067 0.0248816
0.000251452 0.0151581
-8.4172e-05 0.0283939
-0.000540647 0.0228413
7.666e-05 0.0290879
0.000636287 0.0229034
2.6144e-05 0.0110014
0.0015417 0.0221494
0.000106177 0.0254422
0.00124561 0.0183019
1.81486e-05 0.0143329
-0.00101171 0.0181303
0.00111817 0.0212893
6.48529e-05 0.0261988
-0.000251111 0.0254726
-5.79728e-05 0.0257386
-0.000505042 0.0234412
-0.000937968 0.0162204
-0.000490422 0.0235151
-0.00174299 0.0191932
-8.82634e-05 0.0142477
-0.00142173 0.0221893
-0.00125812 0.0202135
4.47441e-05 0.0137388
-2.5322e-05 0.0133567
0.000547615 0.0149728
-0.000365088 0.0151161
0.000282004 0.0246479
0.000898005 0.0172193
-0.000810603 0.022629
5.77246e-05 0.0132532
-0.00107418 0.0197362
-7.46108e-05 0.0110551
0.000641429 0.0166003
0.00016432 0.0255135
7.9935e-05 0.0118006
-0.00070409 0.0182921
-2.16716e-05 0.0115741
9.96314e-06 0.0104683
-2.89664e-05 0.0108278
0.000122333 0.0282467
8.79193e-05 0.029418
0.000127384 0.0289631
0.00036442 0.0140841
0.000353147 0.0136525
0.000280917 0.0127631
0.000318616 0.0254249
0.000441554 0.0246446
0.000462859 0.0243047
0.000257082 0.0140592
0.00014833 0.0131534
0.00018646 0.013965
0.000356133 0.0245911
0.000271083 0.0248253
0.000239433 0.0252967
0.00037752 0.0154098
0.000556958 0.016257
0.000466575 0.0157471
0.000765483 0.0167647
0.000634853 0.0165151
0.000509117 0.016094
0.000431789 0.0241471
0.000361311 0.0243175
0.000506224 0.0238152
-2.18836e-05 0.0254262
-0.000132059 0.0248446
-1.2499e-05 0.0253872
0.00162181 0.018011
0.0014403 0.0173807
0.000469214 0.025129
0.000650991 0.0246948
0.00140286 0.0213741
0.00106647 0.0222969
0.00121079 0.0216763
2.20326e-05 0.0114908
2.19554e-05 0.0109844
2.83922e-05 0.0114646
-0.000724462 0.0209218
-0.000648761 0.0214914
-0.000614104 0.0222825
0.00137971 0.019994
0.00137855 0.0193466
0.00156907 0.020114
5.22255e-05 0.0261721
4.47058e-05 0.0260485
4.84445e-05 0.0258917
2.66096e-05 0.0101972
1.84728e-05 0.0101625
-0.000534694 0.022607
-0.000609825 0.0212696
-0.000278207 0.0156531
-9.57453e-05 0.0149005
-0.000150086 0.0150688
-0.000487774 0.0235305
-0.000309023 0.0241403
-0.000263962 0.024311
4.17945e-05 0.0103381
5.76395e-05 0.0295774
0.000456856 0.0149194
5.87019e-05 0.0259701
6.30061e-05 0.0264244
0.00126533 0.0210458
0.00125104 0.020282
-0.00107264 0.0233412
-0.000857089 0.023933
-0.000522271 0.0165235
-0.000689597 0.0170756
-0.000467857 0.0163128
-5.97682e-05 0.0252322
-0.000184953 0.0246768
-0.000120859 0.0250785
0.000562221 0.0161936
0.000532479 0.0158174
0.00063106 0.0170373
2.81101e-05 0.0297125
5.63106e-05 0.0284851
1.9833e-05 0.0294584
7.22947e-05 0.0102277
4.57102e-05 0.0115019
8.13165e-05 0.0105537
-0.000354501 0.0240193
0.000644261 0.0233358
0.000784257 0.0230322
-0.00104707 0.0179958
-0.00125258 0.0186611
-0.00133319 0.0185133
0.000634675 0.0165721
0.000482291 0.0157283
0.000121291 0.0260435
0.000185345 0.0258658
-4.14324e-05 0.0145133
2.02891e-05 0.0142922
-3.60078e-05 0.0146482
0.00183385 0.0210544
0.00190289 0.0203919
-0.000177884 0.025559
-3.71759e-05 0.025725
4.76843e-05 0.0101563
-0.000634915 0.0200109
-0.000139134 0.0260218
-3.70803e-05 0.0269389
-7.80975e-05 0.0260837
0.000526454 0.0240631
0.000403289 0.0251735
8.51959e-05 0.0123791
0.000134225 0.0124292
0.000682914 0.0167202
0.000918503 0.0174301
0.000252857 0.0247931
0.000178603 0.0250708
-0.00154021 0.0199614
-0.00140641 0.0197828
-0.00135285 0.0204081
-0.000534969 0.0231351
-0.0006233 0.0225787
0.00072802 0.0225709
0.000631267 0.0231855
0.000714114 0.0222807
6.46006e-05 0.027505
5.84543e-05 0.0280617
7.99812e-05 0.0285015
3.6812e-05 0.0124726
4.37239e-05 0.0120102
4.93231e-05 0.0139475
5.21757e-05 0.0139494
5.03553e-05 0.0140693
1.46951e-05 0.0256131
0.00106185 0.0218641
0.000707802 0.0176136
0.000680087 0.0179721
2.24604e-05 0.0286747
1.94793e-05 0.0298235
8.01153e-05 0.0111895
8.17949e-05 0.00999042
-0.000565131 0.0178948
-0.000590799 0.0175087
-0.000527373 0.0169969
6.7228e-05 0.0113802
7.95432e-05 0.0122026
6.07971e-05 0.0117995
-0.000776388 0.0186052
-0.000731371 0.0192259
-0.00079214 0.0195453
0.000349032 0.0155377
0.000402507 0.0156873
0.00126477 0.0188441
0.00142987 0.0188297
4.47516e-05 0.0259647
8.30686e-05 0.0256466
-0.00036272 0.0158554
-0.000520986 0.0165194
-0.000432393 0.0158523
-0.000465837 0.0162584
0.00113468 0.0169961
0.00120425 0.01637
0.000668971 0.0241943
0.00108758 0.0239211
3.07028e-05 0.0269152
5.13476e-05 0.0268465
4.72708e-05 0.0274148
0.00106616 0.0191652
0.00113174 0.0199387
0.00100873 0.0197886
-0.00043483 0.0239785
-0.000467376 0.0236675
5.64001e-05 0.0287384
1.9429e-05 0.0276727
0.000562272 0.0237509
4.82714e-05 0.0113274
0.000256034 0.0146384
0.00027763 0.0150625
0.000422788 0.0244047
0.000512628 0.0238316
0.000124519 0.0267967
0.000211613 0.0261133
0.000496616 0.0156659
0.000377856 0.0148996
-7.51035e-05 0.0148472
-2.00476e-07 0.0143803
0.00033606 0.0255768
0.000271895 0.0253345
0.00185769 0.0188047
0.00162647 0.0184723
-0.00136018 0.0192248
-0.0011452 0.0186624
0.00094111 0.0203168
0.000922371 0.0195715
6.23444e-05 0.027789
4.20647e-05 0.0279281
4.9768e-05 0.0140668
4.5847e-05 0.0140612
-7.17904e-05 0.0144865
-0.000201421 0.0151553
-0.000113857 0.0136497
-0.000150485 0.0135311
-0.000224611 0.0143473
-0.000790819 0.0203495
-0.000905947 0.0197429
5.60993e-05 0.0125242
3.97022e-05 0.0118038
0.00107738 0.0208982
7.51546e-05 0.0267416
-0.00127547 0.0197043
5.7099e-05 0.0137599
-0.0014556 0.0226786
-0.00109383 0.0228883
-3.06522e-05 0.0103836
-7.75905e-05 0.0115131
0.000107957 0.0254325
4.32192e-05 0.0260167
0.00106988 0.0179381
0.00112294 0.018461
-2.26959e-05 0.0276474
-0.000841363 0.0176649
-0.000862133 0.0175172
0.000231734 0.0118894
0.000229108 0.0123091
0.000131765 0.0292476
0.000185492 0.0280521
-0.000588886 0.0242027
-0.000695277 0.0247404
-0.000373818 0.0246995
-0.000443474 0.0238822
0.00054208 0.0239112
0.000470399 0.0247574
3.57875e-05 0.0102766
6.03949e-05 0.0106028
6.90908e-05 0.0297384
4.61832e-05 0.0293792
0.000849098 0.0225933
0.000628101 0.023359
-0.000314581 0.0242675
-0.000416038 0.0242646
-0.000575841 0.0235525
7.38259e-05 0.0281694
7.83429e-05 0.0275971
0.000863166 0.0208703
0.000910542 0.0211055
3.95974e-05 0.0139627
6.39559e-05 0.0133988
2.7864e-05 0.0137676
-0.000925119 0.0219494
-0.001078 0.021196
-0.000913481 0.0217314
4.76249e-05 0.0138381
3.99134e-05 0.0138556
8.83857e-05 0.0143053
-0.000680822 0.0172765
-0.00078786 0.0178802
-0.000844012 0.0178558
0.00173395 0.0219486
0.00169568 0.0213622
0.000825176 0.0193197
0.000806277 0.020511
0.000777753 0.019738
3.73046e-05 0.0286953
6.56838e-05 0.028903
4.81986e-05 0.0292933
0.00159229 0.0207281
0.00155195 0.0214098
-0.000483297 0.025182
-0.000173837 0.0253618
0.00184692 0.0199758
0.00192436 0.019505
4.32106e-05 0.0257598
0.000155124 0.0257377
0.00038595 0.0255562
0.000392931 0.0256972
0.000112072 0.0115888
8.19399e-05 0.0104849
0.001296 0.0232961
0.000979153 0.0157829
-0.000134272 0.0121526
-0.000140561 0.0126117
-0.00118992 0.0178113
-0.000979262 0.0170073
-0.00088078 0.0171011
-0.000346399 0.0155931
-0.000490188 0.0156875
-0.000210841 0.0150236
-0.000535718 0.0165918
-0.00147792 0.0185903
-9.84419e-05 0.0145152
7.94489e-05 0.0112224
6.51219e-05 0.0108156
0.000262409 0.0151444
0.000448477 0.0156665
0.000162285 0.0147248
0.000245833 0.0150464
-0.000680381 0.019278
-0.000665011 0.0183541
0.000783581 0.0234324
0.000493292 0.0241897
0.000704607 0.0162659
0.000951848 0.0169996
-0.000134278 0.0251694
-3.91883e-05 0.0256463
-1.05003e-05 0.0138165
1.75084e-05 0.0257021
-9.43599e-05 0.0253315
-0.000367994 0.0242783
-0.000361596 0.0244776
-0.000239286 0.0252796
0.0017192 0.0199609
4.86032e-05 0.0258004
-0.000361156 0.0149844
-0.000282593 0.0141858
-0.000284206 0.0140603
-0.000852418 0.0173118
-0.000337984 0.0243288
-0.000501775 0.0234759
0.000526465 0.0155406
-1.23933e-05 0.0263741
-0.000138594 0.0254137
0.000520352 0.0157554
0.000629379 0.0166082
8.17434e-05 0.0276829
5.77586e-05 0.0274269
-0.000175467 0.0152275
2.69527e-05 0.0282436
2.1993e-05 0.0283347
2.28574e-05 0.0275612
0.000842332 0.0187938
0.000774828 0.0181102
0.000866177 0.0183417
-0.00156719 0.0206297
-0.00166372 0.0198686
0.000233252 0.0278958
0.000158363 0.0291482
0.000137474 0.0105794
0.000170932 0.0106507
4.73854e-05 0.0141319
0.000100776 0.0142206
-0.00018822 0.0127917
-0.000147714 0.0130642
-7.05709e-05 0.0124145
-0.000228112 0.0248305
-0.000373027 0.024024
0.000142205 0.0143336
8.30703e-05 0.0137039
5.82968e-05 0.0137095
-0.000880028 0.0215274
-0.000766204 0.0222236
2.8298e-05 0.0133167
7.8374e-05 0.0269871
7.62963e-05 0.0272981
0.000961148 0.0213547
0.000838383 0.0219062
-0.00138301 0.0212045
-0.00149683 0.0212797
7.76823e-05 0.0128396
7.82421e-05 0.013085
-0.000245512 0.0151914
0.00012081 0.0136816
0.000587487 0.0235696
-0.00090956 0.018709
-0.00077852 0.0181163
0.000229419 0.0145988
0.00014498 0.0144969
0.000931192 0.0228652
0.0011713 0.0226495
-0.000758022 0.0163199
-0.000624591 0.0155601
-0.00116288 0.0170079
0.000710222 0.0228547
3.88309e-05 0.0267969
-0.00123295 0.0207981
-0.00128772 0.021038
7.07613e-05 0.0142094
4.44169e-05 0.0139375
0.000711837 0.0155293
0.000827941 0.0151311
-0.000611707 0.0191498
0.000724431 0.0192286
3.49448e-05 0.0298775
6.71466e-05 0.00994006
-0.000622598 0.0227479
-0.000733832 0.0218608
2.3667e-05 0.0125458
5.70467e-05 0.0131107
2.96091e-05 0.0264519
6.49977e-05 0.0259909
0.00106004 0.0185793
0.000916511 0.0177555
-0.00163107 0.0192367
-0.00158746 0.0184393
-0.000431777 0.0147419
-0.000629927 0.0151788
-0.00139378 0.0172966
-0.00157132 0.0179613
-0.000225997 0.0145587
-2.06734e-05 0.0142391
-0.00100722 0.0222359
-0.000790236 0.0229547
-0.00103327 0.0226258
0.00130813 0.0227822
0.00156718 0.0226548
0.000713527 0.0204033
6.23418e-05 0.0301062
-0.000309164 0.0149419
-0.000293313 0.0150865
0.000635868 0.0226387
8.55454e-05 0.0298708
-0.00177728 0.0199524
5.71406e-05 0.0141509
-0.000308513 0.0254796
-0.000312511 0.0252804
5.68245e-06 0.028525
3.38172e-05 0.0295635
0.000315822 0.0143384
0.000150842 0.0141755
-0.00181694 0.0203654
-0.00175152 0.0210533
0.000972728 0.0219778
-0.00113801 0.020628
-0.00118922 0.0215752
3.49592e-05 0.0136046
0.000765892 0.0170865
0.00013925 0.0254683
-0.00132399 0.0219595
-0.00161055 0.0213897
-0.00121795 0.0163995
-0.000998048 0.0157803
0.000144451 0.0146405
0.00014273 0.0146774
-0.00177019 0.018773
-0.000259417 0.014328
0.000321285 0.0145282
0.000387174 0.015042
3.69595e-05 0.0259149
-0.00183493 0.0195031
-6.08774e-05 0.014168
0.000291702 0.0269687
0.000119414 0.0106059
-0.00162434 0.021974
0.000608188 0.0146953
-0.000256299 0.0248651
-0.00107612 0.0203758
-0.000982892 0.0201585
-0.000954268 0.0207844
2.83545e-05 0.0130088
4.40221e-05 0.0129038
3.81354e-05 0.0133137
-0.000644108 0.0227506
-0.000607968 0.0229975
-0.000964027 0.0193225
6.90886e-05 0.0129282
-0.000465958 0.0161589
-0.000377327 0.0153901
-0.000323531 0.0249735
-0.000648406 0.016656
0.00169513 0.0193243
9.76805e-05 0.0257061
0.000669165 0.0231705
0.00139423 0.022077
-0.000186124 0.0266507
-0.000158692 0.027234
-0.00010438 0.0278227
-4.99849e-05 0.0285368
-6.26162e-05 0.0279788
3.25587e-05 0.0279286
0.000690231 0.0171573
7.80892e-05 0.0117928
-0.000611044 0.017439
-0.000128504 0.0279178
-0.000209998 0.0267522
-1.33466e-06 0.0294136
-2.78402e-05 0.029272
0.00153487 0.0186729
0.000154917 0.0254522
-0.00038205 0.0158805
-0.000639668 0.0231537
-0.000225896 0.0137278
-0.000310907 0.0146645
0.00109371 0.0175261
0.000305044 0.024702
-0.000848839 0.0212839
2.29578e-05 0.0128115
-0.000179303 0.0263679
-0.00025347 0.0257556
-5.95749e-05 0.0291616
-0.000273119 0.0151465
-0.000159746 0.0145183
0.000232633 0.026408
0.000298495 0.0140147
0.000318666 0.0261159
0.000167461 0.012342
0.000242992 0.0271266
0.00023922 0.0267692
0.000203223 0.0123261
0.000246923 0.0132058
0.000678364 0.0216599
7.98331e-05 0.0300559
0.000749354 0.0171963
0.000827191 0.0177733
0.000709371 0.0170944
6.39605e-05 0.0265196
3.20711e-05 0.0270402
4.94153e-05 0.0271092
0.000717336 0.0229088
0.000832388 0.0224131
2.40619e-05 0.0270294
0.00094735 0.0184767
-0.000783511 0.022511
-0.000998819 0.0219975
0.000244162 0.0274236
0.00016684 0.0114747
-0.000122763 0.0116918
-5.92238e-05 0.0104433
6.79457e-05 0.0137482
5.31746e-05 0.0139618
-0.000986477 0.0183215
-0.00108178 0.0188236
1.69101e-05 0.0132651
-6.41783e-05 0.0139409
-0.000392623 0.0157871
-0.000516258 0.0164947
7.80232e-05 0.0124537
-0.00063934 0.0229398
-0.000637832 0.023039
0.000969482 0.0217414
3.13072e-05 0.026122
6.4275e-05 0.0263937
-4.33964e-05 0.0278086
-0.000697813 0.0178119
1.43505e-05 0.0262004
-0.00079439 0.0211447
2.34678e-05 0.0122561
0.000167438 0.0274103
0.000333517 0.0139986
-0.000108004 0.0270737
0.00130068 0.0181195
0.000193483 0.0251544
8.52736e-05 0.026028
0.000783957 0.0172561
3.11663e-05 0.0125556
5.93216e-05 0.0124892
-0.00016308 0.0261936
8.27689e-05 0.0293056
7.84847e-05 0.0287213
0.000705083 0.0219057
0.000784766 0.0212816
-0.000573723 0.0169463
-0.000429329 0.0161378
-0.000101965 0.0139078
-0.000500769 0.0234546
1.44385e-05 0.0123122
-4.3812e-05 0.0131172
7.27822e-05 0.0133816
-0.00103887 0.0191095
0.000106668 0.0278975
0.000433552 0.014913
-7.65509e-06 0.0120142
6.40377e-05 0.0135604
-0.00115787 0.0194764
0.00108549 0.0177655
0.000181171 0.0250681
5.03495e-05 0.013502
-0.00116507 0.0199668
      </DataArray> 
      <DataArray type="Float64" NumberOfComponents="4" Name="CauchyStress" format="ascii">
0.891091 59.8403 0 -0.353867
-0.429349 20.6208 0 0.0438936
-0.434877 20.6224 0 -0.0454751
-0.385167 20.6471 0 -0.228153
-0.392705 20.6628 0 0.22522
4.79569 48.7843 0 -13.7214
9.39128 24.0559 0 -14.8626
4.31708 5.16298 0 -4.97338
-9.92277 -1.43783 0 1.77843
-17.5395 -1.48132 0 0.327154
-9.59811 -1.29758 0 -2.12978
4.00448 5.02236 0 5.52869
9.78624 23.9989 0 15.3118
4.7056 48.7724 0 13.2824
1.32126 59.2297 0 0.330128
5.02539 47.7947 0 -13.5019
9.10242 24.4235 0 -13.8294
4.63886 4.38846 0 -4.54093
-9.84519 -1.57474 0 2.33753
-17.893 -1.17352 0 0.276573
-9.53049 -1.57302 0 -2.70874
4.62473 4.03903 0 4.89489
9.80197 23.9436 0 14.7554
4.92529 48.1265 0 14.1615
2.33905 58.4516 0 -7.82414
7.63004 38.444 0 -16.4718
7.52432 14.4379 0 -10.1928
-3.66637 0.990663 0 0.0345583
-16.7044 -0.986493 0 1.86743
-17.6127 -0.642368 0 -2.09616
-3.66483 1.46773 0 0.576447
7.68943 13.6805 0 10.3286
7.74351 38.6736 0 16.5634
2.55491 58.1955 0 7.68101
2.12639 59.1758 0 -7.92426
7.58741 38.175 0 -15.1603
8.20548 14.3068 0 -10.3197
-3.24224 0.544561 0 0.299781
-16.805 -0.908856 0 2.09025
-17.2293 -0.65227 0 -2.30315
-3.30097 0.783087 0 0.0307899
8.3996 13.3321 0 10.4464
7.82186 37.9784 0 15.8971
1.87288 58.9471 0 8.07865
-0.410697 20.3699 0 -0.389031
-0.39055 19.5623 0 -0.880366
0.0201714 18.7423 0 -0.50312
0.432347 18.4731 0 0.00410613
0.023731 18.7617 0 0.505075
-0.383451 19.5865 0 0.878352
-0.409902 20.3872 0 0.389294
-0.420085 20.5651 0 -0.164993
-0.401131 20.0355 0 -0.628095
-0.185378 19.0833 0 -0.707975
0.226079 18.5389 0 -0.265782
0.22786 18.5505 0 0.270578
-0.180045 19.1069 0 0.707661
-0.397173 20.0573 0 0.627729
-0.422453 20.5757 0 0.16485
-0.38178 20.7638 0 -0.353953
0.0604976 20.8969 0 -0.718889
0.532636 20.7473 0 -0.417691
0.6847 20.6051 0 -0.123628
0.524339 20.7617 0 0.170312
0.0606301 20.9253 0 0.44883
-0.360436 20.7905 0 0.0846373
-0.456929 20.6941 0 -0.192516
-0.209356 20.8316 0 -0.529852
0.336502 20.8212 0 -0.567407
0.648737 20.6753 0 -0.269759
0.642491 20.6825 0 0.0252656
0.330337 20.8426 0 0.311503
-0.199506 20.8592 0 0.260765
-0.422303 20.7198 0 -0.0783118
-0.370478 20.5274 0 -0.622771
-0.354356 19.8408 0 -1.07675
0.0483995 19.1039 0 -0.600416
0.452876 18.8573 0 0.00376531
0.0516827 19.1167 0 0.6035
-0.347803 19.8684 0 1.07789
-0.370959 20.5599 0 0.624092
-0.377879 20.6582 0 -0.417755
-0.362913 20.2548 0 -0.843084
-0.153189 19.4109 0 -0.854543
0.250413 18.9194 0 -0.314338
0.252057 18.9256 0 0.319333
-0.14827 19.4309 0 0.856343
-0.359866 20.2875 0 0.844867
-0.381889 20.685 0 0.417502
-0.370475 20.792 0 -0.0969139
0.0578696 20.9124 0 -0.455889
0.528431 20.7544 0 -0.163509
0.685155 20.6036 0 0.135029
0.529036 20.7489 0 0.42126
0.062515 20.9014 0 0.711099
-0.373615 20.7651 0 0.344355
-0.432315 20.7284 0 0.0688884
-0.207128 20.8535 0 -0.272259
0.33231 20.8325 0 -0.310475
0.646079 20.6781 0 -0.0150037
0.645953 20.6754 0 0.277686
0.334505 20.8242 0 0.565736
-0.203166 20.8345 0 0.519924
-0.448983 20.6939 0 0.185699
-1.49911 21.7326 0 0.60996
-1.69576 22.1187 0 -0.829952
-1.81491 22.1264 0 0.983147
-1.73696 22.1197 0 -0.636416
0.419892 15.44 0 1.38408
2.22419 21.5969 0 0.719528
0.430732 15.8479 0 1.18065
2.30778 21.7186 0 -0.826919
0.188038 24.1012 0 1.18024
-1.99133 18.2292 0 -3.81787
-0.252711 24.1227 0 -0.991577
-2.10178 19.0293 0 -3.65752
-2.76252 23.197 0 1.55437
-2.14134 17.6934 0 4.41946
0.385432 24.6661 0 1.42025
0.0607461 10.6309 0 2.65535
4.44578 24.7065 0 -1.16286
5.32312 26.386 0 -1.2915
-3.39137 24.3313 0 -2.73512
-0.382309 8.7831 0 -3.84227
-3.61124 24.1995 0 -2.92229
-3.57474 24.5743 0 2.98295
0.983584 28.0949 0 -0.609465
-3.48811 15.2789 0 6.25916
-0.829226 6.76182 0 -3.37208
5.85166 28.0033 0 0.881794
1.28534 21.4893 0 0.659496
1.33842 21.4953 0 -0.676541
0.0247554 17.4095 0 -1.53089
0.0201183 17.22 0 -1.44157
-0.594102 5.74158 0 2.69154
-3.68733 14.7274 0 -6.60571
6.46206 28.0533 0 0.782823
-0.491579 19.1576 0 1.47735
0.255983 21.4329 0 0.881265
0.181463 21.4896 0 -0.829404
-0.539798 18.9572 0 1.4203
-2.13213 18.7771 0 3.6535
-0.23558 24.0749 0 -1.14387
1.5931 29.168 0 0.12892
6.54197 29.2309 0 -0.837065
-3.2489 24.024 0 4.08123
-1.08708 4.92989 0 3.47827
2.5457 29.4312 0 0.227499
-3.65338 14.3911 0 -6.7411
3.05146 22.9896 0 1.13972
0.133251 13.7289 0 -2.55409
-0.803721 21.0219 0 0.71338
-0.726171 21.1783 0 0.0314799
-0.748394 20.8589 0 0.413576
-0.769802 21.058 0 -0.420777
2.74373 21.7269 0 -0.45205
0.616038 14.9266 0 -1.04964
-4.07146 12.831 0 7.09765
1.97697 30.2934 0 -0.789
-0.383049 21.4504 0 0.376071
-0.729349 20.2196 0 -1.27062
-0.433772 21.4611 0 -0.307132
-0.770819 20.0345 0 -1.10473
-2.86111 23.3634 0 -1.50527
-2.88671 23.4459 0 1.71686
-0.316814 22.4262 0 0.823898
-1.33886 19.7497 0 2.20965
-2.45416 22.5514 0 -1.65719
0.715861 12.0299 0 1.89198
4.13661 22.979 0 0.985784
-2.73144 24.4898 0 -4.57694
-0.286788 22.2736 0 0.62429
-1.15748 19.8724 0 -1.93203
-1.21137 19.647 0 -1.90845
-0.338369 22.3007 0 -0.594565
6.82993 34.5821 0 0.37439
-2.74072 2.48675 0 -3.56219
-0.837693 21.4558 0 -0.114965
0.224517 17.6801 0 0.709522
0.275164 17.7517 0 0.777517
1.30998 20.9964 0 0.538224
1.15361 20.9305 0 -0.517263
-1.48359 22.8689 0 -0.0202847
-2.09914 21.284 0 1.84603
0.50409 22.4117 0 -1.17283
-0.897653 18.1566 0 2.45844
-0.736833 24.4597 0 5.46576
-2.10786 21.2519 0 -5.89336
-0.582073 21.1036 0 0.0165956
-0.747524 20.605 0 -0.555244
-0.597053 17.0985 0 -2.58472
1.1957 22.4861 0 1.12219
2.53109 21.6604 0 0.421132
0.574607 15.1017 0 -0.968469
2.92141 31.7126 0 2.81994
-4.12331 10.5572 0 6.53024
-4.26733 1.10666 0 -3.00741
6.70819 36.7186 0 -0.958725
3.0457 25.511 0 1.62432
-1.27593 13.3505 0 -4.77864
1.94747 21.0863 0 0.0271275
0.573497 16.5144 0 -0.145056
-1.01716 21.6083 0 0.300972
-1.14737 21.0462 0 -0.648275
1.70472 20.8926 0 0.0172469
0.534517 16.9305 0 -0.227802
-0.53636 20.9904 0 -0.244268
-0.735371 16.9563 0 2.99291
1.29202 22.7768 0 1.41163
-1.98973 25.6024 0 0.415686
-0.527938 25.876 0 -0.75127
-1.19192 20.9097 0 1.17236
-0.841164 21.6632 0 0.242472
-1.17741 20.8471 0 0.896604
-3.62879 20.9323 0 4.21128
-3.82623 9.47471 0 -6.06808
-4.77412 0.834848 0 2.73236
6.43067 37.3176 0 -1.14561
-0.784654 17.5547 0 -2.76472
0.963514 22.71 0 -1.1363
-1.11369 21.0684 0 -0.905455
-0.364752 14.9047 0 3.10568
2.37527 23.0805 0 -1.4599
-0.710318 20.6305 0 -0.846633
-0.520652 21.1315 0 0.0895377
-0.547829 20.6502 0 0.000814202
-0.504136 21.012 0 0.191155
-0.694717 20.4915 0 1.12499
-0.389751 21.0186 0 0.635169
-0.701726 20.3093 0 0.954027
-0.757368 22.1351 0 -0.439513
-2.02351 20.5415 0 -2.34698
-1.1454 23.1449 0 -0.247889
-0.307674 17.9274 0 1.8783
0.94497 21.7153 0 1.00465
0.346414 17.81 0 -0.518194
1.28793 20.8707 0 -0.180524
-3.20234 19.8004 0 -4.64767
-3.31226 19.5415 0 -4.58209
-0.530962 20.8113 0 -0.261661
0.410045 21.2264 0 0.527224
-0.271554 19.2246 0 -1.18365
0.37289 21.1697 0 -0.487634
-0.289117 18.8629 0 -1.13825
4.03517 33.2902 0 5.40923
-1.83632 12.9669 0 5.50505
2.73665 26.4497 0 1.73194
-1.59582 14.8053 0 4.813
1.93871 25.1165 0 -1.69128
2.87154 23.5657 0 -1.42341
-0.293993 14.1891 0 -3.3715
-0.951163 21.6743 0 -0.155142
-1.93473 20.5568 0 -2.42331
-2.10888 24.4241 0 -0.50124
0.427767 20.4964 0 6.78484
-1.03957 23.2303 0 0.363471
5.92251 40.4242 0 2.10385
-6.49972 0.350169 0 2.14149
3.98516 32.6724 0 -5.20774
5.1468 24.0561 0 0.342941
0.732927 9.6674 0 -1.08677
-1.40306 20.3342 0 1.61088
-3.98649 8.09618 0 -5.27972
-0.342766 21.1945 0 -0.62647
-3.5391 19.572 0 4.94323
-1.0368 26.0852 0 0.0870467
-0.88808 26.3171 0 0.302034
0.808714 12.5764 0 0.491145
3.81194 22.5026 0 -0.320661
-0.49031 20.8901 0 -0.0796866
-0.928323 23.3806 0 0.572485
-2.12014 20.3365 0 2.79587
0.15466 17.0654 0 1.2813
1.39004 21.3251 0 -0.77416
-0.756767 20.5908 0 0.705183
-0.503392 19.8128 0 0.598807
-0.584181 20.1711 0 0.397851
-0.775942 20.7702 0 0.934403
-0.478624 20.0195 0 0.797173
-0.597606 20.4555 0 0.679417
-0.567707 21.1868 0 0.28343
-0.36267 20.8156 0 0.560935
-0.546402 21.1416 0 0.07418
-1.34268 21.8683 0 0.567498
-0.748951 21.9466 0 -0.118989
-1.14063 22.3166 0 0.152247
-1.43483 21.4887 0 -0.698889
-1.21663 20.4444 0 -1.25614
-1.55519 20.9577 0 -1.34821
-2.28244 22.6803 0 1.31898
-2.53337 21.6604 0 2.3831
-1.94863 21.2595 0 1.89213
-2.2057 22.6737 0 -0.998262
-1.75849 23.4228 0 -0.356289
-1.34342 22.6721 0 -0.033391
-2.19976 25.0151 0 -1.52068
-2.03639 24.4395 0 -0.7593
-3.22013 23.859 0 -2.11401
-3.49453 21.8652 0 3.93199
-3.09979 21.6168 0 3.28228
-3.26875 24.0238 0 2.32507
-1.98025 10.9207 0 -5.26707
-3.42778 18.0571 0 -5.48092
-2.01538 14.4123 0 -4.85148
3.62049 36.88 0 -6.35564
4.31733 28.3951 0 -6.66802
-5.66247 6.02921 0 3.17636
-1.27076 9.82218 0 6.18372
3.82695 27.6788 0 -0.597973
0.125984 27.5395 0 -0.2117
2.29973 26.4104 0 -1.36958
-0.115967 18.0593 0 -1.28989
0.140576 17.8554 0 -0.784711
0.308128 16.9407 0 -0.800848
1.5201 21.2054 0 0.312177
1.0752 21.0655 0 0.378364
0.806567 21.3066 0 0.56699
5.13842 24.3271 0 -0.0283907
4.82682 25.3468 0 0.965161
6.16231 27.2083 0 -0.521201
0.448368 9.66773 0 -0.548454
0.0987185 9.77414 0 2.28771
-0.339665 6.67236 0 -0.861795
0.232298 17.3768 0 -0.58062
-0.0737288 18.9668 0 -0.751837
0.446686 21.0735 0 0.449602
1.00173 20.7036 0 0.0289577
-3.05701 22.2027 0 2.70157
-2.88974 19.594 0 4.04063
-2.58019 21.1304 0 2.69859
-2.65635 24.5441 0 -1.35941
-2.88449 22.4207 0 -2.52702
-3.33081 21.572 0 -3.71478
-0.479665 19.8364 0 1.00383
-0.457271 20.0743 0 1.19596
-0.208032 20.9891 0 0.659656
-0.308604 11.9863 0 -3.5311
0.341953 12.5964 0 -0.969075
3.83274 24.8642 0 -1.20959
3.7741 23.3644 0 -0.397301
2.43612 23.7527 0 -8.47886
0.45688 16.04 0 -5.52477
-1.62066 23.867 0 0.162164
-0.921114 24.8811 0 -0.535714
-2.49443 24.1317 0 1.16757
-2.58662 19.3201 0 -4.09199
-2.76453 21.4646 0 -2.87335
-2.35283 21.011 0 -2.62804
-0.00762491 21.1534 0 0.816627
-0.0898916 21.3052 0 0.749278
0.412902 21.1699 0 0.44906
-0.421604 20.3949 0 0.885807
-0.620459 19.7782 0 1.2925
-0.178069 18.6372 0 1.03888
-0.431781 20.1508 0 0.732184
-0.641078 19.596 0 1.17378
-0.190844 18.2614 0 0.959105
-2.34774 23.3192 0 -1.1664
-1.79681 24.5037 0 0.511072
-1.8886 25.1038 0 1.16867
1.59474 26.4288 0 -1.39693
4.01756 26.8833 0 -1.2498
3.71918 28.9701 0 -0.936049
-0.592427 22.9638 0 0.747721
-1.10835 22.3647 0 0.106315
-1.76803 19.9919 0 2.53858
-1.64606 21.0478 0 1.65017
-2.49722 10.0204 0 5.30708
-1.31205 10.3373 0 4.35336
-2.46378 14.8672 0 5.69194
5.18323 41.2873 0 5.6741
4.27764 45.1671 0 1.1602
-6.34229 1.25263 0 -1.70688
-8.78269 0.505424 0 -1.14056
0.535819 16.7593 0 0.0339468
1.08869 20.7741 0 -0.0181273
-1.3957 21.5033 0 -0.921475
-1.16044 20.5457 0 -1.39968
-1.49936 21.0373 0 -1.45668
-0.391717 21.8852 0 -0.411314
-0.717305 21.485 0 0.0193972
-0.983231 19.9079 0 -1.44093
-0.944267 20.5466 0 -0.864764
-1.4043 24.2258 0 0.0107114
-0.165035 25.3952 0 0.930585
-2.71666 20.7896 0 3.24455
-2.88942 18.354 0 4.80422
6.42775 28.909 0 0.23559
5.92237 26.4192 0 -0.319738
5.55315 25.7562 0 0.768631
0.179472 21.7412 0 0.57795
0.492304 21.917 0 0.693043
0.505837 21.9307 0 -0.691192
0.135751 21.6755 0 -0.57248
0.823609 21.3715 0 -0.553699
-0.577718 18.6502 0 -1.81456
-0.677358 19.3341 0 -1.56112
-0.118924 18.3066 0 -1.33885
-0.5919 18.4381 0 -1.73939
-0.698126 19.0448 0 -1.51756
0.0779744 8.18093 0 -2.33338
-0.0159644 7.19214 0 0.962574
-0.982378 5.2531 0 -0.248867
-1.71813 16.3854 0 -4.18041
1.47629 24.6912 0 -1.19414
0.757414 21.2656 0 0.780678
0.888531 20.74 0 0.52452
-0.123159 18.4562 0 1.21474
0.186188 18.5965 0 0.937227
-0.136771 18.2833 0 1.11061
0.14048 18.9721 0 0.860808
0.830065 20.9233 0 -0.724916
0.688359 21.214 0 -0.719824
0.388774 21.1585 0 -0.493592
0.368528 16.9021 0 0.529039
0.276739 16.3213 0 1.28714
0.511371 16.1122 0 0.50501
1.80353 21.5103 0 -0.764903
1.56096 21.0621 0 -0.375251
2.00882 21.2278 0 -0.386906
-3.00122 21.5422 0 -3.06745
-3.40007 21.5934 0 -3.81543
3.68684 24.5461 0 1.34789
4.61579 27.2143 0 1.47209
-0.434652 12.0817 0 3.57321
-1.20972 9.18213 0 4.42175
-1.99005 23.092 0 0.619721
-0.922665 23.3448 0 -0.499404
-0.112027 21.3063 0 -0.707124
0.0442988 20.9148 0 -0.783653
-0.0143004 27.1086 0 -3.85228
3.2294 21.6583 0 -9.07752
-3.38115 18.4181 0 5.93796
2.09284 15.079 0 6.182
0.474742 14.3503 0 1.43708
0.720534 13.378 0 0.211317
0.551424 15.326 0 0.194156
2.91906 22.3071 0 0.785966
3.49527 22.2786 0 0.190011
2.52284 21.673 0 0.232492
-0.335945 21.7823 0 0.438416
-0.0233359 21.3939 0 0.456483
-0.533383 19.6987 0 -1.25478
-0.937759 20.088 0 -1.54307
-0.0429216 21.3607 0 -0.422496
-0.569114 19.4498 0 -1.14257
-1.88504 21.3594 0 -1.50287
-2.4221 21.6982 0 -2.04193
-1.49473 22.6005 0 0.366756
-1.85281 23.2746 0 0.616534
-1.23922 20.4049 0 1.62942
-1.47506 21.3464 0 1.14155
-0.633145 21.9833 0 0.481072
-1.1762 21.8714 0 -0.124898
-2.72555 17.8993 0 4.56612
-1.82925 16.8283 0 4.12144
-7.33599 -0.114643 0 0.767776
-4.34791 6.33648 0 5.50971
5.41438 42.1637 0 -6.62294
4.60952 33.8783 0 -0.808251
5.28465 26.5958 0 -1.00852
3.19063 24.9744 0 -1.34981
2.27381 21.4223 0 -0.213599
2.15141 21.3225 0 0.349583
0.5792 15.8209 0 -0.570787
0.505602 16.069 0 0.482119
-0.762679 12.712 0 3.7126
-0.422294 8.22941 0 2.98177
-2.07511 20.1038 0 2.67803
-2.46543 22.0388 0 1.81059
-1.33855 21.1934 0 0.788213
-1.03673 21.2097 0 0.392339
-1.10244 21.6069 0 0.193125
2.00451 21.2515 0 0.213641
2.45551 21.7022 0 -0.227438
0.541688 15.2183 0 0.242505
0.539261 16.1196 0 -0.574209
2.88689 22.5922 0 -0.99166
0.185439 14.4254 0 -2.21122
4.85727 24.503 0 -0.53892
0.381003 10.0345 0 0.904107
6.45953 28.5466 0 -10.1773
0.42843 27.7856 0 -4.34652
-0.52856 20.5468 0 0.128054
-0.564441 20.763 0 0.189491
-1.9194 15.4947 0 4.75746
-0.768653 14.6491 0 3.37064
1.47296 25.3774 0 1.36009
2.34488 24.0292 0 1.35182
-0.911247 20.6332 0 -1.07491
0.791218 24.4893 0 -1.32133
-0.0486277 25.6274 0 -0.660127
-0.46775 20.8624 0 0.0742748
-0.607548 20.7338 0 0.00834936
-0.505395 20.5051 0 0.364121
-0.608512 20.9318 0 0.474835
-3.10206 17.4201 0 -6.23261
-0.0889501 7.25005 0 -5.29172
-0.201017 21.2351 0 0.224291
0.0374619 21.0149 0 0.510813
-0.065137 21.2099 0 -0.548479
-0.227696 21.2717 0 -0.249072
-0.424832 20.1551 0 -1.09904
-0.579235 19.3529 0 -0.929575
-0.402644 20.5597 0 -1.27151
-0.529948 19.541 0 -1.09444
-0.460143 25.023 0 -0.84322
-1.63234 23.8873 0 0.331473
-3.66254 19.808 0 -4.92324
-3.33096 18.8025 0 -5.57163
-3.14572 24.4024 0 -3.68546
0.311337 17 0 -0.832184
0.293737 16.2321 0 -1.30941
1.61658 21.3066 0 -0.313044
1.99167 21.6067 0 -0.555968
-1.26463 16.9102 0 3.40126
-0.623788 16.6337 0 2.73091
-1.49294 18.3517 0 3.06324
1.5364 24.6352 0 1.33477
3.09607 24.2045 0 1.43449
1.59117 23.6628 0 1.20909
-0.915653 15.9723 0 -3.28428
-0.551799 13.4169 0 -3.64869
-1.58926 15.9288 0 -4.19105
0.226554 23.2046 0 -1.2035
1.3746 22.6778 0 -1.26626
1.0357 23.6531 0 -1.30938
4.90032 39.7463 0 9.48361
5.56942 35.1432 0 3.01794
1.64685 20.9773 0 0.319093
1.57232 20.994 0 -0.0700701
1.40196 20.8959 0 0.189572
0.45237 17.044 0 0.354084
0.470796 17.2079 0 -0.315888
0.401308 17.6517 0 0.121597
5.62371 30.3489 0 -0.321073
4.37555 31.6843 0 0.167221
-5.90459 3.38365 0 -2.0075
-4.31312 5.43772 0 -4.66288
6.93166 37.0656 0 -0.45942
4.19008 47.0646 0 -1.31398
-4.34538 0.984051 0 -0.580497
-10.5216 -0.680354 0 0.778885
-0.515645 21.2755 0 -0.150363
-0.331409 20.9592 0 -0.169024
-0.770808 20.3521 0 -0.782753
-0.559732 20.2483 0 -0.475569
4.43846 24.0009 0 9.86279
0.978394 13.2215 0 -5.52322
-0.493304 20.7715 0 -0.0674698
-0.647211 20.8304 0 0.0593702
1.65176 30.0976 0 1.02426
-0.15638 27.0958 0 3.29562
-0.99863 26.321 0 1.78199
-3.5534 19.3327 0 5.24478
-3.33519 17.452 0 5.68365
-3.95529 13.457 0 6.37685
-0.531866 22.7183 0 -0.620548
5.00578 30.7981 0 0.904077
-2.74197 6.86735 0 4.90034
0.196502 17.4709 0 0.996029
0.401956 17.2541 0 0.329588
-3.4685 17.4481 0 -5.43846
-3.72919 19.7396 0 -5.0875
-2.71957 18.7552 0 -4.30344
-2.58348 20.9258 0 -2.82408
1.49516 20.9054 0 -0.307161
1.19462 21.1704 0 -0.680299
-2.64443 24.9778 0 4.26349
-3.65602 19.0284 0 5.17842
-3.25488 23.3653 0 -4.14001
-0.940094 26.6654 0 -1.92986
-2.1719 21.3893 0 -2.06362
-1.99724 19.9316 0 -2.94193
-1.53782 19.7589 0 2.21243
-1.61009 6.63229 0 -3.49874
-3.1357 8.23152 0 -5.50192
-1.06625 22.2841 0 -0.078957
-0.682293 21.9651 0 0.20199
-1.2502 21.8828 0 -0.437373
6.99416 30.9587 0 0.481545
-1.50489 3.30354 0 -0.0899354
-0.279516 21.164 0 -0.714797
-0.45043 21.0982 0 -0.443058
-0.281421 20.8452 0 -0.463651
-0.459518 26.4584 0 0.0241872
-1.40323 22.5971 0 -0.27951
-0.614642 22.7983 0 0.53595
-3.05753 17.0881 0 -6.09892
-1.57116 20.1504 0 -2.20755
-1.81925 21.3611 0 -1.62373
-0.355448 21.6557 0 0.536721
0.0463781 21.9126 0 0.827243
-0.877779 20.1344 0 1.35991
-0.902688 19.3763 0 1.85392
-3.34293 17.9585 0 5.08112
0.319134 16.9916 0 0.956201
-0.0217784 17.7686 0 1.35248
0.0417103 16.8309 0 1.61079
1.61948 21.2873 0 0.607509
1.14489 21.3785 0 0.783227
1.62088 21.6676 0 0.921936
6.07165 32.1662 0 0.00455722
6.94841 32.7336 0 -0.621743
-0.418146 20.8017 0 0.131153
-0.373165 20.1475 0 0.469886
-0.463541 20.5409 0 0.0309848
-0.41698 20.5089 0 -0.23354
-2.48366 2.28775 0 0.485492
-2.48059 4.49268 0 -3.2008
-0.447417 20.9598 0 -0.265552
-0.794089 21.0118 0 0.173603
-0.953552 20.8564 0 0.641891
-2.03397 22.3674 0 -1.18131
-1.81079 22.9296 0 -0.692861
-1.99038 19.5173 0 -2.9732
-1.36174 18.9175 0 -2.51603
-1.25944 17.4547 0 -3.23337
2.07655 22.6874 0 1.08387
0.807186 23.2885 0 1.19984
-0.241219 15.4782 0 -2.54409
-0.0921018 16.2616 0 -1.99364
-0.38499 17.3879 0 -2.15551
1.83769 22.2844 0 -0.851418
1.22116 22.0986 0 -0.944677
4.416 28.732 0 0.393869
4.7932 32.3839 0 -0.464068
-0.258434 16.8069 0 2.01695
0.0131572 15.0924 0 2.25116
-1.87911 22.2078 0 0.919815
-1.65446 20.0416 0 -2.16971
-0.69452 22.7918 0 -0.470028
2.38264 22.3879 0 -1.17479
1.38859 22.1321 0 -1.05896
-3.62506 7.52647 0 -5.31369
-2.24469 9.92419 0 -5.01507
-1.30332 26.7671 0 1.31113
0.654065 27.0197 0 2.94199
-1.99367 23.0816 0 5.37463
-2.54496 15.2083 0 6.19004
1.81608 27.1079 0 5.44352
0.25309 22.4424 0 -0.8102
-0.957239 18.8068 0 -2.30171
4.10907 24.9794 0 0.943973
4.53879 26.439 0 1.21249
-0.910355 9.88154 0 -4.01981
-0.318579 11.4583 0 -2.92417
-2.77768 14.9825 0 -6.25805
-0.0243113 6.1517 0 -4.66102
1.26997 20.5609 0 -0.376317
1.09049 20.7294 0 0.328928
0.39798 17.8816 0 0.151551
0.358229 18.2815 0 0.176924
0.417059 22.3403 0 0.843167
1.25723 21.997 0 0.911401
-0.298359 17.1347 0 -2.01053
-0.899611 18.4235 0 -2.23643
-0.124471 14.6013 0 2.61403
-1.39233 17.1481 0 3.74688
2.62257 22.931 0 1.27499
0.96341 23.6941 0 1.50104
5.91834 35.0868 0 0.482732
4.744 36.2301 0 2.34977
-5.90207 4.56594 0 2.26889
-0.796689 8.10415 0 5.484
5.2973 28.7988 0 8.43202
4.16554 38.3103 0 8.12526
-5.30293 4.97745 0 4.79272
-3.9985 3.33334 0 2.92026
0.744063 27.5161 0 0.141189
-1.60834 25.8066 0 -1.87911
0.132113 27.5565 0 -2.40368
1.60391 28.7656 0 5.13342
6.54836 28.999 0 10.3232
1.28111 20.5783 0 -0.0134621
0.439111 18.1767 0 -0.020159
-0.841155 21.7429 0 -0.237251
-1.18905 22.0032 0 0.0824281
0.457613 20.8156 0 -0.483182
-0.0349086 19.0978 0 -0.790226
6.60675 39.4189 0 0.623527
-5.92649 0.0249411 0 -0.522622
-0.383667 21.1731 0 0.306205
-0.428938 21.2564 0 0.248585
-0.716486 20.432 0 -1.00969
-0.504656 20.6149 0 -0.702209
-7.38915 0.58985 0 -1.05981
-10.2508 0.06859 0 -0.718604
3.96494 47.0106 0 -1.4535
5.08541 42.751 0 -6.24426
1.35222 23.9019 0 -1.32201
4.07576 23.5084 0 0.73186
2.81771 27.3984 0 1.17545
0.383946 11.7216 0 -1.81263
-0.393383 23.9617 0 0.882985
-2.11893 19.1882 0 3.49187
2.74203 31.7491 0 -2.04587
5.38167 36.1435 0 -3.36625
5.38975 21.4313 0 10.456
2.87516 12.0209 0 6.08839
-2.45119 13.6435 0 -5.82571
-2.4861 16.6797 0 -4.78032
5.10231 44.155 0 7.44078
-8.26168 -0.407485 0 0.189186
-5.01709 4.148 0 -4.03683
-4.21511 12.0995 0 -6.15352
-1.24819 16.4822 0 -3.6242
3.6565 49.2642 0 1.68395
-11.7322 -0.715857 0 0.460092
-0.452152 21.0951 0 -0.00637425
-0.558047 20.362 0 -0.624065
4.99403 39.5984 0 -9.82063
-6.08623 2.62132 0 -1.28236
-4.20362 12.8906 0 -6.4247
3.44435 22.8007 0 0.386073
3.19586 22.0559 0 0.0317317
2.80293 22.2987 0 0.788664
0.355326 14.4019 0 -1.7377
0.674302 13.7997 0 -0.256727
0.502361 13.1328 0 -1.0157
0.0388957 22.9334 0 0.783016
-0.457961 23.5541 0 0.681455
3.0207 22.0782 0 -0.539429
0.603823 14.0727 0 0.941013
-0.251743 21.7953 0 -0.630003
-0.392186 21.5202 0 -0.458459
-0.661826 21.6088 0 0.0701574
-2.49872 25.1132 0 1.9399
6.10852 33.1226 0 0.0914862
-3.01513 3.98745 0 2.86347
-0.774544 23.5524 0 -0.519206
2.42899 31.7861 0 2.72782
-0.662085 21.1693 0 -0.181941
-0.524163 20.9711 0 -0.113004
-0.636442 20.8655 0 -0.355803
-0.594828 20.7004 0 -0.569878
-0.736061 20.8669 0 -0.638866
-0.385833 18.552 0 1.64105
0.601343 21.4825 0 0.873767
-0.207335 17.9484 0 1.4276
0.799431 21.4313 0 -0.820646
-0.421661 20.8592 0 -0.132332
-0.408554 20.8938 0 0.110851
-0.532571 20.8191 0 -0.888763
-0.438293 20.5971 0 -0.21923
4.69699 29.5532 0 -0.146994
-2.40147 8.24381 0 4.76211
-3.66608 22.192 0 4.3312
-2.25072 25.6052 0 -1.04566
-0.674609 21.2551 0 -0.175734
-0.54047 21.3427 0 -0.368051
0.179629 27.8562 0 -0.420171
-3.67573 16.768 0 5.90846
1.85589 22.0973 0 0.769723
0.0218934 16.0996 0 -1.78716
-0.870764 21.3283 0 -0.307771
-0.709293 21.384 0 -0.0275718
-0.397707 20.6162 0 -0.485905
-1.52026 22.1895 0 0.366839
-1.73722 21.5568 0 1.1543
-1.15769 21.3254 0 0.757569
-1.02405 21.426 0 -0.18718
-0.776468 21.4171 0 0.155391
-0.957328 20.7876 0 -0.584547
-0.709065 20.98 0 0.34478
-0.908056 21.1763 0 0.531844
-0.715508 20.8562 0 -0.251479
-0.894417 21.0717 0 -0.26867
0.888496 20.9119 0 -0.22144
0.180956 18.8075 0 -0.787789
0.437697 22.5771 0 1.0951
1.05877 22.2524 0 1.17948
0.304664 22.0906 0 0.911283
-1.06189 18.4203 0 2.60503
-0.517057 17.5362 0 2.38766
-0.809152 18.8411 0 2.03908
-0.181967 23.0355 0 -0.708382
0.509591 23.3605 0 -1.12567
-0.0809284 16.2447 0 2.00756
1.85003 22.1299 0 1.00049
-0.267155 25.1757 0 0.801134
1.00058 26.1965 0 0.916606
-0.535778 20.916 0 0.181177
-0.608904 20.5706 0 -0.305029
-0.420178 20.7112 0 -0.101415
-0.388987 20.0952 0 0.203864
-0.11628 12.7753 0 2.83969
-0.979938 14.728 0 3.96451
2.23513 24.0775 0 -1.64701
3.40556 23.7583 0 -1.23709
-1.17705 19.278 0 2.04917
-1.75019 20.7315 0 1.75953
-1.06628 22.5181 0 -0.271633
-0.154175 22.2738 0 -0.806602
-0.331048 17.4555 0 1.86895
-0.975548 24.3039 0 0.328418
-1.48826 24.9638 0 -0.278758
1.77313 23.072 0 -1.16569
-1.41476 18.0585 0 -3.24377
-0.548313 16.0823 0 -2.92963
-0.910704 20.8156 0 -0.863974
1.04302 21.8295 0 -0.980944
-1.41566 19.1484 0 -2.63607
1.92997 21.5434 0 0.548993
0.295035 16.1252 0 -1.22371
-0.982601 20.9836 0 0.928025
-0.808443 21.4019 0 0.0861772
-0.920337 21.0632 0 -0.634281
2.39033 28.4839 0 0.552066
-2.93615 12.7272 0 6.18574
-1.49882 18.7707 0 2.93301
0.0909917 23.2017 0 1.02054
-0.964563 19.5808 0 1.5268
-0.711599 18.6548 0 1.85967
-1.07428 21.4261 0 -0.534432
0.0443205 18.5844 0 -0.900484
0.20539 17.5847 0 -1.00162
0.803948 21.063 0 -0.374149
1.32111 21.1107 0 -0.425147
0.27819 21.9364 0 -0.936838
-3.09151 23.6291 0 2.35944
-1.50183 21.1221 0 1.12514
-1.45657 23.8235 0 0.0494273
-0.911332 19.9731 0 1.20373
-1.25716 20.6534 0 1.21646
0.235168 13.7074 0 1.8652
3.09576 22.8633 0 -0.923625
-0.957428 20.5388 0 1.14862
-0.533301 21.3399 0 0.413525
-0.952894 20.3934 0 0.932456
0.459312 11.4724 0 1.59658
4.23085 23.4962 0 -0.805117
0.629505 26.626 0 0.978262
-2.94972 16.6618 0 5.31412
0.749962 11.1887 0 -0.328607
4.41364 23.2557 0 0.111848
      </DataArray> 
      <DataArray type="Float64" NumberOfComponents="1" Name="blendingZone" format="ascii">
0
1
1
1
1
0
0
0
0
0
0
0
0
0
0
0
0
0
0
0
0
0
0
0
0
0
0
0
0
0
0
0
0
0
0
0
0
0
0
0
0
0
0
0
1
1
1
1
1
1
1
1
1
1
1
1
1
1
1
1
1
1
1
1
1
1
1
1
1
1
1
1
1
1
1
1
1
1
1
1
1
1
1
1
1
1
1
1
1
1
1
1
1
1
1
1
1
1
1
1
1
1
1
1
0
0
0
0
0
0
0
0
0
0
0
0
0
0
0
0
0
0
0
0
0
0
0
0
0
0
0
0
0
0
0
0
0
0
0
0
0
0
0
0
0
0
0
0
0
0
0
0
0
0
0
0
0
0
0
0
0
0
0
0
0
0
0
0
0
0
0
0
0
0
0
0
0
0
0
0
0
0
0
0
0
0
0
0
0
0
0
0
0
0
0
0
0
0
0
0
0
0
0
0
0
0
0
0
0
0
0
0
0
0
0
0
0
0
0
0
0
0
0
0
0
0
0
0
0
0
0
0
0
0
0
0
0
0
0
0
0
0
0
0
0
0
0
0
0
0
0
0
0
0
0
0
0
0
0
0
0
0
0
0
0
0
0
0
0
0
0
0
0
0
0
1
0
0
1
0
0
1
0
0
0
0
0
0
0
0
0
0
0
0
0
0
0
0
0
0
0
0
0
0
0
0
0
0
0
0
0
0
0
0
0
0
0
0
0
0
0
0
0
0
1
1
0
0
0
0
0
0
0
1
1
1
0
0
0
0
0
0
0
0
0
0
0
0
1
0
0
1
0
0
1
0
0
0
0
0
0
0
0
0
0
0
0
0
0
0
0
0
0
0
0
0
0
0
0
0
0
0
0
0
0
0
0
0
0
0
0
0
0
0
0
0
0
0
0
0
0
0
0
0
0
0
1
0
1
0
1
1
0
0
0
0
0
0
0
0
0
0
0
0
0
0
0
0
0
1
0
0
0
0
0
0
0
0
0
0
0
0
0
0
0
0
0
0
0
0
0
0
0
0
0
0
0
0
0
0
0
0
0
0
0
0
0
0
0
0
0
0
0
0
0
0
0
0
0
0
0
0
0
1
0
0
0
0
0
0
0
0
1
0
1
0
0
0
0
1
1
0
1
0
1
0
0
0
0
0
0
0
0
0
0
0
0
0
0
0
0
0
0
0
0
0
0
0
0
0
0
0
0
0
0
0
0
0
0
0
0
0
0
0
1
0
1
0
0
0
0
0
0
0
0
0
0
0
0
0
0
0
0
0
0
0
0
0
0
0
0
0
0
0
0
0
0
0
0
0
0
0
1
0
1
0
0
0
0
0
0
0
0
0
0
0
0
0
0
0
0
0
0
0
1
1
1
1
0
0
1
0
0
0
0
0
0
0
0
0
0
0
0
0
0
0
0
0
0
0
0
0
0
0
0
0
0
0
0
0
0
0
0
0
0
0
0
0
0
1
1
1
1
0
0
0
0
0
0
0
0
0
0
0
0
0
0
0
0
0
0
0
0
0
1
1
0
0
1
1
0
0
1
0
0
1
0
0
0
0
0
0
0
0
0
0
0
0
0
0
0
0
0
0
0
0
0
0
0
1
1
0
0
0
0
0
0
0
0
0
0
0
0
0
0
0
0
0
0
0
0
0
0
0
0
0
0
0
0
0
0
1
1
1
1
0
0
0
0
0
0
0
0
0
0
0
0
1
0
0
0
0
0
0
0
0
0
0
1
1
0
0
0
0
0
0
0
0
0
0
0
0
0
0
1
1
0
0
0
0
0
0
0
0
0
0
0
0
0
0
0
0
0
0
0
0
0
0
0
0
0
0
0
0
0
0
0
0
0
0
0
0
0
0
0
0
0
0
0
0
0
0
0
0
0
0
      </DataArray> 
    </PointData>
    <CellData>
      <DataArray type="Float64" NumberOfComponents="1" Name="Process" format="ascii">
3
0
5
0
4
0
5
5
0
1
5
0
5
4
2
5
1
4
2
3
1
3
0
5
1
5
2
3
1
5
0
3
1
0
2
5
0
4
5
1
4
2
1
0
4
5
0
2
2
0
1
4
4
1
5
5
0
3
3
4
2
5
5
0
3
3
5
0
1
5
2
1
0
4
5
0
0
5
3
0
5
2
5
1
4
3
3
2
4
5
1
2
4
2
3
0
5
1
3
4
0
2
2
0
4
1
0
5
0
3
2
1
5
3
2
4
3
5
5
1
5
1
5
1
0
4
0
4
3
2
3
3
2
4
4
4
4
2
0
5
1
3
1
1
5
1
3
2
1
4
1
5
0
3
0
5
2
0
4
4
3
3
1
4
2
4
1
5
1
2
1
5
3
3
4
0
2
4
0
3
3
0
1
2
4
4
3
5
0
3
2
4
0
5
2
3
2
4
2
0
5
1
0
4
3
3
0
4
2
1
2
4
1
1
4
2
5
2
2
4
5
0
2
2
3
4
4
2
4
4
1
2
4
0
4
2
4
2
2
4
2
2
2
4
3
1
3
1
5
1
4
0
0
4
1
1
2
4
1
0
5
3
3
4
1
1
5
0
5
3
0
2
3
1
1
5
0
2
4
1
1
1
3
3
0
5
0
4
0
4
1
5
1
5
1
5
0
5
0
0
2
0
5
5
0
1
2
0
4
0
4
3
3
0
4
2
3
3
3
2
5
1
3
1
3
3
1
2
4
2
4
2
2
4
0
5
4
1
5
0
0
5
3
1
0
1
5
3
3
5
0
1
5
1
5
3
2
3
3
3
2
2
3
3
4
2
1
5
1
3
1
1
3
0
5
3
2
0
5
3
4
4
2
3
5
0
4
2
2
4
0
5
      </DataArray> 
    </CellData>
  </Piece>
  </UnstructuredGrid>
</VTKFile>
