<?xml version="1.0"?>
<VTKFile type="UnstructuredGrid">
  <UnstructuredGrid>
  <Piece NumberOfPoints="576"  NumberOfCells="64">
    <Points>
      <DataArray type="Float64" NumberOfComponents="3" format="ascii">
0 0 0
0.249996 0 0
0.25005 0.254967 0
5.82722e-05 0.255058 0
0.124999 0 0
0.250009 0.127483 0
0.125057 0.255008 0
1.44609e-05 0.12753 0
0.125014 0.127505 0
0.249996 0 0
0.499985 0 0
0.500021 0.254871 0
0.25005 0.254967 0
0.37499 0 0
0.499993 0.127434 0
0.375039 0.254924 0
0.250009 0.127483 0
0.375002 0.127461 0
0.499985 0 0
0.749997 0 0
0.750007 0.254737 0
0.500021 0.254871 0
0.624985 0 0
0.75 0.127371 0
0.625007 0.254809 0
0.499993 0.127434 0
0.62499 0.127404 0
0.749997 0 0
1.00005 0 0
1.00005 0.254661 0
0.750007 0.254737 0
0.87502 0 0
1.00005 0.127336 0
0.875022 0.25468 0
0.75 0.127371 0
0.87502 0.127344 0
1.00005 0 0
1.25011 0 0
1.2501 0.254737 0
1.00005 0.254661 0
1.12508 0 0
1.2501 0.127371 0
1.12508 0.25468 0
1.00005 0.127336 0
1.12508 0.127344 0
1.25011 0 0
1.50012 0 0
1.50008 0.254871 0
1.2501 0.254737 0
1.37512 0 0
1.50011 0.127434 0
1.3751 0.254809 0
1.2501 0.127371 0
1.37511 0.127404 0
1.50012 0 0
1.75011 0 0
1.75005 0.254967 0
1.50008 0.254871 0
1.62511 0 0
1.75009 0.127483 0
1.62506 0.254924 0
1.50011 0.127434 0
1.6251 0.127461 0
1.75011 0 0
2.0001 0 0
2.00004 0.255058 0
1.75005 0.254967 0
1.8751 0 0
2.00009 0.12753 0
1.87505 0.255008 0
1.75009 0.127483 0
1.87509 0.127505 0
5.82722e-05 0.255058 0
0.25005 0.254967 0
0.250216 0.509941 0
0.000225796 0.51008 0
0.125057 0.255008 0
0.25012 0.382452 0
0.125224 0.509999 0
0.000129396 0.382576 0
0.125127 0.382507 0
0.25005 0.254967 0
0.500021 0.254871 0
0.500151 0.509811 0
0.250216 0.509941 0
0.375039 0.254924 0
0.500072 0.382326 0
0.375194 0.509886 0
0.25012 0.382452 0
0.375102 0.382397 0
0.500021 0.254871 0
0.750007 0.254737 0
0.750046 0.509481 0
0.500151 0.509811 0
0.625007 0.254809 0
0.750022 0.382105 0
0.625097 0.509687 0
0.500072 0.382326 0
0.62504 0.382231 0
0.750007 0.254737 0
1.00005 0.254661 0
1.00005 0.509236 0
0.750046 0.509481 0
0.875022 0.25468 0
1.00005 0.381964 0
0.875022 0.509297 0
0.750022 0.382105 0
0.875023 0.381999 0
1.00005 0.254661 0
1.2501 0.254737 0
1.25006 0.509483 0
1.00005 0.509236 0
1.12508 0.25468 0
1.25008 0.382105 0
1.12508 0.509298 0
1.00005 0.381964 0
1.12508 0.382 0
1.2501 0.254737 0
1.50008 0.254871 0
1.49995 0.509811 0
1.25006 0.509483 0
1.3751 0.254809 0
1.50003 0.382326 0
1.37501 0.509687 0
1.25008 0.382105 0
1.37506 0.382231 0
1.50008 0.254871 0
1.75005 0.254967 0
1.74989 0.509941 0
1.49995 0.509811 0
1.62506 0.254924 0
1.74998 0.382452 0
1.62491 0.509885 0
1.50003 0.382326 0
1.625 0.382397 0
1.75005 0.254967 0
2.00004 0.255058 0
1.99988 0.51008 0
1.74989 0.509941 0
1.87505 0.255008 0
1.99997 0.382577 0
1.87488 0.509999 0
1.74998 0.382452 0
1.87498 0.382507 0
0.000225796 0.51008 0
0.250216 0.509941 0
0.250444 0.764905 0
0.000438857 0.765004 0
0.125224 0.509999 0
0.250328 0.637427 0
0.12544 0.764939 0
0.00033358 0.637559 0
0.125332 0.637478 0
0.250216 0.509941 0
0.500151 0.509811 0
0.500458 0.764847 0
0.250444 0.764905 0
0.375194 0.509886 0
0.500274 0.63732 0
0.375451 0.764882 0
0.250328 0.637427 0
0.375311 0.637383 0
0.500151 0.509811 0
0.750046 0.509481 0
0.750439 0.762454 0
0.500458 0.764847 0
0.625097 0.509687 0
0.750159 0.636414 0
0.625457 0.764228 0
0.500274 0.63732 0
0.625221 0.637058 0
0.750046 0.509481 0
1.00005 0.509236 0
1.00007 0.760435 0
0.750439 0.762454 0
0.875022 0.509297 0
1.00005 0.635664 0
0.875332 0.760772 0
0.750159 0.636414 0
0.875099 0.635809 0
1.00005 0.509236 0
1.25006 0.509483 0
1.24968 0.762788 0
1.00007 0.760435 0
1.12508 0.509298 0
1.24995 0.6365 0
1.1248 0.761191 0
1.00005 0.635664 0
1.12501 0.635915 0
1.25006 0.509483 0
1.49995 0.509811 0
1.49964 0.764846 0
1.24968 0.762788 0
1.37501 0.509687 0
1.49983 0.63732 0
1.37465 0.764312 0
1.24995 0.6365 0
1.37488 0.637081 0
1.49995 0.509811 0
1.74989 0.509941 0
1.74966 0.764905 0
1.49964 0.764846 0
1.62491 0.509885 0
1.74977 0.637426 0
1.62465 0.764881 0
1.49983 0.63732 0
1.62479 0.637382 0
1.74989 0.509941 0
1.99988 0.51008 0
1.99966 0.765004 0
1.74966 0.764905 0
1.87488 0.509999 0
1.99977 0.637559 0
1.87466 0.764939 0
1.74977 0.637426 0
1.87477 0.637478 0
0.000438857 0.765004 0
0.250444 0.764905 0
0.250566 1.01983 0
0.000546326 1.01981 0
0.12544 0.764939 0
0.250534 0.892374 0
0.12555 1.01982 0
0.000517736 0.89242 0
0.125521 0.892384 0
0.250444 0.764905 0
0.500458 0.764847 0
0.500676 1.01988 0
0.250566 1.01983 0
0.375451 0.764882 0
0.50062 0.892373 0
0.375605 1.01985 0
0.250534 0.892374 0
0.375565 0.892375 0
0.500458 0.764847 0
0.750439 0.762454 0
0.750808 1.01935 0
0.500676 1.01988 0
0.625457 0.764228 0
0.750713 0.889473 0
0.625753 1.01976 0
0.50062 0.892373 0
0.625677 0.891647 0
0.750439 0.762454 0
1.00007 0.760435 0
1.00009 1.01886 0
0.750808 1.01935 0
0.875332 0.760772 0
1.00008 0.887013 0
0.875652 1.01894 0
0.750713 0.889473 0
0.875568 0.887409 0
1.00007 0.760435 0
1.24968 0.762788 0
1.24934 1.01943 0
1.00009 1.01886 0
1.1248 0.761191 0
1.24942 0.889909 0
1.12452 1.01904 0
1.00008 0.887013 0
1.12459 0.887956 0
1.24968 0.762788 0
1.49964 0.764846 0
1.49943 1.01988 0
1.24934 1.01943 0
1.37465 0.764312 0
1.49948 0.892373 0
1.37436 1.01978 0
1.24942 0.889909 0
1.37443 0.891755 0
1.49964 0.764846 0
1.74966 0.764905 0
1.74954 1.01983 0
1.49943 1.01988 0
1.62465 0.764881 0
1.74957 0.892374 0
1.6245 1.01986 0
1.49948 0.892373 0
1.62454 0.892375 0
1.74966 0.764905 0
1.99966 0.765004 0
1.99956 1.01981 0
1.74954 1.01983 0
1.87466 0.764939 0
1.99958 0.89242 0
1.87455 1.01981 0
1.74957 0.892374 0
1.87458 0.892384 0
0.000546326 1.01981 0
0.250566 1.01983 0
0.25045 1.27474 0
0.000444051 1.27458 0
0.12555 1.01982 0
0.250539 1.14728 0
0.125445 1.27467 0
0.00052248 1.14719 0
0.125525 1.14724 0
0.250566 1.01983 0
0.500676 1.01988 0
0.500464 1.27492 0
0.25045 1.27474 0
0.375605 1.01985 0
0.500625 1.14739 0
0.375457 1.27482 0
0.250539 1.14728 0
0.37557 1.14733 0
0.500676 1.01988 0
0.750808 1.01935 0
0.750446 1.27684 0
0.500464 1.27492 0
0.625753 1.01976 0
0.75072 1.14937 0
0.625463 1.27545 0
0.500625 1.14739 0
0.625682 1.14792 0
0.750808 1.01935 0
1.00009 1.01886 0
1.00008 1.2784 0
0.750446 1.27684 0
0.875652 1.01894 0
1.0001 1.15098 0
0.875342 1.27813 0
0.75072 1.14937 0
0.875578 1.15073 0
1.00009 1.01886 0
1.24934 1.01943 0
1.24968 1.27659 0
1.00008 1.2784 0
1.12452 1.01904 0
1.24943 1.14907 0
1.12481 1.27782 0
1.0001 1.15098 0
1.1246 1.15036 0
1.24934 1.01943 0
1.49943 1.01988 0
1.49964 1.27492 0
1.24968 1.27659 0
1.37436 1.01978 0
1.49948 1.14739 0
1.37465 1.27539 0
1.24943 1.14907 0
1.37443 1.14784 0
1.49943 1.01988 0
1.74954 1.01983 0
1.74965 1.27474 0
1.49964 1.27492 0
1.6245 1.01986 0
1.74956 1.14729 0
1.62465 1.27482 0
1.49948 1.14739 0
1.62453 1.14733 0
1.74954 1.01983 0
1.99956 1.01981 0
1.99966 1.27458 0
1.74965 1.27474 0
1.87455 1.01981 0
1.99958 1.14719 0
1.87466 1.27467 0
1.74956 1.14729 0
1.87458 1.14724 0
0.000444051 1.27458 0
0.25045 1.27474 0
0.250191 1.52966 0
0.000197984 1.52941 0
0.125445 1.27467 0
0.250325 1.4022 0
0.125196 1.52954 0
0.000329675 1.40199 0
0.125329 1.4021 0
0.25045 1.27474 0
0.500464 1.27492 0
0.500133 1.52996 0
0.250191 1.52966 0
0.375457 1.27482 0
0.500273 1.40245 0
0.375172 1.5298 0
0.250325 1.4022 0
0.37531 1.40232 0
0.500464 1.27492 0
0.750446 1.27684 0
0.750038 1.53044 0
0.500133 1.52996 0
0.625463 1.27545 0
0.750161 1.40333 0
0.625084 1.53017 0
0.500273 1.40245 0
0.625221 1.40274 0
0.750446 1.27684 0
1.00008 1.2784 0
1.00005 1.53075 0
0.750038 1.53044 0
0.875342 1.27813 0
1.00006 1.40401 0
0.875019 1.53067 0
0.750161 1.40333 0
0.875103 1.40387 0
1.00008 1.2784 0
1.24968 1.27659 0
1.25006 1.53044 0
1.00005 1.53075 0
1.12481 1.27782 0
1.24995 1.40327 0
1.12508 1.53067 0
1.00006 1.40401 0
1.12501 1.4038 0
1.24968 1.27659 0
1.49964 1.27492 0
1.49997 1.52996 0
1.25006 1.53044 0
1.37465 1.27539 0
1.49983 1.40245 0
1.37502 1.53017 0
1.24995 1.40327 0
1.37488 1.40273 0
1.49964 1.27492 0
1.74965 1.27474 0
1.74991 1.52966 0
1.49997 1.52996 0
1.62465 1.27482 0
1.74978 1.4022 0
1.62493 1.5298 0
1.49983 1.40245 0
1.62479 1.40232 0
1.74965 1.27474 0
1.99966 1.27458 0
1.9999 1.52941 0
1.74991 1.52966 0
1.87466 1.27467 0
1.99977 1.40199 0
1.87491 1.52954 0
1.74978 1.4022 0
1.87477 1.4021 0
0.000197984 1.52941 0
0.250191 1.52966 0
0.249913 1.78456 0
-8.6357e-05 1.78427 0
0.125196 1.52954 0
0.250051 1.65712 0
0.124914 1.78441 0
5.67246e-05 1.65684 0
0.125055 1.65698 0
0.250191 1.52966 0
0.500133 1.52996 0
0.499912 1.78491 0
0.249913 1.78456 0
0.375172 1.5298 0
0.50002 1.65745 0
0.374912 1.78473 0
0.250051 1.65712 0
0.375041 1.65728 0
0.500133 1.52996 0
0.750038 1.53044 0
0.749949 1.78527 0
0.499912 1.78491 0
0.625084 1.53017 0
0.749996 1.65786 0
0.624922 1.78509 0
0.50002 1.65745 0
0.625001 1.65765 0
0.750038 1.53044 0
1.00005 1.53075 0
1.00005 1.78544 0
0.749949 1.78527 0
0.875019 1.53067 0
1.00005 1.65807 0
0.874992 1.7854 0
0.749996 1.65786 0
0.87501 1.65802 0
1.00005 1.53075 0
1.25006 1.53044 0
1.25015 1.78527 0
1.00005 1.78544 0
1.12508 1.53067 0
1.25011 1.65786 0
1.12511 1.7854 0
1.00005 1.65807 0
1.12509 1.65802 0
1.25006 1.53044 0
1.49997 1.52996 0
1.50019 1.78491 0
1.25015 1.78527 0
1.37502 1.53017 0
1.50008 1.65745 0
1.37518 1.78509 0
1.25011 1.65786 0
1.3751 1.65765 0
1.49997 1.52996 0
1.74991 1.52966 0
1.75019 1.78456 0
1.50019 1.78491 0
1.62493 1.5298 0
1.75005 1.65712 0
1.62519 1.78473 0
1.50008 1.65745 0
1.62506 1.65727 0
1.74991 1.52966 0
1.9999 1.52941 0
2.00019 1.78427 0
1.75019 1.78456 0
1.87491 1.52954 0
2.00005 1.65684 0
1.87519 1.78441 0
1.75005 1.65712 0
1.87505 1.65698 0
-8.6357e-05 1.78427 0
0.249913 1.78456 0
0.249619 2.03943 0
-0.000371899 2.03913 0
0.124914 1.78441 0
0.24977 1.912 0
0.124625 2.03928 0
-0.000229739 1.9117 0
0.12477 1.91185 0
0.249913 1.78456 0
0.499912 1.78491 0
0.499638 2.03978 0
0.249619 2.03943 0
0.374912 1.78473 0
0.499791 1.91235 0
0.374621 2.0396 0
0.24977 1.912 0
0.374776 1.91217 0
0.499912 1.78491 0
0.749949 1.78527 0
0.749775 2.04012 0
0.499638 2.03978 0
0.624922 1.78509 0
0.749881 1.91269 0
0.624685 2.03995 0
0.499791 1.91235 0
0.624823 1.91252 0
0.749949 1.78527 0
1.00005 1.78544 0
1.00005 2.04027 0
0.749775 2.04012 0
0.874992 1.7854 0
1.00005 1.91284 0
0.874899 2.04023 0
0.749881 1.91269 0
0.874958 1.9128 0
1.00005 1.78544 0
1.25015 1.78527 0
1.25033 2.04012 0
1.00005 2.04027 0
1.12511 1.7854 0
1.25022 1.91269 0
1.1252 2.04023 0
1.00005 1.91284 0
1.12514 1.9128 0
1.25015 1.78527 0
1.50019 1.78491 0
1.50046 2.03978 0
1.25033 2.04012 0
1.37518 1.78509 0
1.50031 1.91235 0
1.37542 2.03995 0
1.25022 1.91269 0
1.37528 1.91252 0
1.50019 1.78491 0
1.75019 1.78456 0
1.75048 2.03943 0
1.50046 2.03978 0
1.62519 1.78473 0
1.75033 1.912 0
1.62548 2.0396 0
1.50031 1.91235 0
1.62533 1.91217 0
1.75019 1.78456 0
2.00019 1.78427 0
2.00047 2.03913 0
1.75048 2.03943 0
1.87519 1.78441 0
2.00033 1.9117 0
1.87548 2.03928 0
1.75033 1.912 0
1.87533 1.91185 0
      </DataArray>
    </Points>
    <Cells>
      <DataArray type="Int32" Name="connectivity" format="ascii">
0 1 2 3 4 5 6 7 8 
9 10 11 12 13 14 15 16 17 
18 19 20 21 22 23 24 25 26 
27 28 29 30 31 32 33 34 35 
36 37 38 39 40 41 42 43 44 
45 46 47 48 49 50 51 52 53 
54 55 56 57 58 59 60 61 62 
63 64 65 66 67 68 69 70 71 
72 73 74 75 76 77 78 79 80 
81 82 83 84 85 86 87 88 89 
90 91 92 93 94 95 96 97 98 
99 100 101 102 103 104 105 106 107 
108 109 110 111 112 113 114 115 116 
117 118 119 120 121 122 123 124 125 
126 127 128 129 130 131 132 133 134 
135 136 137 138 139 140 141 142 143 
144 145 146 147 148 149 150 151 152 
153 154 155 156 157 158 159 160 161 
162 163 164 165 166 167 168 169 170 
171 172 173 174 175 176 177 178 179 
180 181 182 183 184 185 186 187 188 
189 190 191 192 193 194 195 196 197 
198 199 200 201 202 203 204 205 206 
207 208 209 210 211 212 213 214 215 
216 217 218 219 220 221 222 223 224 
225 226 227 228 229 230 231 232 233 
234 235 236 237 238 239 240 241 242 
243 244 245 246 247 248 249 250 251 
252 253 254 255 256 257 258 259 260 
261 262 263 264 265 266 267 268 269 
270 271 272 273 274 275 276 277 278 
279 280 281 282 283 284 285 286 287 
288 289 290 291 292 293 294 295 296 
297 298 299 300 301 302 303 304 305 
306 307 308 309 310 311 312 313 314 
315 316 317 318 319 320 321 322 323 
324 325 326 327 328 329 330 331 332 
333 334 335 336 337 338 339 340 341 
342 343 344 345 346 347 348 349 350 
351 352 353 354 355 356 357 358 359 
360 361 362 363 364 365 366 367 368 
369 370 371 372 373 374 375 376 377 
378 379 380 381 382 383 384 385 386 
387 388 389 390 391 392 393 394 395 
396 397 398 399 400 401 402 403 404 
405 406 407 408 409 410 411 412 413 
414 415 416 417 418 419 420 421 422 
423 424 425 426 427 428 429 430 431 
432 433 434 435 436 437 438 439 440 
441 442 443 444 445 446 447 448 449 
450 451 452 453 454 455 456 457 458 
459 460 461 462 463 464 465 466 467 
468 469 470 471 472 473 474 475 476 
477 478 479 480 481 482 483 484 485 
486 487 488 489 490 491 492 493 494 
495 496 497 498 499 500 501 502 503 
504 505 506 507 508 509 510 511 512 
513 514 515 516 517 518 519 520 521 
522 523 524 525 526 527 528 529 530 
531 532 533 534 535 536 537 538 539 
540 541 542 543 544 545 546 547 548 
549 550 551 552 553 554 555 556 557 
558 559 560 561 562 563 564 565 566 
567 568 569 570 571 572 573 574 575 
      </DataArray>
      <DataArray type="Int32" Name="offsets" format="ascii">
9
18
27
36
45
54
63
72
81
90
99
108
117
126
135
144
153
162
171
180
189
198
207
216
225
234
243
252
261
270
279
288
297
306
315
324
333
342
351
360
369
378
387
396
405
414
423
432
441
450
459
468
477
486
495
504
513
522
531
540
549
558
567
576
      </DataArray>
      <DataArray type="UInt8" Name="types" format="ascii">
70
70
70
70
70
70
70
70
70
70
70
70
70
70
70
70
70
70
70
70
70
70
70
70
70
70
70
70
70
70
70
70
70
70
70
70
70
70
70
70
70
70
70
70
70
70
70
70
70
70
70
70
70
70
70
70
70
70
70
70
70
70
70
70
      </DataArray>
    </Cells>
    <PointData>
      <DataArray type="Float64" NumberOfComponents="2" Name="Displacement" format="ascii">
0 0
-4.40953e-06 0
5.04991e-05 0.00496666
5.82722e-05 0.00505791
-7.53003e-07 0
8.89145e-06 0.00248278
5.69253e-05 0.00500807
1.44609e-05 0.00253038
1.36813e-05 0.00250464
-4.40953e-06 0
-1.52632e-05 0
2.05715e-05 0.00487148
5.04991e-05 0.00496666
-9.67708e-06 0
-6.84144e-06 0.00243416
3.85344e-05 0.00492428
8.89145e-06 0.00248278
1.56072e-06 0.00246066
-1.52632e-05 0
-2.99759e-06 0
6.96662e-06 0.00473695
2.05715e-05 0.00487148
-1.50694e-05 0
-4.6543e-07 0.00237052
6.68938e-06 0.00480884
-6.84144e-06 0.00243416
-9.71638e-06 0.00240391
-2.99759e-06 0
5.13643e-05 0
5.13297e-05 0.00466066
6.96662e-06 0.00473695
1.95983e-05 0
5.13178e-05 0.00233565
2.17358e-05 0.00467962
-4.6543e-07 0.00237052
2.01373e-05 0.00234433
5.13643e-05 0
0.000105649 0
9.56272e-05 0.00473694
5.13297e-05 0.00466066
8.31108e-05 0
0.000103116 0.0023707
8.09071e-05 0.00467985
5.13178e-05 0.00233565
8.2502e-05 0.00234445
0.000105649 0
0.000117875 0
8.20546e-05 0.00487139
9.56272e-05 0.00473694
0.000117672 0
0.000109537 0.00243418
9.58798e-05 0.00480857
0.000103116 0.0023707
0.000112386 0.00240406
0.000117875 0
0.000107114 0
5.2225e-05 0.00496671
8.20546e-05 0.00487139
0.000112331 0
9.37907e-05 0.00248274
6.41651e-05 0.00492443
0.000109537 0.00243418
0.000101146 0.00246056
0.000107114 0
0.000102584 0
4.44953e-05 0.0050579
5.2225e-05 0.00496671
0.000103455 0
8.8286e-05 0.00253028
4.58099e-05 0.00500796
9.37907e-05 0.00248274
8.89953e-05 0.00250466
5.82722e-05 0.00505791
5.04991e-05 0.00496666
0.00021608 0.00994107
0.000225796 0.0100799
5.69253e-05 0.00500807
0.000119775 0.00745249
0.000223873 0.00999868
0.000129396 0.00757647
0.000127486 0.00750713
5.04991e-05 0.00496666
2.05715e-05 0.00487148
0.0001506 0.00981116
0.00021608 0.00994107
3.85344e-05 0.00492428
7.15329e-05 0.00732584
0.000194347 0.0098857
0.000119775 0.00745249
0.000102408 0.00739718
2.05715e-05 0.00487148
6.96662e-06 0.00473695
4.59597e-05 0.00948088
0.0001506 0.00981116
6.68938e-06 0.00480884
2.16559e-05 0.00710512
9.70625e-05 0.00968653
7.15329e-05 0.00732584
4.02487e-05 0.00723098
6.96662e-06 0.00473695
5.13297e-05 0.00466066
5.09865e-05 0.00923608
4.59597e-05 0.00948088
2.17358e-05 0.00467962
5.12644e-05 0.00696437
2.22735e-05 0.0092966
2.16559e-05 0.00710512
2.29344e-05 0.00699925
5.13297e-05 0.00466066
9.56272e-05 0.00473694
5.6915e-05 0.0094827
5.09865e-05 0.00923608
8.09071e-05 0.00467985
8.09656e-05 0.00710538
7.99249e-05 0.00929842
5.12644e-05 0.00696437
7.96176e-05 0.00699993
9.56272e-05 0.00473694
8.20546e-05 0.00487139
-4.75283e-05 0.0098111
5.6915e-05 0.0094827
9.58798e-05 0.00480857
3.11315e-05 0.00732568
6.31208e-06 0.00968743
8.09656e-05 0.00710538
6.24298e-05 0.00723065
8.20546e-05 0.00487139
5.2225e-05 0.00496671
-0.000113473 0.00994068
-4.75283e-05 0.0098111
6.41651e-05 0.00492443
-1.70428e-05 0.0074525
-9.1744e-05 0.00988506
3.11315e-05 0.00732568
2.4809e-07 0.00739734
5.2225e-05 0.00496671
4.44953e-05 0.0050579
-0.000123179 0.0100799
-0.000113473 0.00994068
4.58099e-05 0.00500796
-2.66917e-05 0.00757655
-0.000121142 0.00999871
-1.70428e-05 0.0074525
-2.47023e-05 0.00750697
0.000225796 0.0100799
0.00021608 0.00994107
0.000444273 0.0149052
0.000438857 0.0150042
0.000223873 0.00999868
0.000328039 0.0124271
0.000439704 0.014939
0.00033358 0.012559
0.00033248 0.0124776
0.00021608 0.00994107
0.0001506 0.00981116
0.000458279 0.0148469
0.000444273 0.0149052
0.000194347 0.0098857
0.000274079 0.0123205
0.000450989 0.0148816
0.000328039 0.0124271
0.000311493 0.0123828
0.0001506 0.00981116
4.59597e-05 0.00948088
0.00043895 0.0124536
0.000458279 0.0148469
9.70625e-05 0.00968653
0.000158763 0.0114138
0.000457235 0.0142285
0.000274079 0.0123205
0.000221326 0.0120581
4.59597e-05 0.00948088
5.09865e-05 0.00923608
6.56255e-05 0.0104351
0.00043895 0.0124536
2.22735e-05 0.0092966
5.44541e-05 0.0106637
0.000332167 0.0107724
0.000158763 0.0114138
9.89515e-05 0.0108086
5.09865e-05 0.00923608
5.6915e-05 0.0094827
-0.000321861 0.0127881
6.56255e-05 0.0104351
7.99249e-05 0.00929842
-5.21515e-05 0.0114999
-0.000204456 0.0111906
5.44541e-05 0.0106637
9.38248e-06 0.0109153
5.6915e-05 0.0094827
-4.75283e-05 0.0098111
-0.000355587 0.0148465
-0.000321861 0.0127881
6.31208e-06 0.00968743
-0.000170807 0.0123204
-0.000350825 0.0143119
-5.21515e-05 0.0114999
-0.000116698 0.0120806
-4.75283e-05 0.0098111
-0.000113473 0.00994068
-0.000341897 0.0149049
-0.000355587 0.0148465
-9.1744e-05 0.00988506
-0.000225584 0.0124264
-0.000348494 0.0148811
-0.000170807 0.0123204
-0.000208946 0.0123816
-0.000113473 0.00994068
-0.000123179 0.0100799
-0.000336394 0.0150043
-0.000341897 0.0149049
-0.000121142 0.00999871
-0.000231052 0.0125589
-0.000337346 0.014939
-0.000225584 0.0124264
-0.000229895 0.0124778
0.000438857 0.0150042
0.000444273 0.0149052
0.000566199 0.019831
0.000546326 0.01981
0.000439704 0.014939
0.000533941 0.0173737
0.000549875 0.019815
0.000517736 0.0174199
0.000520513 0.0173842
0.000444273 0.0149052
0.000458279 0.0148469
0.000676259 0.0198834
0.000566199 0.019831
0.000450989 0.0148816
0.000620054 0.0173735
0.00060507 0.0198549
0.000533941 0.0173737
0.000564845 0.0173747
0.000458279 0.0148469
0.00043895 0.0124536
0.000808031 0.019347
0.000676259 0.0198834
0.000457235 0.0142285
0.00071316 0.0144735
0.000752876 0.0197647
0.000620054 0.0173735
0.000677011 0.0166473
0.00043895 0.0124536
6.56255e-05 0.0104351
9.36183e-05 0.01886
0.000808031 0.019347
0.000332167 0.0107724
8.01353e-05 0.0120129
0.000651639 0.0189417
0.00071316 0.0144735
0.000567777 0.0124095
6.56255e-05 0.0104351
-0.000321861 0.0127881
-0.000663291 0.0194255
9.36183e-05 0.01886
-0.000204456 0.0111906
-0.000582233 0.0149093
-0.000475027 0.0190415
8.01353e-05 0.0120129
-0.000414842 0.0129556
-0.000321861 0.0127881
-0.000355587 0.0148465
-0.000573987 0.0198826
-0.000663291 0.0194255
-0.000350825 0.0143119
-0.000517952 0.0173727
-0.000640001 0.0197825
-0.000582233 0.0149093
-0.000567962 0.0167547
-0.000355587 0.0148465
-0.000341897 0.0149049
-0.000463895 0.0198315
-0.000573987 0.0198826
-0.000348494 0.0148811
-0.000431602 0.017374
-0.000502776 0.0198556
-0.000517952 0.0173727
-0.000462425 0.0173752
-0.000341897 0.0149049
-0.000336394 0.0150043
-0.000444021 0.0198101
-0.000463895 0.0198315
-0.000337346 0.014939
-0.000415339 0.01742
-0.000447569 0.0198148
-0.000431602 0.017374
-0.000418301 0.017384
0.000546326 0.01981
0.000566199 0.019831
0.000449902 0.0247434
0.000444051 0.0245834
0.000549875 0.019815
0.000538902 0.022285
0.000445074 0.0246672
0.00052248 0.0221921
0.000525494 0.0222399
0.000566199 0.019831
0.000676259 0.0198834
0.000463678 0.0249211
0.000449902 0.0247434
0.00060507 0.0198549
0.000624824 0.0223935
0.000456711 0.0248239
0.000538902 0.022285
0.000569684 0.022334
0.000676259 0.0198834
0.000808031 0.019347
0.00044607 0.0268373
0.000463678 0.0249211
0.000752876 0.0197647
0.000720141 0.0243698
0.000462799 0.0254529
0.000624824 0.0223935
0.000682312 0.02292
0.000808031 0.019347
9.36183e-05 0.01886
7.91056e-05 0.028396
0.00044607 0.0268373
0.000651639 0.0189417
9.6475e-05 0.0259849
0.000342002 0.0281324
0.000720141 0.0243698
0.000578224 0.0257293
9.36183e-05 0.01886
-0.000663291 0.0194255
-0.000316164 0.0265864
7.91056e-05 0.028396
-0.000475027 0.0190415
-0.000572209 0.0240727
-0.000190867 0.0278175
9.6475e-05 0.0259849
-0.000396529 0.0253586
-0.000663291 0.0194255
-0.000573987 0.0198826
-0.000361662 0.024922
-0.000316164 0.0265864
-0.000640001 0.0197825
-0.000522341 0.0223933
-0.000354019 0.0253915
-0.000572209 0.0240727
-0.000568251 0.0228449
-0.000573987 0.0198826
-0.000463895 0.0198315
-0.000347443 0.0247432
-0.000361662 0.024922
-0.000502776 0.0198556
-0.000436575 0.0222853
-0.000354377 0.0248239
-0.000522341 0.0223933
-0.000467457 0.0223345
-0.000463895 0.0198315
-0.000444021 0.0198101
-0.000341692 0.0245833
-0.000347443 0.0247432
-0.000447569 0.0198148
-0.000420213 0.022192
-0.000342627 0.0246673
-0.000436575 0.0222853
-0.000423045 0.0222397
0.000444051 0.0245834
0.000449902 0.0247434
0.000190617 0.0296644
0.000197984 0.0294087
0.000445074 0.0246672
0.000325154 0.0272039
0.000196278 0.0295373
0.000329675 0.0269878
0.000328654 0.0270991
0.000449902 0.0247434
0.000463678 0.0249211
0.000132892 0.029963
0.000190617 0.0296644
0.000456711 0.0248239
0.000272981 0.0274497
0.000172366 0.0298022
0.000325154 0.0272039
0.000309741 0.0273161
0.000463678 0.0249211
0.00044607 0.0268373
3.82821e-05 0.0304417
0.000132892 0.029963
0.000462799 0.0254529
0.000160542 0.0283334
8.41965e-05 0.0301688
0.000272981 0.0274497
0.000221155 0.0277427
0.00044607 0.0268373
7.91056e-05 0.028396
5.13264e-05 0.0307494
3.82821e-05 0.0304417
0.000342002 0.0281324
5.84196e-05 0.0290114
1.92812e-05 0.0306718
0.000160542 0.0283334
0.000102508 0.0288727
7.91056e-05 0.028396
-0.000316164 0.0265864
6.35404e-05 0.030444
5.13264e-05 0.0307494
-0.000190867 0.0278175
-5.19749e-05 0.0282743
8.31641e-05 0.0306737
5.84196e-05 0.0290114
1.22628e-05 0.0287964
-0.000316164 0.0265864
-0.000361662 0.024922
-3.0938e-05 0.0299636
6.35404e-05 0.030444
-0.000354019 0.0253915
-0.000171384 0.0274513
1.72436e-05 0.0301706
-5.19749e-05 0.0282743
-0.000118466 0.0277307
-0.000361662 0.024922
-0.000347443 0.0247432
-8.80434e-05 0.0296641
-3.0938e-05 0.0299636
-0.000354377 0.0248239
-0.000222575 0.0272034
-6.97763e-05 0.0298018
-0.000171384 0.0274513
-0.000207247 0.0273157
-0.000347443 0.0247432
-0.000341692 0.0245833
-9.54941e-05 0.0294087
-8.80434e-05 0.0296641
-0.000342627 0.0246673
-0.000227204 0.0269876
-9.38968e-05 0.0295373
-0.000222575 0.0272034
-0.000226262 0.0270992
0.000197984 0.0294087
0.000190617 0.0296644
-8.70219e-05 0.0345645
-8.6357e-05 0.0342718
0.000196278 0.0295373
5.14906e-05 0.0321196
-8.63294e-05 0.0344142
5.67246e-05 0.0318392
5.54489e-05 0.0319772
0.000190617 0.0296644
0.000132892 0.029963
-8.76579e-05 0.0349084
-8.70219e-05 0.0345645
0.000172366 0.0298022
2.03612e-05 0.0324522
-8.77072e-05 0.0347276
5.14906e-05 0.0321196
4.10584e-05 0.032275
0.000132892 0.029963
3.82821e-05 0.0304417
-5.13996e-05 0.0352693
-8.76579e-05 0.0349084
8.41965e-05 0.0301688
-4.45147e-06 0.0328558
-7.8385e-05 0.0350935
2.03612e-05 0.0324522
1.24311e-06 0.0326471
3.82821e-05 0.0304417
5.13264e-05 0.0307494
5.11741e-05 0.0354406
-5.13996e-05 0.0352693
1.92812e-05 0.0306718
5.114e-05 0.0330718
-7.83531e-06 0.0353978
-4.45147e-06 0.0328558
9.95498e-06 0.0330176
5.13264e-05 0.0307494
6.35404e-05 0.030444
0.000153794 0.0352689
5.11741e-05 0.0354406
8.31641e-05 0.0306737
0.000106693 0.0328556
0.000110195 0.0353977
5.114e-05 0.0330718
9.23154e-05 0.0330179
6.35404e-05 0.030444
-3.0938e-05 0.0299636
0.000190067 0.0349079
0.000153794 0.0352689
1.72436e-05 0.0301706
8.20781e-05 0.0324516
0.000180807 0.0350927
0.000106693 0.0328556
0.000101029 0.0326463
-3.0938e-05 0.0299636
-8.80434e-05 0.0296641
0.000189408 0.0345644
0.000190067 0.0349079
-6.97763e-05 0.0298018
5.10008e-05 0.0321195
0.000190095 0.0347274
8.20781e-05 0.0324516
6.15119e-05 0.0322749
-8.80434e-05 0.0296641
-9.54941e-05 0.0294087
0.000188716 0.0342718
0.000189408 0.0345644
-9.38968e-05 0.0295373
4.57187e-05 0.0318392
0.000188713 0.0344141
5.10008e-05 0.0321195
4.69384e-05 0.0319771
-8.6357e-05 0.0342718
-8.70219e-05 0.0345645
-0.000380955 0.0394311
-0.000371899 0.0391343
-8.63294e-05 0.0344142
-0.000229608 0.037001
-0.000375412 0.0392775
-0.000229739 0.0367043
-0.000229727 0.0368478
-8.70219e-05 0.0345645
-8.76579e-05 0.0349084
-0.000361886 0.0397764
-0.000380955 0.0394311
-8.77072e-05 0.0347276
-0.000209097 0.0373453
-0.000379466 0.0395969
-0.000229608 0.037001
-0.000224394 0.0371661
-8.76579e-05 0.0349084
-5.13996e-05 0.0352693
-0.000225317 0.0401151
-0.000361886 0.0397764
-7.8385e-05 0.0350935
-0.000119407 0.0376874
-0.000314931 0.0399543
-0.000209097 0.0373453
-0.000176504 0.0375239
-5.13996e-05 0.0352693
5.11741e-05 0.0354406
5.11683e-05 0.0402674
-0.000225317 0.0401151
-7.83531e-06 0.0353978
5.12448e-05 0.0378434
-0.000100724 0.0402293
-0.000119407 0.0376874
-4.20686e-05 0.0378043
5.11741e-05 0.0354406
0.000153794 0.0352689
0.00032776 0.0401151
5.11683e-05 0.0402674
0.000110195 0.0353977
0.000221824 0.0376875
0.000203087 0.0402294
5.12448e-05 0.0378434
0.00014454 0.0378045
0.000153794 0.0352689
0.000190067 0.0349079
0.000464344 0.0397762
0.00032776 0.0401151
0.000180807 0.0350927
0.000311375 0.0373451
0.000417431 0.0399542
0.000221824 0.0376875
0.00027885 0.037524
0.000190067 0.0349079
0.000189408 0.0345644
0.000483207 0.0394309
0.000464344 0.0397762
0.000190095 0.0347274
0.000331902 0.0370008
0.000481826 0.0395966
0.000311375 0.0373451
0.000326643 0.0371658
0.000189408 0.0345644
0.000188716 0.0342718
0.000474191 0.0391343
0.000483207 0.0394309
0.000188713 0.0344141
0.00033203 0.0367043
0.000477618 0.0392773
0.000331902 0.0370008
0.000332061 0.0368477
      </DataArray> 
      <DataArray type="Float64" NumberOfComponents="4" Name="CauchyStress" format="ascii">
0.00547915 20.8738 0 -0.000892144
-0.0400681 20.454 0 -0.00354608
-0.0702108 20.4736 0 0.080335
0.00946055 20.8255 0 0.0228521
-0.0172911 20.6488 0 0.000122836
-0.0532711 20.4637 0 0.0329692
-0.0303709 20.6287 0 0.0537791
0.00963676 20.8496 0 0.00833304
-0.0218126 20.6387 0 0.0229149
-0.0400681 20.454 0 -0.00354608
-0.0450822 20.0334 0 -0.00446428
-0.164388 20.0893 0 -0.0830627
-0.0702108 20.4736 0 0.080335
-0.0425739 20.2588 0 -0.00677923
-0.0701154 20.0606 0 -0.0425048
-0.117296 20.3104 0 0.013198
-0.0532711 20.4637 0 0.0329692
-0.0616919 20.2842 0 0.00112793
-0.0450822 20.0334 0 -0.00446428
0.141434 19.5215 0 0.000341497
0.0579096 19.4543 0 -0.270856
-0.164388 20.0893 0 -0.0830627
0.0481403 19.7843 0 -0.000720145
0.120284 19.4874 0 -0.121797
-0.0533094 19.8039 0 -0.183071
-0.0701154 20.0606 0 -0.0425048
0.0250409 19.7935 0 -0.084534
0.141434 19.5215 0 0.000341497
0.285586 19.2514 0 -0.000314429
0.290784 19.0718 0 0.00112171
0.0579096 19.4543 0 -0.270856
0.213507 19.3195 0 3.82445e-05
0.28654 19.1616 0 0.000239376
0.174291 19.1677 0 -0.146632
0.120284 19.4874 0 -0.121797
0.203398 19.2434 0 -0.0666474
0.285586 19.2514 0 -0.000314429
0.140824 19.5247 0 -0.000225456
0.0573933 19.4511 0 0.268553
0.290784 19.0718 0 0.00112171
0.213201 19.3206 0 -0.000480913
0.120402 19.4874 0 0.1218
0.174034 19.1685 0 0.146776
0.28654 19.1616 0 0.000239376
0.203458 19.2443 0 0.0668824
0.140824 19.5247 0 -0.000225456
-0.0447791 20.034 0 0.00513069
-0.163621 20.088 0 0.0840946
0.0573933 19.4511 0 0.268553
0.0479869 19.788 0 0.00134647
-0.0698811 20.0602 0 0.041718
-0.0531836 19.7978 0 0.182152
0.120402 19.4874 0 0.1218
0.0252173 19.7923 0 0.084118
-0.0447791 20.034 0 0.00513069
-0.0396446 20.4531 0 0.00331892
-0.0702081 20.4748 0 -0.0811188
-0.163621 20.088 0 0.0840946
-0.0422108 20.2564 0 0.0071247
-0.0536113 20.4639 0 -0.0323217
-0.116911 20.314 0 -0.0130829
-0.0698811 20.0602 0 0.041718
-0.0617447 20.2848 0 -0.00113919
-0.0396446 20.4531 0 0.00331892
0.00411461 20.8722 0 0.00186391
0.00979809 20.827 0 -0.0222235
-0.0702081 20.4748 0 -0.0811188
-0.0177617 20.6496 0 -0.000399811
0.010485 20.8495 0 -0.00879967
-0.0302013 20.627 0 -0.0534887
-0.0536113 20.4639 0 -0.0323217
-0.0215584 20.6383 0 -0.0229652
0.00946055 20.8255 0 0.0228521
-0.0702108 20.4736 0 0.080335
-0.0836111 20.5208 0 0.270144
0.00831642 20.5694 0 0.0740551
-0.0303709 20.6287 0 0.0537791
-0.0829736 20.4973 0 0.151528
-0.0376704 20.5014 0 0.171544
0.00799425 20.6974 0 0.0357418
-0.0374947 20.5651 0 0.0944539
-0.0702108 20.4736 0 0.080335
-0.164388 20.0893 0 -0.0830627
-0.428884 20.62 0 0.0444362
-0.0836111 20.5208 0 0.270144
-0.117296 20.3104 0 0.013198
-0.294934 20.3545 0 -0.0531389
-0.256284 20.5785 0 0.175995
-0.0829736 20.4973 0 0.151528
-0.18896 20.4445 0 0.0658285
-0.164388 20.0893 0 -0.0830627
0.0579096 19.4543 0 -0.270856
-0.389899 19.5947 0 -0.881732
-0.428884 20.62 0 0.0444362
-0.0533094 19.8039 0 -0.183071
-0.0956637 19.5223 0 -0.495112
-0.409752 20.3783 0 -0.388496
-0.294934 20.3545 0 -0.0531389
-0.195438 20.09 0 -0.262042
0.0579096 19.4543 0 -0.270856
0.290784 19.0718 0 0.00112171
0.431798 18.529 0 0.00395787
-0.389899 19.5947 0 -0.881732
0.174291 19.1677 0 -0.146632
0.328993 18.8009 0 0.00179133
0.0202302 18.7951 0 -0.505163
-0.0956637 19.5223 0 -0.495112
0.116462 18.9808 0 -0.285649
0.290784 19.0718 0 0.00112171
0.0573933 19.4511 0 0.268553
-0.38283 19.6133 0 0.879597
0.431798 18.529 0 0.00395787
0.174034 19.1685 0 0.146776
-0.094942 19.53 0 0.491734
0.0237752 18.8076 0 0.506869
0.328993 18.8009 0 0.00179133
0.116825 18.9874 0 0.285249
0.0573933 19.4511 0 0.268553
-0.163621 20.088 0 0.0840946
-0.434408 20.6217 0 -0.0459816
-0.38283 19.6133 0 0.879597
-0.0531836 19.7978 0 0.182152
-0.295325 20.3547 0 0.0563382
-0.40898 20.3942 0 0.38877
-0.094942 19.53 0 0.491734
-0.195269 20.095 0 0.262871
-0.163621 20.088 0 0.0840946
-0.0702081 20.4748 0 -0.0811188
-0.0817189 20.5157 0 -0.268287
-0.434408 20.6217 0 -0.0459816
-0.116911 20.314 0 -0.0130829
-0.0820492 20.4954 0 -0.153353
-0.258102 20.5682 0 -0.176912
-0.295325 20.3547 0 0.0563382
-0.188694 20.4411 0 -0.0656825
-0.0702081 20.4748 0 -0.0811188
0.00979809 20.827 0 -0.0222235
0.00649283 20.5682 0 -0.0754249
-0.0817189 20.5157 0 -0.268287
-0.0302013 20.627 0 -0.0534887
0.00685487 20.6976 0 -0.0341891
-0.0376354 20.5042 0 -0.171133
-0.0820492 20.4954 0 -0.153353
-0.0376029 20.5657 0 -0.094322
0.00831642 20.5694 0 0.0740551
-0.0836111 20.5208 0 0.270144
0.0512152 20.3839 0 0.418874
-0.0075962 19.9975 0 0.101973
-0.0376704 20.5014 0 0.171544
-0.047323 20.453 0 0.331121
0.0217141 20.2008 0 0.240987
0.00483947 20.2833 0 0.0487127
-0.0213066 20.3514 0 0.179928
-0.0836111 20.5208 0 0.270144
-0.428884 20.62 0 0.0444362
0.0618548 20.9004 0 0.729235
0.0512152 20.3839 0 0.418874
-0.256284 20.5785 0 0.175995
-0.374038 20.764 0 0.349063
0.0561292 20.5996 0 0.508186
-0.047323 20.453 0 0.331121
-0.210836 20.5913 0 0.31656
-0.428884 20.62 0 0.0444362
-0.389899 19.5947 0 -0.881732
-0.0841592 5.08516 0 -7.98648
0.0618548 20.9004 0 0.729235
-0.409752 20.3783 0 -0.388496
-0.51895 12.146 0 -2.57301
-0.0478651 17.0454 0 -3.65969
-0.374038 20.764 0 0.349063
-0.449412 18.6835 0 -1.09822
-0.389899 19.5947 0 -0.881732
0.431798 18.529 0 0.00395787
-2.77945 -8.36273 -0 1.37865
-0.0841592 5.08516 0 -7.98648
0.0202302 18.7951 0 -0.505163
-0.292913 4.83241 0 0.371562
-1.48081 -6.3823 -0 -2.77088
-0.51895 12.146 0 -2.57301
-0.412236 5.96403 0 -0.881021
0.431798 18.529 0 0.00395787
-0.38283 19.6133 0 0.879597
-0.233952 7.69475 0 6.70907
-2.77945 -8.36273 -0 1.37865
0.0237752 18.8076 0 0.506869
-0.539375 13.521 0 2.26358
-1.52314 -3.08419 -0 3.54387
-0.292913 4.83241 0 0.371562
-0.419908 7.66638 0 1.10658
-0.38283 19.6133 0 0.879597
-0.434408 20.6217 0 -0.0459816
0.0600276 20.896 0 -0.734299
-0.233952 7.69475 0 6.70907
-0.40898 20.3942 0 0.38877
-0.382189 20.7627 0 -0.357977
-0.112986 17.7039 0 2.98787
-0.539375 13.521 0 2.26358
-0.463031 19.0306 0 0.92922
-0.434408 20.6217 0 -0.0459816
-0.0817189 20.5157 0 -0.268287
0.0505893 20.3902 0 -0.417332
0.0600276 20.896 0 -0.734299
-0.258102 20.5682 0 -0.176912
-0.045567 20.4536 0 -0.325893
0.0548897 20.6111 0 -0.50806
-0.382189 20.7627 0 -0.357977
-0.214038 20.5919 0 -0.317995
-0.0817189 20.5157 0 -0.268287
0.00649283 20.5682 0 -0.0754249
-0.00629437 19.9986 0 -0.102839
0.0505893 20.3902 0 -0.417332
-0.0376354 20.5042 0 -0.171133
0.00365256 20.2833 0 -0.052277
0.0220552 20.198 0 -0.241563
-0.045567 20.4536 0 -0.325893
-0.0210187 20.3514 0 -0.17947
-0.0075962 19.9975 0 0.101973
0.0512152 20.3839 0 0.418874
0.178262 20.1911 0 0.102709
-0.0222745 19.5654 0 0.0121555
0.0217141 20.2008 0 0.240987
0.147401 20.2867 0 0.262086
0.0779982 19.9545 0 0.0579939
-0.0199073 19.7814 0 0.0264967
0.063714 20.0773 0 0.134848
0.0512152 20.3839 0 0.418874
0.0618548 20.9004 0 0.729235
0.685833 20.6024 0 0.139912
0.178262 20.1911 0 0.102709
0.0561292 20.5996 0 0.508186
0.529415 20.7479 0 0.444537
0.432007 20.3725 0 0.120969
0.147401 20.2867 0 0.262086
0.338288 20.4839 0 0.320202
0.0618548 20.9004 0 0.729235
-0.0841592 5.08516 0 -7.98648
0.348129 54.2797 0 -2.36127
0.685833 20.6024 0 0.139912
-0.0478651 17.0454 0 -3.65969
0.429984 29.2372 0 -11.1408
0.515445 28.8859 0 -1.08696
0.529415 20.7479 0 0.444537
0.418084 23.0016 0 -5.31532
-0.0841592 5.08516 0 -7.98648
-2.77945 -8.36273 -0 1.37865
-5.59113 85.2205 0 0.40083
0.348129 54.2797 0 -2.36127
-1.48081 -6.3823 -0 -2.77088
-5.05183 35.6233 0 1.84936
-2.65306 79.9976 0 -1.00214
0.429984 29.2372 0 -11.1408
-2.40681 34.4716 0 -4.37827
-2.77945 -8.36273 -0 1.37865
-0.233952 7.69475 0 6.70907
0.0222256 48.9077 0 2.0681
-5.59113 85.2205 0 0.40083
-1.52314 -3.08419 -0 3.54387
0.135471 27.988 0 9.38096
-2.8247 72.8684 0 1.26684
-5.05183 35.6233 0 1.84936
-2.50505 33.1116 0 5.37117
-0.233952 7.69475 0 6.70907
0.0600276 20.896 0 -0.734299
0.686046 20.6039 0 -0.127843
0.0222256 48.9077 0 2.0681
-0.112986 17.7039 0 2.98787
0.533477 20.7463 0 -0.437378
0.349794 27.6233 0 0.941157
0.135471 27.988 0 9.38096
0.289176 22.6884 0 4.43347
0.0600276 20.896 0 -0.734299
0.0505893 20.3902 0 -0.417332
0.1783 20.1907 0 -0.107613
0.686046 20.6039 0 -0.127843
0.0548897 20.6111 0 -0.50806
0.145189 20.2898 0 -0.265907
0.432135 20.3715 0 -0.119103
0.533477 20.7463 0 -0.437378
0.339212 20.4891 0 -0.318445
0.0505893 20.3902 0 -0.417332
-0.00629437 19.9986 0 -0.102839
-0.0223034 19.5646 0 -0.00945372
0.1783 20.1907 0 -0.107613
0.0220552 20.198 0 -0.241563
-0.0172303 19.7816 0 -0.0240031
0.0780018 19.9551 0 -0.0579122
0.145189 20.2898 0 -0.265907
0.063945 20.0762 0 -0.135378
-0.0222745 19.5654 0 0.0121555
0.178262 20.1911 0 0.102709
0.0533404 20.2687 0 -0.203567
-0.00654774 19.7234 0 -0.0820417
0.0779982 19.9545 0 0.0579939
0.14611 20.2292 0 -0.063117
0.0233547 19.9987 0 -0.124718
-0.0170437 19.6444 0 -0.0121961
0.0645328 19.9763 0 -0.0283319
0.178262 20.1911 0 0.102709
0.685833 20.6024 0 0.139912
0.0571285 20.9112 0 -0.469049
0.0533404 20.2687 0 -0.203567
0.432007 20.3725 0 0.120969
0.528743 20.7532 0 -0.178223
0.0548918 20.5633 0 -0.268938
0.14611 20.2292 0 -0.063117
0.337349 20.4658 0 -0.0871551
0.685833 20.6024 0 0.139912
0.348129 54.2797 0 -2.36127
-0.12532 9.83113 0 5.81381
0.0571285 20.9112 0 -0.469049
0.515445 28.8859 0 -1.08696
0.311052 31.5333 0 7.11175
-0.0528302 18.2959 0 2.68214
0.528743 20.7532 0 -0.178223
0.395732 23.5816 0 3.43848
0.348129 54.2797 0 -2.36127
-5.59113 85.2205 0 0.40083
-2.72354 0.439819 -0 -1.11323
-0.12532 9.83113 0 5.81381
-2.65306 79.9976 0 -1.00214
-4.97974 40.5714 0 -1.25013
-1.45216 1.71974 0 1.84053
0.311052 31.5333 0 7.11175
-2.38358 38.9475 0 2.66929
-5.59113 85.2205 0 0.40083
0.0222256 48.9077 0 2.0681
-0.368261 11.9096 0 -4.91232
-2.72354 0.439819 -0 -1.11323
-2.8247 72.8684 0 1.26684
-0.067136 30.0442 0 -5.91306
-1.55556 4.311 0 -2.53885
-4.97974 40.5714 0 -1.25013
-2.55286 37.1257 0 -3.33163
0.0222256 48.9077 0 2.0681
0.686046 20.6039 0 -0.127843
0.0603598 20.924 0 0.459898
-0.368261 11.9096 0 -4.91232
0.349794 27.6233 0 0.941157
0.525352 20.7604 0 0.182614
-0.1669 18.852 0 -2.20463
-0.067136 30.0442 0 -5.91306
0.210846 23.2312 0 -2.83748
0.686046 20.6039 0 -0.127843
0.1783 20.1907 0 -0.107613
0.0535529 20.2641 0 0.205845
0.0603598 20.924 0 0.459898
0.432135 20.3715 0 -0.119103
0.148277 20.2267 0 0.0607538
0.0566271 20.5575 0 0.267584
0.525352 20.7604 0 0.182614
0.33674 20.4624 0 0.0883545
0.1783 20.1907 0 -0.107613
-0.0223034 19.5646 0 -0.00945372
-0.00753393 19.7228 0 0.081278
0.0535529 20.2641 0 0.205845
0.0780018 19.9551 0 -0.0579122
-0.0196854 19.6437 0 0.0136761
0.0229651 20.0005 0 0.124446
0.148277 20.2267 0 0.0607538
0.0642953 19.9775 0 0.0279666
-0.00654774 19.7234 0 -0.0820417
0.0533404 20.2687 0 -0.203567
-0.0593117 20.2703 0 -0.0645798
0.00276082 20.0049 0 -0.0563118
0.0233547 19.9987 0 -0.124718
-0.0366282 20.2702 0 -0.124738
-0.028277 20.1085 0 -0.0623591
0.00220296 19.8641 0 -0.0444975
-0.0172382 20.0539 0 -0.0765348
0.0533404 20.2687 0 -0.203567
0.0571285 20.9112 0 -0.469049
-0.392066 20.6615 0 0.224953
-0.0593117 20.2703 0 -0.0645798
0.0548918 20.5633 0 -0.268938
-0.370874 20.7905 0 -0.100268
-0.225767 20.465 0 0.0574435
-0.0366282 20.2702 0 -0.124738
-0.203904 20.5166 0 -0.0902263
0.0571285 20.9112 0 -0.469049
-0.12532 9.83113 0 5.81381
-0.347 19.8911 0 1.07957
-0.392066 20.6615 0 0.224953
-0.0528302 18.2959 0 2.68214
-0.502003 14.7655 0 2.15883
-0.369865 20.5657 0 0.623799
-0.370874 20.7905 0 -0.100268
-0.438061 19.4181 0 1.01349
-0.12532 9.83113 0 5.81381
-2.72354 0.439819 -0 -1.11323
0.452541 18.8952 0 0.00397527
-0.347 19.8911 0 1.07957
-1.45216 1.71974 0 1.84053
-0.293843 9.55004 0 -0.304628
0.0519221 19.153 0 0.605705
-0.502003 14.7655 0 2.15883
-0.402329 10.3219 0 0.710391
-2.72354 0.439819 -0 -1.11323
-0.368261 11.9096 0 -4.91232
-0.353525 19.8591 0 -1.07821
0.452541 18.8952 0 0.00397527
-1.55556 4.311 0 -2.53885
-0.56833 15.8214 0 -1.95876
0.0486536 19.1347 0 -0.60225
-0.293843 9.55004 0 -0.304628
-0.434034 11.6325 0 -0.929439
-0.368261 11.9096 0 -4.91232
0.0603598 20.924 0 0.459898
-0.38453 20.6459 0 -0.227846
-0.353525 19.8591 0 -1.07821
-0.1669 18.852 0 -2.20463
-0.360678 20.7889 0 0.0874571
-0.369359 20.532 0 -0.62239
-0.56833 15.8214 0 -1.95876
-0.465708 19.6845 0 -0.905074
0.0603598 20.924 0 0.459898
0.0535529 20.2641 0 0.205845
-0.0619953 20.2735 0 0.0665168
-0.38453 20.6459 0 -0.227846
0.0566271 20.5575 0 0.267584
-0.0391393 20.2695 0 0.129287
-0.223337 20.4682 0 -0.0590578
-0.360678 20.7889 0 0.0874571
-0.200055 20.5152 0 0.0865709
0.0535529 20.2641 0 0.205845
-0.00753393 19.7228 0 0.081278
0.00478948 20.006 0 0.0550046
-0.0619953 20.2735 0 0.0665168
0.0229651 20.0005 0 0.124446
0.00386432 19.8643 0 0.0417538
-0.0286046 20.1064 0 0.0629202
-0.0391393 20.2695 0 0.129287
-0.017665 20.0538 0 0.077046
0.00276082 20.0049 0 -0.0563118
-0.0593117 20.2703 0 -0.0645798
-0.00765446 20.0936 0 0.0542904
0.00369592 20.0434 0 -0.0340527
-0.028277 20.1085 0 -0.0623591
-0.040974 20.1821 0 0.0122143
-0.0019733 20.058 0 0.00532812
0.00115135 20.0242 0 -0.0367622
-0.0199078 20.0833 0 -0.0156275
-0.0593117 20.2703 0 -0.0645798
-0.392066 20.6615 0 0.224953
0.00383065 20.0943 0 0.333951
-0.00765446 20.0936 0 0.0542904
-0.225767 20.465 0 0.0574435
-0.202007 20.378 0 0.308153
-0.00192973 20.1167 0 0.171202
-0.040974 20.1821 0 0.0122143
-0.121523 20.291 0 0.137351
-0.392066 20.6615 0 0.224953
-0.347 19.8911 0 1.07957
0.281961 19.8641 0 0.494514
0.00383065 20.0943 0 0.333951
-0.369865 20.5657 0 0.623799
0.00895228 19.8758 0 0.692598
0.142809 20.0125 0 0.411938
-0.202007 20.378 0 0.308153
-0.0966676 20.2883 0 0.484928
-0.347 19.8911 0 1.07957
0.452541 18.8952 0 0.00397527
0.524251 19.679 0 0.000911926
0.281961 19.8641 0 0.494514
0.0519221 19.153 0 0.605705
0.428833 19.2881 0 0.00117325
0.402962 19.7264 0 0.25788
0.00895228 19.8758 0 0.692598
0.218597 19.4396 0 0.383914
0.452541 18.8952 0 0.00397527
-0.353525 19.8591 0 -1.07821
0.282329 19.8725 0 -0.496999
0.524251 19.679 0 0.000911926
0.0486536 19.1347 0 -0.60225
0.00865912 19.864 0 -0.695515
0.403144 19.7287 0 -0.25793
0.428833 19.2881 0 0.00117325
0.218449 19.4315 0 -0.384656
-0.353525 19.8591 0 -1.07821
-0.38453 20.6459 0 -0.227846
0.00357929 20.0998 0 -0.332929
0.282329 19.8725 0 -0.496999
-0.369359 20.532 0 -0.62239
-0.200159 20.373 0 -0.304392
0.142867 20.0243 0 -0.412908
0.00865912 19.864 0 -0.695515
-0.0958933 20.2774 0 -0.483535
-0.38453 20.6459 0 -0.227846
-0.0619953 20.2735 0 0.0665168
-0.00759066 20.0922 0 -0.0550959
0.00357929 20.0998 0 -0.332929
-0.223337 20.4682 0 -0.0590578
-0.0424185 20.183 0 -0.0132744
-0.00202348 20.1151 0 -0.171352
-0.200159 20.373 0 -0.304392
-0.12132 20.2918 0 -0.136698
-0.0619953 20.2735 0 0.0665168
0.00478948 20.006 0 0.0550046
0.00341905 20.0426 0 0.0342717
-0.00759066 20.0922 0 -0.0550959
-0.0286046 20.1064 0 0.0629202
0.00221785 20.0243 0 0.0375238
-0.00207902 20.0588 0 -0.00519963
-0.0424185 20.183 0 -0.0132744
-0.0200964 20.0827 0 0.0158123
0.00369592 20.0434 0 -0.0340527
-0.00765446 20.0936 0 0.0542904
-0.0506948 19.9863 0 0.000441331
-0.0189722 20 0 -0.0258834
-0.0019733 20.058 0 0.00532812
0.00202591 20.0393 0 0.0336912
-0.0348527 19.9928 0 -0.00520364
0.000324939 20.0216 0 -0.0285257
0.00117051 20.025 0 0.00394648
-0.00765446 20.0936 0 0.0542904
0.00383065 20.0943 0 0.333951
0.202061 19.9931 0 0.0602553
-0.0506948 19.9863 0 0.000441331
-0.00192973 20.1167 0 0.171202
0.160308 20.0424 0 0.189499
0.0756785 19.9836 0 0.0213273
0.00202591 20.0393 0 0.0336912
0.081173 20.0492 0 0.0956182
0.00383065 20.0943 0 0.333951
0.281961 19.8641 0 0.494514
0.872272 20.0151 0 0.102148
0.202061 19.9931 0 0.0602553
0.142809 20.0125 0 0.411938
0.545085 19.9401 0 0.274657
0.537089 20.0041 0 0.0316529
0.160308 20.0424 0 0.189499
0.352626 20.0079 0 0.206151
0.281961 19.8641 0 0.494514
0.524251 19.679 0 0.000911926
1.30162 20.0234 0 -0.000264537
0.872272 20.0151 0 0.102148
0.402962 19.7264 0 0.25788
0.796026 19.8536 0 0.00035844
1.08677 20.0236 0 0.0162256
0.545085 19.9401 0 0.274657
0.670447 19.8765 0 0.125242
0.524251 19.679 0 0.000911926
0.282329 19.8725 0 -0.496999
0.873117 20.0108 0 -0.102664
1.30162 20.0234 0 -0.000264537
0.403144 19.7287 0 -0.25793
0.544513 19.9422 0 -0.274693
1.0872 20.0224 0 -0.0170896
0.796026 19.8536 0 0.00035844
0.670161 19.877 0 -0.124933
0.282329 19.8725 0 -0.496999
0.00357929 20.0998 0 -0.332929
0.201337 19.9906 0 -0.0591631
0.873117 20.0108 0 -0.102664
0.142867 20.0243 0 -0.412908
0.159787 20.044 0 -0.19046
0.53715 19.9983 0 -0.0310012
0.544513 19.9422 0 -0.274693
0.35208 20.0109 0 -0.206586
0.00357929 20.0998 0 -0.332929
-0.00759066 20.0922 0 -0.0550959
-0.0515766 19.9868 0 -0.000196427
0.201337 19.9906 0 -0.0591631
-0.00202348 20.1151 0 -0.171352
0.00267471 20.0389 0 -0.0331408
0.0748759 19.9847 0 -0.0203377
0.159787 20.044 0 -0.19046
0.0812375 20.0489 0 -0.0957929
-0.00759066 20.0922 0 -0.0550959
0.00341905 20.0426 0 0.0342717
-0.0177846 20.0011 0 0.0266204
-0.0515766 19.9868 0 -0.000196427
-0.00207902 20.0588 0 -0.00519963
-0.000352239 20.0217 0 0.0281723
-0.0347016 19.992 0 0.00495393
0.00267471 20.0389 0 -0.0331408
0.00115604 20.025 0 -0.00400745
      </DataArray> 
    </PointData>
    <CellData>
      <DataArray type="Float64" NumberOfComponents="1" Name="Process" format="ascii">
1
5
0
4
3
4
1
5
4
1
4
3
3
4
5
5
3
5
0
3
1
5
1
4
5
0
2
2
4
5
2
3
2
5
2
2
4
0
0
1
2
1
1
4
0
0
3
3
5
1
3
3
4
4
0
1
2
5
2
0
3
2
0
1
      </DataArray> 
    </CellData>
  </Piece>
  </UnstructuredGrid>
</VTKFile>
