<?xml version="1.0"?>
<VTKFile type="UnstructuredGrid">
  <UnstructuredGrid>
  <Piece NumberOfPoints="576"  NumberOfCells="64">
    <Points>
      <DataArray type="Float64" NumberOfComponents="3" format="ascii">
0 0 0
0.25 0 0
0.25 0.25 0
0 0.25 0
0.125 0 0
0.25 0.125 0
0.125 0.25 0
0 0.125 0
0.125 0.125 0
0.25 0 0
0.5 0 0
0.5 0.25 0
0.25 0.25 0
0.375 0 0
0.5 0.125 0
0.375 0.25 0
0.25 0.125 0
0.375 0.125 0
0.5 0 0
0.75 0 0
0.75 0.25 0
0.5 0.25 0
0.625 0 0
0.75 0.125 0
0.625 0.25 0
0.5 0.125 0
0.625 0.125 0
0.75 0 0
1 0 0
1 0.25 0
0.75 0.25 0
0.875 0 0
1 0.125 0
0.875 0.25 0
0.75 0.125 0
0.875 0.125 0
1 0 0
1.25 0 0
1.25 0.25 0
1 0.25 0
1.125 0 0
1.25 0.125 0
1.125 0.25 0
1 0.125 0
1.125 0.125 0
1.25 0 0
1.5 0 0
1.5 0.25 0
1.25 0.25 0
1.375 0 0
1.5 0.125 0
1.375 0.25 0
1.25 0.125 0
1.375 0.125 0
1.5 0 0
1.75 0 0
1.75 0.25 0
1.5 0.25 0
1.625 0 0
1.75 0.125 0
1.625 0.25 0
1.5 0.125 0
1.625 0.125 0
1.75 0 0
2 0 0
2 0.25 0
1.75 0.25 0
1.875 0 0
2 0.125 0
1.875 0.25 0
1.75 0.125 0
1.875 0.125 0
0 0.25 0
0.25 0.25 0
0.25 0.5 0
0 0.5 0
0.125 0.25 0
0.25 0.375 0
0.125 0.5 0
0 0.375 0
0.125 0.375 0
0.25 0.25 0
0.5 0.25 0
0.5 0.5 0
0.25 0.5 0
0.375 0.25 0
0.5 0.375 0
0.375 0.5 0
0.25 0.375 0
0.375 0.375 0
0.5 0.25 0
0.75 0.25 0
0.75 0.5 0
0.5 0.5 0
0.625 0.25 0
0.75 0.375 0
0.625 0.5 0
0.5 0.375 0
0.625 0.375 0
0.75 0.25 0
1 0.25 0
1 0.5 0
0.75 0.5 0
0.875 0.25 0
1 0.375 0
0.875 0.5 0
0.75 0.375 0
0.875 0.375 0
1 0.25 0
1.25 0.25 0
1.25 0.5 0
1 0.5 0
1.125 0.25 0
1.25 0.375 0
1.125 0.5 0
1 0.375 0
1.125 0.375 0
1.25 0.25 0
1.5 0.25 0
1.5 0.5 0
1.25 0.5 0
1.375 0.25 0
1.5 0.375 0
1.375 0.5 0
1.25 0.375 0
1.375 0.375 0
1.5 0.25 0
1.75 0.25 0
1.75 0.5 0
1.5 0.5 0
1.625 0.25 0
1.75 0.375 0
1.625 0.5 0
1.5 0.375 0
1.625 0.375 0
1.75 0.25 0
2 0.25 0
2 0.5 0
1.75 0.5 0
1.875 0.25 0
2 0.375 0
1.875 0.5 0
1.75 0.375 0
1.875 0.375 0
0 0.5 0
0.25 0.5 0
0.25 0.75 0
0 0.75 0
0.125 0.5 0
0.25 0.625 0
0.125 0.75 0
0 0.625 0
0.125 0.625 0
0.25 0.5 0
0.5 0.5 0
0.5 0.75 0
0.25 0.75 0
0.375 0.5 0
0.5 0.625 0
0.375 0.75 0
0.25 0.625 0
0.375 0.625 0
0.5 0.5 0
0.75 0.5 0
0.75 0.75 0
0.5 0.75 0
0.625 0.5 0
0.75 0.625 0
0.625 0.75 0
0.5 0.625 0
0.625 0.625 0
0.75 0.5 0
1 0.5 0
1 0.75 0
0.75 0.75 0
0.875 0.5 0
1 0.625 0
0.875 0.75 0
0.75 0.625 0
0.875 0.625 0
1 0.5 0
1.25 0.5 0
1.25 0.75 0
1 0.75 0
1.125 0.5 0
1.25 0.625 0
1.125 0.75 0
1 0.625 0
1.125 0.625 0
1.25 0.5 0
1.5 0.5 0
1.5 0.75 0
1.25 0.75 0
1.375 0.5 0
1.5 0.625 0
1.375 0.75 0
1.25 0.625 0
1.375 0.625 0
1.5 0.5 0
1.75 0.5 0
1.75 0.75 0
1.5 0.75 0
1.625 0.5 0
1.75 0.625 0
1.625 0.75 0
1.5 0.625 0
1.625 0.625 0
1.75 0.5 0
2 0.5 0
2 0.75 0
1.75 0.75 0
1.875 0.5 0
2 0.625 0
1.875 0.75 0
1.75 0.625 0
1.875 0.625 0
0 0.75 0
0.25 0.75 0
0.25 1 0
0 1 0
0.125 0.75 0
0.25 0.875 0
0.125 1 0
0 0.875 0
0.125 0.875 0
0.25 0.75 0
0.5 0.75 0
0.5 1 0
0.25 1 0
0.375 0.75 0
0.5 0.875 0
0.375 1 0
0.25 0.875 0
0.375 0.875 0
0.5 0.75 0
0.75 0.75 0
0.75 1 0
0.5 1 0
0.625 0.75 0
0.75 0.875 0
0.625 1 0
0.5 0.875 0
0.625 0.875 0
0.75 0.75 0
1 0.75 0
1 1 0
0.75 1 0
0.875 0.75 0
1 0.875 0
0.875 1 0
0.75 0.875 0
0.875 0.875 0
1 0.75 0
1.25 0.75 0
1.25 1 0
1 1 0
1.125 0.75 0
1.25 0.875 0
1.125 1 0
1 0.875 0
1.125 0.875 0
1.25 0.75 0
1.5 0.75 0
1.5 1 0
1.25 1 0
1.375 0.75 0
1.5 0.875 0
1.375 1 0
1.25 0.875 0
1.375 0.875 0
1.5 0.75 0
1.75 0.75 0
1.75 1 0
1.5 1 0
1.625 0.75 0
1.75 0.875 0
1.625 1 0
1.5 0.875 0
1.625 0.875 0
1.75 0.75 0
2 0.75 0
2 1 0
1.75 1 0
1.875 0.75 0
2 0.875 0
1.875 1 0
1.75 0.875 0
1.875 0.875 0
0 1 0
0.25 1 0
0.25 1.25 0
0 1.25 0
0.125 1 0
0.25 1.125 0
0.125 1.25 0
0 1.125 0
0.125 1.125 0
0.25 1 0
0.5 1 0
0.5 1.25 0
0.25 1.25 0
0.375 1 0
0.5 1.125 0
0.375 1.25 0
0.25 1.125 0
0.375 1.125 0
0.5 1 0
0.75 1 0
0.75 1.25 0
0.5 1.25 0
0.625 1 0
0.75 1.125 0
0.625 1.25 0
0.5 1.125 0
0.625 1.125 0
0.75 1 0
1 1 0
1 1.25 0
0.75 1.25 0
0.875 1 0
1 1.125 0
0.875 1.25 0
0.75 1.125 0
0.875 1.125 0
1 1 0
1.25 1 0
1.25 1.25 0
1 1.25 0
1.125 1 0
1.25 1.125 0
1.125 1.25 0
1 1.125 0
1.125 1.125 0
1.25 1 0
1.5 1 0
1.5 1.25 0
1.25 1.25 0
1.375 1 0
1.5 1.125 0
1.375 1.25 0
1.25 1.125 0
1.375 1.125 0
1.5 1 0
1.75 1 0
1.75 1.25 0
1.5 1.25 0
1.625 1 0
1.75 1.125 0
1.625 1.25 0
1.5 1.125 0
1.625 1.125 0
1.75 1 0
2 1 0
2 1.25 0
1.75 1.25 0
1.875 1 0
2 1.125 0
1.875 1.25 0
1.75 1.125 0
1.875 1.125 0
0 1.25 0
0.25 1.25 0
0.25 1.5 0
0 1.5 0
0.125 1.25 0
0.25 1.375 0
0.125 1.5 0
0 1.375 0
0.125 1.375 0
0.25 1.25 0
0.5 1.25 0
0.5 1.5 0
0.25 1.5 0
0.375 1.25 0
0.5 1.375 0
0.375 1.5 0
0.25 1.375 0
0.375 1.375 0
0.5 1.25 0
0.75 1.25 0
0.75 1.5 0
0.5 1.5 0
0.625 1.25 0
0.75 1.375 0
0.625 1.5 0
0.5 1.375 0
0.625 1.375 0
0.75 1.25 0
1 1.25 0
1 1.5 0
0.75 1.5 0
0.875 1.25 0
1 1.375 0
0.875 1.5 0
0.75 1.375 0
0.875 1.375 0
1 1.25 0
1.25 1.25 0
1.25 1.5 0
1 1.5 0
1.125 1.25 0
1.25 1.375 0
1.125 1.5 0
1 1.375 0
1.125 1.375 0
1.25 1.25 0
1.5 1.25 0
1.5 1.5 0
1.25 1.5 0
1.375 1.25 0
1.5 1.375 0
1.375 1.5 0
1.25 1.375 0
1.375 1.375 0
1.5 1.25 0
1.75 1.25 0
1.75 1.5 0
1.5 1.5 0
1.625 1.25 0
1.75 1.375 0
1.625 1.5 0
1.5 1.375 0
1.625 1.375 0
1.75 1.25 0
2 1.25 0
2 1.5 0
1.75 1.5 0
1.875 1.25 0
2 1.375 0
1.875 1.5 0
1.75 1.375 0
1.875 1.375 0
0 1.5 0
0.25 1.5 0
0.25 1.75 0
0 1.75 0
0.125 1.5 0
0.25 1.625 0
0.125 1.75 0
0 1.625 0
0.125 1.625 0
0.25 1.5 0
0.5 1.5 0
0.5 1.75 0
0.25 1.75 0
0.375 1.5 0
0.5 1.625 0
0.375 1.75 0
0.25 1.625 0
0.375 1.625 0
0.5 1.5 0
0.75 1.5 0
0.75 1.75 0
0.5 1.75 0
0.625 1.5 0
0.75 1.625 0
0.625 1.75 0
0.5 1.625 0
0.625 1.625 0
0.75 1.5 0
1 1.5 0
1 1.75 0
0.75 1.75 0
0.875 1.5 0
1 1.625 0
0.875 1.75 0
0.75 1.625 0
0.875 1.625 0
1 1.5 0
1.25 1.5 0
1.25 1.75 0
1 1.75 0
1.125 1.5 0
1.25 1.625 0
1.125 1.75 0
1 1.625 0
1.125 1.625 0
1.25 1.5 0
1.5 1.5 0
1.5 1.75 0
1.25 1.75 0
1.375 1.5 0
1.5 1.625 0
1.375 1.75 0
1.25 1.625 0
1.375 1.625 0
1.5 1.5 0
1.75 1.5 0
1.75 1.75 0
1.5 1.75 0
1.625 1.5 0
1.75 1.625 0
1.625 1.75 0
1.5 1.625 0
1.625 1.625 0
1.75 1.5 0
2 1.5 0
2 1.75 0
1.75 1.75 0
1.875 1.5 0
2 1.625 0
1.875 1.75 0
1.75 1.625 0
1.875 1.625 0
0 1.75 0
0.25 1.75 0
0.25 2 0
0 2 0
0.125 1.75 0
0.25 1.875 0
0.125 2 0
0 1.875 0
0.125 1.875 0
0.25 1.75 0
0.5 1.75 0
0.5 2 0
0.25 2 0
0.375 1.75 0
0.5 1.875 0
0.375 2 0
0.25 1.875 0
0.375 1.875 0
0.5 1.75 0
0.75 1.75 0
0.75 2 0
0.5 2 0
0.625 1.75 0
0.75 1.875 0
0.625 2 0
0.5 1.875 0
0.625 1.875 0
0.75 1.75 0
1 1.75 0
1 2 0
0.75 2 0
0.875 1.75 0
1 1.875 0
0.875 2 0
0.75 1.875 0
0.875 1.875 0
1 1.75 0
1.25 1.75 0
1.25 2 0
1 2 0
1.125 1.75 0
1.25 1.875 0
1.125 2 0
1 1.875 0
1.125 1.875 0
1.25 1.75 0
1.5 1.75 0
1.5 2 0
1.25 2 0
1.375 1.75 0
1.5 1.875 0
1.375 2 0
1.25 1.875 0
1.375 1.875 0
1.5 1.75 0
1.75 1.75 0
1.75 2 0
1.5 2 0
1.625 1.75 0
1.75 1.875 0
1.625 2 0
1.5 1.875 0
1.625 1.875 0
1.75 1.75 0
2 1.75 0
2 2 0
1.75 2 0
1.875 1.75 0
2 1.875 0
1.875 2 0
1.75 1.875 0
1.875 1.875 0
      </DataArray>
    </Points>
    <Cells>
      <DataArray type="Int32" Name="connectivity" format="ascii">
0 1 2 3 4 5 6 7 8 
9 10 11 12 13 14 15 16 17 
18 19 20 21 22 23 24 25 26 
27 28 29 30 31 32 33 34 35 
36 37 38 39 40 41 42 43 44 
45 46 47 48 49 50 51 52 53 
54 55 56 57 58 59 60 61 62 
63 64 65 66 67 68 69 70 71 
72 73 74 75 76 77 78 79 80 
81 82 83 84 85 86 87 88 89 
90 91 92 93 94 95 96 97 98 
99 100 101 102 103 104 105 106 107 
108 109 110 111 112 113 114 115 116 
117 118 119 120 121 122 123 124 125 
126 127 128 129 130 131 132 133 134 
135 136 137 138 139 140 141 142 143 
144 145 146 147 148 149 150 151 152 
153 154 155 156 157 158 159 160 161 
162 163 164 165 166 167 168 169 170 
171 172 173 174 175 176 177 178 179 
180 181 182 183 184 185 186 187 188 
189 190 191 192 193 194 195 196 197 
198 199 200 201 202 203 204 205 206 
207 208 209 210 211 212 213 214 215 
216 217 218 219 220 221 222 223 224 
225 226 227 228 229 230 231 232 233 
234 235 236 237 238 239 240 241 242 
243 244 245 246 247 248 249 250 251 
252 253 254 255 256 257 258 259 260 
261 262 263 264 265 266 267 268 269 
270 271 272 273 274 275 276 277 278 
279 280 281 282 283 284 285 286 287 
288 289 290 291 292 293 294 295 296 
297 298 299 300 301 302 303 304 305 
306 307 308 309 310 311 312 313 314 
315 316 317 318 319 320 321 322 323 
324 325 326 327 328 329 330 331 332 
333 334 335 336 337 338 339 340 341 
342 343 344 345 346 347 348 349 350 
351 352 353 354 355 356 357 358 359 
360 361 362 363 364 365 366 367 368 
369 370 371 372 373 374 375 376 377 
378 379 380 381 382 383 384 385 386 
387 388 389 390 391 392 393 394 395 
396 397 398 399 400 401 402 403 404 
405 406 407 408 409 410 411 412 413 
414 415 416 417 418 419 420 421 422 
423 424 425 426 427 428 429 430 431 
432 433 434 435 436 437 438 439 440 
441 442 443 444 445 446 447 448 449 
450 451 452 453 454 455 456 457 458 
459 460 461 462 463 464 465 466 467 
468 469 470 471 472 473 474 475 476 
477 478 479 480 481 482 483 484 485 
486 487 488 489 490 491 492 493 494 
495 496 497 498 499 500 501 502 503 
504 505 506 507 508 509 510 511 512 
513 514 515 516 517 518 519 520 521 
522 523 524 525 526 527 528 529 530 
531 532 533 534 535 536 537 538 539 
540 541 542 543 544 545 546 547 548 
549 550 551 552 553 554 555 556 557 
558 559 560 561 562 563 564 565 566 
567 568 569 570 571 572 573 574 575 
      </DataArray>
      <DataArray type="Int32" Name="offsets" format="ascii">
9
18
27
36
45
54
63
72
81
90
99
108
117
126
135
144
153
162
171
180
189
198
207
216
225
234
243
252
261
270
279
288
297
306
315
324
333
342
351
360
369
378
387
396
405
414
423
432
441
450
459
468
477
486
495
504
513
522
531
540
549
558
567
576
      </DataArray>
      <DataArray type="UInt8" Name="types" format="ascii">
70
70
70
70
70
70
70
70
70
70
70
70
70
70
70
70
70
70
70
70
70
70
70
70
70
70
70
70
70
70
70
70
70
70
70
70
70
70
70
70
70
70
70
70
70
70
70
70
70
70
70
70
70
70
70
70
70
70
70
70
70
70
70
70
      </DataArray>
    </Cells>
    <PointData>
      <DataArray type="Float64" NumberOfComponents="2" Name="Displacement" format="ascii">
0 0
0 0
0 0
0 0
0 0
0 0
0 0
0 0
0 0
0 0
0 0
0 0
0 0
0 0
0 0
0 0
0 0
0 0
0 0
0 0
0 0
0 0
0 0
0 0
0 0
0 0
0 0
0 0
0 0
0 0
0 0
0 0
0 0
0 0
0 0
0 0
0 0
0 0
0 0
0 0
0 0
0 0
0 0
0 0
0 0
0 0
0 0
0 0
0 0
0 0
0 0
0 0
0 0
0 0
0 0
0 0
0 0
0 0
0 0
0 0
0 0
0 0
0 0
0 0
0 0
0 0
0 0
0 0
0 0
0 0
0 0
0 0
0 0
0 0
0 0
0 0
0 0
0 0
0 0
0 0
0 0
0 0
0 0
0 0
0 0
0 0
0 0
0 0
0 0
0 0
0 0
0 0
0 0
0 0
0 0
0 0
0 0
0 0
0 0
0 0
0 0
0 0
0 0
0 0
0 0
0 0
0 0
0 0
0 0
0 0
0 0
0 0
0 0
0 0
0 0
0 0
0 0
0 0
0 0
0 0
0 0
0 0
0 0
0 0
0 0
0 0
0 0
0 0
0 0
0 0
0 0
0 0
0 0
0 0
0 0
0 0
0 0
0 0
0 0
0 0
0 0
0 0
0 0
0 0
0 0
0 0
0 0
0 0
0 0
0 0
0 0
0 0
0 0
0 0
0 0
0 0
0 0
0 0
0 0
0 0
0 0
0 0
0 0
0 0
0 0
0 0
0 0
0 0
0 0
0 0
0 0
0 0
0 0
0 0
0 0
0 0
0 0
0 0
0 0
0 0
0 0
0 0
0 0
0 0
0 0
0 0
0 0
0 0
0 0
0 0
0 0
0 0
0 0
0 0
0 0
0 0
0 0
0 0
0 0
0 0
0 0
0 0
0 0
0 0
0 0
0 0
0 0
0 0
0 0
0 0
0 0
0 0
0 0
0 0
0 0
0 0
0 0
0 0
0 0
0 0
0 0
0 0
0 0
0 0
0 0
0 0
0 0
0 0
0 0
0 0
0 0
0 0
0 0
0 0
0 0
0 0
0 0
0 0
0 0
0 0
0 0
0 0
0 0
0 0
0 0
0 0
0 0
0 0
0 0
0 0
0 0
0 0
0 0
0 0
0 0
0 0
0 0
0 0
0 0
0 0
0 0
0 0
0 0
0 0
0 0
0 0
0 0
0 0
0 0
0 0
0 0
0 0
0 0
0 0
0 0
0 0
0 0
0 0
0 0
0 0
0 0
0 0
0 0
0 0
0 0
0 0
0 0
0 0
0 0
0 0
0 0
0 0
0 0
0 0
0 0
0 0
0 0
0 0
0 0
0 0
0 0
0 0
0 0
0 0
0 0
0 0
0 0
0 0
0 0
0 0
0 0
0 0
0 0
0 0
0 0
0 0
0 0
0 0
0 0
0 0
0 0
0 0
0 0
0 0
0 0
0 0
0 0
0 0
0 0
0 0
0 0
0 0
0 0
0 0
0 0
0 0
0 0
0 0
0 0
0 0
0 0
0 0
0 0
0 0
0 0
0 0
0 0
0 0
0 0
0 0
0 0
0 0
0 0
0 0
0 0
0 0
0 0
0 0
0 0
0 0
0 0
0 0
0 0
0 0
0 0
0 0
0 0
0 0
0 0
0 0
0 0
0 0
0 0
0 0
0 0
0 0
0 0
0 0
0 0
0 0
0 0
0 0
0 0
0 0
0 0
0 0
0 0
0 0
0 0
0 0
0 0
0 0
0 0
0 0
0 0
0 0
0 0
0 0
0 0
0 0
0 0
0 0
0 0
0 0
0 0
0 0
0 0
0 0
0 0
0 0
0 0
0 0
0 0
0 0
0 0
0 0
0 0
0 0
0 0
0 0
0 0
0 0
0 0
0 0
0 0
0 0
0 0
0 0
0 0
0 0
0 0
0 0
0 0
0 0
0 0
0 0
0 0
0 0
0 0
0 0
0 0
0 0
0 0
0 0
0 0
0 0
0 0
0 0
0 0
0 0
0 0
0 0
0 0
0 0
0 0
0 0
0 0
0 0
0 0
0 0
0 0
0 0
0 0
0 0
0 0
0 0
0 0
0 0
0 0
0 0
0 0
0 0
0 0
0 0
0 0
0 0
0 0
0 0
0 0
0 0
0 0
0 0
0 0
0 0
0 0
0 0
0 0
0 0
0 0
0 0
0 0
0 0
0 0
0 0
0 0
0 0
0 0
0 0
0 0
0 0
0 0
0 0
0 0
0 0
0 0
0 0
0 0
0 0
0 0
0 0
0 0
0 0
0 0
0 0
0 0
0 0
0 0
0 0
0 0
0 0
0 0
0 0
0 0
0 0
0 0
0 0
0 0
0 0
0 0
0 0
0 0
0 0
0 0
0 0
0 0
0 0
0 0
0 0
0 0
0 0
0 0
0 0
0 0
0 0
0 0
0 0
0 0
0 0
0 0
0 0
0 0
0 0
0 0
0 0
0 0
0 0
0 0
0 0
0 0
0 0
0 0
0 0
0 0
0 0
0 0
0 0
0 0
0 0
0 0
0 0
0 0
0 0
0 0
0 0
0 0
0 0
      </DataArray> 
      <DataArray type="Float64" NumberOfComponents="4" Name="CauchyStress" format="ascii">
0 0 0 0
0 0 0 0
0 0 0 0
0 0 0 0
0 0 0 0
0 0 0 0
0 0 0 0
0 0 0 0
0 0 0 0
0 0 0 0
0 0 0 0
0 0 0 0
0 0 0 0
0 0 0 0
0 0 0 0
0 0 0 0
0 0 0 0
0 0 0 0
0 0 0 0
0 0 0 0
0 0 0 0
0 0 0 0
0 0 0 0
0 0 0 0
0 0 0 0
0 0 0 0
0 0 0 0
0 0 0 0
0 0 0 0
0 0 0 0
0 0 0 0
0 0 0 0
0 0 0 0
0 0 0 0
0 0 0 0
0 0 0 0
0 0 0 0
0 0 0 0
0 0 0 0
0 0 0 0
0 0 0 0
0 0 0 0
0 0 0 0
0 0 0 0
0 0 0 0
0 0 0 0
0 0 0 0
0 0 0 0
0 0 0 0
0 0 0 0
0 0 0 0
0 0 0 0
0 0 0 0
0 0 0 0
0 0 0 0
0 0 0 0
0 0 0 0
0 0 0 0
0 0 0 0
0 0 0 0
0 0 0 0
0 0 0 0
0 0 0 0
0 0 0 0
0 0 0 0
0 0 0 0
0 0 0 0
0 0 0 0
0 0 0 0
0 0 0 0
0 0 0 0
0 0 0 0
0 0 0 0
0 0 0 0
0 0 0 0
0 0 0 0
0 0 0 0
0 0 0 0
0 0 0 0
0 0 0 0
0 0 0 0
0 0 0 0
0 0 0 0
0 0 0 0
0 0 0 0
0 0 0 0
0 0 0 0
0 0 0 0
0 0 0 0
0 0 0 0
0 0 0 0
0 0 0 0
0 0 0 0
0 0 0 0
0 0 0 0
0 0 0 0
0 0 0 0
0 0 0 0
0 0 0 0
0 0 0 0
0 0 0 0
0 0 0 0
0 0 0 0
0 0 0 0
0 0 0 0
0 0 0 0
0 0 0 0
0 0 0 0
0 0 0 0
0 0 0 0
0 0 0 0
0 0 0 0
0 0 0 0
0 0 0 0
0 0 0 0
0 0 0 0
0 0 0 0
0 0 0 0
0 0 0 0
0 0 0 0
0 0 0 0
0 0 0 0
0 0 0 0
0 0 0 0
0 0 0 0
0 0 0 0
0 0 0 0
0 0 0 0
0 0 0 0
0 0 0 0
0 0 0 0
0 0 0 0
0 0 0 0
0 0 0 0
0 0 0 0
0 0 0 0
0 0 0 0
0 0 0 0
0 0 0 0
0 0 0 0
0 0 0 0
0 0 0 0
0 0 0 0
0 0 0 0
0 0 0 0
0 0 0 0
0 0 0 0
0 0 0 0
0 0 0 0
0 0 0 0
0 0 0 0
0 0 0 0
0 0 0 0
0 0 0 0
0 0 0 0
0 0 0 0
0 0 0 0
0 0 0 0
0 0 0 0
0 0 0 0
0 0 0 0
0 0 0 0
0 0 0 0
0 0 0 0
0 0 0 0
0 0 0 0
0 0 0 0
0 0 0 0
0 0 0 0
0 0 0 0
0 0 0 0
0 0 0 0
0 0 0 0
0 0 0 0
0 0 0 0
0 0 0 0
0 0 0 0
0 0 0 0
0 0 0 0
0 0 0 0
0 0 0 0
0 0 0 0
0 0 0 0
0 0 0 0
0 0 0 0
0 0 0 0
0 0 0 0
0 0 0 0
0 0 0 0
0 0 0 0
0 0 0 0
0 0 0 0
0 0 0 0
0 0 0 0
0 0 0 0
0 0 0 0
0 0 0 0
0 0 0 0
0 0 0 0
0 0 0 0
0 0 0 0
0 0 0 0
0 0 0 0
0 0 0 0
0 0 0 0
0 0 0 0
0 0 0 0
0 0 0 0
0 0 0 0
0 0 0 0
0 0 0 0
0 0 0 0
0 0 0 0
0 0 0 0
0 0 0 0
0 0 0 0
0 0 0 0
0 0 0 0
0 0 0 0
0 0 0 0
0 0 0 0
0 0 0 0
0 0 0 0
0 0 0 0
0 0 0 0
0 0 0 0
0 0 0 0
0 0 0 0
0 0 0 0
0 0 0 0
0 0 0 0
0 0 0 0
0 0 0 0
0 0 0 0
0 0 0 0
0 0 0 0
0 0 0 0
0 0 0 0
0 0 0 0
0 0 0 0
0 0 0 0
0 0 0 0
0 0 0 0
0 0 0 0
0 0 0 0
0 0 0 0
0 0 0 0
0 0 0 0
0 0 0 0
0 0 0 0
0 0 0 0
0 0 0 0
0 0 0 0
0 0 0 0
0 0 0 0
0 0 0 0
0 0 0 0
0 0 0 0
0 0 0 0
0 0 0 0
0 0 0 0
0 0 0 0
0 0 0 0
0 0 0 0
0 0 0 0
0 0 0 0
0 0 0 0
0 0 0 0
0 0 0 0
0 0 0 0
0 0 0 0
0 0 0 0
0 0 0 0
0 0 0 0
0 0 0 0
0 0 0 0
0 0 0 0
0 0 0 0
0 0 0 0
0 0 0 0
0 0 0 0
0 0 0 0
0 0 0 0
0 0 0 0
0 0 0 0
0 0 0 0
0 0 0 0
0 0 0 0
0 0 0 0
0 0 0 0
0 0 0 0
0 0 0 0
0 0 0 0
0 0 0 0
0 0 0 0
0 0 0 0
0 0 0 0
0 0 0 0
0 0 0 0
0 0 0 0
0 0 0 0
0 0 0 0
0 0 0 0
0 0 0 0
0 0 0 0
0 0 0 0
0 0 0 0
0 0 0 0
0 0 0 0
0 0 0 0
0 0 0 0
0 0 0 0
0 0 0 0
0 0 0 0
0 0 0 0
0 0 0 0
0 0 0 0
0 0 0 0
0 0 0 0
0 0 0 0
0 0 0 0
0 0 0 0
0 0 0 0
0 0 0 0
0 0 0 0
0 0 0 0
0 0 0 0
0 0 0 0
0 0 0 0
0 0 0 0
0 0 0 0
0 0 0 0
0 0 0 0
0 0 0 0
0 0 0 0
0 0 0 0
0 0 0 0
0 0 0 0
0 0 0 0
0 0 0 0
0 0 0 0
0 0 0 0
0 0 0 0
0 0 0 0
0 0 0 0
0 0 0 0
0 0 0 0
0 0 0 0
0 0 0 0
0 0 0 0
0 0 0 0
0 0 0 0
0 0 0 0
0 0 0 0
0 0 0 0
0 0 0 0
0 0 0 0
0 0 0 0
0 0 0 0
0 0 0 0
0 0 0 0
0 0 0 0
0 0 0 0
0 0 0 0
0 0 0 0
0 0 0 0
0 0 0 0
0 0 0 0
0 0 0 0
0 0 0 0
0 0 0 0
0 0 0 0
0 0 0 0
0 0 0 0
0 0 0 0
0 0 0 0
0 0 0 0
0 0 0 0
0 0 0 0
0 0 0 0
0 0 0 0
0 0 0 0
0 0 0 0
0 0 0 0
0 0 0 0
0 0 0 0
0 0 0 0
0 0 0 0
0 0 0 0
0 0 0 0
0 0 0 0
0 0 0 0
0 0 0 0
0 0 0 0
0 0 0 0
0 0 0 0
0 0 0 0
0 0 0 0
0 0 0 0
0 0 0 0
0 0 0 0
0 0 0 0
0 0 0 0
0 0 0 0
0 0 0 0
0 0 0 0
0 0 0 0
0 0 0 0
0 0 0 0
0 0 0 0
0 0 0 0
0 0 0 0
0 0 0 0
0 0 0 0
0 0 0 0
0 0 0 0
0 0 0 0
0 0 0 0
0 0 0 0
0 0 0 0
0 0 0 0
0 0 0 0
0 0 0 0
0 0 0 0
0 0 0 0
0 0 0 0
0 0 0 0
0 0 0 0
0 0 0 0
0 0 0 0
0 0 0 0
0 0 0 0
0 0 0 0
0 0 0 0
0 0 0 0
0 0 0 0
0 0 0 0
0 0 0 0
0 0 0 0
0 0 0 0
0 0 0 0
0 0 0 0
0 0 0 0
0 0 0 0
0 0 0 0
0 0 0 0
0 0 0 0
0 0 0 0
0 0 0 0
0 0 0 0
0 0 0 0
0 0 0 0
0 0 0 0
0 0 0 0
0 0 0 0
0 0 0 0
0 0 0 0
0 0 0 0
0 0 0 0
0 0 0 0
0 0 0 0
0 0 0 0
0 0 0 0
0 0 0 0
0 0 0 0
0 0 0 0
0 0 0 0
0 0 0 0
0 0 0 0
0 0 0 0
0 0 0 0
0 0 0 0
0 0 0 0
0 0 0 0
0 0 0 0
0 0 0 0
0 0 0 0
0 0 0 0
0 0 0 0
0 0 0 0
0 0 0 0
0 0 0 0
0 0 0 0
0 0 0 0
0 0 0 0
0 0 0 0
0 0 0 0
0 0 0 0
0 0 0 0
0 0 0 0
0 0 0 0
0 0 0 0
0 0 0 0
0 0 0 0
0 0 0 0
0 0 0 0
0 0 0 0
0 0 0 0
0 0 0 0
0 0 0 0
0 0 0 0
0 0 0 0
0 0 0 0
0 0 0 0
0 0 0 0
0 0 0 0
0 0 0 0
0 0 0 0
0 0 0 0
0 0 0 0
0 0 0 0
0 0 0 0
0 0 0 0
0 0 0 0
0 0 0 0
0 0 0 0
0 0 0 0
0 0 0 0
0 0 0 0
0 0 0 0
0 0 0 0
0 0 0 0
0 0 0 0
0 0 0 0
0 0 0 0
0 0 0 0
0 0 0 0
0 0 0 0
0 0 0 0
0 0 0 0
0 0 0 0
0 0 0 0
0 0 0 0
0 0 0 0
0 0 0 0
0 0 0 0
0 0 0 0
0 0 0 0
0 0 0 0
0 0 0 0
0 0 0 0
0 0 0 0
0 0 0 0
0 0 0 0
0 0 0 0
0 0 0 0
0 0 0 0
0 0 0 0
0 0 0 0
0 0 0 0
0 0 0 0
0 0 0 0
0 0 0 0
0 0 0 0
0 0 0 0
0 0 0 0
0 0 0 0
0 0 0 0
0 0 0 0
0 0 0 0
0 0 0 0
0 0 0 0
0 0 0 0
0 0 0 0
0 0 0 0
0 0 0 0
0 0 0 0
0 0 0 0
0 0 0 0
0 0 0 0
0 0 0 0
0 0 0 0
0 0 0 0
0 0 0 0
0 0 0 0
0 0 0 0
      </DataArray> 
    </PointData>
    <CellData>
      <DataArray type="Float64" NumberOfComponents="1" Name="Process" format="ascii">
1
5
0
4
3
4
1
5
4
1
4
3
3
4
5
5
3
5
0
3
1
5
1
4
5
0
2
2
4
5
2
3
2
5
2
2
4
0
0
1
2
1
1
4
0
0
3
3
5
1
3
3
4
4
0
1
2
5
2
0
3
2
0
1
      </DataArray> 
    </CellData>
  </Piece>
  </UnstructuredGrid>
</VTKFile>
