<?xml version="1.0"?>
<VTKFile type="UnstructuredGrid">
  <UnstructuredGrid>
  <Piece NumberOfPoints="836"  NumberOfCells="392">
    <Points>
      <DataArray type="Float64" NumberOfComponents="3" format="ascii">
1.1 1 0.1
0.5005 0.5005 0.1
1.4995 0.5005 0.1
1.4995 1.4995 0.1
0.5005 1.4995 0.1
1.09511 1.0309 0.1
1.0809 1.05878 0.1
1.05878 1.0809 0.1
1.0309 1.09511 0.1
1 1.1 0.1
0.969098 1.09511 0.1
0.941221 1.0809 0.1
0.919098 1.05878 0.1
0.904894 1.0309 0.1
0.9 1 0.1
0.904894 0.969098 0.1
0.919098 0.941221 0.1
0.941221 0.919098 0.1
0.969098 0.904894 0.1
1 0.9 0.1
1.0309 0.904894 0.1
1.05878 0.919098 0.1
1.0809 0.941221 0.1
1.09511 0.969098 0.1
1.09877 1.01564 0.1
1.0891 1.0454 0.1
1.07071 1.07071 0.1
1.0454 1.0891 0.1
1.01564 1.09877 0.1
0.984357 1.09877 0.1
0.954601 1.0891 0.1
0.929289 1.07071 0.1
0.910899 1.0454 0.1
0.901231 1.01564 0.1
0.901231 0.984357 0.1
0.910899 0.954601 0.1
0.929289 0.929289 0.1
0.954601 0.910899 0.1
0.984357 0.901231 0.1
1.01564 0.901231 0.1
1.0454 0.910899 0.1
1.07071 0.929289 0.1
1.0891 0.954601 0.1
1.09877 0.984357 0.1
0.625375 0.5005 0.1
0.75025 0.5005 0.1
0.875125 0.5005 0.1
1 0.5005 0.1
1.12488 0.5005 0.1
1.24975 0.5005 0.1
1.37462 0.5005 0.1
0.562938 0.5005 0.1
0.687813 0.5005 0.1
0.812688 0.5005 0.1
0.937563 0.5005 0.1
1.06244 0.5005 0.1
1.18731 0.5005 0.1
1.31219 0.5005 0.1
1.43706 0.5005 0.1
1.4995 0.625375 0.1
1.4995 0.75025 0.1
1.4995 0.875125 0.1
1.4995 1 0.1
1.4995 1.12488 0.1
1.4995 1.24975 0.1
1.4995 1.37463 0.1
1.4995 0.562938 0.1
1.4995 0.687813 0.1
1.4995 0.812688 0.1
1.4995 0.937563 0.1
1.4995 1.06244 0.1
1.4995 1.18731 0.1
1.4995 1.31219 0.1
1.4995 1.43706 0.1
1.37462 1.4995 0.1
1.24975 1.4995 0.1
1.12487 1.4995 0.1
1 1.4995 0.1
0.875125 1.4995 0.1
0.75025 1.4995 0.1
0.625375 1.4995 0.1
1.43706 1.4995 0.1
1.31219 1.4995 0.1
1.18731 1.4995 0.1
1.06244 1.4995 0.1
0.937562 1.4995 0.1
0.812687 1.4995 0.1
0.687812 1.4995 0.1
0.562937 1.4995 0.1
0.5005 1.37463 0.1
0.5005 1.24975 0.1
0.5005 1.12487 0.1
0.5005 1 0.1
0.5005 0.875125 0.1
0.5005 0.75025 0.1
0.5005 0.625375 0.1
0.5005 1.43706 0.1
0.5005 1.31219 0.1
0.5005 1.18731 0.1
0.5005 1.06244 0.1
0.5005 0.937562 0.1
0.5005 0.812687 0.1
0.5005 0.687812 0.1
0.5005 0.562937 0.1
1.24713 0.751349 0.1
1.23437 1.23244 0.1
0.77596 1.23082 0.1
0.769182 0.77596 0.1
1.04748 0.70025 0.1
0.691037 0.957845 0.1
0.957845 1.30896 0.1
1.29975 0.952524 0.1
1.21417 1.10913 0.1
0.890104 0.785963 0.1
0.78479 1.11819 0.1
1.11925 1.21767 0.1
1.16477 0.835045 0.1
0.901193 1.20027 0.1
0.799729 0.901193 0.1
1.03137 0.801939 0.1
1.19806 0.96863 0.1
0.825634 1.03339 0.1
1.1301 1.1301 0.1
1.03404 1.17556 0.1
0.878417 0.878417 0.1
0.877529 1.12125 0.1
1.14639 0.925413 0.1
1.07459 0.853614 0.1
0.974299 0.83773 0.1
1.16227 1.0257 0.1
1.34585 1.08704 0.1
0.656476 1.08396 0.1
1.08396 1.34352 0.1
0.912959 0.654149 0.1
0.979851 1.16091 0.1
1.07104 1.13942 0.1
0.839287 0.979742 0.1
0.84274 1.37441 0.1
0.625592 0.84274 0.1
1.3719 0.838942 0.1
1.15751 0.632751 0.1
1.11661 0.787343 0.1
1.21312 0.882837 0.1
0.865407 1.06858 0.1
1.15204 0.975931 0.1
1.10584 0.894047 0.1
1.02407 0.847958 0.1
1.13865 1.06178 0.1
0.929276 0.864068 0.1
1.23934 1.04912 0.1
0.950753 0.760682 0.1
0.674139 1.37496 0.1
0.62504 0.674139 0.1
1.34147 0.616687 0.1
1.35263 1.35263 0.1
0.708622 1.02948 0.1
1.02948 1.29138 0.1
0.936682 1.12488 0.1
0.875107 0.936779 0.1
1.39001 1.22266 0.1
1.22572 1.39079 0.1
0.61568 1.22786 0.1
0.77214 0.61568 0.1
0.835478 0.837374 0.1
0.837319 1.16401 0.1
0.715573 0.841671 0.1
0.841671 1.28443 0.1
1.17734 1.19158 0.1
0.971444 1.22833 0.1
0.771673 0.971444 0.1
1.09924 1.09646 0.1
1.3025 1.16632 0.1
1.17211 1.31052 0.1
0.83195 0.698186 0.1
0.698665 1.16841 0.1
0.86888 1.02142 0.1
1.02189 1.13506 0.1
1.34409 0.725986 0.1
1.07275 0.578671 0.1
0.933571 1.40464 0.1
0.595361 0.933571 0.1
1.42227 0.926611 0.1
1.23104 0.818844 0.1
1.18004 0.770227 0.1
1.28526 0.877575 0.1
1.12153 0.716185 0.1
0.905121 1.085 0.1
0.912073 0.905368 0.1
0.594916 1.32074 0.1
0.679256 0.594916 0.1
0.901794 0.722656 0.1
1.27785 1.0973 0.1
1.29966 1.0305 0.1
0.969327 0.700427 0.1
1.11553 0.941134 0.1
1.05887 0.884469 0.1
0.97982 0.872833 0.1
1.1265 1.01943 0.1
1.18528 1.05945 0.1
0.936011 0.812813 0.1
0.640692 1.00892 0.1
1.00892 1.35931 0.1
0.685893 1.27529 0.1
0.724767 0.685814 0.1
1.39515 1.01176 0.1
0.988237 0.604849 0.1
1.42315 0.674891 0.1
0.906514 1.25906 0.1
0.740943 0.906514 0.1
1.1528 0.885484 0.1
0.831463 1.10065 0.1
0.757912 1.32795 0.1
0.672057 0.757908 0.1
1.2545 0.671688 0.1
1.11475 0.844301 0.1
1.05654 1.11009 0.1
0.980663 1.12376 0.1
0.876041 0.980367 0.1
1.10398 1.2707 0.1
0.731728 1.10391 0.1
1.27182 1.32537 0.1
1.06761 0.762661 0.1
1.23996 0.934532 0.1
1.30115 1.41811 0.1
1.41765 1.30039 0.1
0.587168 0.586043 0.1
0.586043 1.41283 0.1
0.759646 1.41034 0.1
0.589662 0.759646 0.1
1.24035 0.589662 0.1
1.29588 0.802539 0.1
0.837772 0.765413 0.1
0.765901 1.16502 0.1
0.891474 1.32851 0.1
0.67149 0.891474 0.1
1.05066 1.42923 0.1
0.570775 1.05066 0.1
1.10967 1.17423 0.1
0.893857 0.835727 0.1
1.41522 1.4152 0.1
1.4091 1.14404 0.1
1.14647 1.4167 0.1
0.584887 1.14704 0.1
0.855132 0.591662 0.1
0.892139 1.05371 0.1
0.93706 1.17047 0.1
0.829531 0.93706 0.1
1.07391 0.810273 0.1
1.18973 0.926093 0.1
0.775652 1.05951 0.1
1.06131 1.22631 0.1
1.31854 1.26248 0.1
1.16121 1.24243 0.1
1.17752 1.14117 0.1
1.08439 0.915592 0.1
1.23573 1.15904 0.1
1.11892 0.981108 0.1
1.01885 0.881045 0.1
1.10762 1.05484 0.1
1.20353 1.01182 0.1
0.988183 0.796471 0.1
1.19214 0.70844 0.1
0.945973 0.893002 0.1
1.41936 0.766035 0.1
0.899357 1.15495 0.1
0.844929 0.899506 0.1
1.15641 1.09954 0.1
1.00912 0.753738 0.1
1.24672 0.991187 0.1
1.43499 0.565015 0.1
0.774367 0.853741 0.1
0.853733 1.22556 0.1
1.0775 0.646541 0.1
1.35487 0.921483 0.1
1.29091 0.603174 0.1
1.30749 0.545081 0.1
1.35805 0.558593 0.1
0.716893 1.39265 0.1
0.692511 1.45492 0.1
0.649757 1.43723 0.1
0.607351 0.716893 0.1
0.545081 0.692511 0.1
0.56277 0.649757 0.1
0.730927 1.25306 0.1
0.692279 1.22185 0.1
0.737313 1.19962 0.1
0.746975 0.730887 0.1
0.778358 0.692 0.1
0.800566 0.737073 0.1
0.80664 1.19741 0.1
0.845526 1.19478 0.1
0.814847 1.22819 0.1
0.80233 0.806667 0.1
0.804923 0.845558 0.1
0.771775 0.814851 0.1
0.861673 0.888961 0.1
0.840203 0.86844 0.1
0.856947 0.857896 0.1
0.888443 1.1381 0.1
0.868338 1.15948 0.1
0.857424 1.14263 0.1
1.05254 1.15749 0.1
1.09035 1.15683 0.1
1.07185 1.17489 0.1
0.890001 0.952939 0.1
0.897103 0.939 0.1
0.95289 1.10999 0.1
0.938952 1.10289 0.1
0.845521 1.05098 0.1
0.848435 1.08462 0.1
0.828549 1.06702 0.1
0.884046 0.622906 0.1
0.921684 0.598256 0.1
0.950598 0.629499 0.1
1.3705 1.0494 0.1
1.40212 1.0779 0.1
1.37747 1.11554 0.1
0.798653 1.00242 0.1
0.80548 0.975593 0.1
0.83246 1.00657 0.1
1.00274 1.20194 0.1
0.975648 1.19462 0.1
1.00694 1.16823 0.1
0.931681 0.552675 0.1
0.865129 0.546081 0.1
1.4543 1.13446 0.1
1.44733 1.06832 0.1
1.13976 0.839673 0.1
1.11568 0.815822 0.1
1.14069 0.811194 0.1
1.15381 1.13564 0.1
1.14359 1.1577 0.1
1.11989 1.15216 0.1
1.24505 0.545081 0.1
0.754948 1.45492 0.1
0.545081 0.754948 0.1
1.04767 1.20093 0.1
1.01638 1.22732 0.1
0.800643 1.04645 0.1
0.773662 1.01548 0.1
1.09007 1.07762 0.1
1.07901 1.08868 0.1
1.18895 0.858941 0.1
1.18296 0.884161 0.1
1.15879 0.860265 0.1
1.11446 1.19595 0.1
1.1435 1.1829 0.1
1.14829 1.20462 0.1
0.545081 0.817386 0.1
0.607627 0.801193 0.1
0.563046 0.858932 0.1
0.817386 1.45492 0.1
0.801193 1.39237 0.1
0.858932 1.43695 0.1
1.18261 0.545081 0.1
1.19893 0.611206 0.1
1.14119 0.566626 0.1
1.17743 1.16637 0.1
0.834391 1.13233 0.1
0.854496 1.11095 0.1
1.16806 0.925753 0.1
1.17088 0.951012 0.1
1.14921 0.950672 0.1
0.74497 0.847706 0.1
0.742378 0.808816 0.1
0.847702 1.25499 0.1
0.808816 1.25762 0.1
1.04933 0.850786 0.1
1.04899 0.829116 0.1
1.07425 0.831944 0.1
0.886887 1.02616 0.1
0.88444 1.01071 0.1
1.0264 1.11508 0.1
1.01094 1.11753 0.1
0.994118 0.552675 0.1
1.44733 1.00588 0.1
1.25309 1.2789 0.1
1.22196 1.31795 0.1
1.20324 1.27148 0.1
0.657172 1.19814 0.1
0.650787 1.25158 0.1
0.802045 0.656933 0.1
0.748453 0.650747 0.1
0.817603 0.869283 0.1
0.822329 0.900349 0.1
0.869256 1.18214 0.1
0.900275 1.17761 0.1
1.15716 1.00082 0.1
1.17779 0.993874 0.1
1.1829 1.01876 0.1
1.3558 1.15518 0.1
1.32418 1.12668 0.1
0.677571 1.12619 0.1
0.641776 1.15773 0.1
0.620682 1.1155 0.1
1.12804 1.32702 0.1
1.15929 1.36361 0.1
1.11522 1.38011 0.1
0.872455 0.676167 0.1
0.843541 0.644924 0.1
0.981241 0.817101 0.1
1.00613 0.822215 0.1
0.999184 0.842844 0.1
1.08549 1.20027 0.1
0.803557 1.08008 0.1
0.610476 0.888156 0.1
0.54793 0.904348 0.1
0.888156 1.38952 0.1
0.904348 1.45207 0.1
1.11513 0.605711 0.1
1.09881 0.539585 0.1
1.46089 0.900868 0.1
1.39708 0.882776 0.1
1.4357 0.857033 0.1
1.03287 0.625695 0.1
1.06249 0.673396 0.1
1.01786 0.65255 0.1
1.32731 0.937004 0.1
1.37501 0.966623 0.1
1.34745 0.982144 0.1
0.864667 0.83655 0.1
0.886137 0.857072 0.1
0.800602 0.954252 0.1
0.834409 0.958401 0.1
0.954252 1.1994 0.1
0.958455 1.16569 0.1
1.19791 0.826945 0.1
1.22208 0.850841 0.1
1.39563 0.802489 0.1
1.45943 0.82058 0.1
0.89359 0.921074 0.1
0.915586 0.923295 0.1
0.920901 1.10494 0.1
0.923171 1.08295 0.1
0.964644 1.26865 0.1
1.00046 1.25985 0.1
0.993663 1.30017 0.1
0.731355 0.964644 0.1
0.740147 1.00046 0.1
0.699829 0.993663 0.1
1.34626 1.19449 0.1
1.39955 1.18335 0.1
1.1861 1.40374 0.1
1.19892 1.35066 0.1
0.600283 1.18745 0.1
0.813636 0.603671 0.1
0.803477 0.770687 0.1
0.836625 0.801394 0.1
0.770931 1.19792 0.1
0.80161 1.16451 0.1
0.799791 1.30619 0.1
0.766936 1.27938 0.1
0.693815 0.79979 0.1
0.72062 0.766934 0.1
1.09433 0.827287 0.1
1.09526 0.798808 0.1
0.974881 1.10943 0.1
0.958672 1.12432 0.1
0.890468 0.974733 0.1
0.875574 0.958573 0.1
1.17505 0.972281 0.1
1.19389 0.947362 0.1
0.674657 1.0192 0.1
0.665864 0.983384 0.1
1.0192 1.32534 0.1
0.983384 1.33414 0.1
1.05264 0.806106 0.1
1.02772 0.824949 0.1
1.14832 0.778785 0.1
1.17241 0.802636 0.1
1.25082 0.711518 0.1
1.2993 0.698837 0.1
1.29561 0.738667 0.1
1.34741 1.02113 0.1
1.29971 0.991512 0.1
1.0084 0.700338 0.1
0.978782 0.652638 0.1
0.742137 1.0445 0.1
1.0454 1.25884 0.1
1.20079 0.990224 0.1
1.00978 0.799205 0.1
1.09426 1.05681 0.1
1.10343 1.07565 0.1
1.40481 0.532757 0.1
1.38823 0.590851 0.1
0.919126 1.18537 0.1
0.936319 1.2143 0.1
0.81463 0.919126 0.1
0.785701 0.936319 0.1
1.24877 1.35808 0.1
1.20142 0.904465 0.1
1.17126 0.905788 0.1
0.543834 0.605709 0.1
0.606104 0.630091 0.1
0.605709 1.45617 0.1
0.630091 1.3939 0.1
1.07789 1.10327 0.1
1.05766 1.09549 0.1
1.44476 1.2362 0.1
1.4543 1.1969 0.1
0.542694 1.19839 0.1
0.55809 1.23881 0.1
0.802691 0.546081 0.1
0.761195 0.55809 0.1
1.19811 1.4581 0.1
1.23774 1.44514 0.1
0.808127 1.10942 0.1
0.811054 1.1411 0.1
1.10057 1.13476 0.1
1.08514 1.11794 0.1
1.11467 1.11328 0.1
1.04644 1.35142 0.1
1.05672 1.31745 0.1
0.648584 1.04644 0.1
0.682549 1.05672 0.1
1.09211 0.775002 0.1
1.09457 0.739423 0.1
1.11907 0.751764 0.1
1.19973 1.08429 0.1
1.21231 1.05429 0.1
1.22676 1.07912 0.1
0.920428 0.773322 0.1
0.943382 0.786747 0.1
0.913058 0.799388 0.1
1.24919 0.880206 0.1
1.26261 0.906054 0.1
1.22654 0.908685 0.1
0.898517 1.04231 0.1
0.88051 1.03757 0.1
0.618026 0.971248 0.1
0.605733 1.02979 0.1
0.583068 0.992114 0.1
0.971248 1.38197 0.1
1.02979 1.39427 0.1
0.992114 1.41693 0.1
0.847257 1.0274 0.1
0.867144 1.045 0.1
1.04372 1.1026 0.1
1.03922 1.12257 0.1
0.872461 1.00089 0.1
0.88802 0.990183 0.1
1.00128 1.12941 0.1
0.990331 1.11188 0.1
0.605298 1.2743 0.1
0.547708 1.28525 0.1
0.725698 0.605298 0.1
0.714753 0.547708 0.1
0.91211 1.07189 0.1
0.926647 0.912233 0.1
1.42907 0.619953 0.1
1.38231 0.645789 0.1
1.13096 0.933273 0.1
1.11068 0.91759 0.1
1.12611 0.90973 0.1
1.09021 0.87383 0.1
1.08235 0.889258 0.1
1.06673 0.869042 0.1
1.25815 0.84821 0.1
1.13379 0.958533 0.1
1.04147 0.866214 0.1
1.07512 0.612606 0.1
1.03049 0.59176 0.1
0.911567 0.849898 0.1
0.903846 0.871243 0.1
0.891981 0.810845 0.1
0.862791 0.811668 0.1
1.40871 0.969187 0.1
1.38857 0.924047 0.1
0.891325 1.10312 0.1
0.907106 1.12306 0.1
0.895245 0.891892 0.1
0.876762 0.907598 0.1
1.16927 1.217 0.1
1.14023 1.23005 0.1
1.15079 0.743206 0.1
1.02796 1.15531 0.1
1.04646 1.13724 0.1
1.26844 1.19938 0.1
1.31052 1.2144 0.1
1.27646 1.24746 0.1
0.854084 1.00058 0.1
1.00087 1.14798 0.1
1.45943 0.758143 0.1
1.42126 0.720463 0.1
1.46133 0.712571 0.1
1.14959 0.905448 0.1
1.23505 1.19574 0.1
1.26912 1.16268 0.1
0.920674 0.884718 0.1
1.16666 1.27648 0.1
1.19779 1.23743 0.1
0.648825 0.800324 0.1
0.670583 0.842205 0.1
0.800326 1.35118 0.1
0.842205 1.32942 0.1
1.09467 0.848958 0.1
0.945708 1.3568 0.1
0.912523 1.36657 0.1
0.924659 1.31874 0.1
0.643199 0.945708 0.1
0.633426 0.912523 0.1
0.681264 0.924659 0.1
1.14439 1.02256 0.1
1.13927 0.99768 0.1
0.543272 1.39373 0.1
0.543272 1.45617 0.1
0.606271 0.543272 0.1
0.543834 0.543272 0.1
1.00194 0.860396 0.1
0.977059 0.855281 0.1
1.46133 0.650133 0.1
1.34278 0.671336 0.1
1.29798 0.644187 0.1
1.20585 1.21201 0.1
1.20653 1.17531 0.1
0.863938 0.775688 0.1
0.869783 0.744035 0.1
0.895949 0.75431 0.1
1.2586 1.07321 0.1
1.24601 1.10321 0.1
0.926273 0.741669 0.1
1.06673 1.28104 0.1
1.09397 1.30711 0.1
0.720175 1.0667 0.1
0.694102 1.09394 0.1
1.15046 1.04374 0.1
1.13258 1.04061 0.1
1.0845 0.708218 0.1
1.05754 0.731456 0.1
1.20554 0.794535 0.1
0.834861 0.731799 0.1
0.732283 1.16672 0.1
1.26986 0.943528 0.1
1.2925 0.91505 0.1
0.954548 0.868451 0.1
0.951787 0.850899 0.1
0.871468 1.09491 0.1
0.885264 1.07679 0.1
1.09512 0.90482 0.1
1.07163 0.900031 0.1
1.09996 0.928363 0.1
0.715196 1.13616 0.1
1.13805 1.29061 0.1
1.1944 1.03564 0.1
1.17377 1.04258 0.1
0.955155 0.825271 0.1
0.962097 0.804642 0.1
0.929023 0.899185 0.1
0.943597 0.90605 0.1
1.46089 0.963306 0.1
0.54793 0.966786 0.1
0.966786 1.45207 0.1
1.03637 0.539585 0.1
1.29018 1.13181 0.1
1.31185 1.09217 0.1
0.907377 0.688403 0.1
0.866872 0.710421 0.1
0.938979 1.24369 0.1
0.903853 1.22966 0.1
0.756308 0.938979 0.1
0.770336 0.903853 0.1
1.13548 0.97852 0.1
1.11723 0.961121 0.1
1.04488 0.894682 0.1
1.05882 0.901784 0.1
1.09822 0.941178 0.1
1.10532 0.955116 0.1
1.03886 0.882757 0.1
1.02146 0.864501 0.1
1.14753 1.08066 0.1
1.12782 1.098 0.1
1.11894 1.07912 0.1
0.89863 1.06936 0.1
0.905619 1.05624 0.1
0.535637 1.02533 0.1
1.02533 1.46436 0.1
1.31999 0.764263 0.1
1.27151 0.776944 0.1
0.542694 1.13596 0.1
1.13567 1.4581 0.1
1.12271 1.00027 0.1
0.999336 0.876939 0.1
1.45857 1.27507 0.1
1.40383 1.26153 0.1
1.26344 1.40445 0.1
1.27545 1.45881 0.1
0.974459 0.888864 0.1
0.98991 0.886416 0.1
1.11325 1.00971 0.1
1.1108 1.02517 0.1
0.780221 1.08885 0.1
1.22144 1.03047 0.1
1.16196 1.06062 0.1
0.969468 0.778576 0.1
0.787048 0.877467 0.1
0.877463 1.21292 0.1
1.12314 1.05831 0.1
1.11706 1.03713 0.1
1.08265 0.928407 0.1
1.07158 0.917345 0.1
0.932644 0.83844 0.1
0.914934 0.82427 0.1
1.10701 0.975103 0.1
1.02488 0.892969 0.1
0.962897 0.882917 0.1
0.937625 0.878535 0.1
1.09028 1.22199 0.1
1.10946 0.990554 0.1
1.00943 0.890522 0.1
0.547708 1.34768 0.1
0.652316 0.547708 0.1
1.10137 1.04287 0.1
0.957536 0.898948 0.1
1.06379 1.12476 0.1
1.24303 1.02015 0.1
1.27319 1.01084 0.1
1.2695 1.03981 0.1
0.96004 0.730554 0.1
0.989223 0.727083 0.1
0.979936 0.75721 0.1
1.25679 1.12817 0.1
1.22495 1.13408 0.1
1.27323 0.971856 0.1
1.0283 0.726994 0.1
1.33389 0.820741 0.1
1.35799 0.782464 0.1
1.35428 1.24257 0.1
1.12932 0.889765 0.1
0.857664 0.980055 0.1
0.980257 1.14234 0.1
0.775345 1.14161 0.1
0.878773 1.06114 0.1
1.38514 1.32651 0.1
1.41643 1.3578 0.1
1.38392 1.38392 0.1
1.35818 1.41666 0.1
1.32689 1.38537 0.1
0.867107 1.35146 0.1
0.648541 0.867107 0.1
1.1175 0.639646 0.1
1.36338 0.880213 0.1
1.45736 1.39491 0.1
1.45857 1.33751 0.1
1.33789 1.45881 0.1
1.39492 1.45735 0.1
0.857197 0.958261 0.1
0.958266 1.14289 0.1
1.1103 0.869174 0.1
1.14326 1.11482 0.1
1.38362 0.700439 0.1
1.38173 0.746011 0.1
0.860018 0.918142 0.1
0.918019 1.13991 0.1
1.28876 1.0639 0.1
0.93556 0.711542 0.1
1.33558 1.30756 0.1
1.3681 1.28144 0.1
1.45736 1.45735 0.1
1.23909 0.785096 0.1
1.21359 0.760788 0.1
0.721903 1.30162 0.1
0.698412 0.721861 0.1
0.640405 1.29802 0.1
0.702012 0.640365 0.1
0.634527 1.34785 0.1
0.680016 1.32513 0.1
0.652148 0.634527 0.1
0.674903 0.679976 0.1
0.535637 1.08777 0.1
1.08777 1.46436 0.1
0.728258 0.874092 0.1
0.706217 0.898994 0.1
0.693532 0.866573 0.1
0.874092 1.27174 0.1
0.898994 1.29378 0.1
0.866573 1.30647 0.1
0.748815 1.13446 0.1
0.758259 1.11105 0.1
0.932179 1.28401 0.1
0.71599 0.932179 0.1
1.18529 1.10433 0.1
1.17084 1.0795 0.1
0.59048 1.36679 0.1
0.633212 0.59048 0.1
1.46724 0.595195 0.1
1.46724 0.532757 0.1
1.04949 0.7823 0.1
1.07076 0.786467 0.1
1.21484 0.930313 0.1
1.21901 0.951581 0.1
1.15684 0.712312 0.1
1.18609 0.739333 0.1
1.26346 0.810692 0.1
1.29057 0.840057 0.1
1.09952 0.681363 0.1
1.19585 1.12515 0.1
1.16696 1.12036 0.1
0.75369 1.08171 0.1
1.11162 1.24419 0.1
1.08265 1.24851 0.1
1.28648 1.37174 0.1
1.32006 0.899529 0.1
1.1326 1.25657 0.1
1.32276 1.05877 0.1
0.941143 0.677288 0.1
0.716025 1.35145 0.1
0.648549 0.716024 0.1
1.31222 1.339 0.1
0.852319 0.93692 0.1
0.936871 1.14767 0.1
0.880124 1.24231 0.1
0.757655 0.880127 0.1
1.17483 0.670595 0.1
1.13952 0.674468 0.1
1.29518 1.29393 0.1
1.09856 1.42296 0.1
1.06731 1.38637 0.1
0.577831 1.09885 0.1
0.613626 1.06731 0.1
1.32858 0.858259 0.1
1.13378 0.864893 0.1
1.21964 0.729894 0.1
1.20663 1.15011 0.1
1.20601 0.652219 0.1
1.22332 0.690064 0.1
1.03836 0.7582 0.1
1.24334 0.96286 0.1
0.758779 1.36914 0.1
0.63086 0.758777 0.1
1.24743 0.630675 0.1
1.02024 0.777839 0.1
1.22239 0.979909 0.1
0.83723 0.918283 0.1
0.918208 1.16271 0.1
0.998651 0.775105 0.1
1.22512 1.0015 0.1
      </DataArray>
    </Points>
    <Cells>
      <DataArray type="Int32" Name="connectivity" format="ascii">
153 229 50 274 275 276 
151 227 80 277 278 279 
152 228 95 280 281 282 
106 202 174 283 284 285 
107 203 173 286 287 288 
106 164 271 289 290 291 
107 163 270 292 293 294 
124 265 163 295 296 297 
125 264 164 298 299 300 
123 135 237 301 302 303 
15 158 16 304 305 35 
10 157 11 306 307 30 
121 143 210 308 309 310 
133 243 205 311 312 313 
130 204 240 314 315 316 
121 169 136 317 318 319 
123 168 134 320 321 322 
46 205 243 323 312 324 
63 240 204 325 315 326 
116 214 141 327 328 329 
122 253 237 330 331 332 
50 229 49 275 333 57 
80 227 79 278 334 87 
95 228 94 281 335 102 
123 250 168 336 337 320 
121 249 169 338 339 317 
6 170 7 340 341 26 
116 142 209 342 343 344 
115 237 167 345 346 347 
93 228 138 348 349 350 
78 227 137 351 352 353 
48 229 140 354 355 356 
167 237 253 346 331 357 
125 164 210 300 358 359 
126 248 144 360 361 362 
107 270 165 294 363 364 
106 271 166 291 365 366 
127 146 247 367 368 369 
13 175 14 370 371 33 
8 176 9 372 373 28 
46 47 205 54 374 323 
62 63 204 70 326 375 
105 220 172 376 377 378 
161 174 202 379 284 380 
162 173 203 381 287 382 
118 163 265 383 296 384 
117 164 264 385 299 386 
129 144 259 387 388 389 
130 240 171 316 390 391 
131 174 242 392 393 394 
132 172 241 395 396 397 
133 173 243 398 399 311 
128 260 146 400 401 402 
123 237 250 303 403 336 
121 210 249 310 404 338 
93 138 180 350 405 406 
78 137 179 353 407 408 
48 140 178 356 409 410 
61 181 139 411 412 413 
205 272 108 414 415 416 
111 273 204 417 418 419 
124 163 238 297 420 421 
136 169 246 318 422 423 
134 168 245 321 424 425 
116 182 142 426 427 342 
61 139 263 413 428 429 
16 158 187 305 430 431 
11 157 186 307 432 433 
110 168 156 434 435 436 
109 169 155 437 438 439 
159 171 240 440 390 441 
160 241 172 442 396 443 
161 242 174 444 393 379 
162 243 173 445 399 381 
107 231 163 446 447 292 
106 232 164 448 449 289 
106 166 211 366 450 451 
107 165 212 364 452 453 
141 214 247 328 454 455 
10 216 157 456 457 306 
15 217 158 458 459 304 
120 144 248 460 361 461 
109 155 200 439 462 463 
110 156 201 436 464 465 
119 247 146 466 368 467 
116 141 183 329 468 469 
104 213 177 470 471 472 
111 204 192 419 473 474 
108 193 205 475 476 416 
155 169 249 438 339 477 
156 168 250 435 337 478 
120 259 144 479 388 460 
119 146 260 467 401 480 
6 258 170 481 482 340 
50 269 153 483 484 276 
117 245 168 485 424 486 
118 246 169 487 422 488 
160 172 220 443 377 489 
142 248 209 490 491 343 
95 225 152 492 493 282 
80 226 151 494 495 279 
7 170 215 341 496 497 
64 159 240 498 441 499 
90 242 161 500 444 501 
45 243 162 502 445 503 
75 241 160 504 442 505 
114 210 164 506 358 507 
93 94 228 101 335 348 
78 79 227 86 334 351 
48 49 229 56 333 354 
122 135 170 508 509 510 
132 201 156 511 464 512 
131 200 155 513 462 514 
141 221 185 515 516 517 
112 198 149 518 519 520 
113 150 199 521 522 523 
142 184 222 524 525 526 
13 244 175 527 528 370 
180 200 236 529 530 531 
179 201 235 532 533 534 
121 175 143 535 536 308 
8 215 176 537 538 372 
14 175 217 371 539 540 
9 176 216 373 541 542 
90 161 188 501 543 544 
45 162 189 503 545 546 
11 186 12 433 547 31 
16 187 17 431 548 36 
153 269 206 484 549 550 
126 194 145 551 552 553 
127 145 195 554 555 556 
142 182 184 427 557 524 
126 144 194 362 558 551 
127 195 146 556 559 367 
178 272 205 560 414 561 
124 238 148 421 562 563 
113 238 163 564 420 565 
181 204 273 566 418 567 
125 186 157 568 432 569 
124 187 158 570 430 571 
115 167 252 347 572 573 
141 185 183 517 574 468 
123 176 135 575 576 301 
105 171 251 577 578 579 
121 136 175 319 580 535 
123 134 176 322 581 575 
60 263 206 582 583 584 
126 209 248 585 491 360 
105 255 171 586 587 577 
124 148 187 563 588 570 
105 172 252 378 589 590 
138 212 165 591 452 592 
137 211 166 593 450 594 
127 247 214 369 454 595 
110 179 233 596 597 598 
109 180 234 599 600 601 
129 197 144 602 603 387 
4 89 226 96 604 605 
1 44 225 51 606 607 
128 146 196 402 608 609 
59 60 206 67 584 610 
153 177 213 611 471 612 
105 167 255 613 614 586 
113 231 190 615 616 617 
112 149 191 520 618 619 
113 190 150 617 620 521 
132 156 218 512 621 622 
131 155 219 514 623 624 
105 252 167 590 572 613 
129 147 197 625 626 602 
110 201 179 465 532 596 
109 200 180 463 529 599 
108 185 221 627 516 628 
116 183 182 469 629 426 
107 173 231 288 630 446 
106 174 232 285 631 448 
111 222 184 632 525 633 
128 196 148 609 634 635 
125 143 186 636 637 568 
145 254 195 638 639 555 
145 194 254 552 640 638 
131 219 174 624 641 392 
132 218 172 622 642 395 
129 259 198 389 643 644 
128 199 260 645 646 400 
17 187 262 548 647 648 
61 62 181 69 649 411 
92 93 180 100 406 650 
77 78 179 85 408 651 
47 48 178 55 410 652 
130 171 191 391 653 654 
133 190 173 655 656 398 
117 168 207 486 657 658 
118 169 208 488 659 660 
144 256 194 661 662 558 
20 195 21 663 664 40 
22 194 23 665 666 42 
146 195 257 559 667 668 
147 266 170 669 670 671 
12 186 244 547 672 673 
92 180 236 650 531 674 
77 179 235 651 534 675 
4 226 80 605 494 88 
1 225 95 607 492 103 
60 61 263 68 429 582 
104 177 230 472 676 677 
90 91 242 98 678 500 
45 46 243 53 324 502 
63 64 240 71 499 325 
75 76 241 83 679 504 
144 197 256 603 680 661 
146 257 196 668 681 608 
64 224 159 682 683 498 
75 160 223 505 684 685 
18 196 19 686 687 38 
0 197 5 688 689 24 
114 249 210 690 404 506 
149 198 259 519 643 691 
129 198 147 644 692 625 
150 260 199 693 646 522 
118 270 163 694 293 383 
117 271 164 695 290 385 
147 258 197 696 697 626 
22 254 194 698 640 665 
21 195 254 664 639 699 
128 148 199 635 700 645 
148 238 199 562 701 700 
23 194 256 666 662 702 
20 257 195 703 667 663 
148 196 262 634 704 705 
115 250 237 706 403 345 
0 256 197 707 680 688 
19 196 257 687 681 708 
89 90 188 97 544 709 
44 45 189 52 546 710 
5 197 258 689 697 711 
18 262 196 712 704 686 
135 215 170 713 496 509 
149 268 192 714 715 716 
150 193 267 717 718 719 
147 170 258 671 482 696 
112 191 255 619 720 721 
111 192 268 474 715 722 
108 267 193 723 718 475 
139 230 177 724 676 725 
159 251 171 726 578 440 
126 145 209 553 727 585 
135 176 215 576 538 713 
136 217 175 728 539 580 
134 216 176 729 541 581 
113 163 231 565 447 615 
114 164 232 507 449 730 
143 244 186 731 672 637 
148 262 187 705 647 588 
154 224 239 732 733 734 
154 239 223 734 735 736 
62 204 181 375 566 649 
47 178 205 652 561 374 
122 237 135 332 302 508 
137 233 179 737 597 407 
138 234 180 738 600 405 
140 272 178 739 560 409 
139 181 273 412 567 740 
173 190 231 656 616 630 
65 239 224 741 733 742 
74 223 239 743 735 744 
136 158 217 745 459 728 
134 157 216 746 457 729 
143 175 244 536 528 731 
127 214 145 595 747 554 
125 210 143 359 309 636 
122 170 266 510 670 748 
177 206 263 749 583 750 
64 65 224 72 742 682 
74 75 223 82 685 743 
124 158 265 571 751 295 
125 157 264 569 752 298 
149 192 191 716 753 618 
150 190 193 620 754 717 
154 251 224 755 756 732 
3 74 239 81 744 757 
3 239 65 757 741 73 
153 206 177 550 749 611 
104 182 183 758 629 759 
106 211 202 451 760 283 
107 212 203 453 761 286 
161 202 188 380 762 543 
162 203 189 382 763 545 
151 188 202 764 762 765 
152 189 203 766 763 767 
7 215 8 497 537 27 
14 217 15 540 458 34 
9 216 10 542 456 29 
91 92 236 99 674 768 
76 77 235 84 675 769 
165 208 234 770 771 772 
166 207 233 773 774 775 
138 165 234 592 772 738 
137 166 233 594 775 737 
114 232 219 730 776 777 
171 255 191 587 720 653 
110 207 168 778 657 434 
109 208 169 779 659 437 
109 234 208 601 771 779 
110 233 207 598 774 778 
159 224 251 683 756 726 
112 266 198 780 781 518 
151 226 188 495 782 764 
152 225 189 493 783 766 
89 188 226 709 782 604 
44 189 225 710 783 606 
2 59 269 66 784 785 
2 269 50 785 483 58 
12 244 13 673 527 32 
119 221 247 786 787 466 
120 248 222 461 788 789 
183 185 261 574 790 791 
182 230 184 792 793 557 
108 272 185 415 794 627 
112 253 266 795 796 780 
114 219 249 777 797 690 
115 218 250 798 799 706 
21 254 22 699 698 41 
160 220 223 489 800 684 
139 177 263 725 750 428 
111 184 273 633 801 417 
115 252 218 573 802 798 
0 23 256 43 702 707 
19 257 20 708 703 39 
130 191 192 654 753 803 
133 193 190 804 754 655 
5 258 6 711 481 25 
130 192 204 803 473 314 
133 205 193 313 476 804 
151 202 211 765 760 805 
152 203 212 767 761 806 
17 262 18 648 712 37 
154 223 220 736 800 807 
136 246 158 423 808 745 
134 245 157 425 809 746 
117 207 271 658 810 695 
118 208 270 660 811 694 
140 261 185 812 790 813 
154 220 251 807 814 755 
174 219 232 641 776 631 
132 241 235 397 815 816 
131 242 236 394 817 818 
139 184 230 819 793 724 
145 214 209 747 820 727 
165 270 208 363 811 770 
166 271 207 365 810 773 
156 250 218 478 799 621 
155 249 219 477 797 623 
132 235 201 816 533 511 
131 236 200 818 530 513 
104 183 261 759 791 821 
147 198 266 692 781 669 
139 273 184 740 801 819 
140 185 272 813 794 739 
141 247 221 455 787 515 
142 222 248 526 788 490 
112 255 253 721 822 795 
104 230 182 677 792 758 
140 213 261 823 824 812 
108 221 267 628 825 723 
111 268 222 722 826 632 
167 253 255 357 822 614 
91 236 242 768 817 678 
76 235 241 769 815 679 
116 209 214 344 820 327 
105 251 220 579 814 376 
172 218 252 642 802 589 
104 261 213 821 824 470 
137 227 211 352 827 593 
138 228 212 349 828 591 
140 229 213 355 829 823 
122 266 253 748 796 330 
151 211 227 805 827 277 
152 212 228 806 828 280 
153 213 229 612 829 274 
113 199 238 523 701 564 
119 267 221 830 825 786 
120 222 268 789 826 831 
59 206 269 610 549 784 
158 246 265 808 832 751 
157 245 264 809 833 752 
119 260 267 480 834 830 
120 268 259 831 835 479 
149 259 268 691 835 714 
150 267 260 719 834 693 
117 264 245 386 833 485 
118 265 246 384 832 487 
      </DataArray>
      <DataArray type="Int32" Name="offsets" format="ascii">
6
12
18
24
30
36
42
48
54
60
66
72
78
84
90
96
102
108
114
120
126
132
138
144
150
156
162
168
174
180
186
192
198
204
210
216
222
228
234
240
246
252
258
264
270
276
282
288
294
300
306
312
318
324
330
336
342
348
354
360
366
372
378
384
390
396
402
408
414
420
426
432
438
444
450
456
462
468
474
480
486
492
498
504
510
516
522
528
534
540
546
552
558
564
570
576
582
588
594
600
606
612
618
624
630
636
642
648
654
660
666
672
678
684
690
696
702
708
714
720
726
732
738
744
750
756
762
768
774
780
786
792
798
804
810
816
822
828
834
840
846
852
858
864
870
876
882
888
894
900
906
912
918
924
930
936
942
948
954
960
966
972
978
984
990
996
1002
1008
1014
1020
1026
1032
1038
1044
1050
1056
1062
1068
1074
1080
1086
1092
1098
1104
1110
1116
1122
1128
1134
1140
1146
1152
1158
1164
1170
1176
1182
1188
1194
1200
1206
1212
1218
1224
1230
1236
1242
1248
1254
1260
1266
1272
1278
1284
1290
1296
1302
1308
1314
1320
1326
1332
1338
1344
1350
1356
1362
1368
1374
1380
1386
1392
1398
1404
1410
1416
1422
1428
1434
1440
1446
1452
1458
1464
1470
1476
1482
1488
1494
1500
1506
1512
1518
1524
1530
1536
1542
1548
1554
1560
1566
1572
1578
1584
1590
1596
1602
1608
1614
1620
1626
1632
1638
1644
1650
1656
1662
1668
1674
1680
1686
1692
1698
1704
1710
1716
1722
1728
1734
1740
1746
1752
1758
1764
1770
1776
1782
1788
1794
1800
1806
1812
1818
1824
1830
1836
1842
1848
1854
1860
1866
1872
1878
1884
1890
1896
1902
1908
1914
1920
1926
1932
1938
1944
1950
1956
1962
1968
1974
1980
1986
1992
1998
2004
2010
2016
2022
2028
2034
2040
2046
2052
2058
2064
2070
2076
2082
2088
2094
2100
2106
2112
2118
2124
2130
2136
2142
2148
2154
2160
2166
2172
2178
2184
2190
2196
2202
2208
2214
2220
2226
2232
2238
2244
2250
2256
2262
2268
2274
2280
2286
2292
2298
2304
2310
2316
2322
2328
2334
2340
2346
2352
      </DataArray>
      <DataArray type="UInt8" Name="types" format="ascii">
69
69
69
69
69
69
69
69
69
69
69
69
69
69
69
69
69
69
69
69
69
69
69
69
69
69
69
69
69
69
69
69
69
69
69
69
69
69
69
69
69
69
69
69
69
69
69
69
69
69
69
69
69
69
69
69
69
69
69
69
69
69
69
69
69
69
69
69
69
69
69
69
69
69
69
69
69
69
69
69
69
69
69
69
69
69
69
69
69
69
69
69
69
69
69
69
69
69
69
69
69
69
69
69
69
69
69
69
69
69
69
69
69
69
69
69
69
69
69
69
69
69
69
69
69
69
69
69
69
69
69
69
69
69
69
69
69
69
69
69
69
69
69
69
69
69
69
69
69
69
69
69
69
69
69
69
69
69
69
69
69
69
69
69
69
69
69
69
69
69
69
69
69
69
69
69
69
69
69
69
69
69
69
69
69
69
69
69
69
69
69
69
69
69
69
69
69
69
69
69
69
69
69
69
69
69
69
69
69
69
69
69
69
69
69
69
69
69
69
69
69
69
69
69
69
69
69
69
69
69
69
69
69
69
69
69
69
69
69
69
69
69
69
69
69
69
69
69
69
69
69
69
69
69
69
69
69
69
69
69
69
69
69
69
69
69
69
69
69
69
69
69
69
69
69
69
69
69
69
69
69
69
69
69
69
69
69
69
69
69
69
69
69
69
69
69
69
69
69
69
69
69
69
69
69
69
69
69
69
69
69
69
69
69
69
69
69
69
69
69
69
69
69
69
69
69
69
69
69
69
69
69
69
69
69
69
69
69
69
69
69
69
69
69
69
69
69
69
69
69
69
69
69
69
69
69
69
69
69
69
69
69
69
69
69
69
69
69
69
69
69
69
69
69
69
69
69
69
69
69
69
69
69
69
69
69
69
69
69
69
69
69
      </DataArray>
    </Cells>
    <PointData>
      <DataArray type="Float64" NumberOfComponents="2" Name="Displacement" format="ascii">
0 0
0 0
0 0
0 0
0 0
0 0
0 0
0 0
0 0
0 0
0 0
0 0
0 0
0 0
0 0
0 0
0 0
0 0
0 0
0 0
0 0
0 0
0 0
0 0
0 0
0 0
0 0
0 0
0 0
0 0
0 0
0 0
0 0
0 0
0 0
0 0
0 0
0 0
0 0
0 0
0 0
0 0
0 0
0 0
0 0
0 0
0 0
0 0
0 0
0 0
0 0
0 0
0 0
0 0
0 0
0 0
0 0
0 0
0 0
0 0
0 0
0 0
0 0
0 0
0 0
0 0
0 0
0 0
0 0
0 0
0 0
0 0
0 0
0 0
0 0
0 0
0 0
0 0
0 0
0 0
0 0
0 0
0 0
0 0
0 0
0 0
0 0
0 0
0 0
0 0
0 0
0 0
0 0
0 0
0 0
0 0
0 0
0 0
0 0
0 0
0 0
0 0
0 0
0 0
0 0
0 0
0 0
0 0
0 0
0 0
0 0
0 0
0 0
0 0
0 0
0 0
0 0
0 0
0 0
0 0
0 0
0 0
0 0
0 0
0 0
0 0
0 0
0 0
0 0
0 0
0 0
0 0
0 0
0 0
0 0
0 0
0 0
0 0
0 0
0 0
0 0
0 0
0 0
0 0
0 0
0 0
0 0
0 0
0 0
0 0
0 0
0 0
0 0
0 0
0 0
0 0
0 0
0 0
0 0
0 0
0 0
0 0
0 0
0 0
0 0
0 0
0 0
0 0
0 0
0 0
0 0
0 0
0 0
0 0
0 0
0 0
0 0
0 0
0 0
0 0
0 0
0 0
0 0
0 0
0 0
0 0
0 0
0 0
0 0
0 0
0 0
0 0
0 0
0 0
0 0
0 0
0 0
0 0
0 0
0 0
0 0
0 0
0 0
0 0
0 0
0 0
0 0
0 0
0 0
0 0
0 0
0 0
0 0
0 0
0 0
0 0
0 0
0 0
0 0
0 0
0 0
0 0
0 0
0 0
0 0
0 0
0 0
0 0
0 0
0 0
0 0
0 0
0 0
0 0
0 0
0 0
0 0
0 0
0 0
0 0
0 0
0 0
0 0
0 0
0 0
0 0
0 0
0 0
0 0
0 0
0 0
0 0
0 0
0 0
0 0
0 0
0 0
0 0
0 0
0 0
0 0
0 0
0 0
0 0
0 0
0 0
0 0
0 0
0 0
0 0
0 0
0 0
0 0
0 0
0 0
0 0
0 0
0 0
0 0
0 0
0 0
0 0
0 0
0 0
0 0
0 0
0 0
0 0
0 0
0 0
0 0
0 0
0 0
0 0
0 0
0 0
0 0
0 0
0 0
0 0
0 0
0 0
0 0
0 0
0 0
0 0
0 0
0 0
0 0
0 0
0 0
0 0
0 0
0 0
0 0
0 0
0 0
0 0
0 0
0 0
0 0
0 0
0 0
0 0
0 0
0 0
0 0
0 0
0 0
0 0
0 0
0 0
0 0
0 0
0 0
0 0
0 0
0 0
0 0
0 0
0 0
0 0
0 0
0 0
0 0
0 0
0 0
0 0
0 0
0 0
0 0
0 0
0 0
0 0
0 0
0 0
0 0
0 0
0 0
0 0
0 0
0 0
0 0
0 0
0 0
0 0
0 0
0 0
0 0
0 0
0 0
0 0
0 0
0 0
0 0
0 0
0 0
0 0
0 0
0 0
0 0
0 0
0 0
0 0
0 0
0 0
0 0
0 0
0 0
0 0
0 0
0 0
0 0
0 0
0 0
0 0
0 0
0 0
0 0
0 0
0 0
0 0
0 0
0 0
0 0
0 0
0 0
0 0
0 0
0 0
0 0
0 0
0 0
0 0
0 0
0 0
0 0
0 0
0 0
0 0
0 0
0 0
0 0
0 0
0 0
0 0
0 0
0 0
0 0
0 0
0 0
0 0
0 0
0 0
0 0
0 0
0 0
0 0
0 0
0 0
0 0
0 0
0 0
0 0
0 0
0 0
0 0
0 0
0 0
0 0
0 0
0 0
0 0
0 0
0 0
0 0
0 0
0 0
0 0
0 0
0 0
0 0
0 0
0 0
0 0
0 0
0 0
0 0
0 0
0 0
0 0
0 0
0 0
0 0
0 0
0 0
0 0
0 0
0 0
0 0
0 0
0 0
0 0
0 0
0 0
0 0
0 0
0 0
0 0
0 0
0 0
0 0
0 0
0 0
0 0
0 0
0 0
0 0
0 0
0 0
0 0
0 0
0 0
0 0
0 0
0 0
0 0
0 0
0 0
0 0
0 0
0 0
0 0
0 0
0 0
0 0
0 0
0 0
0 0
0 0
0 0
0 0
0 0
0 0
0 0
0 0
0 0
0 0
0 0
0 0
0 0
0 0
0 0
0 0
0 0
0 0
0 0
0 0
0 0
0 0
0 0
0 0
0 0
0 0
0 0
0 0
0 0
0 0
0 0
0 0
0 0
0 0
0 0
0 0
0 0
0 0
0 0
0 0
0 0
0 0
0 0
0 0
0 0
0 0
0 0
0 0
0 0
0 0
0 0
0 0
0 0
0 0
0 0
0 0
0 0
0 0
0 0
0 0
0 0
0 0
0 0
0 0
0 0
0 0
0 0
0 0
0 0
0 0
0 0
0 0
0 0
0 0
0 0
0 0
0 0
0 0
0 0
0 0
0 0
0 0
0 0
0 0
0 0
0 0
0 0
0 0
0 0
0 0
0 0
0 0
0 0
0 0
0 0
0 0
0 0
0 0
0 0
0 0
0 0
0 0
0 0
0 0
0 0
0 0
0 0
0 0
0 0
0 0
0 0
0 0
0 0
0 0
0 0
0 0
0 0
0 0
0 0
0 0
0 0
0 0
0 0
0 0
0 0
0 0
0 0
0 0
0 0
0 0
0 0
0 0
0 0
0 0
0 0
0 0
0 0
0 0
0 0
0 0
0 0
0 0
0 0
0 0
0 0
0 0
0 0
0 0
0 0
0 0
0 0
0 0
0 0
0 0
0 0
0 0
0 0
0 0
0 0
0 0
0 0
0 0
0 0
0 0
0 0
0 0
0 0
0 0
0 0
0 0
0 0
0 0
0 0
0 0
0 0
0 0
0 0
0 0
0 0
0 0
0 0
0 0
0 0
0 0
0 0
0 0
0 0
0 0
0 0
0 0
0 0
0 0
0 0
0 0
0 0
0 0
0 0
0 0
0 0
0 0
0 0
0 0
0 0
0 0
0 0
0 0
0 0
0 0
0 0
0 0
0 0
0 0
0 0
0 0
0 0
0 0
0 0
0 0
0 0
0 0
0 0
0 0
0 0
0 0
0 0
0 0
0 0
0 0
0 0
0 0
0 0
0 0
0 0
0 0
0 0
0 0
0 0
0 0
0 0
0 0
0 0
0 0
0 0
0 0
0 0
0 0
0 0
0 0
0 0
0 0
0 0
0 0
0 0
0 0
0 0
0 0
0 0
0 0
0 0
0 0
0 0
0 0
0 0
0 0
0 0
0 0
0 0
0 0
0 0
0 0
0 0
0 0
0 0
0 0
0 0
0 0
0 0
0 0
0 0
0 0
0 0
0 0
0 0
0 0
0 0
0 0
0 0
0 0
0 0
0 0
0 0
0 0
0 0
0 0
0 0
0 0
0 0
0 0
0 0
0 0
0 0
0 0
0 0
0 0
0 0
0 0
0 0
0 0
0 0
0 0
0 0
0 0
0 0
0 0
0 0
0 0
0 0
0 0
      </DataArray> 
      <DataArray type="Float64" NumberOfComponents="4" Name="CauchyStress" format="ascii">
0 0 0 0
0 0 0 0
0 0 0 0
0 0 0 0
0 0 0 0
0 0 0 0
0 0 0 0
0 0 0 0
0 0 0 0
0 0 0 0
0 0 0 0
0 0 0 0
0 0 0 0
0 0 0 0
0 0 0 0
0 0 0 0
0 0 0 0
0 0 0 0
0 0 0 0
0 0 0 0
0 0 0 0
0 0 0 0
0 0 0 0
0 0 0 0
0 0 0 0
0 0 0 0
0 0 0 0
0 0 0 0
0 0 0 0
0 0 0 0
0 0 0 0
0 0 0 0
0 0 0 0
0 0 0 0
0 0 0 0
0 0 0 0
0 0 0 0
0 0 0 0
0 0 0 0
0 0 0 0
0 0 0 0
0 0 0 0
0 0 0 0
0 0 0 0
0 0 0 0
0 0 0 0
0 0 0 0
0 0 0 0
0 0 0 0
0 0 0 0
0 0 0 0
0 0 0 0
0 0 0 0
0 0 0 0
0 0 0 0
0 0 0 0
0 0 0 0
0 0 0 0
0 0 0 0
0 0 0 0
0 0 0 0
0 0 0 0
0 0 0 0
0 0 0 0
0 0 0 0
0 0 0 0
0 0 0 0
0 0 0 0
0 0 0 0
0 0 0 0
0 0 0 0
0 0 0 0
0 0 0 0
0 0 0 0
0 0 0 0
0 0 0 0
0 0 0 0
0 0 0 0
0 0 0 0
0 0 0 0
0 0 0 0
0 0 0 0
0 0 0 0
0 0 0 0
0 0 0 0
0 0 0 0
0 0 0 0
0 0 0 0
0 0 0 0
0 0 0 0
0 0 0 0
0 0 0 0
0 0 0 0
0 0 0 0
0 0 0 0
0 0 0 0
0 0 0 0
0 0 0 0
0 0 0 0
0 0 0 0
0 0 0 0
0 0 0 0
0 0 0 0
0 0 0 0
0 0 0 0
0 0 0 0
0 0 0 0
0 0 0 0
0 0 0 0
0 0 0 0
0 0 0 0
0 0 0 0
0 0 0 0
0 0 0 0
0 0 0 0
0 0 0 0
0 0 0 0
0 0 0 0
0 0 0 0
0 0 0 0
0 0 0 0
0 0 0 0
0 0 0 0
0 0 0 0
0 0 0 0
0 0 0 0
0 0 0 0
0 0 0 0
0 0 0 0
0 0 0 0
0 0 0 0
0 0 0 0
0 0 0 0
0 0 0 0
0 0 0 0
0 0 0 0
0 0 0 0
0 0 0 0
0 0 0 0
0 0 0 0
0 0 0 0
0 0 0 0
0 0 0 0
0 0 0 0
0 0 0 0
0 0 0 0
0 0 0 0
0 0 0 0
0 0 0 0
0 0 0 0
0 0 0 0
0 0 0 0
0 0 0 0
0 0 0 0
0 0 0 0
0 0 0 0
0 0 0 0
0 0 0 0
0 0 0 0
0 0 0 0
0 0 0 0
0 0 0 0
0 0 0 0
0 0 0 0
0 0 0 0
0 0 0 0
0 0 0 0
0 0 0 0
0 0 0 0
0 0 0 0
0 0 0 0
0 0 0 0
0 0 0 0
0 0 0 0
0 0 0 0
0 0 0 0
0 0 0 0
0 0 0 0
0 0 0 0
0 0 0 0
0 0 0 0
0 0 0 0
0 0 0 0
0 0 0 0
0 0 0 0
0 0 0 0
0 0 0 0
0 0 0 0
0 0 0 0
0 0 0 0
0 0 0 0
0 0 0 0
0 0 0 0
0 0 0 0
0 0 0 0
0 0 0 0
0 0 0 0
0 0 0 0
0 0 0 0
0 0 0 0
0 0 0 0
0 0 0 0
0 0 0 0
0 0 0 0
0 0 0 0
0 0 0 0
0 0 0 0
0 0 0 0
0 0 0 0
0 0 0 0
0 0 0 0
0 0 0 0
0 0 0 0
0 0 0 0
0 0 0 0
0 0 0 0
0 0 0 0
0 0 0 0
0 0 0 0
0 0 0 0
0 0 0 0
0 0 0 0
0 0 0 0
0 0 0 0
0 0 0 0
0 0 0 0
0 0 0 0
0 0 0 0
0 0 0 0
0 0 0 0
0 0 0 0
0 0 0 0
0 0 0 0
0 0 0 0
0 0 0 0
0 0 0 0
0 0 0 0
0 0 0 0
0 0 0 0
0 0 0 0
0 0 0 0
0 0 0 0
0 0 0 0
0 0 0 0
0 0 0 0
0 0 0 0
0 0 0 0
0 0 0 0
0 0 0 0
0 0 0 0
0 0 0 0
0 0 0 0
0 0 0 0
0 0 0 0
0 0 0 0
0 0 0 0
0 0 0 0
0 0 0 0
0 0 0 0
0 0 0 0
0 0 0 0
0 0 0 0
0 0 0 0
0 0 0 0
0 0 0 0
0 0 0 0
0 0 0 0
0 0 0 0
0 0 0 0
0 0 0 0
0 0 0 0
0 0 0 0
0 0 0 0
0 0 0 0
0 0 0 0
0 0 0 0
0 0 0 0
0 0 0 0
0 0 0 0
0 0 0 0
0 0 0 0
0 0 0 0
0 0 0 0
0 0 0 0
0 0 0 0
0 0 0 0
0 0 0 0
0 0 0 0
0 0 0 0
0 0 0 0
0 0 0 0
0 0 0 0
0 0 0 0
0 0 0 0
0 0 0 0
0 0 0 0
0 0 0 0
0 0 0 0
0 0 0 0
0 0 0 0
0 0 0 0
0 0 0 0
0 0 0 0
0 0 0 0
0 0 0 0
0 0 0 0
0 0 0 0
0 0 0 0
0 0 0 0
0 0 0 0
0 0 0 0
0 0 0 0
0 0 0 0
0 0 0 0
0 0 0 0
0 0 0 0
0 0 0 0
0 0 0 0
0 0 0 0
0 0 0 0
0 0 0 0
0 0 0 0
0 0 0 0
0 0 0 0
0 0 0 0
0 0 0 0
0 0 0 0
0 0 0 0
0 0 0 0
0 0 0 0
0 0 0 0
0 0 0 0
0 0 0 0
0 0 0 0
0 0 0 0
0 0 0 0
0 0 0 0
0 0 0 0
0 0 0 0
0 0 0 0
0 0 0 0
0 0 0 0
0 0 0 0
0 0 0 0
0 0 0 0
0 0 0 0
0 0 0 0
0 0 0 0
0 0 0 0
0 0 0 0
0 0 0 0
0 0 0 0
0 0 0 0
0 0 0 0
0 0 0 0
0 0 0 0
0 0 0 0
0 0 0 0
0 0 0 0
0 0 0 0
0 0 0 0
0 0 0 0
0 0 0 0
0 0 0 0
0 0 0 0
0 0 0 0
0 0 0 0
0 0 0 0
0 0 0 0
0 0 0 0
0 0 0 0
0 0 0 0
0 0 0 0
0 0 0 0
0 0 0 0
0 0 0 0
0 0 0 0
0 0 0 0
0 0 0 0
0 0 0 0
0 0 0 0
0 0 0 0
0 0 0 0
0 0 0 0
0 0 0 0
0 0 0 0
0 0 0 0
0 0 0 0
0 0 0 0
0 0 0 0
0 0 0 0
0 0 0 0
0 0 0 0
0 0 0 0
0 0 0 0
0 0 0 0
0 0 0 0
0 0 0 0
0 0 0 0
0 0 0 0
0 0 0 0
0 0 0 0
0 0 0 0
0 0 0 0
0 0 0 0
0 0 0 0
0 0 0 0
0 0 0 0
0 0 0 0
0 0 0 0
0 0 0 0
0 0 0 0
0 0 0 0
0 0 0 0
0 0 0 0
0 0 0 0
0 0 0 0
0 0 0 0
0 0 0 0
0 0 0 0
0 0 0 0
0 0 0 0
0 0 0 0
0 0 0 0
0 0 0 0
0 0 0 0
0 0 0 0
0 0 0 0
0 0 0 0
0 0 0 0
0 0 0 0
0 0 0 0
0 0 0 0
0 0 0 0
0 0 0 0
0 0 0 0
0 0 0 0
0 0 0 0
0 0 0 0
0 0 0 0
0 0 0 0
0 0 0 0
0 0 0 0
0 0 0 0
0 0 0 0
0 0 0 0
0 0 0 0
0 0 0 0
0 0 0 0
0 0 0 0
0 0 0 0
0 0 0 0
0 0 0 0
0 0 0 0
0 0 0 0
0 0 0 0
0 0 0 0
0 0 0 0
0 0 0 0
0 0 0 0
0 0 0 0
0 0 0 0
0 0 0 0
0 0 0 0
0 0 0 0
0 0 0 0
0 0 0 0
0 0 0 0
0 0 0 0
0 0 0 0
0 0 0 0
0 0 0 0
0 0 0 0
0 0 0 0
0 0 0 0
0 0 0 0
0 0 0 0
0 0 0 0
0 0 0 0
0 0 0 0
0 0 0 0
0 0 0 0
0 0 0 0
0 0 0 0
0 0 0 0
0 0 0 0
0 0 0 0
0 0 0 0
0 0 0 0
0 0 0 0
0 0 0 0
0 0 0 0
0 0 0 0
0 0 0 0
0 0 0 0
0 0 0 0
0 0 0 0
0 0 0 0
0 0 0 0
0 0 0 0
0 0 0 0
0 0 0 0
0 0 0 0
0 0 0 0
0 0 0 0
0 0 0 0
0 0 0 0
0 0 0 0
0 0 0 0
0 0 0 0
0 0 0 0
0 0 0 0
0 0 0 0
0 0 0 0
0 0 0 0
0 0 0 0
0 0 0 0
0 0 0 0
0 0 0 0
0 0 0 0
0 0 0 0
0 0 0 0
0 0 0 0
0 0 0 0
0 0 0 0
0 0 0 0
0 0 0 0
0 0 0 0
0 0 0 0
0 0 0 0
0 0 0 0
0 0 0 0
0 0 0 0
0 0 0 0
0 0 0 0
0 0 0 0
0 0 0 0
0 0 0 0
0 0 0 0
0 0 0 0
0 0 0 0
0 0 0 0
0 0 0 0
0 0 0 0
0 0 0 0
0 0 0 0
0 0 0 0
0 0 0 0
0 0 0 0
0 0 0 0
0 0 0 0
0 0 0 0
0 0 0 0
0 0 0 0
0 0 0 0
0 0 0 0
0 0 0 0
0 0 0 0
0 0 0 0
0 0 0 0
0 0 0 0
0 0 0 0
0 0 0 0
0 0 0 0
0 0 0 0
0 0 0 0
0 0 0 0
0 0 0 0
0 0 0 0
0 0 0 0
0 0 0 0
0 0 0 0
0 0 0 0
0 0 0 0
0 0 0 0
0 0 0 0
0 0 0 0
0 0 0 0
0 0 0 0
0 0 0 0
0 0 0 0
0 0 0 0
0 0 0 0
0 0 0 0
0 0 0 0
0 0 0 0
0 0 0 0
0 0 0 0
0 0 0 0
0 0 0 0
0 0 0 0
0 0 0 0
0 0 0 0
0 0 0 0
0 0 0 0
0 0 0 0
0 0 0 0
0 0 0 0
0 0 0 0
0 0 0 0
0 0 0 0
0 0 0 0
0 0 0 0
0 0 0 0
0 0 0 0
0 0 0 0
0 0 0 0
0 0 0 0
0 0 0 0
0 0 0 0
0 0 0 0
0 0 0 0
0 0 0 0
0 0 0 0
0 0 0 0
0 0 0 0
0 0 0 0
0 0 0 0
0 0 0 0
0 0 0 0
0 0 0 0
0 0 0 0
0 0 0 0
0 0 0 0
0 0 0 0
0 0 0 0
0 0 0 0
0 0 0 0
0 0 0 0
0 0 0 0
0 0 0 0
0 0 0 0
0 0 0 0
0 0 0 0
0 0 0 0
0 0 0 0
0 0 0 0
0 0 0 0
0 0 0 0
0 0 0 0
0 0 0 0
0 0 0 0
0 0 0 0
0 0 0 0
0 0 0 0
0 0 0 0
0 0 0 0
0 0 0 0
0 0 0 0
0 0 0 0
0 0 0 0
0 0 0 0
0 0 0 0
0 0 0 0
0 0 0 0
0 0 0 0
0 0 0 0
0 0 0 0
0 0 0 0
0 0 0 0
0 0 0 0
0 0 0 0
0 0 0 0
0 0 0 0
0 0 0 0
0 0 0 0
0 0 0 0
0 0 0 0
0 0 0 0
0 0 0 0
0 0 0 0
0 0 0 0
0 0 0 0
0 0 0 0
0 0 0 0
0 0 0 0
0 0 0 0
0 0 0 0
0 0 0 0
0 0 0 0
0 0 0 0
0 0 0 0
0 0 0 0
0 0 0 0
0 0 0 0
0 0 0 0
0 0 0 0
0 0 0 0
0 0 0 0
0 0 0 0
0 0 0 0
0 0 0 0
0 0 0 0
0 0 0 0
0 0 0 0
0 0 0 0
0 0 0 0
0 0 0 0
0 0 0 0
0 0 0 0
0 0 0 0
0 0 0 0
0 0 0 0
0 0 0 0
0 0 0 0
0 0 0 0
0 0 0 0
0 0 0 0
0 0 0 0
0 0 0 0
0 0 0 0
0 0 0 0
0 0 0 0
0 0 0 0
0 0 0 0
0 0 0 0
0 0 0 0
0 0 0 0
0 0 0 0
0 0 0 0
0 0 0 0
0 0 0 0
0 0 0 0
0 0 0 0
0 0 0 0
0 0 0 0
0 0 0 0
0 0 0 0
0 0 0 0
0 0 0 0
0 0 0 0
0 0 0 0
0 0 0 0
0 0 0 0
0 0 0 0
0 0 0 0
0 0 0 0
0 0 0 0
0 0 0 0
0 0 0 0
0 0 0 0
0 0 0 0
0 0 0 0
0 0 0 0
0 0 0 0
0 0 0 0
0 0 0 0
0 0 0 0
0 0 0 0
0 0 0 0
0 0 0 0
0 0 0 0
0 0 0 0
0 0 0 0
0 0 0 0
0 0 0 0
0 0 0 0
0 0 0 0
0 0 0 0
0 0 0 0
0 0 0 0
0 0 0 0
0 0 0 0
0 0 0 0
0 0 0 0
0 0 0 0
0 0 0 0
0 0 0 0
0 0 0 0
0 0 0 0
0 0 0 0
0 0 0 0
0 0 0 0
0 0 0 0
0 0 0 0
0 0 0 0
0 0 0 0
0 0 0 0
0 0 0 0
0 0 0 0
0 0 0 0
0 0 0 0
0 0 0 0
0 0 0 0
0 0 0 0
0 0 0 0
0 0 0 0
0 0 0 0
0 0 0 0
0 0 0 0
0 0 0 0
0 0 0 0
0 0 0 0
0 0 0 0
0 0 0 0
0 0 0 0
0 0 0 0
0 0 0 0
0 0 0 0
0 0 0 0
0 0 0 0
0 0 0 0
0 0 0 0
0 0 0 0
0 0 0 0
0 0 0 0
0 0 0 0
0 0 0 0
0 0 0 0
0 0 0 0
0 0 0 0
0 0 0 0
0 0 0 0
0 0 0 0
0 0 0 0
0 0 0 0
0 0 0 0
0 0 0 0
0 0 0 0
0 0 0 0
0 0 0 0
0 0 0 0
0 0 0 0
0 0 0 0
0 0 0 0
0 0 0 0
0 0 0 0
0 0 0 0
0 0 0 0
0 0 0 0
0 0 0 0
0 0 0 0
0 0 0 0
0 0 0 0
0 0 0 0
0 0 0 0
      </DataArray> 
      <DataArray type="Float64" NumberOfComponents="1" Name="blendingZone" format="ascii">
0
1
1
1
1
0
0
0
0
0
0
0
0
0
0
0
0
0
0
0
0
0
0
0
0
0
0
0
0
0
0
0
0
0
0
0
0
0
0
0
0
0
0
0
1
1
1
1
1
1
1
1
1
1
1
1
1
1
1
1
1
1
1
1
1
1
1
1
1
1
1
1
1
1
1
1
1
1
1
1
1
1
1
1
1
1
1
1
1
1
1
1
1
1
1
1
1
1
1
1
1
1
1
1
0
0
0
0
0
0
0
0
0
0
0
0
0
0
0
0
0
0
0
0
0
0
0
0
0
0
0
0
0
0
0
0
0
0
0
0
0
0
0
0
0
0
0
0
0
0
0
0
0
0
0
0
0
0
0
0
0
0
0
0
0
0
0
0
0
0
0
0
0
0
0
0
0
0
0
0
0
0
0
0
0
0
0
0
0
0
0
0
0
0
0
0
0
0
0
0
0
0
0
0
0
0
0
0
0
0
0
0
0
0
0
0
0
0
0
0
0
0
0
0
0
0
0
0
0
0
0
0
0
0
0
0
0
0
0
0
0
0
0
0
0
0
0
0
0
0
0
0
0
0
0
0
0
0
0
0
0
0
0
0
0
0
0
0
0
0
0
0
0
0
0
1
0
0
1
0
0
1
0
0
0
0
0
0
0
0
0
0
0
0
0
0
0
0
0
0
0
0
0
0
0
0
0
0
0
0
0
0
0
0
0
0
0
0
0
0
0
0
0
0
1
1
0
0
0
0
0
0
0
1
1
1
0
0
0
0
0
0
0
0
0
0
0
0
1
0
0
1
0
0
1
0
0
0
0
0
0
0
0
0
0
0
0
0
0
0
0
0
0
0
0
0
0
0
0
0
0
0
0
0
0
0
0
0
0
0
0
0
0
0
0
0
0
0
0
0
0
0
0
0
0
0
1
0
1
0
1
1
0
0
0
0
0
0
0
0
0
0
0
0
0
0
0
0
0
1
0
0
0
0
0
0
0
0
0
0
0
0
0
0
0
0
0
0
0
0
0
0
0
0
0
0
0
0
0
0
0
0
0
0
0
0
0
0
0
0
0
0
0
0
0
0
0
0
0
0
0
0
0
1
0
0
0
0
0
0
0
0
1
0
1
0
0
0
0
1
1
0
1
0
1
0
0
0
0
0
0
0
0
0
0
0
0
0
0
0
0
0
0
0
0
0
0
0
0
0
0
0
0
0
0
0
0
0
0
0
0
0
0
0
1
0
1
0
0
0
0
0
0
0
0
0
0
0
0
0
0
0
0
0
0
0
0
0
0
0
0
0
0
0
0
0
0
0
0
0
0
0
1
0
1
0
0
0
0
0
0
0
0
0
0
0
0
0
0
0
0
0
0
0
1
1
1
1
0
0
1
0
0
0
0
0
0
0
0
0
0
0
0
0
0
0
0
0
0
0
0
0
0
0
0
0
0
0
0
0
0
0
0
0
0
0
0
0
0
1
1
1
1
0
0
0
0
0
0
0
0
0
0
0
0
0
0
0
0
0
0
0
0
0
1
1
0
0
1
1
0
0
1
0
0
1
0
0
0
0
0
0
0
0
0
0
0
0
0
0
0
0
0
0
0
0
0
0
0
1
1
0
0
0
0
0
0
0
0
0
0
0
0
0
0
0
0
0
0
0
0
0
0
0
0
0
0
0
0
0
0
1
1
1
1
0
0
0
0
0
0
0
0
0
0
0
0
1
0
0
0
0
0
0
0
0
0
0
1
1
0
0
0
0
0
0
0
0
0
0
0
0
0
0
1
1
0
0
0
0
0
0
0
0
0
0
0
0
0
0
0
0
0
0
0
0
0
0
0
0
0
0
0
0
0
0
0
0
0
0
0
0
0
0
0
0
0
0
0
0
0
0
0
0
0
0
      </DataArray> 
    </PointData>
    <CellData>
      <DataArray type="Float64" NumberOfComponents="1" Name="Process" format="ascii">
3
0
5
0
4
0
5
5
0
1
5
0
5
4
2
5
1
4
2
3
1
3
0
5
1
5
2
3
1
5
0
3
1
0
2
5
0
4
5
1
4
2
1
0
4
5
0
2
2
0
1
4
4
1
5
5
0
3
3
4
2
5
5
0
3
3
5
0
1
5
2
1
0
4
5
0
0
5
3
0
5
2
5
1
4
3
3
2
4
5
1
2
4
2
3
0
5
1
3
4
0
2
2
0
4
1
0
5
0
3
2
1
5
3
2
4
3
5
5
1
5
1
5
1
0
4
0
4
3
2
3
3
2
4
4
4
4
2
0
5
1
3
1
1
5
1
3
2
1
4
1
5
0
3
0
5
2
0
4
4
3
3
1
4
2
4
1
5
1
2
1
5
3
3
4
0
2
4
0
3
3
0
1
2
4
4
3
5
0
3
2
4
0
5
2
3
2
4
2
0
5
1
0
4
3
3
0
4
2
1
2
4
1
1
4
2
5
2
2
4
5
0
2
2
3
4
4
2
4
4
1
2
4
0
4
2
4
2
2
4
2
2
2
4
3
1
3
1
5
1
4
0
0
4
1
1
2
4
1
0
5
3
3
4
1
1
5
0
5
3
0
2
3
1
1
5
0
2
4
1
1
1
3
3
0
5
0
4
0
4
1
5
1
5
1
5
0
5
0
0
2
0
5
5
0
1
2
0
4
0
4
3
3
0
4
2
3
3
3
2
5
1
3
1
3
3
1
2
4
2
4
2
2
4
0
5
4
1
5
0
0
5
3
1
0
1
5
3
3
5
0
1
5
1
5
3
2
3
3
3
2
2
3
3
4
2
1
5
1
3
1
1
3
0
5
3
2
0
5
3
4
4
2
3
5
0
4
2
2
4
0
5
      </DataArray> 
    </CellData>
  </Piece>
  </UnstructuredGrid>
</VTKFile>
