<?xml version="1.0"?>
<VTKFile type="UnstructuredGrid">
  <UnstructuredGrid>
  <Piece NumberOfPoints="900"  NumberOfCells="100">
    <Points>
      <DataArray type="Float64" NumberOfComponents="3" format="ascii">
0 0 0
0.185858 0.185858 0
0.182176 0.513058 0
0 0.402636 0
0.0929289 0.0929289 0
0.183817 0.34986 0
0.0910879 0.457847 0
0 0.202003 0
0.0919086 0.275932 0
0.185858 0.185858 0
0.371716 0.371716 0
0.364352 0.62348 0
0.182176 0.513058 0
0.278787 0.278787 0
0.367634 0.497718 0
0.273264 0.568269 0
0.183817 0.34986 0
0.275726 0.423789 0
0.371716 0.371716 0
0.557574 0.557574 0
0.546528 0.733902 0
0.364352 0.62348 0
0.464645 0.464645 0
0.551452 0.645575 0
0.45544 0.678691 0
0.367634 0.497718 0
0.459543 0.571646 0
0.557574 0.557574 0
0.743431 0.743431 0
0.728703 0.844323 0
0.546528 0.733902 0
0.650503 0.650503 0
0.735269 0.793432 0
0.637615 0.789113 0
0.551452 0.645575 0
0.64336 0.719504 0
0.743431 0.743431 0
0.929289 0.929289 0
0.910879 0.954745 0
0.728703 0.844323 0
0.83636 0.83636 0
0.919086 0.94129 0
0.819791 0.899534 0
0.735269 0.793432 0
0.827178 0.867361 0
0 0.402636 0
0.182176 0.513058 0
0.180241 0.837927 0
0 0.801292 0
0.0910879 0.457847 0
0.180974 0.675679 0
0.0901203 0.819609 0
0 0.602283 0
0.0904872 0.638981 0
0.182176 0.513058 0
0.364352 0.62348 0
0.360481 0.874561 0
0.180241 0.837927 0
0.273264 0.568269 0
0.361949 0.749074 0
0.270361 0.856244 0
0.180974 0.675679 0
0.271462 0.712376 0
0.364352 0.62348 0
0.546528 0.733902 0
0.540722 0.911196 0
0.360481 0.874561 0
0.45544 0.678691 0
0.542923 0.822469 0
0.450601 0.892879 0
0.361949 0.749074 0
0.452436 0.785772 0
0.546528 0.733902 0
0.728703 0.844323 0
0.720962 0.947831 0
0.540722 0.911196 0
0.637615 0.789113 0
0.723898 0.895865 0
0.630842 0.929513 0
0.542923 0.822469 0
0.63341 0.859167 0
0.728703 0.844323 0
0.910879 0.954745 0
0.901203 0.984465 0
0.720962 0.947831 0
0.819791 0.899534 0
0.904872 0.96926 0
0.811083 0.966148 0
0.723898 0.895865 0
0.814385 0.932562 0
0 0.801292 0
0.180241 0.837927 0
0.180241 1.16207 0
0 1.1987 0
0.0901203 0.819609 0
0.179995 0.999997 0
0.0901205 1.18038 0
0 0.999994 0
0.0899974 0.999995 0
0.180241 0.837927 0
0.360481 0.874561 0
0.360482 1.12544 0
0.180241 1.16207 0
0.270361 0.856244 0
0.359989 0.999999 0
0.270361 1.14375 0
0.179995 0.999997 0
0.269992 0.999998 0
0.360481 0.874561 0
0.540722 0.911196 0
0.540723 1.08881 0
0.360482 1.12544 0
0.450601 0.892879 0
0.539984 1 0
0.450602 1.10712 0
0.359989 0.999999 0
0.449987 1 0
0.540722 0.911196 0
0.720962 0.947831 0
0.720964 1.05218 0
0.540723 1.08881 0
0.630842 0.929513 0
0.719979 1 0
0.630843 1.07049 0
0.539984 1 0
0.629982 1 0
0.720962 0.947831 0
0.901203 0.984465 0
0.901205 1.01555 0
0.720964 1.05218 0
0.811083 0.966148 0
0.899974 1.00001 0
0.811084 1.03386 0
0.719979 1 0
0.809976 1 0
0 1.1987 0
0.180241 1.16207 0
0.182176 1.48694 0
0 1.59736 0
0.0901205 1.18038 0
0.180975 1.32432 0
0.0910882 1.54215 0
0 1.39771 0
0.0904875 1.36101 0
0.180241 1.16207 0
0.360482 1.12544 0
0.364353 1.37652 0
0.182176 1.48694 0
0.270361 1.14375 0
0.36195 1.25092 0
0.273265 1.43173 0
0.180975 1.32432 0
0.271462 1.28762 0
0.360482 1.12544 0
0.540723 1.08881 0
0.546529 1.2661 0
0.364353 1.37652 0
0.450602 1.10712 0
0.542925 1.17753 0
0.455441 1.32131 0
0.36195 1.25092 0
0.452437 1.21423 0
0.540723 1.08881 0
0.720964 1.05218 0
0.728706 1.15568 0
0.546529 1.2661 0
0.630843 1.07049 0
0.7239 1.10414 0
0.637617 1.21089 0
0.542925 1.17753 0
0.633412 1.14084 0
0.720964 1.05218 0
0.901205 1.01555 0
0.910882 1.04526 0
0.728706 1.15568 0
0.811084 1.03386 0
0.904875 1.03075 0
0.819794 1.10047 0
0.7239 1.10414 0
0.814387 1.06744 0
0 1.59736 0
0.182176 1.48694 0
0.185858 1.81414 0
0 2 0
0.0910882 1.54215 0
0.183818 1.65014 0
0.0929289 1.90707 0
0 1.79799 0
0.0919088 1.72407 0
0.182176 1.48694 0
0.364353 1.37652 0
0.371716 1.62828 0
0.185858 1.81414 0
0.273265 1.43173 0
0.367635 1.50228 0
0.278787 1.72121 0
0.183818 1.65014 0
0.275726 1.57621 0
0.364353 1.37652 0
0.546529 1.2661 0
0.557574 1.44243 0
0.371716 1.62828 0
0.455441 1.32131 0
0.551453 1.35443 0
0.464645 1.53536 0
0.367635 1.50228 0
0.459544 1.42835 0
0.546529 1.2661 0
0.728706 1.15568 0
0.743431 1.25657 0
0.557574 1.44243 0
0.637617 1.21089 0
0.73527 1.20657 0
0.650503 1.3495 0
0.551453 1.35443 0
0.643362 1.2805 0
0.728706 1.15568 0
0.910882 1.04526 0
0.929289 1.07071 0
0.743431 1.25657 0
0.819794 1.10047 0
0.919088 1.05871 0
0.83636 1.16364 0
0.73527 1.20657 0
0.827179 1.13264 0
0.929289 1.07071 0
0.954745 1.08912 0
0.844323 1.2713 0
0.743431 1.25657 0
0.94129 1.08091 0
0.899534 1.18021 0
0.793432 1.26473 0
0.83636 1.16364 0
0.867361 1.17282 0
0.954745 1.08912 0
0.984465 1.0988 0
0.947831 1.27904 0
0.844323 1.2713 0
0.96926 1.09513 0
0.966148 1.18892 0
0.895865 1.2761 0
0.899534 1.18021 0
0.932562 1.18562 0
0.984465 1.0988 0
1.01555 1.0988 0
1.05218 1.27904 0
0.947831 1.27904 0
1.00001 1.10003 0
1.03386 1.18892 0
1 1.28002 0
0.966148 1.18892 0
1 1.19002 0
1.01555 1.0988 0
1.04526 1.08912 0
1.15568 1.27129 0
1.05218 1.27904 0
1.03075 1.09513 0
1.10047 1.18021 0
1.10414 1.2761 0
1.03386 1.18892 0
1.06744 1.18561 0
1.04526 1.08912 0
1.07071 1.07071 0
1.25657 1.25657 0
1.15568 1.27129 0
1.05871 1.08091 0
1.16364 1.16364 0
1.20657 1.26473 0
1.10047 1.18021 0
1.13264 1.17282 0
0.743431 1.25657 0
0.844323 1.2713 0
0.733902 1.45347 0
0.557574 1.44243 0
0.793432 1.26473 0
0.789113 1.36238 0
0.645575 1.44855 0
0.650503 1.3495 0
0.719504 1.35664 0
0.844323 1.2713 0
0.947831 1.27904 0
0.911196 1.45928 0
0.733902 1.45347 0
0.895865 1.2761 0
0.929513 1.36916 0
0.822469 1.45708 0
0.789113 1.36238 0
0.859167 1.36659 0
0.947831 1.27904 0
1.05218 1.27904 0
1.08881 1.45928 0
0.911196 1.45928 0
1 1.28002 0
1.07049 1.36916 0
1 1.46002 0
0.929513 1.36916 0
1 1.37002 0
1.05218 1.27904 0
1.15568 1.27129 0
1.2661 1.45347 0
1.08881 1.45928 0
1.10414 1.2761 0
1.21089 1.36238 0
1.17753 1.45708 0
1.07049 1.36916 0
1.14084 1.36659 0
1.15568 1.27129 0
1.25657 1.25657 0
1.44243 1.44243 0
1.2661 1.45347 0
1.20657 1.26473 0
1.3495 1.3495 0
1.35443 1.44855 0
1.21089 1.36238 0
1.2805 1.35664 0
0.557574 1.44243 0
0.733902 1.45347 0
0.62348 1.63565 0
0.371716 1.62828 0
0.645575 1.44855 0
0.678691 1.54456 0
0.497718 1.63237 0
0.464645 1.53536 0
0.571646 1.54046 0
0.733902 1.45347 0
0.911196 1.45928 0
0.874561 1.63952 0
0.62348 1.63565 0
0.822469 1.45708 0
0.892879 1.5494 0
0.749074 1.63805 0
0.678691 1.54456 0
0.785772 1.54756 0
0.911196 1.45928 0
1.08881 1.45928 0
1.12544 1.63952 0
0.874561 1.63952 0
1 1.46002 0
1.10712 1.5494 0
0.999999 1.64001 0
0.892879 1.5494 0
1 1.55001 0
1.08881 1.45928 0
1.2661 1.45347 0
1.37652 1.63565 0
1.12544 1.63952 0
1.17753 1.45708 0
1.32131 1.54456 0
1.25092 1.63805 0
1.10712 1.5494 0
1.21423 1.54756 0
1.2661 1.45347 0
1.44243 1.44243 0
1.62828 1.62828 0
1.37652 1.63565 0
1.35443 1.44855 0
1.53536 1.53536 0
1.50228 1.63236 0
1.32131 1.54456 0
1.42835 1.54046 0
0.371716 1.62828 0
0.62348 1.63565 0
0.513058 1.81782 0
0.185858 1.81414 0
0.497718 1.63237 0
0.568269 1.72674 0
0.34986 1.81618 0
0.278787 1.72121 0
0.423789 1.72427 0
0.62348 1.63565 0
0.874561 1.63952 0
0.837927 1.81976 0
0.513058 1.81782 0
0.749074 1.63805 0
0.856244 1.72964 0
0.675679 1.81903 0
0.568269 1.72674 0
0.712376 1.72854 0
0.874561 1.63952 0
1.12544 1.63952 0
1.16207 1.81976 0
0.837927 1.81976 0
0.999999 1.64001 0
1.14375 1.72964 0
0.999997 1.82001 0
0.856244 1.72964 0
0.999998 1.73001 0
1.12544 1.63952 0
1.37652 1.63565 0
1.48694 1.81782 0
1.16207 1.81976 0
1.25092 1.63805 0
1.43173 1.72674 0
1.32432 1.81903 0
1.14375 1.72964 0
1.28762 1.72854 0
1.37652 1.63565 0
1.62828 1.62828 0
1.81414 1.81414 0
1.48694 1.81782 0
1.50228 1.63236 0
1.72121 1.72121 0
1.65014 1.81618 0
1.43173 1.72674 0
1.57621 1.72427 0
0.185858 1.81414 0
0.513058 1.81782 0
0.402636 2 0
0 2 0
0.34986 1.81618 0
0.457847 1.90891 0
0.202003 2 0
0.0929289 1.90707 0
0.275932 1.90809 0
0.513058 1.81782 0
0.837927 1.81976 0
0.801292 2 0
0.402636 2 0
0.675679 1.81903 0
0.819609 1.90988 0
0.602283 2 0
0.457847 1.90891 0
0.638981 1.90951 0
0.837927 1.81976 0
1.16207 1.81976 0
1.1987 2 0
0.801292 2 0
0.999997 1.82001 0
1.18038 1.90988 0
0.999994 2 0
0.819609 1.90988 0
0.999995 1.91 0
1.16207 1.81976 0
1.48694 1.81782 0
1.59736 2 0
1.1987 2 0
1.32432 1.81903 0
1.54215 1.90891 0
1.39771 2 0
1.18038 1.90988 0
1.36101 1.90951 0
1.48694 1.81782 0
1.81414 1.81414 0
2 2 0
1.59736 2 0
1.65014 1.81618 0
1.90707 1.90707 0
1.79799 2 0
1.54215 1.90891 0
1.72407 1.90809 0
1.07071 0.929289 0
1.25657 0.743431 0
1.2713 0.844323 0
1.08912 0.954745 0
1.16364 0.83636 0
1.26473 0.793432 0
1.18021 0.899534 0
1.08091 0.94129 0
1.17282 0.867361 0
1.25657 0.743431 0
1.44243 0.557574 0
1.45347 0.733902 0
1.2713 0.844323 0
1.3495 0.650503 0
1.44855 0.645575 0
1.36238 0.789113 0
1.26473 0.793432 0
1.35664 0.719504 0
1.44243 0.557574 0
1.62828 0.371716 0
1.63565 0.62348 0
1.45347 0.733902 0
1.53536 0.464645 0
1.63237 0.497718 0
1.54456 0.678691 0
1.44855 0.645575 0
1.54046 0.571646 0
1.62828 0.371716 0
1.81414 0.185858 0
1.81782 0.513058 0
1.63565 0.62348 0
1.72121 0.278787 0
1.81618 0.34986 0
1.72674 0.568269 0
1.63237 0.497718 0
1.72427 0.423789 0
1.81414 0.185858 0
2 0 0
2 0.402636 0
1.81782 0.513058 0
1.90707 0.0929289 0
2 0.202003 0
1.90891 0.457847 0
1.81618 0.34986 0
1.90809 0.275932 0
1.08912 0.954745 0
1.2713 0.844323 0
1.27904 0.947831 0
1.0988 0.984465 0
1.18021 0.899534 0
1.2761 0.895865 0
1.18892 0.966148 0
1.09513 0.96926 0
1.18562 0.932562 0
1.2713 0.844323 0
1.45347 0.733902 0
1.45928 0.911196 0
1.27904 0.947831 0
1.36238 0.789113 0
1.45708 0.822469 0
1.36916 0.929513 0
1.2761 0.895865 0
1.36659 0.859167 0
1.45347 0.733902 0
1.63565 0.62348 0
1.63952 0.874561 0
1.45928 0.911196 0
1.54456 0.678691 0
1.63805 0.749074 0
1.5494 0.892879 0
1.45708 0.822469 0
1.54756 0.785772 0
1.63565 0.62348 0
1.81782 0.513058 0
1.81976 0.837927 0
1.63952 0.874561 0
1.72674 0.568269 0
1.81903 0.675679 0
1.72964 0.856244 0
1.63805 0.749074 0
1.72854 0.712376 0
1.81782 0.513058 0
2 0.402636 0
2 0.801292 0
1.81976 0.837927 0
1.90891 0.457847 0
2 0.602283 0
1.90988 0.819609 0
1.81903 0.675679 0
1.90951 0.638981 0
1.0988 0.984465 0
1.27904 0.947831 0
1.27904 1.05218 0
1.0988 1.01555 0
1.18892 0.966148 0
1.28002 1 0
1.18892 1.03386 0
1.10003 1.00001 0
1.19002 1 0
1.27904 0.947831 0
1.45928 0.911196 0
1.45928 1.08881 0
1.27904 1.05218 0
1.36916 0.929513 0
1.46002 1 0
1.36916 1.07049 0
1.28002 1 0
1.37002 1 0
1.45928 0.911196 0
1.63952 0.874561 0
1.63952 1.12544 0
1.45928 1.08881 0
1.5494 0.892879 0
1.64001 0.999999 0
1.5494 1.10712 0
1.46002 1 0
1.55001 1 0
1.63952 0.874561 0
1.81976 0.837927 0
1.81976 1.16207 0
1.63952 1.12544 0
1.72964 0.856244 0
1.82001 0.999997 0
1.72964 1.14375 0
1.64001 0.999999 0
1.73001 0.999998 0
1.81976 0.837927 0
2 0.801292 0
2 1.1987 0
1.81976 1.16207 0
1.90988 0.819609 0
2 0.999994 0
1.90988 1.18038 0
1.82001 0.999997 0
1.91 0.999995 0
1.0988 1.01555 0
1.27904 1.05218 0
1.27129 1.15568 0
1.08912 1.04526 0
1.18892 1.03386 0
1.2761 1.10414 0
1.18021 1.10047 0
1.09513 1.03075 0
1.18561 1.06744 0
1.27904 1.05218 0
1.45928 1.08881 0
1.45347 1.2661 0
1.27129 1.15568 0
1.36916 1.07049 0
1.45708 1.17753 0
1.36238 1.21089 0
1.2761 1.10414 0
1.36659 1.14084 0
1.45928 1.08881 0
1.63952 1.12544 0
1.63565 1.37652 0
1.45347 1.2661 0
1.5494 1.10712 0
1.63805 1.25092 0
1.54456 1.32131 0
1.45708 1.17753 0
1.54756 1.21423 0
1.63952 1.12544 0
1.81976 1.16207 0
1.81782 1.48694 0
1.63565 1.37652 0
1.72964 1.14375 0
1.81903 1.32432 0
1.72674 1.43173 0
1.63805 1.25092 0
1.72854 1.28762 0
1.81976 1.16207 0
2 1.1987 0
2 1.59736 0
1.81782 1.48694 0
1.90988 1.18038 0
2 1.39771 0
1.90891 1.54215 0
1.81903 1.32432 0
1.90951 1.36101 0
1.08912 1.04526 0
1.27129 1.15568 0
1.25657 1.25657 0
1.07071 1.07071 0
1.18021 1.10047 0
1.26473 1.20657 0
1.16364 1.16364 0
1.08091 1.05871 0
1.17282 1.13264 0
1.27129 1.15568 0
1.45347 1.2661 0
1.44243 1.44243 0
1.25657 1.25657 0
1.36238 1.21089 0
1.44855 1.35443 0
1.3495 1.3495 0
1.26473 1.20657 0
1.35664 1.2805 0
1.45347 1.2661 0
1.63565 1.37652 0
1.62828 1.62828 0
1.44243 1.44243 0
1.54456 1.32131 0
1.63236 1.50228 0
1.53536 1.53536 0
1.44855 1.35443 0
1.54046 1.42835 0
1.63565 1.37652 0
1.81782 1.48694 0
1.81414 1.81414 0
1.62828 1.62828 0
1.72674 1.43173 0
1.81618 1.65014 0
1.72121 1.72121 0
1.63236 1.50228 0
1.72427 1.57621 0
1.81782 1.48694 0
2 1.59736 0
2 2 0
1.81414 1.81414 0
1.90891 1.54215 0
2 1.79799 0
1.90707 1.90707 0
1.81618 1.65014 0
1.90809 1.72407 0
0 0 0
0.402636 0 0
0.513058 0.182176 0
0.185858 0.185858 0
0.202003 0 0
0.457847 0.0910879 0
0.34986 0.183817 0
0.0929289 0.0929289 0
0.275932 0.0919086 0
0.402636 0 0
0.801292 0 0
0.837927 0.180241 0
0.513058 0.182176 0
0.602283 0 0
0.819609 0.0901203 0
0.675679 0.180974 0
0.457847 0.0910879 0
0.638981 0.0904872 0
0.801292 0 0
1.1987 0 0
1.16207 0.180241 0
0.837927 0.180241 0
0.999994 0 0
1.18038 0.0901205 0
0.999997 0.179995 0
0.819609 0.0901203 0
0.999995 0.0899974 0
1.1987 0 0
1.59736 0 0
1.48694 0.182176 0
1.16207 0.180241 0
1.39771 0 0
1.54215 0.0910882 0
1.32432 0.180975 0
1.18038 0.0901205 0
1.36101 0.0904875 0
1.59736 0 0
2 0 0
1.81414 0.185858 0
1.48694 0.182176 0
1.79799 0 0
1.90707 0.0929289 0
1.65014 0.183818 0
1.54215 0.0910882 0
1.72407 0.0919088 0
0.185858 0.185858 0
0.513058 0.182176 0
0.62348 0.364352 0
0.371716 0.371716 0
0.34986 0.183817 0
0.568269 0.273264 0
0.497718 0.367634 0
0.278787 0.278787 0
0.423789 0.275726 0
0.513058 0.182176 0
0.837927 0.180241 0
0.874561 0.360481 0
0.62348 0.364352 0
0.675679 0.180974 0
0.856244 0.270361 0
0.749074 0.361949 0
0.568269 0.273264 0
0.712376 0.271462 0
0.837927 0.180241 0
1.16207 0.180241 0
1.12544 0.360482 0
0.874561 0.360481 0
0.999997 0.179995 0
1.14375 0.270361 0
0.999999 0.359989 0
0.856244 0.270361 0
0.999998 0.269992 0
1.16207 0.180241 0
1.48694 0.182176 0
1.37652 0.364353 0
1.12544 0.360482 0
1.32432 0.180975 0
1.43173 0.273265 0
1.25092 0.36195 0
1.14375 0.270361 0
1.28762 0.271462 0
1.48694 0.182176 0
1.81414 0.185858 0
1.62828 0.371716 0
1.37652 0.364353 0
1.65014 0.183818 0
1.72121 0.278787 0
1.50228 0.367635 0
1.43173 0.273265 0
1.57621 0.275726 0
0.371716 0.371716 0
0.62348 0.364352 0
0.733902 0.546528 0
0.557574 0.557574 0
0.497718 0.367634 0
0.678691 0.45544 0
0.645575 0.551452 0
0.464645 0.464645 0
0.571646 0.459543 0
0.62348 0.364352 0
0.874561 0.360481 0
0.911196 0.540722 0
0.733902 0.546528 0
0.749074 0.361949 0
0.892879 0.450601 0
0.822469 0.542923 0
0.678691 0.45544 0
0.785772 0.452436 0
0.874561 0.360481 0
1.12544 0.360482 0
1.08881 0.540723 0
0.911196 0.540722 0
0.999999 0.359989 0
1.10712 0.450602 0
1 0.539984 0
0.892879 0.450601 0
1 0.449987 0
1.12544 0.360482 0
1.37652 0.364353 0
1.2661 0.546529 0
1.08881 0.540723 0
1.25092 0.36195 0
1.32131 0.455441 0
1.17753 0.542925 0
1.10712 0.450602 0
1.21423 0.452437 0
1.37652 0.364353 0
1.62828 0.371716 0
1.44243 0.557574 0
1.2661 0.546529 0
1.50228 0.367635 0
1.53536 0.464645 0
1.35443 0.551453 0
1.32131 0.455441 0
1.42835 0.459544 0
0.557574 0.557574 0
0.733902 0.546528 0
0.844323 0.728703 0
0.743431 0.743431 0
0.645575 0.551452 0
0.789113 0.637615 0
0.793432 0.735269 0
0.650503 0.650503 0
0.719504 0.64336 0
0.733902 0.546528 0
0.911196 0.540722 0
0.947831 0.720962 0
0.844323 0.728703 0
0.822469 0.542923 0
0.929513 0.630842 0
0.895865 0.723898 0
0.789113 0.637615 0
0.859167 0.63341 0
0.911196 0.540722 0
1.08881 0.540723 0
1.05218 0.720964 0
0.947831 0.720962 0
1 0.539984 0
1.07049 0.630843 0
1 0.719979 0
0.929513 0.630842 0
1 0.629982 0
1.08881 0.540723 0
1.2661 0.546529 0
1.15568 0.728706 0
1.05218 0.720964 0
1.17753 0.542925 0
1.21089 0.637617 0
1.10414 0.7239 0
1.07049 0.630843 0
1.14084 0.633412 0
1.2661 0.546529 0
1.44243 0.557574 0
1.25657 0.743431 0
1.15568 0.728706 0
1.35443 0.551453 0
1.3495 0.650503 0
1.20657 0.73527 0
1.21089 0.637617 0
1.2805 0.643362 0
0.743431 0.743431 0
0.844323 0.728703 0
0.954745 0.910879 0
0.929289 0.929289 0
0.793432 0.735269 0
0.899534 0.819791 0
0.94129 0.919086 0
0.83636 0.83636 0
0.867361 0.827178 0
0.844323 0.728703 0
0.947831 0.720962 0
0.984465 0.901203 0
0.954745 0.910879 0
0.895865 0.723898 0
0.966148 0.811083 0
0.96926 0.904872 0
0.899534 0.819791 0
0.932562 0.814385 0
0.947831 0.720962 0
1.05218 0.720964 0
1.01555 0.901205 0
0.984465 0.901203 0
1 0.719979 0
1.03386 0.811084 0
1.00001 0.899974 0
0.966148 0.811083 0
1 0.809976 0
1.05218 0.720964 0
1.15568 0.728706 0
1.04526 0.910882 0
1.01555 0.901205 0
1.10414 0.7239 0
1.10047 0.819794 0
1.03075 0.904875 0
1.03386 0.811084 0
1.06744 0.814387 0
1.15568 0.728706 0
1.25657 0.743431 0
1.07071 0.929289 0
1.04526 0.910882 0
1.20657 0.73527 0
1.16364 0.83636 0
1.05871 0.919088 0
1.10047 0.819794 0
1.13264 0.827179 0
      </DataArray>
    </Points>
    <Cells>
      <DataArray type="Int32" Name="connectivity" format="ascii">
0 1 2 3 4 5 6 7 8 
9 10 11 12 13 14 15 16 17 
18 19 20 21 22 23 24 25 26 
27 28 29 30 31 32 33 34 35 
36 37 38 39 40 41 42 43 44 
45 46 47 48 49 50 51 52 53 
54 55 56 57 58 59 60 61 62 
63 64 65 66 67 68 69 70 71 
72 73 74 75 76 77 78 79 80 
81 82 83 84 85 86 87 88 89 
90 91 92 93 94 95 96 97 98 
99 100 101 102 103 104 105 106 107 
108 109 110 111 112 113 114 115 116 
117 118 119 120 121 122 123 124 125 
126 127 128 129 130 131 132 133 134 
135 136 137 138 139 140 141 142 143 
144 145 146 147 148 149 150 151 152 
153 154 155 156 157 158 159 160 161 
162 163 164 165 166 167 168 169 170 
171 172 173 174 175 176 177 178 179 
180 181 182 183 184 185 186 187 188 
189 190 191 192 193 194 195 196 197 
198 199 200 201 202 203 204 205 206 
207 208 209 210 211 212 213 214 215 
216 217 218 219 220 221 222 223 224 
225 226 227 228 229 230 231 232 233 
234 235 236 237 238 239 240 241 242 
243 244 245 246 247 248 249 250 251 
252 253 254 255 256 257 258 259 260 
261 262 263 264 265 266 267 268 269 
270 271 272 273 274 275 276 277 278 
279 280 281 282 283 284 285 286 287 
288 289 290 291 292 293 294 295 296 
297 298 299 300 301 302 303 304 305 
306 307 308 309 310 311 312 313 314 
315 316 317 318 319 320 321 322 323 
324 325 326 327 328 329 330 331 332 
333 334 335 336 337 338 339 340 341 
342 343 344 345 346 347 348 349 350 
351 352 353 354 355 356 357 358 359 
360 361 362 363 364 365 366 367 368 
369 370 371 372 373 374 375 376 377 
378 379 380 381 382 383 384 385 386 
387 388 389 390 391 392 393 394 395 
396 397 398 399 400 401 402 403 404 
405 406 407 408 409 410 411 412 413 
414 415 416 417 418 419 420 421 422 
423 424 425 426 427 428 429 430 431 
432 433 434 435 436 437 438 439 440 
441 442 443 444 445 446 447 448 449 
450 451 452 453 454 455 456 457 458 
459 460 461 462 463 464 465 466 467 
468 469 470 471 472 473 474 475 476 
477 478 479 480 481 482 483 484 485 
486 487 488 489 490 491 492 493 494 
495 496 497 498 499 500 501 502 503 
504 505 506 507 508 509 510 511 512 
513 514 515 516 517 518 519 520 521 
522 523 524 525 526 527 528 529 530 
531 532 533 534 535 536 537 538 539 
540 541 542 543 544 545 546 547 548 
549 550 551 552 553 554 555 556 557 
558 559 560 561 562 563 564 565 566 
567 568 569 570 571 572 573 574 575 
576 577 578 579 580 581 582 583 584 
585 586 587 588 589 590 591 592 593 
594 595 596 597 598 599 600 601 602 
603 604 605 606 607 608 609 610 611 
612 613 614 615 616 617 618 619 620 
621 622 623 624 625 626 627 628 629 
630 631 632 633 634 635 636 637 638 
639 640 641 642 643 644 645 646 647 
648 649 650 651 652 653 654 655 656 
657 658 659 660 661 662 663 664 665 
666 667 668 669 670 671 672 673 674 
675 676 677 678 679 680 681 682 683 
684 685 686 687 688 689 690 691 692 
693 694 695 696 697 698 699 700 701 
702 703 704 705 706 707 708 709 710 
711 712 713 714 715 716 717 718 719 
720 721 722 723 724 725 726 727 728 
729 730 731 732 733 734 735 736 737 
738 739 740 741 742 743 744 745 746 
747 748 749 750 751 752 753 754 755 
756 757 758 759 760 761 762 763 764 
765 766 767 768 769 770 771 772 773 
774 775 776 777 778 779 780 781 782 
783 784 785 786 787 788 789 790 791 
792 793 794 795 796 797 798 799 800 
801 802 803 804 805 806 807 808 809 
810 811 812 813 814 815 816 817 818 
819 820 821 822 823 824 825 826 827 
828 829 830 831 832 833 834 835 836 
837 838 839 840 841 842 843 844 845 
846 847 848 849 850 851 852 853 854 
855 856 857 858 859 860 861 862 863 
864 865 866 867 868 869 870 871 872 
873 874 875 876 877 878 879 880 881 
882 883 884 885 886 887 888 889 890 
891 892 893 894 895 896 897 898 899 
      </DataArray>
      <DataArray type="Int32" Name="offsets" format="ascii">
9
18
27
36
45
54
63
72
81
90
99
108
117
126
135
144
153
162
171
180
189
198
207
216
225
234
243
252
261
270
279
288
297
306
315
324
333
342
351
360
369
378
387
396
405
414
423
432
441
450
459
468
477
486
495
504
513
522
531
540
549
558
567
576
585
594
603
612
621
630
639
648
657
666
675
684
693
702
711
720
729
738
747
756
765
774
783
792
801
810
819
828
837
846
855
864
873
882
891
900
      </DataArray>
      <DataArray type="UInt8" Name="types" format="ascii">
70
70
70
70
70
70
70
70
70
70
70
70
70
70
70
70
70
70
70
70
70
70
70
70
70
70
70
70
70
70
70
70
70
70
70
70
70
70
70
70
70
70
70
70
70
70
70
70
70
70
70
70
70
70
70
70
70
70
70
70
70
70
70
70
70
70
70
70
70
70
70
70
70
70
70
70
70
70
70
70
70
70
70
70
70
70
70
70
70
70
70
70
70
70
70
70
70
70
70
70
      </DataArray>
    </Cells>
    <PointData>
      <DataArray type="Float64" NumberOfComponents="2" Name="Displacement" format="ascii">
0 0
0 0
0 0
0 0
0 0
0 0
0 0
0 0
0 0
0 0
0 0
0 0
0 0
0 0
0 0
0 0
0 0
0 0
0 0
0 0
0 0
0 0
0 0
0 0
0 0
0 0
0 0
0 0
0 0
0 0
0 0
0 0
0 0
0 0
0 0
0 0
0 0
0 0
0 0
0 0
0 0
0 0
0 0
0 0
0 0
0 0
0 0
0 0
0 0
0 0
0 0
0 0
0 0
0 0
0 0
0 0
0 0
0 0
0 0
0 0
0 0
0 0
0 0
0 0
0 0
0 0
0 0
0 0
0 0
0 0
0 0
0 0
0 0
0 0
0 0
0 0
0 0
0 0
0 0
0 0
0 0
0 0
0 0
0 0
0 0
0 0
0 0
0 0
0 0
0 0
0 0
0 0
0 0
0 0
0 0
0 0
0 0
0 0
0 0
0 0
0 0
0 0
0 0
0 0
0 0
0 0
0 0
0 0
0 0
0 0
0 0
0 0
0 0
0 0
0 0
0 0
0 0
0 0
0 0
0 0
0 0
0 0
0 0
0 0
0 0
0 0
0 0
0 0
0 0
0 0
0 0
0 0
0 0
0 0
0 0
0 0
0 0
0 0
0 0
0 0
0 0
0 0
0 0
0 0
0 0
0 0
0 0
0 0
0 0
0 0
0 0
0 0
0 0
0 0
0 0
0 0
0 0
0 0
0 0
0 0
0 0
0 0
0 0
0 0
0 0
0 0
0 0
0 0
0 0
0 0
0 0
0 0
0 0
0 0
0 0
0 0
0 0
0 0
0 0
0 0
0 0
0 0
0 0
0 0
0 0
0 0
0 0
0 0
0 0
0 0
0 0
0 0
0 0
0 0
0 0
0 0
0 0
0 0
0 0
0 0
0 0
0 0
0 0
0 0
0 0
0 0
0 0
0 0
0 0
0 0
0 0
0 0
0 0
0 0
0 0
0 0
0 0
0 0
0 0
0 0
0 0
0 0
0 0
0 0
0 0
0 0
0 0
0 0
0 0
0 0
0 0
0 0
0 0
0 0
0 0
0 0
0 0
0 0
0 0
0 0
0 0
0 0
0 0
0 0
0 0
0 0
0 0
0 0
0 0
0 0
0 0
0 0
0 0
0 0
0 0
0 0
0 0
0 0
0 0
0 0
0 0
0 0
0 0
0 0
0 0
0 0
0 0
0 0
0 0
0 0
0 0
0 0
0 0
0 0
0 0
0 0
0 0
0 0
0 0
0 0
0 0
0 0
0 0
0 0
0 0
0 0
0 0
0 0
0 0
0 0
0 0
0 0
0 0
0 0
0 0
0 0
0 0
0 0
0 0
0 0
0 0
0 0
0 0
0 0
0 0
0 0
0 0
0 0
0 0
0 0
0 0
0 0
0 0
0 0
0 0
0 0
0 0
0 0
0 0
0 0
0 0
0 0
0 0
0 0
0 0
0 0
0 0
0 0
0 0
0 0
0 0
0 0
0 0
0 0
0 0
0 0
0 0
0 0
0 0
0 0
0 0
0 0
0 0
0 0
0 0
0 0
0 0
0 0
0 0
0 0
0 0
0 0
0 0
0 0
0 0
0 0
0 0
0 0
0 0
0 0
0 0
0 0
0 0
0 0
0 0
0 0
0 0
0 0
0 0
0 0
0 0
0 0
0 0
0 0
0 0
0 0
0 0
0 0
0 0
0 0
0 0
0 0
0 0
0 0
0 0
0 0
0 0
0 0
0 0
0 0
0 0
0 0
0 0
0 0
0 0
0 0
0 0
0 0
0 0
0 0
0 0
0 0
0 0
0 0
0 0
0 0
0 0
0 0
0 0
0 0
0 0
0 0
0 0
0 0
0 0
0 0
0 0
0 0
0 0
0 0
0 0
0 0
0 0
0 0
0 0
0 0
0 0
0 0
0 0
0 0
0 0
0 0
0 0
0 0
0 0
0 0
0 0
0 0
0 0
0 0
0 0
0 0
0 0
0 0
0 0
0 0
0 0
0 0
0 0
0 0
0 0
0 0
0 0
0 0
0 0
0 0
0 0
0 0
0 0
0 0
0 0
0 0
0 0
0 0
0 0
0 0
0 0
0 0
0 0
0 0
0 0
0 0
0 0
0 0
0 0
0 0
0 0
0 0
0 0
0 0
0 0
0 0
0 0
0 0
0 0
0 0
0 0
0 0
0 0
0 0
0 0
0 0
0 0
0 0
0 0
0 0
0 0
0 0
0 0
0 0
0 0
0 0
0 0
0 0
0 0
0 0
0 0
0 0
0 0
0 0
0 0
0 0
0 0
0 0
0 0
0 0
0 0
0 0
0 0
0 0
0 0
0 0
0 0
0 0
0 0
0 0
0 0
0 0
0 0
0 0
0 0
0 0
0 0
0 0
0 0
0 0
0 0
0 0
0 0
0 0
0 0
0 0
0 0
0 0
0 0
0 0
0 0
0 0
0 0
0 0
0 0
0 0
0 0
0 0
0 0
0 0
0 0
0 0
0 0
0 0
0 0
0 0
0 0
0 0
0 0
0 0
0 0
0 0
0 0
0 0
0 0
0 0
0 0
0 0
0 0
0 0
0 0
0 0
0 0
0 0
0 0
0 0
0 0
0 0
0 0
0 0
0 0
0 0
0 0
0 0
0 0
0 0
0 0
0 0
0 0
0 0
0 0
0 0
0 0
0 0
0 0
0 0
0 0
0 0
0 0
0 0
0 0
0 0
0 0
0 0
0 0
0 0
0 0
0 0
0 0
0 0
0 0
0 0
0 0
0 0
0 0
0 0
0 0
0 0
0 0
0 0
0 0
0 0
0 0
0 0
0 0
0 0
0 0
0 0
0 0
0 0
0 0
0 0
0 0
0 0
0 0
0 0
0 0
0 0
0 0
0 0
0 0
0 0
0 0
0 0
0 0
0 0
0 0
0 0
0 0
0 0
0 0
0 0
0 0
0 0
0 0
0 0
0 0
0 0
0 0
0 0
0 0
0 0
0 0
0 0
0 0
0 0
0 0
0 0
0 0
0 0
0 0
0 0
0 0
0 0
0 0
0 0
0 0
0 0
0 0
0 0
0 0
0 0
0 0
0 0
0 0
0 0
0 0
0 0
0 0
0 0
0 0
0 0
0 0
0 0
0 0
0 0
0 0
0 0
0 0
0 0
0 0
0 0
0 0
0 0
0 0
0 0
0 0
0 0
0 0
0 0
0 0
0 0
0 0
0 0
0 0
0 0
0 0
0 0
0 0
0 0
0 0
0 0
0 0
0 0
0 0
0 0
0 0
0 0
0 0
0 0
0 0
0 0
0 0
0 0
0 0
0 0
0 0
0 0
0 0
0 0
0 0
0 0
0 0
0 0
0 0
0 0
0 0
0 0
0 0
0 0
0 0
0 0
0 0
0 0
0 0
0 0
0 0
0 0
0 0
0 0
0 0
0 0
0 0
0 0
0 0
0 0
0 0
0 0
0 0
0 0
0 0
0 0
0 0
0 0
0 0
0 0
0 0
0 0
0 0
0 0
0 0
0 0
0 0
0 0
0 0
0 0
0 0
0 0
0 0
0 0
0 0
0 0
0 0
0 0
0 0
0 0
0 0
0 0
0 0
0 0
0 0
0 0
0 0
0 0
0 0
0 0
0 0
0 0
0 0
0 0
0 0
0 0
0 0
0 0
0 0
0 0
0 0
0 0
0 0
0 0
0 0
0 0
0 0
0 0
0 0
0 0
0 0
0 0
0 0
0 0
0 0
0 0
0 0
0 0
0 0
0 0
0 0
0 0
0 0
0 0
0 0
0 0
0 0
0 0
0 0
0 0
0 0
0 0
0 0
0 0
0 0
0 0
0 0
0 0
0 0
0 0
0 0
0 0
0 0
0 0
0 0
0 0
0 0
0 0
0 0
0 0
0 0
0 0
0 0
0 0
0 0
0 0
0 0
0 0
0 0
0 0
0 0
0 0
0 0
0 0
0 0
0 0
0 0
0 0
0 0
0 0
0 0
0 0
0 0
0 0
0 0
0 0
0 0
0 0
      </DataArray> 
      <DataArray type="Float64" NumberOfComponents="4" Name="CauchyStress" format="ascii">
0 -1.11022e-13 -0 3.69709e-14
-1.02617e-32 1.80321e-30 0 -2.11716e-14
2.22045e-13 6.94849e-31 0 -1.33788e-14
0 1.3579e-30 0 1.84249e-14
5.97875e-33 7.17791e-31 0 -1.34515e-14
4.99702e-32 4.0626e-30 0 3.20647e-14
-1.11022e-13 -2.22045e-13 -0 3.45437e-15
0 2.02369e-32 0 -2.24927e-15
9.65016e-33 2.07307e-30 0 2.28184e-14
2.22045e-13 4.64721e-30 0 3.39114e-14
-3.2701e-31 9.51839e-30 0 4.79358e-14
-1.20472e-31 1.24246e-29 0 -5.54619e-14
-8.06605e-32 2.22045e-13 0 2.39504e-14
6.61225e-32 4.43268e-31 0 -1.12848e-14
2.22045e-13 2.62208e-31 0 -8.37686e-15
-2.72185e-32 -1.11022e-13 -0 -1.88037e-14
3.5888e-32 9.28342e-30 0 -4.82683e-14
2.75151e-32 -1.11022e-13 -0 1.60273e-14
-3.2701e-31 9.51839e-30 0 4.79358e-14
-1.11022e-13 -1.11022e-13 -0 8.1735e-15
5.24974e-31 1.09738e-29 0 -5.36162e-14
-1.20472e-31 1.24246e-29 0 -5.54619e-14
5.74075e-31 -1.11022e-13 -0 6.32543e-14
-1.11022e-13 -1.11022e-13 -0 -3.53213e-15
3.2722e-31 2.22045e-13 0 -2.36211e-14
2.22045e-13 2.62208e-31 0 -8.37686e-15
-1.46905e-32 3.21442e-32 0 2.08888e-15
-2.55006e-31 4.74002e-30 0 -3.34851e-14
-1.11022e-13 -1.11022e-13 -0 2.50121e-14
-1.11022e-13 -1.11022e-13 -0 1.72035e-14
-1.35899e-32 7.03782e-31 0 1.31358e-14
2.42271e-31 3.38255e-30 0 -3.01032e-14
4.24116e-31 3.55449e-30 0 3.15381e-14
-1.11022e-13 -1.11022e-13 -0 3.91697e-14
2.0705e-31 2.27829e-30 0 -2.49266e-14
5.14493e-31 3.00065e-30 0 2.96443e-14
-1.11022e-13 -1.11022e-13 -0 2.50121e-14
-1.11022e-13 -1.11022e-13 -0 3.2182e-15
4.43996e-33 2.65996e-33 0 1.33228e-15
-1.11022e-13 -1.11022e-13 -0 1.72035e-14
-1.11022e-13 -1.11022e-13 -0 1.91566e-14
-3.06538e-31 1.05971e-30 0 -1.3722e-14
-1.15328e-30 3.73446e-30 0 -2.54027e-14
4.24116e-31 3.55449e-30 0 3.15381e-14
-1.11022e-13 1.34185e-30 -0 -1.66022e-14
-1.11022e-13 1.85197e-29 -0 -6.80436e-14
-1.18976e-33 2.08159e-31 0 -7.19321e-15
-7.77031e-34 1.07839e-31 0 5.17354e-15
0 1.01731e-33 0 -5.04308e-16
-1.11022e-13 1.3543e-30 -0 -1.83944e-14
-1.11022e-13 -1.11022e-13 -0 1.60982e-15
-8.61505e-34 8.12439e-32 0 4.48281e-15
0 9.53241e-33 0 1.54373e-15
7.83701e-34 2.22045e-13 0 -2.07901e-15
-1.11022e-13 -1.11022e-13 -0 3.49432e-15
2.372e-32 4.48436e-31 0 1.08646e-14
-1.11022e-13 2.43745e-31 -0 -7.6112e-15
4.42351e-33 -1.11022e-13 -0 1.14277e-14
8.79974e-32 2.22045e-13 0 -2.02519e-14
-1.11022e-13 -1.11022e-13 -0 9.94232e-15
-3.43494e-33 -1.11022e-13 -0 3.74589e-15
-1.11022e-13 5.19205e-30 -0 -3.61266e-14
-1.11022e-13 -1.11022e-13 -0 7.42147e-15
2.372e-32 4.48436e-31 0 1.08646e-14
5.71509e-32 1.74774e-30 0 2.1242e-14
2.14698e-33 1.67147e-31 0 6.50564e-15
-1.11022e-13 2.43745e-31 -0 -7.6112e-15
4.78245e-31 6.68991e-30 0 -4.23325e-14
-6.79403e-32 5.07181e-31 0 -1.0479e-14
-1.20837e-32 2.03597e-31 0 6.91941e-15
-1.11022e-13 -1.11022e-13 -0 9.94232e-15
-1.11022e-13 6.65981e-33 -0 -2.58705e-15
-2.30222e-31 9.08136e-30 0 4.70402e-14
1.10052e-30 1.13578e-30 0 -2.36448e-14
2.22045e-13 3.3837e-31 0 8.67276e-15
-1.11022e-13 3.99104e-31 -0 -9.78497e-15
-5.28549e-31 4.67043e-30 0 -3.21787e-14
-1.11022e-13 -1.11022e-13 -0 -1.02737e-14
-2.67162e-33 -1.11022e-13 -0 -1.29692e-15
-2.22045e-13 -1.11022e-13 -0 -4.01444e-15
-1.11022e-13 -1.11022e-13 -0 1.64318e-14
1.10052e-30 1.13578e-30 0 -2.36448e-14
-1.11022e-13 1.64429e-30 -0 2.67066e-14
1.06576e-31 2.22045e-13 0 -8.67345e-15
2.22045e-13 3.3837e-31 0 8.67276e-15
-2.42152e-31 1.25501e-30 0 1.59127e-14
7.00641e-31 -1.83151e-31 0 1.13742e-14
2.63682e-32 6.3838e-32 0 -4.74885e-15
-1.11022e-13 -1.11022e-13 -0 -1.02737e-14
1.06428e-31 1.66603e-31 0 -8.26182e-15
0 1.01731e-33 0 -5.04308e-16
-7.77031e-34 1.07839e-31 0 5.17354e-15
-7.9462e-34 2.22045e-13 0 -1.98299e-15
0 9.19214e-31 0 -1.51593e-14
-8.61505e-34 8.12439e-32 0 4.48281e-15
5.45624e-41 -1.11022e-13 -0 -5.08611e-19
2.22045e-13 2.22045e-13 0 1.69811e-14
-1.11022e-13 -1.11022e-13 -0 -7.80474e-19
-4.61851e-41 1.55622e-39 0 6.14417e-19
4.42351e-33 -1.11022e-13 -0 1.14277e-14
-1.11022e-13 2.43745e-31 -0 -7.6112e-15
2.72986e-32 4.75932e-31 0 1.12164e-14
-1.11022e-13 -1.11022e-13 -0 6.84264e-15
-3.43494e-33 -1.11022e-13 -0 3.74589e-15
-3.24347e-42 2.22045e-13 0 -3.89265e-19
-3.48103e-33 5.91203e-32 0 3.72959e-15
3.48605e-41 1.93468e-40 0 2.38919e-19
-2.29353e-41 9.46408e-40 0 -4.80487e-19
-1.11022e-13 2.43745e-31 -0 -7.6112e-15
2.14698e-33 1.67147e-31 0 6.50564e-15
-2.22045e-13 -1.11022e-13 -0 7.01257e-15
2.72986e-32 4.75932e-31 0 1.12164e-14
-1.20837e-32 2.03597e-31 0 6.91941e-15
-2.22045e-13 -1.11022e-13 -0 -8.44375e-19
6.04659e-34 1.30412e-34 0 4.28682e-16
-3.24347e-42 2.22045e-13 0 -3.89265e-19
-1.11022e-13 -1.11022e-13 -0 -3.88533e-20
-1.11022e-13 3.99104e-31 -0 -9.78497e-15
2.22045e-13 3.3837e-31 0 8.67276e-15
-1.11022e-13 8.56481e-34 -0 -6.27863e-16
-1.42443e-32 4.99112e-32 0 -2.98609e-15
-2.67162e-33 -1.11022e-13 -0 -1.29692e-15
-1.11022e-13 -1.11022e-13 -0 3.34553e-19
-7.72518e-34 7.91832e-33 0 -1.33658e-15
-8.74713e-40 3.26079e-39 0 -7.72346e-19
-1.11022e-13 1.8509e-41 -0 -2.73739e-20
2.22045e-13 3.3837e-31 0 8.67276e-15
1.06576e-31 2.22045e-13 0 -8.67345e-15
6.89251e-31 5.1019e-31 0 1.73165e-14
-1.11022e-13 8.56481e-34 -0 -6.27863e-16
2.63682e-32 6.3838e-32 0 -4.74885e-15
5.3946e-38 4.82328e-39 0 3.83306e-18
5.43284e-32 8.92544e-32 0 -5.9913e-15
-1.11022e-13 -1.11022e-13 -0 3.34553e-19
-1.11022e-13 -1.11022e-13 -0 -8.91802e-19
0 1.04849e-31 0 -5.11978e-15
2.22045e-13 1.36224e-31 0 -5.74967e-15
1.10482e-32 5.04611e-31 0 1.13541e-14
0 2.22045e-13 0 -1.6822e-14
-1.11022e-13 -1.11022e-13 -0 -6.08139e-15
-1.11022e-13 -1.11022e-13 -0 -1.116e-14
6.24831e-33 -1.11022e-13 -0 -4.3945e-14
0 1.8316e-30 0 2.13986e-14
-1.11022e-13 -1.11022e-13 -0 1.91098e-14
2.22045e-13 1.22914e-30 0 -1.75868e-14
-1.11022e-13 2.50569e-31 -0 8.02758e-15
1.09641e-31 1.26767e-29 0 5.65384e-14
1.00857e-34 6.0161e-33 0 1.23662e-15
-4.93675e-33 1.8644e-31 0 -6.73616e-15
5.82863e-33 2.01111e-32 0 2.54655e-15
1.02245e-32 3.07139e-30 0 -2.77561e-14
-1.11022e-13 9.52627e-33 -0 -1.32666e-15
-6.54808e-33 -1.11022e-13 -0 -1.03939e-14
-1.11022e-13 2.50569e-31 -0 8.02758e-15
-4.35983e-33 2.22045e-13 0 3.42277e-15
-5.99451e-32 4.67734e-30 0 -3.39757e-14
1.09641e-31 1.26767e-29 0 5.65384e-14
4.07369e-33 2.55348e-31 0 8.05329e-15
-1.11022e-13 4.18115e-30 -0 -3.29122e-14
3.58309e-33 2.6908e-31 0 8.25625e-15
5.82863e-33 2.01111e-32 0 2.54655e-15
-1.11022e-13 -1.11022e-13 -0 9.36268e-15
-4.9971e-32 3.07141e-31 0 8.01826e-15
-1.11022e-13 1.98569e-33 -0 7.68474e-16
5.92048e-31 5.2683e-31 0 -1.67248e-14
2.22045e-13 6.28093e-31 0 -1.34132e-14
4.72116e-33 1.48845e-32 0 -2.21391e-15
5.13947e-32 -1.11022e-13 -0 -1.03063e-14
1.77164e-31 -1.11022e-13 -0 -2.82702e-14
-1.11022e-13 -1.11022e-13 -0 1.35719e-15
4.19204e-32 5.88991e-31 0 -1.2559e-14
-1.11022e-13 1.98569e-33 -0 7.68474e-16
2.22377e-33 1.32649e-32 0 1.96778e-15
1.44005e-32 -1.11022e-13 -0 -2.88689e-15
5.92048e-31 5.2683e-31 0 -1.67248e-14
1.02521e-31 9.7535e-32 0 7.07205e-15
7.67513e-31 -1.11022e-13 -0 -1.20135e-14
1.75074e-30 2.25024e-30 0 -3.16267e-14
5.13947e-32 -1.11022e-13 -0 -1.03063e-14
-1.98882e-32 4.22582e-32 0 -2.36485e-15
0 2.22045e-13 0 -1.6822e-14
1.10482e-32 5.04611e-31 0 1.13541e-14
3.83845e-32 4.29158e-30 0 -3.29012e-14
-1.11022e-13 -1.11022e-13 -0 2.22389e-14
6.24831e-33 -1.11022e-13 -0 -4.3945e-14
2.81292e-32 9.49303e-31 0 -1.5632e-14
3.11757e-32 -1.11022e-13 -0 2.452e-14
0 2.22045e-13 0 5.6254e-14
3.47945e-32 8.57706e-30 0 -4.64e-14
1.00857e-34 6.0161e-33 0 1.23662e-15
1.09641e-31 1.26767e-29 0 5.65384e-14
4.05532e-32 6.72327e-30 0 -4.11212e-14
-1.23217e-32 5.58565e-32 0 3.29905e-15
1.02245e-32 3.07139e-30 0 -2.77561e-14
1.49241e-32 1.41254e-31 0 -6.24856e-15
-1.87385e-32 -1.11022e-13 -0 -1.37254e-14
-9.75981e-33 1.60448e-31 0 -6.13775e-15
-1.2796e-32 9.80917e-31 0 -1.55573e-14
1.09641e-31 1.26767e-29 0 5.65384e-14
-5.99451e-32 4.67734e-30 0 -3.39757e-14
3.9405e-31 2.30912e-30 0 2.5996e-14
4.05532e-32 6.72327e-30 0 -4.11212e-14
3.58309e-33 2.6908e-31 0 8.25625e-15
2.22045e-13 7.50484e-30 0 -4.49843e-14
-4.54262e-31 6.20233e-30 0 -3.7908e-14
1.49241e-32 1.41254e-31 0 -6.24856e-15
2.66951e-33 9.67105e-34 0 -9.53495e-16
2.22045e-13 6.28093e-31 0 -1.34132e-14
5.92048e-31 5.2683e-31 0 -1.67248e-14
-1.11022e-13 1.00699e-29 -0 4.62152e-14
1.31107e-31 -1.11022e-13 -0 -1.13246e-14
1.77164e-31 -1.11022e-13 -0 -2.82702e-14
-7.6763e-31 6.55033e-30 0 -3.8022e-14
2.29499e-32 5.4793e-30 0 -3.70886e-14
-1.11022e-13 3.15976e-29 -0 8.89885e-14
-1.57294e-31 1.33716e-30 0 1.71746e-14
5.92048e-31 5.2683e-31 0 -1.67248e-14
1.44005e-32 -1.11022e-13 -0 -2.88689e-15
-1.80034e-32 2.11199e-30 0 2.28801e-14
-1.11022e-13 1.00699e-29 -0 4.62152e-14
1.75074e-30 2.25024e-30 0 -3.16267e-14
1.23815e-30 -1.11022e-13 -0 -1.94622e-14
9.70916e-32 8.45907e-31 0 -1.53541e-14
-7.6763e-31 6.55033e-30 0 -3.8022e-14
5.87064e-31 4.20575e-31 0 -1.58717e-14
6.28346e-30 -1.11022e-13 -0 -5.71151e-14
4.55633e-31 -1.11022e-13 -0 1.19582e-14
6.12487e-31 -2.76203e-32 0 -1.2092e-14
-1.11022e-13 -1.12544e-30 -0 -5.19088e-14
1.31383e-30 -9.39177e-31 0 -9.67793e-15
-1.11022e-13 1.256e-30 -0 -5.88922e-14
3.45204e-32 -2.41739e-32 0 -1.6083e-15
1.00926e-29 -6.21727e-31 0 4.86591e-14
2.9076e-30 2.22045e-13 0 -2.73993e-14
-5.60062e-31 6.99281e-31 0 -5.89954e-15
2.22045e-13 2.22045e-13 0 -4.45182e-16
-1.11022e-13 -1.17355e-32 -0 1.81495e-15
2.22045e-13 -7.13073e-32 0 -1.04771e-14
-1.11022e-13 1.90429e-30 -0 -4.01164e-14
1.38972e-31 1.2838e-31 0 8.17546e-15
-1.11022e-13 -1.11022e-13 -0 2.36805e-14
-1.11022e-13 -1.11022e-13 -0 2.50664e-14
2.22045e-13 2.95501e-31 0 7.75527e-15
2.22045e-13 2.22045e-13 0 -4.45182e-16
-2.36859e-32 4.86733e-32 0 -2.49937e-15
-2.22045e-13 -2.22045e-13 -0 -7.65324e-15
-1.11022e-13 -1.17355e-32 -0 1.81495e-15
-6.59125e-39 -1.11022e-13 -0 -2.63045e-18
8.04123e-31 -8.13893e-32 0 1.34419e-14
-4.46145e-40 6.37342e-40 0 -2.1863e-19
1.38972e-31 1.2838e-31 0 8.17546e-15
9.93897e-40 -2.55968e-40 0 4.29514e-19
-1.11022e-13 -1.11022e-13 -0 3.51993e-15
1.37451e-30 -9.01693e-31 0 -1.08722e-14
-1.45891e-32 -1.11022e-13 -0 -8.73275e-16
-1.847e-33 5.76859e-33 0 -9.9015e-16
8.34304e-31 2.77868e-31 0 -1.66746e-14
2.22045e-13 -6.64622e-31 0 1.8347e-14
1.0235e-30 5.94308e-32 0 -1.6454e-14
-1.11022e-13 2.01471e-32 -0 1.40284e-14
1.37961e-30 -1.11022e-13 -0 -1.76506e-14
1.37451e-30 -9.01693e-31 0 -1.08722e-14
2.22045e-13 2.22045e-13 0 -4.01963e-15
-1.11022e-13 -1.11022e-13 -0 2.19468e-14
-1.45891e-32 -1.11022e-13 -0 -8.73275e-16
-1.11022e-13 4.09574e-30 -0 -5.97282e-14
-1.11022e-13 2.63358e-30 -0 7.76429e-14
1.146e-30 -1.11022e-13 -0 -2.22437e-14
2.22045e-13 -6.64622e-31 0 1.8347e-14
3.01476e-31 -1.11022e-13 -0 -8.496e-15
-2.46409e-33 1.42115e-32 0 1.71372e-15
-1.00725e-31 2.22045e-13 0 -4.95322e-15
4.55989e-31 1.50282e-31 0 1.23113e-14
-1.11022e-13 1.38842e-31 -0 -2.19554e-14
-1.11022e-13 -1.11022e-13 -0 1.97671e-14
1.53794e-30 -1.11022e-13 -0 1.73221e-14
5.75588e-31 -8.04952e-32 0 -1.11253e-14
1.65711e-30 6.99367e-32 0 2.07789e-14
1.60681e-30 3.78822e-32 0 2.02774e-14
-2.22045e-13 -2.22045e-13 -0 1.98765e-14
2.22045e-13 7.08678e-32 0 1.28054e-14
2.25861e-32 1.6448e-32 0 3.12386e-15
1.05706e-29 -1.69043e-31 0 5.09939e-14
-1.11022e-13 -3.12489e-31 -0 -2.56306e-14
-1.11022e-13 -2.86429e-32 -0 -6.55624e-15
4.09686e-31 -8.52971e-32 0 9.0054e-15
7.15662e-30 -1.64319e-31 0 -4.181e-14
2.22045e-13 -1.18603e-32 0 8.29518e-15
2.22045e-13 7.08678e-32 0 1.28054e-14
-1.11022e-13 -1.11022e-13 -0 -1.28999e-14
-1.11022e-13 -1.11022e-13 -0 -5.79585e-15
2.25861e-32 1.6448e-32 0 3.12386e-15
-1.11022e-13 -2.22045e-13 -0 1.3339e-18
3.07624e-31 -1.11022e-13 -0 -9.28393e-15
2.22045e-13 -2.26594e-40 0 6.11994e-19
-1.11022e-13 -2.86429e-32 -0 -6.55624e-15
-4.63853e-41 7.66588e-40 0 4.24324e-19
6.62992e-32 -2.8747e-32 0 3.06399e-15
2.74733e-30 -2.17777e-31 0 2.51473e-14
-1.11022e-13 -1.11022e-13 -0 -1.20468e-14
4.02083e-32 1.1486e-33 0 -3.21547e-15
2.22045e-13 2.22045e-13 0 -1.96474e-14
2.22045e-13 -1.72005e-31 0 9.44931e-15
-1.11022e-13 -1.11022e-13 -0 -4.31097e-15
8.71919e-31 -9.31285e-33 0 -1.46851e-14
-1.11022e-13 7.59691e-32 -0 -1.29894e-14
2.74733e-30 -2.17777e-31 0 2.51473e-14
2.22045e-13 -3.15788e-31 0 -3.0733e-14
1.51688e-29 -1.11022e-13 -0 -6.35295e-14
-1.11022e-13 -1.11022e-13 -0 -1.20468e-14
-1.11022e-13 -1.88498e-31 -0 8.55007e-15
2.17272e-29 -1.11022e-13 -0 -7.53015e-14
8.09357e-31 -1.14769e-31 0 -1.31775e-14
2.22045e-13 -1.72005e-31 0 9.44931e-15
3.83475e-30 1.02168e-30 0 3.48441e-14
-1.11022e-13 1.38842e-31 -0 -2.19554e-14
4.55989e-31 1.50282e-31 0 1.23113e-14
1.2991e-32 -3.2928e-33 0 -1.55709e-15
9.46586e-31 2.24817e-31 0 -1.71129e-14
5.75588e-31 -8.04952e-32 0 -1.11253e-14
4.34509e-31 8.19191e-32 0 1.13625e-14
-1.11022e-13 8.03725e-32 -0 -3.16115e-14
2.88637e-30 2.7689e-31 0 2.81214e-14
2.75976e-31 1.12606e-31 0 -9.85624e-15
1.05706e-29 -1.69043e-31 0 5.09939e-14
2.25861e-32 1.6448e-32 0 3.12386e-15
-1.11022e-13 -1.11022e-13 -0 5.92667e-15
-1.11022e-13 -1.11022e-13 -0 1.41641e-15
4.09686e-31 -8.52971e-32 0 9.0054e-15
3.70376e-31 3.50875e-32 0 -1.00681e-14
-1.11022e-13 -1.11022e-13 -0 -2.35909e-14
-2.22045e-13 -1.11022e-13 -0 1.93625e-14
1.14871e-31 5.10023e-32 0 6.43959e-15
2.25861e-32 1.6448e-32 0 3.12386e-15
-1.11022e-13 -1.11022e-13 -0 -5.79585e-15
2.43639e-33 1.14036e-33 0 -9.45615e-16
-1.11022e-13 -1.11022e-13 -0 5.92667e-15
2.22045e-13 -2.26594e-40 0 6.11994e-19
8.30058e-32 -1.11022e-13 -0 -4.96478e-15
2.22045e-13 2.31561e-40 0 -4.48174e-19
3.70376e-31 3.50875e-32 0 -1.00681e-14
-2.1583e-41 2.22045e-13 0 2.19368e-20
4.02083e-32 1.1486e-33 0 -3.21547e-15
-1.11022e-13 -1.11022e-13 -0 -1.20468e-14
7.86348e-31 2.50635e-33 0 -1.40433e-14
2.9854e-31 -1.63358e-33 0 8.61548e-15
-1.11022e-13 -1.11022e-13 -0 -4.31097e-15
3.40673e-30 1.89102e-31 0 -2.99826e-14
3.29646e-30 3.27875e-32 0 -2.88498e-14
-1.11022e-13 -1.11022e-13 -0 -1.14254e-14
7.59629e-34 -3.0311e-35 0 -4.27001e-16
-1.11022e-13 -1.11022e-13 -0 -1.20468e-14
1.51688e-29 -1.11022e-13 -0 -6.35295e-14
9.84134e-30 -3.00171e-31 0 4.88394e-14
7.86348e-31 2.50635e-33 0 -1.40433e-14
8.09357e-31 -1.14769e-31 0 -1.31775e-14
2.22045e-13 3.71379e-31 0 -7.56138e-14
-1.11022e-13 -1.11022e-13 -0 2.33377e-14
3.40673e-30 1.89102e-31 0 -2.99826e-14
3.24626e-30 -2.22371e-31 0 2.74949e-14
7.77538e-30 -1.11022e-13 -0 4.46799e-14
5.77732e-31 -4.09257e-32 0 1.15845e-14
8.07767e-31 1.67344e-32 0 -1.43571e-14
-1.11022e-13 1.58038e-31 -0 -5.49044e-14
4.6103e-31 2.22045e-13 0 -1.16469e-14
1.9637e-31 -1.08433e-32 0 6.81041e-15
-1.11022e-13 1.03272e-32 -0 -1.82875e-14
6.19822e-30 1.79378e-32 0 3.94213e-14
1.07984e-32 -5.7178e-33 0 1.12701e-15
4.77703e-31 3.92058e-33 0 -1.0973e-14
-1.11022e-13 -1.77964e-33 -0 -5.80848e-15
-1.11022e-13 -1.11022e-13 -0 2.99312e-15
1.75108e-33 -8.38893e-34 0 4.77543e-16
1.21567e-32 -5.5308e-34 0 -1.7032e-15
1.58723e-32 2.1458e-35 0 1.99335e-15
2.22045e-13 -1.11022e-13 0 2.47238e-15
-1.11022e-13 -1.11022e-13 -0 -4.02741e-14
5.67104e-31 9.36273e-33 0 -1.20049e-14
-1.11022e-13 -1.77964e-33 -0 -5.80848e-15
1.574e-32 -3.35659e-33 0 1.75951e-15
6.52359e-31 1.64708e-33 0 1.27868e-14
-1.11022e-13 -1.11022e-13 -0 2.99312e-15
-1.11022e-13 -1.11022e-13 -0 2.64177e-19
2.22045e-13 8.52021e-33 0 -8.8688e-15
2.22045e-13 -2.32143e-42 0 4.91224e-20
1.58723e-32 2.1458e-35 0 1.99335e-15
1.5293e-39 -2.42803e-40 0 5.6712e-19
1.55208e-32 8.12245e-34 0 2.02071e-15
2.22045e-13 2.22045e-13 0 1.27939e-14
-1.11022e-13 -1.11022e-13 -0 7.77304e-15
-1.11022e-13 -1.11022e-13 -0 -3.25482e-15
5.17138e-32 -1.89614e-33 0 3.52908e-15
5.34949e-31 -1.11022e-13 -0 -1.18379e-14
8.06022e-33 4.37887e-34 0 1.45758e-15
2.22045e-13 2.15917e-34 0 1.32794e-15
4.88681e-33 3.53394e-33 0 -1.45093e-15
2.22045e-13 2.22045e-13 0 1.27939e-14
7.58204e-30 -2.71418e-31 0 4.27511e-14
5.61999e-31 -2.97109e-32 0 1.15357e-14
-1.11022e-13 -1.11022e-13 -0 7.77304e-15
1.73391e-32 1.2453e-33 0 2.15548e-15
2.1297e-31 7.10324e-33 0 -7.41743e-15
9.11976e-30 -7.13441e-32 0 -4.75616e-14
5.34949e-31 -1.11022e-13 -0 -1.18379e-14
1.03779e-33 -8.83646e-34 0 1.96306e-16
-1.11022e-13 1.58038e-31 -0 -5.49044e-14
8.07767e-31 1.67344e-32 0 -1.43571e-14
-1.11022e-13 0 -0 -2.78617e-14
2.47643e-30 -1.11022e-13 -0 2.48819e-14
-1.11022e-13 1.03272e-32 -0 -1.82875e-14
-1.11022e-13 -1.4756e-33 -0 -1.22597e-14
1.27737e-31 -1.11022e-13 -0 -5.65104e-15
3.7566e-30 -1.11022e-13 -0 3.04296e-14
-1.11022e-13 -1.11022e-13 -0 -2.57218e-14
1.75108e-33 -8.38893e-34 0 4.77543e-16
-1.11022e-13 -1.11022e-13 -0 2.99312e-15
1.28458e-31 0 0 5.66696e-15
-1.11022e-13 -1.11022e-13 -0 1.00337e-14
2.22045e-13 -1.11022e-13 0 2.47238e-15
7.37848e-31 -3.90173e-33 0 1.35457e-14
4.52885e-31 -1.11022e-13 -0 1.06406e-14
1.03232e-29 4.22493e-32 0 -5.09054e-14
2.22045e-13 -1.03555e-33 0 -2.4546e-15
-1.11022e-13 -1.11022e-13 -0 2.99312e-15
6.52359e-31 1.64708e-33 0 1.27868e-14
1.37426e-34 7.33217e-49 0 -1.85355e-16
1.28458e-31 0 0 5.66696e-15
2.22045e-13 -2.32143e-42 0 4.91224e-20
8.88088e-31 2.22045e-13 0 1.49497e-14
-1.11022e-13 -1.11022e-13 -0 1.42477e-19
7.37848e-31 -3.90173e-33 0 1.35457e-14
-2.22045e-13 -2.22045e-13 -0 5.77091e-19
-1.11022e-13 -1.11022e-13 -0 -3.25482e-15
-1.11022e-13 -1.11022e-13 -0 7.77304e-15
-1.11022e-13 0 -0 -1.5521e-14
-1.11022e-13 -1.11022e-13 -0 -2.67846e-15
8.06022e-33 4.37887e-34 0 1.45758e-15
1.47327e-30 -1.23299e-32 0 1.91111e-14
-1.11022e-13 0 -0 -1.48547e-14
2.60562e-31 4.87863e-34 0 8.07851e-15
2.22045e-13 8.05694e-33 0 -1.2968e-14
-1.11022e-13 -1.11022e-13 -0 7.77304e-15
5.61999e-31 -2.97109e-32 0 1.15357e-14
-1.11022e-13 0 -0 5.22208e-14
-1.11022e-13 0 -0 -1.5521e-14
9.11976e-30 -7.13441e-32 0 -4.75616e-14
1.51344e-31 -6.52009e-33 0 6.01715e-15
-2.22045e-13 -1.11022e-13 -0 -2.94361e-14
1.47327e-30 -1.23299e-32 0 1.91111e-14
2.22045e-13 -5.36883e-34 0 -4.0768e-14
-1.35366e-31 1.4641e-31 0 -1.66157e-15
8.70104e-31 3.80376e-31 0 -1.76811e-14
-1.11022e-13 -1.11022e-13 -0 4.39476e-15
1.30663e-30 -1.11022e-13 -0 1.52794e-14
5.41417e-33 1.03996e-33 0 1.27025e-15
-3.05368e-31 1.31301e-30 0 -1.58717e-14
6.27671e-31 -1.11022e-13 -0 -1.92703e-14
7.00378e-30 2.81421e-30 0 -4.95429e-14
3.5047e-30 1.46701e-29 0 -6.7407e-14
4.44159e-31 1.09961e-29 0 5.34797e-14
-7.1144e-31 5.37181e-30 0 -3.41334e-14
-1.11022e-13 -1.11022e-13 -0 -2.11303e-14
1.16153e-31 3.38888e-30 0 2.96016e-14
2.98354e-32 9.0362e-31 0 1.52762e-14
1.6336e-31 -1.11022e-13 -0 -2.48198e-14
-9.20267e-32 7.98846e-31 0 1.3293e-14
2.23796e-31 1.86343e-30 0 -2.28431e-14
5.77114e-32 -5.99817e-33 0 -3.5956e-15
-7.1144e-31 5.37181e-30 0 -3.41334e-14
-4.54077e-31 1.59118e-29 0 6.21646e-14
2.03896e-32 5.09162e-31 0 -1.1506e-14
-1.11022e-13 -1.11022e-13 -0 -2.11303e-14
-6.42921e-31 4.01641e-30 0 -2.90409e-14
-1.11022e-13 2.16727e-30 -0 2.27335e-14
2.22045e-13 2.22045e-13 0 1.09708e-14
1.6336e-31 -1.11022e-13 -0 -2.48198e-14
-1.11022e-13 -1.11022e-13 -0 6.59004e-15
2.22045e-13 7.00325e-30 0 -4.20995e-14
3.89604e-31 3.35149e-29 0 -9.20659e-14
3.9726e-33 9.87317e-32 0 -5.06716e-15
4.76054e-32 6.52487e-30 0 -4.05354e-14
-2.05972e-33 3.88818e-33 0 6.76103e-16
1.27988e-31 1.77034e-29 0 6.67672e-14
7.20379e-32 2.99053e-30 0 2.76702e-14
-1.11022e-13 1.611e-30 -0 2.05639e-14
-4.01677e-32 5.53314e-31 0 -1.13264e-14
3.89604e-31 3.35149e-29 0 -9.20659e-14
0 -1.11022e-13 -0 -3.84029e-14
-1.11022e-13 -1.11022e-13 -0 2.2916e-14
3.9726e-33 9.87317e-32 0 -5.06716e-15
-1.11022e-13 -2.22045e-13 -0 -4.55617e-14
0 8.16823e-31 0 -1.42901e-14
4.83054e-33 -1.11022e-13 -0 -1.07732e-14
1.27988e-31 1.77034e-29 0 6.67672e-14
1.23465e-32 7.15719e-30 0 4.23365e-14
-3.65327e-32 3.69269e-32 0 3.13941e-16
-2.95651e-31 2.22045e-13 0 -2.0253e-14
2.22045e-13 2.22045e-13 0 -1.51904e-14
-2.22045e-13 -1.11022e-13 -0 4.8047e-15
-1.11022e-13 3.235e-30 -0 -2.84797e-14
-1.11022e-13 -1.11022e-13 -0 -2.68599e-15
1.42144e-31 5.31464e-32 0 6.98732e-15
-2.22045e-13 -1.11022e-13 -0 -1.43765e-14
-1.6335e-31 6.09792e-31 0 -1.05646e-14
2.67943e-32 2.22045e-13 0 1.63678e-14
8.74032e-31 7.25041e-30 0 -4.50678e-14
-1.11022e-13 -2.22045e-13 -0 -5.20149e-15
1.06307e-31 -1.11022e-13 -0 -8.62214e-15
-1.98476e-32 1.37644e-31 0 5.42671e-15
2.22045e-13 6.40473e-32 0 -5.8542e-15
-8.54553e-33 1.00866e-31 0 -4.80417e-15
-1.74516e-32 2.22045e-13 0 -1.53622e-15
-1.455e-31 6.10213e-31 0 1.07786e-14
8.74032e-31 7.25041e-30 0 -4.50678e-14
-1.11022e-13 6.88359e-30 -0 4.14819e-14
-1.11022e-13 -1.11022e-13 -0 -4.6214e-15
-1.11022e-13 -2.22045e-13 -0 -5.20149e-15
1.98365e-33 3.08422e-32 0 -2.86469e-15
1.37223e-32 1.07821e-31 0 -5.51233e-15
4.58259e-33 3.12792e-32 0 2.99424e-15
2.22045e-13 6.40473e-32 0 -5.8542e-15
-1.11022e-13 4.83294e-31 -0 1.10311e-14
2.22045e-13 2.29406e-30 0 2.44929e-14
7.20659e-32 8.23439e-30 0 -4.55699e-14
-1.11022e-13 1.92765e-31 -0 -6.95412e-15
2.22045e-13 2.22045e-13 0 -1.26498e-14
-6.16713e-32 -1.11022e-13 -0 -4.7171e-14
-2.22045e-13 9.14516e-31 -0 1.54504e-14
-1.10704e-33 3.92279e-32 0 -3.08711e-15
1.33138e-32 3.51494e-31 0 -9.54997e-15
-4.56243e-32 4.57523e-30 0 -3.36512e-14
7.20659e-32 8.23439e-30 0 -4.55699e-14
-6.41359e-62 3.50336e-31 0 9.35863e-15
0 1.15573e-31 0 -5.37525e-15
-1.11022e-13 1.92765e-31 -0 -6.95412e-15
-1.6563e-32 5.21811e-30 0 3.60609e-14
0 1.33218e-30 0 -1.82495e-14
-7.1581e-34 3.40266e-31 0 -9.21344e-15
-2.22045e-13 9.14516e-31 -0 1.54504e-14
-1.05723e-32 1.47566e-30 0 -1.91382e-14
-2.22045e-13 -1.11022e-13 -0 4.8047e-15
2.22045e-13 2.22045e-13 0 -1.51904e-14
-2.27326e-32 2.0698e-31 0 -6.78689e-15
7.63324e-32 6.5005e-32 0 5.94427e-15
1.42144e-31 5.31464e-32 0 6.98732e-15
3.28955e-41 -1.11022e-13 -0 8.52659e-19
7.27926e-33 1.13422e-31 0 5.4932e-15
-1.11022e-13 7.86374e-40 -0 -4.73293e-19
-1.46823e-40 2.05796e-40 0 -1.21422e-19
1.06307e-31 -1.11022e-13 -0 -8.62214e-15
-1.11022e-13 -2.22045e-13 -0 -5.20149e-15
-2.22045e-13 1.26396e-30 -0 -1.77854e-14
-4.08744e-32 -1.11022e-13 -0 7.21789e-15
-8.54553e-33 1.00866e-31 0 -4.80417e-15
2.22045e-13 2.22045e-13 0 2.62559e-20
5.19121e-33 5.70893e-32 0 3.9459e-15
1.67049e-39 -2.78074e-40 0 5.90004e-19
2.22045e-13 -1.11022e-13 0 7.72534e-20
-1.11022e-13 -2.22045e-13 -0 -5.20149e-15
-1.11022e-13 -1.11022e-13 -0 -4.6214e-15
-8.72688e-33 2.20591e-31 0 -7.27777e-15
-2.22045e-13 1.26396e-30 -0 -1.77854e-14
4.58259e-33 3.12792e-32 0 2.99424e-15
1.68558e-40 4.07754e-40 0 -3.79576e-19
-1.11022e-13 -2.22045e-13 -0 -3.88279e-15
2.22045e-13 2.22045e-13 0 2.62559e-20
-3.32305e-40 -1.11022e-13 -0 -2.27723e-19
2.22045e-13 2.22045e-13 0 -1.26498e-14
-1.11022e-13 1.92765e-31 -0 -6.95412e-15
3.32124e-34 1.04979e-32 0 -1.64545e-15
5.61389e-33 8.7036e-32 0 -4.81274e-15
-1.10704e-33 3.92279e-32 0 -3.08711e-15
-3.54405e-41 6.24531e-40 0 3.83761e-19
2.80273e-33 1.83056e-31 0 6.81651e-15
2.22045e-13 5.69678e-40 0 -4.0916e-19
5.37768e-41 1.62761e-39 0 -6.48341e-19
-1.11022e-13 1.92765e-31 -0 -6.95412e-15
0 1.15573e-31 0 -5.37525e-15
0 1.23721e-31 0 -5.5615e-15
3.32124e-34 1.04979e-32 0 -1.64545e-15
-7.1581e-34 3.40266e-31 0 -9.21344e-15
-1.11022e-13 -1.11022e-13 -0 -6.57123e-19
2.22045e-13 1.73257e-31 0 6.57973e-15
-3.54405e-41 6.24531e-40 0 3.83761e-19
-2.22045e-13 -1.11022e-13 -0 9.44434e-21
8.87304e-32 2.22045e-13 0 -8.5728e-15
8.2488e-32 4.49085e-32 0 -5.6435e-15
4.33238e-31 4.00554e-31 0 -1.44377e-14
-4.54396e-31 1.54226e-30 0 1.64914e-14
2.78273e-32 7.5687e-32 0 5.0871e-15
2.22045e-13 2.4537e-32 0 -1.98473e-15
4.59153e-31 1.15154e-31 0 1.19823e-14
1.3206e-31 -2.51868e-32 0 -5.16899e-15
-8.34696e-33 5.93182e-31 0 -1.20917e-14
2.35207e-32 7.25365e-32 0 -4.90044e-15
6.32735e-33 3.18648e-32 0 3.08999e-15
-1.26097e-31 2.22045e-13 0 7.65914e-15
-1.11022e-13 -1.11022e-13 -0 -3.55521e-14
-1.11022e-13 -1.11022e-13 -0 7.20963e-15
1.51618e-31 8.71537e-31 0 -1.59934e-14
-1.11022e-13 -1.62576e-33 -0 1.19026e-15
-1.15065e-31 1.46044e-30 0 1.83397e-14
1.76737e-32 3.72003e-31 0 -9.87012e-15
6.32735e-33 3.18648e-32 0 3.08999e-15
1.46723e-33 -1.11022e-13 -0 -9.51697e-15
-1.16379e-31 -1.11022e-13 -0 -4.42205e-14
-1.26097e-31 2.22045e-13 0 7.65914e-15
-1.04295e-33 5.94155e-33 0 1.10664e-15
2.22045e-13 1.55544e-30 0 1.95558e-14
-1.27293e-31 4.55756e-30 0 -3.32801e-14
1.51618e-31 8.71537e-31 0 -1.59934e-14
7.49492e-34 -1.11022e-13 -0 -5.50837e-15
-1.24078e-35 2.80444e-33 0 8.35469e-16
-1.11022e-13 3.63346e-33 -0 -1.00872e-15
5.30825e-33 2.63817e-31 0 -8.20252e-15
-1.11022e-13 -1.11022e-13 -0 -8.82413e-15
3.9004e-33 4.60894e-32 0 -3.53517e-15
-1.63814e-32 2.34512e-31 0 7.38462e-15
1.08864e-33 1.0058e-33 0 -7.2361e-16
-1.46838e-33 1.68731e-32 0 -1.96244e-15
9.73566e-33 2.19736e-31 0 7.57416e-15
-1.11022e-13 3.63346e-33 -0 -1.00872e-15
-1.11022e-13 2.4562e-34 -0 -2.478e-16
-1.11022e-13 1.04462e-32 -0 -1.61603e-15
5.30825e-33 2.63817e-31 0 -8.20252e-15
1.47175e-33 -1.11022e-13 -0 4.46645e-15
-1.11022e-13 3.53108e-30 -0 -2.97114e-14
1.22789e-33 1.98696e-31 0 -7.06972e-15
-1.63814e-32 2.34512e-31 0 7.38462e-15
-1.11022e-13 -1.11022e-13 -0 -1.45185e-14
-4.54396e-31 1.54226e-30 0 1.64914e-14
4.33238e-31 4.00554e-31 0 -1.44377e-14
-1.11022e-13 1.63777e-30 -0 2.44564e-14
2.29716e-30 -1.11022e-13 -0 -3.26426e-14
4.59153e-31 1.15154e-31 0 1.19823e-14
-7.73273e-31 1.74284e-30 0 -1.5569e-14
1.73932e-30 -1.11022e-13 -0 4.94364e-14
-1.08956e-32 5.74874e-32 0 3.41291e-15
2.98019e-30 1.2121e-29 0 6.14434e-14
-1.11022e-13 -1.11022e-13 -0 -3.55521e-14
-1.26097e-31 2.22045e-13 0 7.65914e-15
7.70832e-31 1.96492e-29 0 -7.14494e-14
-1.11022e-13 1.79132e-30 -0 -2.68423e-14
-1.11022e-13 -1.62576e-33 -0 1.19026e-15
-1.33437e-31 2.87767e-30 0 2.61927e-14
-2.83659e-32 3.59494e-31 0 -9.09846e-15
-1.11022e-13 -1.11022e-13 -0 4.16223e-14
-1.11022e-13 3.11924e-31 -0 -1.02137e-14
-1.26097e-31 2.22045e-13 0 7.65914e-15
-1.16379e-31 -1.11022e-13 -0 -4.42205e-14
-1.00061e-31 6.47744e-30 0 3.99292e-14
7.70832e-31 1.96492e-29 0 -7.14494e-14
-1.27293e-31 4.55756e-30 0 -3.32801e-14
-1.03295e-31 1.4451e-29 0 -5.9891e-14
-1.11022e-13 -1.11022e-13 -0 -4.37627e-14
-1.33437e-31 2.87767e-30 0 2.61927e-14
-2.36991e-31 5.04062e-30 0 3.46541e-14
-1.11022e-13 -1.11022e-13 -0 -8.82413e-15
5.30825e-33 2.63817e-31 0 -8.20252e-15
9.00453e-32 -1.11022e-13 -0 1.75762e-14
-1.01633e-31 5.33453e-30 0 -3.61694e-14
1.08864e-33 1.0058e-33 0 -7.2361e-16
3.72458e-32 6.66856e-31 0 -1.32675e-14
1.50188e-31 8.0075e-30 0 -4.516e-14
-1.11022e-13 4.16722e-30 -0 -3.13486e-14
-5.48909e-33 1.71195e-31 0 6.43634e-15
5.30825e-33 2.63817e-31 0 -8.20252e-15
-1.11022e-13 1.04462e-32 -0 -1.61603e-15
-1.11022e-13 -1.11022e-13 -0 -8.26684e-15
9.00453e-32 -1.11022e-13 -0 1.75762e-14
1.22789e-33 1.98696e-31 0 -7.06972e-15
0 -1.11022e-13 -0 -2.92457e-14
2.26595e-32 -1.11022e-13 -0 5.90083e-14
3.72458e-32 6.66856e-31 0 -1.32675e-14
-8.62159e-35 -1.11022e-13 -0 -6.45904e-15
3.60416e-30 0 0 3.00173e-14
1.13313e-29 0 0 5.32243e-14
4.99391e-31 -1.11022e-13 -0 -1.12598e-14
5.90314e-32 -1.11022e-13 -0 3.56786e-15
8.13835e-31 0 0 -1.42639e-14
2.22045e-13 2.22045e-13 0 1.3079e-14
6.37006e-30 -1.44243e-32 0 -3.98611e-14
3.10577e-30 2.90068e-33 0 -2.78777e-14
-1.11022e-13 1.01163e-32 -0 1.26077e-14
1.08631e-30 0 0 -1.64796e-14
1.38131e-31 -1.11022e-13 -0 -5.87647e-15
-1.11022e-13 -4.06223e-33 -0 5.06933e-15
7.80352e-31 -1.11022e-13 -0 -1.421e-14
5.61154e-30 0 0 -3.74551e-14
2.85188e-32 -8.12287e-34 0 -2.63185e-15
1.98998e-31 4.63185e-33 0 7.13495e-15
9.07964e-31 -6.10581e-33 0 -1.50155e-14
2.13401e-30 -1.79042e-32 0 2.30006e-14
1.38131e-31 -1.11022e-13 -0 -5.87647e-15
1.42656e-30 0 0 -1.88849e-14
6.12052e-32 -1.13483e-33 0 3.87526e-15
-1.11022e-13 -4.06223e-33 -0 5.06933e-15
6.65878e-40 0 0 -4.08007e-19
1.27659e-33 2.22045e-13 0 -5.56715e-16
-1.11022e-13 2.1962e-40 -0 -5.86581e-19
2.85188e-32 -8.12287e-34 0 -2.63185e-15
-2.22045e-13 -1.11022e-13 -0 -4.03514e-19
8.52046e-31 0 0 -1.45949e-14
-1.11022e-13 0 -0 -1.90501e-14
6.10262e-30 5.24116e-32 0 -3.9227e-14
2.45895e-31 -3.35603e-33 0 7.78683e-15
5.02568e-31 -1.11022e-13 -0 1.1209e-14
-1.11022e-13 -5.1651e-33 -0 -1.00645e-14
2.22045e-13 2.39508e-32 0 2.37464e-14
6.8045e-32 2.22045e-13 0 -4.13952e-15
2.22045e-13 6.87682e-34 0 3.03078e-15
-1.11022e-13 0 -0 -1.90501e-14
6.04903e-30 2.22045e-13 0 -3.88877e-14
-1.11022e-13 -1.22614e-31 -0 4.49348e-14
6.10262e-30 5.24116e-32 0 -3.9227e-14
-1.11022e-13 0 -0 -1.08292e-14
-1.11022e-13 -1.45988e-33 -0 -4.76647e-14
4.28609e-30 5.77407e-33 0 3.27562e-14
-1.11022e-13 -5.1651e-33 -0 -1.00645e-14
-1.11022e-13 -1.11022e-13 -0 -5.50415e-14
1.95858e-30 -2.96099e-32 0 2.196e-14
1.45266e-31 1.12362e-32 0 -6.25504e-15
-1.11022e-13 -1.11022e-13 -0 -1.60099e-14
-1.11022e-13 3.96179e-32 -0 5.30108e-15
5.36569e-31 8.69682e-33 0 -1.16755e-14
3.47493e-30 -1.11022e-13 -0 -2.95583e-14
3.29647e-31 6.51177e-32 0 -9.93435e-15
1.61532e-29 2.90337e-32 0 -6.36047e-14
-1.11022e-13 9.4894e-32 -0 2.78511e-14
1.85288e-31 1.56612e-32 0 7.08782e-15
6.94865e-33 -2.56716e-34 0 -1.29344e-15
7.31969e-32 7.9347e-33 0 -4.50365e-15
1.90445e-31 3.201e-32 0 -7.45746e-15
-1.11022e-13 8.46955e-34 -0 5.08413e-15
1.77867e-31 2.22045e-13 0 6.70479e-15
-1.1472e-35 3.80485e-35 0 8.15115e-17
2.38749e-30 -2.82625e-32 0 -2.42859e-14
-1.11022e-13 -5.91895e-34 -0 9.89508e-15
6.94865e-33 -2.56716e-34 0 -1.29344e-15
1.68731e-31 3.38481e-34 0 -6.50134e-15
7.36705e-32 5.243e-33 0 -4.44166e-15
7.31969e-32 7.9347e-33 0 -4.50365e-15
1.20881e-40 -5.44252e-42 0 1.69881e-19
1.10094e-31 6.75293e-33 0 5.40478e-15
6.46798e-40 2.00673e-40 0 4.60291e-19
1.77867e-31 2.22045e-13 0 6.70479e-15
3.62818e-39 2.70856e-40 0 9.87299e-19
9.62591e-31 1.60134e-32 0 -1.56413e-14
2.31649e-30 -1.11022e-13 -0 2.41984e-14
5.82562e-30 1.60703e-31 0 3.86857e-14
7.0826e-32 -4.69937e-34 0 -4.19393e-15
1.38965e-32 1.19035e-33 0 -1.94209e-15
1.73556e-30 1.61925e-32 0 -2.0927e-14
-1.11022e-13 -2.33342e-34 -0 2.92473e-16
5.98126e-32 -1.11022e-13 -0 -3.91098e-15
1.20777e-33 2.22045e-13 0 -7.21198e-16
2.31649e-30 -1.11022e-13 -0 2.41984e-14
1.1056e-29 -1.11022e-13 -0 5.27218e-14
-1.11022e-13 -4.51015e-32 -0 2.51989e-14
5.82562e-30 1.60703e-31 0 3.86857e-14
-1.11022e-13 1.15287e-32 -0 8.874e-15
1.02901e-30 -2.81515e-32 0 -1.58182e-14
5.76536e-31 -8.37046e-33 0 -1.19181e-14
1.73556e-30 1.61925e-32 0 -2.0927e-14
2.22045e-13 -1.71646e-32 0 -1.57751e-14
-1.11022e-13 3.96179e-32 -0 5.30108e-15
-1.11022e-13 -1.11022e-13 -0 -1.60099e-14
1.02399e-29 -1.3487e-31 0 5.02618e-14
3.35625e-30 -9.46836e-32 0 2.85551e-14
3.29647e-31 6.51177e-32 0 -9.93435e-15
3.82157e-31 3.60364e-32 0 1.02249e-14
-1.11022e-13 5.67512e-31 -0 4.01223e-14
2.22045e-13 9.47408e-32 0 -3.40523e-14
2.16762e-32 -1.00604e-32 0 1.7041e-15
1.90445e-31 3.201e-32 0 -7.45746e-15
7.31969e-32 7.9347e-33 0 -4.50365e-15
2.22045e-13 2.24987e-32 0 -1.14201e-14
-1.11022e-13 -1.11022e-13 -0 -6.40884e-16
-1.1472e-35 3.80485e-35 0 8.15115e-17
3.53658e-31 2.22045e-13 0 9.82522e-15
-1.11022e-13 -1.11022e-13 -0 -1.40205e-14
1.33657e-31 2.22045e-13 0 5.49556e-15
-1.11022e-13 2.08141e-33 -0 6.43264e-16
7.31969e-32 7.9347e-33 0 -4.50365e-15
7.36705e-32 5.243e-33 0 -4.44166e-15
-1.11022e-13 -1.11022e-13 -0 5.80809e-15
2.22045e-13 2.24987e-32 0 -1.14201e-14
6.46798e-40 2.00673e-40 0 4.60291e-19
2.6652e-31 -1.11022e-13 -0 8.28511e-15
-1.11022e-13 -1.11022e-13 -0 -5.22239e-19
3.53658e-31 2.22045e-13 0 9.82522e-15
9.37617e-42 1.53248e-41 0 7.85828e-20
7.0826e-32 -4.69937e-34 0 -4.19393e-15
5.82562e-30 1.60703e-31 0 3.86857e-14
2.22045e-13 -2.44141e-32 0 -1.50166e-14
5.94122e-32 5.55011e-33 0 4.02996e-15
-1.11022e-13 -2.33342e-34 -0 2.92473e-16
1.24566e-29 1.9575e-31 0 -5.62414e-14
1.67399e-31 -2.74273e-32 0 -5.91549e-15
2.22045e-13 -1.11022e-13 0 9.76382e-15
1.27987e-31 -1.11022e-13 -0 5.95759e-15
5.82562e-30 1.60703e-31 0 3.86857e-14
-1.11022e-13 -4.51015e-32 -0 2.51989e-14
1.86574e-31 2.39452e-31 0 1.03202e-14
2.22045e-13 -2.44141e-32 0 -1.50166e-14
5.76536e-31 -8.37046e-33 0 -1.19181e-14
-8.68234e-33 1.43341e-32 0 -1.18867e-15
2.22045e-13 2.22045e-13 0 -1.11865e-14
1.24566e-29 1.9575e-31 0 -5.62414e-14
-1.11022e-13 -7.55343e-32 -0 -3.56257e-14
1.9392e-30 -3.94313e-31 0 -1.96525e-14
2.02e-30 -1.06018e-31 0 -2.18745e-14
6.27098e-31 2.22045e-13 0 -1.32842e-14
7.26383e-30 -1.11022e-13 -0 -3.95855e-14
1.41236e-29 1.35313e-31 0 5.97054e-14
3.8454e-30 -1.11022e-13 -0 3.01656e-14
-1.11022e-13 -1.11022e-13 -0 6.06873e-15
7.27449e-31 3.13806e-31 0 -1.61342e-14
1.17361e-29 -9.93861e-32 0 -5.39368e-14
2.22045e-13 1.32152e-31 0 -3.06271e-14
3.7186e-35 4.44734e-36 0 1.02021e-16
3.41085e-32 -1.11022e-13 -0 -2.83423e-15
4.31609e-30 -5.86743e-31 0 3.05342e-14
7.53538e-32 -1.11022e-13 -0 -4.13648e-15
2.22045e-13 -9.34204e-33 0 8.60422e-15
2.22045e-13 -3.83249e-32 0 1.20188e-14
-1.11022e-13 -2.71871e-31 -0 -2.71994e-14
8.77014e-31 4.63922e-32 0 -1.51938e-14
3.7186e-35 4.44734e-36 0 1.02021e-16
-1.11022e-13 -4.15647e-33 -0 -2.829e-15
-1.11022e-13 -1.11022e-13 -0 -4.89042e-16
3.41085e-32 -1.11022e-13 -0 -2.83423e-15
-1.11022e-13 -1.11022e-13 -0 -1.08153e-19
2.59267e-31 -1.11022e-13 -0 8.0065e-15
1.04588e-39 2.22045e-13 0 3.33334e-19
2.22045e-13 -9.34204e-33 0 8.60422e-15
2.04527e-40 2.22045e-13 0 4.35919e-19
1.49563e-30 1.24922e-32 0 1.94172e-14
3.66153e-32 -1.81488e-32 0 -2.14864e-15
-1.11022e-13 -2.64546e-33 -0 -1.99124e-14
3.3525e-31 3.28456e-32 0 9.59291e-15
2.22045e-13 9.47061e-32 0 1.27261e-14
1.8955e-30 -2.4358e-31 0 2.03219e-14
3.23541e-31 -1.16954e-31 0 -7.18656e-15
3.27447e-32 -1.16167e-32 0 -2.29826e-15
3.64603e-31 2.22045e-13 0 -8.09729e-15
3.66153e-32 -1.81488e-32 0 -2.14864e-15
4.7136e-30 1.6002e-31 0 3.49056e-14
3.31895e-30 -1.11022e-13 -0 2.89058e-14
-1.11022e-13 -2.64546e-33 -0 -1.99124e-14
1.17874e-29 1.48211e-31 0 -5.46251e-14
5.63688e-31 -1.09141e-31 0 1.06601e-14
5.91906e-30 -1.11022e-13 -0 3.77551e-14
1.8955e-30 -2.4358e-31 0 2.03219e-14
2.79882e-31 8.0059e-32 0 9.48606e-15
7.26383e-30 -1.11022e-13 -0 -3.95855e-14
6.27098e-31 2.22045e-13 0 -1.32842e-14
2.02914e-30 2.22045e-13 0 -1.96799e-14
2.3563e-30 -1.11022e-13 -0 -1.27899e-14
-1.11022e-13 -1.11022e-13 -0 6.06873e-15
-1.11022e-13 -6.92353e-31 -0 -1.68394e-14
2.13501e-30 -1.11022e-13 -0 -1.45985e-14
2.03977e-30 -3.44921e-31 0 -2.05843e-14
-3.32927e-32 3.59726e-32 0 -8.18524e-16
4.31609e-30 -5.86743e-31 0 3.05342e-14
3.41085e-32 -1.11022e-13 -0 -2.83423e-15
9.36915e-32 2.22045e-13 0 2.86794e-15
-1.11022e-13 -1.11022e-13 -0 -3.11823e-14
2.22045e-13 -3.83249e-32 0 1.20188e-14
1.6008e-31 2.22045e-13 0 6.09331e-15
-1.11022e-13 2.66519e-31 -0 5.76633e-15
2.86478e-31 1.42252e-31 0 -1.03529e-14
1.90973e-30 -9.5663e-32 0 -2.1296e-14
3.41085e-32 -1.11022e-13 -0 -2.83423e-15
-1.11022e-13 -1.11022e-13 -0 -4.89042e-16
-6.91226e-33 -1.11022e-13 -0 -5.79221e-16
9.36915e-32 2.22045e-13 0 2.86794e-15
1.04588e-39 2.22045e-13 0 3.33334e-19
1.05852e-31 -1.92695e-32 0 4.65248e-15
2.22045e-13 5.97632e-39 0 -1.21367e-18
1.6008e-31 2.22045e-13 0 6.09331e-15
-4.11579e-41 1.55157e-40 0 1.68819e-19
3.3525e-31 3.28456e-32 0 9.59291e-15
-1.11022e-13 -2.64546e-33 -0 -1.99124e-14
1.9323e-31 -1.11022e-13 -0 -9.1929e-15
1.3032e-31 1.41629e-31 0 8.24544e-15
3.23541e-31 -1.16954e-31 0 -7.18656e-15
3.31369e-30 1.04079e-31 0 2.92308e-14
5.77842e-31 2.89689e-31 0 -1.47269e-14
-1.11022e-13 -1.11022e-13 -0 1.02854e-14
6.70235e-31 1.2347e-31 0 1.40864e-14
-1.11022e-13 -2.64546e-33 -0 -1.99124e-14
3.31895e-30 -1.11022e-13 -0 2.89058e-14
-1.11022e-13 3.05302e-31 -0 4.98005e-15
1.9323e-31 -1.11022e-13 -0 -9.1929e-15
5.91906e-30 -1.11022e-13 -0 3.77551e-14
8.38545e-30 4.37332e-30 0 5.64774e-14
3.12729e-31 9.7192e-31 0 1.7921e-14
3.31369e-30 1.04079e-31 0 2.92308e-14
2.65251e-31 -1.26188e-31 0 5.89625e-15
      </DataArray> 
    </PointData>
    <CellData>
      <DataArray type="Float64" NumberOfComponents="1" Name="Process" format="ascii">
4
4
4
4
5
7
7
2
2
2
3
2
7
3
2
7
3
7
4
2
2
4
7
2
7
6
2
4
2
7
4
6
4
6
7
4
4
4
5
5
4
5
7
6
5
7
5
5
5
2
0
6
3
3
0
0
6
5
3
6
3
3
0
3
0
3
6
3
7
6
2
2
5
7
6
1
1
1
1
1
0
0
0
1
6
0
0
1
1
1
0
1
1
1
5
5
0
6
6
3
      </DataArray> 
    </CellData>
  </Piece>
  </UnstructuredGrid>
</VTKFile>
