<?xml version="1.0"?>
<VTKFile type="UnstructuredGrid">
  <UnstructuredGrid>
  <Piece NumberOfPoints="900"  NumberOfCells="100">
    <Points>
      <DataArray type="Float64" NumberOfComponents="3" format="ascii">
0 0 0
0.185882 0.189566 0
0.182397 0.523277 0
0.000137995 0.410758 0
0.0929365 0.0947933 0
0.183923 0.356832 0
0.0912678 0.467013 0
3.53643e-05 0.206083 0
0.0919736 0.281465 0
0.185882 0.189566 0
0.371815 0.379038 0
0.364647 0.635828 0
0.182397 0.523277 0
0.278849 0.284305 0
0.367813 0.507554 0
0.27352 0.579548 0
0.183923 0.356832 0
0.275868 0.432191 0
0.371815 0.379038 0
0.557734 0.568489 0
0.54693 0.748373 0
0.364647 0.635828 0
0.464766 0.473786 0
0.551726 0.658256 0
0.455786 0.69211 0
0.367813 0.507554 0
0.459765 0.582921 0
0.557734 0.568489 0
0.743712 0.757747 0
0.72929 0.860861 0
0.54693 0.748373 0
0.650742 0.663108 0
0.735677 0.808842 0
0.638082 0.804606 0
0.551726 0.658256 0
0.643697 0.733536 0
0.743712 0.757747 0
0.930566 0.945305 0
0.912538 0.972143 0
0.72929 0.860861 0
0.836721 0.852256 0
0.920566 0.957952 0
0.820666 0.917009 0
0.735677 0.808842 0
0.827777 0.884031 0
0.000137995 0.410758 0
0.182397 0.523277 0
0.180725 0.854563 0
0.000458173 0.817273 0
0.0912678 0.467013 0
0.181338 0.689121 0
0.0905896 0.835907 0
0.000304388 0.614376 0
0.0908222 0.651736 0
0.182397 0.523277 0
0.364647 0.635828 0
0.361018 0.891912 0
0.180725 0.854563 0
0.27352 0.579548 0
0.362378 0.763928 0
0.270865 0.873233 0
0.181338 0.689121 0
0.271854 0.72652 0
0.364647 0.635828 0
0.54693 0.748373 0
0.541382 0.929277 0
0.361018 0.891912 0
0.455786 0.69211 0
0.543469 0.838746 0
0.451192 0.910595 0
0.362378 0.763928 0
0.452919 0.801342 0
0.54693 0.748373 0
0.72929 0.860861 0
0.721922 0.966628 0
0.541382 0.929277 0
0.638082 0.804606 0
0.724691 0.913537 0
0.631598 0.947951 0
0.543469 0.838746 0
0.634035 0.876135 0
0.72929 0.860861 0
0.912538 0.972143 0
0.903088 1.00351 0
0.721922 0.966628 0
0.820666 0.917009 0
0.906669 0.98746 0
0.812429 0.985255 0
0.724691 0.913537 0
0.81553 0.950853 0
0.000458173 0.817273 0
0.180725 0.854563 0
0.180731 1.18503 0
0.000463863 1.22228 0
0.0905896 0.835907 0
0.180526 1.0198 0
0.0905954 1.20366 0
0.000519049 1.01979 0
0.0905191 1.01979 0
0.180725 0.854563 0
0.361018 0.891912 0
0.361024 1.14775 0
0.180731 1.18503 0
0.270865 0.873233 0
0.360567 1.01983 0
0.270871 1.16639 0
0.180526 1.0198 0
0.270539 1.01981 0
0.361018 0.891912 0
0.541382 0.929277 0
0.541386 1.11047 0
0.361024 1.14775 0
0.451192 0.910595 0
0.540687 1.01987 0
0.451197 1.12911 0
0.360567 1.01983 0
0.450618 1.01985 0
0.541382 0.929277 0
0.721922 0.966628 0
0.721926 1.07319 0
0.541386 1.11047 0
0.631598 0.947951 0
0.721 1.01991 0
0.631602 1.09183 0
0.540687 1.01987 0
0.630786 1.01989 0
0.721922 0.966628 0
0.903088 1.00351 0
0.903092 1.03634 0
0.721926 1.07319 0
0.812429 0.985255 0
0.90189 1.01993 0
0.812432 1.05458 0
0.721 1.01991 0
0.811394 1.01992 0
0.000463863 1.22228 0
0.180731 1.18503 0
0.182374 1.51626 0
7.88813e-05 1.62864 0
0.0905954 1.20366 0
0.18134 1.35045 0
0.0912288 1.57245 0
0.000297379 1.42512 0
0.0908202 1.38779 0
0.180731 1.18503 0
0.361024 1.14775 0
0.364646 1.40383 0
0.182374 1.51626 0
0.270871 1.16639 0
0.362385 1.27573 0
0.27351 1.46005 0
0.18134 1.35045 0
0.271859 1.31309 0
0.361024 1.14775 0
0.541386 1.11047 0
0.546937 1.29138 0
0.364646 1.40383 0
0.451197 1.12911 0
0.543476 1.201 0
0.45579 1.3476 0
0.362385 1.27573 0
0.452926 1.23836 0
0.541386 1.11047 0
0.721926 1.07319 0
0.729296 1.17896 0
0.546937 1.29138 0
0.631602 1.09183 0
0.724696 1.12628 0
0.638089 1.23518 0
0.543476 1.201 0
0.634041 1.16365 0
0.721926 1.07319 0
0.903092 1.03634 0
0.912546 1.06771 0
0.729296 1.17896 0
0.812432 1.05458 0
0.906676 1.05239 0
0.820672 1.12283 0
0.724696 1.12628 0
0.815536 1.08899 0
7.88813e-05 1.62864 0
0.182374 1.51626 0
0.185701 1.84985 0
-0.000358544 2.03912 0
0.0912288 1.57245 0
0.183843 1.68265 0
0.0926743 1.94449 0
-0.000135721 1.83319 0
0.0918524 1.75792 0
0.182374 1.51626 0
0.364646 1.40383 0
0.371755 1.66059 0
0.185701 1.84985 0
0.27351 1.46005 0
0.367791 1.53209 0
0.278736 1.75523 0
0.183843 1.68265 0
0.275822 1.60738 0
0.364646 1.40383 0
0.546937 1.29138 0
0.557728 1.47128 0
0.371755 1.66059 0
0.45579 1.3476 0
0.551729 1.3815 0
0.46474 1.56592 0
0.367791 1.53209 0
0.459759 1.45679 0
0.546937 1.29138 0
0.729296 1.17896 0
0.743717 1.28208 0
0.557728 1.47128 0
0.638089 1.23518 0
0.735683 1.23098 0
0.650745 1.3767 0
0.551729 1.3815 0
0.643703 1.30626 0
0.729296 1.17896 0
0.912546 1.06771 0
0.930572 1.09454 0
0.743717 1.28208 0
0.820672 1.12283 0
0.920574 1.0819 0
0.836724 1.18759 0
0.735683 1.23098 0
0.827782 1.15581 0
0.930572 1.09454 0
0.955611 1.11408 0
0.844415 1.29756 0
0.743717 1.28208 0
0.942379 1.10536 0
0.899647 1.20523 0
0.79362 1.2906 0
0.836724 1.18759 0
0.867588 1.1973 0
0.955611 1.11408 0
0.984804 1.12438 0
0.947847 1.30598 0
0.844415 1.29756 0
0.969873 1.12047 0
0.966176 1.21479 0
0.895894 1.30276 0
0.899647 1.20523 0
0.932608 1.21114 0
0.984804 1.12438 0
1.01531 1.12438 0
1.05226 1.30598 0
0.947847 1.30598 0
1.00006 1.12569 0
1.03394 1.21479 0
1.00006 1.30707 0
0.966176 1.21479 0
1.00006 1.21602 0
1.01531 1.12438 0
1.0445 1.11407 0
1.15569 1.29756 0
1.05226 1.30598 0
1.03024 1.12047 0
1.10046 1.20523 0
1.10421 1.30275 0
1.03394 1.21479 0
1.0675 1.21113 0
1.0445 1.11407 0
1.06953 1.09454 0
1.25639 1.28208 0
1.15569 1.29756 0
1.05773 1.10536 0
1.16338 1.18759 0
1.20649 1.2906 0
1.10046 1.20523 0
1.13252 1.1973 0
0.743717 1.28208 0
0.844415 1.29756 0
0.733966 1.48292 0
0.557728 1.47128 0
0.79362 1.2906 0
0.789216 1.39019 0
0.645685 1.4777 0
0.650745 1.3767 0
0.71968 1.38414 0
0.844415 1.29756 0
0.947847 1.30598 0
0.911221 1.4892 0
0.733966 1.48292 0
0.895894 1.30276 0
0.929542 1.39751 0
0.8225 1.4868 0
0.789216 1.39019 0
0.859215 1.39471 0
0.947847 1.30598 0
1.05226 1.30598 0
1.08888 1.4892 0
0.911221 1.4892 0
1.00006 1.30707 0
1.07057 1.39751 0
1.00005 1.49001 0
0.929542 1.39751 0
1.00005 1.39846 0
1.05226 1.30598 0
1.15569 1.29756 0
1.26614 1.48291 0
1.08888 1.4892 0
1.10421 1.30275 0
1.21089 1.39019 0
1.1776 1.4868 0
1.07057 1.39751 0
1.14089 1.39471 0
1.15569 1.29756 0
1.25639 1.28208 0
1.44237 1.47128 0
1.26614 1.48291 0
1.20649 1.2906 0
1.34936 1.3767 0
1.35442 1.4777 0
1.21089 1.39019 0
1.28042 1.38414 0
0.557728 1.47128 0
0.733966 1.48292 0
0.623472 1.66845 0
0.371755 1.66059 0
0.645685 1.4777 0
0.67872 1.57567 0
0.497731 1.66491 0
0.46474 1.56592 0
0.571707 1.5713 0
0.733966 1.48292 0
0.911221 1.4892 0
0.874569 1.67275 0
0.623472 1.66845 0
0.8225 1.4868 0
0.892897 1.58096 0
0.749062 1.6711 0
0.67872 1.57567 0
0.785784 1.57893 0
0.911221 1.4892 0
1.08888 1.4892 0
1.12553 1.67275 0
0.874569 1.67275 0
1.00005 1.49001 0
1.10721 1.58096 0
1.00005 1.67331 0
0.892897 1.58096 0
1.00005 1.58164 0
1.08888 1.4892 0
1.26614 1.48291 0
1.37663 1.66845 0
1.12553 1.67275 0
1.1776 1.4868 0
1.32138 1.57567 0
1.25104 1.6711 0
1.10721 1.58096 0
1.21432 1.57893 0
1.26614 1.48291 0
1.44237 1.47128 0
1.62835 1.66059 0
1.37663 1.66845 0
1.35442 1.4777 0
1.53536 1.56592 0
1.50237 1.66491 0
1.32138 1.57567 0
1.4284 1.57129 0
0.371755 1.66059 0
0.623472 1.66845 0
0.512915 1.85403 0
0.185701 1.84985 0
0.497731 1.66491 0
0.568205 1.76124 0
0.349707 1.85214 0
0.278736 1.75523 0
0.42373 1.75853 0
0.623472 1.66845 0
0.874569 1.67275 0
0.837882 1.85641 0
0.512915 1.85403 0
0.749062 1.6711 0
0.856232 1.76457 0
0.675569 1.85548 0
0.568205 1.76124 0
0.712325 1.76329 0
0.874569 1.67275 0
1.12553 1.67275 0
1.16222 1.85641 0
0.837882 1.85641 0
1.00005 1.67331 0
1.14387 1.76457 0
1.00005 1.85673 0
0.856232 1.76457 0
1.00005 1.76501 0
1.12553 1.67275 0
1.37663 1.66845 0
1.48718 1.85403 0
1.16222 1.85641 0
1.25104 1.6711 0
1.4319 1.76124 0
1.32453 1.85548 0
1.14387 1.76457 0
1.28777 1.76329 0
1.37663 1.66845 0
1.62835 1.66059 0
1.8144 1.84985 0
1.48718 1.85403 0
1.50237 1.66491 0
1.72137 1.75523 0
1.65039 1.85214 0
1.4319 1.76124 0
1.57637 1.75853 0
0.185701 1.84985 0
0.512915 1.85403 0
0.40227 2.03959 0
-0.000358544 2.03912 0
0.349707 1.85214 0
0.457603 1.94681 0
0.201642 2.03935 0
0.0926743 1.94449 0
0.275673 1.94574 0
0.512915 1.85403 0
0.837882 1.85641 0
0.801121 2.04012 0
0.40227 2.03959 0
0.675569 1.85548 0
0.819515 1.94826 0
0.601972 2.03988 0
0.457603 1.94681 0
0.638788 1.94768 0
0.837882 1.85641 0
1.16222 1.85641 0
1.19897 2.04012 0
0.801121 2.04012 0
1.00005 1.85673 0
1.18058 1.94826 0
1.00005 2.0402 0
0.819515 1.94826 0
1.00005 1.94846 0
1.16222 1.85641 0
1.48718 1.85403 0
1.59783 2.03959 0
1.19897 2.04012 0
1.32453 1.85548 0
1.5425 1.94681 0
1.39812 2.03988 0
1.18058 1.94826 0
1.36131 1.94768 0
1.48718 1.85403 0
1.8144 1.84985 0
2.00046 2.03912 0
1.59783 2.03959 0
1.65039 1.85214 0
1.90743 1.94449 0
1.79846 2.03935 0
1.5425 1.94681 0
1.72443 1.94574 0
1.06954 0.945305 0
1.25639 0.757747 0
1.27081 0.860861 0
1.08757 0.972143 0
1.16338 0.852256 0
1.26443 0.808842 0
1.17944 0.917009 0
1.07954 0.957952 0
1.17233 0.884031 0
1.25639 0.757747 0
1.44237 0.568489 0
1.45317 0.748373 0
1.27081 0.860861 0
1.34936 0.663108 0
1.44838 0.658256 0
1.36202 0.804606 0
1.26443 0.808842 0
1.35641 0.733536 0
1.44237 0.568489 0
1.62829 0.379038 0
1.63546 0.635828 0
1.45317 0.748373 0
1.53534 0.473786 0
1.63229 0.507554 0
1.54432 0.69211 0
1.44838 0.658256 0
1.54034 0.582921 0
1.62829 0.379038 0
1.81422 0.189566 0
1.81771 0.523277 0
1.63546 0.635828 0
1.72125 0.284305 0
1.81618 0.356832 0
1.72658 0.579548 0
1.63229 0.507554 0
1.72424 0.432191 0
1.81422 0.189566 0
2.0001 0 0
1.99997 0.410758 0
1.81771 0.523277 0
1.90717 0.0947933 0
2.00007 0.206083 0
1.90884 0.467013 0
1.81618 0.356832 0
1.90813 0.281465 0
1.08757 0.972143 0
1.27081 0.860861 0
1.27818 0.966628 0
1.09702 1.00351 0
1.17944 0.917009 0
1.27541 0.913537 0
1.18767 0.985255 0
1.09343 0.98746 0
1.18457 0.950853 0
1.27081 0.860861 0
1.45317 0.748373 0
1.45872 0.929277 0
1.27818 0.966628 0
1.36202 0.804606 0
1.45663 0.838746 0
1.36851 0.947951 0
1.27541 0.913537 0
1.36607 0.876135 0
1.45317 0.748373 0
1.63546 0.635828 0
1.63909 0.891912 0
1.45872 0.929277 0
1.54432 0.69211 0
1.63773 0.763928 0
1.54891 0.910595 0
1.45663 0.838746 0
1.54718 0.801342 0
1.63546 0.635828 0
1.81771 0.523277 0
1.81938 0.854563 0
1.63909 0.891912 0
1.72658 0.579548 0
1.81877 0.689121 0
1.72924 0.873233 0
1.63773 0.763928 0
1.72825 0.72652 0
1.81771 0.523277 0
1.99997 0.410758 0
1.99965 0.817273 0
1.81938 0.854563 0
1.90884 0.467013 0
1.9998 0.614376 0
1.90951 0.835907 0
1.81877 0.689121 0
1.90928 0.651736 0
1.09702 1.00351 0
1.27818 0.966628 0
1.27818 1.07319 0
1.09701 1.03634 0
1.18767 0.985255 0
1.2791 1.01991 0
1.18767 1.05458 0
1.09821 1.01993 0
1.18871 1.01992 0
1.27818 0.966628 0
1.45872 0.929277 0
1.45872 1.11047 0
1.27818 1.07319 0
1.36851 0.947951 0
1.45942 1.01987 0
1.3685 1.09183 0
1.2791 1.01991 0
1.36932 1.01989 0
1.45872 0.929277 0
1.63909 0.891912 0
1.63908 1.14775 0
1.45872 1.11047 0
1.54891 0.910595 0
1.63954 1.01983 0
1.54891 1.12911 0
1.45942 1.01987 0
1.54949 1.01985 0
1.63909 0.891912 0
1.81938 0.854563 0
1.81937 1.18503 0
1.63908 1.14775 0
1.72924 0.873233 0
1.81958 1.0198 0
1.72923 1.16639 0
1.63954 1.01983 0
1.72956 1.01981 0
1.81938 0.854563 0
1.99965 0.817273 0
1.99964 1.22228 0
1.81937 1.18503 0
1.90951 0.835907 0
1.99958 1.01979 0
1.90951 1.20366 0
1.81958 1.0198 0
1.90958 1.01979 0
1.09701 1.03634 0
1.27818 1.07319 0
1.27081 1.17896 0
1.08756 1.06771 0
1.18767 1.05458 0
1.27541 1.12628 0
1.17943 1.12283 0
1.09343 1.05239 0
1.18457 1.08899 0
1.27818 1.07319 0
1.45872 1.11047 0
1.45317 1.29138 0
1.27081 1.17896 0
1.3685 1.09183 0
1.45663 1.201 0
1.36201 1.23518 0
1.27541 1.12628 0
1.36606 1.16365 0
1.45872 1.11047 0
1.63908 1.14775 0
1.63546 1.40383 0
1.45317 1.29138 0
1.54891 1.12911 0
1.63772 1.27573 0
1.54431 1.3476 0
1.45663 1.201 0
1.54718 1.23836 0
1.63908 1.14775 0
1.81937 1.18503 0
1.81773 1.51626 0
1.63546 1.40383 0
1.72923 1.16639 0
1.81876 1.35045 0
1.72659 1.46005 0
1.63772 1.27573 0
1.72824 1.31309 0
1.81937 1.18503 0
1.99964 1.22228 0
2.00002 1.62864 0
1.81773 1.51626 0
1.90951 1.20366 0
1.99981 1.42512 0
1.90887 1.57245 0
1.81876 1.35045 0
1.90928 1.38779 0
1.08756 1.06771 0
1.27081 1.17896 0
1.25639 1.28208 0
1.06953 1.09454 0
1.17943 1.12283 0
1.26442 1.23098 0
1.16338 1.18759 0
1.07953 1.0819 0
1.17232 1.15581 0
1.27081 1.17896 0
1.45317 1.29138 0
1.44237 1.47128 0
1.25639 1.28208 0
1.36201 1.23518 0
1.44837 1.3815 0
1.34936 1.3767 0
1.26442 1.23098 0
1.3564 1.30626 0
1.45317 1.29138 0
1.63546 1.40383 0
1.62835 1.66059 0
1.44237 1.47128 0
1.54431 1.3476 0
1.63231 1.53209 0
1.53536 1.56592 0
1.44837 1.3815 0
1.54034 1.45679 0
1.63546 1.40383 0
1.81773 1.51626 0
1.8144 1.84985 0
1.62835 1.66059 0
1.72659 1.46005 0
1.81626 1.68265 0
1.72137 1.75523 0
1.63231 1.53209 0
1.72428 1.60738 0
1.81773 1.51626 0
2.00002 1.62864 0
2.00046 2.03912 0
1.8144 1.84985 0
1.90887 1.57245 0
2.00024 1.83319 0
1.90743 1.94449 0
1.81626 1.68265 0
1.90825 1.75792 0
0 0 0
0.402624 0 0
0.51306 0.185722 0
0.185882 0.189566 0
0.202001 0 0
0.457839 0.0928688 0
0.349877 0.187439 0
0.0929365 0.0947933 0
0.275932 0.0937297 0
0.402624 0 0
0.801297 0 0
0.837939 0.183632 0
0.51306 0.185722 0
0.602269 0 0
0.819617 0.0918194 0
0.675676 0.184436 0
0.457839 0.0928688 0
0.638971 0.0922231 0
0.801297 0 0
1.1988 0 0
1.16216 0.183632 0
0.837939 0.183632 0
1.00005 0 0
1.18048 0.0918195 0
1.00005 0.18336 0
0.819617 0.0918194 0
1.00005 0.0916832 0
1.1988 0 0
1.59747 0 0
1.48704 0.185723 0
1.16216 0.183632 0
1.39783 0 0
1.54226 0.0928691 0
1.32442 0.184436 0
1.18048 0.0918195 0
1.36113 0.0922233 0
1.59747 0 0
2.0001 0 0
1.81422 0.189566 0
1.48704 0.185723 0
1.7981 0 0
1.90717 0.0947933 0
1.65022 0.187439 0
1.54226 0.0928691 0
1.72417 0.0937299 0
0.185882 0.189566 0
0.51306 0.185722 0
0.623513 0.371384 0
0.371815 0.379038 0
0.349877 0.187439 0
0.568287 0.278563 0
0.497783 0.374824 0
0.278849 0.284305 0
0.423831 0.281138 0
0.51306 0.185722 0
0.837939 0.183632 0
0.874583 0.367223 0
0.623513 0.371384 0
0.675676 0.184436 0
0.856261 0.275435 0
0.74909 0.368817 0
0.568287 0.278563 0
0.712383 0.276636 0
0.837939 0.183632 0
1.16216 0.183632 0
1.12552 0.367223 0
0.874583 0.367223 0
1.00005 0.18336 0
1.14384 0.275436 0
1.00005 0.366686 0
0.856261 0.275435 0
1.00005 0.275031 0
1.16216 0.183632 0
1.48704 0.185723 0
1.37659 0.371385 0
1.12552 0.367223 0
1.32442 0.184436 0
1.43181 0.278564 0
1.25101 0.368818 0
1.14384 0.275436 0
1.28772 0.276637 0
1.48704 0.185723 0
1.81422 0.189566 0
1.62829 0.379038 0
1.37659 0.371385 0
1.65022 0.187439 0
1.72125 0.284305 0
1.50232 0.374825 0
1.43181 0.278564 0
1.57627 0.281139 0
0.371815 0.379038 0
0.623513 0.371384 0
0.73397 0.556944 0
0.557734 0.568489 0
0.497783 0.374824 0
0.678736 0.46418 0
0.64569 0.562116 0
0.464766 0.473786 0
0.571728 0.468488 0
0.623513 0.371384 0
0.874583 0.367223 0
0.911222 0.550712 0
0.73397 0.556944 0
0.74909 0.368817 0
0.892902 0.458984 0
0.822502 0.553097 0
0.678736 0.46418 0
0.785794 0.460972 0
0.874583 0.367223 0
1.12552 0.367223 0
1.08888 0.550713 0
0.911222 0.550712 0
1.00005 0.366686 0
1.1072 0.458985 0
1.00005 0.54991 0
0.892902 0.458984 0
1.00005 0.458315 0
1.12552 0.367223 0
1.37659 0.371385 0
1.26613 0.556946 0
1.08888 0.550713 0
1.25101 0.368818 0
1.32137 0.464181 0
1.1776 0.553099 0
1.1072 0.458985 0
1.21431 0.460974 0
1.37659 0.371385 0
1.62829 0.379038 0
1.44237 0.568489 0
1.26613 0.556946 0
1.50232 0.374825 0
1.53534 0.473786 0
1.35441 0.562117 0
1.32137 0.464181 0
1.42838 0.468489 0
0.557734 0.568489 0
0.73397 0.556944 0
0.844412 0.742299 0
0.743712 0.757747 0
0.64569 0.562116 0
0.789214 0.649667 0
0.793616 0.749241 0
0.650742 0.663108 0
0.719677 0.655695 0
0.73397 0.556944 0
0.911222 0.550712 0
0.947846 0.733894 0
0.844412 0.742299 0
0.822502 0.553097 0
0.929541 0.642381 0
0.895892 0.737115 0
0.789214 0.649667 0
0.859213 0.645172 0
0.911222 0.550712 0
1.08888 0.550713 0
1.05226 0.733896 0
0.947846 0.733894 0
1.00005 0.54991 0
1.07057 0.642382 0
1.00006 0.73281 0
0.929541 0.642381 0
1.00005 0.641441 0
1.08888 0.550713 0
1.26613 0.556946 0
1.15569 0.742301 0
1.05226 0.733896 0
1.1776 0.553099 0
1.21089 0.649669 0
1.10422 0.737117 0
1.07057 0.642382 0
1.14089 0.645174 0
1.26613 0.556946 0
1.44237 0.568489 0
1.25639 0.757747 0
1.15569 0.742301 0
1.35441 0.562117 0
1.34936 0.663108 0
1.20649 0.749243 0
1.21089 0.649669 0
1.28043 0.655696 0
0.743712 0.757747 0
0.844412 0.742299 0
0.955606 0.925779 0
0.930566 0.945305 0
0.793616 0.749241 0
0.899646 0.834623 0
0.942373 0.934496 0
0.836721 0.852256 0
0.867585 0.842547 0
0.844412 0.742299 0
0.947846 0.733894 0
0.984802 0.915478 0
0.955606 0.925779 0
0.895892 0.737115 0
0.966176 0.825073 0
0.969869 0.919387 0
0.899646 0.834623 0
0.932607 0.828725 0
0.947846 0.733894 0
1.05226 0.733896 0
1.01531 0.91548 0
0.984802 0.915478 0
1.00006 0.73281 0
1.03394 0.825075 0
1.00006 0.914168 0
0.966176 0.825073 0
1.00006 0.823845 0
1.05226 0.733896 0
1.15569 0.742301 0
1.0445 0.925782 0
1.01531 0.91548 0
1.10422 0.737117 0
1.10046 0.834626 0
1.03024 0.91939 0
1.03394 0.825075 0
1.0675 0.828728 0
1.15569 0.742301 0
1.25639 0.757747 0
1.06954 0.945305 0
1.0445 0.925782 0
1.20649 0.749243 0
1.16338 0.852256 0
1.05773 0.934498 0
1.10046 0.834626 0
1.13252 0.842549 0
      </DataArray>
    </Points>
    <Cells>
      <DataArray type="Int32" Name="connectivity" format="ascii">
0 1 2 3 4 5 6 7 8 
9 10 11 12 13 14 15 16 17 
18 19 20 21 22 23 24 25 26 
27 28 29 30 31 32 33 34 35 
36 37 38 39 40 41 42 43 44 
45 46 47 48 49 50 51 52 53 
54 55 56 57 58 59 60 61 62 
63 64 65 66 67 68 69 70 71 
72 73 74 75 76 77 78 79 80 
81 82 83 84 85 86 87 88 89 
90 91 92 93 94 95 96 97 98 
99 100 101 102 103 104 105 106 107 
108 109 110 111 112 113 114 115 116 
117 118 119 120 121 122 123 124 125 
126 127 128 129 130 131 132 133 134 
135 136 137 138 139 140 141 142 143 
144 145 146 147 148 149 150 151 152 
153 154 155 156 157 158 159 160 161 
162 163 164 165 166 167 168 169 170 
171 172 173 174 175 176 177 178 179 
180 181 182 183 184 185 186 187 188 
189 190 191 192 193 194 195 196 197 
198 199 200 201 202 203 204 205 206 
207 208 209 210 211 212 213 214 215 
216 217 218 219 220 221 222 223 224 
225 226 227 228 229 230 231 232 233 
234 235 236 237 238 239 240 241 242 
243 244 245 246 247 248 249 250 251 
252 253 254 255 256 257 258 259 260 
261 262 263 264 265 266 267 268 269 
270 271 272 273 274 275 276 277 278 
279 280 281 282 283 284 285 286 287 
288 289 290 291 292 293 294 295 296 
297 298 299 300 301 302 303 304 305 
306 307 308 309 310 311 312 313 314 
315 316 317 318 319 320 321 322 323 
324 325 326 327 328 329 330 331 332 
333 334 335 336 337 338 339 340 341 
342 343 344 345 346 347 348 349 350 
351 352 353 354 355 356 357 358 359 
360 361 362 363 364 365 366 367 368 
369 370 371 372 373 374 375 376 377 
378 379 380 381 382 383 384 385 386 
387 388 389 390 391 392 393 394 395 
396 397 398 399 400 401 402 403 404 
405 406 407 408 409 410 411 412 413 
414 415 416 417 418 419 420 421 422 
423 424 425 426 427 428 429 430 431 
432 433 434 435 436 437 438 439 440 
441 442 443 444 445 446 447 448 449 
450 451 452 453 454 455 456 457 458 
459 460 461 462 463 464 465 466 467 
468 469 470 471 472 473 474 475 476 
477 478 479 480 481 482 483 484 485 
486 487 488 489 490 491 492 493 494 
495 496 497 498 499 500 501 502 503 
504 505 506 507 508 509 510 511 512 
513 514 515 516 517 518 519 520 521 
522 523 524 525 526 527 528 529 530 
531 532 533 534 535 536 537 538 539 
540 541 542 543 544 545 546 547 548 
549 550 551 552 553 554 555 556 557 
558 559 560 561 562 563 564 565 566 
567 568 569 570 571 572 573 574 575 
576 577 578 579 580 581 582 583 584 
585 586 587 588 589 590 591 592 593 
594 595 596 597 598 599 600 601 602 
603 604 605 606 607 608 609 610 611 
612 613 614 615 616 617 618 619 620 
621 622 623 624 625 626 627 628 629 
630 631 632 633 634 635 636 637 638 
639 640 641 642 643 644 645 646 647 
648 649 650 651 652 653 654 655 656 
657 658 659 660 661 662 663 664 665 
666 667 668 669 670 671 672 673 674 
675 676 677 678 679 680 681 682 683 
684 685 686 687 688 689 690 691 692 
693 694 695 696 697 698 699 700 701 
702 703 704 705 706 707 708 709 710 
711 712 713 714 715 716 717 718 719 
720 721 722 723 724 725 726 727 728 
729 730 731 732 733 734 735 736 737 
738 739 740 741 742 743 744 745 746 
747 748 749 750 751 752 753 754 755 
756 757 758 759 760 761 762 763 764 
765 766 767 768 769 770 771 772 773 
774 775 776 777 778 779 780 781 782 
783 784 785 786 787 788 789 790 791 
792 793 794 795 796 797 798 799 800 
801 802 803 804 805 806 807 808 809 
810 811 812 813 814 815 816 817 818 
819 820 821 822 823 824 825 826 827 
828 829 830 831 832 833 834 835 836 
837 838 839 840 841 842 843 844 845 
846 847 848 849 850 851 852 853 854 
855 856 857 858 859 860 861 862 863 
864 865 866 867 868 869 870 871 872 
873 874 875 876 877 878 879 880 881 
882 883 884 885 886 887 888 889 890 
891 892 893 894 895 896 897 898 899 
      </DataArray>
      <DataArray type="Int32" Name="offsets" format="ascii">
9
18
27
36
45
54
63
72
81
90
99
108
117
126
135
144
153
162
171
180
189
198
207
216
225
234
243
252
261
270
279
288
297
306
315
324
333
342
351
360
369
378
387
396
405
414
423
432
441
450
459
468
477
486
495
504
513
522
531
540
549
558
567
576
585
594
603
612
621
630
639
648
657
666
675
684
693
702
711
720
729
738
747
756
765
774
783
792
801
810
819
828
837
846
855
864
873
882
891
900
      </DataArray>
      <DataArray type="UInt8" Name="types" format="ascii">
70
70
70
70
70
70
70
70
70
70
70
70
70
70
70
70
70
70
70
70
70
70
70
70
70
70
70
70
70
70
70
70
70
70
70
70
70
70
70
70
70
70
70
70
70
70
70
70
70
70
70
70
70
70
70
70
70
70
70
70
70
70
70
70
70
70
70
70
70
70
70
70
70
70
70
70
70
70
70
70
70
70
70
70
70
70
70
70
70
70
70
70
70
70
70
70
70
70
70
70
      </DataArray>
    </Cells>
    <PointData>
      <DataArray type="Float64" NumberOfComponents="2" Name="Displacement" format="ascii">
0 0
2.44523e-05 0.00370851
0.000220694 0.0102185
0.000137995 0.00812175
7.56281e-06 0.00186434
0.000105342 0.00697133
0.000179843 0.00916576
3.53643e-05 0.00407966
6.50362e-05 0.00553367
2.44523e-05 0.00370851
9.93555e-05 0.00732273
0.000295237 0.0123479
0.000220694 0.0102185
6.18712e-05 0.0055184
0.000178114 0.00983615
0.000256205 0.0112793
0.000105342 0.00697133
0.000141718 0.00840202
9.93555e-05 0.00732273
0.000160682 0.0109158
0.000402874 0.0144716
0.000295237 0.0123479
0.000120985 0.00914131
0.000274651 0.0126805
0.000346248 0.0134194
0.000178114 0.00983615
0.000221781 0.0112748
0.000160682 0.0109158
0.000280778 0.0143154
0.000586313 0.0165371
0.000402874 0.0144716
0.000239948 0.0126052
0.000407826 0.0154098
0.000466748 0.0154935
0.000274651 0.0126805
0.000337006 0.0140319
0.000280778 0.0143154
0.00127685 0.0160159
0.00165892 0.0173974
0.000586313 0.0165371
0.000360442 0.0158952
0.00147989 0.0166627
0.000874943 0.0174745
0.000407826 0.0154098
0.000599568 0.0166696
0.000137995 0.00812175
0.000220694 0.0102185
0.000484514 0.0166364
0.000458173 0.0159804
0.000179843 0.00916576
0.000363819 0.0134418
0.000469355 0.0162971
0.000304388 0.0120924
0.000334989 0.0127551
0.000220694 0.0102185
0.000295237 0.0123479
0.000537089 0.0173503
0.000484514 0.0166364
0.000256205 0.0112793
0.000429295 0.0148544
0.000504234 0.0169889
0.000363819 0.0134418
0.000392223 0.0141431
0.000295237 0.0123479
0.000402874 0.0144716
0.000660142 0.0180805
0.000537089 0.0173503
0.000346248 0.0134194
0.000545493 0.016277
0.000590607 0.0177166
0.000429295 0.0148544
0.000482561 0.0155701
0.000402874 0.0144716
0.000586313 0.0165371
0.000960042 0.0187969
0.000660142 0.0180805
0.000466748 0.0154935
0.000793121 0.0176719
0.000755949 0.0184372
0.000545493 0.016277
0.000624669 0.0169685
0.000586313 0.0165371
0.00165892 0.0173974
0.00188541 0.0190481
0.000960042 0.0187969
0.000874943 0.0174745
0.00179741 0.0181998
0.00134644 0.0191068
0.000793121 0.0176719
0.00114562 0.0182909
0.000458173 0.0159804
0.000484514 0.0166364
0.000489843 0.0229619
0.000463863 0.0235848
0.000469355 0.0162971
0.000531139 0.019803
0.0004749 0.0232789
0.000519049 0.0197927
0.000521761 0.0197945
0.000484514 0.0166364
0.000537089 0.0173503
0.000541685 0.022315
0.000489843 0.0229619
0.000504234 0.0169889
0.000577773 0.0198334
0.000509258 0.0226402
0.000531139 0.019803
0.000547044 0.0198165
0.000537089 0.0173503
0.000660142 0.0180805
0.00066344 0.0216618
0.000541685 0.022315
0.000590607 0.0177166
0.000702562 0.0198707
0.000594627 0.0219874
0.000577773 0.0198334
0.000630885 0.0198519
0.000660142 0.0180805
0.000960042 0.0187969
0.000961948 0.021011
0.00066344 0.0216618
0.000755949 0.0184372
0.0010208 0.0199035
0.000758441 0.0213403
0.000702562 0.0198707
0.00080437 0.0198882
0.000960042 0.0187969
0.00188541 0.0190481
0.00188744 0.0207924
0.000961948 0.021011
0.00134644 0.0191068
0.00191592 0.01992
0.00134824 0.0207241
0.0010208 0.0199035
0.00141802 0.0199152
0.000463863 0.0235848
0.000489843 0.0229619
0.00019757 0.0293178
7.88813e-05 0.0312846
0.0004749 0.0232789
0.000365183 0.0261332
0.000140576 0.0303068
0.000297379 0.0274125
0.000332753 0.0267818
0.000489843 0.0229619
0.000541685 0.022315
0.000293291 0.0273063
0.00019757 0.0293178
0.000509258 0.0226402
0.000434658 0.0248067
0.000245517 0.028318
0.000365183 0.0261332
0.000396104 0.0254741
0.000541685 0.022315
0.00066344 0.0216618
0.000408266 0.0252783
0.000293291 0.0273063
0.000594627 0.0219874
0.00055095 0.023468
0.000349475 0.026286
0.000434658 0.0248067
0.000488413 0.0241344
0.00066344 0.0216618
0.000961948 0.021011
0.000590631 0.0232779
0.000408266 0.0252783
0.000758441 0.0213403
0.000796509 0.0221386
0.000472085 0.0242929
0.00055095 0.023468
0.000629076 0.0228123
0.000961948 0.021011
0.00188744 0.0207924
0.00166407 0.0224467
0.000590631 0.0232779
0.00134824 0.0207241
0.00180123 0.0216421
0.000878684 0.0223604
0.000796509 0.0221386
0.00114871 0.0215414
7.88813e-05 0.0312846
0.00019757 0.0293178
-0.000156557 0.035707
-0.000358544 0.0391187
0.000140576 0.0303068
2.5437e-05 0.0325113
-0.00025462 0.0374159
-0.000135721 0.0351939
-5.64348e-05 0.0338511
0.00019757 0.0293178
0.000293291 0.0273063
3.91404e-05 0.0323093
-0.000156557 0.035707
0.000245517 0.028318
0.000156183 0.0298084
-5.09789e-05 0.0340148
2.5437e-05 0.0325113
9.51721e-05 0.0311674
0.000293291 0.0273063
0.000408266 0.0252783
0.000154868 0.0288503
3.91404e-05 0.0323093
0.000349475 0.026286
0.00027667 0.0270763
9.55037e-05 0.0305679
0.000156183 0.0298084
0.000215522 0.0284322
0.000408266 0.0252783
0.000590631 0.0232779
0.00028527 0.0255142
0.000154868 0.0288503
0.000472085 0.0242929
0.00041249 0.0244116
0.000242826 0.0272
0.00027667 0.0270763
0.000341933 0.0257626
0.000590631 0.0232779
0.00166407 0.0224467
0.0012829 0.0238343
0.00028527 0.0255142
0.000878684 0.0223604
0.00148581 0.0231843
0.000363841 0.0239479
0.00041249 0.0244116
0.000603329 0.0231689
0.0012829 0.0238343
0.000865404 0.0249572
9.13782e-05 0.0262644
0.00028527 0.0255142
0.00108909 0.0244439
0.000113088 0.0250248
0.000187187 0.0258735
0.000363841 0.0239479
0.0002267 0.0244806
0.000865404 0.0249572
0.000338895 0.0255865
1.63911e-05 0.026945
9.13782e-05 0.0262644
0.000613152 0.0253447
2.78509e-05 0.0258748
2.93788e-05 0.0266531
0.000113088 0.0250248
4.54365e-05 0.0255213
0.000338895 0.0255865
-0.00023577 0.0255864
8.69247e-05 0.026945
1.63911e-05 0.026945
5.15557e-05 0.025668
7.5477e-05 0.0258748
5.1659e-05 0.0270484
2.78509e-05 0.0258748
5.16674e-05 0.0259984
-0.00023577 0.0255864
-0.000762188 0.024957
1.1928e-05 0.0262643
8.69247e-05 0.026945
-0.000509988 0.0253445
-9.79173e-06 0.0250247
7.39311e-05 0.0266531
7.5477e-05 0.0258748
5.78735e-05 0.0255212
-0.000762188 0.024957
-0.00117959 0.0238343
-0.000181956 0.0255142
1.1928e-05 0.0262643
-0.00098582 0.0244438
-0.000260529 0.0239479
-8.38775e-05 0.0258735
-9.79173e-06 0.0250247
-0.000123401 0.0244805
0.00028527 0.0255142
9.13782e-05 0.0262644
6.47719e-05 0.029443
0.000154868 0.0288503
0.000187187 0.0258735
0.000103343 0.0278105
0.000110344 0.0291521
0.000242826 0.0272
0.000176433 0.0275008
9.13782e-05 0.0262644
1.63911e-05 0.026945
2.45016e-05 0.0299254
6.47719e-05 0.029443
2.93788e-05 0.0266531
2.87184e-05 0.0283551
3.09673e-05 0.0297203
0.000103343 0.0278105
4.78169e-05 0.0281203
1.63911e-05 0.026945
8.69247e-05 0.026945
7.88138e-05 0.0299254
2.45016e-05 0.0299254
5.1659e-05 0.0270484
7.45879e-05 0.028355
5.1658e-05 0.0299978
2.87184e-05 0.0283551
5.1653e-05 0.0284384
8.69247e-05 0.026945
1.1928e-05 0.0262643
3.85405e-05 0.029443
7.88138e-05 0.0299254
7.39311e-05 0.0266531
-3.41198e-08 0.0278104
7.23466e-05 0.0297203
7.45879e-05 0.028355
5.54902e-05 0.0281202
1.1928e-05 0.0262643
-0.000181956 0.0255142
-5.15544e-05 0.0288503
3.85405e-05 0.029443
-8.38775e-05 0.0258735
-0.000139512 0.0272
-7.03254e-06 0.0291521
-3.41198e-08 0.0278104
-7.3121e-05 0.0275008
0.000154868 0.0288503
6.47719e-05 0.029443
-7.39678e-06 0.0328013
3.91404e-05 0.0323093
0.000110344 0.0291521
2.97227e-05 0.031112
1.37502e-05 0.0325453
9.55037e-05 0.0305679
6.08257e-05 0.0308386
6.47719e-05 0.029443
2.45016e-05 0.0299254
7.66372e-06 0.0332317
-7.39678e-06 0.0328013
3.09673e-05 0.0297203
1.8162e-05 0.0315596
-1.19475e-05 0.033049
2.97227e-05 0.031112
1.19417e-05 0.0313705
2.45016e-05 0.0299254
7.88138e-05 0.0299254
9.56484e-05 0.0332317
7.66372e-06 0.0332317
5.1658e-05 0.0299978
8.51543e-05 0.0315596
5.1656e-05 0.0332961
1.8162e-05 0.0315596
5.16585e-05 0.0316262
7.88138e-05 0.0299254
3.85405e-05 0.029443
0.000110709 0.0328013
9.56484e-05 0.0332317
7.23466e-05 0.0297203
7.35904e-05 0.031112
0.00011526 0.033049
8.51543e-05 0.0315596
9.13731e-05 0.0313705
3.85405e-05 0.029443
-5.15544e-05 0.0288503
6.41731e-05 0.0323093
0.000110709 0.0328013
-7.03254e-06 0.0291521
7.80952e-06 0.0305679
8.95629e-05 0.0325453
7.35904e-05 0.031112
4.24867e-05 0.0308386
3.91404e-05 0.0323093
-7.39678e-06 0.0328013
-0.000142718 0.0362058
-0.000156557 0.035707
1.37502e-05 0.0325453
-6.36978e-05 0.0345028
-0.000153247 0.0359544
-5.09789e-05 0.0340148
-5.87212e-05 0.0342534
-7.39678e-06 0.0328013
7.66372e-06 0.0332317
-4.51936e-05 0.0366526
-0.000142718 0.0362058
-1.19475e-05 0.033049
-1.24913e-05 0.0349328
-0.000109915 0.0364593
-6.36978e-05 0.0345028
-5.09687e-05 0.0347486
7.66372e-06 0.0332317
9.56484e-05 0.0332317
0.000148504 0.0366526
-4.51936e-05 0.0366526
5.1656e-05 0.0332961
0.000115802 0.0349328
5.16548e-05 0.0367213
-1.24913e-05 0.0349328
5.16552e-05 0.034998
9.56484e-05 0.0332317
0.000110709 0.0328013
0.000246031 0.0362058
0.000148504 0.0366526
0.00011526 0.033049
0.00016701 0.0345028
0.000213226 0.0364593
0.000115802 0.0349328
0.00015428 0.0347486
0.000110709 0.0328013
6.41731e-05 0.0323093
0.000259871 0.035707
0.000246031 0.0362058
8.95629e-05 0.0325453
0.000154292 0.0340148
0.000256561 0.0359544
0.00016701 0.0345028
0.000162034 0.0342533
-0.000156557 0.035707
-0.000142718 0.0362058
-0.000366543 0.0395938
-0.000358544 0.0391187
-0.000153247 0.0359544
-0.000244232 0.0379019
-0.000360846 0.0393456
-0.00025462 0.0374159
-0.000258308 0.0376467
-0.000142718 0.0362058
-4.51936e-05 0.0366526
-0.000171419 0.0401166
-0.000366543 0.0395938
-0.000109915 0.0364593
-9.44599e-05 0.0383818
-0.000311981 0.0398811
-0.000244232 0.0379019
-0.000193548 0.0381717
-4.51936e-05 0.0366526
0.000148504 0.0366526
0.000274721 0.0401166
-0.000171419 0.0401166
5.16548e-05 0.0367213
0.000197767 0.0383818
5.16502e-05 0.0402017
-9.44599e-05 0.0383818
5.16531e-05 0.0384568
0.000148504 0.0366526
0.000246031 0.0362058
0.000469857 0.0395938
0.000274721 0.0401166
0.000213226 0.0364593
0.000347545 0.0379019
0.000415289 0.0398812
0.000197767 0.0383818
0.000296858 0.0381717
0.000246031 0.0362058
0.000259871 0.035707
0.000461857 0.0391187
0.000469857 0.0395938
0.000256561 0.0359544
0.000357934 0.0374159
0.000464159 0.0393456
0.000347545 0.0379019
0.000361621 0.0376467
-0.00117353 0.0160159
-0.000177464 0.0143154
-0.000483 0.0165371
-0.0015556 0.0173974
-0.00025713 0.0158952
-0.000304513 0.0154098
-0.00077163 0.0174745
-0.00137658 0.0166627
-0.000496256 0.0166696
-0.000177464 0.0143154
-5.73683e-05 0.0109158
-0.00029956 0.0144716
-0.000483 0.0165371
-0.000136634 0.0126052
-0.000171338 0.0126805
-0.000363434 0.0154935
-0.000304513 0.0154098
-0.000233692 0.0140319
-5.73683e-05 0.0109158
3.95804e-06 0.00732273
-0.000191923 0.0123479
-0.00029956 0.0144716
-1.7672e-05 0.00914131
-7.48009e-05 0.00983615
-0.000242935 0.0134194
-0.000171338 0.0126805
-0.000118467 0.0112748
3.95804e-06 0.00732273
7.88611e-05 0.00370851
-0.00011738 0.0102185
-0.000191923 0.0123479
4.14424e-05 0.0055184
-2.02839e-06 0.00697133
-0.000152891 0.0112793
-7.48009e-05 0.00983615
-3.84044e-05 0.00840202
7.88611e-05 0.00370851
0.000103314 0
-3.46815e-05 0.00812175
-0.00011738 0.0102185
9.57507e-05 0.00186434
6.79491e-05 0.00407966
-7.65299e-05 0.00916576
-2.02839e-06 0.00697133
3.82773e-05 0.00553367
-0.0015556 0.0173974
-0.000483 0.0165371
-0.000856729 0.0187969
-0.0017821 0.0190481
-0.00077163 0.0174745
-0.000689808 0.0176719
-0.00124313 0.0191068
-0.0016941 0.0181998
-0.00104231 0.0182909
-0.000483 0.0165371
-0.00029956 0.0144716
-0.000556829 0.0180805
-0.000856729 0.0187969
-0.000363434 0.0154935
-0.00044218 0.016277
-0.000652636 0.0184372
-0.000689808 0.0176719
-0.000521355 0.0169685
-0.00029956 0.0144716
-0.000191923 0.0123479
-0.000433776 0.0173503
-0.000556829 0.0180805
-0.000242935 0.0134194
-0.000325982 0.0148544
-0.000487293 0.0177166
-0.00044218 0.016277
-0.000379247 0.0155701
-0.000191923 0.0123479
-0.00011738 0.0102185
-0.0003812 0.0166364
-0.000433776 0.0173503
-0.000152891 0.0112793
-0.000260506 0.0134418
-0.000400921 0.0169889
-0.000325982 0.0148544
-0.000288909 0.0141431
-0.00011738 0.0102185
-3.46815e-05 0.00812175
-0.000354859 0.0159804
-0.0003812 0.0166364
-7.65299e-05 0.00916576
-0.000201075 0.0120924
-0.000366041 0.0162971
-0.000260506 0.0134418
-0.000231675 0.0127551
-0.0017821 0.0190481
-0.000856729 0.0187969
-0.000858635 0.021011
-0.00178413 0.0207924
-0.00124313 0.0191068
-0.00091749 0.0199035
-0.00124493 0.0207241
-0.00181261 0.01992
-0.00131471 0.0199152
-0.000856729 0.0187969
-0.000556829 0.0180805
-0.000560126 0.0216618
-0.000858635 0.021011
-0.000652636 0.0184372
-0.000599248 0.0198707
-0.000655128 0.0213403
-0.00091749 0.0199035
-0.000701057 0.0198882
-0.000556829 0.0180805
-0.000433776 0.0173503
-0.000438372 0.022315
-0.000560126 0.0216618
-0.000487293 0.0177166
-0.000474459 0.0198334
-0.000491314 0.0219874
-0.000599248 0.0198707
-0.000527571 0.0198519
-0.000433776 0.0173503
-0.0003812 0.0166364
-0.00038653 0.0229619
-0.000438372 0.022315
-0.000400921 0.0169889
-0.000427826 0.019803
-0.000405944 0.0226402
-0.000474459 0.0198334
-0.000443731 0.0198165
-0.0003812 0.0166364
-0.000354859 0.0159804
-0.000360549 0.0235848
-0.00038653 0.0229619
-0.000366041 0.0162971
-0.000415735 0.0197927
-0.000371587 0.0232789
-0.000427826 0.019803
-0.000418447 0.0197945
-0.00178413 0.0207924
-0.000858635 0.021011
-0.000487318 0.0232779
-0.00156076 0.0224467
-0.00124493 0.0207241
-0.000693196 0.0221386
-0.000775372 0.0223604
-0.00169791 0.0216421
-0.0010454 0.0215414
-0.000858635 0.021011
-0.000560126 0.0216618
-0.000304952 0.0252783
-0.000487318 0.0232779
-0.000655128 0.0213403
-0.000447636 0.023468
-0.000368771 0.0242929
-0.000693196 0.0221386
-0.000525763 0.0228123
-0.000560126 0.0216618
-0.000438372 0.022315
-0.000189978 0.0273063
-0.000304952 0.0252783
-0.000491314 0.0219874
-0.000331344 0.0248067
-0.000246162 0.026286
-0.000447636 0.023468
-0.000385099 0.0241344
-0.000438372 0.022315
-0.00038653 0.0229619
-9.42567e-05 0.0293178
-0.000189978 0.0273063
-0.000405944 0.0226402
-0.00026187 0.0261332
-0.000142204 0.028318
-0.000331344 0.0248067
-0.000292791 0.0254741
-0.00038653 0.0229619
-0.000360549 0.0235848
2.44321e-05 0.0312846
-9.42567e-05 0.0293178
-0.000371587 0.0232789
-0.000194065 0.0274125
-3.72629e-05 0.0303068
-0.00026187 0.0261332
-0.000229439 0.0267818
-0.00156076 0.0224467
-0.000487318 0.0232779
-0.000181956 0.0255142
-0.00117959 0.0238343
-0.000775372 0.0223604
-0.000309177 0.0244116
-0.000260529 0.0239479
-0.00138249 0.0231843
-0.000500016 0.0231689
-0.000487318 0.0232779
-0.000304952 0.0252783
-5.15544e-05 0.0288503
-0.000181956 0.0255142
-0.000368771 0.0242929
-0.000173356 0.0270763
-0.000139512 0.0272
-0.000309177 0.0244116
-0.000238619 0.0257626
-0.000304952 0.0252783
-0.000189978 0.0273063
6.41731e-05 0.0323093
-5.15544e-05 0.0288503
-0.000246162 0.026286
-5.28694e-05 0.0298084
7.80952e-06 0.0305679
-0.000173356 0.0270763
-0.000112208 0.0284322
-0.000189978 0.0273063
-9.42567e-05 0.0293178
0.000259871 0.035707
6.41731e-05 0.0323093
-0.000142204 0.028318
7.78765e-05 0.0325113
0.000154292 0.0340148
-5.28694e-05 0.0298084
8.14128e-06 0.0311674
-9.42567e-05 0.0293178
2.44321e-05 0.0312846
0.000461857 0.0391187
0.000259871 0.035707
-3.72629e-05 0.0303068
0.000239034 0.0351939
0.000357934 0.0374159
7.78765e-05 0.0325113
0.000159748 0.0338511
0 0
-1.21356e-05 0
2.41839e-06 0.00354645
2.44523e-05 0.00370851
-1.63391e-06 0
-8.47147e-06 0.00178089
1.68224e-05 0.00362183
7.56281e-06 0.00186434
7.21591e-07 0.00182113
-1.21356e-05 0
5.22213e-06 0
1.19006e-05 0.003391
2.41839e-06 0.00354645
-1.44092e-05 0
7.96283e-06 0.00169909
-3.20709e-06 0.0034613
-8.47147e-06 0.00178089
-1.02439e-05 0.00173585
5.22213e-06 0
9.80893e-05 0
9.1412e-05 0.003391
1.19006e-05 0.003391
5.16554e-05 0
9.53491e-05 0.00169909
5.16561e-05 0.00336557
7.96283e-06 0.00169909
5.16557e-05 0.00168582
9.80893e-05 0
0.00011545 0
0.000100896 0.00354646
9.1412e-05 0.003391
0.000117722 0
0.000111785 0.00178089
0.000106521 0.00346131
9.53491e-05 0.00169909
0.000113557 0.00173586
0.00011545 0
0.000103314 0
7.88611e-05 0.00370851
0.000100896 0.00354646
0.000104948 0
9.57507e-05 0.00186434
8.64911e-05 0.00362183
0.000111785 0.00178089
0.000102592 0.00182114
2.44523e-05 0.00370851
2.41839e-06 0.00354645
3.27307e-05 0.00703247
9.93555e-05 0.00732273
1.68224e-05 0.00362183
1.77649e-05 0.00529893
6.51722e-05 0.00718955
6.18712e-05 0.0055184
4.18643e-05 0.00541232
2.41839e-06 0.00354645
1.19006e-05 0.003391
2.153e-05 0.00674145
3.27307e-05 0.00703247
-3.20709e-06 0.0034613
1.71606e-05 0.0050744
1.54533e-05 0.00686804
1.77649e-05 0.00529893
6.3484e-06 0.00517414
1.19006e-05 0.003391
9.1412e-05 0.003391
8.17825e-05 0.00674147
2.153e-05 0.00674145
5.16561e-05 0.00336557
8.61512e-05 0.00507441
5.16562e-05 0.00669635
1.71606e-05 0.0050744
5.16557e-05 0.00503857
9.1412e-05 0.003391
0.000100896 0.00354646
7.05823e-05 0.00703249
8.17825e-05 0.00674147
0.000106521 0.00346131
8.55485e-05 0.00529895
8.78593e-05 0.00686806
8.61512e-05 0.00507441
9.69642e-05 0.00517415
0.000100896 0.00354646
7.88611e-05 0.00370851
3.95804e-06 0.00732273
7.05823e-05 0.00703249
8.64911e-05 0.00362183
4.14424e-05 0.0055184
3.81412e-05 0.00718957
8.55485e-05 0.00529895
6.14494e-05 0.00541233
9.93555e-05 0.00732273
3.27307e-05 0.00703247
6.79082e-05 0.0104169
0.000160682 0.0109158
6.51722e-05 0.00718955
4.54371e-05 0.00873989
0.000114815 0.0106641
0.000120985 0.00914131
8.17036e-05 0.0089453
3.27307e-05 0.00703247
2.153e-05 0.00674145
2.54622e-05 0.00999062
6.79082e-05 0.0104169
1.54533e-05 0.00686804
2.33433e-05 0.00838293
3.29459e-05 0.0101738
4.54371e-05 0.00873989
2.23754e-05 0.00853618
2.153e-05 0.00674145
8.17825e-05 0.00674147
7.78533e-05 0.00999064
2.54622e-05 0.00999062
5.16562e-05 0.00669635
7.99731e-05 0.00838295
5.1658e-05 0.00992568
2.33433e-05 0.00838293
5.16585e-05 0.00832862
8.17825e-05 0.00674147
7.05823e-05 0.00703249
3.54044e-05 0.0104169
7.78533e-05 0.00999064
8.78593e-05 0.00686806
5.78763e-05 0.00873992
7.03682e-05 0.0101738
7.99731e-05 0.00838295
8.09396e-05 0.00853621
7.05823e-05 0.00703249
3.95804e-06 0.00732273
-5.73683e-05 0.0109158
3.54044e-05 0.0104169
3.81412e-05 0.00718957
-1.7672e-05 0.00914131
-1.15032e-05 0.0106641
5.78763e-05 0.00873992
2.16091e-05 0.00894531
0.000160682 0.0109158
6.79082e-05 0.0104169
8.85495e-05 0.0135951
0.000280778 0.0143154
0.000114815 0.0106641
0.000101195 0.0120511
0.000183415 0.0139723
0.000239948 0.0126052
0.000173815 0.0123349
6.79082e-05 0.0104169
2.54622e-05 0.00999062
1.55819e-05 0.0129319
8.85495e-05 0.0135951
3.29459e-05 0.0101738
2.80038e-05 0.0115389
2.7592e-05 0.013217
0.000101195 0.0120511
4.63459e-05 0.0117612
2.54622e-05 0.00999062
7.78533e-05 0.00999064
8.77339e-05 0.0129319
1.55819e-05 0.0129319
5.1658e-05 0.00992568
7.53026e-05 0.011539
5.16591e-05 0.0128308
2.80038e-05 0.0115389
5.16531e-05 0.0114598
7.78533e-05 0.00999064
3.54044e-05 0.0104169
1.47568e-05 0.0135952
8.77339e-05 0.0129319
7.03682e-05 0.0101738
2.11439e-06 0.0120512
7.5718e-05 0.013217
7.53026e-05 0.011539
5.69613e-05 0.0117612
3.54044e-05 0.0104169
-5.73683e-05 0.0109158
-0.000177464 0.0143154
1.47568e-05 0.0135952
-1.15032e-05 0.0106641
-0.000136634 0.0126052
-8.01055e-05 0.0139723
2.11439e-06 0.0120512
-7.05033e-05 0.0123349
0.000280778 0.0143154
8.85495e-05 0.0135951
0.000860449 0.0149
0.00127685 0.0160159
0.000183415 0.0139723
0.000111248 0.0148316
0.00108332 0.0154098
0.000360442 0.0158952
0.000224009 0.0153695
8.85495e-05 0.0135951
1.55819e-05 0.0129319
0.000336968 0.0142756
0.000860449 0.0149
2.7592e-05 0.013217
2.74554e-05 0.0139907
0.000609518 0.0145154
0.000111248 0.0148316
4.44089e-05 0.0143405
1.55819e-05 0.0129319
8.77339e-05 0.0129319
-0.000233841 0.0142757
0.000336968 0.0142756
5.16591e-05 0.0128308
7.58725e-05 0.0139908
5.15564e-05 0.0141947
2.74554e-05 0.0139907
5.16674e-05 0.0138684
8.77339e-05 0.0129319
1.47568e-05 0.0135952
-0.000757232 0.0149002
-0.000233841 0.0142757
7.5718e-05 0.013217
-7.95173e-06 0.0148317
-0.000506353 0.0145156
7.58725e-05 0.0139908
5.89014e-05 0.0143406
1.47568e-05 0.0135952
-0.000177464 0.0143154
-0.00117353 0.0160159
-0.000757232 0.0149002
-8.01055e-05 0.0139723
-0.00025713 0.0158952
-0.00098005 0.0154099
-7.95173e-06 0.0148317
-0.00012071 0.0153696
      </DataArray> 
      <DataArray type="Float64" NumberOfComponents="4" Name="CauchyStress" format="ascii">
0.065748 20.7537 0 -0.0139389
-0.0918053 20.4611 0 0.0948983
-0.081095 20.4643 0 0.203701
0.00934076 20.6493 0 -0.00898558
-0.047489 20.6797 0 0.038827
-0.0506469 20.5046 0 0.0929023
-0.00419655 20.497 0 0.124776
-0.0691261 20.8291 0 0.0114279
0.0306319 20.6219 0 0.0513687
-0.0918053 20.4611 0 0.0948983
-0.121228 20.5107 0 0.0265521
-0.13398 20.5697 0 0.372441
-0.081095 20.4643 0 0.203701
0.0337323 20.4303 0 -0.0170066
-0.206128 20.5602 0 0.213905
-0.154737 20.4997 0 0.278361
-0.0506469 20.5046 0 0.0929023
-0.158432 20.5067 0 0.123536
-0.121228 20.5107 0 0.0265521
-0.515455 20.4162 0 0.00476737
-0.318748 20.9388 0 0.318941
-0.13398 20.5697 0 0.372441
-0.530416 20.4664 0 0.212522
-0.428781 20.7256 0 0.0641495
-0.146289 20.6674 0 0.422104
-0.206128 20.5602 0 0.213905
-0.310317 20.5792 0 0.286959
-0.515455 20.4162 0 0.00476737
-1.74065 21.9313 0 -0.252471
-0.475054 22.7147 0 1.24722
-0.318748 20.9388 0 0.318941
-0.337105 20.8048 0 -0.481457
-1.44028 22.5515 0 0.460177
-0.367274 21.6339 0 0.335278
-0.428781 20.7256 0 0.0641495
-0.520564 21.3573 0 -0.20058
-1.74065 21.9313 0 -0.252471
-0.173886 21.9025 0 -7.27444
4.54833 40.757 0 -10.1089
-0.475054 22.7147 0 1.24722
-2.39747 22.4726 0 -1.70852
2.51269 30.813 0 -9.28855
0.00316426 24.2988 0 0.697572
-1.44028 22.5515 0 0.460177
-1.65291 23.5815 0 -0.442455
0.00934076 20.6493 0 -0.00898558
-0.081095 20.4643 0 0.203701
0.0721182 20.1857 0 0.217615
-0.0211916 19.906 0 0.00529698
-0.00419655 20.497 0 0.124776
-0.0466148 20.3525 0 0.285696
0.0356971 20.06 0 0.134252
-0.0115182 20.311 0 0.0267944
-0.0212262 20.308 0 0.184928
-0.081095 20.4643 0 0.203701
-0.13398 20.5697 0 0.372441
0.342683 20.4254 0 0.334747
0.0721182 20.1857 0 0.217615
-0.154737 20.4997 0 0.278361
0.0801981 20.5282 0 0.44321
0.153219 20.3037 0 0.275924
-0.0466148 20.3525 0 0.285696
-0.031628 20.4264 0 0.362039
-0.13398 20.5697 0 0.372441
-0.318748 20.9388 0 0.318941
0.628542 20.8398 0 0.431129
0.342683 20.4254 0 0.334747
-0.146289 20.6674 0 0.422104
0.0821001 20.993 0 0.526827
0.537562 20.5756 0 0.3858
0.0801981 20.5282 0 0.44321
0.164543 20.6808 0 0.505135
-0.318748 20.9388 0 0.318941
-0.475054 22.7147 0 1.24722
2.70293 22.0193 0 1.11528
0.628542 20.8398 0 0.431129
-0.367274 21.6339 0 0.335278
1.07622 22.5 0 1.61658
1.17695 21.3321 0 0.589039
0.0821001 20.993 0 0.526827
0.294847 21.6209 0 0.724954
-0.475054 22.7147 0 1.24722
4.54833 40.757 0 -10.1089
5.46497 57.8255 0 -5.3229
2.70293 22.0193 0 1.11528
0.00316426 24.2988 0 0.697572
5.44014 50.4589 0 -8.9254
4.26196 24.6286 0 0.947623
1.07622 22.5 0 1.61658
2.1882 24.6413 0 1.30129
-0.0211916 19.906 0 0.00529698
0.0721182 20.1857 0 0.217615
0.072192 20.0833 0 -0.0669856
-0.0226347 19.6907 0 -0.00520017
0.0356971 20.06 0 0.134252
0.13041 20.0633 0 0.0747121
0.0352061 19.9063 0 -0.0489977
-0.0149478 19.6329 0 -0.000980612
0.0699959 19.8831 0 0.0418419
0.0721182 20.1857 0 0.217615
0.342683 20.4254 0 0.334747
0.342399 20.398 0 -0.108951
0.072192 20.0833 0 -0.0669856
0.153219 20.3037 0 0.275924
0.453704 20.3521 0 0.112527
0.15341 20.2432 0 -0.0787263
0.13041 20.0633 0 0.0747121
0.235294 20.2153 0 0.0981187
0.342683 20.4254 0 0.334747
0.628542 20.8398 0 0.431129
0.626145 20.8543 0 -0.202464
0.342399 20.398 0 -0.108951
0.537562 20.5756 0 0.3858
0.858781 20.7155 0 0.114219
0.536376 20.5731 0 -0.149438
0.453704 20.3521 0 0.112527
0.69262 20.4928 0 0.117902
0.628542 20.8398 0 0.431129
2.70293 22.0193 0 1.11528
2.70492 22.042 0 -0.939875
0.626145 20.8543 0 -0.202464
1.17695 21.3321 0 0.589039
3.36862 21.7215 0 0.0890917
1.17478 21.3554 0 -0.382546
0.858781 20.7155 0 0.114219
1.54977 21.1261 0 0.103555
2.70293 22.0193 0 1.11528
5.46497 57.8255 0 -5.3229
5.49271 57.8986 0 5.40009
2.70492 22.042 0 -0.939875
4.26196 24.6286 0 0.947623
5.40421 60.6556 0 0.037205
4.27183 24.6456 0 -0.82177
3.36862 21.7215 0 0.0890917
5.10798 24.5258 0 0.0655721
-0.0226347 19.6907 0 -0.00520017
0.072192 20.0833 0 -0.0669856
-0.0682354 20.1575 0 -0.0664394
0.00850914 20.0293 0 -0.000627366
0.0352061 19.9063 0 -0.0489977
-0.0436939 20.1477 0 -0.136732
0.00254184 20.0468 0 -0.0556561
-0.0103517 19.8868 0 -0.0261613
-0.0191803 20.0033 0 -0.101326
0.072192 20.0833 0 -0.0669856
0.342399 20.398 0 -0.108951
-0.120513 20.4864 0 -0.14614
-0.0682354 20.1575 0 -0.0664394
0.15341 20.2432 0 -0.0787263
0.0824196 20.4732 0 -0.216582
-0.138934 20.3154 0 -0.0868945
-0.0436939 20.1477 0 -0.136732
-0.0283962 20.3046 0 -0.165227
0.342399 20.398 0 -0.108951
0.626145 20.8543 0 -0.202464
-0.31962 20.9851 0 -0.087355
-0.120513 20.4864 0 -0.14614
0.536376 20.5731 0 -0.149438
0.0786332 21.0227 0 -0.297235
-0.139507 20.6609 0 -0.182642
0.0824196 20.4732 0 -0.216582
0.16445 20.6762 0 -0.267451
0.626145 20.8543 0 -0.202464
2.70492 22.042 0 -0.939875
-0.47944 22.792 0 -1.08183
-0.31962 20.9851 0 -0.087355
1.17478 21.3554 0 -0.382546
1.0764 22.5478 0 -1.44671
-0.372762 21.709 0 -0.128908
0.0786332 21.0227 0 -0.297235
0.290178 21.6689 0 -0.519204
2.70492 22.042 0 -0.939875
5.49271 57.8986 0 5.40009
4.60728 40.9108 0 10.1948
-0.47944 22.792 0 -1.08183
4.27183 24.6456 0 -0.82177
5.49017 50.5865 0 9.00879
0.00913491 24.3608 0 -0.592237
1.0764 22.5478 0 -1.44671
2.20032 24.6783 0 -1.18612
0.00850914 20.0293 0 -0.000627366
-0.0682354 20.1575 0 -0.0664394
-0.0623668 19.9772 0 -0.0397123
0.0631249 19.912 0 -0.00126061
0.00254184 20.0468 0 -0.0556561
-0.0212015 20.1025 0 0.0180715
-0.0462461 20.0367 0 -0.0371635
-0.0739629 20.0593 0 -0.0294188
0.0447719 20.0522 0 -0.00637645
-0.0682354 20.1575 0 -0.0664394
-0.120513 20.4864 0 -0.14614
-0.0469507 20.3612 0 0.180527
-0.0623668 19.9772 0 -0.0397123
-0.138934 20.3154 0 -0.0868945
-0.169633 20.446 0 0.00713452
0.104921 20.1136 0 0.158327
-0.0212015 20.1025 0 0.0180715
-0.118234 20.2575 0 0.0522425
-0.120513 20.4864 0 -0.14614
-0.31962 20.9851 0 -0.087355
-0.49115 20.4977 0 0.231845
-0.0469507 20.3612 0 0.180527
-0.139507 20.6609 0 -0.182642
-0.421465 20.7893 0 0.17004
-0.483062 20.4531 0 0.023746
-0.169633 20.446 0 0.00713452
-0.288963 20.5703 0 -0.0473536
-0.31962 20.9851 0 -0.087355
-0.47944 22.792 0 -1.08183
-1.75271 22.0688 0 0.414252
-0.49115 20.4977 0 0.231845
-0.372762 21.709 0 -0.128908
-1.44991 22.6595 0 -0.297271
-0.331856 20.9363 0 0.692251
-0.421465 20.7893 0 0.17004
-0.523342 21.4605 0 0.409007
-0.47944 22.792 0 -1.08183
4.60728 40.9108 0 10.1948
-0.143789 22.0394 0 7.34305
-1.75271 22.0688 0 0.414252
0.00913491 24.3608 0 -0.592237
2.56455 30.9674 0 9.36942
-2.41064 22.5854 0 1.80672
-1.44991 22.6595 0 -0.297271
-1.65785 23.6699 0 0.541707
1.21311 24.4248 0 9.17789
-6.66049 8.3615 0 4.21674
-1.53413 20.339 0 2.7024
-1.48043 22.4941 0 0.764811
-2.05683 16.0701 0 6.9818
-1.97926 17.5313 0 4.54834
-1.84105 21.9042 0 1.71368
-2.48673 22.4554 0 1.70411
-2.60713 20.6677 0 3.35128
-6.66049 8.3615 0 4.21674
-16.3086 -0.793426 -0 0.381589
0.281849 15.3758 0 1.9095
-1.53413 20.339 0 2.7024
-11.9172 2.5897 -0 1.78293
0.301906 10.0137 0 2.80643
-0.74653 17.9008 0 2.97741
-1.97926 17.5313 0 4.54834
-0.896557 13.6248 0 4.57115
-16.3086 -0.793426 -0 0.381589
-16.3068 -0.792053 -0 -0.383082
0.281749 15.3761 0 -1.90985
0.281849 15.3758 0 1.9095
-18.0961 -1.95564 -0 -0.000707323
0.301597 10.0143 0 -2.80692
0.856579 14.351 0 -0.000226214
0.301906 10.0137 0 2.80643
0.939646 8.56803 0 -0.000379205
-16.3068 -0.792053 -0 -0.383082
-6.65874 8.36424 0 -4.21817
-1.5342 20.3393 0 -2.70241
0.281749 15.3761 0 -1.90985
-11.9149 2.59222 -0 -1.78462
-1.97956 17.5318 0 -4.54816
-0.746672 17.9011 0 -2.97755
0.301597 10.0143 0 -2.80692
-0.897049 13.6256 0 -4.57121
-6.65874 8.36424 0 -4.21817
1.21323 24.4249 0 -9.17793
-1.48044 22.4942 0 -0.764814
-1.5342 20.3393 0 -2.70241
-2.05589 16.0719 0 -6.98258
-2.48674 22.4556 0 -1.70416
-1.84104 21.9042 0 -1.71366
-1.97956 17.5318 0 -4.54816
-2.60719 20.6678 0 -3.35109
-1.48043 22.4941 0 0.764811
-1.53413 20.339 0 2.7024
-0.430517 20.1829 0 0.81073
-0.355411 20.7002 0 0.402322
-1.84105 21.9042 0 1.71368
-0.891382 20.0579 0 1.17034
-0.456851 20.4514 0 0.516274
-0.609609 20.4144 0 0.292184
-0.92078 20.4583 0 0.590025
-1.53413 20.339 0 2.7024
0.281849 15.3758 0 1.9095
0.141168 18.6596 0 0.655399
-0.430517 20.1829 0 0.81073
-0.74653 17.9008 0 2.97741
0.0704608 17.5885 0 1.00358
-0.240427 19.5138 0 0.967857
-0.891382 20.0579 0 1.17034
-0.543849 18.9605 0 1.47608
0.281849 15.3758 0 1.9095
0.281749 15.3761 0 -1.90985
0.141158 18.6596 0 -0.655377
0.141168 18.6596 0 0.655399
0.856579 14.351 0 -0.000226214
0.0704695 17.5886 0 -1.00359
0.380996 18.3013 0 1.26701e-05
0.0704608 17.5885 0 1.00358
0.445668 17.0138 0 -8.29257e-06
0.281749 15.3761 0 -1.90985
-1.5342 20.3393 0 -2.70241
-0.430534 20.1829 0 -0.810717
0.141158 18.6596 0 -0.655377
-0.746672 17.9011 0 -2.97755
-0.891366 20.058 0 -1.17035
-0.240443 19.5138 0 -0.967842
0.0704695 17.5886 0 -1.00359
-0.543836 18.9605 0 -1.47609
-1.5342 20.3393 0 -2.70241
-1.48044 22.4942 0 -0.764814
-0.355402 20.7003 0 -0.402332
-0.430534 20.1829 0 -0.810717
-1.84104 21.9042 0 -1.71366
-0.60963 20.4144 0 -0.292166
-0.456861 20.4514 0 -0.516265
-0.891366 20.058 0 -1.17035
-0.920775 20.4584 0 -0.590033
-0.355411 20.7002 0 0.402322
-0.430517 20.1829 0 0.81073
-0.100137 20.1932 0 0.534129
-0.146442 20.2078 0 0.0531186
-0.456851 20.4514 0 0.516274
-0.222137 20.1791 0 0.703742
-0.176091 20.323 0 0.313319
-0.263583 20.8182 0 0.317583
-0.285562 20.4679 0 0.503338
-0.430517 20.1829 0 0.81073
0.141168 18.6596 0 0.655399
0.265772 19.4464 0 0.392286
-0.100137 20.1932 0 0.534129
-0.240427 19.5138 0 0.967857
0.201342 19.086 0 0.503681
0.0560171 19.8527 0 0.603209
-0.222137 20.1791 0 0.703742
-0.063082 19.6727 0 0.76855
0.141168 18.6596 0 0.655399
0.141158 18.6596 0 -0.655377
0.265772 19.4464 0 -0.392295
0.265772 19.4464 0 0.392286
0.380996 18.3013 0 1.26701e-05
0.201332 19.086 0 -0.503703
0.384326 19.2747 0 -3.51653e-06
0.201342 19.086 0 0.503681
0.360596 18.8425 0 -1.19919e-05
0.141158 18.6596 0 -0.655377
-0.430534 20.1829 0 -0.810717
-0.100134 20.1932 0 -0.534135
0.265772 19.4464 0 -0.392295
-0.240443 19.5138 0 -0.967842
-0.22215 20.1791 0 -0.70374
0.0560184 19.8527 0 -0.603218
0.201332 19.086 0 -0.503703
-0.0630979 19.6727 0 -0.768563
-0.430534 20.1829 0 -0.810717
-0.355402 20.7003 0 -0.402332
-0.146445 20.2078 0 -0.053116
-0.100134 20.1932 0 -0.534135
-0.456861 20.4514 0 -0.516265
-0.263575 20.8182 0 -0.31759
-0.176089 20.323 0 -0.313322
-0.22215 20.1791 0 -0.70374
-0.285567 20.4679 0 -0.503329
-0.146442 20.2078 0 0.0531186
-0.100137 20.1932 0 0.534129
0.126494 20.0938 0 0.244355
0.0454348 20.123 0 0.0885861
-0.176091 20.323 0 0.313319
0.0244411 20.1786 0 0.369793
0.0376354 20.0605 0 0.0981621
0.00150696 19.9221 0 0.0104584
-0.0432847 20.1962 0 0.168613
-0.100137 20.1932 0 0.534129
0.265772 19.4464 0 0.392286
0.50648 19.8609 0 0.228043
0.126494 20.0938 0 0.244355
0.0560171 19.8527 0 0.603209
0.366256 19.7115 0 0.301692
0.290574 20.0384 0 0.34254
0.0244411 20.1786 0 0.369793
0.172438 19.9891 0 0.460765
0.265772 19.4464 0 0.392286
0.265772 19.4464 0 -0.392295
0.506484 19.8609 0 -0.228033
0.50648 19.8609 0 0.228043
0.384326 19.2747 0 -3.51653e-06
0.36626 19.7115 0 -0.301678
0.627585 19.7727 0 8.78898e-06
0.366256 19.7115 0 0.301692
0.474772 19.5878 0 1.04847e-05
0.265772 19.4464 0 -0.392295
-0.100134 20.1932 0 -0.534135
0.126496 20.0938 0 -0.244356
0.506484 19.8609 0 -0.228033
0.0560184 19.8527 0 -0.603218
0.0244455 20.1785 0 -0.369795
0.290581 20.0384 0 -0.34254
0.36626 19.7115 0 -0.301678
0.172445 19.9891 0 -0.460761
-0.100134 20.1932 0 -0.534135
-0.146445 20.2078 0 -0.053116
0.0454374 20.123 0 -0.0885863
0.126496 20.0938 0 -0.244356
-0.176089 20.323 0 -0.313322
0.00150503 19.9221 0 -0.0104564
0.0376334 20.0605 0 -0.0981625
0.0244455 20.1785 0 -0.369795
-0.0432842 20.1962 0 -0.168617
0.0454348 20.123 0 0.0885861
0.126494 20.0938 0 0.244355
0.0842363 19.9668 0 -0.0285859
0.115625 19.8618 0 0.00297861
0.0376354 20.0605 0 0.0981621
0.166281 20.0098 0 0.130869
-0.0782789 20.0852 0 0.00171291
-0.0235154 20.0797 0 -0.00424321
0.0157758 19.9707 0 0.0329842
0.126494 20.0938 0 0.244355
0.50648 19.8609 0 0.228043
0.934164 19.9995 0 -0.0114151
0.0842363 19.9668 0 -0.0285859
0.290574 20.0384 0 0.34254
0.689978 19.9406 0 0.133506
0.468149 19.9958 0 0.017772
0.166281 20.0098 0 0.130869
0.400336 20.03 0 0.208997
0.50648 19.8609 0 0.228043
0.506484 19.8609 0 -0.228033
0.934181 19.9995 0 0.0114185
0.934164 19.9995 0 -0.0114151
0.627585 19.7727 0 8.78898e-06
0.689986 19.9406 0 -0.133505
1.18782 19.9816 0 5.21724e-06
0.689978 19.9406 0 0.133506
0.848889 19.8855 0 3.7322e-06
0.506484 19.8609 0 -0.228033
0.126496 20.0938 0 -0.244356
0.084247 19.9668 0 0.0285913
0.934181 19.9995 0 0.0114185
0.290581 20.0384 0 -0.34254
0.166287 20.0098 0 -0.130872
0.468174 19.9958 0 -0.0177709
0.689986 19.9406 0 -0.133505
0.400349 20.03 0 -0.209003
0.126496 20.0938 0 -0.244356
0.0454374 20.123 0 -0.0885863
0.115631 19.8618 0 -0.0029761
0.084247 19.9668 0 0.0285913
0.0376334 20.0605 0 -0.0981625
-0.0235135 20.0797 0 0.00424329
-0.078283 20.0852 0 -0.00171347
0.166287 20.0098 0 -0.130872
0.0157751 19.9707 0 -0.0329851
-0.173816 21.9025 0 7.27439
-1.74065 21.9313 0 0.252471
-0.47505 22.7147 0 -1.24722
4.54832 40.7569 0 10.1088
-2.39747 22.4726 0 1.70852
-1.44027 22.5515 0 -0.460177
0.00316998 24.2988 0 -0.697567
2.5127 30.813 0 9.28852
-1.6529 23.5815 0 0.442458
-1.74065 21.9313 0 0.252471
-0.515455 20.4162 0 -0.00476531
-0.318749 20.9388 0 -0.318942
-0.47505 22.7147 0 -1.24722
-0.33711 20.8048 0 0.481454
-0.428783 20.7256 0 -0.0641492
-0.367274 21.6339 0 -0.335281
-1.44027 22.5515 0 -0.460177
-0.520568 21.3573 0 0.200577
-0.515455 20.4162 0 -0.00476531
-0.121229 20.5107 0 -0.0265536
-0.13398 20.5697 0 -0.372441
-0.318749 20.9388 0 -0.318942
-0.530412 20.4664 0 -0.212519
-0.206127 20.5602 0 -0.213905
-0.14629 20.6674 0 -0.422104
-0.428783 20.7256 0 -0.0641492
-0.310317 20.5793 0 -0.286958
-0.121229 20.5107 0 -0.0265536
-0.0918049 20.4611 0 -0.0948972
-0.0810948 20.4643 0 -0.203701
-0.13398 20.5697 0 -0.372441
0.0337303 20.4303 0 0.0170048
-0.050647 20.5046 0 -0.0929025
-0.154737 20.4997 0 -0.278361
-0.206127 20.5602 0 -0.213905
-0.158431 20.5067 0 -0.123536
-0.0918049 20.4611 0 -0.0948972
0.0657481 20.7537 0 0.0139376
0.00934081 20.6493 0 0.00898554
-0.0810948 20.4643 0 -0.203701
-0.0474882 20.6797 0 -0.0388264
-0.0691254 20.8291 0 -0.0114272
-0.00419661 20.497 0 -0.124776
-0.050647 20.5046 0 -0.0929025
0.0306313 20.6219 0 -0.0513688
4.54832 40.7569 0 10.1088
-0.47505 22.7147 0 -1.24722
2.70293 22.0194 0 -1.11528
5.46496 57.8254 0 5.32289
0.00316998 24.2988 0 -0.697567
1.07622 22.5 0 -1.61658
4.26196 24.6286 0 -0.94762
5.44012 50.4589 0 8.92538
2.1882 24.6413 0 -1.30128
-0.47505 22.7147 0 -1.24722
-0.318749 20.9388 0 -0.318942
0.628543 20.8398 0 -0.431129
2.70293 22.0194 0 -1.11528
-0.367274 21.6339 0 -0.335281
0.0821003 20.993 0 -0.526828
1.17695 21.3321 0 -0.589039
1.07622 22.5 0 -1.61658
0.294848 21.6209 0 -0.724955
-0.318749 20.9388 0 -0.318942
-0.13398 20.5697 0 -0.372441
0.342683 20.4254 0 -0.334747
0.628543 20.8398 0 -0.431129
-0.14629 20.6674 0 -0.422104
0.0801975 20.5282 0 -0.44321
0.537562 20.5756 0 -0.3858
0.0821003 20.993 0 -0.526828
0.164542 20.6808 0 -0.505135
-0.13398 20.5697 0 -0.372441
-0.0810948 20.4643 0 -0.203701
0.0721181 20.1857 0 -0.217615
0.342683 20.4254 0 -0.334747
-0.154737 20.4997 0 -0.278361
-0.0466145 20.3525 0 -0.285695
0.153219 20.3037 0 -0.275924
0.0801975 20.5282 0 -0.44321
-0.0316279 20.4264 0 -0.362039
-0.0810948 20.4643 0 -0.203701
0.00934081 20.6493 0 0.00898554
-0.0211916 19.906 0 -0.0052968
0.0721181 20.1857 0 -0.217615
-0.00419661 20.497 0 -0.124776
-0.0115184 20.311 0 -0.0267946
0.0356971 20.06 0 -0.134252
-0.0466145 20.3525 0 -0.285695
-0.0212261 20.308 0 -0.184928
5.46496 57.8254 0 5.32289
2.70293 22.0194 0 -1.11528
2.70492 22.042 0 0.939874
5.4927 57.8986 0 -5.40008
4.26196 24.6286 0 -0.94762
3.36862 21.7215 0 -0.0890917
4.27182 24.6456 0 0.821767
5.4042 60.6556 0 -0.0372049
5.10798 24.5258 0 -0.0655721
2.70293 22.0194 0 -1.11528
0.628543 20.8398 0 -0.431129
0.626146 20.8543 0 0.202465
2.70492 22.042 0 0.939874
1.17695 21.3321 0 -0.589039
0.858782 20.7155 0 -0.114219
1.17478 21.3554 0 0.382546
3.36862 21.7215 0 -0.0890917
1.54977 21.1261 0 -0.103555
0.628543 20.8398 0 -0.431129
0.342683 20.4254 0 -0.334747
0.342399 20.398 0 0.108951
0.626146 20.8543 0 0.202465
0.537562 20.5756 0 -0.3858
0.453704 20.3521 0 -0.112527
0.536377 20.5731 0 0.149439
0.858782 20.7155 0 -0.114219
0.69262 20.4928 0 -0.117902
0.342683 20.4254 0 -0.334747
0.0721181 20.1857 0 -0.217615
0.072192 20.0833 0 0.0669856
0.342399 20.398 0 0.108951
0.153219 20.3037 0 -0.275924
0.13041 20.0633 0 -0.0747121
0.153409 20.2432 0 0.0787263
0.453704 20.3521 0 -0.112527
0.235294 20.2153 0 -0.0981187
0.0721181 20.1857 0 -0.217615
-0.0211916 19.906 0 -0.0052968
-0.0226347 19.6907 0 0.00519995
0.072192 20.0833 0 0.0669856
0.0356971 20.06 0 -0.134252
-0.0149476 19.6329 0 0.000980612
0.0352061 19.9063 0 0.0489977
0.13041 20.0633 0 -0.0747121
0.0699959 19.8831 0 -0.0418419
5.4927 57.8986 0 -5.40008
2.70492 22.042 0 0.939874
-0.479436 22.792 0 1.08182
4.60726 40.9107 0 -10.1947
4.27182 24.6456 0 0.821767
1.07641 22.5478 0 1.4467
0.00914067 24.3609 0 0.592231
5.49015 50.5864 0 -9.00877
2.20032 24.6783 0 1.18611
2.70492 22.042 0 0.939874
0.626146 20.8543 0 0.202465
-0.31962 20.9851 0 0.0873558
-0.479436 22.792 0 1.08182
1.17478 21.3554 0 0.382546
0.0786334 21.0227 0 0.297236
-0.372762 21.709 0 0.128911
1.07641 22.5478 0 1.4467
0.290179 21.6689 0 0.519205
0.626146 20.8543 0 0.202465
0.342399 20.398 0 0.108951
-0.120514 20.4864 0 0.14614
-0.31962 20.9851 0 0.0873558
0.536377 20.5731 0 0.149439
0.082419 20.4732 0 0.216582
-0.139508 20.6609 0 0.182641
0.0786334 21.0227 0 0.297236
0.164449 20.6762 0 0.267452
0.342399 20.398 0 0.108951
0.072192 20.0833 0 0.0669856
-0.0682352 20.1575 0 0.0664395
-0.120514 20.4864 0 0.14614
0.153409 20.2432 0 0.0787263
-0.0436937 20.1477 0 0.136731
-0.138933 20.3154 0 0.0868943
0.082419 20.4732 0 0.216582
-0.0283961 20.3046 0 0.165226
0.072192 20.0833 0 0.0669856
-0.0226347 19.6907 0 0.00519995
0.00850912 20.0293 0 0.000627561
-0.0682352 20.1575 0 0.0664395
0.0352061 19.9063 0 0.0489977
-0.0103519 19.8868 0 0.0261615
0.00254167 20.0468 0 0.0556563
-0.0436937 20.1477 0 0.136731
-0.0191802 20.0033 0 0.101326
4.60726 40.9107 0 -10.1947
-0.479436 22.792 0 1.08182
-1.75271 22.0688 0 -0.414253
-0.143719 22.0393 0 -7.343
0.00914067 24.3609 0 0.592231
-1.4499 22.6595 0 0.297272
-2.41064 22.5854 0 -1.80672
2.56456 30.9673 0 -9.36939
-1.65784 23.67 0 -0.54171
-0.479436 22.792 0 1.08182
-0.31962 20.9851 0 0.0873558
-0.491149 20.4977 0 -0.231848
-1.75271 22.0688 0 -0.414253
-0.372762 21.709 0 0.128911
-0.421467 20.7893 0 -0.170041
-0.331861 20.9363 0 -0.692248
-1.4499 22.6595 0 0.297272
-0.523347 21.4605 0 -0.409003
-0.31962 20.9851 0 0.0873558
-0.120514 20.4864 0 0.14614
-0.0469515 20.3612 0 -0.180526
-0.491149 20.4977 0 -0.231848
-0.139508 20.6609 0 0.182641
-0.169632 20.446 0 -0.00713476
-0.483059 20.4531 0 -0.0237488
-0.421467 20.7893 0 -0.170041
-0.288963 20.5703 0 0.0473521
-0.120514 20.4864 0 0.14614
-0.0682352 20.1575 0 0.0664395
-0.0623662 19.9772 0 0.0397108
-0.0469515 20.3612 0 -0.180526
-0.138933 20.3154 0 0.0868943
-0.0212015 20.1025 0 -0.0180713
0.104919 20.1136 0 -0.158325
-0.169632 20.446 0 -0.00713476
-0.118234 20.2575 0 -0.0522423
-0.0682352 20.1575 0 0.0664395
0.00850912 20.0293 0 0.000627561
0.0631245 19.912 0 0.00126406
-0.0623662 19.9772 0 0.0397108
0.00254167 20.0468 0 0.0556563
-0.0739621 20.0593 0 0.0294179
-0.0462452 20.0367 0 0.0371634
-0.0212015 20.1025 0 -0.0180713
0.0447715 20.0522 0 0.00637664
0.042461 20.6898 0 0.0293833
-0.0438767 20.2351 0 0.0101063
-0.0723994 20.087 0 -0.0632419
0.0112761 20.608 0 -0.0314429
-0.0441309 20.5784 0 -0.0130249
-0.0392632 20.1349 0 -0.0255404
-0.0790823 20.3118 0 0.035351
-0.0134252 20.7557 0 -0.0161253
-0.0504818 20.3641 0 0.0173697
-0.0438767 20.2351 0 0.0101063
0.172132 19.4299 0 -0.00479899
0.176662 19.3167 0 -0.122335
-0.0723994 20.087 0 -0.0632419
0.0322114 19.7945 0 0.00932872
0.177439 19.37 0 -0.0623736
0.0180771 19.7236 0 -0.15895
-0.0392632 20.1349 0 -0.0255404
0.0327359 19.762 0 -0.0727118
0.172132 19.4299 0 -0.00479899
0.172137 19.4299 0 0.00479416
0.176666 19.3167 0 0.122328
0.176662 19.3167 0 -0.122335
0.258136 19.2971 0 -2.90546e-06
0.177442 19.37 0 0.0623757
0.273066 19.1543 0 -5.71029e-06
0.177439 19.37 0 -0.0623736
0.268086 19.2181 0 -4.63467e-07
0.172137 19.4299 0 0.00479416
-0.0438747 20.235 0 -0.0101094
-0.0723987 20.087 0 0.0632431
0.176666 19.3167 0 0.122328
0.0322186 19.7944 0 -0.00933237
-0.0392614 20.1349 0 0.0255435
0.0180824 19.7236 0 0.15895
0.177442 19.37 0 0.0623757
0.0327419 19.7619 0 0.0727171
-0.0438747 20.235 0 -0.0101094
0.0424649 20.6898 0 -0.0293818
0.0112789 20.608 0 0.0314431
-0.0723987 20.087 0 0.0632431
-0.0441332 20.5784 0 0.0130245
-0.0134227 20.7557 0 0.0161262
-0.0790852 20.3118 0 -0.0353515
-0.0392614 20.1349 0 0.0255435
-0.0504838 20.3641 0 -0.0173706
0.0112761 20.608 0 -0.0314429
-0.0723994 20.087 0 -0.0632419
-0.201869 20.0061 0 -0.308801
-0.216004 20.3605 0 0.149969
-0.0790823 20.3118 0 0.035351
-0.131797 20.0625 0 -0.148966
-0.2664 20.3057 0 -0.0811783
-0.067459 20.2464 0 0.126125
-0.162442 20.3039 0 0.031851
-0.0723994 20.087 0 -0.0632419
0.176662 19.3167 0 -0.122335
0.157105 19.0022 0 -0.292052
-0.201869 20.0061 0 -0.308801
0.0180771 19.7236 0 -0.15895
0.167536 19.2121 0 -0.192664
-0.0507952 19.5122 0 -0.421344
-0.131797 20.0625 0 -0.148966
-0.00957812 19.6487 0 -0.267213
0.176662 19.3167 0 -0.122335
0.176666 19.3167 0 0.122328
0.157105 19.0022 0 0.292062
0.157105 19.0022 0 -0.292052
0.273066 19.1543 0 -5.71029e-06
0.16754 19.2121 0 0.192652
0.275439 18.7971 0 4.55646e-06
0.167536 19.2121 0 -0.192664
0.269854 19.0369 0 -8.31655e-06
0.176666 19.3167 0 0.122328
-0.0723987 20.087 0 0.0632431
-0.201866 20.0061 0 0.308807
0.157105 19.0022 0 0.292062
0.0180824 19.7236 0 0.15895
-0.131792 20.0625 0 0.148968
-0.050793 19.5123 0 0.421354
0.16754 19.2121 0 0.192652
-0.00957147 19.6487 0 0.26721
-0.0723987 20.087 0 0.0632431
0.0112789 20.608 0 0.0314431
-0.216007 20.3605 0 -0.149971
-0.201866 20.0061 0 0.308807
-0.0790852 20.3118 0 -0.0353515
-0.0674609 20.2464 0 -0.126127
-0.266398 20.3057 0 0.0811814
-0.131792 20.0625 0 0.148968
-0.162442 20.3039 0 -0.0318469
-0.216004 20.3605 0 0.149969
-0.201869 20.0061 0 -0.308801
-0.448889 19.9521 0 -0.630379
-0.379096 20.62 0 -0.166758
-0.2664 20.3057 0 -0.0811783
-0.276236 19.9532 0 -0.493606
-0.478949 20.2912 0 -0.300103
-0.313855 20.828 0 -0.0782202
-0.340078 20.355 0 -0.265377
-0.201869 20.0061 0 -0.308801
0.157105 19.0022 0 -0.292052
0.129773 18.3396 0 -0.586793
-0.448889 19.9521 0 -0.630379
-0.0507952 19.5122 0 -0.421344
0.15278 18.7031 0 -0.418891
-0.254605 19.2279 0 -0.837252
-0.276236 19.9532 0 -0.493606
-0.114395 19.352 0 -0.610066
0.157105 19.0022 0 -0.292052
0.157105 19.0022 0 0.292062
0.129763 18.3395 0 0.58677
0.129773 18.3396 0 -0.586793
0.275439 18.7971 0 4.55646e-06
0.15277 18.7031 0 0.418912
0.370568 17.9706 0 -1.33688e-05
0.15278 18.7031 0 -0.418891
0.313321 18.4397 0 1.19341e-05
0.157105 19.0022 0 0.292062
-0.201866 20.0061 0 0.308807
-0.448906 19.9521 0 0.630365
0.129763 18.3395 0 0.58677
-0.050793 19.5123 0 0.421354
-0.276249 19.9532 0 0.493604
-0.254621 19.2278 0 0.837236
0.15277 18.7031 0 0.418912
-0.11441 19.352 0 0.610078
-0.201866 20.0061 0 0.308807
-0.216007 20.3605 0 -0.149971
-0.379087 20.62 0 0.166768
-0.448906 19.9521 0 0.630365
-0.266398 20.3057 0 0.0811814
-0.313847 20.828 0 0.0782272
-0.478959 20.2912 0 0.300093
-0.276249 19.9532 0 0.493604
-0.340082 20.355 0 0.265369
-0.379096 20.62 0 -0.166758
-0.448889 19.9521 0 -0.630379
-1.51638 20.1575 0 -2.59151
-1.4705 22.3536 0 -0.6005
-0.478949 20.2912 0 -0.300103
-0.886261 19.846 0 -1.02612
-1.82638 21.7407 0 -1.57596
-0.612611 20.2843 0 -0.0831235
-0.919943 20.2853 0 -0.410031
-0.448889 19.9521 0 -0.630379
0.129773 18.3396 0 -0.586793
0.298458 15.1897 0 -1.86679
-1.51638 20.1575 0 -2.59151
-0.254605 19.2279 0 -0.837252
0.0803896 17.3342 0 -0.950457
-0.727866 17.7123 0 -2.89698
-0.886261 19.846 0 -1.02612
-0.535184 18.7209 0 -1.37402
0.129773 18.3396 0 -0.586793
0.129763 18.3395 0 0.58677
0.298358 15.1899 0 1.86713
0.298458 15.1897 0 -1.86679
0.370568 17.9706 0 -1.33688e-05
0.080398 17.3342 0 0.950468
0.87131 14.1668 0 0.000222684
0.0803896 17.3342 0 -0.950457
0.455569 16.7552 0 6.75235e-06
0.129763 18.3395 0 0.58677
-0.448906 19.9521 0 0.630365
-1.51644 20.1577 0 2.59151
0.298358 15.1899 0 1.86713
-0.254621 19.2278 0 0.837236
-0.886245 19.8461 0 1.02613
-0.728008 17.7127 0 2.89712
0.080398 17.3342 0 0.950468
-0.535171 18.7209 0 1.37403
-0.448906 19.9521 0 0.630365
-0.379087 20.62 0 0.166768
-1.47051 22.3536 0 0.600503
-1.51644 20.1577 0 2.59151
-0.478959 20.2912 0 0.300093
-0.612632 20.2843 0 0.0831059
-1.82637 21.7407 0 1.57594
-0.886245 19.8461 0 1.02613
-0.919937 20.2853 0 0.410039
-1.4705 22.3536 0 -0.6005
-1.51638 20.1575 0 -2.59151
-6.63693 8.28149 0 -4.16908
1.17524 24.2815 0 -9.10211
-1.82638 21.7407 0 -1.57596
-1.95781 17.402 0 -4.47475
-2.07011 15.95 0 -6.9169
-2.4729 22.3435 0 -1.60668
-2.58755 20.5424 0 -3.26697
-1.51638 20.1575 0 -2.59151
0.298458 15.1897 0 -1.86679
-16.2044 -0.797455 -0 -0.369566
-6.63693 8.28149 0 -4.16908
-0.727866 17.7123 0 -2.89698
0.315963 9.9089 0 -2.77352
-11.85 2.55211 -0 -1.75402
-1.95781 17.402 0 -4.47475
-0.876975 13.5042 0 -4.51238
0.298458 15.1897 0 -1.86679
0.298358 15.1899 0 1.86713
-16.2027 -0.796093 -0 0.371045
-16.2044 -0.797455 -0 -0.369566
0.87131 14.1668 0 0.000222684
0.315656 9.9095 0 2.77401
-17.9766 -1.94652 -0 0.000699423
0.315963 9.9089 0 -2.77352
0.949821 8.47048 0 0.000374634
0.298358 15.1899 0 1.86713
-1.51644 20.1577 0 2.59151
-6.63519 8.28421 0 4.17051
-16.2027 -0.796093 -0 0.371045
-0.728008 17.7127 0 2.89712
-1.95811 17.4026 0 4.47456
-11.8478 2.5546 -0 1.7557
0.315656 9.9095 0 2.77401
-0.877464 13.5049 0 4.51245
-1.51644 20.1577 0 2.59151
-1.47051 22.3536 0 0.600503
1.17536 24.2816 0 9.10215
-6.63519 8.28421 0 4.17051
-1.82637 21.7407 0 1.57594
-2.47291 22.3436 0 1.60673
-2.06919 15.9518 0 6.91767
-1.95811 17.4026 0 4.47456
-2.58761 20.5426 0 3.26678
      </DataArray> 
    </PointData>
    <CellData>
      <DataArray type="Float64" NumberOfComponents="1" Name="Process" format="ascii">
4
4
4
4
5
7
7
2
2
2
3
2
7
3
2
7
3
7
4
2
2
4
7
2
7
6
2
4
2
7
4
6
4
6
7
4
4
4
5
5
4
5
7
6
5
7
5
5
5
2
0
6
3
3
0
0
6
5
3
6
3
3
0
3
0
3
6
3
7
6
2
2
5
7
6
1
1
1
1
1
0
0
0
1
6
0
0
1
1
1
0
1
1
1
5
5
0
6
6
3
      </DataArray> 
    </CellData>
  </Piece>
  </UnstructuredGrid>
</VTKFile>
