<?xml version="1.0"?>
<VTKFile type="UnstructuredGrid">
  <UnstructuredGrid>
  <Piece NumberOfPoints="7440"  NumberOfCells="3599">
    <Points>
      <DataArray type="Float64" NumberOfComponents="3" format="ascii">
-170.768 209.804 0.1
-184.729 209.804 0.1
-184.729 188.857 0.1
-206.131 178.829 0.1
-206.131 231.118 0.1
-159.303 231.118 0.1
-159.194 236.419 0.1
-198.914 236.419 0.1
-211.168 257.643 0.1
-153.273 257.643 0.1
-148.884 256.045 0.1
-145.865 253.512 0.1
-141.916 249.591 0.1
-139.725 245.797 0.1
-138.659 242.868 0.1
-138.182 240.161 0.1
-138.182 237.366 0.1
-138.182 234.103 0.1
-138.182 231.571 0.1
-138.182 227.315 0.1
-138.182 225.869 0.1
-139.118 223.296 0.1
-140.213 220.289 0.1
-141.298 218.409 0.1
-145.355 214.325 0.1
-147.684 212.396 0.1
-131.561 184.469 0.1
-156.141 184.469 0.1
-172.319 209.804 0.1
-173.87 209.804 0.1
-175.421 209.804 0.1
-176.973 209.804 0.1
-178.524 209.804 0.1
-180.075 209.804 0.1
-181.626 209.804 0.1
-183.178 209.804 0.1
-171.543 209.804 0.1
-173.095 209.804 0.1
-174.646 209.804 0.1
-176.197 209.804 0.1
-177.748 209.804 0.1
-179.3 209.804 0.1
-180.851 209.804 0.1
-182.402 209.804 0.1
-183.953 209.804 0.1
-184.729 208.192 0.1
-184.729 206.581 0.1
-184.729 204.97 0.1
-184.729 203.358 0.1
-184.729 201.747 0.1
-184.729 200.136 0.1
-184.729 198.525 0.1
-184.729 196.913 0.1
-184.729 195.302 0.1
-184.729 193.691 0.1
-184.729 192.079 0.1
-184.729 190.468 0.1
-184.729 208.998 0.1
-184.729 207.387 0.1
-184.729 205.775 0.1
-184.729 204.164 0.1
-184.729 202.553 0.1
-184.729 200.942 0.1
-184.729 199.33 0.1
-184.729 197.719 0.1
-184.729 196.108 0.1
-184.729 194.496 0.1
-184.729 192.885 0.1
-184.729 191.274 0.1
-184.729 189.662 0.1
-186.375 188.085 0.1
-188.022 187.314 0.1
-189.668 186.543 0.1
-191.314 185.771 0.1
-192.961 185 0.1
-194.607 184.228 0.1
-196.253 183.457 0.1
-197.9 182.686 0.1
-199.546 181.914 0.1
-201.192 181.143 0.1
-202.839 180.371 0.1
-204.485 179.6 0.1
-185.552 188.471 0.1
-187.198 187.7 0.1
-188.845 186.928 0.1
-190.491 186.157 0.1
-192.137 185.386 0.1
-193.784 184.614 0.1
-195.43 183.843 0.1
-197.076 183.071 0.1
-198.723 182.3 0.1
-200.369 181.529 0.1
-202.015 180.757 0.1
-203.662 179.986 0.1
-205.308 179.214 0.1
-206.131 180.84 0.1
-206.131 182.851 0.1
-206.131 184.862 0.1
-206.131 186.873 0.1
-206.131 188.884 0.1
-206.131 190.895 0.1
-206.131 192.907 0.1
-206.131 194.918 0.1
-206.131 196.929 0.1
-206.131 198.94 0.1
-206.131 200.951 0.1
-206.131 202.962 0.1
-206.131 204.973 0.1
-206.131 206.984 0.1
-206.131 208.996 0.1
-206.131 211.007 0.1
-206.131 213.018 0.1
-206.131 215.029 0.1
-206.131 217.04 0.1
-206.131 219.051 0.1
-206.131 221.062 0.1
-206.131 223.073 0.1
-206.131 225.084 0.1
-206.131 227.096 0.1
-206.131 229.107 0.1
-206.131 179.834 0.1
-206.131 181.845 0.1
-206.131 183.857 0.1
-206.131 185.868 0.1
-206.131 187.879 0.1
-206.131 189.89 0.1
-206.131 191.901 0.1
-206.131 193.912 0.1
-206.131 195.923 0.1
-206.131 197.934 0.1
-206.131 199.945 0.1
-206.131 201.957 0.1
-206.131 203.968 0.1
-206.131 205.979 0.1
-206.131 207.99 0.1
-206.131 210.001 0.1
-206.131 212.012 0.1
-206.131 214.023 0.1
-206.131 216.034 0.1
-206.131 218.046 0.1
-206.131 220.057 0.1
-206.131 222.068 0.1
-206.131 224.079 0.1
-206.131 226.09 0.1
-206.131 228.101 0.1
-206.131 230.112 0.1
-204.33 231.118 0.1
-202.529 231.118 0.1
-200.728 231.118 0.1
-198.927 231.118 0.1
-197.126 231.118 0.1
-195.325 231.118 0.1
-193.524 231.118 0.1
-191.723 231.118 0.1
-189.922 231.118 0.1
-188.121 231.118 0.1
-186.319 231.118 0.1
-184.518 231.118 0.1
-182.717 231.118 0.1
-180.916 231.118 0.1
-179.115 231.118 0.1
-177.314 231.118 0.1
-175.513 231.118 0.1
-173.712 231.118 0.1
-171.911 231.118 0.1
-170.11 231.118 0.1
-168.309 231.118 0.1
-166.508 231.118 0.1
-164.707 231.118 0.1
-162.906 231.118 0.1
-161.104 231.118 0.1
-205.231 231.118 0.1
-203.43 231.118 0.1
-201.629 231.118 0.1
-199.827 231.118 0.1
-198.026 231.118 0.1
-196.225 231.118 0.1
-194.424 231.118 0.1
-192.623 231.118 0.1
-190.822 231.118 0.1
-189.021 231.118 0.1
-187.22 231.118 0.1
-185.419 231.118 0.1
-183.618 231.118 0.1
-181.817 231.118 0.1
-180.016 231.118 0.1
-178.215 231.118 0.1
-176.414 231.118 0.1
-174.613 231.118 0.1
-172.811 231.118 0.1
-171.01 231.118 0.1
-169.209 231.118 0.1
-167.408 231.118 0.1
-165.607 231.118 0.1
-163.806 231.118 0.1
-162.005 231.118 0.1
-160.204 231.118 0.1
-158.406 233.751 0.1
-158.65 232.365 0.1
-158.593 235.146 0.1
-161.085 236.419 0.1
-162.977 236.419 0.1
-164.868 236.419 0.1
-166.76 236.419 0.1
-168.651 236.419 0.1
-170.543 236.419 0.1
-172.434 236.419 0.1
-174.325 236.419 0.1
-176.217 236.419 0.1
-178.108 236.419 0.1
-180 236.419 0.1
-181.891 236.419 0.1
-183.783 236.419 0.1
-185.674 236.419 0.1
-187.566 236.419 0.1
-189.457 236.419 0.1
-191.348 236.419 0.1
-193.24 236.419 0.1
-195.131 236.419 0.1
-197.023 236.419 0.1
-160.14 236.419 0.1
-162.031 236.419 0.1
-163.922 236.419 0.1
-165.814 236.419 0.1
-167.705 236.419 0.1
-169.597 236.419 0.1
-171.488 236.419 0.1
-173.38 236.419 0.1
-175.271 236.419 0.1
-177.163 236.419 0.1
-179.054 236.419 0.1
-180.946 236.419 0.1
-182.837 236.419 0.1
-184.728 236.419 0.1
-186.62 236.419 0.1
-188.511 236.419 0.1
-190.403 236.419 0.1
-192.294 236.419 0.1
-194.186 236.419 0.1
-196.077 236.419 0.1
-197.969 236.419 0.1
-199.857 238.051 0.1
-200.799 239.684 0.1
-201.742 241.317 0.1
-202.685 242.949 0.1
-203.627 244.582 0.1
-204.57 246.214 0.1
-205.512 247.847 0.1
-206.455 249.48 0.1
-207.398 251.112 0.1
-208.34 252.745 0.1
-209.283 254.378 0.1
-210.225 256.01 0.1
-199.386 237.235 0.1
-200.328 238.868 0.1
-201.271 240.5 0.1
-202.213 242.133 0.1
-203.156 243.766 0.1
-204.099 245.398 0.1
-205.041 247.031 0.1
-205.984 248.663 0.1
-206.926 250.296 0.1
-207.869 251.929 0.1
-208.811 253.561 0.1
-209.754 255.194 0.1
-210.697 256.826 0.1
-209.3 257.643 0.1
-207.433 257.643 0.1
-205.565 257.643 0.1
-203.698 257.643 0.1
-201.83 257.643 0.1
-199.963 257.643 0.1
-198.095 257.643 0.1
-196.227 257.643 0.1
-194.36 257.643 0.1
-192.492 257.643 0.1
-190.625 257.643 0.1
-188.757 257.643 0.1
-186.89 257.643 0.1
-185.022 257.643 0.1
-183.154 257.643 0.1
-181.287 257.643 0.1
-179.419 257.643 0.1
-177.552 257.643 0.1
-175.684 257.643 0.1
-173.817 257.643 0.1
-171.949 257.643 0.1
-170.082 257.643 0.1
-168.214 257.643 0.1
-166.346 257.643 0.1
-164.479 257.643 0.1
-162.611 257.643 0.1
-160.744 257.643 0.1
-158.876 257.643 0.1
-157.009 257.643 0.1
-155.141 257.643 0.1
-210.234 257.643 0.1
-208.367 257.643 0.1
-206.499 257.643 0.1
-204.631 257.643 0.1
-202.764 257.643 0.1
-200.896 257.643 0.1
-199.029 257.643 0.1
-197.161 257.643 0.1
-195.294 257.643 0.1
-193.426 257.643 0.1
-191.559 257.643 0.1
-189.691 257.643 0.1
-187.823 257.643 0.1
-185.956 257.643 0.1
-184.088 257.643 0.1
-182.221 257.643 0.1
-180.353 257.643 0.1
-178.486 257.643 0.1
-176.618 257.643 0.1
-174.75 257.643 0.1
-172.883 257.643 0.1
-171.015 257.643 0.1
-169.148 257.643 0.1
-167.28 257.643 0.1
-165.413 257.643 0.1
-163.545 257.643 0.1
-161.678 257.643 0.1
-159.81 257.643 0.1
-157.942 257.643 0.1
-156.075 257.643 0.1
-154.207 257.643 0.1
-151.079 256.844 0.1
-152.176 257.243 0.1
-149.981 256.445 0.1
-147.374 254.778 0.1
-148.129 255.412 0.1
-146.62 254.145 0.1
-143.89 251.551 0.1
-144.877 252.532 0.1
-142.903 250.571 0.1
-140.821 247.694 0.1
-141.368 248.643 0.1
-140.273 246.746 0.1
-139.192 244.333 0.1
-139.459 245.065 0.1
-138.926 243.6 0.1
-138.42 241.515 0.1
-138.54 242.191 0.1
-138.301 240.838 0.1
-138.182 238.763 0.1
-138.182 239.462 0.1
-138.182 238.065 0.1
-138.182 235.734 0.1
-138.182 236.55 0.1
-138.182 234.918 0.1
-138.182 232.837 0.1
-138.182 233.47 0.1
-138.182 232.204 0.1
-138.182 229.443 0.1
-138.182 230.507 0.1
-138.182 228.379 0.1
-138.182 226.592 0.1
-138.182 226.954 0.1
-138.182 226.23 0.1
-138.65 224.582 0.1
-138.416 225.226 0.1
-138.884 223.939 0.1
-139.665 221.793 0.1
-139.392 222.544 0.1
-139.939 221.041 0.1
-140.755 219.349 0.1
-140.484 219.819 0.1
-141.027 218.879 0.1
-143.326 216.367 0.1
-142.312 217.388 0.1
-144.341 215.346 0.1
-146.52 213.361 0.1
-145.937 213.843 0.1
-147.102 212.879 0.1
-146.917 211.067 0.1
-146.149 209.737 0.1
-145.381 208.407 0.1
-144.613 207.077 0.1
-143.845 205.747 0.1
-143.078 204.417 0.1
-142.31 203.087 0.1
-141.542 201.758 0.1
-140.774 200.428 0.1
-140.006 199.098 0.1
-139.239 197.768 0.1
-138.471 196.438 0.1
-137.703 195.108 0.1
-136.935 193.778 0.1
-136.167 192.448 0.1
-135.4 191.119 0.1
-134.632 189.789 0.1
-133.864 188.459 0.1
-133.096 187.129 0.1
-132.328 185.799 0.1
-147.301 211.732 0.1
-146.533 210.402 0.1
-145.765 209.072 0.1
-144.997 207.742 0.1
-144.229 206.412 0.1
-143.462 205.082 0.1
-142.694 203.752 0.1
-141.926 202.422 0.1
-141.158 201.093 0.1
-140.39 199.763 0.1
-139.623 198.433 0.1
-138.855 197.103 0.1
-138.087 195.773 0.1
-137.319 194.443 0.1
-136.551 193.113 0.1
-135.784 191.784 0.1
-135.016 190.454 0.1
-134.248 189.124 0.1
-133.48 187.794 0.1
-132.712 186.464 0.1
-131.945 185.134 0.1
-133.451 184.469 0.1
-135.342 184.469 0.1
-137.233 184.469 0.1
-139.124 184.469 0.1
-141.015 184.469 0.1
-142.905 184.469 0.1
-144.796 184.469 0.1
-146.687 184.469 0.1
-148.578 184.469 0.1
-150.469 184.469 0.1
-152.359 184.469 0.1
-154.25 184.469 0.1
-132.506 184.469 0.1
-134.397 184.469 0.1
-136.288 184.469 0.1
-138.178 184.469 0.1
-140.069 184.469 0.1
-141.96 184.469 0.1
-143.851 184.469 0.1
-145.742 184.469 0.1
-147.632 184.469 0.1
-149.523 184.469 0.1
-151.414 184.469 0.1
-153.305 184.469 0.1
-155.196 184.469 0.1
-156.837 185.676 0.1
-157.534 186.882 0.1
-158.231 188.088 0.1
-158.927 189.295 0.1
-159.624 190.501 0.1
-160.32 191.708 0.1
-161.017 192.914 0.1
-161.713 194.12 0.1
-162.41 195.327 0.1
-163.106 196.533 0.1
-163.803 197.74 0.1
-164.499 198.946 0.1
-165.196 200.152 0.1
-165.892 201.359 0.1
-166.589 202.565 0.1
-167.285 203.772 0.1
-167.982 204.978 0.1
-168.678 206.184 0.1
-169.375 207.391 0.1
-170.071 208.597 0.1
-156.489 185.072 0.1
-157.186 186.279 0.1
-157.882 187.485 0.1
-158.579 188.692 0.1
-159.275 189.898 0.1
-159.972 191.104 0.1
-160.668 192.311 0.1
-161.365 193.517 0.1
-162.061 194.724 0.1
-162.758 195.93 0.1
-163.454 197.136 0.1
-164.151 198.343 0.1
-164.847 199.549 0.1
-165.544 200.756 0.1
-166.24 201.962 0.1
-166.937 203.168 0.1
-167.633 204.375 0.1
-168.33 205.581 0.1
-169.026 206.788 0.1
-169.723 207.994 0.1
-170.42 209.2 0.1
-159.498 215.48 0.1
-148.776 227.816 0.1
-154.236 202.459 0.1
-148.474 238.065 0.1
-192.619 218.995 0.1
-169.187 220.42 0.1
-180.87 220.467 0.1
-194.89 209.134 0.1
-148.46 195.025 0.1
-195.431 196.108 0.1
-155.294 246.614 0.1
-165.85 246.752 0.1
-176.923 247.77 0.1
-187.677 247.109 0.1
-152.582 219.517 0.1
-160.348 207.57 0.1
-161.344 223.238 0.1
-143.584 226.848 0.1
-153.639 209.275 0.1
-196.225 249.015 0.1
-145.964 221.73 0.1
-144.533 233.218 0.1
-155.012 195.576 0.1
-166.076 214.26 0.1
-174.736 216.867 0.1
-191.861 202.445 0.1
-187.243 223.904 0.1
-186.335 216.417 0.1
-174.967 224.113 0.1
-198.001 223.794 0.1
-155.368 225.713 0.1
-143.045 191.205 0.1
-153.028 190.288 0.1
-148.049 201.431 0.1
-198.945 215.206 0.1
-147.873 245.287 0.1
-159.831 201.716 0.1
-199.372 202.988 0.1
-198.878 189.848 0.1
-143.749 241.118 0.1
-182.221 250.906 0.1
-160.128 251.083 0.1
-182.023 243.415 0.1
-154.543 214.577 0.1
-171.179 251.03 0.1
-170.991 243.006 0.1
-192.787 243.139 0.1
-154.364 240.365 0.1
-160.475 243.058 0.1
-190.284 192.689 0.1
-164.875 209.686 0.1
-190.159 212.028 0.1
-149.756 232.895 0.1
-181.21 215.065 0.1
-166.771 225.499 0.1
-149.843 206.013 0.1
-157.47 220.074 0.1
-192.623 225.561 0.1
-163.426 218.571 0.1
-170.908 214.484 0.1
-180.006 225.912 0.1
-140.999 226.285 0.1
-191.313 252.065 0.1
-201.388 251.944 0.1
-143.74 196.055 0.1
-157.776 211.242 0.1
-148.218 217.817 0.1
-158.825 197.844 0.1
-148.136 190.054 0.1
-154.057 251.931 0.1
-142.583 237.229 0.1
-189.776 197.912 0.1
-200.563 209.837 0.1
-189.488 207.242 0.1
-151.819 198.711 0.1
-154.246 230.665 0.1
-200.548 197.682 0.1
-149.968 223.494 0.1
-165.612 252.352 0.1
-176.618 252.386 0.1
-176.883 241.835 0.1
-156.457 205.95 0.1
-165.968 241.606 0.1
-163.145 204.75 0.1
-187.345 241.765 0.1
-143.064 223.553 0.1
-194.041 189.925 0.1
-194.139 214.485 0.1
-201.075 219.793 0.1
-161.569 211.823 0.1
-171.316 226.959 0.1
-145.98 230.002 0.1
-142.425 230.297 0.1
-149.601 250.177 0.1
-197.853 244.274 0.1
-139.23 188.897 0.1
-152.809 236.722 0.1
-186.515 252.916 0.1
-173.286 220.4 0.1
-159.435 226.742 0.1
-146.537 225.089 0.1
-151.44 212.235 0.1
-184.944 220.299 0.1
-144.804 199.593 0.1
-201.571 185.834 0.1
-155.508 199.076 0.1
-156.215 192.223 0.1
-141.127 233.496 0.1
-201.459 226.534 0.1
-177.349 213.674 0.1
-184.107 226.743 0.1
-165.718 221.934 0.1
-150.313 242.024 0.1
-195.419 200.176 0.1
-167.967 211.335 0.1
-195.433 253.567 0.1
-196.788 219.76 0.1
-177.077 219.923 0.1
-192.284 247.393 0.1
-190.221 215.924 0.1
-150.773 215.622 0.1
-184.515 213.443 0.1
-201.714 193.654 0.1
-195.269 204.876 0.1
-143.339 220.742 0.1
-188.888 220.447 0.1
-151.795 193.7 0.1
-200.59 247.703 0.1
-159.488 246.823 0.1
-168.604 217.034 0.1
-153.233 205.625 0.1
-163.341 227.279 0.1
-147.012 204.235 0.1
-170.079 247.219 0.1
-158.37 194.606 0.1
-165.174 206.538 0.1
-196.388 240.091 0.1
-145.634 236.247 0.1
-180.742 247.055 0.1
-149.714 209.227 0.1
-189.024 227.247 0.1
-154.361 222.347 0.1
-162.969 214.989 0.1
-140.871 194.051 0.1
-188.08 202.492 0.1
-202.169 206.166 0.1
-151.099 202.909 0.1
-196.122 227.379 0.1
-173.987 213.155 0.1
-158.576 223.669 0.1
-182.986 223.308 0.1
-156.836 216.709 0.1
-176.863 227.55 0.1
-143.966 245.226 0.1
-152.013 226.199 0.1
-157.564 253.764 0.1
-161.56 199.224 0.1
-145.519 218.957 0.1
-141.413 239.646 0.1
-156.917 243.227 0.1
-171.225 223.192 0.1
-204.6 253.849 0.1
-171.788 217.595 0.1
-145.808 193.355 0.1
-145.037 187.949 0.1
-183.435 217.7 0.1
-160.246 218.52 0.1
-194.175 222.289 0.1
-158.768 204.737 0.1
-151.764 245.353 0.1
-202.313 213.35 0.1
-154.606 187.582 0.1
-148.83 220.737 0.1
-147.498 198.124 0.1
-196.139 192.222 0.1
-196.841 212.194 0.1
-190.981 240.11 0.1
-180.204 254.134 0.1
-168.98 253.981 0.1
-173.661 240.178 0.1
-196.489 187.073 0.1
-197.834 207.626 0.1
-178.002 223.267 0.1
-177.964 216.8 0.1
-162.855 201.666 0.1
-202.327 201.25 0.1
-157.149 202.673 0.1
-188.014 194.957 0.1
-157.82 239.947 0.1
-173.59 254.057 0.1
-157.055 249.203 0.1
-147.17 240.665 0.1
-162.62 254.182 0.1
-168.923 239.891 0.1
-180.474 239.987 0.1
-184.284 247.905 0.1
-184.095 240.063 0.1
-186.84 211.996 0.1
-154.96 211.904 0.1
-150.515 187.811 0.1
-141.362 242.513 0.1
-187.767 191.269 0.1
-162.818 240.152 0.1
-156.881 228.461 0.1
-164.319 212.352 0.1
-157.963 208.24 0.1
-151.24 230.349 0.1
-202.798 222.954 0.1
-156.885 213.872 0.1
-166.359 218.961 0.1
-162.692 248.181 0.1
-174.757 244.362 0.1
-189.901 244.773 0.1
-192.125 195.82 0.1
-173.338 248.219 0.1
-168.327 249.855 0.1
-202.771 189.663 0.1
-198.7 254.142 0.1
-153.975 217.734 0.1
-190.856 189.499 0.1
-190.181 223.351 0.1
-185.601 244.686 0.1
-162.882 207.928 0.1
-191.482 209.452 0.1
-152.815 249.029 0.1
-198.657 195.049 0.1
-139.054 192.044 0.1
-187.426 208.966 0.1
-183.403 254.261 0.1
-192.465 199.49 0.1
-155.944 237.021 0.1
-154.871 233.979 0.1
-179.168 249.968 0.1
-163.734 243.88 0.1
-168.033 244.433 0.1
-158.125 200.258 0.1
-167.44 208.973 0.1
-147.044 232.665 0.1
-151.036 253.349 0.1
-136.535 187.75 0.1
-202.729 216.635 0.1
-144.942 202.454 0.1
-168.522 228.011 0.1
-144.731 238.695 0.1
-145.739 227.374 0.1
-179.871 212.451 0.1
-192.672 206.453 0.1
-148.366 215.333 0.1
-174.029 228.14 0.1
-178.661 244.526 0.1
-141.971 187.4 0.1
-168.286 223.07 0.1
-188.201 250.311 0.1
-187.557 199.774 0.1
-159.758 210.096 0.1
-195.17 246.071 0.1
-189.338 254.376 0.1
-141.055 224.126 0.1
-141.962 228.03 0.1
-164.262 224.383 0.1
-147.745 207.813 0.1
-196.209 216.693 0.1
-151.286 239.054 0.1
-151.848 207.589 0.1
-148.308 235.322 0.1
-187.311 205.024 0.1
-150.883 196.239 0.1
-170.076 212.108 0.1
-146.286 248.768 0.1
-139.482 226.294 0.1
-139.928 228.106 0.1
-149.38 192.482 0.1
-142.634 198.575 0.1
-193.496 193.314 0.1
-181.672 228.29 0.1
-159.796 221.137 0.1
-197.694 198.073 0.1
-148.42 230.203 0.1
-156.138 189.627 0.1
-193.812 211.619 0.1
-192.511 254.598 0.1
-198.998 228.122 0.1
-152.559 223.841 0.1
-140.359 231.556 0.1
-153.961 243.37 0.1
-140.66 235.673 0.1
-168.559 213.977 0.1
-198.422 251.143 0.1
-160.175 195.884 0.1
-164.838 216.57 0.1
-159.486 212.987 0.1
-143.167 234.938 0.1
-147.544 187.198 0.1
-153.987 228.003 0.1
-203.197 183.339 0.1
-203.001 249.49 0.1
-144.528 225.155 0.1
-191.807 228.28 0.1
-193.674 239.382 0.1
-188.055 214.414 0.1
-150.679 218.086 0.1
-152.286 201.074 0.1
-155 219.797 0.1
-193.447 250.009 0.1
-142.585 225.369 0.1
-146.179 216.569 0.1
-163.14 221.084 0.1
-180.517 217.901 0.1
-186.62 228.566 0.1
-154.107 193.391 0.1
-147.719 223.173 0.1
-190.08 200.557 0.1
-203.21 196.16 0.1
-201.77 254.923 0.1
-165.153 204.199 0.1
-165.718 228.633 0.1
-152.325 232.837 0.1
-190.017 204.417 0.1
-145.606 243.154 0.1
-149.593 199.237 0.1
-173.974 251.028 0.1
-156.61 197.161 0.1
-146.219 195.986 0.1
-153.833 197.595 0.1
-188.409 217.764 0.1
-155.093 254.954 0.1
-173.105 215.343 0.1
-155.859 209.687 0.1
-198.856 185.145 0.1
-182.175 212.118 0.1
-203.225 208.607 0.1
-162.564 209.877 0.1
-199.041 217.976 0.1
-140.287 237.9 0.1
-143.741 218.432 0.1
-141.175 196.451 0.1
-195.192 224.775 0.1
-141.71 222.048 0.1
-161.106 203.628 0.1
-148.945 225.504 0.1
-175.47 221.743 0.1
-145.705 190.437 0.1
-198.947 241.791 0.1
-200.674 244.901 0.1
-163.187 251.014 0.1
-199.393 200.322 0.1
-185.135 250.544 0.1
-154.692 207.358 0.1
-187.136 197.353 0.1
-144.032 228.954 0.1
-186.663 239.093 0.1
-143.297 193.717 0.1
-199.583 212.523 0.1
-165.444 254.939 0.1
-149.702 247.45 0.1
-156.926 231.484 0.1
-161.587 216.759 0.1
-176.634 254.98 0.1
-158.45 192.601 0.1
-155.072 204.403 0.1
-203.546 228.3 0.1
-177.14 239.046 0.1
-179.041 228.7 0.1
-191.697 213.905 0.1
-180.739 222.868 0.1
-149.892 213.518 0.1
-150.826 221.481 0.1
-199.057 221.423 0.1
-165.857 239.13 0.1
-149.044 203.814 0.1
-192.657 216.459 0.1
-161.672 225.592 0.1
-150.574 190.337 0.1
-161.242 228.627 0.1
-161.409 205.829 0.1
-151.772 210.119 0.1
-172.376 245.688 0.1
-144.405 231.064 0.1
-198.015 247.054 0.1
-175.776 211.907 0.1
-155.747 201.073 0.1
-169.235 225.354 0.1
-159.972 255.194 0.1
-197.534 209.357 0.1
-172.199 212.186 0.1
-160.421 238.919 0.1
-146.275 234.24 0.1
-176.27 249.479 0.1
-194.324 202.415 0.1
-175.009 219.03 0.1
-145.209 223.003 0.1
-172.566 225.223 0.1
-199.119 192.485 0.1
-191.359 221.182 0.1
-152.908 195.657 0.1
-194.518 187.073 0.1
-165.279 249.617 0.1
-137.519 190.215 0.1
-161.327 197.77 0.1
-182.942 245.691 0.1
-203.616 203.755 0.1
-206.825 255.142 0.1
-161.505 245.385 0.1
-152.281 213.983 0.1
-185.337 222.673 0.1
-195.73 242.951 0.1
-142.672 232.151 0.1
-171.25 219.71 0.1
-171.444 238.788 0.1
-183.043 215.356 0.1
-203.46 198.823 0.1
-150.257 236.581 0.1
-149.469 211.381 0.1
-194.015 228.506 0.1
-177.336 224.863 0.1
-203.526 220.736 0.1
-140.805 190.395 0.1
-171.151 255.255 0.1
-196.902 190.176 0.1
-173.447 222.717 0.1
-204.693 251.638 0.1
-190.771 249.292 0.1
-158.526 206.7 0.1
-156.36 193.977 0.1
-161.193 213.894 0.1
-142.113 245.208 0.1
-175.63 214.889 0.1
-186.042 255.185 0.1
-157.701 225.794 0.1
-148.05 252.217 0.1
-186.415 218.641 0.1
-203.849 191.746 0.1
-200.44 224.617 0.1
-150.32 200.999 0.1
-167.07 207.124 0.1
-182.659 221.281 0.1
-171.087 228.759 0.1
-186.403 226.081 0.1
-168.932 210.226 0.1
-157.6 245.642 0.1
-148.331 243.103 0.1
-187.314 192.957 0.1
-196.55 213.997 0.1
-158.685 217.113 0.1
-194.706 198.279 0.1
-199.639 187.951 0.1
-146.422 206.241 0.1
-203.246 211.573 0.1
-152.588 186.746 0.1
-166.062 210.905 0.1
-164.587 202.38 0.1
-138.641 186.696 0.1
-182.496 225.822 0.1
-189.756 209.877 0.1
-144.977 198.041 0.1
-196.993 202.196 0.1
-153.81 199.918 0.1
-187.158 221.214 0.1
-196.504 222.124 0.1
-186.772 207.304 0.1
-152.878 203.785 0.1
-179.856 242.407 0.1
-146.43 201.075 0.1
-146.938 220.023 0.1
-177.849 211.647 0.1
-143.688 201.442 0.1
-150.976 227.945 0.1
-158.1 190.601 0.1
-156.922 221.796 0.1
-141.912 220.672 0.1
-190.823 218.184 0.1
-146.489 239.104 0.1
-166.729 216.438 0.1
-203.675 225.311 0.1
-152.846 221.686 0.1
-194.914 218.625 0.1
-199.721 205.349 0.1
-189.134 225.078 0.1
-178.472 215.07 0.1
-179.331 219.332 0.1
-152.852 215.978 0.1
-192.112 188.151 0.1
-162.984 199.977 0.1
-192.328 190.85 0.1
-203.707 187.298 0.1
-149.317 239.984 0.1
-184.458 242.41 0.1
-139.654 233.477 0.1
-196.394 255.341 0.1
-151.201 233.809 0.1
-147.365 228.627 0.1
-185.878 214.307 0.1
-142.832 238.941 0.1
-153.449 211.629 0.1
-159.566 200.137 0.1
-200.643 184.009 0.1
-158.853 229.021 0.1
-163.772 206.131 0.1
-151.163 205.285 0.1
-183.526 228.991 0.1
-152.17 251.477 0.1
-141.165 229.798 0.1
-147.509 192.108 0.1
-154.092 238.209 0.1
-184.659 224.786 0.1
-149.213 197.484 0.1
-189.951 195.732 0.1
-140.258 241.61 0.1
-167.239 220.632 0.1
-170.567 216.211 0.1
-143.552 243.535 0.1
-158.908 241.734 0.1
-188.979 238.574 0.1
-201.18 190.969 0.1
-201.056 229.229 0.1
-193.269 204.693 0.1
-182.13 238.872 0.1
-174.868 226.473 0.1
-161.892 219.674 0.1
-189.572 246.72 0.1
-192.047 244.953 0.1
-198.012 226.124 0.1
-155.978 223.824 0.1
-152.656 241.699 0.1
-200.322 207.379 0.1
-169.097 242.337 0.1
-197.134 204.682 0.1
-162.41 242.293 0.1
-140.223 225.056 0.1
-144.959 204.306 0.1
-164.607 219.854 0.1
-185.016 211.774 0.1
-195.916 206.989 0.1
-186.696 249.134 0.1
-147.567 226.7 0.1
-157.277 204.663 0.1
-139.207 193.668 0.1
-160.047 224.235 0.1
-187.712 244.632 0.1
-200.591 203.831 0.1
-159.13 249.14 0.1
-200.064 249.657 0.1
-169.639 218.825 0.1
-155.026 190.9 0.1
-197.651 238.493 0.1
-142.436 227.073 0.1
-143.725 222.372 0.1
-158.36 252.232 0.1
-161.313 201.209 0.1
-143.943 247.709 0.1
-166.466 213.067 0.1
-167.902 252.059 0.1
-135.168 186.553 0.1
-154.892 249.079 0.1
-147.96 209.471 0.1
-165.787 207.961 0.1
-193.35 252.125 0.1
-152.784 255.124 0.1
-195.3 251.28 0.1
-161.631 208.727 0.1
-179.054 221.453 0.1
-144.871 220.398 0.1
-166.659 223.615 0.1
-159.96 194.316 0.1
-200.94 195.703 0.1
-173.36 242.318 0.1
-182.167 248.825 0.1
-176.766 217.726 0.1
-191.101 242.061 0.1
-188.557 189.488 0.1
-166.128 205.387 0.1
-192.273 223.495 0.1
-186.745 201.567 0.1
-143.122 189.16 0.1
-202.468 246.43 0.1
-163.158 213.434 0.1
-159.497 244.852 0.1
-178.913 252.144 0.1
-164.444 214.182 0.1
-181.478 255.562 0.1
-147.991 205.619 0.1
-174.479 246.405 0.1
-188.329 252.331 0.1
-156.947 247.523 0.1
-201.006 215.182 0.1
-150.239 219.842 0.1
-178.807 247.81 0.1
-156.251 241.252 0.1
-163.935 229.227 0.1
-167.244 255.769 0.1
-144.744 234.819 0.1
-141.515 192.131 0.1
-156.085 208.161 0.1
-149.535 216.68 0.1
-186.661 203.5 0.1
-194.27 248.096 0.1
-180.833 244.881 0.1
-171.277 248.907 0.1
-168.112 247.602 0.1
-151.971 191.923 0.1
-156.24 218.72 0.1
-158.107 215.715 0.1
-175.625 229.082 0.1
-157.898 196.08 0.1
-158.69 203.199 0.1
-153.74 213.331 0.1
-182.363 219.376 0.1
-139.414 239.261 0.1
-170.093 244.864 0.1
-164.986 226.033 0.1
-175.332 238.299 0.1
-147.067 202.543 0.1
-143.758 186.33 0.1
-178.377 255.862 0.1
-166.265 244.789 0.1
-153.176 246.937 0.1
-194.431 255.384 0.1
-170.931 253.15 0.1
-155.89 215.299 0.1
-153.582 225.209 0.1
-160.081 252.732 0.1
-203.897 214.862 0.1
-150.227 243.954 0.1
-203.617 194.026 0.1
-150.149 194.378 0.1
-177.075 215.515 0.1
-173.595 217.839 0.1
-156.32 252.252 0.1
-191.743 197.641 0.1
-163.746 246.719 0.1
-171.848 241.071 0.1
-197.201 229.031 0.1
-176.639 244.82 0.1
-152.359 218.133 0.1
-182.219 240.641 0.1
-157.511 198.576 0.1
-143.909 236.333 0.1
-156.033 239.093 0.1
-150.614 225.308 0.1
-204.061 218.522 0.1
-170.698 221.38 0.1
-189.09 229.31 0.1
-174.914 255.805 0.1
-167.566 238.251 0.1
-145.229 240.199 0.1
-194.317 241.59 0.1
-188.358 222.438 0.1
-156.557 212.416 0.1
-150.134 207.687 0.1
-195.561 238.47 0.1
-178.873 238.24 0.1
-190.987 226.576 0.1
-142.266 241.287 0.1
-194.213 226.597 0.1
-146.005 246.472 0.1
-172.488 213.665 0.1
-163.67 255.858 0.1
-195.184 194.123 0.1
-160.83 240.889 0.1
-181.804 252.859 0.1
-155.505 244.667 0.1
-184.603 216.323 0.1
-156.455 188.215 0.1
-192.002 211.365 0.1
-188.774 193.363 0.1
-164.129 238.294 0.1
-158.191 255.741 0.1
-174.222 211.469 0.1
-145.937 186.322 0.1
-189.899 213.905 0.1
-183.771 252.172 0.1
-182.106 213.811 0.1
-204.161 205.626 0.1
-194.009 220.364 0.1
-149.253 186.311 0.1
-192.017 238.345 0.1
-155.205 185.908 0.1
-198.078 249.31 0.1
-163.189 216.905 0.1
-139.895 195.365 0.1
-152.988 229.425 0.1
-158.339 201.683 0.1
-168.069 219.134 0.1
-185.838 246.584 0.1
-186.509 189.938 0.1
-186.388 210.368 0.1
-194.768 191.542 0.1
-203.649 255.627 0.1
-200.941 221.826 0.1
-178.277 226.346 0.1
-144.811 226.402 0.1
-147.362 236.756 0.1
-184.825 218.79 0.1
-139.409 234.924 0.1
-155.429 213.567 0.1
-204.305 181.82 0.1
-158.707 219.012 0.1
-200.051 255.643 0.1
-142.294 195.149 0.1
-206.349 252.768 0.1
-162.474 198.437 0.1
-157.627 237.751 0.1
-153.012 188.491 0.1
-187.718 255.989 0.1
-149.631 202.328 0.1
-197.376 200.692 0.1
-200.949 217.773 0.1
-147.368 199.848 0.1
-188.169 210.543 0.1
-162.407 203.219 0.1
-203.141 252.582 0.1
-195.041 213.073 0.1
-160.092 198.771 0.1
-147.433 221.462 0.1
-189.538 191.08 0.1
-163.68 210.664 0.1
-152.465 197.247 0.1
-146.775 215.076 0.1
-159.269 208.662 0.1
-186.386 195.841 0.1
-190.038 202.439 0.1
-195.392 210.874 0.1
-193.259 208.086 0.1
-145.019 194.967 0.1
-181.737 216.579 0.1
-184.728 238.173 0.1
-191.179 255.749 0.1
-168.133 215.447 0.1
-200.683 242.871 0.1
-164.017 222.641 0.1
-142.304 200.489 0.1
-189.31 241.485 0.1
-175.621 240.363 0.1
-156.422 195.55 0.1
-197.24 252.736 0.1
-147.299 193.805 0.1
-146.61 223.843 0.1
-177.183 221.556 0.1
-204.145 185.268 0.1
-160.13 211.603 0.1
-146.648 188.942 0.1
-197.035 185.298 0.1
-145.537 232.082 0.1
-154.437 235.851 0.1
-193.11 201.36 0.1
-147.809 234.062 0.1
-149.788 231.199 0.1
-170.833 224.907 0.1
-187.955 216.256 0.1
-154.509 201.099 0.1
-167.282 229.372 0.1
-188.52 212.47 0.1
-140.129 185.987 0.1
-167.192 240.239 0.1
-180.864 211.243 0.1
-159.933 206.11 0.1
-155.595 203.109 0.1
-177.439 229.202 0.1
-175.35 253.832 0.1
-166.745 253.799 0.1
-179.83 216.356 0.1
-148.993 222.288 0.1
-204.186 201.987 0.1
-191.339 207.594 0.1
-139.343 232.165 0.1
-192.508 241.035 0.1
-176.21 223.383 0.1
-164.973 218.164 0.1
-172.605 229.587 0.1
-158.49 209.797 0.1
-152.091 243.572 0.1
-156.282 235.023 0.1
-201.326 211.628 0.1
-194.228 216.278 0.1
-161.527 221.484 0.1
-146.238 251.375 0.1
-190.947 205.852 0.1
-175.289 242.399 0.1
-149.79 229.265 0.1
-148.768 188.326 0.1
-193.529 196.759 0.1
-158.315 221.891 0.1
-148.763 219.229 0.1
-178.459 240.387 0.1
-144.258 192.504 0.1
-155.346 227.398 0.1
-179.039 224.729 0.1
-146.136 198.831 0.1
-172.647 252.263 0.1
-161.812 252.226 0.1
-164.116 207.581 0.1
-160.609 248.313 0.1
-136.249 189.596 0.1
-163.869 252.699 0.1
-197.323 196.349 0.1
-169.448 256.153 0.1
-178.039 253.857 0.1
-164.139 201.169 0.1
-153.632 191.914 0.1
-201.376 199.553 0.1
-150.008 226.569 0.1
-139.079 227.042 0.1
-184.289 255.975 0.1
-191.968 193.939 0.1
-153.738 219.041 0.1
-139.472 236.696 0.1
-148.541 248.766 0.1
-149.011 253.828 0.1
-189.076 248.742 0.1
-166.604 227.37 0.1
-153.43 208.052 0.1
-195.504 188.809 0.1
-199.027 210.71 0.1
-153.632 245.085 0.1
-155.043 229.249 0.1
-147.772 196.5 0.1
-173.006 238.191 0.1
-155.233 232.173 0.1
-162.142 238.318 0.1
-196.819 194.441 0.1
-173.193 226.684 0.1
-164.636 240.331 0.1
-144.562 227.76 0.1
-199.042 196.936 0.1
-200.375 253.42 0.1
-158.012 212.749 0.1
-169.393 251.035 0.1
-169.881 238.157 0.1
-200.718 189.377 0.1
-155.51 250.695 0.1
-158.422 214.293 0.1
-161.483 255.874 0.1
-180.618 251.411 0.1
-168.817 208.873 0.1
-183.46 211.149 0.1
-199.783 226.449 0.1
-158.131 227.405 0.1
-154.711 189.184 0.1
-198.19 213.592 0.1
-197.667 188.513 0.1
-200.597 201.753 0.1
-199.228 239.993 0.1
-175.179 247.886 0.1
-141.725 234.664 0.1
-140.17 226.813 0.1
-154.318 216.187 0.1
-154.577 210.459 0.1
-137.728 192.655 0.1
-166.975 210.336 0.1
-169.452 229.554 0.1
-154.387 223.604 0.1
-146.048 237.677 0.1
-161.653 207.22 0.1
-140.973 197.819 0.1
-141.293 225.295 0.1
-139.894 242.968 0.1
-146.843 231.031 0.1
-152.973 234.537 0.1
-146.692 217.869 0.1
-168.898 212.537 0.1
-204.6 222.138 0.1
-172.626 255.876 0.1
-188.77 196.749 0.1
-185.832 240.688 0.1
-186.325 198.745 0.1
-150.742 197.813 0.1
-161.241 210.378 0.1
-169.555 214.968 0.1
-204.16 213.003 0.1
-142.573 233.444 0.1
-163.219 225.671 0.1
-141.217 188.922 0.1
-179.092 211.134 0.1
-150.528 248.791 0.1
-208.217 255.921 0.1
-191.054 253.734 0.1
-193.47 210.004 0.1
-181.228 224.474 0.1
-161.893 218.042 0.1
-159.788 222.739 0.1
-151.026 214.449 0.1
-203.625 247.812 0.1
-185.534 229.605 0.1
-140.574 222.832 0.1
-186.728 251.11 0.1
-143.164 228.01 0.1
-155.173 197.658 0.1
-147.631 216.532 0.1
-169.491 248.724 0.1
-167.389 217.852 0.1
-180.409 248.734 0.1
-142.826 219.618 0.1
-204.494 189.89 0.1
-148.232 213.821 0.1
-136.989 186.137 0.1
-159.667 192.889 0.1
-158.824 199.117 0.1
-154.837 205.828 0.1
-190.86 199.218 0.1
-194.038 244.803 0.1
-152.16 206.113 0.1
-172.436 219.127 0.1
-199.071 208.894 0.1
-190.771 229.599 0.1
-161.846 249.819 0.1
-186.287 191.763 0.1
-141.294 227.243 0.1
-171.295 211.201 0.1
-186.097 205.969 0.1
-172.675 249.928 0.1
-193.622 195.011 0.1
-157.066 206.97 0.1
-141.49 238.265 0.1
-188.07 207.771 0.1
-141.466 232.274 0.1
-172.411 221.815 0.1
-171.846 215.947 0.1
-151.235 200.094 0.1
-163.658 209.036 0.1
-195.436 185.584 0.1
-161.236 202.433 0.1
-198.555 219.696 0.1
-142.186 224.315 0.1
-139.161 225.488 0.1
-151.513 222.666 0.1
-194.161 206.462 0.1
-188.583 200.995 0.1
-185.937 208.67 0.1
-140.823 221.286 0.1
-188.403 243.169 0.1
-167.403 243.09 0.1
-167.438 245.901 0.1
-157.403 189.446 0.1
-155.384 217.446 0.1
-149.763 245.663 0.1
-152.682 240.015 0.1
-180.247 229.464 0.1
-153.489 220.332 0.1
-172.77 243.989 0.1
-204.586 226.76 0.1
-199.847 193.836 0.1
-139.283 230.749 0.1
-149.737 234.576 0.1
-199.51 223.117 0.1
-169.856 213.522 0.1
-147.973 224.506 0.1
-198.066 191.522 0.1
-201.799 187.656 0.1
-164.391 248.142 0.1
-197.232 218.149 0.1
-186.632 243.35 0.1
-156.344 233.282 0.1
-152.616 202.615 0.1
-192.973 213.103 0.1
-138.817 226.257 0.1
-190.756 219.984 0.1
-198.22 255.884 0.1
-199.418 246.358 0.1
-166.499 250.739 0.1
-179.812 227.566 0.1
-187.435 219.861 0.1
-164.604 205.265 0.1
-169.616 226.864 0.1
-156.516 199.895 0.1
-152.778 253.238 0.1
-165.297 243.362 0.1
-169.264 221.927 0.1
-189.589 188.03 0.1
-189.202 199.428 0.1
-183.539 244.108 0.1
-196.329 247.319 0.1
-142.493 196.905 0.1
-191.154 224.721 0.1
-197.341 242.792 0.1
-192.708 229.788 0.1
-161.265 215.273 0.1
-169.575 223.649 0.1
-142.693 246.451 0.1
-177.406 250.678 0.1
-148.395 231.678 0.1
-152.58 227.749 0.1
-149.866 251.869 0.1
-184.478 214.853 0.1
-160.107 216.742 0.1
-187.927 239.994 0.1
-198.122 216.648 0.1
-185.005 253.825 0.1
-204.701 249.643 0.1
-143.637 203.011 0.1
-156.15 220.696 0.1
-153.889 250.442 0.1
-151.088 208.917 0.1
-179.355 246.048 0.1
-143.648 225.769 0.1
-156.095 256.192 0.1
-167.181 222.243 0.1
-179.161 213.628 0.1
-153.983 194.957 0.1
-195.982 244.319 0.1
-188.507 203.996 0.1
-143.866 239.831 0.1
-161.063 227.122 0.1
-151.559 216.767 0.1
-177.368 243.409 0.1
-161.956 244.063 0.1
-205.267 255.792 0.1
-189.007 205.621 0.1
-192.616 221.876 0.1
-191.596 204.039 0.1
-163.015 211.904 0.1
-141.21 236.925 0.1
-149.666 214.94 0.1
-196.319 197.587 0.1
-151.132 186.101 0.1
-137.719 188.937 0.1
-154.699 241.988 0.1
-177.842 218.715 0.1
-154.278 256.252 0.1
-187.646 254.179 0.1
-151.564 189.204 0.1
-145.507 241.673 0.1
-187.992 226.194 0.1
-161.478 196.435 0.1
-152.589 231.362 0.1
-140.515 234.447 0.1
-143.776 237.697 0.1
-150.008 238.086 0.1
-150.687 211.081 0.1
-156.377 211.02 0.1
-199.677 229.601 0.1
-146.716 208.536 0.1
-139.938 224.057 0.1
-196.873 225.123 0.1
-143.347 224.664 0.1
-183.568 249.831 0.1
-157.533 193.352 0.1
-143.946 198.704 0.1
-171.137 212.861 0.1
-162.645 224.03 0.1
-152.46 209.027 0.1
-138.965 190.483 0.1
-195.677 229.538 0.1
-148.644 241.586 0.1
-174.616 220.448 0.1
-192.555 189.433 0.1
-185.81 212.939 0.1
-141.847 223.248 0.1
-163.998 203.679 0.1
-195.556 220.82 0.1
-133.798 185.891 0.1
-204.445 216.535 0.1
-193.927 199.816 0.1
-169.18 211.364 0.1
-180.694 213.68 0.1
-149.337 190.95 0.1
-146.343 244.578 0.1
-135.193 188.236 0.1
-199.613 216.557 0.1
-145.809 228.751 0.1
-171.909 247.226 0.1
-157.662 229.999 0.1
-148.299 210.982 0.1
-140.183 192.756 0.1
-146.857 235.481 0.1
-145.045 200.946 0.1
-190.065 221.618 0.1
-193.326 217.624 0.1
-182.628 227.27 0.1
-187.479 229.671 0.1
-159.63 219.779 0.1
-175.578 213.32 0.1
-151.357 247.142 0.1
-202.268 210.031 0.1
-199.252 198.665 0.1
-191.511 200.994 0.1
-146.036 203.469 0.1
-145.197 205.664 0.1
-204.449 197.387 0.1
-167.994 224.581 0.1
-148.016 250.528 0.1
-202.075 224.865 0.1
-180.674 237.987 0.1
-153.813 226.712 0.1
-148.79 236.669 0.1
-154.85 208.867 0.1
-141.956 185.731 0.1
-189.927 194.279 0.1
-150.589 255.096 0.1
-181.283 221.834 0.1
-160.074 197.185 0.1
-160.309 229.766 0.1
-165.4 213.237 0.1
-204.352 209.939 0.1
-144.059 219.629 0.1
-172.446 228.026 0.1
-158.959 225.267 0.1
-189.941 250.828 0.1
-186.141 194.272 0.1
-199 183.611 0.1
-202.563 181.85 0.1
-160.449 204.732 0.1
-204.631 200.18 0.1
-162.192 229.682 0.1
-150.782 192.789 0.1
-166.007 209.424 0.1
-157.008 201.295 0.1
-193.36 246.333 0.1
-157.568 218.053 0.1
-159.44 239.882 0.1
-144.684 189.382 0.1
-151.686 194.953 0.1
-191.634 215.408 0.1
-157.619 205.804 0.1
-151.376 237.452 0.1
-142.244 235.92 0.1
-190.352 237.984 0.1
-199.052 252.652 0.1
-193.683 224.434 0.1
-158.499 243.434 0.1
-195.304 223.364 0.1
-165.514 215.41 0.1
-154.911 192.287 0.1
-150.226 204.189 0.1
-159.007 210.958 0.1
-146.306 197.387 0.1
-186.139 200.143 0.1
-151.242 240.612 0.1
-149.446 195.953 0.1
-140.415 232.588 0.1
-138.975 228.254 0.1
-146.256 226.297 0.1
-202.4 219.056 0.1
-202.337 197.585 0.1
-194.078 237.81 0.1
-147.592 218.956 0.1
-166.697 248.745 0.1
-157.509 236.025 0.1
-148.689 207.01 0.1
-148.872 208.273 0.1
-144.8 221.591 0.1
-190.155 208.522 0.1
-191.867 250.506 0.1
-174.166 214.444 0.1
-180.16 256.187 0.1
-192.789 186.673 0.1
-196.371 208.442 0.1
-192.951 256.113 0.1
-145.184 217.281 0.1
-181.816 229.796 0.1
-156.567 190.849 0.1
-148.651 193.659 0.1
-201.664 250.369 0.1
-142.664 221.706 0.1
-153.79 232.699 0.1
-198.31 186.753 0.1
-174.297 229.809 0.1
-196.872 250.473 0.1
-139.28 240.724 0.1
-185.489 227.588 0.1
-172.877 211.112 0.1
-165.597 224.694 0.1
-147.787 247.071 0.1
-144.879 229.953 0.1
-188.128 198.327 0.1
-204.578 207.616 0.1
-175.461 250.927 0.1
-179.097 217.821 0.1
-156.14 204.824 0.1
-151.949 224.899 0.1
-168.148 226.346 0.1
-168.125 207.514 0.1
-164.09 254.289 0.1
-165.516 203.07 0.1
-185.425 217.493 0.1
-160.014 203.407 0.1
-204.667 223.712 0.1
-196.56 199.069 0.1
-187.117 213.395 0.1
-192.709 227.069 0.1
-167.331 214.171 0.1
-140.813 244.394 0.1
-164.709 250.985 0.1
-161.593 246.669 0.1
-167.362 206.08 0.1
-151.083 232.099 0.1
-160.002 214.149 0.1
-169.029 245.964 0.1
-157.132 209.593 0.1
-202.112 207.608 0.1
-161.845 204.616 0.1
-204.768 183.774 0.1
-156.128 186.853 0.1
-192.32 248.91 0.1
-199.724 213.913 0.1
-146.933 242.46 0.1
-159.079 195.494 0.1
-159.143 191.583 0.1
-174.607 252.416 0.1
-201.99 248.398 0.1
-160.727 212.8 0.1
-184.258 221.722 0.1
-189.462 256.249 0.1
-154.021 203.633 0.1
-182.799 247.123 0.1
-142.51 229.125 0.1
-141.323 199.272 0.1
-173.726 216.514 0.1
-145.391 224.415 0.1
-183.747 219.861 0.1
-161.147 195.217 0.1
-139.836 187.583 0.1
-199.099 243.47 0.1
-166.058 217.597 0.1
-193.187 198.21 0.1
-193.655 253.758 0.1
-139.107 237.997 0.1
-155.12 194.333 0.1
-154.064 196.382 0.1
-190.335 228.17 0.1
-147.624 185.7 0.1
-192.097 192.328 0.1
-146.327 194.703 0.1
-197.583 227.664 0.1
-177.731 245.969 0.1
-165.892 220.337 0.1
-152.905 193.029 0.1
-165.607 229.957 0.1
-184.399 245.889 0.1
-144.503 249.666 0.1
-139.916 196.681 0.1
-163.634 249.537 0.1
-151.287 201.726 0.1
-164.784 227.575 0.1
-204.591 229.589 0.1
-148.186 203.097 0.1
-148.011 239.335 0.1
-202.208 184.577 0.1
-149.078 200.463 0.1
-141.242 246.24 0.1
-174.419 249.541 0.1
-153.802 185.835 0.1
-156.024 253.909 0.1
-170.07 241.245 0.1
-170.113 217.528 0.1
-195.887 203.326 0.1
-187.864 228.391 0.1
-185.781 202.553 0.1
-164.144 241.937 0.1
-185.863 224.355 0.1
-192.423 220.464 0.1
-154.437 198.824 0.1
-177.728 249.102 0.1
-169.565 252.476 0.1
-150.309 212.33 0.1
-176.567 211.027 0.1
-136.761 191.25 0.1
-162.576 205.628 0.1
-204.708 195.884 0.1
-158.784 220.379 0.1
-152.398 212.624 0.1
-202.043 244.447 0.1
-175.428 227.677 0.1
-187.165 217.5 0.1
-152.984 210.291 0.1
-190.745 247.841 0.1
-186.96 215.201 0.1
-163.99 215.677 0.1
-198.951 224.978 0.1
-174.132 225.263 0.1
-181.933 218.104 0.1
-145.476 230.888 0.1
-142.829 192.563 0.1
-146.62 222.636 0.1
-203.21 250.978 0.1
-182.308 210.846 0.1
-139.507 229.365 0.1
-153.121 198.591 0.1
-148.816 223.676 0.1
-165.219 223.41 0.1
-191.226 216.816 0.1
-202.281 256.274 0.1
-143.782 197.418 0.1
-176.032 216.457 0.1
-162.535 222.495 0.1
-157.156 224.725 0.1
-181.064 219.108 0.1
-185.35 252.094 0.1
-149.487 218.331 0.1
-163.154 219.802 0.1
-146.137 207.437 0.1
-154.868 218.548 0.1
-145.007 196.642 0.1
-174.039 221.569 0.1
-197.431 245.755 0.1
-191.333 212.648 0.1
-159.22 237.921 0.1
-174.684 222.897 0.1
-148.937 212.421 0.1
-151.421 219.193 0.1
-153.498 206.705 0.1
-143.699 234.013 0.1
-143.571 230.095 0.1
-142.145 190.131 0.1
-187.681 237.922 0.1
-143.864 232.324 0.1
-197.393 221.048 0.1
-202.5 229.7 0.1
-189.108 218.91 0.1
-193.525 188.379 0.1
-181.307 226.556 0.1
-155.772 206.92 0.1
-164.097 199.982 0.1
-164.509 221.212 0.1
-195.087 240.123 0.1
-200.28 241.131 0.1
-145.636 233.329 0.1
-199.996 251.456 0.1
-141.627 231.093 0.1
-188.537 245.842 0.1
-200.078 186.19 0.1
-172.477 223.643 0.1
-186.607 222.68 0.1
-198.641 201.755 0.1
-194.901 249.694 0.1
-202.256 194.962 0.1
-201.925 253.34 0.1
-148.378 198.997 0.1
-166.265 204.216 0.1
-145.364 215.924 0.1
-154.217 253.637 0.1
-163.424 202.603 0.1
-203.047 254.045 0.1
-178.553 242.42 0.1
-189.576 217.058 0.1
-143.624 199.964 0.1
-145.747 191.712 0.1
-156.559 226.468 0.1
-156.29 198.273 0.1
-185.858 197.54 0.1
-151.029 206.538 0.1
-189.057 215.285 0.1
-154.779 221.088 0.1
-179.542 223.36 0.1
-142.425 240.091 0.1
-157.494 191.826 0.1
-197.897 222.467 0.1
-204.934 220.057 0.1
-170.028 210.703 0.1
-158.796 193.553 0.1
-155.498 196.498 0.1
-143.094 231.171 0.1
-148.473 229.017 0.1
-155.343 193.242 0.1
-146.879 190.815 0.1
-142.106 193.497 0.1
-152.605 199.961 0.1
-191.027 191.439 0.1
-188.844 208.82 0.1
-150.778 198.984 0.1
-201.28 182.578 0.1
-165.43 256.416 0.1
-142.409 243.87 0.1
-143.626 187.76 0.1
-144.211 223.86 0.1
-196.918 205.997 0.1
-139.322 241.968 0.1
-185.058 249.1 0.1
-159.999 228.095 0.1
-157.816 197.297 0.1
-155.484 243.072 0.1
-194.702 207.73 0.1
-195.472 215.085 0.1
-190.898 187.341 0.1
-169.954 228.098 0.1
-192.888 214.94 0.1
-172.063 214.769 0.1
-176.625 256.462 0.1
-188.592 223.841 0.1
-155.141 200.094 0.1
-144.824 237.285 0.1
-183.393 212.688 0.1
-207.721 254.138 0.1
-173.712 223.976 0.1
-191.159 243.617 0.1
-200.582 192.455 0.1
-197.8 184.055 0.1
-160.426 209.048 0.1
-199.031 247.993 0.1
-141.691 219.459 0.1
-162.144 200.63 0.1
-190.586 210.782 0.1
-175.77 225.198 0.1
-177.148 237.606 0.1
-175.979 220.461 0.1
-159.81 256.551 0.1
-151.869 220.745 0.1
-152.449 238.29 0.1
-160.358 225.675 0.1
-140.178 191.564 0.1
-170.106 249.907 0.1
-160.685 220.195 0.1
-191.027 195.091 0.1
-187.791 206.488 0.1
-160.926 254.047 0.1
-195.635 256.441 0.1
-202.264 192.125 0.1
-165.83 237.65 0.1
-202.064 220.879 0.1
-156.499 203.794 0.1
-198.386 229.798 0.1
-195.558 201.762 0.1
-197.848 240.856 0.1
-145.964 220.661 0.1
-140.935 228.588 0.1
-142.941 242.452 0.1
-186.067 242.053 0.1
-183.329 237.933 0.1
-178.217 220.267 0.1
-176.961 212.373 0.1
-163.482 198.952 0.1
-153.205 222.813 0.1
-141.918 226.242 0.1
-140.235 225.907 0.1
-147.25 237.977 0.1
-185.84 192.952 0.1
-185.747 221.411 0.1
-152.088 211.304 0.1
-180.422 252.601 0.1
-162.437 197.383 0.1
-150.642 191.507 0.1
-195.542 226.015 0.1
-181.142 212.661 0.1
-162.541 228.342 0.1
-178.683 229.836 0.1
-192.13 217.616 0.1
-173.788 219.369 0.1
-199.84 219.089 0.1
-140.57 239.078 0.1
-202.278 202.847 0.1
-191.299 222.305 0.1
-183.306 224.76 0.1
-156.346 229.91 0.1
-174.622 215.658 0.1
-180.299 221.882 0.1
-192.299 253.201 0.1
-205.006 203.968 0.1
-171.494 244.615 0.1
-151.031 224.131 0.1
-161.268 224.402 0.1
-198.19 212.001 0.1
-149.03 204.825 0.1
-142.622 222.655 0.1
-151.941 215.279 0.1
-198.895 244.952 0.1
-204.647 188.522 0.1
-170.998 245.957 0.1
-162.894 245.413 0.1
-185.888 204.556 0.1
-198.108 193.259 0.1
-153.279 214.889 0.1
-175.994 243.631 0.1
-148.194 204.368 0.1
-149.727 221.407 0.1
-148.688 226.588 0.1
-162.456 216.018 0.1
-149.569 224.505 0.1
-152.898 194.281 0.1
-147.052 229.699 0.1
-159.217 207.56 0.1
-201.128 223.41 0.1
-192.131 205.256 0.1
-182.679 256.155 0.1
-199.635 191.292 0.1
-158.965 200.949 0.1
-143.749 194.842 0.1
-146.049 202.122 0.1
-201.984 228.009 0.1
-162.684 208.892 0.1
-153.885 204.772 0.1
-202.458 214.837 0.1
-190.625 196.83 0.1
-149.903 189.349 0.1
-149.048 244.502 0.1
-181.295 242.14 0.1
-144.706 243.846 0.1
-193.084 203.101 0.1
-178.168 227.791 0.1
-144.427 190.733 0.1
-175.243 210.918 0.1
-200.447 227.924 0.1
-176.341 218.95 0.1
-172.069 254.112 0.1
-186.282 237.8 0.1
-169.258 243.733 0.1
-156.13 202.02 0.1
-206.662 256.428 0.1
-202.311 204.533 0.1
-154.363 247.758 0.1
-194.327 230.058 0.1
-196.628 223.608 0.1
-174.483 241.315 0.1
-166.325 206.378 0.1
-147.251 195.302 0.1
-151.72 203.902 0.1
-158.517 250.331 0.1
-151.392 235.613 0.1
-184.402 223.601 0.1
-176.473 230.13 0.1
-168.062 241.426 0.1
-200.994 246.187 0.1
-186.153 219.918 0.1
-158.881 212 0.1
-205.952 250.895 0.1
-141.041 195.265 0.1
-187.153 227.228 0.1
-194.507 243.528 0.1
-179.978 243.702 0.1
-198.055 199.364 0.1
-165.218 253.656 0.1
-147.636 225.612 0.1
-180.916 249.969 0.1
-160.238 249.651 0.1
-159.182 253.952 0.1
-189.975 243.021 0.1
-151.678 190.606 0.1
-151.847 187.777 0.1
-144.488 193.768 0.1
-173.709 245.256 0.1
-173.303 212.236 0.1
-162.39 210.965 0.1
-171.015 256.628 0.1
-142.649 202.005 0.1
-189.995 252.667 0.1
-168.185 221.592 0.1
-157.13 223.097 0.1
-154.882 224.579 0.1
-152.957 217.1 0.1
-134.245 187.352 0.1
-167.908 209.853 0.1
-171.488 237.438 0.1
-162.728 206.747 0.1
-158.505 247.929 0.1
-142.576 218.457 0.1
-170.554 239.896 0.1
-197.74 203.33 0.1
-189.404 240.012 0.1
-173.162 246.559 0.1
-182.938 242.129 0.1
-150.993 250.288 0.1
-197.07 210.797 0.1
-167.669 212.818 0.1
-194.062 185.712 0.1
-162.334 226.758 0.1
-147.442 206.703 0.1
-147.002 227.615 0.1
-140.358 240.21 0.1
-157.472 241.959 0.1
-194.353 203.738 0.1
-170.959 218.691 0.1
-157.241 194.724 0.1
-183.507 214.03 0.1
-138.777 194.881 0.1
-175.382 217.835 0.1
-150.214 222.307 0.1
-144.343 242.629 0.1
-138.062 191.323 0.1
-170.155 219.717 0.1
-198.454 205.903 0.1
-141.211 240.939 0.1
-194.71 192.721 0.1
-166.828 215.199 0.1
-152.487 204.861 0.1
-204.804 211.708 0.1
-185.349 239.4 0.1
-185.254 225.928 0.1
-181.811 222.852 0.1
-200.843 213.194 0.1
-150.497 209.928 0.1
-146.208 205.093 0.1
-138.242 185.462 0.1
-177.016 240.388 0.1
-202.897 186.105 0.1
-181.896 245.864 0.1
-182.223 244.728 0.1
-205.08 213.978 0.1
-139.493 224.796 0.1
-176.66 253.764 0.1
-160.559 245.611 0.1
-188.741 192.095 0.1
-164.998 210.735 0.1
-145.504 225.472 0.1
-156.806 254.928 0.1
-205.989 254.175 0.1
-195.471 190.535 0.1
-151.706 229.066 0.1
-149.223 210.297 0.1
-187.366 188.706 0.1
-185.598 207.375 0.1
-151.224 213.19 0.1
-197.376 215.252 0.1
-193.482 191.739 0.1
-160.798 244.594 0.1
-185.651 215.42 0.1
-179.869 214.627 0.1
-192.346 239.683 0.1
-204.997 228.17 0.1
-160.926 217.534 0.1
-202.947 226.581 0.1
-201.652 208.737 0.1
-169.337 216.196 0.1
-201.023 205.452 0.1
-166.808 208.132 0.1
-155.607 216.41 0.1
-158.978 196.631 0.1
-164.641 245.224 0.1
-160.717 200.223 0.1
-148.019 219.978 0.1
-141.079 220.211 0.1
-168.669 218.157 0.1
-185.974 256.581 0.1
-191.318 246.335 0.1
-197.031 256.569 0.1
-155.199 201.95 0.1
-201.098 256.498 0.1
-199.891 220.435 0.1
-155.75 222.509 0.1
-187.373 225.068 0.1
-146.291 187.603 0.1
-166.772 211.79 0.1
-145.902 200.015 0.1
-178.476 212.461 0.1
-157.152 250.943 0.1
-176.543 226.235 0.1
-161.944 213.009 0.1
-153.36 201.38 0.1
-187.041 245.916 0.1
-142.209 247.701 0.1
-197.306 254.207 0.1
-164.83 208.659 0.1
-197.342 248.17 0.1
-145.838 235.19 0.1
-172.735 216.763 0.1
-196.006 241.475 0.1
-194.467 201.106 0.1
-155.781 247.946 0.1
-189.412 211.057 0.1
-165.911 240.331 0.1
-147.27 253.323 0.1
-179.562 241.154 0.1
-172.145 220.446 0.1
-198.836 204.347 0.1
-161.553 239.57 0.1
-169.762 209.6 0.1
-203.249 207.125 0.1
-170.191 222.537 0.1
-204.723 192.833 0.1
-162.162 214.129 0.1
-182.014 254.368 0.1
-196.17 209.708 0.1
-142.852 226.239 0.1
-164.107 217.552 0.1
-176.459 214.391 0.1
-165.669 212.014 0.1
-187.707 218.535 0.1
-157.715 203.672 0.1
-187.576 196.225 0.1
-138.003 194.048 0.1
-203.232 200.239 0.1
-155.508 230.877 0.1
-157.098 215.141 0.1
-177.748 210.589 0.1
-172.265 239.735 0.1
-140.195 230.425 0.1
-137.947 187.62 0.1
-185.826 247.946 0.1
-175.952 246.202 0.1
-196.576 237.639 0.1
-148.553 233.008 0.1
-160.829 206.659 0.1
-171.022 230.126 0.1
-170.065 254.618 0.1
-169.955 253.566 0.1
-171.041 254.203 0.1
-158.544 246.233 0.1
-158.548 245.247 0.1
-159.492 245.838 0.1
-158.996 247.376 0.1
-158.052 246.785 0.1
-145.586 222.366 0.1
-146.292 222.183 0.1
-145.914 222.819 0.1
-195.561 217.659 0.1
-194.571 217.452 0.1
-195.218 216.485 0.1
-163.874 205.007 0.1
-163.571 204.214 0.1
-164.301 204.472 0.1
-154.061 207.705 0.1
-154.771 208.113 0.1
-154.14 208.46 0.1
-156.387 214.585 0.1
-155.659 214.433 0.1
-156.157 213.719 0.1
-188.023 220.83 0.1
-188.623 221.443 0.1
-187.758 221.826 0.1
-166.834 243.94 0.1
-165.781 244.076 0.1
-166.35 243.226 0.1
-156.447 246.128 0.1
-157.273 246.582 0.1
-156.12 247.069 0.1
-160.753 237.669 0.1
-159.821 238.42 0.1
-160.153 237.17 0.1
-159.091 216.296 0.1
-158.396 216.414 0.1
-158.802 215.597 0.1
-196.521 191.199 0.1
-195.805 191.378 0.1
-196.187 190.356 0.1
-195.914 254.454 0.1
-195.413 255.363 0.1
-194.932 254.476 0.1
-143.954 246.468 0.1
-144.985 245.849 0.1
-144.974 247.09 0.1
-187.449 249.722 0.1
-187.886 248.938 0.1
-188.639 249.527 0.1
-195.367 252.423 0.1
-196.27 252.008 0.1
-196.337 253.152 0.1
-144.63 218.694 0.1
-144.789 219.293 0.1
-143.9 219.031 0.1
-157.343 188.152 0.1
-157.817 188.767 0.1
-156.929 188.831 0.1
-187.186 248.122 0.1
-188.377 247.926 0.1
-181.764 220.874 0.1
-181.617 219.921 0.1
-182.511 220.329 0.1
-153.45 237.465 0.1
-153.623 236.287 0.1
-154.265 237.03 0.1
-191.687 219.49 0.1
-192.521 219.73 0.1
-191.589 220.224 0.1
-194.392 252.846 0.1
-194.325 251.702 0.1
-193.398 251.067 0.1
-194.373 250.645 0.1
-150.302 239.519 0.1
-149.663 239.035 0.1
-150.647 238.57 0.1
-149.732 246.556 0.1
-148.744 247.26 0.1
-148.775 246.367 0.1
-171.941 226.091 0.1
-171.074 225.933 0.1
-171.699 225.065 0.1
-190.06 214.914 0.1
-190.766 214.656 0.1
-190.927 215.666 0.1
-157.76 216.911 0.1
-157.471 216.212 0.1
-155.018 237.615 0.1
-155.191 236.436 0.1
-147.337 243.841 0.1
-146.638 243.519 0.1
-147.632 242.781 0.1
-157.196 220.935 0.1
-157.892 220.983 0.1
-157.618 221.844 0.1
-167.149 244.611 0.1
-167.718 243.761 0.1
-157.726 247.726 0.1
-177.669 224.065 0.1
-176.773 224.123 0.1
-177.106 223.325 0.1
-204.903 225.198 0.1
-205.359 225.922 0.1
-204.131 226.036 0.1
-180.101 219.899 0.1
-179.962 220.96 0.1
-179.193 220.392 0.1
-203.31 190.704 0.1
-203.056 191.936 0.1
-202.517 190.894 0.1
-161.442 242.676 0.1
-160.652 241.973 0.1
-161.62 241.591 0.1
-191.721 218.59 0.1
-190.789 219.084 0.1
-196.086 250.876 0.1
-197.056 251.605 0.1
-185.946 226.835 0.1
-186.778 226.654 0.1
-186.321 227.408 0.1
-182.126 215.21 0.1
-181.658 214.438 0.1
-182.574 214.583 0.1
-200.021 206.364 0.1
-200.372 205.4 0.1
-200.673 206.415 0.1
-176.597 248.624 0.1
-177.325 248.436 0.1
-176.999 249.29 0.1
-204.647 252.743 0.1
-205.521 252.203 0.1
-205.474 253.308 0.1
-162.614 241.223 0.1
-161.824 240.521 0.1
-158.115 231.301 0.1
-157.294 230.741 0.1
-158.483 230.558 0.1
-190.027 203.428 0.1
-189.262 204.206 0.1
-189.272 203.217 0.1
-163.738 212.893 0.1
-164.381 213.267 0.1
-163.801 213.808 0.1
-163.458 205.44 0.1
-164.188 205.698 0.1
-148.102 244.195 0.1
-148.69 243.802 0.1
-148.461 244.894 0.1
-180.133 224.602 0.1
-179.291 224.045 0.1
-180.385 223.917 0.1
-185.371 226.758 0.1
-185.828 226.004 0.1
-150.478 233.352 0.1
-150.419 232.497 0.1
-151.142 232.954 0.1
-196.72 217.421 0.1
-196.073 218.387 0.1
-195.069 227.943 0.1
-195.9 228.459 0.1
-194.846 229.022 0.1
-161.443 198.497 0.1
-161.9 198.103 0.1
-162.017 198.83 0.1
-194.114 227.552 0.1
-195.168 226.988 0.1
-204.919 187.086 0.1
-203.926 186.283 0.1
-205.138 186.071 0.1
-153.029 256.383 0.1
-153.531 255.688 0.1
-153.776 256.948 0.1
-143.136 233.728 0.1
-143.219 232.884 0.1
-143.781 233.169 0.1
-195.851 219.193 0.1
-197.01 218.955 0.1
-153.487 228.714 0.1
-154.515 228.626 0.1
-154.015 229.337 0.1
-149.122 248.108 0.1
-150.115 248.12 0.1
-149.535 248.779 0.1
-156.995 187.549 0.1
-183.113 239.468 0.1
-183.157 240.352 0.1
-182.175 239.757 0.1
-181.302 239.43 0.1
-181.347 240.314 0.1
-177.91 214.372 0.1
-177.773 215.293 0.1
-177.212 214.595 0.1
-175.725 248.682 0.1
-176.051 247.828 0.1
-150.107 217.383 0.1
-150.547 216.723 0.1
-151.119 217.426 0.1
-197.684 208.491 0.1
-196.952 208.899 0.1
-197.102 208.034 0.1
-182.39 215.968 0.1
-181.474 215.822 0.1
-198.754 238.272 0.1
-198.282 237.456 0.1
-147.108 244.933 0.1
-170.034 225.13 0.1
-170.224 225.886 0.1
-169.425 226.109 0.1
-161.614 237.368 0.1
-161.282 238.618 0.1
-199.078 207.502 0.1
-198.144 206.764 0.1
-199.388 206.641 0.1
-183.239 216.528 0.1
-183.823 215.839 0.1
-184.019 217.011 0.1
-200.327 248.68 0.1
-201.29 248.05 0.1
-201.027 249.027 0.1
-160.826 198.997 0.1
-160.709 198.27 0.1
-197.337 237.456 0.1
-151.763 233.323 0.1
-151.704 232.468 0.1
-153.535 208.664 0.1
-154.244 209.071 0.1
-187.413 202.03 0.1
-187.371 202.996 0.1
-186.703 202.534 0.1
-201.246 206.773 0.1
-201.596 205.809 0.1
-149.071 249.471 0.1
-150.065 249.484 0.1
-159.829 199.454 0.1
-160.404 199.497 0.1
-160.142 200.18 0.1
-157.258 244.434 0.1
-156.552 245.154 0.1
-156.211 243.947 0.1
-146.228 219.49 0.1
-146.555 218.956 0.1
-147.265 219.49 0.1
-179.522 225.32 0.1
-180.617 225.193 0.1
-149.322 242.563 0.1
-150.27 242.989 0.1
-149.279 243.529 0.1
-182.822 222.295 0.1
-183.458 221.502 0.1
-183.622 222.515 0.1
-147.24 201.253 0.1
-147.558 201.987 0.1
-146.748 201.809 0.1
-165.239 201.869 0.1
-164.363 201.774 0.1
-165.016 201.264 0.1
-155.399 245.64 0.1
-163.063 214.212 0.1
-163.707 214.585 0.1
-146.177 189.689 0.1
-145.194 189.909 0.1
-145.666 189.162 0.1
-192.911 228.393 0.1
-192.258 227.674 0.1
-193.362 227.788 0.1
-165.795 226.701 0.1
-165.694 227.472 0.1
-164.885 226.804 0.1
-156.287 193.1 0.1
-156.874 192.787 0.1
-156.946 193.664 0.1
-195.453 191.882 0.1
-195.119 191.038 0.1
-194.269 204.785 0.1
-194.715 205.669 0.1
-193.715 205.578 0.1
-200.864 250.013 0.1
-201.827 249.383 0.1
-153.417 231.014 0.1
-154.018 231.682 0.1
-153.19 232.03 0.1
-201.867 215.909 0.1
-201.839 217.204 0.1
-200.978 216.478 0.1
-148.737 190.502 0.1
-149.019 189.702 0.1
-149.62 190.149 0.1
-149.022 234.949 0.1
-149.264 235.623 0.1
-148.549 235.996 0.1
-151.931 255.984 0.1
-195.845 184.521 0.1
-195.022 184.906 0.1
-183.301 226.282 0.1
-182.901 225.291 0.1
-183.706 225.751 0.1
-157.708 243.331 0.1
-158.049 244.538 0.1
-151.264 239.833 0.1
-150.279 240.298 0.1
-154.228 239.287 0.1
-155.062 238.651 0.1
-155.198 239.729 0.1
-159.699 200.926 0.1
-160.274 200.969 0.1
-159.691 242.396 0.1
-159.869 241.311 0.1
-158.862 190.551 0.1
-158.513 189.948 0.1
-141.16 191.263 0.1
-141.475 190.263 0.1
-141.83 191.131 0.1
-170.466 226.911 0.1
-165.878 225.766 0.1
-166.687 226.435 0.1
-199.087 205.626 0.1
-195.503 187.073 0.1
-195.997 187.941 0.1
-195.011 187.941 0.1
-187.664 193.957 0.1
-187.078 194.614 0.1
-186.728 193.614 0.1
-196.644 184.377 0.1
-196.236 185.441 0.1
-192.971 205.573 0.1
-193.416 206.458 0.1
-194.977 186.328 0.1
-195.963 186.329 0.1
-151.484 241.862 0.1
-152.373 242.636 0.1
-151.202 242.798 0.1
-142.623 232.797 0.1
-143.268 232.237 0.1
-157.962 252.998 0.1
-158.771 253.092 0.1
-158.373 253.858 0.1
-138.918 233.157 0.1
-138.918 233.79 0.1
-142.28 191.668 0.1
-142.595 190.668 0.1
-159.221 252.482 0.1
-159.632 253.342 0.1
-146.647 214.219 0.1
-147.376 213.591 0.1
-147.504 214.449 0.1
-151.896 195.948 0.1
-152.686 196.452 0.1
-151.674 196.743 0.1
-160.572 201.462 0.1
-161.015 200.716 0.1
-153.597 187.164 0.1
-153.195 186.29 0.1
-154.204 186.708 0.1
-182.586 217.139 0.1
-143.532 221.557 0.1
-144.07 221.167 0.1
-144.263 221.981 0.1
-198.452 208.26 0.1
-198.303 209.126 0.1
-194.703 225.686 0.1
-193.948 225.515 0.1
-194.438 224.605 0.1
-153.617 230.045 0.1
-154.644 229.957 0.1
-144.315 201.948 0.1
-144.29 202.733 0.1
-143.663 202.227 0.1
-190.798 213.905 0.1
-191.666 214.656 0.1
-149.956 200.118 0.1
-150.414 199.666 0.1
-150.777 200.547 0.1
-201.976 190.316 0.1
-201.722 191.547 0.1
-153.809 188.037 0.1
-152.8 187.619 0.1
-150.365 202.618 0.1
-150.459 202.027 0.1
-151.193 202.317 0.1
-202.779 212.461 0.1
-201.819 212.489 0.1
-202.286 211.6 0.1
-183.122 230.054 0.1
-184.022 230.054 0.1
-145.004 222.297 0.1
-145.382 221.66 0.1
-190.817 203.239 0.1
-190.807 204.228 0.1
-142.199 227.552 0.1
-142.8 227.541 0.1
-142.563 228.02 0.1
-150.154 216.151 0.1
-151.166 216.194 0.1
-149.997 235.578 0.1
-149.524 236.625 0.1
-145.61 238.899 0.1
-145.859 239.651 0.1
-144.98 239.447 0.1
-148.818 245.475 0.1
-147.83 246.179 0.1
-154.205 211.766 0.1
-154.35 212.618 0.1
-153.594 212.48 0.1
-143.01 226.96 0.1
-143.374 227.429 0.1
-146.83 239.884 0.1
-146.2 240.432 0.1
-161.138 199.723 0.1
-203.871 253.215 0.1
-203.917 252.11 0.1
-148.895 239.024 0.1
-149.241 238.075 0.1
-174.104 212.312 0.1
-174.9 212.395 0.1
-174.782 213.238 0.1
-189.059 202.465 0.1
-188.294 203.244 0.1
-149.975 201.663 0.1
-150.803 201.362 0.1
-189.736 245.746 0.1
-190.61 245.554 0.1
-190.445 246.528 0.1
-190.974 244.863 0.1
-191.683 245.644 0.1
-190.902 256.696 0.1
-191.835 256.696 0.1
-152.004 206.851 0.1
-152.829 206.409 0.1
-152.673 207.147 0.1
-193.811 204.215 0.1
-194.811 204.307 0.1
-184.383 225.764 0.1
-183.983 224.773 0.1
-143.956 234.879 0.1
-144.327 235.576 0.1
-143.538 235.636 0.1
-188.162 190.379 0.1
-189.048 190.284 0.1
-188.653 191.175 0.1
-155.216 214.938 0.1
-154.986 214.072 0.1
-158.647 205.718 0.1
-159.351 205.423 0.1
-159.23 206.405 0.1
-174.999 211.688 0.1
-175.677 212.613 0.1
-172.879 225.954 0.1
-172.255 226.821 0.1
-163.072 243.087 0.1
-163.277 242.115 0.1
-163.939 242.909 0.1
-152.296 226.974 0.1
-152.913 226.455 0.1
-153.196 227.23 0.1
-197.067 226.751 0.1
-196.497 226.251 0.1
-197.442 225.623 0.1
-152.649 233.687 0.1
-152.087 234.173 0.1
-146.659 233.452 0.1
-145.956 233.785 0.1
-146.34 232.997 0.1
-158.072 206.252 0.1
-158.194 205.27 0.1
-144.105 220.57 0.1
-144.835 220.995 0.1
-164.473 206.334 0.1
-164.645 207.06 0.1
-163.944 206.856 0.1
-144.018 204.362 0.1
-144.402 205.027 0.1
-202.665 193.84 0.1
-201.989 192.889 0.1
-202.94 193.076 0.1
-178.218 215.935 0.1
-177.519 216.158 0.1
-161.436 222.361 0.1
-160.566 222.988 0.1
-160.658 222.111 0.1
-182.899 218.538 0.1
-183.591 218.78 0.1
-183.055 219.619 0.1
-155.988 238.057 0.1
-152.639 207.821 0.1
-153.464 207.378 0.1
-192.065 255.931 0.1
-192.722 256.878 0.1
-203.162 221.845 0.1
-202.431 221.916 0.1
-202.795 220.807 0.1
-151.285 195.596 0.1
-152.297 195.305 0.1
-166.429 207.543 0.1
-166.056 207.17 0.1
-166.698 206.751 0.1
-191.057 220.583 0.1
-191.891 220.823 0.1
-185.014 216.908 0.1
-184.43 217.596 0.1
-156.855 219.397 0.1
-156.904 218.387 0.1
-157.519 219.064 0.1
-150.503 205.649 0.1
-150.034 205.101 0.1
-150.694 204.737 0.1
-155.851 193.609 0.1
-155.779 192.733 0.1
-204.795 198.881 0.1
-203.954 198.105 0.1
-205.29 198.164 0.1
-144.116 233.616 0.1
-144.199 232.771 0.1
-151.858 202.762 0.1
-152.168 203.258 0.1
-151.409 203.405 0.1
-162.084 201.437 0.1
-162.046 202.049 0.1
-161.274 201.821 0.1
-184.872 210.789 0.1
-185.558 210.086 0.1
-185.702 211.071 0.1
-178.521 223.998 0.1
-178.188 224.796 0.1
-199.252 194.443 0.1
-198.382 194.154 0.1
-198.977 193.548 0.1
-164.515 243.621 0.1
-164.72 242.65 0.1
-188.044 193.16 0.1
-188.394 194.16 0.1
-170.299 255.704 0.1
-169.214 255.067 0.1
-165.48 207.25 0.1
-165.749 206.458 0.1
-156.262 225.219 0.1
-156.858 225.596 0.1
-155.964 226.091 0.1
-196.696 213.096 0.1
-195.796 213.535 0.1
-195.941 212.634 0.1
-179.298 222.406 0.1
-179.677 221.667 0.1
-179.921 222.621 0.1
-205.096 218.786 0.1
-205.096 217.781 0.1
-146.105 218.413 0.1
-147.142 218.412 0.1
-154.769 211.181 0.1
-155.477 210.739 0.1
-155.669 211.462 0.1
-153.51 241.032 0.1
-154.531 241.177 0.1
-153.677 241.844 0.1
-147.426 233.363 0.1
-147.042 234.151 0.1
-163.481 241.045 0.1
-184.13 218.245 0.1
-184.286 219.326 0.1
-193.361 229.147 0.1
-192.257 229.034 0.1
-204.46 230.353 0.1
-203.415 230.409 0.1
-203.545 229.645 0.1
-159.398 201.332 0.1
-159.266 200.543 0.1
-185.03 243.548 0.1
-185.545 242.88 0.1
-186.117 244.018 0.1
-196.202 204.779 0.1
-195.578 204.101 0.1
-196.511 204.004 0.1
-140.018 189.646 0.1
-139.885 190.439 0.1
-139.098 189.69 0.1
-199.982 203.41 0.1
-199.713 204.089 0.1
-199.104 203.668 0.1
-141.923 201.123 0.1
-142.477 201.247 0.1
-142.095 201.881 0.1
-145.909 223.423 0.1
-146.615 223.239 0.1
-153.167 221.009 0.1
-154.134 220.71 0.1
-153.812 221.387 0.1
-196.172 220.29 0.1
-195.235 219.723 0.1
-185.125 218.142 0.1
-149.764 193.43 0.1
-150.081 192.636 0.1
-150.465 193.584 0.1
-148.452 189.19 0.1
-149.336 188.838 0.1
-139.385 186.341 0.1
-138.442 186.079 0.1
-139.186 185.724 0.1
-165.704 202.215 0.1
-165.052 202.725 0.1
-199.259 188.9 0.1
-198.272 189.18 0.1
-198.653 188.232 0.1
-167.123 204.597 0.1
-166.775 203.994 0.1
-153.603 222.017 0.1
-154.57 221.718 0.1
-202.075 195.932 0.1
-202.774 196.873 0.1
-201.638 196.644 0.1
-158.63 239.915 0.1
-158.52 238.934 0.1
-159.33 238.902 0.1
-143.04 245.217 0.1
-142.261 244.539 0.1
-143.187 244.548 0.1
-162.92 200.821 0.1
-163.562 200.573 0.1
-163.497 201.417 0.1
-148.444 192.295 0.1
-148.423 191.529 0.1
-149.359 191.716 0.1
-144.277 185.4 0.1
-145.366 185.396 0.1
-144.847 186.326 0.1
-142.546 188.28 0.1
-142.169 189.041 0.1
-141.594 188.161 0.1
-205.381 199.56 0.1
-204.045 199.501 0.1
-199.483 193.16 0.1
-198.613 192.872 0.1
-200.156 204.59 0.1
-199.278 204.848 0.1
-193.766 218.81 0.1
-194.461 219.495 0.1
-193.314 219.68 0.1
-160.836 194.218 0.1
-160.488 193.615 0.1
-151.159 243.763 0.1
-163.422 207.164 0.1
-163.25 206.439 0.1
-143.077 236.126 0.1
-142.705 235.429 0.1
-171.202 227.859 0.1
-170.521 228.428 0.1
-170.635 227.528 0.1
-196.377 196.228 0.1
-196.125 195.274 0.1
-197.071 195.395 0.1
-165.784 216.504 0.1
-165.176 215.99 0.1
-166.122 215.924 0.1
-149.884 187.061 0.1
-149.642 188.069 0.1
-149.011 187.319 0.1
-191.484 188.825 0.1
-190.877 188.42 0.1
-191.505 187.746 0.1
-202.514 230.409 0.1
-151.17 222.073 0.1
-151.347 221.113 0.1
-151.691 221.706 0.1
-204.063 221.437 0.1
-203.699 222.546 0.1
-158.088 219.543 0.1
-158.137 218.533 0.1
-187.138 190.604 0.1
-187.533 189.713 0.1
-167.055 205.182 0.1
-166.197 204.801 0.1
-203.237 224.133 0.1
-203.733 223.333 0.1
-204.171 224.512 0.1
-152.18 222.176 0.1
-152.357 221.215 0.1
-155.673 224.769 0.1
-156.567 224.274 0.1
-152.797 225.704 0.1
-153.697 225.96 0.1
-146.764 189.878 0.1
-146.292 190.626 0.1
-155.62 219.259 0.1
-156.195 219.708 0.1
-155.575 220.246 0.1
-155.188 252.091 0.1
-155.268 252.944 0.1
-154.137 252.784 0.1
-193.418 226.079 0.1
-193.153 224.997 0.1
-156.296 188.921 0.1
-155.424 189.406 0.1
-155.583 188.7 0.1
-189.658 224.214 0.1
-190.668 224.036 0.1
-190.144 224.899 0.1
-142.236 228.578 0.1
-141.723 228.856 0.1
-141.448 228.309 0.1
-141.85 233.47 0.1
-141.296 232.885 0.1
-142.019 232.859 0.1
-197.019 239.292 0.1
-195.974 239.281 0.1
-196.606 238.481 0.1
-200.007 256.643 0.1
-199.091 256.763 0.1
-199.136 255.763 0.1
-150.83 219.517 0.1
-151.645 219.969 0.1
-151.054 220.293 0.1
-153.026 222.25 0.1
-152.359 222.74 0.1
-203.733 192.886 0.1
-149.015 193.071 0.1
-148.08 192.884 0.1
-184.956 225.357 0.1
-184.68 226.336 0.1
-189.707 189.494 0.1
-190.197 190.29 0.1
-200.719 187.803 0.1
-199.859 187.071 0.1
-200.938 186.923 0.1
-151.494 227.072 0.1
-150.492 227.257 0.1
-151.01 226.384 0.1
-166.799 219.796 0.1
-167.214 219.047 0.1
-167.654 219.883 0.1
-149.699 200.731 0.1
-149.335 199.85 0.1
-156.172 253.08 0.1
-155.121 253.773 0.1
-174.448 227.306 0.1
-173.611 227.412 0.1
-174.031 226.579 0.1
-200.95 225.575 0.1
-200.621 226.491 0.1
-200.111 225.533 0.1
-184.238 211.461 0.1
-184.094 210.476 0.1
-189.079 226.162 0.1
-190.06 225.827 0.1
-190.005 226.911 0.1
-158.127 220.227 0.1
-158.549 221.135 0.1
-153.308 242.535 0.1
-154.33 242.679 0.1
-149.4 194.019 0.1
-195.307 195.115 0.1
-196.001 194.282 0.1
-156.81 220.385 0.1
-158.244 207.47 0.1
-158.871 207.13 0.1
-158.59 207.9 0.1
-148.399 186.755 0.1
-148.156 187.762 0.1
-155.307 240.808 0.1
-156.142 240.173 0.1
-194.12 218.125 0.1
-193.777 216.951 0.1
-197.484 190.849 0.1
-197.103 191.872 0.1
-159.465 217.816 0.1
-159.476 218.766 0.1
-158.696 218.062 0.1
-200.455 212.075 0.1
-199.305 211.616 0.1
-200.177 211.169 0.1
-185.263 242.231 0.1
-186.35 242.702 0.1
-187.54 192.113 0.1
-188.254 191.682 0.1
-188.027 192.526 0.1
-168.213 220.526 0.1
-168.628 219.777 0.1
-159.244 251.658 0.1
-160.105 251.908 0.1
-149.062 213.669 0.1
-149.779 214.229 0.1
-148.949 214.381 0.1
-163.499 207.755 0.1
-162.805 207.337 0.1
-200.281 217.165 0.1
-200.309 215.87 0.1
-178.528 222.36 0.1
-178.772 223.314 0.1
-153.523 240.19 0.1
-153.387 239.112 0.1
-152.036 223.254 0.1
-152.882 223.327 0.1
-191.397 227.428 0.1
-191.848 226.822 0.1
-205.359 226.928 0.1
-159.195 199.627 0.1
-159.458 198.944 0.1
-197.113 238.066 0.1
-196.8 237.029 0.1
-143.083 190.182 0.1
-143.774 189.946 0.1
-143.736 190.969 0.1
-185.737 201.657 0.1
-185.434 200.945 0.1
-186.442 200.855 0.1
-186.279 254.051 0.1
-187.081 253.548 0.1
-186.844 254.682 0.1
-165.121 247.447 0.1
-166.274 247.749 0.1
-165.544 248.444 0.1
-197.89 190.012 0.1
-198.472 190.685 0.1
-171.807 210.503 0.1
-172.598 210.458 0.1
-172.086 211.157 0.1
-203.632 189.776 0.1
-204.171 190.818 0.1
-164.278 210.175 0.1
-163.669 209.85 0.1
-164.267 209.361 0.1
-142.626 220.707 0.1
-143.002 221.224 0.1
-142.288 221.189 0.1
-147.822 191.081 0.1
-200.944 210.732 0.1
-199.795 210.273 0.1
-147.054 209.604 0.1
-147.438 210.269 0.1
-156.021 185.792 0.1
-155.673 185.189 0.1
-197.284 189.345 0.1
-166.795 256.706 0.1
-167.729 256.706 0.1
-158.767 224.468 0.1
-158.057 224.996 0.1
-157.866 224.197 0.1
-156.942 253.008 0.1
-157.34 252.242 0.1
-171.881 227.492 0.1
-171.767 228.392 0.1
-151.927 244.462 0.1
-152.861 244.329 0.1
-152.698 245.219 0.1
-146.899 200.462 0.1
-147.709 200.64 0.1
-172.176 242.662 0.1
-171.42 242.038 0.1
-172.604 241.694 0.1
-185.928 211.885 0.1
-186.614 211.182 0.1
-163.727 240.241 0.1
-164.39 241.134 0.1
-149.403 198.36 0.1
-149.977 197.648 0.1
-150.168 198.525 0.1
-135.824 190.357 0.1
-136.505 190.423 0.1
-136.08 191.184 0.1
-204.253 217.529 0.1
-205.288 216.788 0.1
-173.51 241.248 0.1
-172.755 240.624 0.1
-159.609 204.734 0.1
-159.391 204.072 0.1
-160.231 204.07 0.1
-162.5 201.148 0.1
-162.564 200.303 0.1
-157.666 232.617 0.1
-157.375 233.516 0.1
-156.635 232.383 0.1
-195.832 226.697 0.1
-196.207 225.569 0.1
-148.07 228.222 0.1
-147.184 228.121 0.1
-147.889 227.715 0.1
-157.514 207.605 0.1
-157.796 206.835 0.1
-163.122 210.27 0.1
-163.111 209.456 0.1
-201.685 186.745 0.1
-200.824 186.012 0.1
-170.738 215.347 0.1
-171.377 215.216 0.1
-171.206 216.079 0.1
-175.831 215.673 0.1
-175.327 216.058 0.1
-175.126 215.273 0.1
-181.971 221.557 0.1
-181.077 221.15 0.1
-149.876 227.881 0.1
-150.383 228.605 0.1
-149.283 228.54 0.1
-139.626 185.228 0.1
-138.683 184.965 0.1
-152.747 203.2 0.1
-152.299 203.843 0.1
-153.026 243.471 0.1
-153.796 244.228 0.1
-148.664 239.66 0.1
-148.242 238.7 0.1
-192.629 237.382 0.1
-193.659 237.114 0.1
-193.047 238.077 0.1
-188.624 246.915 0.1
-189.324 247.731 0.1
-159.396 216.927 0.1
-160.176 217.631 0.1
-200.744 196.693 0.1
-201.443 197.634 0.1
-190.666 239.047 0.1
-190.192 240.061 0.1
-189.878 238.998 0.1
-139.532 234.2 0.1
-138.796 234.513 0.1
-158.998 244.143 0.1
-144.891 198.817 0.1
-145.556 198.436 0.1
-145.47 199.212 0.1
-158.092 249.171 0.1
-157.78 248.566 0.1
-158.817 248.534 0.1
-160.662 221.31 0.1
-159.792 221.938 0.1
-185.524 254.505 0.1
-185.76 253.37 0.1
-162.272 199.6 0.1
-162.729 199.207 0.1
-184.277 241.237 0.1
-184.964 240.376 0.1
-185.145 241.549 0.1
-143.903 189.271 0.1
-144.555 190.058 0.1
-164.835 248.879 0.1
-165.988 249.181 0.1
-183.816 227.867 0.1
-183.077 228.131 0.1
-183.367 227.007 0.1
-142.996 200.966 0.1
-143.168 201.724 0.1
-193.442 216.369 0.1
-192.772 215.699 0.1
-193.558 215.609 0.1
-198.158 256.763 0.1
-167.902 228.691 0.1
-166.943 228.371 0.1
-167.563 227.69 0.1
-140.039 193.86 0.1
-140.383 194.708 0.1
-139.551 194.517 0.1
-140.224 188.909 0.1
-141.011 189.659 0.1
-199.75 184.577 0.1
-200.36 185.099 0.1
-199.467 185.667 0.1
-192.907 211.492 0.1
-193.392 212.361 0.1
-192.488 212.234 0.1
-144.398 187.139 0.1
-145.487 187.135 0.1
-150.662 203.549 0.1
-149.928 203.259 0.1
-148.171 227.258 0.1
-147.285 227.157 0.1
-190.222 188.764 0.1
-190.243 187.685 0.1
-142.069 232.213 0.1
-172.797 214.504 0.1
-173.327 214.055 0.1
-173.635 214.894 0.1
-152.001 219.355 0.1
-152.225 220.131 0.1
-166.5 229.002 0.1
-166.161 228.001 0.1
-182.599 228.64 0.1
-182.15 227.78 0.1
-195.367 225.395 0.1
-194.877 226.306 0.1
-157.035 240.6 0.1
-156.926 239.52 0.1
-185.619 190.203 0.1
-186.398 190.85 0.1
-185.508 191.115 0.1
-142.123 239.293 0.1
-141.451 238.955 0.1
-142.161 238.603 0.1
-141.838 229.461 0.1
-141.05 229.193 0.1
-146.19 231.556 0.1
-145.506 231.485 0.1
-146.159 230.96 0.1
-199.243 250.4 0.1
-198.25 250.226 0.1
-199.071 249.483 0.1
-182.399 223.08 0.1
-182.235 222.067 0.1
-182.996 251.539 0.1
-182.894 250.368 0.1
-183.669 251.002 0.1
-184.453 251.358 0.1
-184.351 250.188 0.1
-155.218 210.073 0.1
-156.118 210.354 0.1
-145.115 248.239 0.1
-146.146 247.62 0.1
-162.631 202.443 0.1
-161.822 202.826 0.1
-190.949 202.442 0.1
-191.729 203.242 0.1
-191.071 228.225 0.1
-190.661 227.373 0.1
-154.013 211.044 0.1
-148.299 214.577 0.1
-149.016 215.137 0.1
-192.153 212.876 0.1
-191.668 212.006 0.1
-143.759 244.381 0.1
-142.981 243.702 0.1
-204.99 191.321 0.1
-205.312 190.393 0.1
-176.352 215.202 0.1
-176.553 215.986 0.1
-142.633 189.645 0.1
-141.681 189.527 0.1
-194.48 196.433 0.1
-193.575 195.885 0.1
-194.526 195.559 0.1
-158.568 226.268 0.1
-158.33 225.53 0.1
-159.197 226.004 0.1
-143.357 203.714 0.1
-144.298 203.659 0.1
-157.001 248.363 0.1
-189.666 238.279 0.1
-189.192 239.293 0.1
-191.683 237.382 0.1
-147.392 189.498 0.1
-147.708 188.634 0.1
-195.068 197.193 0.1
-194.117 197.519 0.1
-175.774 237.359 0.1
-174.829 237.359 0.1
-155.531 187.899 0.1
-154.658 188.383 0.1
-159.312 223.952 0.1
-159.503 224.751 0.1
-192.401 205.855 0.1
-192.7 204.975 0.1
-164.017 219.212 0.1
-164.2 218.367 0.1
-164.79 219.009 0.1
-152.995 247.983 0.1
-152.086 248.085 0.1
-152.266 247.04 0.1
-151.096 205.912 0.1
-150.436 206.275 0.1
-195.339 222.207 0.1
-194.865 221.555 0.1
-196.03 221.472 0.1
-177.965 256.752 0.1
-178.898 256.752 0.1
-165.483 219.408 0.1
-165.666 218.562 0.1
-151.671 248.91 0.1
-150.943 247.967 0.1
-184.33 222.661 0.1
-183.694 223.454 0.1
-153.02 189.39 0.1
-153.861 188.838 0.1
-153.869 189.736 0.1
-139.321 225.891 0.1
-139.698 225.697 0.1
-139.859 226.1 0.1
-205.427 191.864 0.1
-204.286 192.29 0.1
-201.107 184.921 0.1
-185.434 200.139 0.1
-185.619 189.397 0.1
-165.888 257.029 0.1
-166.337 256.092 0.1
-156.83 238.422 0.1
-157.723 238.849 0.1
-176.767 214.953 0.1
-176.904 214.033 0.1
-185.527 198.635 0.1
-185.527 199.44 0.1
-145.389 238.186 0.1
-146.269 238.39 0.1
-196.814 203.328 0.1
-197.437 204.006 0.1
-158.783 227.073 0.1
-157.916 226.599 0.1
-159.931 239.401 0.1
-157.506 227.933 0.1
-156.72 227.465 0.1
-157.345 226.936 0.1
-140.81 242.062 0.1
-140.628 242.741 0.1
-140.076 242.289 0.1
-161.436 209.553 0.1
-160.834 209.713 0.1
-161.028 208.888 0.1
-201.258 224.741 0.1
-201.767 225.7 0.1
-156.786 237.386 0.1
-186.221 203.026 0.1
-186.263 202.06 0.1
-203.703 212.288 0.1
-203.237 213.177 0.1
-146.29 232.373 0.1
-146.943 231.848 0.1
-179.924 218.617 0.1
-180.791 218.505 0.1
-180.197 219.22 0.1
-179.151 215.713 0.1
-178.897 216.578 0.1
-191.934 196.731 0.1
-192.827 196.29 0.1
-192.636 197.2 0.1
-167.667 216.736 0.1
-167.431 215.942 0.1
-168.369 216.24 0.1
-164.878 204.732 0.1
-164.575 203.939 0.1
-200.807 204.642 0.1
-149.392 227.192 0.1
-187.422 252.623 0.1
-186.622 252.013 0.1
-187.529 251.72 0.1
-156.114 227.93 0.1
-155.952 226.933 0.1
-143.395 222.962 0.1
-143.968 223.116 0.1
-143.638 223.706 0.1
-186.941 199.259 0.1
-187.226 198.536 0.1
-187.843 199.05 0.1
-157.867 228.741 0.1
-158.492 228.213 0.1
-188.265 251.321 0.1
-187.465 250.71 0.1
-148.773 234.319 0.1
-148.181 233.535 0.1
-149.145 233.792 0.1
-148.487 242.345 0.1
-149.478 241.805 0.1
-200.179 188.664 0.1
-199.798 189.613 0.1
-205.138 185.065 0.1
-185.915 249.839 0.1
-186.712 250.122 0.1
-185.932 250.827 0.1
-162.098 209.302 0.1
-161.903 210.128 0.1
-150.186 199.11 0.1
-151.007 199.539 0.1
-187.2 195.399 0.1
-186.264 195.057 0.1
-149.437 205.419 0.1
-149.628 204.507 0.1
-187.099 208.135 0.1
-186.681 208.818 0.1
-186.355 207.987 0.1
-140.049 227.46 0.1
-140.732 227.028 0.1
-140.611 227.675 0.1
-199.798 195.376 0.1
-199.991 196.32 0.1
-198.849 195.993 0.1
-182.729 238.403 0.1
-183.712 238.998 0.1
-149.338 203.071 0.1
-149.635 204.001 0.1
-171.747 211.694 0.1
-172.538 211.649 0.1
-188.983 195.344 0.1
-188.971 194.618 0.1
-189.939 195.006 0.1
-169.359 217.281 0.1
-169.391 217.843 0.1
-168.637 217.595 0.1
-156.721 213.144 0.1
-155.993 212.991 0.1
-141.146 225.79 0.1
-140.617 226.096 0.1
-140.764 225.601 0.1
-159.802 216.111 0.1
-145.154 244.902 0.1
-144.336 244.536 0.1
-145.524 244.212 0.1
-155.464 220.892 0.1
-155.95 221.602 0.1
-155.264 221.798 0.1
-162.516 220.379 0.1
-162.334 221.284 0.1
-161.71 220.579 0.1
-166.171 215.305 0.1
-166.779 215.818 0.1
-168.971 216.615 0.1
-169.725 216.862 0.1
-147.57 215.205 0.1
-151.951 202.17 0.1
-185.557 195.571 0.1
-185.557 196.377 0.1
-190.619 209.664 0.1
-189.956 209.2 0.1
-190.819 208.987 0.1
-153.585 216.082 0.1
-153.065 215.434 0.1
-153.798 215.538 0.1
-144.375 199.148 0.1
-144.461 198.372 0.1
-186.232 199.444 0.1
-159.487 243.246 0.1
-158.703 242.584 0.1
-194.403 194.567 0.1
-195.062 199.228 0.1
-195.633 198.674 0.1
-195.989 199.622 0.1
-149.815 241.004 0.1
-150.777 241.318 0.1
-151.603 252.413 0.1
-150.451 252.609 0.1
-151.018 251.673 0.1
-180.967 219.787 0.1
-158.729 203.968 0.1
-159.352 203.303 0.1
-195.904 222.744 0.1
-194.739 222.826 0.1
-143.246 236.781 0.1
-142.413 236.574 0.1
-146.659 192.732 0.1
-147.404 192.957 0.1
-146.554 193.58 0.1
-177.593 222.412 0.1
-178.119 221.504 0.1
-150.532 220.661 0.1
-189.509 249.785 0.1
-189.071 250.57 0.1
-143.008 241.202 0.1
-142.346 240.689 0.1
-143.087 240.604 0.1
-155.717 195.563 0.1
-155.066 194.954 0.1
-155.771 194.942 0.1
-189.924 249.017 0.1
-190.356 250.06 0.1
-186.055 228.077 0.1
-186.887 227.897 0.1
-156.391 194.764 0.1
-155.74 194.155 0.1
-145.189 235.533 0.1
-144.772 236.29 0.1
-144.467 222.687 0.1
-154.906 186.745 0.1
-154.504 185.871 0.1
-169.413 219.622 0.1
-168.854 218.979 0.1
-152.457 232.099 0.1
-153.057 232.768 0.1
-166.939 207.628 0.1
-166.297 208.047 0.1
-197.516 212.893 0.1
-197.37 213.794 0.1
-182.107 223.891 0.1
-183.146 224.034 0.1
-182.267 224.617 0.1
-143.808 240.475 0.1
-143.146 239.961 0.1
-194.782 220.592 0.1
-139.131 192.856 0.1
-138.467 193.162 0.1
-138.391 192.349 0.1
-141.539 200.458 0.1
-199.795 197.309 0.1
-186.937 189.322 0.1
-187.962 189.097 0.1
-147.207 205.93 0.1
-146.315 205.667 0.1
-147.099 205.356 0.1
-138.733 230.096 0.1
-138.733 231.16 0.1
-146.174 245.525 0.1
-147.501 204.927 0.1
-146.61 204.664 0.1
-168.449 210.78 0.1
-167.937 210.594 0.1
-168.42 210.039 0.1
-196.662 228.205 0.1
-196.439 229.285 0.1
-154.027 190.594 0.1
-154.868 190.042 0.1
-145.518 206.659 0.1
-144.905 206.371 0.1
-145.81 205.952 0.1
-158.126 217.583 0.1
-157.202 217.381 0.1
-196.011 214.541 0.1
-195.257 214.079 0.1
-189.218 237.496 0.1
-188.33 238.248 0.1
-188.569 237.17 0.1
-192.332 252.095 0.1
-191.59 251.285 0.1
-192.609 251.316 0.1
-144.639 234.019 0.1
-145.084 233.274 0.1
-145.19 234.074 0.1
-148.985 199.117 0.1
-148.795 198.24 0.1
-194.673 199.996 0.1
-194.317 199.048 0.1
-194.604 245.437 0.1
-195.01 244.561 0.1
-195.576 245.195 0.1
-160.696 223.736 0.1
-159.918 223.487 0.1
-171.668 212.524 0.1
-171.216 212.031 0.1
-146.451 220.342 0.1
-145.741 219.809 0.1
-194.59 213.779 0.1
-194.805 214.785 0.1
-160.97 251.654 0.1
-160.987 250.451 0.1
-161.829 251.023 0.1
-192.657 250.258 0.1
-147.096 188.07 0.1
-157.428 225.259 0.1
-157.13 226.131 0.1
-146.28 206.839 0.1
-145.375 207.257 0.1
-154.035 205.727 0.1
-154.167 206.266 0.1
-153.366 206.165 0.1
-176.682 237.013 0.1
-176.24 237.953 0.1
-194.273 244.166 0.1
-195.244 243.923 0.1
-186.8 192.36 0.1
-187.027 191.516 0.1
-183.698 242.27 0.1
-183.517 241.096 0.1
-201.598 195.333 0.1
-202.733 195.561 0.1
-143.143 202.508 0.1
-182.266 230.457 0.1
-182.671 229.393 0.1
-162.499 251.62 0.1
-162.516 250.416 0.1
-186.442 189.012 0.1
-154.728 185.189 0.1
-161.852 199.927 0.1
-142.629 239.516 0.1
-141.919 239.868 0.1
-140.758 225.175 0.1
-140.229 225.481 0.1
-165.64 204.793 0.1
-165.366 205.326 0.1
-161.402 197.102 0.1
-160.7 197.477 0.1
-160.776 196.81 0.1
-179.044 226.956 0.1
-178.99 227.678 0.1
-178.223 227.069 0.1
-144.959 224.785 0.1
-144.369 224.508 0.1
-144.801 224.138 0.1
-203.239 188.48 0.1
-204.177 187.91 0.1
-203.709 189.092 0.1
-197.831 251.94 0.1
-197.647 250.808 0.1
-181.659 242.778 0.1
-181.001 243.559 0.1
-180.637 242.921 0.1
-148.876 217.249 0.1
-147.924 217.175 0.1
-148.583 216.606 0.1
-170.686 211.655 0.1
-170.607 212.485 0.1
-145.3 223.709 0.1
-144.71 223.431 0.1
-180.141 223.114 0.1
-180.519 222.375 0.1
-161.069 219.097 0.1
-161.069 218.281 0.1
-161.893 218.858 0.1
-148.951 216.006 0.1
-147.998 215.933 0.1
-159.717 227.418 0.1
-159.065 227.75 0.1
-148.244 240.324 0.1
-147.59 240 0.1
-205.365 221.6 0.1
-204.767 221.097 0.1
-205.533 220.559 0.1
-203.519 246.322 0.1
-203.047 245.506 0.1
-153.113 251.704 0.1
-153.417 252.584 0.1
-152.474 252.358 0.1
-147.975 193.732 0.1
-177.089 257.053 0.1
-177.501 256.162 0.1
-154.43 215.382 0.1
-153.911 214.733 0.1
-194.184 215.382 0.1
-193.513 214.712 0.1
-192.333 188.792 0.1
-191.705 189.466 0.1
-173.238 213.41 0.1
-174.076 213.8 0.1
-135.44 189.692 0.1
-200.892 230.173 0.1
-201.778 229.465 0.1
-201.614 230.409 0.1
-188.757 192.729 0.1
-191.944 242.6 0.1
-191.805 241.548 0.1
-192.647 242.087 0.1
-181.428 244.148 0.1
-180.406 244.292 0.1
-192.972 218.31 0.1
-165.651 205.962 0.1
-164.889 205.902 0.1
-200.949 190.173 0.1
-201.744 189.52 0.1
-185.196 213.875 0.1
-185.162 213.191 0.1
-185.844 213.623 0.1
-166.035 210.164 0.1
-165.53 210.82 0.1
-165.503 210.079 0.1
-195.875 196.847 0.1
-195.512 197.933 0.1
-146.587 228.689 0.1
-147.208 229.163 0.1
-146.43 229.225 0.1
-149.104 230.701 0.1
-149.105 229.734 0.1
-149.789 230.232 0.1
-158.023 204.7 0.1
-157.496 204.167 0.1
-158.242 204.204 0.1
-155.667 186.38 0.1
-155.367 187.217 0.1
-186.261 248.54 0.1
-186.751 247.528 0.1
-159.426 228.558 0.1
-191.499 239.228 0.1
-191.185 238.164 0.1
-138.762 232.501 0.1
-139.499 232.821 0.1
-202.418 199.188 0.1
-201.857 198.569 0.1
-202.898 198.204 0.1
-176.039 251.657 0.1
-175.612 252.401 0.1
-175.034 251.671 0.1
-138.905 225.035 0.1
-138.671 225.678 0.1
-191.592 190.175 0.1
-192.442 190.141 0.1
-148.355 197.804 0.1
-147.635 197.312 0.1
-148.492 196.992 0.1
-182.012 251.882 0.1
-181.211 252.135 0.1
-181.419 251.158 0.1
-157.92 202.936 0.1
-157.744 202.178 0.1
-158.515 202.441 0.1
-143.318 247.08 0.1
-143.329 245.839 0.1
-187.151 200.671 0.1
-188.07 200.384 0.1
-187.664 201.281 0.1
-193.185 190.388 0.1
-193.762 190.832 0.1
-192.905 191.294 0.1
-197.026 205.34 0.1
-196.094 205.436 0.1
-156.291 187.534 0.1
-168.441 253.02 0.1
-167.863 253.89 0.1
-167.324 252.929 0.1
-185.166 255.58 0.1
-184.647 254.9 0.1
-146.339 241.169 0.1
-145.368 240.936 0.1
-193.224 222.892 0.1
-193.929 223.362 0.1
-192.978 223.965 0.1
-169.056 210.795 0.1
-168.573 211.35 0.1
-157.448 205.233 0.1
-147.938 198.561 0.1
-180.574 238.987 0.1
-181.402 238.43 0.1
-153.637 216.643 0.1
-152.904 216.539 0.1
-152.474 185.608 0.1
-151.86 186.423 0.1
-151.746 185.285 0.1
-141.087 243.454 0.1
-140.354 243.681 0.1
-194.493 223.899 0.1
-201.852 200.402 0.1
-201.462 201.501 0.1
-200.986 200.653 0.1
-156.536 221.246 0.1
-188.332 201.743 0.1
-150.459 218.964 0.1
-149.863 219.086 0.1
-150.083 218.208 0.1
-163.42 230.173 0.1
-164.321 230.173 0.1
-154.619 197.02 0.1
-154.781 196.44 0.1
-155.335 197.078 0.1
-198.424 246.056 0.1
-198.163 245.353 0.1
-199.156 245.655 0.1
-147.25 239.219 0.1
-174.365 256.724 0.1
-175.299 256.724 0.1
-187.297 220.537 0.1
-188.162 220.154 0.1
-158.364 240.841 0.1
-158.19 241.846 0.1
-157.646 240.953 0.1
-138.798 239.012 0.1
-138.798 239.711 0.1
-187.421 207.537 0.1
-187.748 208.368 0.1
-191.034 210.117 0.1
-190.171 210.33 0.1
-157.024 208.201 0.1
-157.548 208.917 0.1
-156.609 208.877 0.1
-202.875 225.088 0.1
-202.437 223.91 0.1
-191.07 225.649 0.1
-155.195 212.735 0.1
-154.585 213.449 0.1
-140.034 235.298 0.1
-140.066 236.184 0.1
-139.441 235.81 0.1
-168.108 237.335 0.1
-167.163 237.335 0.1
-156.77 189.537 0.1
-186.122 196.691 0.1
-185.293 197.227 0.1
-200.384 199.937 0.1
-199.995 201.037 0.1
-182.562 226.546 0.1
-180.841 254.848 0.1
-180.819 255.875 0.1
-180.182 255.161 0.1
-148.223 200.155 0.1
-148.564 200.947 0.1
-145.894 229.377 0.1
-146.516 229.85 0.1
-159.383 191.042 0.1
-158.621 191.092 0.1
-141.886 243.191 0.1
-141.611 244.132 0.1
-159.986 243.955 0.1
-147.039 203.389 0.1
-147.626 202.82 0.1
-147.599 203.666 0.1
-203.673 256.635 0.1
-204.458 255.709 0.1
-204.482 256.717 0.1
-160.5 210.237 0.1
-160.092 209.572 0.1
-156.854 192.025 0.1
-157.514 192.589 0.1
-195.593 205.933 0.1
-196.417 206.493 0.1
-162.257 208.328 0.1
-161.642 207.974 0.1
-162.268 207.574 0.1
-159.261 202.457 0.1
-159.085 201.7 0.1
-155.972 208.924 0.1
-156.496 209.64 0.1
-151.907 253.293 0.1
-157.751 190.024 0.1
-158.165 189.371 0.1
-164.667 200.661 0.1
-144.951 203.38 0.1
-147.873 199.422 0.1
-148.728 199.73 0.1
-155.125 225.146 0.1
-155.43 224.202 0.1
-157.333 190.725 0.1
-156.985 190.148 0.1
-159.182 223.204 0.1
-203.889 204.691 0.1
-203.236 205.079 0.1
-202.964 204.144 0.1
-150.469 234.192 0.1
-149.746 233.736 0.1
-165.251 228.104 0.1
-199.542 239.022 0.1
-198.439 239.243 0.1
-153.559 205.199 0.1
-154.361 205.3 0.1
-166.518 210.621 0.1
-166.491 209.88 0.1
-145.777 192.534 0.1
-146.628 191.91 0.1
-195.141 210.004 0.1
-194.431 210.439 0.1
-194.18 209.569 0.1
-204.23 220.396 0.1
-191.742 210.408 0.1
-192.476 209.728 0.1
-192.736 210.685 0.1
-147.333 234.772 0.1
-146.566 234.861 0.1
-138.796 235.329 0.1
-138.827 236.215 0.1
-193.461 226.833 0.1
-154.141 213.954 0.1
-200.177 190.335 0.1
-199.257 190.57 0.1
-171.031 210.503 0.1
-144.367 201.194 0.1
-144.994 201.7 0.1
-155.974 249.141 0.1
-155.337 248.513 0.1
-156.418 248.574 0.1
-163.331 223.335 0.1
-162.59 223.262 0.1
-163.276 222.568 0.1
-154.235 246.776 0.1
-153.404 246.011 0.1
-154.463 245.85 0.1
-160.99 208.149 0.1
-161.001 207.395 0.1
-200.408 191.13 0.1
-179.214 218.576 0.1
-179.807 217.861 0.1
-197.595 241.824 0.1
-196.674 242.134 0.1
-196.927 241.165 0.1
-153.382 233.618 0.1
-196.37 253.887 0.1
-196.85 254.774 0.1
-169.897 219.271 0.1
-169.671 220.069 0.1
-152.493 250.253 0.1
-151.582 250.883 0.1
-151.904 249.659 0.1
-175.984 253.109 0.1
-174.978 253.124 0.1
-194.602 211.246 0.1
-193.641 210.812 0.1
-183.319 210.476 0.1
-160.826 196.159 0.1
-160.124 196.534 0.1
-183.846 255.118 0.1
-184.204 254.043 0.1
-169.876 218.176 0.1
-169.154 218.491 0.1
-186.73 198.049 0.1
-187.632 197.84 0.1
-178.255 213.651 0.1
-178.816 214.349 0.1
-195.84 215.889 0.1
-196.424 215.168 0.1
-196.792 215.972 0.1
-176.553 225.031 0.1
-175.99 224.291 0.1
-154.503 197.627 0.1
-153.949 196.989 0.1
-153.854 249.054 0.1
-154.391 249.761 0.1
-153.352 249.735 0.1
-179.291 254.998 0.1
-179.268 256.024 0.1
-141.795 230.047 0.1
-142.467 229.711 0.1
-181.113 252.73 0.1
-180.52 252.006 0.1
-145.843 188.446 0.1
-144.86 188.666 0.1
-168.401 206.849 0.1
-167.744 206.797 0.1
-168.02 206.132 0.1
-176.244 228.316 0.1
-177.151 228.376 0.1
-176.532 229.142 0.1
-158.203 203.435 0.1
-204.633 222.925 0.1
-151.313 225.753 0.1
-150.311 225.938 0.1
-185.178 214.58 0.1
-184.496 214.148 0.1
-197.164 230.075 0.1
-196.401 230.328 0.1
-188.863 224.459 0.1
-189.386 223.596 0.1
-168.346 255.961 0.1
-168.831 256.898 0.1
-153.011 213.657 0.1
-153.51 214.11 0.1
-152.78 214.436 0.1
-171.055 252.09 0.1
-170.248 252.813 0.1
-170.372 251.753 0.1
-151.778 227.847 0.1
-153.939 255.039 0.1
-154.685 255.603 0.1
-186.133 225.218 0.1
-185.558 225.142 0.1
-184.57 244.397 0.1
-183.999 243.259 0.1
-204.874 194.472 0.1
-204.17 193.43 0.1
-205.427 193.876 0.1
-187.505 211.269 0.1
-188.345 211.506 0.1
-187.68 212.233 0.1
-146.405 228.183 0.1
-142.708 238.085 0.1
-143.179 237.463 0.1
-143.304 238.319 0.1
-142.369 220.145 0.1
-143.083 220.18 0.1
-197.118 240.474 0.1
-196.197 240.783 0.1
-158.823 249.735 0.1
-157.786 249.767 0.1
-145.974 243.866 0.1
-146.27 242.807 0.1
-167.997 217.443 0.1
-167.059 217.145 0.1
-162.776 203.985 0.1
-163.203 203.449 0.1
-151.662 205.699 0.1
-151.595 206.326 0.1
-191.677 191.144 0.1
-190.941 190.469 0.1
-202.285 188.659 0.1
-202.753 187.477 0.1
-189.36 196.24 0.1
-188.392 195.853 0.1
-176.236 238.673 0.1
-176.38 239.705 0.1
-175.476 239.331 0.1
-158.351 236.222 0.1
-157.957 234.888 0.1
-166.344 255.354 0.1
-165.437 255.677 0.1
-163.174 205.879 0.1
-162.861 205.189 0.1
-180.784 216.468 0.1
-180.52 215.71 0.1
-148.058 234.692 0.1
-139.503 227.574 0.1
-139.624 226.928 0.1
-168.112 254.875 0.1
-166.995 254.784 0.1
-193.552 242.364 0.1
-193.413 241.312 0.1
-149.354 201.396 0.1
-167.795 230.245 0.1
-168.367 229.463 0.1
-168.88 230.336 0.1
-151.915 230.855 0.1
-151.836 231.73 0.1
-151.161 231.224 0.1
-192.965 207.27 0.1
-193.71 207.274 0.1
-142.036 237.747 0.1
-143.332 185.4 0.1
-184.412 239.118 0.1
-184.028 238.053 0.1
-198.716 246.706 0.1
-197.723 246.404 0.1
-187.279 210.455 0.1
-179.426 228.133 0.1
-178.605 228.245 0.1
-156.364 247.734 0.1
-162.916 202.911 0.1
-163.711 203.141 0.1
-200.094 182.962 0.1
-199.822 183.81 0.1
-199.273 182.763 0.1
-191.477 217.9 0.1
-192.374 218.306 0.1
-185.508 191.921 0.1
-159.207 237.17 0.1
-159.078 230.069 0.1
-158.258 229.51 0.1
-153.5 254.38 0.1
-154.655 254.295 0.1
-182.603 253.56 0.1
-182.787 252.515 0.1
-183.587 253.217 0.1
-171.818 222.504 0.1
-172.444 222.729 0.1
-171.851 223.417 0.1
-173.662 225.974 0.1
-174.5 225.868 0.1
-204.395 180.71 0.1
-203.572 181.096 0.1
-135.255 185.511 0.1
-134.483 186.222 0.1
-134.57 185.18 0.1
-186.907 209.667 0.1
-187.798 209.754 0.1
-164.139 223.512 0.1
-163.454 224.206 0.1
-155.582 190.264 0.1
-156.352 190.238 0.1
-155.796 190.875 0.1
-150.514 230.774 0.1
-150.515 229.807 0.1
-155.62 191.561 0.1
-156.391 191.536 0.1
-197.749 239.674 0.1
-145.51 234.53 0.1
-170.061 215.589 0.1
-170.231 214.726 0.1
-153.207 199.94 0.1
-153.585 200.649 0.1
-152.982 200.671 0.1
-205.416 256.717 0.1
-171.655 224.275 0.1
-172.522 224.433 0.1
-191.041 241.086 0.1
-190.205 241.773 0.1
-190.145 240.798 0.1
-153.081 185.152 0.1
-149.78 225.406 0.1
-149.476 226.036 0.1
-148.84 201.88 0.1
-205.308 180.22 0.1
-205.218 181.33 0.1
-196.397 200.434 0.1
-196.467 201.227 0.1
-195.488 200.969 0.1
-196.875 207.307 0.1
-196.143 207.715 0.1
-153.27 238.249 0.1
-152.629 237.506 0.1
-166.757 252.205 0.1
-166.179 253.076 0.1
-177.766 252.265 0.1
-178.476 253.001 0.1
-177.328 253.122 0.1
-141.811 221.36 0.1
-142.187 221.877 0.1
-158.439 251.282 0.1
-159.323 250.707 0.1
-184.765 212.608 0.1
-183.954 213.065 0.1
-184.204 212.231 0.1
-153.149 197.421 0.1
-153.265 196.815 0.1
-176.463 213.497 0.1
-176.27 212.847 0.1
-177.155 213.024 0.1
-161.43 194.668 0.1
-160.553 194.766 0.1
-146.698 221.596 0.1
-145.964 221.195 0.1
-146.698 221.061 0.1
-139.533 188.24 0.1
-138.589 188.258 0.1
-138.891 187.601 0.1
-159.378 249.991 0.1
-160.183 250.367 0.1
-177.865 247.79 0.1
-178.267 248.456 0.1
-179.673 239.114 0.1
-179.467 240.187 0.1
-178.666 239.313 0.1
-181.127 217.24 0.1
-180.174 217.128 0.1
-181.862 225.148 0.1
-178.006 238.643 0.1
-177.799 239.717 0.1
-179.436 237.33 0.1
-178.49 237.33 0.1
-166.095 254.369 0.1
-203.793 219.629 0.1
-202.963 219.896 0.1
-203.231 218.789 0.1
-156.336 222.152 0.1
-200.413 182.246 0.1
-200.962 183.294 0.1
-190.53 244.195 0.1
-191.603 244.285 0.1
-147.194 191.461 0.1
-147.508 190.434 0.1
-166.393 217.017 0.1
-165.448 217.084 0.1
-154.147 216.96 0.1
-153.466 217.417 0.1
-144.073 227.304 0.1
-143.863 227.885 0.1
-177.365 217.263 0.1
-176.399 217.091 0.1
-176.998 216.629 0.1
-194.427 212.346 0.1
-195.217 211.974 0.1
-154.568 244.876 0.1
-181.744 229.043 0.1
-197.185 201.444 0.1
-196.276 201.979 0.1
-163.473 239.223 0.1
-164.382 239.312 0.1
-186.757 246.846 0.1
-185.832 247.265 0.1
-145.195 219.678 0.1
-145.417 220.53 0.1
-161.289 219.934 0.1
-160.465 219.357 0.1
-186.986 204.262 0.1
-187.584 203.748 0.1
-187.909 204.51 0.1
-158.846 200.198 0.1
-158.474 199.688 0.1
-188.508 226.721 0.1
-188.563 225.636 0.1
-142.149 231.622 0.1
-142.36 231.132 0.1
-142.883 231.661 0.1
-170.34 216.869 0.1
-169.952 216.204 0.1
-150.048 196.862 0.1
-150.813 197.026 0.1
-139.692 225.272 0.1
-164.993 238.712 0.1
-165.247 239.73 0.1
-136.166 185.303 0.1
-136.079 186.345 0.1
-171.913 251.646 0.1
-171.927 250.479 0.1
-172.661 251.095 0.1
-173.31 251.645 0.1
-173.324 250.478 0.1
-166.053 202.818 0.1
-136.884 189.905 0.1
-137.14 190.732 0.1
-144.462 217.856 0.1
-145.351 218.119 0.1
-177.144 238.326 0.1
-159.684 249.396 0.1
-199.697 208.136 0.1
-147.583 235.402 0.1
-193.298 189.679 0.1
-170.044 242.671 0.1
-169.583 241.791 0.1
-170.531 242.125 0.1
-156.861 241.605 0.1
-162.292 196.484 0.1
-162.772 196.958 0.1
-161.957 196.909 0.1
-205.427 192.87 0.1
-144.465 220.014 0.1
-140.572 185.228 0.1
-184.53 229.298 0.1
-185.026 230.361 0.1
-149.733 251.023 0.1
-148.941 251.198 0.1
-148.809 250.352 0.1
-158.264 215.004 0.1
-158.96 214.887 0.1
-199.548 248.825 0.1
-199.81 247.848 0.1
-155.388 207.759 0.1
-155.467 208.514 0.1
-149.501 219.535 0.1
-149.125 218.78 0.1
-157.076 211.131 0.1
-156.755 210.307 0.1
-157.454 210.418 0.1
-155.759 212.16 0.1
-172.584 215.056 0.1
-172.276 214.217 0.1
-194.431 207.096 0.1
-193.981 207.908 0.1
-161.306 223.82 0.1
-160.658 224.318 0.1
-188.135 208.893 0.1
-188.507 209.681 0.1
-153.783 222.58 0.1
-200.203 230.359 0.1
-200.367 229.415 0.1
-198.928 184.378 0.1
-162.117 215.131 0.1
-161.713 214.701 0.1
-162.566 214.559 0.1
-194.043 254.571 0.1
-194.544 253.663 0.1
-179.559 253.139 0.1
-179.121 253.996 0.1
-146.573 224.466 0.1
-147.291 224.175 0.1
-147.255 224.798 0.1
-174.496 239.239 0.1
-174.641 240.271 0.1
-156.584 242.24 0.1
-156.2 243.15 0.1
-155.867 242.162 0.1
-160.946 252.479 0.1
-162.659 219.122 0.1
-162.66 218.306 0.1
-179.141 226.129 0.1
-179.909 226.739 0.1
-163.145 255.02 0.1
-162.576 255.866 0.1
-162.051 255.028 0.1
-184.798 227.166 0.1
-175.774 255.392 0.1
-175.132 254.819 0.1
-175.992 254.406 0.1
-148.981 240.785 0.1
-147.907 241.125 0.1
-157.254 196.62 0.1
-156.516 196.356 0.1
-157.16 195.815 0.1
-166.566 220.484 0.1
-166.126 219.649 0.1
-174.252 254.931 0.1
-174.47 253.945 0.1
-185.413 212.357 0.1
-188.605 230.214 0.1
-189.506 230.214 0.1
-146.312 185.396 0.1
-141.546 231.684 0.1
-163.141 256.75 0.1
-164.074 256.75 0.1
-198.505 227.123 0.1
-198.897 226.286 0.1
-199.39 227.285 0.1
-158.545 200.603 0.1
-177.505 255.421 0.1
-176.629 255.721 0.1
-132.89 185.134 0.1
-164.952 207.771 0.1
-196.963 214.624 0.1
-166.479 221.283 0.1
-167.21 221.437 0.1
-166.449 222.089 0.1
-153.03 250.96 0.1
-153.973 251.187 0.1
-174.169 238.245 0.1
-173.666 237.305 0.1
-146.498 236.501 0.1
-146.705 237.216 0.1
-145.841 236.962 0.1
-205.399 224.398 0.1
-192.37 208.769 0.1
-191.41 208.523 0.1
-192.299 207.84 0.1
-176.018 213.856 0.1
-159.174 240.808 0.1
-160.135 240.385 0.1
-154.123 199.371 0.1
-154.789 199.459 0.1
-154.476 200.006 0.1
-153.486 196.02 0.1
-143.781 238.818 0.1
-144.253 238.196 0.1
-161.944 195.881 0.1
-191.744 240.573 0.1
-192.846 238.864 0.1
-193.876 238.596 0.1
-148.958 252.043 0.1
-148.033 251.372 0.1
-148.19 203.732 0.1
-147.603 204.301 0.1
-195.248 248.556 0.1
-195.299 247.708 0.1
-196.277 248.167 0.1
-141.628 227.637 0.1
-141.865 227.158 0.1
-193.277 247.745 0.1
-193.295 248.503 0.1
-192.302 248.152 0.1
-140.735 241.275 0.1
-141.287 241.726 0.1
-135.851 187.151 0.1
-135.864 187.993 0.1
-135.18 187.394 0.1
-194.72 247.084 0.1
-195.749 246.695 0.1
-167.598 207.319 0.1
-167.216 206.602 0.1
-149.154 232.952 0.1
-202.232 219.968 0.1
-175.77 256.134 0.1
-176.155 257.053 0.1
-166.698 237.95 0.1
-166.295 237.034 0.1
-148.129 210.227 0.1
-147.608 211.025 0.1
-150.1 212.924 0.1
-150.767 212.76 0.1
-150.558 213.354 0.1
-141.115 227.916 0.1
-140.431 228.347 0.1
-199.984 202.37 0.1
-200.594 202.792 0.1
-155.182 223.714 0.1
-155.069 223.056 0.1
-155.864 223.167 0.1
-151.91 254.236 0.1
-152.781 254.181 0.1
-139.608 242.468 0.1
-139.79 241.789 0.1
-173.334 239.185 0.1
-192.005 207.024 0.1
-196.117 211.534 0.1
-184.508 228.29 0.1
-174.059 243.34 0.1
-174.324 242.358 0.1
-175.023 243.38 0.1
-155.055 222.428 0.1
-189.35 193.821 0.1
-178.987 248.889 0.1
-179.608 248.272 0.1
-179.788 249.351 0.1
-189.31 201.717 0.1
-161.43 200.426 0.1
-179.775 247.433 0.1
-180.576 247.894 0.1
-160.028 245.231 0.1
-160.023 246.217 0.1
-156.282 249.949 0.1
-155.201 249.887 0.1
-205.389 187.697 0.1
-147.164 223.508 0.1
-147.846 223.84 0.1
-160.707 230.442 0.1
-161.251 229.724 0.1
-161.648 230.4 0.1
-170.962 222.286 0.1
-171.555 221.598 0.1
-188.107 246.476 0.1
-189.055 246.281 0.1
-170.125 243.37 0.1
-169.177 243.035 0.1
-201.258 188.517 0.1
-171.029 224.049 0.1
-168.115 250.957 0.1
-168.86 250.445 0.1
-168.647 251.547 0.1
-182.579 241.385 0.1
-150.565 235.094 0.1
-150.825 236.097 0.1
-173.77 255.841 0.1
-173.108 254.967 0.1
-188.963 210.21 0.1
-189.3 209.349 0.1
-178.208 254.86 0.1
-163.219 247.45 0.1
-162.143 247.425 0.1
-162.669 246.694 0.1
-192.417 244.046 0.1
-193.413 243.971 0.1
-193.043 244.878 0.1
-160.067 195.1 0.1
-159.627 195.689 0.1
-159.519 194.905 0.1
-152.47 246.145 0.1
-191.805 226.068 0.1
-192.666 226.315 0.1
-204.124 254.738 0.1
-204.933 254.82 0.1
-157.272 229.23 0.1
-175.589 223.748 0.1
-175.369 224.656 0.1
-193.858 249.053 0.1
-192.883 249.46 0.1
-149.535 220.289 0.1
-148.797 219.983 0.1
-193.996 240.486 0.1
-193.091 240.209 0.1
-185.097 249.822 0.1
-185.877 249.117 0.1
-201.426 184.293 0.1
-201.89 185.205 0.1
-162.713 215.504 0.1
-161.86 215.646 0.1
-173.909 247.312 0.1
-174.829 247.145 0.1
-174.258 248.053 0.1
-146.065 214.701 0.1
-151.686 255.11 0.1
-150.812 254.222 0.1
-181.757 241.39 0.1
-180.885 241.064 0.1
-147.185 220.742 0.1
-158.424 237.836 0.1
-171.177 216.903 0.1
-171.817 216.771 0.1
-170.286 251.033 0.1
-169.479 251.756 0.1
-169.405 224.501 0.1
-168.614 224.967 0.1
-168.784 224.115 0.1
-191.973 243.378 0.1
-189.477 221.033 0.1
-189.211 222.028 0.1
-204.311 203.861 0.1
-204.584 204.797 0.1
-164.498 237.356 0.1
-163.553 237.356 0.1
-160.048 247.568 0.1
-160.54 246.746 0.1
-161.101 247.491 0.1
-149.511 217.505 0.1
-183.225 248.365 0.1
-183.926 248.868 0.1
-182.867 249.328 0.1
-165.795 214.835 0.1
-166.452 214.73 0.1
-171.789 252.707 0.1
-139.281 226.668 0.1
-139.826 226.554 0.1
-189.219 245.307 0.1
-159.513 209.379 0.1
-159.124 209.947 0.1
-158.879 209.23 0.1
-152.669 240.857 0.1
-191.663 199.354 0.1
-191.988 200.242 0.1
-191.186 200.106 0.1
-163.29 219.186 0.1
-162.523 219.738 0.1
-168.245 239.071 0.1
-168.057 240.065 0.1
-167.379 239.245 0.1
-142.469 199.532 0.1
-143.129 199.27 0.1
-142.964 200.227 0.1
-166.712 238.691 0.1
-166.524 239.684 0.1
-154.374 222.976 0.1
-155.537 247.28 0.1
-197.597 243.533 0.1
-196.917 244.297 0.1
-196.661 243.556 0.1
-185.927 230.361 0.1
-186.506 229.638 0.1
-186.899 230.394 0.1
-168.987 228.782 0.1
-195.038 206.726 0.1
-203.165 205.896 0.1
-202.24 205.349 0.1
-196.536 242.872 0.1
-195.856 243.635 0.1
-196.203 189.493 0.1
-196.586 188.661 0.1
-190.059 201.498 0.1
-189.331 200.776 0.1
-181.455 247.94 0.1
-181.771 247.089 0.1
-182.483 247.974 0.1
-165.805 221.136 0.1
-143.533 217.399 0.1
-143.159 218.444 0.1
-142.951 217.412 0.1
-162.783 208.41 0.1
-162.157 208.81 0.1
-197.078 187.793 0.1
-148.118 202.264 0.1
-188.289 188.401 0.1
-188.805 187.672 0.1
-189.073 188.759 0.1
-150.459 213.983 0.1
-151.125 213.819 0.1
-186.656 244.659 0.1
-187.376 245.274 0.1
-186.321 245.301 0.1
-182.011 237.646 0.1
-181.282 237.203 0.1
-158.319 191.705 0.1
-157.797 191.214 0.1
-172.929 222.266 0.1
-172.962 223.18 0.1
-179.773 238.114 0.1
-164.006 202.491 0.1
-163.782 201.886 0.1
-162.388 216.832 0.1
-162.541 217.473 0.1
-161.74 217.401 0.1
-175.866 250.203 0.1
-174.94 250.234 0.1
-175.345 249.51 0.1
-145.774 228.063 0.1
-146.371 227.495 0.1
-185.261 224.57 0.1
-142.929 248.65 0.1
-144.223 248.688 0.1
-143.209 249.629 0.1
-157.818 199.417 0.1
-157.321 200.077 0.1
-157.014 199.236 0.1
-146.435 217.219 0.1
-145.938 217.575 0.1
-145.681 216.925 0.1
-189.639 215.604 0.1
-189.478 214.595 0.1
-195.501 230.328 0.1
-162.66 213.782 0.1
-161.729 200.92 0.1
-153.167 217.934 0.1
-153.857 218.387 0.1
-153.049 218.587 0.1
-187.623 237.17 0.1
-188.834 253.353 0.1
-188.492 254.278 0.1
-187.988 253.255 0.1
-150.763 245.508 0.1
-151.56 246.247 0.1
-150.56 246.403 0.1
-142.403 245.83 0.1
-160.534 202.074 0.1
-150.76 198.398 0.1
-163.14 202.134 0.1
-204.569 247.83 0.1
-205.107 248.745 0.1
-204.163 248.728 0.1
-175.216 246.303 0.1
-175.565 247.044 0.1
-140.106 197.793 0.1
-140.49 198.458 0.1
-193.358 197.484 0.1
-192.465 197.925 0.1
-159.165 194.461 0.1
-158.724 195.05 0.1
-200.443 208.608 0.1
-199.817 209.365 0.1
-182.61 237.176 0.1
-168.686 221.006 0.1
-167.712 221.112 0.1
-159.581 229.393 0.1
-159.806 230.442 0.1
-176.437 246.986 0.1
-136.762 186.943 0.1
-162.48 239.235 0.1
-163.135 238.306 0.1
-166.189 222.775 0.1
-166.92 222.929 0.1
-152.5 191.105 0.1
-153.33 191.101 0.1
-152.802 191.919 0.1
-205.014 214.946 0.1
-205.288 215.782 0.1
-204.171 215.699 0.1
-144.298 239.263 0.1
-143.349 239.386 0.1
-152.47 218.825 0.1
-153.16 219.279 0.1
-152.205 216.372 0.1
-151.75 216.023 0.1
-152.396 215.628 0.1
-150.435 231.649 0.1
-181.547 222.343 0.1
-148.609 196.226 0.1
-149.33 196.718 0.1
-133.625 185.18 0.1
-142.062 248.646 0.1
-143.076 247.705 0.1
-159.869 248.726 0.1
-159.557 248.121 0.1
-186.618 224.712 0.1
-186.888 225.574 0.1
-168.723 238.204 0.1
-169.402 239.024 0.1
-161.076 246.14 0.1
-167.473 223.342 0.1
-168.14 223.825 0.1
-167.326 224.098 0.1
-189.905 237.201 0.1
-143.699 220.186 0.1
-188.806 244.702 0.1
-188.125 245.237 0.1
-156.467 211.718 0.1
-200.91 255.283 0.1
-200.213 254.531 0.1
-201.072 254.171 0.1
-199.376 254.893 0.1
-199.537 253.781 0.1
-154.159 200.509 0.1
-153.934 201.24 0.1
-157.6 256.692 0.1
-158.534 256.692 0.1
-197.817 201.976 0.1
-198.191 202.543 0.1
-197.367 202.763 0.1
-179.681 230.291 0.1
-180.581 230.291 0.1
-156.403 199.084 0.1
-156.9 198.424 0.1
-172.691 217.717 0.1
-173.015 218.483 0.1
-172.112 218.361 0.1
-143.29 198.64 0.1
-143.785 199.334 0.1
-169.217 249.881 0.1
-169.75 250.471 0.1
-170.95 217.561 0.1
-200.962 198.618 0.1
-188.057 243.9 0.1
-189.152 243.971 0.1
-147.992 211.689 0.1
-148.618 211.702 0.1
-148.311 212.409 0.1
-160.636 243.826 0.1
-160.147 244.723 0.1
-163.881 219.828 0.1
-194.092 221.327 0.1
-193.395 222.083 0.1
-193.312 221.12 0.1
-140.391 233.487 0.1
-140.035 233.033 0.1
-140.771 233.042 0.1
-163.999 211.508 0.1
-164.339 210.699 0.1
-164.658 211.543 0.1
-188.791 210.8 0.1
-188.966 211.763 0.1
-139.88 237.298 0.1
-140.341 236.811 0.1
-140.749 237.413 0.1
-178.635 220.86 0.1
-178.774 219.799 0.1
-148.164 247.919 0.1
-179.041 251.056 0.1
-179.893 250.69 0.1
-179.766 251.778 0.1
-147.576 222.317 0.1
-148.213 221.875 0.1
-148.356 222.73 0.1
-162.183 243.178 0.1
-161.216 243.56 0.1
-158.133 210.52 0.1
-157.811 209.695 0.1
-163.147 220.443 0.1
-180.788 245.968 0.1
-180.049 246.552 0.1
-180.094 245.465 0.1
-163.308 217.738 0.1
-168.931 223.359 0.1
-168.909 249.289 0.1
-169.799 249.316 0.1
-150.995 244.653 0.1
-149.995 244.809 0.1
-158.797 192.092 0.1
-157.972 192.214 0.1
-164.624 225.208 0.1
-164.102 225.852 0.1
-163.74 225.027 0.1
-179.747 244.704 0.1
-179.008 245.287 0.1
-197.797 226.894 0.1
-196.853 227.521 0.1
-139.577 197.225 0.1
-140.445 197.25 0.1
-150.972 194.039 0.1
-151.288 193.245 0.1
-162.845 243.971 0.1
-191.247 230.359 0.1
-191.739 229.693 0.1
-192.215 230.453 0.1
-160.778 204.18 0.1
-160.56 203.518 0.1
-159.813 193.603 0.1
-160.342 192.901 0.1
-177.336 254.419 0.1
-187.172 243.991 0.1
-150.165 196.096 0.1
-179.516 213.039 0.1
-180.283 213.066 0.1
-179.927 213.654 0.1
-165.334 211.375 0.1
-164.994 212.183 0.1
-177.719 212.417 0.1
-177.912 213.067 0.1
-189.135 251.579 0.1
-163.541 199.979 0.1
-164.118 200.576 0.1
-201.684 242.91 0.1
-201.212 242.094 0.1
-147.852 208.642 0.1
-147.338 209.004 0.1
-147.23 208.175 0.1
-202.936 194.494 0.1
-201.985 194.308 0.1
-197.376 206.811 0.1
-169.266 237.288 0.1
-186.589 241.226 0.1
-186.879 240.341 0.1
-187.636 240.88 0.1
-144.198 226.625 0.1
-144.687 227.081 0.1
-139.238 187.139 0.1
-138.294 187.158 0.1
-191.576 195.455 0.1
-191.375 196.325 0.1
-190.826 195.961 0.1
-163.638 228.253 0.1
-164.063 227.427 0.1
-164.36 228.401 0.1
-151.949 241.156 0.1
-201.87 222.39 0.1
-201.502 221.352 0.1
-186.247 239.89 0.1
-187.295 239.543 0.1
-205.146 206.305 0.1
-205.146 205.3 0.1
-175.384 216.662 0.1
-174.679 216.262 0.1
-171.486 214.626 0.1
-171.954 215.358 0.1
-190.218 206.547 0.1
-189.248 206.431 0.1
-189.977 205.737 0.1
-202.703 183.958 0.1
-201.744 183.577 0.1
-202.239 182.959 0.1
-187.482 222.559 0.1
-186.882 221.947 0.1
-205.365 222.605 0.1
-146.432 209.136 0.1
-204.068 228.945 0.1
-203.023 229 0.1
-190.795 200.775 0.1
-190.774 201.716 0.1
-167.201 251.399 0.1
-167.413 250.297 0.1
-165.843 238.39 0.1
-190.482 205.135 0.1
-189.512 205.019 0.1
-154.329 191.407 0.1
-188.977 214.159 0.1
-188.287 213.442 0.1
-189.209 213.187 0.1
-157.285 212.583 0.1
-157.448 213.311 0.1
-149.861 185.39 0.1
-148.916 185.39 0.1
-140.821 233.971 0.1
-140.085 233.962 0.1
-198.291 227.893 0.1
-166.271 213.664 0.1
-165.738 213.749 0.1
-165.933 213.152 0.1
-174.618 245.383 0.1
-175.355 245.282 0.1
-166.715 224.557 0.1
-167.382 225.04 0.1
-194.395 256.514 0.1
-193.656 256.878 0.1
-193.691 255.749 0.1
-156.575 207.565 0.1
-152.565 239.152 0.1
-143.616 226.308 0.1
-144.23 226.085 0.1
-158.134 195.343 0.1
-157.569 195.402 0.1
-157.805 194.665 0.1
-155.563 192.255 0.1
-154.968 191.594 0.1
-195.024 242.27 0.1
-195.118 243.239 0.1
-194.412 242.559 0.1
-193.647 243.333 0.1
-178.01 237.923 0.1
-177.628 237.013 0.1
-168.346 214.712 0.1
-167.732 214.809 0.1
-167.945 214.074 0.1
-176.327 221.65 0.1
-176.697 222.47 0.1
-175.84 222.563 0.1
-176.252 241.099 0.1
-176.086 242.117 0.1
-175.455 241.381 0.1
-180.429 241.647 0.1
-180.018 240.57 0.1
-181.288 248.779 0.1
-178.607 243.473 0.1
-179.266 243.061 0.1
-179.319 244.114 0.1
-141.804 198.197 0.1
-141.733 197.362 0.1
-142.564 197.74 0.1
-180.282 214.153 0.1
-179.515 214.127 0.1
-149.956 190.643 0.1
-150.238 189.843 0.1
-204.098 247.013 0.1
-203.046 247.121 0.1
-145.078 204.985 0.1
-144.521 205.706 0.1
-164.826 228.93 0.1
-151.341 228.506 0.1
-150.748 229.165 0.1
-175.148 227.075 0.1
-174.728 227.908 0.1
-145.489 202.961 0.1
-145.497 203.888 0.1
-153.589 248.393 0.1
-154.628 248.418 0.1
-157.078 201.984 0.1
-157.674 201.489 0.1
-187.304 256.816 0.1
-188.238 256.816 0.1
-187.8 223.171 0.1
-186.925 223.292 0.1
-154.972 198.95 0.1
-155.325 199.585 0.1
-169.785 227.481 0.1
-166.056 251.546 0.1
-198.008 201.224 0.1
-159.081 255.467 0.1
-158.687 254.846 0.1
-159.577 254.573 0.1
-203.346 199.531 0.1
-202.304 199.896 0.1
-163.873 220.469 0.1
-140.518 220.788 0.1
-140.244 221.539 0.1
-140.935 236.299 0.1
-145.064 251.463 0.1
-146.051 252.443 0.1
-183.041 255.208 0.1
-182.347 255.262 0.1
-182.708 254.315 0.1
-202.264 252.263 0.1
-202.299 251.461 0.1
-203.176 251.78 0.1
-166.685 242.348 0.1
-165.632 242.484 0.1
-146.524 203.852 0.1
-146.122 204.281 0.1
-145.583 204.699 0.1
-145.274 216.602 0.1
-145.771 216.246 0.1
-170.959 241.158 0.1
-163.086 212.669 0.1
-163.667 212.128 0.1
-144.92 228.853 0.1
-145.344 229.352 0.1
-144.455 229.454 0.1
-149.601 215.81 0.1
-200.678 243.886 0.1
-199.887 244.186 0.1
-199.891 243.17 0.1
-150.22 215.281 0.1
-174.072 240.747 0.1
-173.921 241.816 0.1
-191.686 201.72 0.1
-148.132 221.099 0.1
-148.912 221.512 0.1
-138.827 237.031 0.1
-188.766 216.657 0.1
-188.506 215.77 0.1
-189.316 216.171 0.1
-165.25 220.096 0.1
-202.255 245.438 0.1
-202.835 244.514 0.1
-139.695 193.212 0.1
-140.527 193.404 0.1
-141.074 197.135 0.1
-141.834 196.678 0.1
-160.775 229.196 0.1
-161.717 229.154 0.1
-154.739 231.419 0.1
-154.512 232.436 0.1
-173.764 244.175 0.1
-173.065 243.153 0.1
-164.163 226.656 0.1
-163.28 226.475 0.1
-147.455 217.843 0.1
-147.161 217.201 0.1
-137.619 189.576 0.1
-138.342 189.71 0.1
-138.242 190.349 0.1
-166.427 203.391 0.1
-165.891 203.643 0.1
-200.03 250.556 0.1
-199.209 251.299 0.1
-200.881 252.682 0.1
-200.186 252.438 0.1
-200.692 251.7 0.1
-202.141 206.887 0.1
-201.217 207.494 0.1
-158.616 208.451 0.1
-159.243 208.111 0.1
-177.327 246.869 0.1
-178.269 246.89 0.1
-152.183 235.075 0.1
-151.297 234.711 0.1
-180.585 221.174 0.1
-157.653 214.083 0.1
-157.76 214.717 0.1
-156.991 214.506 0.1
-151.603 197.53 0.1
-149.983 220.624 0.1
-149.278 221.072 0.1
-152.142 197.979 0.1
-151.28 198.262 0.1
-141.426 234.08 0.1
-142.149 234.054 0.1
-183.541 247.514 0.1
-183.599 246.506 0.1
-184.341 246.897 0.1
-147.052 241.562 0.1
-146.22 242.066 0.1
-194.404 190.733 0.1
-194.125 191.64 0.1
-184.388 252.998 0.1
-191.126 193.314 0.1
-190.947 194.109 0.1
-190.105 193.484 0.1
-148.837 209.349 0.1
-148.416 208.872 0.1
-149.293 208.75 0.1
-169.765 256.898 0.1
-179.171 214.849 0.1
-179.85 215.491 0.1
-181.52 223.663 0.1
-199.322 199.493 0.1
-200.314 199.109 0.1
-155.104 215.743 0.1
-153.07 224.525 0.1
-153.473 223.723 0.1
-153.985 224.406 0.1
-190.029 212.966 0.1
-189.34 212.249 0.1
-152.784 228.587 0.1
-153.284 227.876 0.1
-173.25 247.389 0.1
-173.821 246.482 0.1
-147.716 206.161 0.1
-146.932 206.472 0.1
-191.13 242.839 0.1
-190.159 247.28 0.1
-189.911 248.291 0.1
-143.195 222.039 0.1
-148.917 205.816 0.1
-149.266 206.512 0.1
-148.34 206.315 0.1
-156.967 215.925 0.1
-157.602 215.428 0.1
-194.007 213.088 0.1
-190.489 195.411 0.1
-190.288 196.281 0.1
-148.308 208.043 0.1
-140.639 224.591 0.1
-141.174 224.711 0.1
-201.659 214.266 0.1
-200.925 214.188 0.1
-201.578 213.272 0.1
-154.783 251.313 0.1
-155.915 251.473 0.1
-155.475 241.62 0.1
-155.091 242.53 0.1
-199.713 253.036 0.1
-199.524 252.054 0.1
-197.988 187.633 0.1
-198.975 187.352 0.1
-169.942 220.9 0.1
-170.427 220.548 0.1
-207.345 252.757 0.1
-206.873 251.94 0.1
-189.68 227.709 0.1
-177.459 219.319 0.1
-178.029 219.491 0.1
-177.647 220.095 0.1
-165.26 214.221 0.1
-164.922 213.709 0.1
-153.426 202.537 0.1
-154.128 203.046 0.1
-153.318 203.124 0.1
-178.899 230.477 0.1
-179.465 229.65 0.1
-157.432 203.172 0.1
-193.556 213.794 0.1
-146.905 216.551 0.1
-173.221 256.759 0.1
-162.624 209.385 0.1
-141.735 195.8 0.1
-142.393 196.027 0.1
-185.62 218.716 0.1
-186.284 219.279 0.1
-185.489 219.354 0.1
-177.807 225.605 0.1
-178.658 225.538 0.1
-200.394 194.77 0.1
-159.459 198.308 0.1
-158.825 198.481 0.1
-168.219 248.729 0.1
-168.801 248.163 0.1
-167.783 208.243 0.1
-167.124 208.552 0.1
-167.466 207.823 0.1
-179.644 229.082 0.1
-180.029 228.515 0.1
-198.555 248.652 0.1
-170.974 220.545 0.1
-170.703 219.713 0.1
-147.478 220.001 0.1
-147.726 220.72 0.1
-170.542 243.935 0.1
-169.676 244.299 0.1
-180.959 228.877 0.1
-180.742 227.928 0.1
-169.095 247.411 0.1
-169.785 247.972 0.1
-140.492 190.98 0.1
-139.572 191.024 0.1
-168.071 225.463 0.1
-167.46 225.923 0.1
-191.498 194.515 0.1
-190.477 194.685 0.1
-199.9 198.173 0.1
-168.129 208.923 0.1
-168.471 208.193 0.1
-184.884 219.545 0.1
-185.549 220.109 0.1
-144.297 228.357 0.1
-143.598 228.482 0.1
-170.678 248.063 0.1
-170.384 248.816 0.1
-156.867 205.306 0.1
-157.038 205.877 0.1
-147.958 213.109 0.1
-161.204 254.96 0.1
-161.773 254.114 0.1
-152.891 235.629 0.1
-152.1 236.167 0.1
-164.558 220.533 0.1
-163.825 221.148 0.1
-151.357 215.45 0.1
-139.336 195.123 0.1
-138.992 194.275 0.1
-171.881 243.497 0.1
-199.975 215.194 0.1
-199.279 215.882 0.1
-150.276 221.444 0.1
-204.57 189.206 0.1
-172.307 248.563 0.1
-173.006 249.074 0.1
-171.976 249.418 0.1
-139.851 238.58 0.1
-139.261 238.629 0.1
-139.697 237.948 0.1
-156.299 205.387 0.1
-156.709 204.743 0.1
-154.699 250.569 0.1
-148.908 202.712 0.1
-186.325 212.468 0.1
-150.991 207.638 0.1
-151.468 208.253 0.1
-150.611 208.302 0.1
-156.363 216.004 0.1
-156.494 215.22 0.1
-167.734 222.656 0.1
-175.698 244.591 0.1
-176.296 245.511 0.1
-203.395 217.578 0.1
-203.587 216.585 0.1
-200.987 208.058 0.1
-201.108 209.287 0.1
-159.891 255.873 0.1
-159 256.146 0.1
-174.046 210.636 0.1
-174.557 210.361 0.1
-174.733 211.194 0.1
-158.168 198.21 0.1
-158.167 198.847 0.1
-174.094 245.831 0.1
-174.233 244.809 0.1
-203.105 214.106 0.1
-204.029 213.933 0.1
-201.797 210.829 0.1
-202.757 210.802 0.1
-198.538 240.424 0.1
-147.203 215.804 0.1
-191.227 223.423 0.1
-191.714 224.108 0.1
-153.45 203.709 0.1
-157.167 211.829 0.1
-157.894 211.996 0.1
-143.017 195.602 0.1
-143.116 196.48 0.1
-191.845 255.173 0.1
-191.116 254.741 0.1
-191.782 254.166 0.1
-190.258 255.062 0.1
-190.196 254.055 0.1
-180.576 242.274 0.1
-179.917 243.055 0.1
-190.746 212.338 0.1
-190.616 213.276 0.1
-153.216 210.96 0.1
-153.78 210.375 0.1
-142.843 223.104 0.1
-143.174 222.513 0.1
-176.045 214.64 0.1
-194.174 249.852 0.1
-195.1 250.487 0.1
-165.663 229.295 0.1
-164.771 229.592 0.1
-168.734 252.268 0.1
-169.272 253.229 0.1
-142.026 230.695 0.1
-141.396 230.445 0.1
-149.468 209.762 0.1
-148.591 209.884 0.1
-197.99 195.699 0.1
-197.738 194.745 0.1
-181.365 245.373 0.1
-181.319 246.46 0.1
-164.55 256.137 0.1
-164.954 257.029 0.1
-201.731 246.309 0.1
-201.519 245.317 0.1
-205.159 202.474 0.1
-205.159 201.469 0.1
-197.437 224.458 0.1
-198.476 224.386 0.1
-197.912 225.05 0.1
-151.883 192.812 0.1
-152.438 192.476 0.1
-152.35 193.365 0.1
-152.766 225.054 0.1
-152.254 224.37 0.1
-198.481 225.551 0.1
-202.364 243.698 0.1
-201.363 243.659 0.1
-175.569 230.1 0.1
-174.905 230.463 0.1
-174.961 229.446 0.1
-154.666 227.701 0.1
-155.194 228.323 0.1
-141.193 193.091 0.1
-140.849 192.443 0.1
-180.54 214.846 0.1
-162.047 256.758 0.1
-181.109 254.251 0.1
-181.746 254.965 0.1
-149.924 208.457 0.1
-150.401 209.072 0.1
-182.123 244.072 0.1
-181.528 244.805 0.1
-153.069 212.977 0.1
-152.923 212.126 0.1
-138.605 193.858 0.1
-137.866 193.352 0.1
-182.079 255.859 0.1
-157.344 234.387 0.1
-156.895 235.524 0.1
-139.619 192.4 0.1
-150.193 186.206 0.1
-150.823 186.956 0.1
-148.624 228.416 0.1
-147.919 228.822 0.1
-189.273 197.33 0.1
-189.697 196.789 0.1
-190.2 197.371 0.1
-166.226 205.882 0.1
-171.228 249.969 0.1
-190.47 199.888 0.1
-146.477 215.823 0.1
-191.184 197.236 0.1
-154.045 194.174 0.1
-153.44 194.619 0.1
-153.502 193.836 0.1
-141.452 235.796 0.1
-141.727 236.422 0.1
-156.538 217.714 0.1
-155.812 218.083 0.1
-156.11 217.077 0.1
-186.077 229.086 0.1
-187.05 229.119 0.1
-205.569 203.465 0.1
-204.596 202.977 0.1
-148.425 220.357 0.1
-201.327 194.678 0.1
-200.78 193.745 0.1
-170.994 247.223 0.1
-171.593 248.067 0.1
-185.201 237.296 0.1
-184.256 237.296 0.1
-154.733 244.018 0.1
-166.981 247.177 0.1
-167.404 248.174 0.1
-137.815 186.417 0.1
-137.468 186.879 0.1
-148.511 205.222 0.1
-164.217 214.93 0.1
-163.48 215.333 0.1
-160.661 195.55 0.1
-150.429 251.079 0.1
-168.571 246.783 0.1
-169.554 246.592 0.1
-164.798 246.736 0.1
-164.068 247.431 0.1
-152.446 200.518 0.1
-152.823 201.227 0.1
-158.445 222.78 0.1
-159.051 222.315 0.1
-185.333 209.237 0.1
-186.163 209.519 0.1
-162.559 237.368 0.1
-193.503 252.942 0.1
-166.057 245.771 0.1
-166.851 245.345 0.1
-166.644 246.327 0.1
-192.448 224.528 0.1
-191.889 225.141 0.1
-191.515 213.276 0.1
-139.451 228.18 0.1
-139.027 227.648 0.1
-200.014 239.838 0.1
-181.245 210.523 0.1
-180.47 210.523 0.1
-190.76 197.777 0.1
-191.302 198.43 0.1
-190.318 198.565 0.1
-165.939 223.512 0.1
-165.469 222.672 0.1
-148.116 195.762 0.1
-148.953 195.489 0.1
-153.035 219.924 0.1
-152.679 220.538 0.1
-167.736 245.167 0.1
-141.814 241.9 0.1
-141.739 241.113 0.1
-205.295 254.012 0.1
-205.628 254.983 0.1
-157.195 242.593 0.1
-162.244 246.041 0.1
-163.32 246.066 0.1
-192.825 252.663 0.1
-191.806 252.633 0.1
-205.218 182.336 0.1
-195.661 193.173 0.1
-196.479 193.331 0.1
-146.262 250.072 0.1
-147.151 249.648 0.1
-147.127 250.952 0.1
-151.981 225.549 0.1
-190.413 207.418 0.1
-191.143 206.723 0.1
-177.012 251.532 0.1
-178.159 251.411 0.1
-158.226 209.019 0.1
-197.475 249.892 0.1
-160.517 217.138 0.1
-160.586 218.027 0.1
-178.287 250.323 0.1
-138.645 238.38 0.1
-192.873 195.415 0.1
-182.141 212.965 0.1
-182.784 212.403 0.1
-182.749 213.249 0.1
-186.599 204.79 0.1
-186.275 204.028 0.1
-199.784 244.926 0.1
-198.997 244.211 0.1
-142.865 186.865 0.1
-141.964 186.566 0.1
-142.857 186.03 0.1
-150.76 249.54 0.1
-192.822 246.863 0.1
-193.815 247.215 0.1
-183.426 211.918 0.1
-166.895 230.245 0.1
-167.775 246.752 0.1
-151.473 229.707 0.1
-150.023 253.589 0.1
-149.438 252.849 0.1
-197.463 193.85 0.1
-160.387 208.309 0.1
-172.72 237.305 0.1
-175.494 219.746 0.1
-175.675 218.99 0.1
-176.16 219.705 0.1
-187.172 238.507 0.1
-187.804 238.958 0.1
-165.114 221.573 0.1
-165.201 220.775 0.1
-188.453 239.284 0.1
-192.731 255.355 0.1
-141.811 192.814 0.1
-141.488 193.774 0.1
-181.267 225.515 0.1
-180.656 226.234 0.1
-157.722 222.494 0.1
-157.026 222.446 0.1
-205.322 251.266 0.1
-206.15 251.832 0.1
-138.475 188.917 0.1
-148.092 204.994 0.1
-155.962 228.855 0.1
-144.548 240.015 0.1
-162.495 204.683 0.1
-162.126 203.917 0.1
-153.506 193.21 0.1
-152.901 193.655 0.1
-181.901 226.189 0.1
-165.157 230.537 0.1
-153.9 227.358 0.1
-140.12 222.313 0.1
-139.846 223.064 0.1
-192.052 186.222 0.1
-191.843 187.007 0.1
-191.106 186.556 0.1
-159.944 210.849 0.1
-160.685 210.99 0.1
-201.526 251.156 0.1
-202.437 250.674 0.1
-162.216 253.204 0.1
-162.84 252.462 0.1
-163.244 253.44 0.1
-201.529 247.066 0.1
-202.229 247.414 0.1
-203.313 248.651 0.1
-203.851 249.566 0.1
-177.7 220.911 0.1
-163.528 251.856 0.1
-181.383 256.603 0.1
-181.983 256.899 0.1
-194.515 188.594 0.1
-194.021 187.726 0.1
-186.88 255.587 0.1
-187.682 255.084 0.1
-189.822 220.216 0.1
-190.41 220.801 0.1
-200.792 246.945 0.1
-142.446 234.801 0.1
-142.87 234.191 0.1
-140.429 238.489 0.1
-139.992 239.17 0.1
-172.347 254.994 0.1
-172.83 254.084 0.1
-182.194 249.865 0.1
-160.849 211.713 0.1
-161.405 211.1 0.1
-185.255 202.15 0.1
-161.757 203.424 0.1
-161.476 204.122 0.1
-150.529 247.296 0.1
-189.162 252.499 0.1
-189.667 253.521 0.1
-180.723 256.915 0.1
-192.445 222.686 0.1
-177.903 217.757 0.1
-177.304 218.22 0.1
-153.769 247.347 0.1
-148.53 253.022 0.1
-196.762 186.186 0.1
-197.273 253.472 0.1
-176.77 210.416 0.1
-175.994 210.416 0.1
-144.67 225.779 0.1
-144.088 225.462 0.1
-185.695 203.429 0.1
-185.309 203.957 0.1
-168.775 222.499 0.1
-169.419 222.788 0.1
-196.3 245.913 0.1
-196.88 246.537 0.1
-158.745 219.695 0.1
-154.915 202.784 0.1
-154.808 203.371 0.1
-198.608 211.355 0.1
-197.63 211.399 0.1
-198.048 210.753 0.1
-179.081 246.929 0.1
-137.111 185.303 0.1
-141.193 235.168 0.1
-141.985 235.292 0.1
-172.344 212.925 0.1
-171.813 213.263 0.1
-165.349 237.034 0.1
-164.979 237.972 0.1
-205.29 197.158 0.1
-156.483 186.264 0.1
-174.165 217.353 0.1
-175.059 217.351 0.1
-174.488 217.837 0.1
-144.489 240.658 0.1
-202.746 209.319 0.1
-203.789 209.273 0.1
-203.31 209.985 0.1
-174.812 219.739 0.1
-175.297 220.455 0.1
-191.289 228.94 0.1
-152.243 211.964 0.1
-152.769 211.466 0.1
-190.712 221.4 0.1
-185.949 241.37 0.1
-192.104 198.566 0.1
-155.333 203.756 0.1
-154.546 204.018 0.1
-195.737 240.107 0.1
-195.324 239.296 0.1
-148.852 218.074 0.1
-164.557 255.399 0.1
-162.549 230.4 0.1
-163.064 229.455 0.1
-152.296 189.746 0.1
-152.288 188.848 0.1
-156.012 199.485 0.1
-155.899 198.674 0.1
-203.799 210.756 0.1
-176.439 242.733 0.1
-175.641 243.015 0.1
-140.992 239.362 0.1
-141.03 238.671 0.1
-178.586 219.023 0.1
-166.898 213.619 0.1
-166.704 214.215 0.1
-157.853 223.383 0.1
-151.377 192.356 0.1
-146 224.129 0.1
-156.047 203.452 0.1
-155.785 204.098 0.1
-172.751 212.211 0.1
-172.896 212.951 0.1
-205.361 230.353 0.1
-165.441 209.555 0.1
-164.937 210.21 0.1
-188.639 206.865 0.1
-188.399 206.055 0.1
-201.358 244.674 0.1
-200.834 245.544 0.1
-145.291 235.005 0.1
-145.736 235.719 0.1
-165.246 245.988 0.1
-165.453 245.007 0.1
-190.747 208.058 0.1
-192.704 245.643 0.1
-192.339 246.334 0.1
-203.901 202.871 0.1
-147.433 198.986 0.1
-146.752 199.339 0.1
-146.817 198.478 0.1
-190.74 222.828 0.1
-191.786 222.9 0.1
-152.788 230.393 0.1
-164.859 212.795 0.1
-147.144 251.796 0.1
-147.66 252.77 0.1
-146.754 252.349 0.1
-202.564 217.846 0.1
-149.304 194.702 0.1
-148.555 194.342 0.1
-191.809 206.153 0.1
-165.709 204.207 0.1
-154.934 219.172 0.1
-155.554 218.634 0.1
-156.736 251.597 0.1
-157.756 251.587 0.1
-183.203 220.571 0.1
-184.003 220.792 0.1
-178.015 243.968 0.1
-177.961 242.915 0.1
-186.761 196.597 0.1
-186.497 197.447 0.1
-172.258 230.352 0.1
-173.159 230.352 0.1
-201.434 255.711 0.1
-200.575 256.071 0.1
-199.334 214.56 0.1
-200.365 214.548 0.1
-189.93 229.454 0.1
-190.346 230.359 0.1
-174.302 218.435 0.1
-175.196 218.433 0.1
-151.761 200.584 0.1
-151.787 201.4 0.1
-151.261 200.91 0.1
-172.056 240.403 0.1
-172.963 239.957 0.1
-169.727 222.232 0.1
-169.883 223.093 0.1
-185.061 247.244 0.1
-185.118 246.236 0.1
-167.672 205.529 0.1
-166.745 205.733 0.1
-148.128 226.644 0.1
-148.732 227.202 0.1
-156.831 195.137 0.1
-186.848 199.958 0.1
-145.185 228.256 0.1
-157.878 254.752 0.1
-145.002 192.108 0.1
-144.342 191.618 0.1
-145.087 191.223 0.1
-194.265 246.202 0.1
-175.332 210.361 0.1
-149.772 232.047 0.1
-149.075 232.287 0.1
-149.091 231.438 0.1
-166.598 249.742 0.1
-167.512 249.3 0.1
-158.583 194.079 0.1
-159.378 193.935 0.1
-201.732 215.01 0.1
-202.593 215.736 0.1
-181.569 250.437 0.1
-181.542 249.397 0.1
-144.221 234.416 0.1
-203.413 195.093 0.1
-188.779 207.506 0.1
-187.931 207.129 0.1
-178.818 213.044 0.1
-150.516 195.309 0.1
-149.797 195.165 0.1
-163.542 248.162 0.1
-148.193 254.303 0.1
-148.947 254.937 0.1
-202.385 214.094 0.1
-193.471 254.991 0.1
-193.083 254.178 0.1
-189.269 222.894 0.1
-188.475 223.14 0.1
-146.567 253.417 0.1
-150.918 194.665 0.1
-194.773 189.367 0.1
-193.783 189.152 0.1
-143.433 234.475 0.1
-197.673 186.025 0.1
-197.399 186.913 0.1
-159.575 206.835 0.1
-167.481 215.323 0.1
-167.08 214.685 0.1
-169.063 244.648 0.1
-169.561 245.414 0.1
-168.531 245.198 0.1
-180.042 249.969 0.1
-180.767 250.69 0.1
-185.719 245.635 0.1
-186.439 246.25 0.1
-141.142 222.44 0.1
-140.698 222.059 0.1
-141.266 221.667 0.1
-164.193 245.972 0.1
-158.217 213.521 0.1
-192.45 187.412 0.1
-148.884 211.182 0.1
-149.203 211.901 0.1
-140.203 226.36 0.1
-169.057 214.472 0.1
-168.844 215.208 0.1
-173.645 212.696 0.1
-141.05 186.694 0.1
-140.904 187.491 0.1
-139.982 186.785 0.1
-189.166 208.031 0.1
-188.457 208.295 0.1
-195.248 224.07 0.1
-197.946 185.221 0.1
-198.583 185.949 0.1
-205.361 229.348 0.1
-185.255 202.956 0.1
-141.367 220.979 0.1
-198.28 210.033 0.1
-199.049 209.802 0.1
-193.557 199.013 0.1
-193.947 198.244 0.1
-156.08 231.829 0.1
-155.788 232.728 0.1
-155.618 256.917 0.1
-154.709 256.948 0.1
-155.186 256.222 0.1
-153.705 235.194 0.1
-174.827 228.611 0.1
-174.163 228.974 0.1
-154.825 200.596 0.1
-140.256 223.445 0.1
-139.528 223.676 0.1
-189.529 193.026 0.1
-189.512 192.392 0.1
-165.889 250.178 0.1
-151.49 186.939 0.1
-151.181 187.794 0.1
-170.212 237.288 0.1
-203.178 214.85 0.1
-139.294 224.32 0.1
-139.716 224.426 0.1
-139.072 224.689 0.1
-164.93 224.538 0.1
-165.291 225.363 0.1
-180.663 249.351 0.1
-197.302 210.077 0.1
-142.644 226.656 0.1
-143.218 226.543 0.1
-171.698 220.078 0.1
-171.421 220.913 0.1
-169.781 230.336 0.1
-139.277 242.918 0.1
-139.543 243.651 0.1
-177.126 242.622 0.1
-176.681 243.52 0.1
-179.668 252.373 0.1
-180.313 253.368 0.1
-166.184 225.097 0.1
-166.128 224.154 0.1
-142.431 185.1 0.1
-202.989 256.958 0.1
-202.965 255.95 0.1
-163.238 228.785 0.1
-162.941 227.81 0.1
-194.34 193.718 0.1
-193.559 194.162 0.1
-154.828 247.186 0.1
-164.979 214.796 0.1
-145.035 232.65 0.1
-144.701 232.203 0.1
-168.646 244.083 0.1
-169.981 221.654 0.1
-169.225 221.174 0.1
-183.484 256.065 0.1
-183.76 215.104 0.1
-184.54 215.588 0.1
-172.624 247.723 0.1
-144.332 187.854 0.1
-143.692 187.045 0.1
-203.313 215.749 0.1
-151.825 191.264 0.1
-152.353 190.447 0.1
-202.333 249.929 0.1
-202.495 248.944 0.1
-144.197 250.609 0.1
-142.799 187.58 0.1
-143.374 188.46 0.1
-155.354 209.277 0.1
-187.694 188.01 0.1
-180.983 223.671 0.1
-191.294 211.074 0.1
-138.762 231.868 0.1
-194.586 248.895 0.1
-145.275 226.888 0.1
-145.151 227.567 0.1
-186.432 257.112 0.1
-186.846 256.285 0.1
-161.369 253.137 0.1
-160.503 253.39 0.1
-160.083 197.978 0.1
-195.563 249.354 0.1
-196.44 202.761 0.1
-164.292 203.029 0.1
-164.757 203.375 0.1
-146.939 245.879 0.1
-193.196 199.653 0.1
-192.826 198.85 0.1
-151.741 194.327 0.1
-189.786 211.542 0.1
-175.527 228.38 0.1
-169.497 240.568 0.1
-169.066 241.336 0.1
-168.492 240.659 0.1
-168.692 225.85 0.1
-190.123 222.485 0.1
-165.335 203.635 0.1
-175.905 210.973 0.1
-164.969 244.293 0.1
-164.188 244.552 0.1
-151.519 218.11 0.1
-151.959 217.45 0.1
-203.671 184.304 0.1
-203.177 184.922 0.1
-191.272 204.946 0.1
-154.764 206.593 0.1
-154.095 207.031 0.1
-140.847 191.848 0.1
-160.381 215.377 0.1
-160.686 216.007 0.1
-199.999 221.624 0.1
-200.225 222.471 0.1
-199.283 222.27 0.1
-174.717 250.978 0.1
-174.196 250.284 0.1
-198.1 228.577 0.1
-198.692 228.96 0.1
-197.794 229.415 0.1
-197.671 219.728 0.1
-197.893 218.922 0.1
-141.147 226.764 0.1
-141.458 226.264 0.1
-141.606 226.742 0.1
-161.531 206.525 0.1
-162.068 206.288 0.1
-162.19 206.983 0.1
-140.484 246.019 0.1
-141.031 246.967 0.1
-189.966 218.547 0.1
-189.342 217.984 0.1
-190.2 217.621 0.1
-146.551 203.006 0.1
-160.141 206.84 0.1
-159.783 207.565 0.1
-155.232 207.139 0.1
-155.928 207.54 0.1
-146.558 202.332 0.1
-146.239 201.599 0.1
-181.004 253.496 0.1
-181.909 253.613 0.1
-197.152 249.162 0.1
-196.548 249.744 0.1
-139.347 239.992 0.1
-138.731 240.442 0.1
-181.624 213.236 0.1
-181.659 212.39 0.1
-144.155 188.571 0.1
-166.874 218.407 0.1
-167.729 218.493 0.1
-178.448 249.535 0.1
-161.993 205.729 0.1
-162.652 206.187 0.1
-170.643 250.469 0.1
-170.692 249.407 0.1
-189.628 187.286 0.1
-192.519 221.17 0.1
-193.216 220.414 0.1
-151.05 218.639 0.1
-197.642 245.015 0.1
-198.374 244.613 0.1
-182.148 218.74 0.1
-182.684 217.902 0.1
-177.65 244.673 0.1
-177.004 244.114 0.1
-161.426 216.016 0.1
-160.847 216.751 0.1
-156.221 216.559 0.1
-155.748 215.855 0.1
-155.606 204.613 0.1
-156.319 204.309 0.1
-134.912 189.012 0.1
-135.721 188.916 0.1
-176.146 227.614 0.1
-154.654 234.915 0.1
-153.922 234.258 0.1
-189.911 191.884 0.1
-189.14 191.588 0.1
-189.821 207.882 0.1
-189.5 208.671 0.1
-143.843 237.015 0.1
-185.333 208.431 0.1
-150.834 255.97 0.1
-143.345 241.785 0.1
-142.603 241.869 0.1
-148.632 237.367 0.1
-149.399 237.378 0.1
-204.162 194.955 0.1
-203.959 196.022 0.1
-147.584 186.449 0.1
-148.439 186.006 0.1
-198.46 255.013 0.1
-188.327 241.625 0.1
-188.856 242.327 0.1
-187.874 242.467 0.1
-194.075 208.61 0.1
-193.365 209.045 0.1
-174.799 248.713 0.1
-147.414 248.767 0.1
-148.279 249.647 0.1
-159.923 202.562 0.1
-189.057 228.278 0.1
-189.712 228.74 0.1
-171.5 253.631 0.1
-171.61 254.684 0.1
-170.204 224.278 0.1
-140.527 188.253 0.1
-176.709 219.436 0.1
-177.091 218.832 0.1
-159.343 257.097 0.1
-183.722 256.809 0.1
-184.655 256.809 0.1
-183.45 213.359 0.1
-182.806 213.921 0.1
-134.528 188.347 0.1
-167.471 210.836 0.1
-167.441 210.094 0.1
-188.182 217.01 0.1
-188.992 217.411 0.1
-166.58 240.922 0.1
-167.627 240.832 0.1
-167.015 241.516 0.1
-205.569 204.47 0.1
-186.435 206.636 0.1
-186.944 206.229 0.1
-187.281 206.896 0.1
-192.787 200.425 0.1
-192.31 201.177 0.1
-175.447 223.14 0.1
-175.077 222.32 0.1
-209.763 256.826 0.1
-176.049 229.606 0.1
-175.993 230.624 0.1
-146.941 207.625 0.1
-146.79 207.07 0.1
-147.593 207.258 0.1
-158.488 195.787 0.1
-186.008 255.883 0.1
-196.968 199.881 0.1
-157.857 196.689 0.1
-157.213 197.229 0.1
-145.586 232.706 0.1
-157.992 192.977 0.1
-168.33 243.412 0.1
-163.035 210.815 0.1
-162.477 210.421 0.1
-195.162 241.532 0.1
-195.868 242.213 0.1
-202.025 255.598 0.1
-201.689 256.386 0.1
-189.898 216.491 0.1
-198.798 218.836 0.1
-198.137 218.062 0.1
-151.89 218.663 0.1
-161.113 256.758 0.1
-144.971 231.573 0.1
-144.135 231.694 0.1
-168.25 242.713 0.1
-142.937 191.884 0.1
-142.172 192.347 0.1
-181.713 219.242 0.1
-171.698 214.075 0.1
-171.023 213.673 0.1
-142.796 194.433 0.1
-142.2 194.323 0.1
-142.701 193.607 0.1
-172.261 217.179 0.1
-173.165 217.301 0.1
-197.508 197.211 0.1
-198.182 196.643 0.1
-198.368 197.504 0.1
-163.887 208.308 0.1
-163.27 208.482 0.1
-146.912 226.499 0.1
-146.946 225.955 0.1
-147.602 226.156 0.1
-150.592 210.504 0.1
-149.955 210.689 0.1
-149.86 210.112 0.1
-143.656 200.703 0.1
-144.335 200.455 0.1
-172.287 256.759 0.1
-161.65 248.247 0.1
-162.269 249 0.1
-161.227 249.066 0.1
-140.269 245.096 0.1
-141.027 245.317 0.1
-152.658 217.616 0.1
-179.789 256.915 0.1
-196.706 245.037 0.1
-163.348 211.284 0.1
-205.242 209.467 0.1
-204.465 208.777 0.1
-205.354 208.306 0.1
-184.601 221.011 0.1
-184.346 220.08 0.1
-159.938 219.15 0.1
-160.158 219.987 0.1
-152.339 213.303 0.1
-188.089 227.238 0.1
-187.573 226.711 0.1
-195.033 255.913 0.1
-194.997 257.042 0.1
-168.579 241.882 0.1
-204.489 214.42 0.1
-205.606 214.503 0.1
-158.749 212.868 0.1
-158.954 213.64 0.1
-137.616 185.799 0.1
-161.106 220.839 0.1
-177.41 226.291 0.1
-176.94 225.549 0.1
-192.047 194.88 0.1
-192.795 194.475 0.1
-205.419 195.401 0.1
-158.232 200.971 0.1
-158.652 201.316 0.1
-196.015 255.891 0.1
-171.242 243.811 0.1
-170.793 244.74 0.1
-146.057 234.715 0.1
-189.641 199.992 0.1
-190.031 199.323 0.1
-150.8 185.285 0.1
-189.489 198.67 0.1
-188.444 227.819 0.1
-187.509 227.81 0.1
-159.382 210.527 0.1
-158.748 210.378 0.1
-209.221 255.966 0.1
-208.75 255.149 0.1
-169.444 208.735 0.1
-169.096 208.132 0.1
-203.751 182.58 0.1
-204.536 182.797 0.1
-203.983 183.556 0.1
-195.346 237.444 0.1
-195.854 237.029 0.1
-196.069 238.055 0.1
-144.628 241.395 0.1
-148.474 232.343 0.1
-149.257 225.004 0.1
-150.092 224.907 0.1
-179.978 211.189 0.1
-179.584 210.469 0.1
-177.405 212.01 0.1
-178.162 212.054 0.1
-150.346 214.695 0.1
-182.87 246.407 0.1
-183.67 245.79 0.1
-152.697 205.869 0.1
-186.704 205.497 0.1
-187.551 205.756 0.1
-140.814 223.479 0.1
-140.497 224.092 0.1
-169.207 213.75 0.1
-169.705 214.245 0.1
-136.948 192.552 0.1
-137.331 193.217 0.1
-154.108 209.867 0.1
-154.713 209.663 0.1
-153.613 219.686 0.1
-145.726 191.075 0.1
-145.066 190.585 0.1
-160.727 255.534 0.1
-160.449 254.621 0.1
-161.802 227.732 0.1
-161.699 226.94 0.1
-162.438 227.55 0.1
-146.629 226.956 0.1
-144.255 216.824 0.1
-144.345 216.145 0.1
-178.196 245.248 0.1
-177.185 245.394 0.1
-196.032 224.949 0.1
-195.91 224.192 0.1
-196.75 224.365 0.1
-163.948 250.999 0.1
-164.289 251.842 0.1
-144.129 243.691 0.1
-197.756 230.458 0.1
-192.732 193.626 0.1
-187.8 230.394 0.1
-188.284 229.49 0.1
-177.57 226.948 0.1
-176.703 226.893 0.1
-202.303 202.049 0.1
-201.438 202.3 0.1
-154.635 224.091 0.1
-149.348 226.578 0.1
-148.816 226.046 0.1
-151.919 212.429 0.1
-151.764 211.77 0.1
-146.896 246.771 0.1
-180.368 211.847 0.1
-179.482 211.793 0.1
-191.801 246.864 0.1
-171.888 255.566 0.1
-154.475 225.461 0.1
-154.59 226.212 0.1
-164.741 252.525 0.1
-165.161 251.668 0.1
-159.055 221.514 0.1
-208.031 253.441 0.1
-207.035 253.453 0.1
-148.101 185.085 0.1
-150.133 237.333 0.1
-200.284 213.554 0.1
-141.583 194.6 0.1
-206.675 251.004 0.1
-173.66 217.177 0.1
-174.231 216.69 0.1
-154.33 233.339 0.1
-201.675 218.415 0.1
-201.738 219.425 0.1
-201.569 220.336 0.1
-207.825 256.782 0.1
-208.759 256.782 0.1
-155.594 255.573 0.1
-155.576 234.501 0.1
-155.36 235.437 0.1
-152.093 237.087 0.1
-151.913 237.871 0.1
-188.618 240.74 0.1
-156.552 256.917 0.1
-157.143 255.966 0.1
-146.74 186.76 0.1
-146.78 186.011 0.1
-205.45 183.312 0.1
-186.497 213.851 0.1
-187.039 214.298 0.1
-186.419 214.754 0.1
-161.171 203.03 0.1
-159.168 219.396 0.1
-159.207 220.079 0.1
-202.055 256.958 0.1
-140.081 224.556 0.1
-149.637 244.228 0.1
-150.078 211.231 0.1
-149.346 210.839 0.1
-170.382 214.003 0.1
-193.699 245.568 0.1
-139.183 195.902 0.1
-138.624 195.66 0.1
-184.798 222.198 0.1
-184.869 223.137 0.1
-140.546 196.566 0.1
-159.212 214.221 0.1
-159.75 214.814 0.1
-160.626 239.904 0.1
-146.396 225.693 0.1
-147.086 225.35 0.1
-194.819 238.14 0.1
-194.605 237.114 0.1
-161.995 223.634 0.1
-161.939 222.866 0.1
-172.358 253.187 0.1
-173.349 225.243 0.1
-167.732 242.258 0.1
-174.399 219.2 0.1
-173.691 218.604 0.1
-144.925 200.269 0.1
-144.214 199.778 0.1
-154.851 216.816 0.1
-154.68 217.59 0.1
-188.254 225.073 0.1
-187.983 224.455 0.1
-188.272 219.385 0.1
-188.998 219.679 0.1
-142.385 224.842 0.1
-142.767 224.489 0.1
-142.966 225.016 0.1
-156.831 186.867 0.1
-196.439 198.328 0.1
-156.639 202.346 0.1
-156.569 201.657 0.1
-153.477 198.093 0.1
-152.793 197.919 0.1
-199.006 202.372 0.1
-198.556 203.159 0.1
-154.232 224.894 0.1
-156.794 253.836 0.1
-157.663 197.936 0.1
-158.321 197.571 0.1
-156.726 236.523 0.1
-157.568 236.888 0.1
-152.114 229.887 0.1
-184.56 252.133 0.1
-185.178 252.96 0.1
-170.708 222.865 0.1
-170.444 221.958 0.1
-177.13 220.74 0.1
-161.882 197.576 0.1
-197.392 228.348 0.1
-174.004 230.463 0.1
-198.756 223.455 0.1
-199.231 224.047 0.1
-178.808 210.469 0.1
-142.177 226.657 0.1
-204.497 219.289 0.1
-180.337 237.203 0.1
-146.427 207.987 0.1
-182.347 246.494 0.1
-205.578 249.561 0.1
-152.47 198.651 0.1
-152.217 187.262 0.1
-203.434 181.835 0.1
-202.701 181.111 0.1
-175.376 243.996 0.1
-176.317 244.225 0.1
-146.411 230.516 0.1
-145.728 230.445 0.1
-203.257 201.619 0.1
-203.232 202.417 0.1
-188.477 228.85 0.1
-162.445 225.632 0.1
-162.159 224.811 0.1
-162.932 224.851 0.1
-169.487 212.323 0.1
-169.966 212.815 0.1
-169.377 213.03 0.1
-145.998 226.836 0.1
-145.429 229.978 0.1
-141.463 244.801 0.1
-152.347 229.246 0.1
-152.143 228.407 0.1
-146.114 186.962 0.1
-145.664 187.776 0.1
-161.41 217.788 0.1
-145.37 250.521 0.1
-145.395 249.217 0.1
-152.258 216.933 0.1
-187.571 219.198 0.1
-188.408 218.723 0.1
-195.886 250.083 0.1
-140.911 230.759 0.1
-140.68 230.111 0.1
-188.556 214.849 0.1
-170.218 239.027 0.1
-169.739 239.893 0.1
-147.306 237.366 0.1
-146.649 237.827 0.1
-198.567 214.399 0.1
-198.957 213.753 0.1
-185.435 194.787 0.1
-156.113 236.022 0.1
-202.765 228.155 0.1
-202.465 227.295 0.1
-203.247 227.441 0.1
-193.116 230.453 0.1
-188.759 218.337 0.1
-139.327 225.142 0.1
-139.858 224.926 0.1
-139.906 196.023 0.1
-139.193 196.56 0.1
-153.311 209.783 0.1
-139.01 191.263 0.1
-139.616 191.804 0.1
-195.966 223.486 0.1
-164.014 216.738 0.1
-163.59 216.291 0.1
-164.414 216.124 0.1
-174.872 213.882 0.1
-157.06 197.868 0.1
-161.152 227.874 0.1
-161.891 228.484 0.1
-156.313 234.153 0.1
-148.394 224.091 0.1
-149.192 224.091 0.1
-148.771 224.506 0.1
-147.619 231.355 0.1
-147.719 232.171 0.1
-146.246 235.864 0.1
-147.11 236.118 0.1
-190.044 256.946 0.1
-190.321 255.999 0.1
-197.97 253.439 0.1
-198.146 252.694 0.1
-198.876 253.397 0.1
-192.335 213.504 0.1
-172.849 221.108 0.1
-173.663 220.985 0.1
-173.225 221.692 0.1
-202.947 203.301 0.1
-201.435 203.339 0.1
-146.902 197.756 0.1
-147.039 196.943 0.1
-185.132 256.278 0.1
-198.737 251.897 0.1
-180.952 214.372 0.1
-181.4 213.745 0.1
-181.967 210.325 0.1
-181.586 211.044 0.1
-205.312 189.387 0.1
-163.355 254.235 0.1
-163.88 255.074 0.1
-199.302 230.359 0.1
-204.066 227.53 0.1
-203.767 226.67 0.1
-177.516 227.67 0.1
-177.804 228.496 0.1
-174.826 223.505 0.1
-148.459 225.005 0.1
-190.283 191.259 0.1
-183.239 243.119 0.1
-195.536 208.086 0.1
-195.309 207.36 0.1
-137.833 188.279 0.1
-147.789 242.023 0.1
-137.241 187.685 0.1
-187.586 213.905 0.1
-187.507 214.808 0.1
-194.618 238.926 0.1
-149.988 206.85 0.1
-149.411 207.349 0.1
-147.155 185.085 0.1
-149.503 207.98 0.1
-150.582 207.112 0.1
-151.438 207.063 0.1
-199.975 223.867 0.1
-199.696 224.798 0.1
-160.987 239.244 0.1
-161.191 240.229 0.1
-188.38 199.601 0.1
-188.893 200.211 0.1
-201.602 224.138 0.1
-201.963 223.182 0.1
-145.033 192.929 0.1
-159.994 192.298 0.1
-164.994 250.301 0.1
-164.171 250.261 0.1
-164.456 249.577 0.1
-207.969 255.03 0.1
-208.502 254.258 0.1
-168.729 213.257 0.1
-188.665 198.877 0.1
-149.8 254.462 0.1
-149.736 255.571 0.1
-148.407 230.94 0.1
-162.185 239.861 0.1
-172.819 227.355 0.1
-195.63 208.788 0.1
-194.796 208.432 0.1
-205.533 219.554 0.1
-146.996 196.243 0.1
-146.263 196.687 0.1
-173.119 253.16 0.1
-179.205 242.413 0.1
-198.887 213.057 0.1
-199.654 213.218 0.1
-136.984 189.266 0.1
-175.604 214.104 0.1
-174.898 214.666 0.1
-194.381 239.753 0.1
-194.702 240.856 0.1
-190.85 237.201 0.1
-147.632 230.617 0.1
-173.743 222.143 0.1
-185.413 205.47 0.1
-185.413 206.275 0.1
-145.229 236.766 0.1
-144.367 236.809 0.1
-200.83 250.912 0.1
-170.4 223.42 0.1
-187.918 223.872 0.1
-205.354 207.3 0.1
-176.368 212.14 0.1
-143.271 229.039 0.1
-142.837 228.567 0.1
-192.991 217.042 0.1
-163.138 198.088 0.1
-162.455 197.91 0.1
-163.12 197.561 0.1
-167.376 226.858 0.1
-156.45 197.717 0.1
-194.103 193.017 0.1
-194.947 193.422 0.1
-155.357 226.555 0.1
-154.579 227.055 0.1
-188.528 255.182 0.1
-205.242 210.473 0.1
-139.962 234.685 0.1
-199.367 225.713 0.1
-173.549 211.291 0.1
-173.373 210.458 0.1
-190.627 251.447 0.1
-190.904 250.667 0.1
-198.45 183.148 0.1
-176.553 218.338 0.1
-138.5 226.063 0.1
-138.5 226.424 0.1
-191.319 249.899 0.1
-161.229 214.583 0.1
-161.678 214.012 0.1
-155.647 205.889 0.1
-155.488 205.326 0.1
-168.874 209.549 0.1
-168.362 209.363 0.1
-154.954 205.115 0.1
-151.282 225.104 0.1
-166.445 229.664 0.1
-164.767 254.614 0.1
-162.703 211.435 0.1
-142.625 223.934 0.1
-143.206 224.108 0.1
-160.633 214.711 0.1
-160.598 214.021 0.1
-189.968 251.748 0.1
-178.543 246.009 0.1
-177.377 230.16 0.1
-178.061 229.519 0.1
-177.999 230.477 0.1
-152.324 205.487 0.1
-152.86 205.243 0.1
-169.289 209.236 0.1
-169.347 209.913 0.1
-199.995 217.874 0.1
-199.327 217.266 0.1
-138.989 225.872 0.1
-144.046 241.874 0.1
-143.642 242.541 0.1
-206.855 254.156 0.1
-206.169 253.472 0.1
-153.268 192.472 0.1
-140.584 226.549 0.1
-202.88 182.595 0.1
-161.778 195.272 0.1
-141.814 199.88 0.1
-141.979 198.924 0.1
-174.29 251.722 0.1
-147.835 236.039 0.1
-203.83 196.774 0.1
-203.393 197.486 0.1
-147.037 247.919 0.1
-198.582 217.312 0.1
-198.868 216.603 0.1
-207.521 255.532 0.1
-207.273 254.64 0.1
-151.825 205.073 0.1
-164.906 217.367 0.1
-165.515 217.88 0.1
-185.92 218.067 0.1
-146.166 200.545 0.1
-146.635 199.931 0.1
-144.38 195.511 0.1
-145.013 195.805 0.1
-144.374 196.349 0.1
-182.781 243.761 0.1
-182.481 242.772 0.1
-199.815 242.331 0.1
-199.613 241.461 0.1
-200.481 242.001 0.1
-201.011 241.224 0.1
-142.016 223.782 0.1
-142.456 223.4 0.1
-157.567 200.776 0.1
-196.474 220.934 0.1
-196.948 221.586 0.1
-159.809 208.116 0.1
-159.847 208.855 0.1
-161.847 238.944 0.1
-201.415 209.934 0.1
-192.486 201.903 0.1
-193.097 202.23 0.1
-192.473 202.773 0.1
-201.922 182.214 0.1
-191.081 211.696 0.1
-190.373 211.405 0.1
-198.851 191.407 0.1
-160.625 202.92 0.1
-168.75 207.452 0.1
-160.671 205.97 0.1
-160.191 205.421 0.1
-160.929 205.281 0.1
-177.078 239.717 0.1
-176.319 240.376 0.1
-197.09 220.404 0.1
-136.392 188.673 0.1
-137.127 188.344 0.1
-177.671 241.111 0.1
-178.506 241.403 0.1
-177.718 242.128 0.1
-183.556 237.176 0.1
-204.697 250.64 0.1
-203.952 251.308 0.1
-203.956 250.311 0.1
-162.292 211.863 0.1
-162.48 212.457 0.1
-161.757 212.416 0.1
-203.106 250.234 0.1
-164.473 217.061 0.1
-163.648 217.228 0.1
-184.671 248.503 0.1
-184.313 249.466 0.1
-168.369 218.646 0.1
-143.523 194.28 0.1
-143.022 194.996 0.1
-145.619 195.477 0.1
-145.613 196.314 0.1
-181.52 211.681 0.1
-182.241 211.482 0.1
-141.21 223.04 0.1
-141.451 223.687 0.1
-145.642 197.714 0.1
-146.221 198.109 0.1
-179.464 217.088 0.1
-178.53 217.311 0.1
-196.821 196.968 0.1
-154.369 219.419 0.1
-154.244 220.064 0.1
-203.705 206.375 0.1
-202.709 206.645 0.1
-189.4 255.312 0.1
-188.59 256.119 0.1
-173.762 211.853 0.1
-162.551 213.222 0.1
-140.587 235.06 0.1
-192.34 203.57 0.1
-156.419 206.945 0.1
-185.469 216.37 0.1
-185.88 216.955 0.1
-171.846 229.173 0.1
-171.814 229.856 0.1
-171.055 229.442 0.1
-154.722 243.221 0.1
-155.494 243.869 0.1
-166.057 230.537 0.1
-195.424 192.471 0.1
-148.904 222.982 0.1
-148.267 223.425 0.1
-172.635 238.963 0.1
-171.697 218.909 0.1
-171.373 218.143 0.1
-185.498 257.112 0.1
-145.382 221.126 0.1
-189.11 256.946 0.1
-185.993 205.262 0.1
-204.369 206.621 0.1
-139.29 237.347 0.1
-138.645 237.681 0.1
-146.918 187.4 0.1
-148.447 229.61 0.1
-147.736 229.951 0.1
-147.762 229.358 0.1
-146.813 194.254 0.1
-146.067 194.029 0.1
-170.014 245.961 0.1
-170.539 246.588 0.1
-185.055 247.925 0.1
-147.027 222.049 0.1
-185.768 208.023 0.1
-186.185 207.339 0.1
-177.349 253.811 0.1
-176.639 253.075 0.1
-170.546 245.411 0.1
-205.389 188.703 0.1
-151.307 191.715 0.1
-151.16 191.056 0.1
-196.783 248.592 0.1
-197.71 248.74 0.1
-182.917 256.899 0.1
-192.433 204.366 0.1
-193.177 203.897 0.1
-145.759 207.922 0.1
-202.709 255.275 0.1
-202.409 254.484 0.1
-203.348 254.836 0.1
-202.779 200.745 0.1
-154.498 195.266 0.1
-154.538 195.979 0.1
-154.024 195.669 0.1
-168.234 245.933 0.1
-203.824 253.947 0.1
-193.01 239.533 0.1
-192.182 239.014 0.1
-193.717 201.888 0.1
-193.704 202.758 0.1
-145.414 194.161 0.1
-145.673 194.835 0.1
-143.443 219.623 0.1
-187.145 216.336 0.1
-187.56 216.878 0.1
-186.75 216.958 0.1
-203.521 185.687 0.1
-202.553 185.341 0.1
-143.801 229.525 0.1
-143.04 229.61 0.1
-157.498 255.334 0.1
-157.185 254.346 0.1
-172.278 221.131 0.1
-164.867 222.287 0.1
-164.618 223.025 0.1
-197.007 197.83 0.1
-162.021 216.389 0.1
-162.823 216.461 0.1
-147.879 194.415 0.1
-147.855 195.163 0.1
-147.275 194.553 0.1
-198.533 215.927 0.1
-171.466 230.622 0.1
-193.519 200.588 0.1
-162.978 198.695 0.1
-163.233 199.464 0.1
-170.662 238.473 0.1
-170.999 239.342 0.1
-199.474 220.929 0.1
-200.416 221.13 0.1
-187.359 246.513 0.1
-142.759 230.734 0.1
-155.255 196.037 0.1
-147.918 237.41 0.1
-148.076 236.712 0.1
-154.478 204.587 0.1
-193.157 187.526 0.1
-192.818 188.265 0.1
-159.45 197.515 0.1
-152.945 208.54 0.1
-152.154 208.308 0.1
-199.338 228.861 0.1
-199.722 228.023 0.1
-200.062 228.763 0.1
-140.002 244.364 0.1
-141.678 245.724 0.1
-203.901 208.112 0.1
-141.939 225.332 0.1
-141.739 224.805 0.1
-154.026 185.152 0.1
-159.568 211.28 0.1
-205.468 211.357 0.1
-204.578 210.823 0.1
-140.535 195.908 0.1
-185.435 193.981 0.1
-133.063 185.845 0.1
-152.451 201.845 0.1
-200.751 228.577 0.1
-181.835 217.342 0.1
-181.225 218.002 0.1
-185.243 251.319 0.1
-138.24 194.995 0.1
-185.127 215.872 0.1
-185.993 215.919 0.1
-173.317 228.864 0.1
-173.451 229.698 0.1
-174.886 241.857 0.1
-175.052 240.839 0.1
-187.818 212.933 0.1
-186.979 212.696 0.1
-142.974 203.049 0.1
-183.275 214.693 0.1
-175.51 211.412 0.1
-148.066 206.857 0.1
-197.166 216.67 0.1
-197.749 215.95 0.1
-155.96 196.024 0.1
-178.471 211.391 0.1
-177.799 211.118 0.1
-178.42 210.862 0.1
-151.621 189.905 0.1
-201.012 218.783 0.1
-169.916 209.098 0.1
-185 245.288 0.1
-185.309 204.763 0.1
-172.526 228.806 0.1
-173.237 228.083 0.1
-190.525 253.2 0.1
-200.394 218.431 0.1
-199.441 218.532 0.1
-201.236 181.861 0.1
-168.432 211.936 0.1
-169.039 211.951 0.1
-141.042 185.859 0.1
-138.631 226.817 0.1
-138.948 226.65 0.1
-188.757 204.808 0.1
-188.159 205.323 0.1
-145.156 243.5 0.1
-191.663 239.897 0.1
-155.559 254.431 0.1
-193.653 186.873 0.1
-157.342 206.387 0.1
-136.464 191.849 0.1
-137.244 191.953 0.1
-180.918 213.17 0.1
-187.787 217.632 0.1
-156.762 206.46 0.1
-181.366 230.457 0.1
-200.784 224.014 0.1
-161.147 204.674 0.1
-161.627 205.222 0.1
-194.85 215.682 0.1
-166.209 218.279 0.1
-160.646 256.212 0.1
-153.445 195.307 0.1
-137.469 193.913 0.1
-201.008 220.809 0.1
-200.483 220.114 0.1
-143.745 195.449 0.1
-205.381 200.565 0.1
-160.277 257.097 0.1
-158.411 237.085 0.1
-194.739 192.131 0.1
-186.295 217.497 0.1
-186.79 218.07 0.1
-161.148 212.311 0.1
-160.428 212.201 0.1
-167.674 209.413 0.1
-153.498 253.437 0.1
-156.054 196.829 0.1
-149.48 222.891 0.1
-149.392 223.585 0.1
-147.169 222.904 0.1
-190.758 248.566 0.1
-199.147 197.801 0.1
-198.473 198.369 0.1
-187.518 243.26 0.1
-165.331 254.297 0.1
-165.982 253.728 0.1
-174.098 253.236 0.1
-200.457 219.441 0.1
-186.989 242.558 0.1
-153.869 192.653 0.1
-154.271 192.101 0.1
-154.509 192.839 0.1
-163.642 198.346 0.1
-163.767 218.061 0.1
-140.468 195.315 0.1
-141.108 195.858 0.1
-178.136 210.196 0.1
-141.148 198.545 0.1
-194.756 190.23 0.1
-159.808 212.295 0.1
-160.106 212.894 0.1
-159.744 213.568 0.1
-178.862 229.268 0.1
-146.049 208.471 0.1
-141.485 185.1 0.1
-146.019 199.423 0.1
-153.382 204.278 0.1
-153.186 204.817 0.1
-152.683 204.323 0.1
-176.581 221.009 0.1
-176.528 220.192 0.1
-156.115 206.435 0.1
-159.405 192.236 0.1
-159.732 191.645 0.1
-192.875 185.836 0.1
-141.12 234.556 0.1
-170.052 211.406 0.1
-170.661 210.952 0.1
-177.567 249.89 0.1
-176.838 250.079 0.1
-153.05 209.151 0.1
-204.457 184.521 0.1
-167.369 211.562 0.1
-166.873 211.063 0.1
-147.798 232.836 0.1
-150.608 190.922 0.1
-151.126 190.472 0.1
-144.992 197.342 0.1
-145.657 197.015 0.1
-142.152 242.483 0.1
-148.615 203.455 0.1
-181.489 227.423 0.1
-181.968 226.913 0.1
-175.706 226.354 0.1
-175.985 226.956 0.1
-148.14 253.576 0.1
-189.932 219.447 0.1
-175.724 221.102 0.1
-163.411 250.275 0.1
-161.312 195.826 0.1
-141.62 224.221 0.1
-202.808 248.105 0.1
-200.53 257.071 0.1
-141.896 237.077 0.1
-140.956 194.658 0.1
-159.059 192.745 0.1
-180.559 227.061 0.1
-164.752 215.544 0.1
-178.24 228.951 0.1
-192.427 240.359 0.1
-197.783 214.422 0.1
-197.308 199.217 0.1
-197.716 200.028 0.1
-186.452 221.312 0.1
-185.95 220.664 0.1
-186.656 220.566 0.1
-185.848 206.672 0.1
-197.027 183.756 0.1
-197.418 184.676 0.1
-166.417 211.347 0.1
-163.578 221.862 0.1
-164.263 221.926 0.1
-197.677 217.399 0.1
-167.208 209.654 0.1
-166.724 209.198 0.1
-205.45 184.318 0.1
-163.223 215.848 0.1
-143.137 197.161 0.1
-143.208 197.997 0.1
-173.627 252.339 0.1
-139.851 231.861 0.1
-140.387 232.072 0.1
-139.879 232.377 0.1
-155.126 217.997 0.1
-190.655 192.064 0.1
-203.709 201.113 0.1
-141.048 199.85 0.1
-150.899 215.035 0.1
-198.16 215.229 0.1
-151.484 214.864 0.1
-151.653 214.216 0.1
-152.111 214.631 0.1
-147.322 254.051 0.1
-170.685 237.798 0.1
-171.466 238.113 0.1
-141.668 195.207 0.1
-202.234 185.969 0.1
-202.348 186.88 0.1
-146.273 195.345 0.1
-133.447 186.51 0.1
-171.015 236.928 0.1
-199.023 242.631 0.1
-134.719 187.794 0.1
-134.707 186.953 0.1
-207.047 257.035 0.1
-207.439 256.175 0.1
-145.534 226.35 0.1
-185.163 206.978 0.1
-149.037 204.32 0.1
-145.964 224.752 0.1
-171.482 257.135 0.1
-171.821 256.252 0.1
-170.496 213.192 0.1
-204.408 201.083 0.1
-143.117 225.569 0.1
-143.498 225.216 0.1
-171.083 255.942 0.1
-187.683 225.631 0.1
-148.585 213.121 0.1
-149.415 212.969 0.1
-138.99 242.418 0.1
-167.818 212.076 0.1
-167.221 212.304 0.1
-192.033 193.134 0.1
-192.797 192.821 0.1
-201.035 222.618 0.1
-183.24 244.899 0.1
-183.969 244.999 0.1
-191.863 204.648 0.1
-191.539 205.554 0.1
-195.488 189.672 0.1
-163.98 253.494 0.1
-199.032 229.699 0.1
-160.203 224.955 0.1
-160.813 225.038 0.1
-140.889 238.082 0.1
-141.35 237.595 0.1
-203.094 253.314 0.1
-141.778 222.648 0.1
-202.533 252.961 0.1
-201.656 252.642 0.1
-143.864 198.061 0.1
-203.302 186.702 0.1
-190.553 228.885 0.1
-154.372 201.779 0.1
-153.798 201.919 0.1
-186.553 224.129 0.1
-187.308 224.486 0.1
-161.47 224.997 0.1
-161.956 224.216 0.1
-188.952 198.119 0.1
-188.449 197.538 0.1
-162.837 221.79 0.1
-198.328 184.6 0.1
-148.49 218.523 0.1
-148.178 219.092 0.1
-147.905 218.386 0.1
-158.391 211.1 0.1
-169.628 211.736 0.1
-145.556 242.413 0.1
-176.433 250.803 0.1
-147.862 238.021 0.1
-185.978 237.109 0.1
-185.505 237.987 0.1
-201.877 181.497 0.1
-157.104 250.073 0.1
-156.331 250.819 0.1
-139.313 231.457 0.1
-159.183 212.494 0.1
-159.505 211.801 0.1
-186.87 188.396 0.1
-162.031 221.989 0.1
-166.408 208.778 0.1
-168.335 227.179 0.1
-197.515 212.097 0.1
-196.955 211.495 0.1
-172.225 238.49 0.1
-172.247 237.815 0.1
-151.774 208.972 0.1
-191.545 249.101 0.1
-191.533 248.375 0.1
-155.052 233.076 0.1
-155.607 233.631 0.1
-139.717 228.736 0.1
-140.221 228.977 0.1
-171.961 236.928 0.1
-140.646 220.25 0.1
-140.951 220.749 0.1
-170.269 229.156 0.1
-170.237 229.84 0.1
-181.031 229.63 0.1
-165.415 253.004 0.1
-164.544 253.177 0.1
-168.284 212.678 0.1
-170.231 256.391 0.1
-170.548 257.135 0.1
-206.743 255.785 0.1
-172.475 215.645 0.1
-172.92 216.053 0.1
-172.29 216.355 0.1
-144.384 194.905 0.1
-140.993 231.324 0.1
-140.277 230.99 0.1
-198.593 192.003 0.1
-199.377 191.888 0.1
-192.145 215.934 0.1
-192.261 215.174 0.1
-164.013 248.84 0.1
-150.875 212.282 0.1
-151.332 212.712 0.1
-169.604 211.034 0.1
-166.724 217.725 0.1
-195.931 257.042 0.1
-171.854 239.261 0.1
-186.647 215.809 0.1
-187.458 215.728 0.1
-179.709 241.78 0.1
-186.981 196.033 0.1
-187.356 196.789 0.1
-168.735 215.822 0.1
-198.384 200.507 0.1
-198.724 199.843 0.1
-186.924 237.109 0.1
-138.844 229.404 0.1
-139.395 230.057 0.1
-140.94 232.431 0.1
-199.017 201.038 0.1
-160.241 220.666 0.1
-185.293 198.032 0.1
-144.94 230.976 0.1
-142.479 202.546 0.1
-188.005 215.335 0.1
-187.953 197.051 0.1
-185.512 228.597 0.1
-198.656 230.458 0.1
-155.128 201.086 0.1
-155.473 201.512 0.1
-154.854 201.525 0.1
-195.53 209.421 0.1
-195.781 210.291 0.1
-206.046 255.467 0.1
-206.407 254.658 0.1
-197.307 255.613 0.1
-197.763 255.045 0.1
-154.717 202.205 0.1
-164.741 223.896 0.1
-170.566 230.622 0.1
-162.74 249.678 0.1
-199.619 201.754 0.1
-163.163 248.859 0.1
-198.003 254.175 0.1
-198.144 242.292 0.1
-198.397 241.323 0.1
-194.335 184.97 0.1
-193.511 185.356 0.1
-173.416 215.929 0.1
-173.864 215.501 0.1
-174.174 216.086 0.1
-145.016 225.313 0.1
-145.158 225.937 0.1
-143.938 224.91 0.1
-143.779 224.262 0.1
-185.039 238.787 0.1
-184.722 239.732 0.1
-143.778 193.11 0.1
-143.063 193.14 0.1
-143.544 192.533 0.1
-151.962 240.313 0.1
-151.795 223.986 0.1
-151.272 223.399 0.1
-161.549 246.027 0.1
-162.2 245.399 0.1
-204.025 211.64 0.1
-160.365 213.474 0.1
-139.821 231.153 0.1
-160.96 213.347 0.1
-190.682 221.962 0.1
-146.47 188.272 0.1
-199.087 240.892 0.1
-199.754 240.562 0.1
-200.54 240.408 0.1
-159.29 220.758 0.1
-171.843 219.418 0.1
-171.105 219.2 0.1
-189.584 210.467 0.1
-153.953 204.202 0.1
-185.933 252.505 0.1
-186.039 251.602 0.1
-146.069 215.5 0.1
-145.359 215.124 0.1
-159.232 193.221 0.1
-165.897 208.692 0.1
-176.95 241.112 0.1
-165.866 211.46 0.1
-190.538 242.541 0.1
-189.642 242.253 0.1
-150.297 250.233 0.1
-189.357 240.749 0.1
-186.091 198.143 0.1
-138.85 241.119 0.1
-187.795 195.591 0.1
-165.418 209.041 0.1
-165.308 208.31 0.1
-164.473 208.12 0.1
-164.244 208.847 0.1
-205.419 196.406 0.1
-186.794 219.889 0.1
-140.336 229.581 0.1
-139.15 226.276 0.1
-168.236 222.331 0.1
-168.724 221.76 0.1
-197.85 183.37 0.1
-185.816 238.6 0.1
-181.275 222.86 0.1
-149.131 229.141 0.1
-144.777 237.99 0.1
-145.436 237.481 0.1
-196.231 210.835 0.1
-205.399 223.393 0.1
-191.515 247.617 0.1
-167.683 221.917 0.1
-182.743 210.325 0.1
-138.631 227.179 0.1
-165.604 250.862 0.1
-164.852 209.173 0.1
-139.241 228.81 0.1
-156.8 194.35 0.1
-155.444 200.583 0.1
-155.275 230.063 0.1
-154.877 230.771 0.1
-197.974 220.372 0.1
-151.43 209.518 0.1
-152.116 209.573 0.1
-191.19 192.509 0.1
-152.863 199.276 0.1
-152.212 199.336 0.1
-179.011 240.77 0.1
-179.058 241.787 0.1
-154.421 218.141 0.1
-154.303 218.794 0.1
-140.665 199.185 0.1
-182.884 210.997 0.1
-143.652 191.854 0.1
-191.184 252.899 0.1
-191.676 253.468 0.1
-197.172 247.186 0.1
-144.754 194.367 0.1
-145.148 193.561 0.1
-144.373 193.136 0.1
-143.893 193.742 0.1
-161.015 225.633 0.1
-190.283 186.942 0.1
-155.397 202.53 0.1
-181.003 211.952 0.1
-180.507 212.556 0.1
-146.948 230.365 0.1
-171.454 246.592 0.1
-173.878 248.88 0.1
-173.547 249.735 0.1
-183.992 214.442 0.1
-198.703 222.792 0.1
-198.477 221.945 0.1
-173.112 219.248 0.1
-156.762 200.595 0.1
-201.721 227.271 0.1
-201.215 227.966 0.1
-200.953 227.229 0.1
-205.146 213.01 0.1
-204.482 212.355 0.1
-205.468 212.363 0.1
-184.011 213.737 0.1
-156.372 202.891 0.1
-156.824 203.234 0.1
-163.99 198.949 0.1
-174.394 215.051 0.1
-164.54 217.858 0.1
-178.784 211.797 0.1
-156.132 200.484 0.1
-156.377 201.184 0.1
-198.806 220.559 0.1
-198.225 221.235 0.1
-160.154 228.93 0.1
-160.62 228.361 0.1
-164.646 200.067 0.1
-153.796 223.209 0.1
-199.194 186.471 0.1
-155.863 202.564 0.1
-161.042 249.735 0.1
-160.423 248.982 0.1
-197.949 223.13 0.1
-142.235 222.952 0.1
-185.163 207.784 0.1
-161.119 206.244 0.1
-160.381 206.385 0.1
-150.817 237.016 0.1
-150.692 237.769 0.1
-165.939 240.968 0.1
-166.551 240.285 0.1
-152.429 188.134 0.1
-158.328 211.621 0.1
-158.447 212.375 0.1
-145.547 201.534 0.1
-145.495 202.288 0.1
-155.341 198.367 0.1
-154.805 198.241 0.1
-186.472 238.446 0.1
-186.006 239.246 0.1
-140.912 231.915 0.1
-176.956 229.666 0.1
-145.738 201.011 0.1
-176.842 246.085 0.1
-165.884 239.73 0.1
-193.789 201.233 0.1
-194.396 201.76 0.1
-176.005 253.798 0.1
-176.647 254.372 0.1
-194.749 185.648 0.1
-151.49 224.515 0.1
-166.619 212.428 0.1
-166.068 212.541 0.1
-166.221 211.902 0.1
-198.22 243.131 0.1
-198.476 243.872 0.1
-165.302 240.968 0.1
-165.056 241.772 0.1
-169.069 227.438 0.1
-168.882 226.605 0.1
-173.231 216.639 0.1
-160.589 207.114 0.1
-148.761 210.64 0.1
-155.304 206.374 0.1
-200.115 227.187 0.1
-158.397 196.964 0.1
-158.902 197.238 0.1
-161.032 245.498 0.1
-143.283 219.025 0.1
-153.465 199.255 0.1
-151.984 239.534 0.1
-141.605 225.769 0.1
-169.446 215.582 0.1
-149.36 221.847 0.1
-176.893 230.624 0.1
-201.085 212.411 0.1
-200.213 212.858 0.1
-154.135 198.21 0.1
-151.064 211.658 0.1
-150.498 211.705 0.1
-137.411 191.287 0.1
-137.895 191.989 0.1
-154.962 216.298 0.1
-155.496 216.928 0.1
-149.604 222.297 0.1
-150.091 222.901 0.1
-149.889 211.855 0.1
-141.495 218.934 0.1
-141.223 219.404 0.1
-157.986 242.696 0.1
-170.299 218.758 0.1
-170.557 219.204 0.1
-148.217 207.412 0.1
-141.496 220.442 0.1
-139.301 241.346 0.1
-138.871 241.741 0.1
-134.022 186.622 0.1
-133.671 187.241 0.1
-164.298 199.464 0.1
-186.463 213.167 0.1
-192.79 192.034 0.1
-193.489 192.526 0.1
-190.654 252.366 0.1
-139.851 229.895 0.1
-139.739 230.587 0.1
-150.209 188.58 0.1
-182.818 211.634 0.1
-155.829 199.994 0.1
-142.251 225.805 0.1
-193.517 229.923 0.1
-193.925 230.588 0.1
-138.579 228.849 0.1
-155.95 254.941 0.1
-156.45 255.56 0.1
-148.619 204.091 0.1
-194.171 229.282 0.1
-152.722 209.659 0.1
-177.738 240.388 0.1
-179.174 212.456 0.1
-151.331 238.253 0.1
-205.326 250.269 0.1
-168.114 213.397 0.1
-189.189 243.095 0.1
-201.15 253.38 0.1
-201.847 254.131 0.1
-151.299 198.847 0.1
-152.378 210.205 0.1
-206.113 257.035 0.1
-206.203 250.187 0.1
-148.391 219.603 0.1
-198.087 192.391 0.1
-197.123 192.74 0.1
-199.224 247.176 0.1
-198.523 247.524 0.1
-200.004 247.03 0.1
-145.353 199.804 0.1
-172.29 219.787 0.1
-192.93 214.022 0.1
-192.293 214.422 0.1
-152.988 201.997 0.1
-198.187 248.082 0.1
-197.679 247.612 0.1
-146.87 238.54 0.1
-141.818 240.515 0.1
-141.312 240.293 0.1
-205.564 228.638 0.1
-205.564 227.633 0.1
-141.802 220.065 0.1
-142.259 219.538 0.1
-191.329 221.744 0.1
-168.029 218.005 0.1
-144.525 243.238 0.1
-144.975 242.892 0.1
-169.238 228.055 0.1
-169.703 228.826 0.1
-158.438 196.355 0.1
-141.968 246.346 0.1
-148.781 207.642 0.1
-178.469 218.268 0.1
-201.52 228.619 0.1
-196.629 257.106 0.1
-197.563 257.106 0.1
-200.319 223.264 0.1
-155.37 231.525 0.1
-154.614 193.862 0.1
-154.552 194.645 0.1
-148.162 226.1 0.1
-148.291 225.558 0.1
-172.861 219.764 0.1
-172.715 220.423 0.1
-141.515 247.698 0.1
-161.731 244.724 0.1
-162.425 244.738 0.1
-198.19 212.796 0.1
-205.606 213.498 0.1
-204.62 213.49 0.1
-174.549 224.688 0.1
-174.951 225.231 0.1
-198.886 212.262 0.1
-137.738 184.965 0.1
-146.735 195.644 0.1
-147.511 195.901 0.1
-185.284 192.516 0.1
-185.284 193.321 0.1
-163.314 244.647 0.1
-142.719 225.804 0.1
-142.385 226.24 0.1
-190.723 216.37 0.1
-190.401 216.937 0.1
-194.826 230.588 0.1
-151.384 236.532 0.1
-142.643 222.18 0.1
-169.48 210.464 0.1
-143.761 196.737 0.1
-144.395 197.03 0.1
-142.451 247.076 0.1
-141.726 246.97 0.1
-144.379 197.729 0.1
-144.3 237.491 0.1
-191.025 217.5 0.1
-186.706 241.909 0.1
-170.398 210.253 0.1
-151.527 199.403 0.1
-151.92 200.028 0.1
-167.067 212.942 0.1
-139.769 241.167 0.1
-173.239 244.622 0.1
-185.991 193.612 0.1
-185.345 220.855 0.1
-162.776 226.215 0.1
-162.003 226.175 0.1
-159.526 196.908 0.1
-159.576 196.257 0.1
-175.707 217.146 0.1
-175.319 225.836 0.1
-192.094 249.708 0.1
-203.931 200.209 0.1
-150.499 223.813 0.1
-150.3 224.318 0.1
-149.768 224 0.1
-201.464 257.071 0.1
-155.731 197.965 0.1
-155.891 197.409 0.1
-156.614 229.186 0.1
-155.695 229.579 0.1
-146.789 195.002 0.1
-201.148 193.054 0.1
-201.423 192.29 0.1
-162.837 227.018 0.1
-151.868 238.672 0.1
-147.63 238.656 0.1
-177.361 210.196 0.1
-176.074 217.781 0.1
-155.938 201.546 0.1
-170.265 209.702 0.1
-164.654 253.972 0.1
-160.054 253.999 0.1
-161.257 217.146 0.1
-191.957 222.091 0.1
-188.665 240.003 0.1
-165.273 240.331 0.1
-150.822 224.72 0.1
-137.853 194.578 0.1
-197.127 198.571 0.1
-158.623 193.077 0.1
-140.464 239.644 0.1
-139.886 239.735 0.1
-150.105 209.577 0.1
-143.246 242.993 0.1
-143.948 243.082 0.1
-165.535 212.626 0.1
-134.055 187.906 0.1
-149.406 245.082 0.1
-154.889 220.442 0.1
-186.063 192.358 0.1
-202.511 225.723 0.1
-202.203 226.557 0.1
-145.474 200.48 0.1
-186.577 192.954 0.1
-140.885 239.928 0.1
-150.712 192.148 0.1
-159.658 225.471 0.1
-161.368 226.357 0.1
-160.711 226.398 0.1
-159.028 196.062 0.1
-204.792 227.465 0.1
-204.272 228.235 0.1
-156.415 254.418 0.1
-204.578 196.636 0.1
-162.367 229.012 0.1
-200.881 191.712 0.1
-140.917 219.78 0.1
-192.405 253.9 0.1
-187.242 228.479 0.1
-187.671 229.031 0.1
-160.249 226.932 0.1
-160.531 227.608 0.1
-172.132 244.302 0.1
-188.173 196.487 0.1
-161.816 210.672 0.1
-161.98 211.394 0.1
-161.241 206.94 0.1
-191.987 221.529 0.1
-145.703 205.378 0.1
-185.591 240.044 0.1
-159.896 226.208 0.1
-156.217 231.181 0.1
-152.536 210.798 0.1
-151.93 210.711 0.1
-141.937 218.433 0.1
-142.134 218.958 0.1
-192.213 191.589 0.1
-172.573 244.838 0.1
-173.042 245.472 0.1
-197.875 198.718 0.1
-186.982 237.861 0.1
-203.311 225.946 0.1
-171.201 240.483 0.1
-171.409 239.816 0.1
-174.202 219.909 0.1
-144.925 242.151 0.1
-151.753 213.586 0.1
-145.88 225.885 0.1
-146.02 225.28 0.1
-173.951 220.424 0.1
-173.537 219.885 0.1
-200.215 193.146 0.1
-158.944 211.479 0.1
-155.127 192.765 0.1
-182.583 245.21 0.1
-182.881 244.418 0.1
-176.171 211.467 0.1
-182.419 245.778 0.1
-165.408 224.052 0.1
-185.6 223.514 0.1
-185.132 223.978 0.1
-154.725 193.317 0.1
-155.232 193.787 0.1
-174.755 221.656 0.1
-174.362 222.233 0.1
-198.4 183.833 0.1
-152.346 193.991 0.1
-159.713 220.458 0.1
-163.171 208.964 0.1
-172.143 246.457 0.1
-171.687 245.823 0.1
-143.25 226.004 0.1
-184.53 224.193 0.1
-145.448 224.943 0.1
-158.165 193.452 0.1
-144.642 230.508 0.1
-143.988 230.579 0.1
-144.225 230.024 0.1
-199.223 220.065 0.1
-138.579 227.785 0.1
-151.069 189.771 0.1
-176.764 211.7 0.1
-191.43 216.112 0.1
-195.547 240.799 0.1
-157.951 193.979 0.1
-157.387 194.038 0.1
-150.734 189.277 0.1
-177.208 211.337 0.1
-182.117 242.135 0.1
-175.043 221.096 0.1
-174.328 221.009 0.1
-194.096 192.23 0.1
-189.938 243.897 0.1
-190.567 243.319 0.1
-193.04 188.906 0.1
-199.851 192.47 0.1
-142.998 230.196 0.1
-147.805 225.059 0.1
-138.558 191.684 0.1
-150.741 223.08 0.1
-197.315 223.701 0.1
-174.065 222.807 0.1
-185.064 215.137 0.1
-150.864 222.486 0.1
-150.52 221.894 0.1
-150.973 204.045 0.1
-151.441 204.594 0.1
-151.23 210.6 0.1
-151.388 211.192 0.1
-191.678 217.216 0.1
-191.941 216.638 0.1
-199.197 219.392 0.1
-200.206 246.273 0.1
-195.106 202.871 0.1
-194.941 202.089 0.1
-195.723 202.544 0.1
-197.625 256.226 0.1
-201.96 209.384 0.1
-202.439 208.672 0.1
-201.882 208.173 0.1
-171.935 245.152 0.1
-157.03 191.338 0.1
-205.964 256.11 0.1
-155.927 230.394 0.1
-149.623 212.375 0.1
-161.152 244.989 0.1
-161.377 244.328 0.1
-153.779 198.708 0.1
-188.058 218.15 0.1
-194.29 186.392 0.1
-151.04 188.508 0.1
-173.09 211.674 0.1
-202.242 228.855 0.1
-200.046 245.63 0.1
-163.768 245.319 0.1
-169.895 210.151 0.1
-170.536 218.11 0.1
-162.211 205.122 0.1
-185.972 222.676 0.1
-186.235 223.517 0.1
-143.479 231.747 0.1
-186.925 219.251 0.1
-202.295 203.69 0.1
-201.451 204.182 0.1
-163.789 199.467 0.1
-167.5 213.494 0.1
-191.562 191.884 0.1
-143.749 231.117 0.1
-143.332 230.633 0.1
-198.654 199.014 0.1
-138.513 190.903 0.1
-137.791 190.769 0.1
-191.032 247.088 0.1
-145.177 230.421 0.1
-173.139 224.599 0.1
-173.922 224.619 0.1
-140.181 192.16 0.1
-192.977 253.48 0.1
-151.706 188.491 0.1
-146.313 191.263 0.1
-202.668 208.108 0.1
-142.166 222.351 0.1
-152.903 194.969 0.1
-187.061 218.588 0.1
-142.675 243.161 0.1
-196.712 255.955 0.1
-152.292 194.617 0.1
-186.177 222.045 0.1
-185.542 222.042 0.1
-192.728 217.62 0.1
-157.004 229.955 0.1
-149.99 191.228 0.1
-150.011 191.994 0.1
-151.134 210.023 0.1
-150.792 209.422 0.1
-192.393 217.038 0.1
-202.681 207.366 0.1
-196.835 247.744 0.1
-187.198 226.137 0.1
-195.002 229.798 0.1
-187.789 245.879 0.1
-181.498 218.606 0.1
-185.764 214.863 0.1
-175.861 218.393 0.1
-186.305 215.311 0.1
-146.042 202.795 0.1
-181.011 222.351 0.1
-180.791 221.858 0.1
-194.943 200.641 0.1
-194.197 200.461 0.1
-204.794 228.88 0.1
-174.198 223.437 0.1
-173.579 223.346 0.1
-185.003 221.566 0.1
-156.888 204.229 0.1
-142.701 219.037 0.1
-174.34 224.044 0.1
-172.769 246.123 0.1
-172.536 246.892 0.1
-146.348 235.336 0.1
-173.435 245.908 0.1
-142.467 193.03 0.1
-139.819 240.467 0.1
-176.156 225.717 0.1
-197.645 221.757 0.1
-173.095 223.809 0.1
-203.237 207.866 0.1
-203.913 207.37 0.1
-170.312 240.57 0.1
-202.486 253.692 0.1
-157.107 203.733 0.1
-166.844 206.229 0.1
-156.636 230.697 0.1
-196.566 222.866 0.1
-197.2 222.295 0.1
-197.263 223.037 0.1
-183.854 224.18 0.1
-200.109 191.874 0.1
-193.426 186.192 0.1
-193.719 203.419 0.1
-196.852 209.532 0.1
-196.271 209.075 0.1
-155.664 201.985 0.1
-194.338 203.076 0.1
-148.612 204.597 0.1
-147.806 219.467 0.1
-144.119 194.305 0.1
-160.678 245.102 0.1
-161.336 212.905 0.1
-195.12 203.532 0.1
-149.97 221.857 0.1
-161.569 213.452 0.1
-156.554 223.461 0.1
-157.143 223.911 0.1
-152.61 215.084 0.1
-199.865 219.762 0.1
-155.072 247.852 0.1
-151.811 212.907 0.1
-140.308 240.91 0.1
-157.835 250.637 0.1
-141.385 219.835 0.1
-182.059 245.296 0.1
-195.013 201.434 0.1
-187.436 218.018 0.1
-196.333 256.505 0.1
-171.246 245.286 0.1
-197.794 205.293 0.1
-197.686 205.95 0.1
-140.785 240.575 0.1
-177.158 210.808 0.1
-162.053 213.569 0.1
-152.103 204.382 0.1
-156.44 222.803 0.1
-198.288 203.839 0.1
-197.985 204.515 0.1
-198.645 205.125 0.1
-185.442 248.523 0.1
-189.999 210.919 0.1
-196.62 210.252 0.1
-138.39 194.465 0.1
-201.667 204.992 0.1
      </DataArray>
    </Points>
    <Cells>
      <DataArray type="Int32" Name="connectivity" format="ascii">
899 660 1099 2162 2163 2164 
610 921 1058 2165 2166 2167 
921 610 2023 2165 2168 2169 
872 502 1754 2170 2171 2172 
743 957 1255 2173 2174 2175 
1443 565 1529 2176 2177 2178 
1292 829 1566 2179 2180 2181 
690 1100 1176 2182 2183 2184 
939 607 1128 2185 2186 2187 
1412 1096 1447 2188 2189 2190 
492 921 1065 2191 2192 2193 
200 867 1777 2194 2195 2196 
482 925 1083 2197 2198 2199 
900 656 2075 2200 2201 2202 
597 970 1098 2203 2204 2205 
1031 635 1136 2206 2207 2208 
734 1015 1290 2209 2210 2211 
597 1040 1216 2212 2213 2214 
816 639 1575 2215 2216 2217 
1144 443 1414 2218 2219 2220 
1015 495 1290 2221 2222 2210 
917 488 1088 2223 2224 2225 
985 578 1225 2226 2227 2228 
1437 486 1731 2229 2230 2231 
597 1038 1040 2232 2233 2212 
1038 785 1040 2234 2235 2233 
744 967 1508 2236 2237 2238 
1416 836 1643 2239 2240 2241 
873 572 1229 2242 2243 2244 
601 1151 1593 2245 2246 2247 
925 633 1083 2248 2249 2198 
712 985 1225 2250 2228 2251 
922 1537 1676 2252 2253 2254 
950 538 1263 2255 2256 2257 
716 1096 1412 2258 2188 2259 
1065 921 2023 2192 2169 2260 
664 896 1248 2261 2262 2263 
955 117 1421 2264 2265 2266 
961 488 1042 2267 2268 2269 
698 913 1887 2270 2271 2272 
1009 530 1140 2273 2274 2275 
952 486 1437 2276 2229 2277 
1216 1040 1638 2213 2278 2279 
1640 919 1996 2280 2281 2282 
891 535 1153 2283 2284 2285 
1006 958 2092 2286 2287 2288 
869 494 1733 2289 2290 2291 
643 902 1181 2292 2293 2294 
684 1009 1140 2295 2275 2296 
5 837 1542 2297 2298 2299 
1202 799 1481 2300 2301 2302 
1057 686 1060 2303 2304 2305 
979 565 1443 2306 2176 2307 
517 922 1964 2308 2309 2310 
1359 1268 1824 2311 2312 2313 
919 1640 2056 2280 2314 2315 
971 534 1666 2316 2317 2318 
957 743 1431 2173 2319 2320 
895 629 1523 2321 2322 2323 
638 880 1182 2324 2325 2326 
629 895 1135 2321 2327 2328 
98 966 1220 2329 2330 2331 
9 1039 1499 2332 2333 2334 
1782 1351 1786 2335 2336 2337 
598 957 1431 2338 2320 2339 
1162 775 1296 2340 2341 2342 
1288 836 1355 2343 2344 2345 
442 443 1144 463 2218 2346 
998 678 1116 2347 2348 2349 
676 998 1116 2350 2349 2351 
591 960 1107 2352 2353 2354 
494 869 1324 2289 2355 2356 
782 1075 1484 2357 2358 2359 
663 865 1627 2360 2361 2362 
535 891 1206 2283 2363 2364 
7 241 1026 253 2365 2366 
922 517 1537 2308 2367 2252 
863 1229 1444 2368 2369 2370 
867 200 1300 2194 2371 2372 
1006 663 2049 2373 2374 2375 
647 891 1143 2376 2377 2378 
1023 609 1680 2379 2380 2381 
880 638 1194 2324 2382 2383 
219 7 1026 240 2366 2384 
798 971 1666 2385 2318 2386 
500 1292 1566 2387 2181 2388 
1054 626 1076 2389 2390 2391 
627 1006 2092 2392 2288 2393 
575 1288 1355 2394 2345 2395 
976 1194 2097 2396 2397 2398 
641 921 1142 2399 2400 2401 
945 639 1616 2402 2403 2404 
542 1268 1359 2405 2311 2406 
922 594 1104 2407 2408 2409 
632 917 1682 2410 2411 2412 
944 515 1093 2413 2414 2415 
454 932 1279 2416 2417 2418 
921 492 1142 2191 2419 2400 
624 1057 1060 2420 2305 2421 
1222 823 1591 2422 2423 2424 
895 779 1660 2425 2426 2427 
1091 1291 1714 2428 2429 2430 
905 588 1517 2431 2432 2433 
656 1168 2075 2434 2435 2201 
997 605 1407 2436 2437 2438 
1633 1023 1680 2439 2381 2440 
1505 557 1635 2441 2442 2443 
1066 722 1188 2444 2445 2446 
1536 550 1963 2447 2448 2449 
746 1424 1565 2450 2451 2452 
9 327 1039 328 2453 2332 
75 76 1401 88 2454 2455 
592 934 1922 2456 2457 2458 
921 641 1600 2399 2459 2460 
967 744 1608 2236 2461 2462 
529 985 1119 2463 2464 2465 
518 976 2097 2466 2398 2467 
530 993 1140 2468 2469 2274 
444 445 949 465 2470 2471 
1073 898 1784 2472 2473 2474 
1229 572 1444 2243 2475 2369 
1091 536 1291 2476 2477 2428 
958 1006 2049 2286 2375 2478 
877 662 1293 2479 2480 2481 
923 669 1579 2482 2483 2484 
76 1223 1401 2485 2486 2454 
728 997 1407 2487 2438 2488 
662 877 1401 2479 2489 2490 
594 1005 1252 2491 2492 2493 
1351 888 1786 2494 2495 2336 
637 1029 2004 2496 2497 2498 
17 351 969 352 2499 2500 
513 1073 1784 2501 2474 2502 
1029 1102 2004 2503 2504 2497 
1199 372 1375 2505 2506 2507 
748 876 1198 2508 2509 2510 
1030 518 2097 2511 2467 2512 
653 930 1722 2513 2514 2515 
891 647 1206 2376 2516 2363 
1028 606 1621 2517 2518 2519 
865 663 1384 2360 2520 2521 
818 1135 1599 2522 2523 2524 
557 1162 1296 2525 2342 2526 
947 723 1470 2527 2528 2529 
1151 845 1593 2530 2531 2246 
915 801 1399 2532 2533 2534 
995 698 1887 2535 2272 2536 
930 653 1184 2513 2537 2538 
628 1186 1713 2539 2540 2541 
929 652 1254 2542 2543 2544 
157 158 981 183 2545 2546 
502 872 1621 2170 2547 2548 
799 1202 1490 2300 2549 2550 
740 1027 1367 2551 2552 2553 
1075 602 1484 2554 2555 2358 
1424 893 1565 2556 2557 2451 
725 953 1126 2558 2559 2560 
517 1416 1643 2561 2241 2562 
975 680 1087 2563 2564 2565 
1027 499 1367 2566 2567 2552 
953 673 1126 2568 2569 2559 
1194 638 2097 2382 2570 2397 
902 643 1192 2292 2571 2572 
967 485 1508 2573 2574 2237 
630 1149 1552 2575 2576 2577 
626 1202 1481 2578 2302 2579 
1186 915 1713 2580 2581 2540 
1001 694 2102 2582 2583 2584 
694 1002 2102 2585 2586 2583 
275 276 1208 306 2587 2588 
745 1382 1781 2589 2590 2591 
605 997 2039 2436 2592 2593 
986 592 1922 2594 2458 2595 
773 1072 1118 2596 2597 2598 
683 1051 1196 2599 2600 2601 
1100 525 1176 2602 2603 2183 
904 650 1237 2604 2605 2606 
1149 861 1552 2607 2608 2576 
572 873 1302 2242 2609 2610 
715 1009 1729 2611 2612 2613 
1462 636 1564 2614 2615 2616 
1003 629 1514 2617 2618 2619 
971 798 1339 2385 2620 2621 
719 868 1797 2622 2623 2624 
650 904 1594 2604 2625 2626 
606 1043 1621 2627 2628 2518 
979 617 1272 2629 2630 2631 
379 380 1011 400 2632 2633 
1105 604 1887 2634 2635 2636 
960 665 1107 2637 2638 2353 
1256 498 1361 2639 2640 2641 
1088 647 1690 2642 2643 2644 
985 712 1119 2250 2645 2464 
1292 745 1781 2646 2591 2647 
275 1208 1628 2588 2648 2649 
897 689 1889 2650 2651 2652 
876 748 1592 2508 2653 2654 
916 1037 1983 2655 2656 2657 
875 1437 1731 2658 2231 2659 
647 1143 1655 2378 2660 2661 
538 1082 1589 2662 2663 2664 
980 537 1604 2665 2666 2667 
588 905 1834 2431 2668 2669 
104 892 1559 2670 2671 2672 
503 1782 1786 2673 2337 2674 
628 1434 1985 2675 2676 2677 
1030 666 1402 2678 2679 2680 
1013 1 1167 2681 2682 2683 
896 664 1268 2261 2684 2685 
1422 707 1940 2686 2687 2688 
1447 715 1729 2689 2613 2690 
669 923 1146 2482 2691 2692 
660 899 1277 2162 2693 2694 
1037 617 1983 2695 2696 2656 
512 1766 1818 2697 2698 2699 
657 924 1193 2700 2701 2702 
1824 1042 1925 2703 2704 2705 
113 114 1121 139 2706 2707 
639 1340 1616 2708 2709 2403 
680 1328 1510 2710 2711 2712 
1005 529 1497 2713 2714 2715 
868 719 1227 2622 2716 2717 
1009 684 1729 2295 2718 2612 
647 1174 1690 2719 2720 2643 
779 895 1456 2425 2721 2722 
1715 146 1788 2723 2724 2725 
976 518 1955 2466 2726 2727 
703 968 1432 2728 2729 2730 
1008 605 1726 2731 2732 2733 
577 898 1522 2734 2735 2736 
519 1021 2132 2737 2738 2739 
382 1212 2013 2740 2741 2742 
1218 872 1754 2743 2172 2744 
956 1419 1823 2745 2746 2747 
957 598 1530 2338 2748 2749 
1174 647 1655 2719 2661 2750 
1106 753 1585 2751 2752 2753 
550 1261 1963 2754 2755 2448 
1234 933 2061 2756 2757 2758 
932 454 1654 2416 2759 2760 
927 520 1321 2761 2762 2763 
456 457 1809 477 2764 2765 
623 956 1823 2766 2747 2767 
1046 794 1614 2768 2769 2770 
1590 670 1777 2771 2772 2773 
635 907 1843 2774 2775 2776 
666 964 1279 2777 2778 2779 
753 984 1536 2780 2781 2782 
1094 422 1150 2783 2784 2785 
732 1055 1353 2786 2787 2788 
892 104 1583 2670 2789 2790 
874 1422 1940 2791 2688 2792 
1021 958 2132 2793 2794 2738 
486 957 1155 2795 2796 2797 
447 448 1045 468 2798 2799 
1104 594 1252 2408 2493 2800 
979 1272 2022 2631 2801 2802 
773 1118 1596 2598 2803 2804 
572 918 1855 2805 2806 2807 
1276 491 1301 2808 2809 2810 
954 771 1602 2811 2812 2813 
1156 681 1261 2814 2815 2816 
963 701 1854 2817 2818 2819 
146 147 1788 172 2820 2724 
1406 848 1877 2821 2822 2823 
689 897 1342 2650 2824 2825 
1178 538 1589 2826 2664 2827 
1051 683 1166 2599 2828 2829 
457 1052 1809 2830 2831 2764 
955 689 1657 2832 2833 2834 
956 1406 1877 2835 2823 2836 
512 1004 1766 2837 2838 2697 
636 1101 1564 2839 2840 2615 
823 1222 1835 2422 2841 2842 
784 1082 1471 2843 2844 2845 
551 1109 1811 2846 2847 2848 
1135 539 1599 2849 2850 2523 
1144 760 1319 2851 2852 2853 
959 702 1454 2854 2855 2856 
740 1686 1895 2857 2858 2859 
1351 589 1396 2860 2861 2862 
1026 618 1131 2863 2864 2865 
1179 271 1438 2866 2867 2868 
1067 1780 1877 2869 2870 2871 
1406 956 1902 2835 2872 2873 
913 1105 1887 2874 2636 2271 
984 753 1632 2780 2875 2876 
592 986 2056 2594 2877 2878 
1051 701 1196 2879 2880 2600 
1429 927 1801 2881 2882 2883 
636 948 1282 2884 2885 2886 
990 691 1164 2887 2888 2889 
801 915 1719 2532 2890 2891 
1109 1723 1811 2892 2893 2847 
999 730 1302 2894 2895 2896 
914 590 1317 2897 2898 2899 
1 1013 1316 2681 2900 2901 
622 959 1133 2902 2903 2904 
1263 538 1740 2256 2905 2906 
766 1005 1497 2907 2715 2908 
753 1106 1632 2751 2909 2875 
491 1139 1301 2910 2911 2809 
1082 538 1471 2662 2912 2844 
687 904 1950 2913 2914 2915 
774 1156 1261 2916 2816 2917 
1069 529 1119 2918 2465 2919 
1255 957 1548 2174 2920 2921 
656 900 1428 2200 2922 2923 
925 648 1178 2924 2925 2926 
1254 834 1294 2927 2928 2929 
1432 968 1897 2729 2930 2931 
923 683 2070 2932 2933 2934 
487 990 1164 2935 2889 2936 
1029 523 1102 2937 2938 2503 
1375 847 1493 2939 2940 2941 
1272 704 2022 2942 2943 2801 
1066 1188 1539 2446 2944 2945 
664 1042 1824 2946 2703 2947 
985 529 1417 2463 2948 2949 
764 1406 1902 2950 2873 2951 
779 1133 1660 2952 2953 2426 
117 118 1421 143 2954 2265 
1194 976 1378 2396 2955 2956 
219 1026 2158 2384 2957 2958 
513 1055 1969 2959 2960 2961 
1054 49 1607 2962 2963 2964 
909 579 1500 2965 2966 2967 
1430 493 1617 2968 2969 2970 
900 520 1428 2971 2972 2922 
1389 28 1641 2973 2974 2975 
913 698 1374 2270 2976 2977 
532 1197 1400 2978 2979 2980 
951 606 1634 2981 2982 2983 
984 550 1536 2984 2447 2781 
554 1254 1294 2985 2929 2986 
375 376 1036 396 2987 2988 
27 441 1158 461 2989 2990 
520 900 1321 2971 2991 2762 
288 289 1071 319 2992 2993 
631 1577 1766 2994 2995 2996 
1029 637 1109 2496 2997 2998 
918 572 1576 2805 2999 3000 
651 1252 1295 3001 3002 3003 
515 944 1189 2413 3004 3005 
1047 527 1112 3006 3007 3008 
679 1013 1167 3009 2683 3010 
684 1303 1729 3011 3012 2718 
801 987 1347 3013 3014 3015 
390 1274 1737 3016 3017 3018 
113 1121 1532 2707 3019 3020 
661 1047 1112 3021 3008 3022 
1582 650 1656 3023 3024 3025 
964 666 1871 2777 3026 3027 
837 197 1433 3028 3029 3030 
1514 629 1912 2618 3031 3032 
483 972 2036 3033 3034 3035 
904 687 1393 2913 3036 3037 
1197 813 1400 3038 3039 2979 
586 1429 1801 3040 2883 3041 
991 541 1398 3042 3043 3044 
908 1764 1924 3045 3046 3047 
488 917 1570 2223 3048 3049 
483 948 1260 3050 3051 3052 
419 1234 2061 3053 2758 3054 
1434 942 1985 3055 3056 2676 
1252 766 1295 3057 3058 3002 
485 967 1717 2573 3059 3060 
1157 217 1615 3061 3062 3063 
495 1001 1290 3064 3065 2222 
648 925 1465 2924 3066 3067 
558 1046 1614 3068 2770 3069 
1597 658 2027 3070 3071 3072 
17 969 1175 2500 3073 3074 
1058 921 1600 2166 2460 3075 
585 936 1269 3076 3077 3078 
1022 672 2023 3079 3080 3081 
757 1256 1361 3082 2641 3083 
579 909 1468 2965 3084 3085 
964 638 1182 3086 2326 3087 
968 678 1345 3088 3089 3090 
1055 1591 1969 3091 3092 2960 
878 1430 1617 3093 2970 3094 
592 981 1549 3095 3096 3097 
1212 947 2013 3098 3099 2741 
1255 852 1856 3100 3101 3102 
271 272 1438 302 3103 2867 
724 1232 1291 3104 3105 3106 
1018 625 1161 3107 3108 3109 
898 577 1353 2734 3110 3111 
810 977 1801 3112 3113 3114 
1145 761 1435 3115 3116 3117 
646 1094 1150 3118 2785 3119 
1186 628 1604 2539 3120 3121 
1016 483 2036 3122 3035 3123 
701 1449 1854 3124 3125 2818 
888 1351 1396 2494 2862 3126 
808 1137 1624 3127 3128 3129 
1780 496 1877 3130 3131 2870 
1232 797 1291 3132 3133 3105 
981 756 1549 3134 3135 3096 
1135 818 1912 2522 3136 3137 
670 1069 1119 3138 2919 3139 
56 1166 1387 3140 3141 3142 
974 640 1394 3143 3144 3145 
1686 983 1895 3146 3147 2858 
1338 1224 1752 3148 3149 3150 
1023 769 1159 3151 3152 3153 
917 632 2057 2410 3154 3155 
1152 522 1516 3156 3157 3158 
828 1152 1516 3159 3158 3160 
1328 809 1510 3161 3162 2711 
750 1031 1136 3163 2208 3164 
666 1191 1402 3165 3166 2679 
1202 507 1490 3167 3168 2549 
1133 779 1700 2952 3169 3170 
680 975 1328 2563 3171 2710 
729 1375 1493 3172 2941 3173 
1145 1435 1776 3117 3174 3175 
992 635 1843 3176 2776 3177 
100 913 1374 3178 2977 3179 
908 1107 1764 3180 3181 3045 
1353 1055 1784 2787 3182 3183 
491 1262 1392 3184 3185 3186 
581 910 1577 3187 3188 3189 
1011 380 1470 2632 3190 3191 
672 1065 2023 3192 2260 3080 
994 1597 2027 3193 3072 3194 
216 217 1157 237 3061 3195 
550 1222 1261 3196 3197 2754 
491 926 1262 3198 3199 3184 
207 208 1092 228 3200 3201 
653 1144 1319 3202 2853 3203 
631 1019 1577 3204 3205 2994 
997 728 1952 2487 3206 3207 
1012 540 1249 3208 3209 3210 
1097 706 1553 3211 3212 3213 
537 980 1821 2665 3214 3215 
940 649 1530 3216 3217 3218 
282 283 1095 313 3219 3220 
691 1012 1249 3221 3210 3222 
706 1355 1553 3223 3224 3212 
632 1682 1988 2412 3225 3226 
514 1184 1319 3227 3228 3229 
751 1405 1904 3230 3231 3232 
913 100 2137 3178 3233 3234 
977 586 1801 3235 3041 3113 
49 50 1607 62 3236 2963 
56 2 1166 69 3237 3140 
1071 289 1842 2992 3238 3239 
670 1119 1183 3139 3240 3241 
591 1107 2143 2354 3242 3243 
50 51 1346 63 3244 3245 
953 725 1333 2558 3246 3247 
1008 1726 2026 2733 3248 3249 
910 581 1318 3187 3250 3251 
867 1590 1777 3252 2773 2195 
1318 685 1818 3253 3254 3255 
989 682 1337 3256 3257 3258 
1041 1348 1868 3259 3260 3261 
590 914 1562 2897 3262 3263 
1119 712 1183 2645 3264 3240 
1054 1076 1728 2391 3265 3266 
652 929 1350 2542 3267 3268 
719 1224 1338 3269 3148 3270 
961 789 1767 3271 3272 3273 
665 960 1242 2637 3274 3275 
1110 695 1262 3276 3277 3278 
611 954 1209 3279 3280 3281 
796 1443 1529 3282 2178 3283 
958 1021 2092 2793 3284 2287 
948 483 1282 3050 3285 2885 
1064 579 1366 3286 3287 3288 
685 1267 1818 3289 3290 3254 
567 1028 1845 3291 3292 3293 
735 1346 1645 3294 3295 3296 
978 685 1318 3297 3253 3298 
734 1064 1366 3299 3288 3300 
1424 1227 2159 3301 3302 3303 
594 922 1524 2407 3304 3305 
520 927 1310 2761 3306 3307 
97 98 1220 123 2331 3308 
828 1015 1366 3309 3310 3311 
1015 734 1366 2209 3300 3310 
1041 813 1348 3312 3313 3259 
1399 801 1840 2533 3314 3315 
669 1201 1579 3316 3317 2483 
1604 537 1932 2666 3318 3319 
941 709 1409 3320 3321 3322 
752 1326 1388 3323 3324 3325 
707 1046 1305 3326 3327 3328 
678 998 1898 2347 3329 3330 
851 1186 1604 3331 3121 3332 
866 1389 1641 3333 2975 3334 
988 669 1568 3335 3336 3337 
611 1725 2100 3338 3339 3340 
1129 690 1176 3341 2184 3342 
1336 543 1904 3343 3344 3345 
925 482 1465 2197 3346 3066 
1537 635 1966 3347 3348 3349 
1823 1471 2107 3350 3351 3352 
1000 788 1256 3353 3354 3355 
954 1602 2052 2813 3356 3357 
1725 611 2091 3338 3358 3359 
729 1199 1375 3360 2507 3172 
1434 628 1713 2675 2541 3361 
52 53 1201 65 3362 3363 
705 935 1622 3364 3365 3366 
1327 962 1941 3367 3368 3369 
936 585 1518 3076 3370 3371 
50 1346 1607 3245 3372 3236 
993 530 1600 2468 3373 3374 
1139 491 1392 2910 3186 3375 
595 926 1658 3376 3377 3378 
594 967 1608 3379 2462 3380 
982 720 1463 3381 3382 3383 
488 961 1767 2267 3273 3384 
650 1086 1656 3385 3386 3024 
649 940 1601 3216 3387 3388 
1118 552 1596 3389 3390 2803 
645 984 1217 3391 3392 3393 
1042 664 1219 2946 3394 3395 
848 1067 1877 3396 2871 2822 
734 1290 1578 2211 3397 3398 
521 1134 1825 3399 3400 3401 
1215 504 1698 3402 3403 3404 
1290 903 1578 3405 3406 3397 
790 1640 1996 3407 2282 3408 
905 1215 1698 3409 3404 3410 
1072 619 1118 3411 3412 2597 
872 1028 1621 3413 2519 2547 
1158 653 1722 3414 2515 3415 
1024 487 1164 3416 2936 3417 
798 1505 1635 3418 2443 3419 
1037 916 2093 2655 3420 3421 
924 657 1320 2700 3422 3423 
1359 632 1922 3424 3425 3426 
1482 521 1825 3427 3401 3428 
1155 957 1530 2796 2749 3429 
708 1018 1329 3430 3431 3432 
382 383 1212 403 3433 2740 
1046 558 1305 3068 3434 3327 
1051 1166 2078 2829 3435 3436 
1062 928 2060 3437 3438 3439 
18 354 1423 355 3440 3441 
1136 635 1537 2207 3347 3442 
614 1062 2060 3443 3439 3444 
920 596 2020 3445 3446 3447 
629 1113 1523 3448 3449 2322 
1025 514 1319 3450 3229 3451 
928 378 1558 3452 3453 3454 
633 925 1589 2248 3455 3456 
1193 924 1853 2701 3457 3458 
215 994 1785 3459 3460 3461 
1038 544 1623 3462 3463 3464 
1072 503 1797 3465 3466 3467 
987 801 1808 3013 3468 3469 
926 595 1533 3376 3470 3471 
737 1381 1480 3472 3473 3474 
498 1019 1361 3475 3476 2640 
1389 866 1519 3333 3477 3478 
639 945 1894 2402 3479 3480 
569 1193 1853 3481 3458 3482 
1271 523 1386 3483 3484 3485 
785 1038 1623 2234 3464 3486 
1222 774 1261 3487 2917 3197 
1766 910 1818 3488 3489 2698 
378 928 1771 3452 3490 3491 
612 1379 1781 3492 3493 3494 
1092 208 1874 3200 3495 3496 
1480 1381 1997 3473 3497 3498 
683 923 1387 2932 3499 3500 
678 968 2029 3088 3501 3502 
794 1046 1806 2768 3503 3504 
947 1470 2013 2529 3505 3099 
981 158 1630 2545 3506 3507 
826 1271 1386 3508 3485 3509 
2 70 1166 82 3510 3237 
427 27 1158 440 2990 3511 
638 964 1871 3086 3027 3512 
640 974 1825 3143 3513 3514 
1010 1336 1904 3515 3345 3516 
796 1052 1443 3517 3518 3282 
1504 880 1571 3519 3520 3521 
1171 1441 1968 3522 3523 3524 
1689 778 1845 3525 3526 3527 
698 966 1936 3528 3529 3530 
769 1216 1638 3531 2279 3532 
1965 524 1998 3533 3534 3535 
1075 548 1369 3536 3537 3538 
749 1389 1519 3539 3478 3540 
872 1689 1845 3541 3527 3542 
846 1824 1925 3543 2705 3544 
1000 648 1360 3545 3546 3547 
729 1075 1369 3548 3538 3549 
1318 581 1849 3250 3550 3551 
967 673 1717 3552 3553 3059 
115 1342 1828 3554 3555 3556 
245 246 1056 258 3557 3558 
982 551 1446 3559 3560 3561 
1217 984 1632 3392 2876 3562 
1095 283 1858 3219 3563 3564 
525 1327 1941 3565 3369 3566 
569 1255 1856 3567 3102 3568 
701 963 1526 2817 3569 3570 
1137 630 1624 3571 3572 3128 
390 391 1274 411 3573 3016 
148 996 1788 3574 3575 3576 
1146 923 2070 2691 2934 3577 
528 1050 1247 3578 3579 3580 
524 1078 1998 3581 3582 3534 
957 486 1548 2795 3583 2920 
1052 617 1443 3584 3585 3518 
698 995 1310 2535 3586 3587 
973 603 1527 3588 3589 3590 
1586 931 2071 3591 3592 3593 
926 491 1494 3198 3594 3595 
1540 972 1949 3596 3597 3598 
1228 759 1260 3599 3600 3601 
650 1017 2146 3602 3603 3604 
653 1158 1673 3414 3605 3606 
495 1015 2156 2221 3607 3608 
978 1318 1849 3298 3551 3609 
1157 658 1597 3610 3070 3611 
1028 872 1845 3413 3542 3292 
969 351 1246 2499 3612 3613 
892 1281 1614 3614 3615 3616 
1647 561 1679 3617 3618 3619 
20 360 1405 361 3620 3621 
965 701 1526 3622 3570 3623 
987 655 1297 3624 3625 3626 
522 1141 1314 3627 3628 3629 
1086 668 1163 3630 3631 3632 
635 1031 1459 2206 3633 3634 
1054 735 1408 3635 3636 3637 
965 568 2082 3638 3639 3640 
605 1008 1846 2731 3641 3642 
1144 653 1673 3202 3606 3643 
1033 660 1241 3644 3645 3646 
909 1284 1468 3647 3648 3084 
1126 673 1502 2569 3649 3650 
1053 649 1599 3651 3652 3653 
596 920 1534 3445 3654 3655 
1017 650 1594 3602 2626 3656 
655 987 1808 3624 3469 3657 
998 676 1563 2350 3658 3659 
962 1327 2018 3367 3660 3661 
426 930 1495 3662 3663 3664 
1337 682 1662 3257 3665 3666 
1599 649 1601 3652 3388 3667 
1281 667 1322 3668 3669 3670 
538 950 1471 2255 3671 2912 
626 1054 1408 2389 3637 3672 
782 1067 1769 3673 3674 3675 
168 169 1070 194 3676 3677 
1368 1699 1831 3678 3679 3680 
1439 1775 1935 3681 3682 3683 
673 953 1717 2568 3684 3553 
1577 910 1766 3188 3488 2995 
284 285 1124 315 3685 3686 
607 939 1442 2185 3687 3688 
670 993 2038 3689 3690 3691 
15 345 1089 346 3692 3693 
709 941 1395 3320 3694 3695 
935 705 1872 3364 3696 3697 
1074 687 1669 3698 3699 3700 
689 955 1562 2832 3701 3702 
1133 959 1454 2903 2856 3703 
1087 680 1176 2564 3704 3705 
1175 767 1287 3706 3707 3708 
203 204 1125 224 3709 3710 
760 1144 1414 2851 2220 3711 
52 1201 1820 3363 3712 3713 
827 1281 1322 3714 3670 3715 
934 592 1549 2456 3097 3716 
659 1061 1625 3717 3718 3719 
515 1189 1719 3005 3720 3721 
573 1540 1949 3722 3598 3723 
949 445 1678 2470 3724 3725 
1662 682 1843 3665 3726 3727 
530 1058 1600 3728 3075 3373 
614 1093 1716 3729 3730 3731 
269 1169 1487 3732 3733 3734 
1348 736 1868 3735 3736 3260 
1517 588 1826 2432 3737 3738 
1014 605 1846 3739 3642 3740 
704 1041 1334 3741 3742 3743 
518 1086 1163 3744 3632 3745 
809 1074 1669 3746 3700 3747 
720 982 1446 3381 3561 3748 
444 949 1414 2471 3749 3750 
453 454 1279 474 2418 3751 
723 1011 1470 3752 3191 2528 
1719 1189 1808 3720 3753 3754 
1004 512 2017 2837 3755 3756 
1414 949 1631 3749 3757 3758 
1019 631 1361 3204 3759 3476 
882 1154 1978 3760 3761 3762 
534 971 1424 2316 3763 3764 
1291 797 1714 3133 3765 2429 
1026 241 1323 2365 3766 3767 
1379 612 1960 3492 3768 3769 
1330 931 1586 3770 3591 3771 
984 645 1817 3391 3772 3773 
489 1203 1358 3774 3775 3776 
1342 897 1828 2824 3777 3555 
1145 705 1358 3778 3779 3780 
868 1227 1545 2717 3781 3782 
348 1175 1287 3783 3708 3784 
1135 895 1660 2327 2427 3785 
525 1087 1176 3786 3705 2603 
520 1310 1954 3307 3787 3788 
0 28 1389 36 2973 3789 
723 947 1546 2527 3790 3791 
672 1035 2126 3792 3793 3794 
1211 1520 1765 3795 3796 3797 
492 1097 1295 3798 3799 3800 
1041 497 1334 3801 3802 3742 
1310 995 1954 3586 3803 3787 
789 961 1648 3271 3804 3805 
1893 1455 2124 3806 3807 3808 
1339 798 1635 2620 3419 3809 
1005 766 1252 2907 3057 2492 
970 597 2119 2203 3810 3811 
487 1024 2048 3416 3812 3813 
706 982 2030 3814 3815 3816 
561 1240 1679 3817 3818 3618 
1203 761 1358 3819 3820 3775 
35 1 1316 44 2901 3821 
770 1504 1571 3822 3521 3823 
1284 710 1468 3824 3825 3648 
1725 1024 2100 3826 3827 3339 
1346 830 1645 3828 3829 3295 
960 591 1478 2352 3830 3831 
743 1853 2081 3832 3833 3834 
1248 896 1873 2262 3835 3836 
1368 805 1699 3837 3838 3678 
706 1035 1472 3839 3840 3841 
1095 659 1625 3842 3719 3843 
574 983 1686 3844 3146 3845 
1314 1141 1909 3628 3846 3847 
646 1222 1591 3848 2424 3849 
458 1652 1665 3850 3851 3852 
1084 634 1239 3853 3854 3855 
1086 650 2146 3385 3604 3856 
689 1342 1657 2825 3857 2833 
1120 636 1282 3858 2886 3859 
603 973 1464 3588 3860 3861 
1113 150 1523 3862 3863 3449 
702 959 1859 2854 3864 3865 
288 1071 1277 2993 3866 3867 
885 1087 1941 3868 3869 3870 
526 1099 1734 3871 3872 3873 
948 636 1462 2884 2614 3874 
1039 807 1499 3875 3876 2333 
1730 919 2056 3877 2315 3878 
968 703 1451 2728 3879 3880 
102 1105 2137 3881 3882 3883 
679 1190 1233 3884 3885 3886 
972 1540 2036 3596 3887 3034 
974 552 1507 3888 3889 3890 
761 1145 1358 3115 3780 3820 
606 951 1373 2981 3891 3892 
618 1893 2124 3893 3808 3894 
672 1022 1986 3079 3895 3896 
1537 800 1676 3897 3898 2253 
954 611 1371 3279 3899 3900 
565 1191 1529 3901 3902 2177 
980 1382 1821 3903 3904 3214 
701 965 1838 3622 3905 3906 
966 698 1429 3528 3907 3908 
669 988 1344 3335 3909 3910 
1092 843 1214 3911 3912 3913 
197 6 1618 199 3914 3915 
835 1071 1842 3916 3239 3917 
565 979 1738 2306 3918 3919 
535 1206 1242 2364 3920 3921 
746 1227 1424 3922 3301 2450 
752 1283 1326 3923 3924 3323 
660 1071 1241 3925 3926 3645 
1127 528 1247 3927 3580 3928 
915 1186 1719 2580 3929 2890 
166 1232 1331 3930 3931 3932 
688 1505 1666 3933 3934 3935 
1087 525 1941 3786 3566 3869 
1204 728 1407 3936 2488 3937 
552 974 1394 3888 3145 3938 
421 422 1094 434 2783 3939 
1207 678 1898 3940 3330 3941 
1439 860 1775 3942 3943 3681 
679 1167 1190 3010 3944 3884 
1441 844 1968 3945 3946 3523 
1065 672 2126 3192 3794 3947 
1529 1191 1812 3902 3948 3949 
78 977 1580 3950 3951 3952 
486 952 1916 2276 3953 3954 
55 56 1387 68 3142 3955 
6 200 1777 220 2196 3956 
978 5 1542 3957 2299 3958 
807 1039 1811 3875 3959 3960 
710 1141 1152 3961 3962 3963 
642 1397 1802 3964 3965 3966 
999 1302 1750 2896 3967 3968 
80 81 1177 93 3969 3970 
417 1034 1531 3971 3972 3973 
1167 709 1190 3974 3975 3944 
1211 741 1520 3976 3977 3795 
1141 522 1152 3627 3156 3962 
1025 760 1631 3978 3979 3980 
688 1228 1260 3981 3601 3982 
588 1025 1631 3983 3980 3984 
618 1026 1893 2863 3985 3893 
868 1072 1797 3986 3467 2623 
541 991 1349 3042 3987 3988 
1837 938 2116 3989 3990 3991 
268 269 1487 299 3734 3992 
873 1229 1802 2244 3993 3994 
658 1050 1213 3995 3996 3997 
930 426 1722 3662 3998 2514 
821 1120 1282 3999 3859 4000 
1186 515 1719 4001 3721 3929 
81 95 1177 4002 4003 3969 
595 1187 1892 4004 4005 4006 
1014 663 1627 4007 2362 4008 
578 985 1878 2226 4009 4010 
560 1033 1241 4011 3646 4012 
561 1059 1278 4013 4014 4015 
819 951 1634 4016 2983 4017 
523 1029 1986 2937 4018 4019 
1013 603 1862 4020 4021 4022 
805 1198 1699 4023 4024 3838 
591 1552 1900 4025 4026 4027 
1045 448 1691 2798 4028 4029 
1195 502 1894 4030 4031 4032 
1692 577 2155 4033 4034 4035 
523 1986 2003 4019 4036 4037 
494 1068 1733 4038 4039 2290 
1132 676 1265 4040 4041 4042 
1206 789 1242 4043 4044 3920 
934 1359 1922 4045 3426 2457 
843 1132 1265 4046 4042 4047 
760 1414 1631 3711 3758 3979 
209 210 1132 230 4048 4049 
1071 835 1241 3916 4050 3926 
1121 897 1613 4051 4052 4053 
1471 950 2107 3671 4054 3351 
977 78 1841 3950 4055 4056 
1002 694 1865 2585 4057 4058 
550 984 1835 2984 4059 4060 
771 954 1694 2811 4061 4062 
1327 700 2018 4063 4064 3660 
499 1304 1367 4065 4066 2567 
665 1049 1764 4067 4068 4069 
1193 761 1203 4070 3819 4071 
1142 492 1295 2419 3800 4072 
756 981 1630 3134 3507 4073 
1187 937 1892 4074 4075 4005 
684 1147 1303 4076 4077 3011 
1165 495 2156 4078 3608 4079 
1043 639 1894 4080 3480 4081 
648 1000 1882 3545 4082 4083 
747 1076 1481 4084 4085 4086 
976 717 1378 4087 4088 2955 
959 622 1503 2902 4089 4090 
617 979 1443 2629 2307 3585 
888 1799 1832 4091 4092 4093 
991 1725 2091 4094 3359 4095 
987 748 1347 4096 4097 3014 
1405 1010 1904 4098 3516 3231 
1147 850 1303 4099 4100 4077 
1034 417 1376 3971 4101 4102 
1270 526 1391 4103 4104 4105 
802 1270 1391 4106 4105 4107 
454 455 1654 475 4108 2759 
1274 879 1737 4109 4110 3017 
639 816 1629 2215 4111 4112 
843 1092 1874 3911 3496 4113 
1986 1022 2003 3895 4114 4036 
663 1006 1384 2373 4115 2520 
1227 746 1545 3922 4116 3781 
568 965 1526 3638 3623 4117 
527 1007 1724 4118 4119 4120 
1069 670 2038 3138 3691 4121 
1504 450 1910 4122 4123 4124 
101 102 2137 127 3883 4125 
639 1043 1575 4080 4126 2216 
419 420 1234 432 4127 3053 
1076 626 1481 2390 2579 4085 
157 981 1364 2546 4128 4129 
575 1463 1561 4130 4131 4132 
482 1083 1312 2199 4133 4134 
609 1023 1869 2379 4135 4136 
829 1074 1566 4137 4138 2180 
1067 1264 1769 4139 4140 3674 
547 1510 1669 4141 4142 4143 
680 1129 1176 4144 3342 3704 
1137 808 1857 3127 4145 4146 
1204 1407 1852 3937 4147 4148 
1019 498 1930 3475 4149 4150 
1190 709 1839 3975 4151 4152 
956 623 1902 2766 4153 2872 
996 148 1511 3574 4154 4155 
977 810 1580 3112 4156 3951 
624 1457 2138 4157 4158 4159 
597 1098 1696 2205 4160 4161 
1059 659 1278 4162 4163 4014 
582 1218 1427 4164 4165 4166 
661 1092 1214 4167 3913 4168 
1069 641 1851 4169 4170 4171 
1102 523 1271 2938 3483 4172 
540 1000 1360 4173 3547 4174 
1171 542 1441 4175 4176 3522 
674 1138 1313 4177 4178 4179 
1640 592 2056 4180 2878 2314 
839 1124 1240 4181 4182 4183 
673 967 1524 3552 4184 4185 
1085 803 1215 4186 4187 4188 
691 990 1706 2887 4189 4190 
1124 671 1240 4191 4192 4182 
603 1013 1527 4020 4193 3589 
154 155 1123 180 4194 4195 
422 423 1150 435 4196 2784 
888 1396 1799 3126 4197 4091 
290 291 1138 321 4198 4199 
763 1003 1317 4200 4201 4202 
717 976 1955 4087 2727 4203 
839 1095 1858 4204 3564 4205 
394 26 416 415 428 4206 
617 1037 1272 2695 4207 2630 
1853 924 2081 3457 4208 3833 
593 990 1477 4209 4210 4211 
551 982 1472 3559 4212 4213 
207 1092 1298 3201 4214 4215 
619 1173 1333 4216 4217 4218 
117 955 1657 2264 2834 4219 
1204 705 1245 4220 4221 4222 
1552 591 2143 4025 3243 4223 
1140 993 1590 2469 4224 4225 
938 1732 1860 4226 4227 4228 
1198 876 1699 2509 4229 4024 
725 974 1507 4230 3890 4231 
449 450 1504 470 4122 4232 
1050 658 1247 3995 4233 3579 
780 1157 1615 4234 3063 4235 
1463 911 1561 4236 4237 4131 
614 1716 1943 3731 4238 4239 
501 1077 1452 4240 4241 4242 
1027 740 1388 2551 4243 4244 
982 706 1472 3814 3841 4212 
600 1077 1674 4245 4246 4247 
682 989 2050 3256 4248 4249 
1034 721 1538 4250 4251 4252 
1077 737 1452 4253 4254 4241 
1652 916 1665 4255 4256 3851 
534 1424 2159 3764 3303 4257 
1613 897 1889 4052 2652 4258 
284 1124 1858 3686 4259 4260 
203 1125 1888 3710 4261 4262 
375 1036 1543 2988 4263 4264 
847 1735 2080 4265 4266 4267 
752 1388 1895 3325 4268 4269 
760 1025 1319 3978 3451 2852 
1021 519 1322 2737 4270 4271 
1184 653 1319 2537 3203 3228 
1004 1332 2107 4272 4273 4274 
1039 720 1446 4275 3748 4276 
989 1337 1847 3258 4277 4278 
1092 661 1298 4167 4279 4214 
1107 665 1764 2638 4069 3181 
728 1204 1245 3936 4222 4280 
657 1193 1203 2702 4071 4281 
981 592 1640 3095 4180 4282 
693 1047 1259 4283 4284 4285 
623 1823 2107 2767 3352 4286 
669 1146 1568 2692 4287 3336 
714 1068 1372 4288 4289 4290 
1202 626 1408 2578 3672 4291 
638 1871 2097 3512 4292 2570 
1068 620 1372 4293 4294 4289 
610 1058 2069 2167 4295 4296 
1035 672 1311 3792 4297 4298 
966 98 1936 2329 4299 3529 
1218 792 1427 4300 4301 4165 
170 1572 1584 4302 4303 4304 
642 1122 1397 4305 4306 3964 
1001 495 1800 3064 4307 4308 
1007 527 1975 4118 4309 4310 
1310 927 1429 3306 2881 4311 
1229 642 1802 4312 3966 3993 
1071 660 1277 3925 2694 3866 
1033 697 1308 4313 4314 4315 
1116 678 2029 2348 3502 4316 
893 1424 1987 2556 4317 4318 
671 1124 1343 4191 4319 4320 
935 1190 1839 4321 4152 4322 
659 1095 1278 3842 4323 4163 
1111 692 1664 4324 4325 4326 
1002 528 1381 4327 4328 4329 
1045 770 1677 4330 4331 4332 
1097 651 1295 4333 3003 3799 
1133 539 1660 4334 4335 2953 
1169 643 1487 4336 4337 3733 
685 978 1542 3297 3958 4338 
510 1248 1873 4339 3836 4340 
1077 785 1674 4341 4342 4246 
1067 654 1264 4343 4344 4139 
780 1127 1247 4345 3928 4346 
1015 828 1848 3309 4347 4348 
586 977 1718 3235 4349 4350 
1457 624 1946 4157 4351 4352 
696 1063 1324 4353 4354 4355 
24 372 1199 373 2505 4356 
720 1039 1569 4275 4357 4358 
676 1116 1965 2351 4359 4360 
945 1195 1894 4361 4032 3479 
670 1183 1777 3241 4362 2772 
644 991 1398 4363 3044 4364 
1308 526 1734 4365 3873 4366 
1458 863 1560 4367 4368 4369 
528 1002 1865 4327 4058 4370 
1128 607 1547 2186 4371 4372 
1154 882 1927 3760 4373 4374 
201 202 1147 222 4375 4376 
1273 610 1664 4377 4378 4379 
1075 782 1769 2357 3675 4380 
1048 677 1516 4381 4382 4383 
1602 505 2052 4384 4385 3356 
1099 526 1270 3871 4103 4386 
1283 751 1326 4387 4388 3924 
694 1001 1800 2582 4308 4389 
1200 736 1251 4390 4391 4392 
529 1005 1417 2713 4393 2948 
1380 711 1556 4394 4395 4396 
1000 540 1770 4173 4397 4398 
1125 675 1235 4399 4400 4401 
1212 754 1816 4402 4403 4404 
850 1125 1235 4405 4401 4406 
1332 623 2107 4407 4286 4273 
492 1065 2126 2193 3947 4408 
1455 576 1480 4409 4410 4411 
156 1364 1550 4412 4413 4414 
1232 724 1331 3104 4415 3931 
605 1014 1407 3739 4416 2437 
1154 627 1978 4417 4418 3761 
887 1455 1480 4419 4411 4420 
900 1293 1321 4421 4422 2991 
793 1202 1408 4423 4291 4424 
1048 620 1685 4425 4426 4427 
990 593 1706 4209 4428 4189 
369 816 2024 4429 4430 4431 
1041 704 1959 3741 4432 4433 
1293 662 1321 2480 4434 4422 
1093 515 1716 2414 4435 3730 
1051 71 1449 4436 4437 4438 
348 17 1175 350 3074 3783 
1362 847 2080 4439 4267 4440 
703 1020 2117 4441 4442 4443 
211 998 1563 4444 3659 4445 
949 1678 1826 3725 4446 4447 
1397 901 1802 4448 4449 3965 
676 1132 1563 4040 4450 3658 
1279 932 1812 2417 4451 4452 
838 1160 1360 4453 4454 4455 
869 1647 1721 4456 4457 4458 
1540 726 2036 4459 4460 3887 
986 1730 2056 4461 3878 2877 
12 1031 1710 4462 4463 4464 
1117 717 1445 4465 4466 4467 
787 1340 1629 4468 4469 4470 
1151 601 1822 2245 4471 4472 
150 151 1523 176 4473 3863 
1057 624 2138 2420 4159 4474 
666 1030 1871 2678 4475 3026 
1115 700 1286 4476 4477 4478 
214 215 1785 235 3461 4479 
1064 738 1500 4480 4481 4482 
1416 651 1553 4483 4484 4485 
907 635 1459 2774 3634 4486 
518 1030 1402 2511 2680 4487 
579 1064 1500 3286 4482 2966 
801 1347 1840 3015 4488 3314 
666 1279 1812 2779 4452 4489 
1363 247 1469 4490 4491 4492 
1324 1063 2157 4354 4493 4494 
384 385 1335 405 4495 4496 
1110 1262 1695 3278 4497 4498 
616 1045 1677 4499 4332 4500 
1006 554 1384 4501 4502 4115 
998 211 1898 4444 4503 3329 
990 487 2015 2935 4504 4505 
967 594 1524 3379 3305 4184 
5 978 1572 3957 4506 4507 
494 1324 2157 2356 4494 4508 
721 1034 1376 4250 4102 4509 
1147 684 1300 4076 4510 4511 
1044 593 1477 4512 4211 4513 
1081 514 1280 4514 4515 4516 
1103 112 1532 4517 4518 4519 
974 725 1482 4230 4520 4521 
496 1115 1286 4522 4478 4523 
962 1484 1934 4524 4525 4526 
1228 688 1666 3981 3935 4527 
1570 917 2057 3048 3155 4528 
987 1297 1609 3626 4529 4530 
416 417 1531 429 3973 4531 
1031 12 2118 4462 4532 4533 
1273 1022 2023 4534 3081 4535 
919 1730 2108 3877 4536 4537 
610 1273 2023 4377 4535 2168 
675 1125 1309 4399 4538 4539 
1664 610 2069 4378 4296 4540 
1044 733 1560 4541 4542 4543 
994 215 1597 3459 4544 3193 
1043 606 1575 2627 4545 4126 
1020 694 1800 4546 4389 4547 
1129 680 1510 4144 2712 4548 
795 1179 1306 4549 4550 4551 
1179 699 1306 4552 4553 4550 
938 1231 2116 4554 4555 3990 
293 294 1148 324 4556 4557 
937 1804 2026 4558 4559 4560 
159 160 1418 185 4561 4562 
1117 1445 1819 4467 4563 4564 
644 1108 1383 4565 4566 4567 
754 1518 1816 4568 4569 4403 
1308 697 1881 4314 4570 4571 
991 644 1725 4363 4572 4094 
1281 558 1614 4573 3069 3615 
694 1020 1411 4546 4574 4575 
25 1543 1779 4576 4577 4578 
1058 530 2083 3728 4579 4580 
540 1012 1770 3208 4581 4397 
1155 649 1489 4582 4583 4584 
589 969 1610 4585 4586 4587 
686 1197 2071 4588 4589 4590 
1233 1190 2127 3885 4591 4592 
815 1287 1492 4593 4594 4595 
961 1042 1899 2269 4596 4597 
836 1288 1643 2343 4598 2240 
1059 714 1314 4599 4600 4601 
792 1195 1243 4602 4603 4604 
530 1009 1486 2273 4605 4606 
1251 547 1669 4607 4143 4608 
788 1000 1770 3353 4398 4609 
1078 620 1474 4610 4611 4612 
1160 540 1360 4613 4174 4454 
733 1458 1560 4614 4369 4542 
697 1370 1881 4615 4616 4570 
1104 651 1416 4617 4483 4618 
1678 840 1826 4619 4620 4446 
993 670 1590 3689 2771 4224 
741 1091 1352 4621 4622 4623 
731 1078 1474 4624 4612 4625 
629 1003 1704 2617 4626 4627 
1340 639 1629 2708 4112 4469 
1335 385 1711 4495 4628 4629 
608 1106 1585 4630 2753 4631 
1009 715 1486 2611 4632 4605 
153 1385 1456 4633 4634 4635 
820 1582 1656 4636 3025 4637 
447 1045 1377 2799 4638 4639 
1095 839 1278 4204 4640 4323 
1020 703 1432 4441 2730 4641 
748 987 1609 4096 4530 4642 
1478 727 1535 4643 4644 4645 
686 2071 2144 4590 4646 4647 
591 1900 2112 4027 4648 4649 
1064 734 1578 3299 3398 4650 
1279 964 1793 2778 4651 4652 
243 244 1210 256 4653 4654 
742 1036 1512 4655 4656 4657 
604 1105 1806 2634 4658 4659 
663 1014 1846 4007 3740 4660 
1125 204 1309 3709 4661 4538 
566 1345 1466 4662 4663 4664 
499 1172 1304 4665 4666 4065 
933 1692 2155 4667 4035 4668 
1883 695 1962 4669 4670 4671 
1070 613 1714 4672 4673 4674 
1005 594 1608 2491 3380 4675 
689 1170 1889 4676 4677 2651 
1345 832 1466 4678 4679 4663 
107 108 1154 133 4680 4681 
1764 506 1924 4682 4683 3046 
1398 541 1857 3043 4684 4685 
1258 555 1488 4686 4687 4688 
776 1718 1841 4689 4690 4691 
939 1128 1803 2187 4692 4693 
147 148 1788 173 3576 2820 
115 116 1342 141 4694 3554 
1036 376 1512 2987 4695 4656 
651 1104 1252 4617 2800 3001 
842 1715 1788 4696 2725 4697 
1202 793 1556 4423 4698 4699 
697 1033 1440 4313 4700 4701 
1125 850 1888 4405 4702 4261 
799 1258 1488 4703 4688 4704 
514 1025 1280 3450 4705 4515 
1151 781 1233 4706 4707 4708 
690 1129 1307 3341 4709 4710 
424 425 1156 437 4711 4712 
969 589 1506 4585 4713 4714 
1003 763 1704 4200 4715 4626 
1032 505 1573 4716 4717 4718 
1063 693 2157 4719 4720 4493 
536 1044 1560 4721 4543 4722 
1098 274 1628 4723 4724 4725 
687 1074 1393 3698 4726 3036 
1124 839 1858 4181 4205 4259 
985 1417 1878 2949 4727 4009 
1172 499 1475 4665 4728 4729 
616 1085 2041 4730 4731 4732 
1025 588 1603 3983 4733 4734 
1127 887 1997 4735 4736 4737 
528 1127 1997 3927 4737 4738 
209 1132 1874 4049 4739 4740 
768 1209 1661 4741 4742 4743 
822 1219 1248 4744 4745 4746 
1214 562 1259 4747 4748 4749 
676 1965 2130 4360 4750 4751 
620 1048 1372 4425 4752 4294 
731 1814 1998 4753 4754 4755 
754 1335 1453 4756 4757 4758 
1478 1535 2085 4645 4759 4760 
854 1536 1963 4761 2449 4762 
1056 246 1363 3557 4763 4764 
379 1011 1558 2633 4765 4766 
797 1070 1714 4767 4674 3765 
1260 948 2076 3051 4768 4769 
1222 550 1835 3196 4060 2841 
730 999 1743 2894 4770 4771 
1011 723 1557 3752 4772 4773 
1035 706 1979 3839 4774 4775 
1163 668 1587 3631 4776 4777 
1871 1030 2097 4475 2512 4292 
277 278 1185 308 4778 4779 
1128 508 1803 4780 4781 4692 
1732 587 1860 4782 4783 4227 
1444 572 1855 2475 2807 4784 
1033 560 1440 4011 4785 4700 
937 1187 1804 4074 4786 4558 
864 1148 2004 4787 4788 4789 
1281 892 2149 3614 4790 4791 
1012 788 1770 4792 4609 4581 
363 22 1410 365 4793 4794 
1287 767 1492 3707 4795 4594 
11 333 1257 334 4796 4797 
710 1953 2139 4798 4799 4800 
1192 545 1755 4801 4802 4803 
564 1412 1447 4804 2190 4805 
1557 614 2060 4806 3444 4807 
1011 1557 2060 4773 4807 4808 
787 1629 1810 4470 4809 4810 
1112 527 1724 3007 4120 4811 
686 1057 1491 2303 4812 4813 
831 1540 1644 4814 4815 4816 
1075 729 1493 3548 3173 4817 
1210 825 1693 4818 4819 4820 
602 1075 1493 2554 4817 4821 
1047 661 1982 3021 4822 4823 
507 1202 1556 3167 4699 4824 
1195 654 1243 4825 4826 4603 
16 348 1287 349 3784 4827 
1815 1230 1822 4828 4829 4830 
1012 691 1706 3221 4190 4831 
245 1056 1742 3558 4832 4833 
625 1018 1544 3107 4834 4835 
1335 817 1453 4836 4837 4757 
1572 855 1584 4838 4839 4303 
557 1299 1635 4840 4841 2442 
1047 693 1420 4283 4842 4843 
1091 613 1352 4844 4845 4622 
548 1340 1369 4846 4847 3537 
879 1496 1522 4848 4849 4850 
1654 455 1809 4108 4851 4852 
769 1023 1798 3151 4853 4854 
545 1306 1798 4855 4856 4857 
1006 627 1670 2392 4858 4859 
1200 687 1950 4860 2915 4861 
1068 494 1705 4038 4862 4863 
971 1339 1987 2621 4864 4865 
1042 488 1925 2268 4866 2704 
690 1312 2151 4867 4868 4869 
748 1198 1347 2510 4870 4097 
654 1067 1944 4343 4871 4872 
455 456 1809 476 2765 4851 
1198 556 1347 4873 4874 4870 
1325 589 1351 4875 2860 4876 
677 1685 1709 4877 4878 4879 
1502 673 1676 3649 4880 4881 
568 1168 2082 4882 4883 3639 
710 1152 1468 3963 4884 3825 
531 1285 1568 4885 4886 4887 
621 1036 1620 4888 4889 4890 
287 288 1277 318 3867 4891 
1242 960 2085 3274 4892 4893 
632 1359 2057 3424 4894 3154 
1281 827 1555 3714 4895 4896 
525 1100 1327 2602 4897 3565 
1101 764 1332 4898 4899 4900 
533 1151 1233 4901 4708 4902 
775 1162 1462 2340 4903 4904 
1063 696 2028 4353 4905 4906 
928 1062 2035 3437 4907 4908 
1050 528 1865 3578 4370 4909 
1290 1001 1746 3065 4910 4911 
606 1028 1634 2517 4912 2982 
1062 537 1619 4913 4914 4915 
1083 633 2151 2249 4916 4917 
761 1193 1435 4070 4918 3116 
988 1883 1962 4919 4671 4920 
649 1155 1530 4582 3429 3217 
1036 742 1620 4655 4921 4889 
1010 739 1336 4922 4923 3515 
652 1066 2058 4924 4925 4926 
1312 1083 2151 4133 4917 4868 
1109 551 1311 2846 4927 4928 
1497 1069 1851 4929 4171 4930 
1306 1598 1798 4931 4932 4856 
927 1321 1636 2763 4933 4934 
1122 487 2048 4935 3813 4936 
249 250 1181 262 4937 4938 
622 1133 1700 2904 3170 4939 
599 1498 1899 4940 4941 4942 
505 1060 1573 4943 4944 4717 
1434 484 1684 4945 4946 4947 
95 81 3 4002 94 120 
1418 160 1915 4561 4948 4949 
668 1086 2146 3630 3856 4950 
1193 569 1435 3481 4951 4918 
1340 787 1369 4468 4952 4847 
1124 285 1343 3685 4953 4319 
813 1041 1959 3312 4433 4954 
817 1180 1453 4955 4956 4837 
1174 912 1992 4957 4958 4959 
1171 896 1268 4960 2685 4961 
1046 707 1422 3326 2686 4962 
549 1194 1378 4963 2956 4964 
697 1080 1370 4965 4966 4615 
1652 718 2093 4967 4968 4969 
1418 844 1441 4970 3945 4971 
1023 1159 1869 3153 4972 4135 
889 1122 2048 4973 4936 4974 
1195 945 2098 4361 4975 4976 
527 1090 1975 4977 4978 4309 
756 1418 1441 4979 4971 4980 
1080 615 1370 4981 4982 4966 
1522 898 1880 2735 4983 4984 
1055 513 1784 2959 2502 3182 
536 1560 1651 4722 4985 4986 
1568 1285 1883 4886 4987 4988 
558 1281 1555 4573 4896 4989 
1315 718 1652 4990 4967 4991 
584 1174 1992 4992 4959 4993 
1304 831 1367 4994 4995 4066 
615 1079 1370 4996 4997 4982 
563 1017 1594 4998 3656 4999 
372 25 1375 374 5000 2506 
674 1313 1885 4179 5001 5002 
1339 578 1987 5003 5004 4864 
788 1012 1794 4792 5005 5006 
1484 602 1934 2555 5007 4525 
1018 1161 2043 3109 5008 5009 
527 1047 1420 3006 4843 5010 
516 1066 1539 5011 2945 5012 
1067 848 1944 3396 5013 4871 
1374 698 1936 2976 3530 5014 
1079 696 1391 5015 5016 5017 
815 1089 1697 5018 5019 5020 
1017 563 1649 4998 5021 5022 
1035 1311 1472 4298 5023 3840 
515 1186 1716 4001 5024 4435 
1013 679 1527 3009 5025 4193 
1166 683 1387 2828 3500 3141 
1130 745 1473 5026 5027 5028 
633 1100 2151 5029 5030 4916 
733 1044 1477 4541 4513 5031 
693 1114 2157 5032 5033 4720 
1121 722 1532 5034 5035 3019 
554 1006 2090 4501 5036 5037 
542 1171 1268 4175 4961 2405 
1148 864 1876 4787 5038 5039 
1149 29 1970 5040 5041 5042 
1117 549 1378 5043 4964 5044 
693 1063 2009 4719 5045 5046 
1103 652 1350 5047 3268 5048 
929 1254 1554 2544 5049 5050 
1026 1323 1893 3767 5051 3985 
1199 729 1369 3360 3549 5052 
702 1053 1454 5053 5054 2855 
942 1434 1684 3055 4947 5055 
1129 547 1307 5056 5057 4709 
1180 546 1453 5058 5059 4956 
762 1208 1357 5060 5061 5062 
1208 738 1357 5063 5064 5061 
943 1965 1998 5065 3535 5066 
1151 533 1776 4901 5067 5068 
1328 975 1745 3171 5069 5070 
1028 567 1933 3291 5071 5072 
1107 908 2143 3180 5073 3242 
1040 785 1805 2235 5074 5075 
1070 797 1708 4767 5076 5077 
717 1117 1378 4465 5044 4088 
660 1033 1734 3644 5078 5079 
983 574 1799 3844 5080 5081 
1036 621 2077 4888 5082 5083 
707 1276 1301 5084 2810 5085 
620 1078 2064 4610 5086 5087 
290 1138 1842 4199 5088 5089 
1742 1056 1991 4832 5090 5091 
105 106 1244 131 5092 5093 
1514 511 1749 5094 5095 5096 
608 1081 1707 5097 5098 5099 
764 1101 1650 4898 5100 5101 
1003 1514 1749 2619 5096 5102 
1210 244 1742 4653 5103 5104 
1084 162 1637 5105 5106 5107 
775 1267 1296 5108 5109 2341 
1073 625 1544 5110 4835 5111 
535 1242 2085 3921 4893 5112 
1138 291 1313 4198 5113 4178 
1061 659 2139 3717 5114 5115 
621 1130 1473 5116 5028 5117 
1078 524 2065 3581 5118 5119 
975 1087 1741 2565 5120 5121 
1329 1018 2148 3431 5122 5123 
1100 690 2151 2182 4869 5030 
1953 1061 2139 5124 5115 4799 
1253 197 1618 5125 3915 5126 
1018 708 1544 3430 5127 4834 
681 1156 1495 2814 5128 5129 
972 483 1833 3033 5130 5131 
553 1344 1962 5132 5133 5134 
617 1052 1983 3584 5135 2696 
526 1079 1391 5136 5017 4104 
793 1380 1556 5137 4396 4698 
787 1199 1369 5138 5052 4952 
695 1110 1962 3276 5139 4670 
791 1479 1948 5140 5141 5142 
1492 767 1596 4795 5143 5144 
633 1082 1415 5145 5146 5147 
1364 790 1550 5148 5149 4413 
1244 106 1927 5092 5150 5151 
100 101 2137 126 4125 3233 
654 1195 2098 4825 4976 5152 
604 1046 1422 5153 4962 5154 
1079 615 1541 4996 5155 5156 
212 213 1207 233 5157 5158 
766 1142 1295 5159 4072 3058 
1132 843 1874 4046 4113 4739 
493 1080 1617 5160 5161 2969 
1376 933 2155 5162 4668 5163 
537 1062 1932 4913 5164 3318 
624 1060 1748 2421 5165 5166 
770 1045 1691 4330 4029 5167 
982 1463 2030 3383 5168 3815 
615 1080 1668 4981 5169 5170 
1111 493 1430 5171 2968 5172 
783 1837 2116 5173 3991 5174 
631 1263 1361 5175 5176 3759 
1167 1 1409 2682 5177 5178 
201 1147 1300 4376 4511 5179 
1038 597 1696 2232 4161 5180 
493 1096 1413 5181 5182 5183 
1053 539 1454 5184 5185 5054 
845 1151 1776 2530 5068 5186 
1283 752 1611 3923 5187 5188 
241 242 1323 254 5189 3766 
33 34 1236 42 5190 5191 
553 1110 1380 5192 5193 5194 
593 1044 1760 4512 5195 5196 
1297 490 1609 5197 5198 4529 
496 1419 1877 5199 5200 3131 
1096 716 1413 2258 5201 5182 
1134 682 2050 5202 4249 5203 
1487 643 2074 4337 5204 5205 
641 1069 2038 4169 4121 5206 
1111 1664 1938 4326 5207 5208 
544 1038 1926 3462 5209 5210 
95 96 1177 121 5211 4003 
1139 656 1301 5212 5213 2911 
1257 750 1561 5214 5215 5216 
1101 636 1650 2839 5217 5100 
1245 555 1258 5218 4686 5219 
1059 561 1460 4013 5220 5221 
687 1200 1251 4860 4392 5222 
1159 769 1638 3152 3532 5223 
648 1465 2088 3067 5224 5225 
714 1059 1460 4599 5221 5226 
701 1051 1449 2879 4438 3124 
1089 345 1697 3692 5227 5019 
1262 695 1392 3277 5228 3185 
1153 811 1862 5229 5230 5231 
1076 747 1939 4084 5232 5233 
1693 825 1935 4819 5234 5235 
1094 732 1567 5236 5237 5238 
1355 706 2030 3223 3816 5239 
1077 600 1588 4245 5240 5241 
1316 1013 1862 2900 4022 5242 
1344 988 1962 3909 4920 5133 
166 167 1232 192 5243 3930 
1080 493 1413 5160 5183 5244 
688 1260 2076 3982 4769 5245 
720 1289 1463 5246 5247 3382 
707 1301 1940 5085 5248 2687 
497 1041 1868 3801 3261 5249 
206 207 1298 227 4215 5250 
1875 871 1972 5251 5252 5253 
1466 832 1785 4679 5254 5255 
1706 593 1794 4428 5256 5257 
994 1466 1785 5258 5255 3460 
1208 762 1628 5060 5259 2648 
625 1073 1836 5110 5260 5261 
542 1359 1791 2406 5262 5263 
950 1263 2016 2257 5264 5265 
1181 902 1994 2293 5266 5267 
1496 577 1522 5268 2736 4849 
1062 614 1943 3443 4239 5269 
1267 685 1296 3289 5270 5109 
725 1126 1482 2560 5271 4520 
1191 565 1671 3901 5272 5273 
1718 977 1841 4349 4056 4690 
1707 791 1948 5274 5142 5275 
1359 934 1791 4045 5276 5262 
168 1070 1708 3677 5077 5277 
775 1462 1564 4904 2616 5278 
21 363 1365 364 5279 5280 
73 1626 1854 5281 5282 5283 
1221 736 1348 5284 3735 5285 
545 1633 1755 5286 5287 4802 
674 1271 1275 5288 5289 5290 
609 1056 1680 5291 5292 2380 
777 1363 1469 5293 4492 5294 
1042 1219 1899 3395 5295 4596 
1271 826 1275 3508 5296 5289 
281 1061 1953 5297 5124 5298 
877 1293 1790 2481 5299 5300 
1185 909 1500 5301 2967 5302 
607 1437 1547 5303 5304 4371 
1056 609 1991 5291 5305 5090 
773 1325 1351 5306 4876 5307 
1089 815 1919 5018 5308 5309 
671 1343 1973 4320 5310 5311 
522 1048 1516 5312 4383 3157 
529 1069 1497 2918 4929 2714 
571 1221 1348 5313 5285 5314 
49 1054 1728 2962 3266 5315 
820 1191 1671 5316 5273 5317 
836 1416 1553 2239 4485 5318 
1219 664 1248 3394 2263 4745 
738 1064 2014 4480 5319 5320 
1061 281 1625 5297 5321 3718 
649 1053 1489 3651 5322 4583 
1049 665 1498 4067 5323 5324 
706 1097 1979 3211 5325 4774 
1289 911 1463 5326 4236 5247 
1223 662 1401 5327 2490 2486 
597 1216 2119 2214 5328 3810 
30 31 1736 39 5329 5330 
778 1172 1475 5331 4729 5332 
48 1076 1939 5333 5233 5334 
733 1448 1458 5335 5336 4614 
1452 737 1775 4254 5337 5338 
538 1178 1740 2826 5339 2905 
484 1238 1684 5340 5341 4946 
1294 1931 2031 5342 5343 5344 
1105 913 2137 2874 3234 3882 
620 1068 1474 4293 5345 4611 
417 418 1376 430 5346 4101 
767 1325 1596 5347 5348 5143 
866 1137 1519 5349 5350 3477 
1147 202 1888 4375 5351 5352 
103 104 1559 129 2672 5353 
1158 441 1673 2989 5354 3605 
1108 506 2044 5355 5356 5357 
1126 521 1482 5358 3427 5271 
1554 812 1574 5359 5360 5361 
1525 871 1875 5362 5251 5363 
1385 779 1456 5364 2722 4634 
975 1741 1908 5121 5365 5366 
1437 875 1547 2658 5367 5304 
968 1345 1897 3090 5368 2930 
1110 711 1380 5369 4394 5193 
1238 841 1684 5370 5371 5341 
1131 618 1795 2864 5372 5373 
548 1075 1769 3536 4380 5374 
1138 835 1842 5375 3917 5088 
1070 169 1584 3676 5376 5377 
1184 514 1501 3227 5378 5379 
1445 587 1819 5380 5381 4563 
929 1554 1574 5050 5361 5382 
1259 562 1942 4748 5383 5384 
1394 640 1919 3144 5385 5386 
1498 961 1899 5387 4597 4941 
505 1032 1661 4716 5388 5389 
1263 631 2016 5175 5390 5264 
1078 731 1998 4624 4755 3582 
1081 608 1585 5097 4631 5391 
872 1218 1689 2743 5392 3541 
841 1238 1890 5370 5393 5394 
1137 866 2010 5349 5395 5396 
4 146 1715 171 2723 5397 
532 1586 2071 5398 3593 5399 
1488 555 1884 4687 5400 5401 
825 1742 1991 5402 5091 5403 
619 1072 2122 3411 5404 5405 
1012 1706 1794 4831 5257 5005 
1096 493 2096 5181 5406 5407 
1245 705 1622 4221 3366 5408 
1002 1588 2102 5409 5410 2586 
882 1244 1927 5411 5151 4373 
655 1189 1269 5412 5413 5414 
1053 702 1921 5053 5415 5416 
1162 557 1505 2525 2441 5417 
1060 686 1573 2304 5418 4944 
1257 911 2129 5419 5420 5421 
722 1121 1613 5034 4053 5422 
1106 490 1632 5423 5424 2909 
728 1245 1258 4280 5219 5425 
1052 796 1809 3517 5426 2831 
1082 784 1772 2843 5427 5428 
1029 1109 2113 2998 5429 5430 
1682 917 1690 2411 5431 5432 
731 1485 1814 5433 5434 4753 
1201 830 1820 5435 5436 3712 
163 164 1250 189 5437 5438 
1179 795 2105 4549 5439 5440 
1066 516 1675 5011 5441 5442 
112 113 1532 138 3020 4518 
154 1123 1385 4195 5443 5444 
871 1108 2044 5445 5357 5446 
1399 783 1713 5447 5448 5449 
661 1112 2153 3022 5450 5451 
1458 1448 2136 5336 5452 5453 
1165 677 1709 5454 4879 5455 
1052 457 1665 2830 5456 5457 
483 1016 1945 3122 5458 5459 
1085 1215 2041 4188 5460 4731 
735 1054 1607 3635 2964 5461 
831 1304 1540 4994 5462 4814 
1148 637 2004 5463 2498 4788 
1817 1266 1969 5464 5465 5466 
737 1077 1588 4253 5241 5467 
29 30 1970 38 5468 5041 
1228 534 1461 5469 5470 5471 
697 1440 1617 4701 5472 5473 
1045 616 1830 4499 5474 5475 
722 1066 1961 2444 5476 5477 
1048 522 2002 5312 5478 5479 
917 1088 1690 2225 2644 5431 
503 1072 1782 3465 5480 2673 
1105 794 1806 5481 3504 4658 
555 1395 1884 5482 5483 5400 
1478 591 2112 3830 4649 5484 
1106 748 1609 5485 4642 5486 
692 1111 1430 4324 5172 5487 
10 330 1289 331 5488 5489 
1066 652 1961 4924 5490 5476 
1098 762 1696 5491 5492 4160 
1128 702 1859 5493 3865 5494 
11 1257 2129 4797 5421 5495 
25 375 1543 395 4264 4576 
748 1106 1592 5485 5496 2653 
1293 568 1790 5497 5498 5299 
1072 773 1782 2596 5499 5480 
662 1223 1636 5327 5500 5501 
904 1237 1950 2606 5502 2914 
1661 1209 2052 4742 5503 5504 
677 1048 1685 4381 4427 4877 
716 1090 1668 5505 5506 5507 
1314 714 2002 4600 5508 5509 
1165 703 2117 5510 4443 5511 
819 1365 1410 5512 5513 5514 
493 1111 2096 5171 5515 5406 
690 1307 1312 4710 5516 4867 
1626 963 1854 5517 2819 5282 
1543 894 1779 5518 5519 4577 
1326 751 1904 4388 3232 5520 
1209 768 1349 4741 5521 5522 
630 1137 2010 3571 5396 5523 
1419 956 1877 2745 2836 5200 
1234 732 1692 5524 5525 5526 
850 1147 1888 4099 5352 4702 
1395 555 1839 5482 5527 5528 
825 1210 1742 4818 5104 5402 
818 1599 1601 2524 3667 5529 
1223 810 1636 5530 5531 5500 
119 4 1715 145 5397 5532 
1076 48 1728 5333 5533 3265 
951 819 1410 4016 5514 5534 
1294 865 1384 5535 2521 5536 
926 1533 1695 3471 5537 5538 
1299 837 1433 5539 3030 5540 
1476 295 1499 5541 5542 5543 
1225 578 1339 2227 5003 5544 
539 1053 1599 5184 3653 2850 
730 1084 1637 5545 5107 5546 
1231 938 1860 4554 4228 5547 
915 1399 1713 2534 5449 2581 
21 1365 1513 5280 5548 5549 
531 1146 2070 5550 3577 5551 
1440 878 1617 5552 3094 5472 
681 1495 2007 5129 5553 5554 
204 205 1309 225 5555 4661 
652 1103 1961 5047 5556 5490 
360 1513 2067 5557 5558 5559 
1091 741 1642 4621 5560 5561 
714 1372 2002 4290 5562 5508 
865 1294 2031 5535 5344 5563 
499 1027 2141 2566 5564 5565 
1122 889 2131 4973 5566 5567 
165 166 1331 191 3932 5568 
339 14 1337 341 5569 5570 
562 1485 1942 5571 5572 5383 
659 1059 1909 4162 5573 5574 
1044 536 1642 4721 5575 5576 
421 1094 1567 3939 5238 5577 
1169 269 1762 3732 5578 5579 
613 1070 1914 4672 5580 5581 
755 1139 1392 5582 3375 5583 
1082 633 1589 5145 3456 2663 
1097 492 1979 3798 5584 5325 
1060 505 1602 4943 4384 5585 
1224 503 1786 5586 2674 5587 
1090 716 1975 5505 5588 4978 
487 1122 1448 4935 5589 5590 
710 1284 1953 3824 5591 4798 
1143 891 1464 2377 5592 5593 
696 1079 1541 5015 5156 5594 
1094 646 1844 3118 5595 5596 
1103 722 1961 5597 5477 5556 
514 1081 2006 4514 5598 5599 
777 1633 1680 5600 2440 5601 
333 12 1710 335 4464 5602 
1055 732 1844 2786 5603 5604 
1074 809 1566 3746 5605 4138 
71 1051 2078 4436 3436 5606 
846 1359 1824 5607 2313 3543 
705 1145 1872 3778 5608 3696 
351 18 1246 353 5609 3612 
785 1077 1805 4341 5610 5074 
1172 726 1304 5611 5612 4666 
1185 278 2101 4778 5613 5614 
1102 1271 1885 4172 5615 5616 
1046 604 1806 5153 4659 3503 
880 1194 1571 2383 5617 3520 
1077 501 1805 4240 5618 5610 
1726 937 2026 5619 4560 3248 
1529 932 1654 5620 2760 5621 
517 1136 1537 5622 3442 2367 
536 1091 1642 2476 5561 5575 
1533 711 1695 5623 5624 5537 
1106 608 1592 4630 5625 5496 
533 1233 2127 4902 4592 5626 
1084 730 1743 5545 4771 5627 
675 1724 1990 5628 5629 5630 
1560 863 1651 4368 5631 4985 
702 1128 1547 5493 4372 5632 
796 1529 1654 3283 5621 5633 
30 1736 1970 5330 5634 5468 
715 1447 2096 2689 5635 5636 
1115 782 1484 5637 2359 5638 
776 1220 1718 5639 5640 4689 
1258 799 1490 4703 2550 5641 
1447 1096 2096 2189 5407 5635 
1379 829 1781 5642 5643 3493 
898 1073 1880 2472 5644 4983 
482 1457 1465 5645 5646 3346 
849 1170 1425 5647 5648 5649 
1647 802 1721 5650 5651 4457 
1113 763 1891 5652 5653 5654 
1403 598 1431 5655 2339 5656 
1388 543 1903 5657 5658 5659 
1334 856 2022 5660 5661 5662 
336 13 1720 338 5663 5664 
952 1789 1815 5665 5666 5667 
1093 614 1557 3729 4806 5668 
1237 497 1950 5669 5670 5502 
1074 829 1792 4137 5671 5672 
944 1093 1957 2415 5673 5674 
659 1141 2139 5675 5676 5114 
501 1159 1638 5677 5223 5678 
15 1089 1639 3693 5679 5680 
811 1153 1913 5229 5681 5682 
732 1094 1844 5236 5596 5603 
1591 1055 1844 3091 5604 5683 
1164 691 1371 2888 5684 5685 
1068 714 1733 4288 5686 4039 
856 1738 2022 5687 5688 5661 
1079 526 1881 5136 5689 5690 
71 72 1449 84 5691 4437 
1155 1489 1731 4584 5692 5693 
1067 782 1780 3673 5694 2869 
722 1103 1532 5597 4519 5035 
1775 576 1935 5695 5696 3682 
647 1088 1751 2642 5697 5698 
731 1114 1485 5699 5700 5433 
1457 838 1465 5701 5702 5646 
490 1106 1609 5423 5486 5198 
1100 633 2094 5029 5703 5704 
1649 841 1890 5705 5394 5706 
1274 391 1538 3573 5707 5708 
634 1084 1743 3853 5627 5709 
713 1225 1339 5710 5544 5711 
274 275 1628 305 2649 4724 
1196 531 2070 5712 5551 5713 
555 1622 1839 5714 5715 5527 
552 1118 1507 3389 5716 3889 
1 45 1409 57 5717 5177 
1110 553 1962 5192 5134 5139 
1080 697 1617 4965 5473 5161 
1039 327 1569 2453 5718 4357 
1134 521 1896 3399 5719 5720 
1508 485 1565 2574 5721 5722 
554 1294 1384 2986 5536 4502 
794 1105 1739 5481 5723 5724 
1156 774 1701 2916 5725 5726 
699 1179 1438 4552 2868 5727 
566 1213 1411 5728 5729 5730 
1204 489 1358 5731 3776 5732 
1324 869 1721 2355 4458 5733 
750 1288 1561 5734 5735 5215 
1086 518 1656 3744 5736 3386 
1123 622 1700 5737 4939 5738 
899 1099 1973 2164 5739 5740 
705 1204 1358 4220 5732 3779 
1229 863 1458 2368 4367 5741 
732 1353 1692 2788 5742 5525 
1498 599 1972 4940 5743 5744 
293 1148 1876 4557 5039 5745 
279 280 1284 310 5746 5747 
1153 1862 2042 5231 5748 5749 
391 392 1538 412 5750 5707 
596 1330 2020 5751 5752 3446 
806 1230 1815 5753 4828 5754 
564 1235 1990 5755 5756 5757 
107 1154 1927 4681 4374 5758 
941 1390 1884 5759 5760 5761 
711 1226 1556 5762 5763 4395 
822 1248 1778 4746 5764 5765 
8 266 252 296 5766 265 
162 1084 1989 5105 5767 5768 
742 1771 2035 5769 5770 5771 
646 1591 1844 3849 5683 5595 
651 1097 1553 4333 3213 4484 
1085 616 1677 4730 4500 5772 
909 1185 2101 5301 5614 5773 
1187 595 1658 4004 3378 5774 
1424 971 1987 3763 4865 4317 
803 1085 1850 4186 5775 5776 
1224 719 1797 3269 2624 5777 
840 1517 1826 5778 3738 4620 
200 201 1300 221 5179 2371 
716 1412 1975 2259 5779 5588 
813 1197 2011 3038 5780 5781 
887 1127 2124 4735 5782 5783 
795 1762 2105 5784 5785 5439 
601 1815 1822 5786 4830 4471 
814 1403 1431 5787 5656 5788 
782 1115 1780 5637 5789 5694 
291 292 1313 322 5790 5113 
859 1224 1786 5791 5587 5792 
1412 1007 1975 5793 4310 5779 
1073 513 1753 2501 5794 5795 
1088 488 1767 2224 3384 5796 
1137 541 1519 5797 5798 5350 
833 1180 1836 5799 5800 5801 
1108 644 2123 4565 5802 5803 
758 1276 1305 5804 5805 5806 
704 1272 1400 2942 5807 5808 
1016 1612 2001 5809 5810 5811 
2059 1509 2077 5812 5813 5814 
1546 947 1816 3790 5815 5816 
285 286 1343 316 5817 4953 
1273 692 1386 5818 5819 5820 
13 1662 1720 5821 5822 5663 
700 1115 2018 4476 5823 4064 
282 1095 1625 3220 3843 5824 
737 1480 1775 3474 5825 5337 
1197 686 1491 4588 4813 5826 
109 1574 1646 5827 5828 5829 
584 1682 1690 5830 5432 5831 
1551 648 1882 5832 4083 5833 
1087 885 1741 3868 5834 5120 
1503 622 1996 4089 5835 5836 
274 1098 1886 4723 5837 5838 
1724 1007 1990 4119 5839 5629 
246 247 1363 259 4490 4763 
539 1133 1454 4334 3703 5185 
112 1103 2066 4517 5840 5841 
1307 772 1312 5842 5843 5516 
547 1129 1510 5056 4548 4141 
1276 707 1305 5084 3328 5805 
933 1376 2061 5162 5844 2757 
1000 1256 1882 3355 5845 4082 
896 1171 2114 4960 5846 5847 
695 1285 1392 5848 5849 5228 
1115 496 1780 4522 3130 5789 
1105 102 1739 3881 5850 5723 
1163 717 1955 5851 4203 5852 
1098 970 1886 2204 5853 5837 
1090 527 1928 4977 5854 5855 
1072 868 2122 3986 5856 5404 
1380 793 1450 5137 5857 5858 
425 426 1495 438 3664 5859 
762 1098 1628 5491 4725 5259 
553 1380 1450 5194 5858 5860 
169 170 1584 195 4304 5376 
622 1727 1996 5861 5862 5835 
1251 736 1605 4391 5863 5864 
251 252 1356 264 5865 5866 
459 460 1315 480 5867 5868 
776 1177 1672 5869 5870 5871 
1131 218 2158 5872 5873 5874 
521 1126 1502 5358 3650 5875 
1461 534 2159 5470 4257 5876 
1120 821 1947 3999 5877 5878 
33 1236 1354 5191 5879 5880 
1900 946 2112 5881 5882 4648 
847 1362 1493 4439 5883 2940 
1685 881 1709 5884 5885 4878 
1382 612 1781 5886 3494 2590 
1390 747 1884 5887 5888 5760 
1365 739 1513 5889 5890 5548 
1349 768 1426 5521 5891 5892 
388 389 1329 409 5893 5894 
1328 500 1566 5895 2388 5896 
496 1286 1419 4523 5897 5199 
823 1817 1969 5898 5466 5899 
1313 864 1885 5900 5901 5001 
1914 1483 2034 5902 5903 5904 
809 1328 1566 3161 5896 5605 
1612 1016 2036 5809 3123 5905 
1629 369 1810 5906 5907 4809 
1114 731 1705 5699 5908 5909 
1514 818 1981 5910 5911 5912 
1275 826 1663 5296 5913 5914 
635 992 1966 3176 5915 3348 
150 1113 1891 3862 5654 5916 
1285 755 1392 5917 5583 5849 
709 1167 1409 3974 5178 3321 
1123 155 1550 4194 5918 5919 
1171 634 2114 5920 5921 5846 
1322 667 1920 3669 5922 5923 
1332 1004 2017 4272 3756 5924 
821 1282 1945 4000 5925 5926 
1741 583 1908 5927 5928 5365 
1136 517 1643 5622 2562 5929 
1236 727 1354 5930 5931 5879 
1588 600 2102 5240 5932 5410 
1343 899 1973 5933 5740 5310 
1101 512 1564 5934 5935 2840 
560 1275 1663 5936 5914 5937 
1263 757 1361 5938 3083 5176 
153 154 1385 179 5444 4633 
1181 250 1863 4937 5939 5940 
424 1156 1701 4712 5726 5941 
893 1508 1565 5942 5722 2557 
1066 1675 2058 5442 5943 4925 
1180 625 1836 5944 5261 5800 
249 1181 1994 4938 5267 5945 
1099 660 1734 2163 5079 3872 
506 1108 1688 5355 5946 5947 
713 1339 1635 5711 3809 5948 
1188 722 1613 2445 5422 5949 
570 1613 1889 5950 4258 5951 
266 267 1356 297 5952 5953 
807 1476 1499 5954 5543 3876 
1225 713 1253 5710 5955 5956 
1595 578 1878 5957 4010 5958 
1213 566 1466 5728 4664 5959 
1148 294 1476 4556 5960 5961 
774 1150 1701 5962 5963 5725 
1177 96 1672 5211 5964 5870 
973 1659 1747 5965 5966 5967 
1191 820 1402 5316 5968 3166 
1178 1551 1740 5969 5970 5339 
269 270 1762 300 5971 5578 
739 1010 1513 4922 5972 5890 
922 1104 1964 2409 5973 2309 
1509 894 2077 5974 5975 5813 
1156 425 1495 4711 5859 5128 
541 1349 1426 3988 5892 5976 
1002 1381 1588 4329 5977 5409 
1026 1131 2158 2865 5874 2957 
1161 386 2043 5978 5979 5008 
1682 886 1988 5980 5981 3225 
817 1335 1711 4836 4629 5982 
1355 836 1553 2344 5318 3224 
1365 363 1410 5279 4794 5513 
482 1312 1667 4134 5983 5984 
867 1140 1590 5985 4225 3252 
1612 582 2001 5986 5987 5810 
218 1131 1615 5872 5988 5989 
1520 498 1765 5990 5991 3796 
1099 1270 1973 4386 5992 5739 
1302 873 1750 2609 5993 3967 
1412 564 1990 4804 5757 5994 
1108 871 1917 5445 5995 5996 
585 1546 1816 5997 5816 5998 
700 1327 1415 4063 5999 6000 
1859 959 2108 3864 6001 6002 
607 1442 1789 3688 6003 6004 
786 1404 1515 6005 6006 6007 
1505 798 1666 3418 2386 3934 
442 1144 1673 2346 3643 6008 
926 1494 1658 3595 6009 3377 
1587 668 1976 4776 6010 6011 
1198 805 1758 4023 6012 6013 
156 157 1364 182 4129 4412 
613 1091 1714 4844 2430 4673 
1804 519 2026 6014 6015 4559 
512 1101 2017 5934 6016 3755 
1109 637 1723 2997 6017 2892 
549 1117 1850 5043 6018 6019 
1183 712 1618 3264 6020 6021 
688 1162 1505 6022 5417 3933 
1468 1152 1768 4884 6023 6024 
1122 642 2136 4305 6025 6026 
252 266 1356 5766 5953 5865 
1219 599 1899 6027 4942 5295 
1271 674 1885 5288 5002 5615 
880 1504 1910 3519 4124 6028 
1113 629 1704 3448 4627 6029 
162 163 1637 188 6030 5106 
511 1425 1749 6031 6032 5095 
32 33 1354 41 5880 6033 
1027 1388 1903 4244 5659 6034 
897 1121 1828 4051 6035 3777 
1132 210 1563 4048 6036 4450 
742 1512 1771 4657 6037 5769 
360 21 1513 362 5549 5557 
1685 620 2064 4426 5087 6038 
1321 662 1636 4434 5501 4933 
247 248 1469 260 6039 4491 
556 1198 1758 4873 6013 6040 
1495 930 2007 3663 6041 5553 
80 1177 1581 3970 6042 6043 
1114 693 1942 5032 6044 6045 
573 1338 1752 6046 3150 6047 
667 1244 1920 6048 6049 5922 
622 1123 1727 5737 6050 5861 
1352 853 1520 6051 6052 6053 
1341 749 1426 6054 6055 6056 
726 1612 2036 6057 5905 4460 
1540 573 1644 3722 6058 4815 
907 1662 1843 6059 3727 2775 
1462 1162 2076 4903 6060 6061 
646 1150 2109 3119 6062 6063 
1360 648 2088 3546 5225 6064 
294 295 1476 325 5541 5960 
750 1257 1710 5214 6065 6066 
1484 962 2018 4524 3661 6067 
1789 1442 2145 6003 6068 6069 
1638 1040 1805 2278 5075 6070 
983 1799 2154 5081 6071 6072 
781 1151 1822 4706 4472 6073 
675 1309 2025 4539 6074 6075 
1333 1173 1905 4217 6076 6077 
516 1320 1675 6078 6079 5441 
1201 53 1579 3362 6080 3317 
501 1638 1805 5678 6070 5618 
1031 750 1710 3163 6066 4463 
712 1225 1253 2251 5956 6081 
711 1110 1695 5369 4498 5624 
842 1958 2089 6082 6083 6084 
152 153 1456 178 4635 6085 
1789 806 1815 6086 5754 5666 
1010 1405 2067 4098 6087 6088 
386 1161 1711 5978 6089 6090 
500 1328 1745 5895 5070 6091 
708 1522 1880 6092 4984 6093 
818 1601 1981 5529 6094 5911 
771 1160 1748 6095 6096 6097 
630 1552 1624 2577 6098 3572 
1117 803 1850 6099 5776 6018 
855 1483 1914 6100 5902 6101 
197 1253 1433 5125 6102 3029 
1427 1759 1947 6103 6104 6105 
155 156 1550 181 4414 5918 
719 1338 1461 3270 6106 6107 
1173 619 1545 4216 6108 6109 
1208 276 1683 2587 6110 6111 
699 1216 1598 6112 6113 6114 
1435 845 1776 6115 5186 3174 
1397 580 1774 6116 6117 6118 
1244 882 1920 5411 6119 6049 
763 1113 1704 5652 6029 4715 
1021 1322 1920 4271 5923 6120 
1297 655 1606 3625 6121 6122 
1284 909 2101 3647 5773 6123 
1216 769 1598 3531 6124 6113 
1153 535 1535 2284 6125 6126 
1236 34 1756 5190 6127 6128 
99 100 1374 125 3179 6129 
1138 674 1653 4177 6130 6131 
148 149 1511 174 6132 4154 
1421 842 2089 6133 6084 6134 
1239 634 1968 3854 6135 6136 
1248 510 1778 4339 6137 5764 
821 1427 1947 6138 6105 5877 
1196 701 1838 2880 3906 6139 
968 1451 2029 3880 6140 3501 
1014 1627 1852 4008 6141 6142 
577 1496 2155 5268 6143 4034 
1141 710 2139 3961 4800 5676 
673 1524 1676 4185 6144 4880 
721 1376 2155 4509 5163 6145 
1659 781 1747 6146 6147 5966 
1131 780 1615 6148 4235 5988 
537 1130 1619 6149 6150 4914 
1150 423 1701 4196 6151 5963 
1130 621 1620 5116 4890 6152 
745 1130 1821 5026 6153 6154 
1425 914 1749 6155 6156 6032 
1140 867 2133 5985 6157 6158 
898 1353 1784 3111 3183 2473 
1408 735 1450 3636 6159 6160 
689 1562 1951 3702 6161 6162 
645 1266 1817 6163 5464 3772 
446 447 1377 467 4639 6164 
878 1663 1712 6165 6166 6167 
251 1356 1863 5866 6168 6169 
768 1341 1426 6170 6056 5891 
1450 735 1645 6159 3296 6171 
10 1289 1569 5489 6172 6173 
759 1228 1461 3599 5471 6174 
684 1140 2133 2296 6158 6175 
572 1302 1576 2610 6176 2999 
1627 489 1852 6177 6178 6141 
1121 114 1828 2706 6179 6035 
804 1297 1606 6180 6122 6181 
1270 671 1973 6182 5311 5992 
1814 943 1998 6183 5066 4754 
1320 834 1675 6184 6185 6079 
879 1274 1496 4109 6186 4848 
1552 908 1624 6187 6188 6098 
327 10 1569 329 6173 5718 
1127 780 1795 4345 6189 6190 
216 1157 1597 3195 3611 6191 
1338 759 1461 6192 6174 6106 
901 1397 1774 4448 6118 6193 
46 47 1390 59 6194 6195 
1118 619 1861 3412 6196 6197 
1633 545 1798 5286 4857 6198 
642 1229 1458 4312 5741 6199 
508 1128 1859 4780 5494 6200 
108 109 1646 134 5829 6201 
1552 861 1900 2608 6202 4026 
1367 831 1686 4995 6203 6204 
925 1178 1589 2926 2827 3455 
1023 1633 1798 2439 6198 4853 
852 1255 1548 3100 2921 6205 
539 1135 1660 2849 3785 4335 
451 1182 1910 6206 6207 6208 
1291 536 1651 2477 4986 6209 
803 1117 1819 6099 4564 6210 
1139 755 2051 5582 6211 6212 
512 1267 1564 6213 6214 5935 
738 1185 1500 6215 5302 4481 
109 110 1574 135 6216 5827 
1175 969 1506 3073 4714 6217 
914 1317 1749 2899 6218 6156 
29 1149 1641 5040 6219 6220 
544 1578 1623 6221 6222 3463 
1162 688 2076 6022 5245 6060 
77 78 1580 90 3952 6223 
1049 1498 1972 5324 5744 6224 
357 20 1436 359 6225 6226 
1578 903 1623 3406 6227 6222 
1457 906 2138 6228 6229 4158 
563 1379 1649 6230 6231 5021 
1315 920 2020 6232 3447 6233 
1379 841 1649 6234 5705 6231 
1510 809 1669 3162 3747 4142 
636 1120 1650 3858 6235 5217 
1267 775 1564 5108 5278 6214 
797 1232 1708 3132 6236 5076 
835 1138 1653 5375 6131 6237 
1197 1491 2011 5826 6238 5780 
1404 567 1515 6239 6240 6006 
780 1131 1795 6148 5373 6189 
906 1457 1667 6228 6241 6242 
443 444 1414 464 3750 2219 
1064 1578 2014 4650 6243 5319 
1474 1068 1705 5345 4863 6244 
161 1239 1915 6245 6246 6247 
612 1382 2053 5886 6248 6249 
920 1315 2134 6232 6250 6251 
1188 814 1539 6252 6253 2944 
793 1408 1450 4424 6160 5857 
20 1405 1436 3621 6254 6225 
1896 521 2046 5719 6255 6256 
1181 1863 2074 5940 6257 6258 
1081 1280 1707 4516 6259 5098 
543 1326 1904 6260 5520 3344 
1177 776 1581 5869 6261 6042 
448 449 1691 469 6262 4028 
754 1212 1687 4402 6263 6264 
802 1647 1679 5650 3619 6265 
1130 537 1821 6149 3215 6153 
746 1173 1545 6266 6109 4116 
378 379 1558 399 4766 3453 
794 1559 1614 6267 6268 2769 
750 1136 1643 3164 5929 6269 
814 1467 1539 6270 6271 6253 
1356 883 1863 6272 6273 6168 
1382 980 2053 3903 6274 6248 
1146 531 1568 5550 4887 4287 
1559 892 1614 2671 3616 6268 
1249 771 1694 6275 4062 6276 
912 1174 1655 4957 2750 6277 
1189 944 2111 3004 6278 6279 
546 1205 1773 6280 6281 6282 
1451 524 2029 6283 6284 6140 
1210 824 1796 6285 6286 6287 
1457 482 1667 5645 5984 6241 
243 1210 1796 4654 6287 6288 
567 1404 1528 6239 6289 6290 
717 1163 1587 5851 4777 6291 
1178 648 1551 2925 5832 5969 
940 1530 1787 3218 6292 6293 
1200 497 1868 6294 5249 6295 
1300 684 2133 4510 6175 6296 
1254 554 1554 2985 6297 5049 
507 1226 1967 6298 6299 6300 
1581 776 1841 6261 4691 6301 
1145 533 1872 6302 6303 5608 
1428 520 1954 2972 3788 6304 
518 1402 1656 4487 6305 5736 
458 459 1652 479 6306 3850 
856 1237 1582 6307 6308 6309 
1214 843 2062 3912 6310 6311 
1530 598 1787 2748 6312 6292 
1274 721 1496 6313 6314 6186 
562 1265 1814 6315 6316 6317 
211 212 1898 232 6318 4503 
1469 902 1755 6319 6320 6321 
571 1491 2115 6322 6323 6324 
777 1469 1755 5294 6321 6325 
1160 771 2142 6095 6326 6327 
1516 677 1848 4382 6328 6329 
1024 1164 2100 3417 6330 3827 
1180 833 1956 5799 6331 6332 
1205 804 1773 6333 6334 6281 
811 1236 1756 6335 6128 6336 
739 1365 1528 5889 6337 6338 
1269 936 1606 3077 6339 6340 
210 211 1563 231 4445 6036 
665 1242 1648 3275 6341 6342 
491 1276 1494 2808 6343 3594 
1286 784 1419 6344 6345 5897 
627 1154 2135 4417 6346 6347 
801 1719 1808 2891 3754 3468 
1185 738 1683 6215 6348 6349 
1149 630 2010 2575 5523 6350 
1491 1057 2115 4812 6351 6323 
767 1175 1506 3706 6217 6352 
1490 507 1967 3168 6300 6353 
1393 1074 1792 4726 5672 6354 
1143 509 1655 6355 6356 2660 
533 1145 1776 6302 3175 5067 
918 1250 2161 6357 6358 6359 
1142 766 1851 5159 6360 6361 
1232 167 1708 5243 6362 6236 
656 1139 2051 5212 6212 6363 
792 1243 1759 4604 6364 6365 
1298 661 2153 4279 5451 6366 
644 1383 2040 4567 6367 6368 
629 1135 1912 2328 3137 3031 
279 1284 2101 5747 6123 6369 
541 1137 1857 5797 4146 4684 
502 1621 1894 2548 6370 4031 
276 277 1683 307 6371 6110 
1621 1043 1894 2628 4081 6370 
747 1390 1939 5887 6372 5232 
1154 108 1646 4680 6201 6373 
16 1287 1697 4827 6374 6375 
1150 774 2109 5962 6376 6062 
486 1155 1731 2797 5693 2230 
1141 659 1909 5675 5574 3846 
1833 759 1949 6377 6378 6379 
641 1142 1851 2401 6361 4170 
645 1217 1703 3393 6380 6381 
615 1668 1937 5170 6382 6383 
677 1165 2156 5454 4079 6384 
502 1195 1754 4030 6385 2171 
941 1409 2079 3322 6386 6387 
160 161 1915 186 6247 4948 
561 1278 2068 4015 6388 6389 
1668 1090 1937 5506 6390 6382 
98 99 1936 124 6391 4299 
1242 789 1648 4044 3805 6341 
1081 1911 2006 6392 6393 5598 
1159 501 2121 5677 6394 6395 
280 281 1953 311 5298 6396 
997 1490 1967 6397 6353 6398 
377 378 1771 398 3491 6399 
1169 795 1813 6400 6401 6402 
738 1208 1683 5063 6111 6348 
1288 575 1561 2394 4132 5735 
667 1281 2149 3668 4791 6403 
1479 504 1699 6404 6405 6406 
1080 1413 1668 5244 6407 5169 
643 1169 1813 4336 6402 6408 
1157 780 2086 4234 6409 6410 
1226 870 1967 6411 6412 6299 
1205 645 1703 6413 6381 6414 
606 1373 1575 3892 6415 4545 
509 1230 1744 6416 6417 6418 
1718 1220 2063 5640 6419 6420 
1686 831 1783 6203 6421 6422 
637 1148 2073 5463 6423 6424 
1397 1122 2131 4306 5567 6425 
1211 593 1760 6426 5196 6427 
1276 758 1494 5804 6428 6343 
1388 740 1895 4243 2859 4268 
1160 838 1946 4453 6429 6430 
1217 490 1984 6431 6432 6433 
1467 516 1539 6434 5012 6271 
1250 164 2161 5437 6435 6358 
1226 711 1533 5762 5623 6436 
964 1182 1901 3087 6437 6438 
1309 890 2025 6439 6440 6074 
1170 849 2106 5647 6441 6442 
495 1165 2117 4078 5511 6443 
1799 574 1832 5080 6444 4092 
1699 504 1831 6405 6445 3679 
218 219 2158 239 2958 5873 
485 1173 1565 6446 6447 5721 
841 1379 1960 6234 3769 6448 
963 1626 1790 5517 6449 6450 
1194 549 1571 4963 6451 5617 
745 1292 1521 2646 6452 6453 
1511 763 1971 6454 6455 6456 
13 339 1662 340 6457 5821 
1662 907 1720 6059 6458 5822 
1574 812 1646 5360 6459 5828 
786 1336 1404 6460 6461 6005 
426 427 1722 439 6462 3998 
736 1221 1605 5284 6463 5863 
1574 110 2054 6216 6464 6465 
1161 817 1711 6466 5982 6089 
53 54 1579 66 6467 6080 
394 416 1531 4206 4531 6468 
783 1434 1713 6469 3361 5448 
996 1511 1971 4155 6456 6470 
1524 922 1676 3304 2254 6144 
789 1206 1751 4043 6471 6472 
908 1552 2143 6187 4223 5073 
1152 828 1768 3159 6473 6023 
887 1480 1997 4420 3498 4736 
1226 507 1556 6298 4824 5763 
386 387 2043 407 6474 5979 
509 1143 2084 6355 6475 6476 
1250 730 1637 6477 5546 6478 
1214 1259 1982 4749 6479 6480 
1173 746 1565 6266 2452 6447 
698 1310 1429 3587 4311 3907 
679 1233 1659 3886 6481 6482 
380 381 1470 401 6483 3190 
891 1153 2042 2285 5749 6484 
861 1149 1970 2607 5042 6485 
1062 1619 2035 4915 6486 4907 
1467 743 2081 6487 3834 6488 
1206 647 1751 2516 5698 6471 
504 1215 1831 3402 6489 6445 
1354 946 2152 6490 6491 6492 
1501 514 2006 5378 5599 6493 
1455 887 2124 4419 5783 3807 
570 1188 1613 6494 5949 5950 
1315 460 2134 5867 6495 6250 
703 1165 1709 5510 5455 6496 
47 48 1939 60 5334 6497 
730 1250 1576 6477 6498 6499 
1326 543 1388 6260 5657 3324 
1357 738 2014 5064 5320 6500 
814 1188 1918 6252 6501 6502 
78 79 1841 91 6503 4055 
1341 596 1534 6504 3655 6505 
732 1234 1567 5524 6506 5237 
1283 357 1436 6507 6226 6508 
747 1481 1488 4086 6509 6510 
800 1537 1966 3897 3349 6511 
658 1157 2086 3610 6410 6512 
1723 807 1811 6513 3960 2893 
1626 877 1790 6514 5300 6449 
904 1393 1594 3037 6515 2625 
1329 389 1737 5893 6516 6517 
1153 1535 1913 6126 6518 5681 
281 282 1625 312 5824 5321 
1311 551 1472 4927 4213 5023 
1230 806 1744 5753 6519 6417 
1393 563 1594 6520 4999 6515 
158 159 1630 184 6521 3506 
1562 914 1951 3262 6522 6161 
856 1582 1671 6309 6523 6524 
743 1255 1853 2175 6525 3832 
911 1257 1561 5419 5216 4237 
518 1163 1955 3745 5852 2726 
691 1249 1694 3222 6276 6526 
864 1313 1876 5900 6527 5038 
876 1479 1699 6528 6406 4229 
388 1329 2148 5894 5123 6529 
570 1170 2106 6530 6442 6531 
546 1180 1956 5058 6332 6532 
104 105 1583 130 6533 2789 
1313 292 1876 5790 6534 6527 
1287 815 1697 4593 5020 6374 
6 1183 1618 6535 6021 3914 
1233 781 1659 4707 6146 6481 
1168 656 2051 2434 6363 6536 
912 1655 1744 6277 6537 6538 
1221 571 1681 5313 6539 6540 
718 1315 2020 4990 6233 6541 
1039 1446 1811 4276 6542 3959 
655 1269 1606 5414 6340 6121 
933 1234 1692 2756 5526 4667 
1215 803 1831 4187 6543 6489 
490 1217 1632 6431 3562 5424 
1243 559 1759 6544 6545 6364 
457 458 1665 478 3852 5456 
972 1833 1949 5131 6379 3597 
1195 792 1754 4602 6546 6385 
295 9 1499 326 2334 5542 
903 1290 1746 3405 4911 6547 
450 451 1910 471 6208 4123 
758 1305 1555 5806 6548 6549 
1411 1020 1432 4574 4641 6550 
1241 835 2000 4050 6551 6552 
1402 820 1656 5968 4637 6305 
1174 584 1690 4992 5831 2720 
1240 671 1679 4192 6553 3818 
1188 570 1918 6494 6554 6501 
566 1411 1432 5730 6550 6555 
791 1280 1603 6556 6557 6558 
1182 451 1901 6206 6559 6437 
916 1652 2093 4255 4969 3420 
540 1160 2142 4613 6327 6560 
817 1161 1995 6466 6561 6562 
277 1185 1683 4779 6349 6371 
32 1354 2152 6033 6492 6563 
1335 754 1687 4756 6264 6564 
1168 568 2075 4882 6565 2435 
795 1169 1762 6400 5579 5784 
772 1221 1681 6566 6540 6567 
910 1318 1818 3251 3255 3489 
1312 772 1667 5843 6568 5983 
844 1418 1915 4970 4949 6569 
376 377 1512 397 6570 4695 
163 1250 1637 5438 6478 6030 
1234 420 1567 4127 6571 6506 
1269 1189 2111 5413 6279 6572 
942 1960 2053 6573 6574 6575 
599 1219 1875 6027 6576 6577 
563 1393 1792 6520 6354 6578 
446 1377 1678 6164 6579 6580 
1481 799 1488 2301 4704 6509 
73 74 1626 86 6581 5281 
1325 767 1506 5347 6352 6582 
1389 749 1829 3539 6583 6584 
1237 650 1582 2605 3023 6308 
714 1460 1733 5226 6585 5686 
1460 869 1733 6586 2291 6585 
1292 500 1521 2387 6587 6452 
683 1196 2070 2601 5713 2933 
1220 776 1672 5639 5871 6588 
1330 596 2110 5751 6589 6590 
1227 719 2159 2716 6591 3302 
1911 854 2006 6592 6593 6393 
1606 936 1773 6339 6594 6595 
682 1134 1896 5202 5720 6596 
1186 851 1716 3331 6597 5024 
1549 756 1791 3135 6598 6599 
1743 999 2114 4770 6600 6601 
911 1289 2129 5326 6602 5420 
952 1437 1789 2277 6603 5665 
1219 822 1875 4744 6604 6576 
1235 675 1990 4400 5630 5756 
1663 826 1712 5913 6605 6166 
1250 918 1576 6357 3000 6498 
589 1325 1506 4875 6582 4713 
449 1504 1691 4232 6606 6262 
1289 720 1569 5246 4358 6172 
1336 739 1404 4923 6607 6461 
1056 1363 1680 4764 6608 5292 
271 1179 2105 2866 5440 6609 
552 1492 1596 6610 5144 3390 
1161 625 1995 3108 6611 6561 
1377 840 1678 6612 4619 6579 
756 1441 1791 4980 6613 6598 
1060 1602 1748 5585 6614 5165 
844 1239 1968 6615 6136 3946 
780 1247 2086 4346 6616 6409 
924 1320 2081 3423 6617 4208 
217 218 1615 238 5989 3062 
1187 1658 1999 5774 6618 6619 
939 1907 1992 6620 6621 6622 
1390 941 2079 5759 6387 6623 
1223 76 1867 2485 6624 6625 
931 1330 2110 3770 6590 6626 
1211 788 1794 6627 5006 6628 
1302 730 1576 2895 6499 6176 
385 386 1711 406 6090 4628 
814 1431 1467 5788 6629 6270 
555 1245 1622 5218 5408 5714 
718 1330 1586 6630 3771 6631 
97 1220 1672 3308 6588 6632 
643 1181 2074 2294 6258 5204 
1748 1160 1946 6096 6430 6633 
754 1453 1763 4758 6634 6635 
671 1270 1679 6182 6636 6553 
1246 765 1610 6637 6638 6639 
1280 1025 1603 4705 4734 6557 
1415 1082 1772 5146 5428 6640 
531 1196 1838 5712 6139 6641 
1305 558 1555 3434 4989 6548 
1244 667 2149 6048 6403 6642 
1212 383 1687 3433 6643 6263 
1362 602 1493 6644 4821 5883 
1320 516 2081 6078 6645 6617 
602 1362 1934 6644 6646 5007 
1362 885 1934 6647 6648 6646 
593 1211 1794 6426 6628 5256 
1289 330 2129 5488 6649 6602 
890 1309 2021 6439 6650 6651 
1180 817 1995 4955 6562 6652 
1429 586 2063 3040 6653 6654 
804 1205 1703 6333 6414 6655 
393 394 1531 414 6468 6656 
1309 205 2021 5555 6657 6650 
804 1606 1773 6181 6595 6334 
824 1210 1693 6285 4820 6658 
1034 1538 2019 4252 6659 6660 
1356 267 1977 5952 6661 6662 
726 1172 1612 5611 6663 6057 
170 5 1572 196 4507 4302 
1191 666 1812 3165 4489 3948 
46 1390 2079 6195 6623 6664 
851 1604 1932 3332 3319 6665 
902 1192 1755 2572 4803 6320 
1655 509 1744 6356 6418 6537 
1218 582 1689 4164 6666 5392 
420 421 1567 433 5577 6571 
215 216 1597 236 6191 4544 
1343 286 2012 5817 6667 6668 
541 1426 1519 5976 6669 5798 
105 1244 1583 5093 6670 6533 
1475 786 1515 6671 6007 6672 
741 1352 1520 4623 6053 3977 
899 1343 2012 5933 6668 6673 
959 1503 2108 4090 6674 6001 
847 1375 1779 2939 6675 6676 
1337 14 1847 5569 6677 4277 
1431 743 1467 2319 6487 6629 
596 2032 2110 6678 6679 6589 
755 1285 1702 5917 6680 6681 
1170 689 1951 4676 6162 6682 
881 1451 1709 6683 6684 5885 
1375 25 1779 5000 4578 6675 
1258 1490 1952 5641 6685 6686 
568 1293 2075 5497 6687 6565 
1451 703 1709 3879 6496 6684 
674 1275 1653 5290 6688 6130 
763 1511 1891 6454 6689 5653 
1879 1019 1930 6690 4150 6691 
1394 815 1492 6692 4595 6693 
712 1253 1618 6081 5126 6020 
1170 570 1889 6530 5951 4677 
1197 532 2071 2978 5399 4589 
1192 643 1813 2571 6408 6694 
1365 819 1528 5512 6695 6337 
552 1394 1492 3938 6693 6610 
545 1192 1807 4801 6696 6697 
1413 716 1668 5201 5507 6407 
1518 754 1763 4568 6635 6698 
1033 1308 1734 4315 4366 5078 
966 1429 2063 3908 6654 6699 
1385 1123 1700 5443 5738 6700 
1231 484 2116 6701 6702 4555 
1183 6 1777 6535 3956 4362 
625 1180 1995 5944 6652 6611 
1730 508 2108 6703 6704 4536 
1520 853 1930 6052 6705 6706 
1344 553 1645 5132 6707 6708 
788 1211 1765 6627 3797 6709 
810 1223 1867 5530 6625 6710 
548 1264 1616 6711 6712 6713 
547 1251 1605 4607 5864 6714 
634 1171 1968 5920 3524 6135 
749 1341 1534 6054 6505 6715 
800 1502 1676 6716 4881 3898 
1460 561 1647 5220 3617 6717 
1173 485 1905 6446 6718 6076 
1207 213 1974 5157 6719 6720 
79 80 1581 92 6043 6721 
1311 672 2113 4297 6722 6723 
869 1460 1647 6586 6717 4456 
1246 18 1423 5609 3441 6724 
1221 772 1993 6566 6725 6726 
70 71 2078 83 5606 6727 
1182 880 1910 2325 6028 6207 
1256 788 1765 3354 6709 6728 
721 1274 1538 6313 5708 4251 
718 1586 2093 6631 6729 4968 
724 1291 1651 3106 6209 6730 
1931 657 2031 6731 6732 5343 
1582 820 1671 4636 5317 6523 
1298 890 2021 6733 6651 6734 
1473 745 1521 5027 6453 6735 
508 1859 2108 6200 6002 6704 
1674 903 1746 6736 6547 6737 
713 1299 1433 6738 5540 6739 
1757 752 1895 6740 4269 6741 
206 1298 2021 5250 6734 6742 
1293 900 2075 4421 2202 6687 
1410 22 2099 4793 6743 6744 
1331 918 2161 6745 6359 6746 
497 1200 1950 6294 4861 5670 
159 1418 1630 4562 6747 6521 
974 1482 1825 4521 3428 3513 
1275 560 2000 5936 6748 6749 
596 1341 2032 6504 6750 6678 
287 1277 2012 4891 6751 6752 
883 1356 1977 6272 6662 6753 
1277 899 2012 2693 6673 6751 
1398 808 2123 6754 6755 6756 
1205 546 1956 6280 6532 6757 
1304 726 1540 5612 4459 5462 
1799 765 2154 6758 6759 6071 
874 1428 1954 6760 6304 6761 
852 1593 1856 6762 6763 3101 
1430 878 1712 3093 6167 6764 
1735 583 2080 6765 6766 4266 
749 1534 1829 6715 6767 6583 
1282 483 1945 3285 5459 5925 
503 1224 1797 5586 5777 3466 
1371 691 1694 5684 6526 6768 
969 1246 1610 3613 6639 4586 
1189 655 1808 5412 3657 3753 
273 274 1886 304 5838 6769 
890 1298 2153 6733 6366 6770 
736 1200 1868 4390 6295 3736 
1230 509 1747 6416 6771 6772 
1426 749 1519 6055 3540 6669 
1965 943 2130 5065 6773 4750 
830 1201 2147 5435 6774 6775 
611 1209 2091 3281 6776 3358 
28 29 1641 37 6220 2974 
827 1187 1999 6777 6619 6778 
661 1214 1982 4168 6480 4822 
213 214 1974 234 6779 6719 
1109 1311 2113 4928 6723 5429 
1423 354 1757 3440 6780 6781 
1396 589 1610 2861 4587 6782 
1187 827 1804 6777 6783 4786 
1256 757 1882 3082 6784 5845 
51 52 1820 64 3713 6785 
1224 859 1752 5791 6786 3149 
1470 381 2013 6483 6787 3505 
781 1230 1747 6788 6772 6147 
687 1251 1669 5222 4608 3699 
830 1344 1645 6789 6708 3829 
1364 981 1640 4128 4282 6790 
947 1212 1816 3098 4404 5815 
1306 699 1598 4553 6114 4931 
498 1256 1765 2639 6728 5991 
149 150 1891 175 5916 6791 
1231 862 2104 6792 6793 6794 
1203 489 2140 3774 6795 6796 
883 1487 2074 6797 5205 6798 
1438 970 2119 6799 3811 6800 
1209 954 2052 3280 3357 5503 
484 1231 2104 6701 6794 6801 
741 1211 1760 3976 6427 6802 
534 1228 1666 5469 4527 2317 
165 1331 2161 5568 6746 6803 
826 1386 1712 3509 6804 6605 
1322 519 1804 4270 6014 6805 
1386 692 1712 5819 6806 6804 
699 1438 2119 5727 6800 6807 
824 1455 1893 6808 3806 6809 
74 75 2033 87 6810 6811 
1346 735 1607 3294 5461 3372 
1688 808 1924 6812 6813 6814 
1172 778 2072 5331 6815 6816 
1288 750 1643 5734 6269 4598 
778 1515 1845 6817 6818 3526 
678 1207 2055 3940 6819 6820 
212 1207 1898 5158 3941 6318 
1266 833 1753 6821 6822 6823 
1220 966 2063 2330 6699 6419 
1417 1005 1608 4393 4675 6824 
1406 764 1929 2950 6825 6826 
1664 884 1938 6827 6828 5207 
929 1574 2054 5382 6465 6829 
827 1322 1804 3715 6805 6783 
1667 772 1681 6568 6567 6830 
765 1246 1423 6637 6724 6831 
96 97 1672 122 6632 5964 
906 1667 1681 6242 6830 6832 
1262 926 1695 3199 5538 4497 
1216 699 2119 6112 6807 5328 
702 1547 1921 5632 6833 5415 
774 1222 2109 3487 6834 6376 
824 1323 1796 6835 6836 6286 
1323 242 1796 5189 6837 6836 
757 1263 1740 5938 2906 6838 
1325 773 1596 5306 2804 5348 
1340 548 1616 4846 6713 2709 
1317 1003 1749 4201 5102 6218 
1383 889 2040 6839 6840 6367 
1190 935 2127 4321 6841 4591 
942 1684 1960 5055 6842 6573 
1366 579 1768 3287 6843 6844 
24 1199 1810 4356 6845 6846 
1377 1045 1830 4638 5475 6847 
1586 1037 2093 6848 3421 6729 
562 1214 2062 4747 6311 6849 
560 1241 2000 4012 6552 6748 
2071 931 2144 3592 6850 4646 
828 1366 1768 3311 6844 6473 
1213 1050 2005 3996 6851 6852 
1463 575 2030 4130 6853 5168 
792 1218 1754 4300 2744 6546 
658 1213 2027 3997 6854 3071 
1346 51 1820 3244 6785 6855 
1270 802 1679 4106 6265 6636 
342 15 1639 344 5680 6856 
692 1273 1664 5818 4379 4325 
1299 713 1635 6738 5948 4841 
1771 928 2035 3490 4908 5770 
1201 669 2147 3316 6857 6774 
1280 791 1707 6556 5274 6259 
1037 1586 2120 6848 6858 6859 
1400 1272 2120 5807 6860 6861 
102 103 1739 128 6862 5850 
634 1743 2114 5709 6601 5921 
1199 787 1810 5138 4810 6845 
1442 939 1992 3687 6622 6863 
1166 70 2078 3510 6727 3435 
1101 1332 2017 4900 5924 6016 
489 1204 1852 5731 4148 6178 
983 1757 1895 6864 6741 3147 
1404 739 1528 6607 6338 6289 
1405 751 1436 3230 6865 6254 
1448 733 2015 5335 6866 6867 
76 77 1867 89 6868 6624 
818 1514 1912 5910 3032 3136 
1207 1974 2055 6720 6869 6819 
1359 846 2057 5607 6870 4894 
483 1260 1833 3052 6871 5130 
1333 725 1861 3246 6872 6873 
657 1203 2031 4281 6874 6732 
116 117 1657 142 4219 6875 
600 1674 1746 4247 6737 6876 
733 1477 2015 5031 6877 6866 
34 35 1756 43 6878 6127 
19 357 1283 358 6507 6879 
1440 560 1663 4785 5937 6880 
878 1440 1663 5552 6880 6165 
1230 781 1822 6788 6073 4829 
1586 532 2120 5398 6881 6858 
459 1315 1652 5868 4991 6306 
445 446 1678 466 6580 3724 
1611 752 1757 5187 6740 6882 
1215 905 2041 3409 6883 5460 
624 1748 1946 5166 6633 4351 
862 1231 1860 6792 5547 6884 
557 1296 2150 2526 6885 6886 
598 1403 1787 5655 6887 6312 
857 1473 1521 6888 6735 6889 
1285 531 1702 4885 6890 6680 
556 1758 1837 6040 6891 6892 
948 1462 2076 3874 6061 4768 
1814 1265 2130 6316 6893 6894 
1286 700 1772 4477 6895 6896 
1059 1314 1909 4601 3847 5573 
1381 737 1588 3472 5467 5977 
1247 658 2086 4233 6512 6616 
383 384 1687 404 6897 6643 
35 1316 1756 3821 6898 6878 
513 1266 1753 6899 6823 5794 
867 1300 2133 2372 6296 6157 
1357 544 1926 6900 5210 6901 
860 1452 1775 6902 5338 3943 
645 1205 2008 6413 6903 6904 
833 1266 2008 6821 6905 6906 
853 1879 1930 6907 6691 6705 
72 73 1854 85 5283 6908 
1238 484 2104 5340 6801 6909 
727 1236 1913 5930 6910 6911 
1236 811 1913 6335 5682 6910 
816 369 1629 4429 5906 4111 
619 1333 1861 4218 6873 6196 
759 1338 1949 6192 6912 6378 
1541 615 1937 5155 6383 6913 
1391 696 1721 5016 6914 6915 
1464 891 2042 5592 6484 6916 
579 1468 1768 3085 6024 6843 
849 1425 1827 5649 6917 6918 
1383 1108 1917 4566 5996 6919 
1264 548 1769 6711 5374 4140 
1260 759 1833 3600 6377 6871 
1445 717 1587 4466 6291 6920 
345 16 1697 347 6375 5227 
838 1457 1946 5701 4352 6429 
590 1958 1971 6921 6922 6923 
111 1350 2054 6924 6925 6926 
1862 603 2042 4021 6927 5748 
1238 668 1890 6928 6929 5393 
451 452 1901 472 6930 6559 
1222 646 2109 3848 6063 6834 
423 424 1701 436 5941 6151 
808 1624 1924 3129 6931 6813 
719 1461 2159 6107 5876 6591 
1249 540 2142 3209 6560 6932 
946 1354 2112 6490 6933 5882 
384 1335 1687 4496 6564 6897 
778 1475 1515 5332 6672 6817 
167 168 1708 193 5277 6362 
862 1445 1587 6934 6920 6935 
1403 849 1787 6936 6937 6887 
855 1572 1849 4838 6938 6939 
441 442 1673 462 6008 5354 
1572 978 1849 4506 3609 6938 
1239 844 1915 6615 6569 6246 
790 1364 1640 5148 6790 3407 
453 1279 1793 3751 4652 6940 
623 1332 1902 4407 6941 4153 
1636 810 1801 5531 3114 6942 
668 1238 1976 6928 6943 6010 
1273 1386 2003 5820 6944 6945 
1266 645 2008 6163 6904 6905 
1425 511 1827 6031 6946 6917 
567 1528 1933 6290 6947 5071 
1409 45 2079 5717 6948 6386 
771 1249 2142 6275 6932 6326 
1237 856 2160 6307 6949 6950 
1508 893 1595 5942 6951 6952 
1235 564 2128 5755 6953 6954 
110 111 2054 136 6926 6464 
930 1184 2007 2538 6955 6041 
1307 547 1993 5057 6956 6957 
723 1546 1957 3791 6958 6959 
1368 587 1732 6960 4782 6961 
1974 832 2055 6962 6963 6869 
765 1396 1610 6964 6782 6638 
1267 512 1818 6213 2699 3290 
1084 1239 1989 3855 6965 5767 
48 49 1728 61 5315 5533 
427 1158 1722 3511 3415 6462 
1546 944 1957 6966 5674 6958 
1705 494 2157 4862 4508 6967 
850 1235 2128 4406 6954 6968 
1268 664 1824 2684 2947 2312 
1253 713 1433 5955 6739 6102 
1114 1705 2157 5909 6967 5033 
389 390 1737 410 3018 6516 
870 1226 2125 6411 6969 6970 
927 1636 1801 4934 6942 2882 
244 245 1742 257 4833 5103 
839 1240 2068 4183 6971 6972 
75 1401 2033 2455 6973 6810 
764 1650 1929 5101 6974 6825 
2110 1032 2144 6975 6976 6977 
576 1455 1693 4409 6978 6979 
1240 561 2068 3817 6389 6971 
1303 564 1729 6980 6981 3012 
1444 724 1651 6982 6730 6983 
1455 824 1693 6808 6658 6978 
808 1688 2123 6812 6984 6755 
740 1367 1686 2553 6204 2857 
497 1237 2160 5669 6950 6985 
1543 1036 2077 4263 5083 6986 
1379 563 1792 6230 6578 6987 
1353 577 1692 3110 4033 5742 
1317 590 1971 2898 6923 6988 
549 1850 2095 6019 6989 6990 
693 1259 1942 4285 5384 6044 
1363 777 1680 5293 5601 6608 
802 1391 1721 4107 6915 5651 
884 1664 2069 6827 4540 6991 
1373 816 1575 6992 2217 6415 
1342 116 1657 4694 6875 3857 
1758 938 1837 6993 3989 6891 
1115 1484 2018 5638 6067 5823 
744 1417 1608 6994 6824 2461 
543 1336 1903 3343 6995 5658 
1255 569 1853 3567 3482 6525 
1209 1349 2091 5522 6996 6776 
1243 654 1944 4826 4872 6997 
751 1283 1436 4387 6508 6865 
1239 161 1989 6245 6998 6965 
834 1254 2058 2927 6999 7000 
805 1368 1732 3837 6961 7001 
829 1379 1792 5642 6987 5671 
1509 583 1735 7002 6765 7003 
731 1474 1705 4625 6244 5908 
696 1324 1721 4355 5733 6914 
829 1292 1781 2179 2647 5643 
1863 883 2074 6273 6798 6257 
339 1337 1662 5570 3666 6457 
1382 745 1821 2589 6154 3904 
1329 1737 2047 6517 7004 7005 
1415 1327 2094 5999 7006 7007 
559 1243 2045 6544 7008 7009 
894 1509 1735 5974 7003 7010 
366 23 1870 368 7011 7012 
954 1371 1694 3900 6768 4061 
1600 641 2038 2459 5206 7013 
1024 2040 2048 7014 7015 3812 
1418 756 1630 4979 4073 6747 
1619 742 2035 7016 5771 6486 
951 1410 2099 5534 6744 7017 
784 1286 1772 6344 6896 5427 
342 1639 1847 6856 7018 7019 
393 1531 2019 6656 7020 7021 
242 243 1796 255 6288 6837 
452 453 1793 473 6940 7022 
973 1527 1659 3590 7023 5965 
755 1702 2082 6681 7024 7025 
1578 544 2014 6221 7026 6243 
1423 1757 2154 6781 7027 7028 
1261 681 1963 2815 7029 2755 
1316 811 1756 7030 6336 6898 
1445 862 1860 6934 6884 7031 
1336 786 1903 6460 7032 6995 
152 1456 1980 6085 7033 7034 
354 1611 1757 7035 6882 6780 
1476 807 2073 5954 7036 7037 
487 1448 2015 5590 6867 4504 
1716 851 1943 6597 7038 4238 
1456 895 1980 2721 7039 7033 
114 115 1828 140 3556 6179 
1521 500 1745 6587 6091 7040 
1372 1048 2002 4752 5479 5562 
1259 1047 1982 4284 4823 6479 
993 1600 2038 3374 7013 3690 
587 1445 1860 5380 7031 4783 
1265 562 2062 6315 6849 7041 
1354 727 2112 5931 7042 6933 
843 1265 2062 4047 7041 6310 
796 1654 1809 5633 4852 5426 
744 1508 1595 2238 6952 7043 
902 1469 1994 6319 7044 5266 
1341 768 2032 6170 7045 6750 
1411 1213 2005 5729 6852 7046 
795 1306 1807 4551 7047 7048 
1285 695 1883 5848 4669 4987 
1347 556 1840 4874 7049 4488 
857 1521 1745 6889 7040 7050 
1254 652 2058 2543 4926 6999 
267 268 1977 298 7051 6661 
1469 248 1994 6039 7052 7044 
1264 654 2098 4344 5152 7053 
1306 545 1807 4855 6697 7047 
656 1428 1940 2923 7054 7055 
860 1439 1869 3942 7056 7057 
1439 609 1869 7058 4136 7056 
585 1269 2111 3078 6572 7059 
863 1444 1651 2370 6983 5631 
289 290 1842 320 5089 3238 
889 1383 2131 6839 7060 5566 
845 1435 1856 6115 7061 7062 
484 1434 2116 4945 7063 6702 
860 1869 2121 7057 7064 7065 
1869 1159 2121 4972 6395 7064 
1265 676 2130 4041 4751 6893 
953 1333 1905 3247 6077 7066 
640 1825 2050 3514 7067 7068 
118 119 2087 144 7069 7070 
250 251 1863 263 6169 5939 
283 284 1858 314 4260 3563 
1373 951 1870 3891 7071 7072 
1338 573 1949 6046 3723 6912 
1547 875 1921 5367 7073 6833 
1371 611 2100 3899 3340 7074 
800 1966 2046 6511 7075 7076 
208 209 1874 229 4740 3495 
1331 724 1855 4415 7077 7078 
292 293 1876 323 5745 6534 
1022 1273 2003 4534 6945 4114 
1850 1085 2095 5775 7079 6989 
779 1385 1700 5364 6700 3169 
603 1464 2042 3861 6916 6927 
14 342 1847 343 7019 6677 
202 203 1888 223 4262 5351 
907 1459 1720 4486 7080 6458 
1284 280 1953 5746 6396 5591 
1619 1130 1620 6150 6152 7081 
961 1498 1648 5387 7082 3804 
808 1398 1857 6754 4685 4145 
1958 996 1971 7083 6470 6922 
272 273 2103 303 7084 7085 
1425 1170 1951 5648 6682 7086 
815 1394 1919 6692 5386 5308 
1299 557 2150 4840 6886 7087 
728 1258 1952 5425 6686 3206 
106 107 1927 132 5758 5150 
1479 791 1698 5140 7088 7089 
821 1945 2001 5926 7090 7091 
526 1308 1881 4365 4571 5689 
553 1450 1645 5860 6171 6707 
1383 580 2131 7092 7093 7060 
12 336 2118 337 7094 4532 
742 1619 1620 7016 7081 4921 
884 1486 1938 7095 7096 6828 
1428 874 1940 6760 2792 7054 
1320 657 1931 3422 6731 7097 
1350 111 2066 6924 7098 7099 
1750 510 1873 7100 4340 7101 
1294 834 1931 2928 7102 5342 
700 1415 1772 6000 6640 6895 
418 419 2061 431 3054 7103 
1278 839 2068 4640 6972 6388 
1297 804 1984 6180 7104 7105 
1272 1037 2120 4207 6859 6860 
54 55 1906 67 7106 7107 
1486 715 1938 4632 7108 7096 
1435 569 1856 4951 3568 7061 
1903 786 2141 7032 7109 7110 
601 1761 1815 7111 7112 5786 
151 152 1980 177 7034 7113 
161 162 1989 187 5768 6998 
1595 893 1987 6951 4318 7114 
1634 1028 1933 4912 5072 7115 
1534 920 1829 3654 7116 6767 
1164 1371 2100 5685 7074 6330 
1763 546 1773 7117 6282 7118 
1720 1459 2118 7080 7119 7120 
936 1763 1773 7121 7118 6594 
564 1447 1729 4805 2690 6981 
725 1507 1861 4231 7122 6872 
1761 952 1815 7123 5667 7112 
1345 566 1897 4662 7124 5368 
248 249 1994 261 5945 7052 
0 1389 1829 3789 6584 7125 
111 112 2066 137 5841 7098 
1399 556 1837 7126 6892 7127 
2032 1032 2110 7128 6975 6679 
918 1331 1855 6745 7078 2806 
1639 989 1847 7129 4278 7018 
1518 585 1816 3370 5998 4569 
1420 693 2009 4842 5046 7130 
1498 665 1648 5323 6342 7082 
1579 54 1906 6467 7107 7131 
286 287 2012 317 6752 6667 
1301 656 1940 5213 7055 5248 
1266 513 1969 6899 2961 5465 
205 206 2021 226 6742 6657 
1907 584 1992 7132 4993 6621 
811 1316 1862 7030 5242 5230 
853 1352 2034 6051 7133 7134 
164 165 2161 190 6803 6435 
770 1571 2095 3823 7135 7136 
381 382 2013 402 2742 6787 
830 1346 1820 3828 6855 5436 
506 1764 2044 4682 7137 5356 
999 1750 1873 3968 7101 7138 
330 11 2129 332 5495 6649 
1623 903 1674 6227 6736 7139 
1323 824 1893 6835 6809 5051 
1583 1244 2149 6670 6642 7140 
1257 333 1710 4796 5602 6065 
559 1929 1947 7141 7142 7143 
278 279 2101 309 6369 5613 
270 271 2105 301 6609 7144 
587 1368 1819 6960 7145 5381 
1332 764 1902 4899 2951 6941 
1825 1134 2050 3400 5203 7067 
1368 803 1819 7146 6210 7145 
1296 685 1923 5270 7147 7148 
1703 1217 1984 6380 6433 7149 
834 1320 1931 6184 7097 7102 
604 1866 1887 7150 7151 2635 
599 1875 1972 6577 5253 5743 
613 1914 2034 5581 5904 7152 
1417 744 1878 6994 7153 4727 
45 46 2079 58 6664 6948 
828 1516 1848 3160 6329 4347 
1717 953 1905 3684 7066 7154 
31 32 2152 40 6563 7155 
692 1430 1712 5487 6764 6806 
1764 1049 2044 4068 7156 7137 
763 1317 1971 4202 6988 6455 
773 1351 1782 5307 2335 5499 
862 1587 1976 6935 6011 7157 
772 1307 1993 5842 6957 6725 
803 1368 1831 7146 3680 6543 
460 0 2134 481 7158 6495 
1653 1275 2000 6688 6749 7159 
1102 1885 2004 5616 7160 2504 
838 1360 2088 4455 6064 7161 
1352 613 2034 4845 7152 7133 
1489 1053 1921 5322 5416 7162 
1213 1466 2027 5959 7163 6854 
1885 864 2004 5901 4789 7160 
490 1297 1984 5197 7105 6432 
522 1314 2002 3629 5509 5478 
1945 1016 2001 5458 5811 7090 
747 1488 1884 6510 5401 5888 
1303 850 2128 4100 6968 7164 
1929 1120 1947 7165 5878 7142 
387 388 2148 408 6529 7166 
564 1303 2128 6980 7164 6953 
1494 758 1658 6428 7167 6009 
1330 718 2020 6630 6541 5752 
840 1377 1830 6612 6847 7168 
1089 1919 2037 5309 7169 7170 
504 1479 1698 6404 7089 3403 
621 2059 2077 7171 5814 5082 
960 1478 2085 3831 4760 4892 
992 1896 2046 7172 6256 7173 
1032 1573 2144 4718 7174 6976 
505 1661 2052 5389 5504 4385 
392 393 2019 413 7021 7175 
1104 1416 1964 4618 7176 5973 
1527 679 1659 5025 6482 7023 
1427 792 1759 4301 6365 6103 
784 1471 1823 2845 3350 7177 
485 1717 1905 3060 7154 6718 
55 1387 1906 3955 7178 7106 
590 1562 2089 3263 7179 7180 
944 1546 2111 6966 7181 6278 
1407 1014 1852 4416 6142 4147 
923 1579 1906 2484 7131 7182 
1376 418 2061 5346 7103 5844 
1633 777 1755 5600 6325 5287 
704 1334 2022 3743 5662 2943 
1446 551 1811 3560 2848 6542 
1919 640 2037 5385 7183 7169 
1081 1585 1911 5391 7184 6392 
1577 1019 1879 3205 6690 7185 
1546 585 2111 5997 7059 7181 
853 1483 1879 7186 7187 6907 
1677 770 2095 4331 7136 7188 
842 1421 2087 6133 7189 7190 
807 1723 2073 6513 7191 7036 
1370 1079 1881 4997 5690 4616 
103 1559 1739 5353 7192 6862 
1070 1584 1914 5377 7193 5580 
1531 1034 2019 3972 6660 7020 
1866 995 1887 7194 2536 7151 
22 366 2099 367 7195 6743 
762 1357 1926 5062 6901 7196 
1550 790 1727 5149 7197 7198 
581 1483 1849 7199 7200 3550 
1396 765 1799 6964 6758 4197 
1504 770 1691 3822 5167 6606 
527 1420 1928 5010 7201 5854 
1344 830 2147 6789 6775 7202 
571 1348 2011 5314 7203 7204 
1348 813 2011 3313 5781 7203 
532 1400 2120 2980 6861 6881 
1123 1550 1727 5919 7198 6050 
669 1344 2147 3910 7202 6857 
856 1334 2160 5660 7205 6949 
1327 1100 2094 4897 5704 7006 
1489 875 1731 7206 2659 5692 
1558 1011 2060 4765 4808 7207 
1345 678 2055 3089 6820 7208 
1483 581 1879 7199 7209 7187 
578 1595 1987 5957 7114 5004 
709 1395 1839 3695 5528 4151 
837 1299 2150 5539 7087 7210 
857 1745 1908 7050 7211 7212 
1745 975 1908 5069 5366 7211 
783 1399 1837 5447 7127 5173 
1453 546 1763 5059 7117 6634 
1870 23 2024 7011 7213 7214 
1702 965 2082 7215 3640 7024 
1027 1903 2141 6034 7110 5564 
1441 542 1791 4176 5263 6613 
858 1420 2009 7216 7130 7217 
1437 607 1789 5303 6004 6603 
1658 758 1999 7167 7218 6618 
214 1785 1974 4479 7219 6779 
832 1345 2055 4678 7208 6963 
1334 497 2160 3802 6985 7205 
1562 955 2089 3701 7220 7179 
1112 2025 2153 7221 7222 5450 
871 1525 1917 5362 7223 5995 
1483 855 1849 6100 6939 7200 
934 1549 1791 3716 6599 5276 
99 1374 1936 6129 5014 6391 
1502 800 2046 6716 7076 7224 
885 1362 2080 6647 4440 7225 
1395 941 1884 3694 5761 5483 
1960 612 2053 3768 6249 6574 
582 1612 2072 5986 7226 7227 
544 1357 2014 6900 6500 7026 
1525 580 1917 7228 7229 7223 
604 1422 1866 5154 7230 7150 
1387 923 1906 3499 7182 7178 
556 1399 1840 7126 3315 7049 
498 1520 1930 5990 6706 4149 
1605 1221 1993 6463 6726 7231 
1603 588 1834 4733 2669 7232 
1451 881 2065 6683 7233 7234 
932 1529 1812 5620 3949 4451 
1736 861 1970 7235 6485 5634 
881 1685 2064 5884 6038 7236 
1044 1642 1760 5576 7237 5195 
886 1730 1988 7238 7239 5981 
1698 791 1834 7088 7240 7241 
1774 822 1778 7242 5765 7243 
1580 810 1867 4156 6710 7244 
524 1451 2065 6283 7234 5118 
1416 517 1964 2561 2310 7176 
608 1707 1948 5099 5275 7245 
1419 784 1823 6345 7177 2746 
1591 823 1969 2423 5899 3092 
1551 757 1740 7246 6838 5970 
566 1432 1897 6555 2931 7124 
766 1497 1851 2908 4930 6360 
914 1425 1951 6155 7086 6522 
1400 813 1959 3039 4954 7247 
858 1541 1937 7248 6913 7249 
575 1355 2030 2395 5239 6853 
1475 499 2141 4728 5565 7250 
1386 523 2003 3484 4037 6944 
1480 576 1775 4410 5695 5825 
1642 741 1760 5560 6802 7237 
785 1623 1674 3486 7139 4342 
1730 986 1988 4461 7251 7239 
2040 889 2048 6840 4974 7015 
1390 47 1939 6194 6497 6372 
1689 582 2072 6666 7227 7252 
1350 929 2054 3267 6829 6925 
580 1383 1917 7092 6919 7229 
1517 840 1830 5778 7168 7253 
1644 859 1783 7254 7255 7256 
849 1403 2106 6936 7257 6441 
19 1283 1611 6879 5188 7258 
854 1501 2006 7259 6493 6593 
861 1736 1900 7235 7260 6202 
601 1593 1761 2247 7261 7111 
724 1444 1855 6982 4784 7077 
1127 1795 2124 6190 7262 5782 
1349 991 2091 3987 4095 6996 
1517 616 2041 7263 4732 7264 
1795 618 2124 5372 3894 7262 
1501 854 1963 7259 4762 7265 
1736 946 1900 7266 5881 7260 
616 1517 1830 7263 7253 5474 
1103 1350 2066 5048 7099 5840 
524 1965 2029 3533 7267 6284 
1559 794 1739 6267 5724 7192 
1965 1116 2029 4359 4316 7267 
1525 822 1774 7268 7242 7269 
2051 755 2082 6211 7025 7270 
1865 694 2005 4057 7271 7272 
1381 528 1997 4328 4738 3497 
1050 1865 2005 4909 7272 6851 
1526 963 1790 3569 6450 7273 
1422 874 1866 2791 7274 7230 
574 1686 1783 3845 6422 7275 
1427 821 2001 6138 7091 7276 
547 1605 1993 6714 7231 6956 
1512 377 1771 6570 6399 6037 
931 2110 2144 6626 6977 6850 
708 1329 2047 3432 7005 7277 
559 1406 1929 7278 6826 7141 
1485 562 1814 5571 6317 5434 
511 1514 1981 5094 5912 7279 
936 1518 1763 3371 6698 7121 
1538 392 2019 5750 7175 6659 
901 1774 1778 6193 7243 7280 
704 1400 1959 5808 7247 4432 
1143 1464 2084 5593 7281 6475 
848 1406 2045 2821 7282 7283 
1168 2051 2082 6536 7270 4883 
580 1525 1774 7228 7269 6117 
980 1604 1985 2667 7284 7285 
1406 559 2045 7278 7009 7282 
1509 857 1908 7286 7212 7287 
952 1761 1916 7123 7288 3953 
1604 628 1985 3120 2677 7284 
1593 852 1761 6762 7289 7261 
1403 814 1918 5787 6502 7290 
905 1517 2041 2433 7264 6883 
583 1509 1908 7002 7287 5928 
609 1439 1991 7058 7291 5305 
1726 870 1892 7292 7293 7294 
1438 272 2103 3103 7085 7295 
812 1554 2090 5359 7296 7297 
1006 1670 2090 4859 7298 5036 
1420 858 1928 7216 7299 7201 
2025 890 2153 6440 6770 7222 
1631 949 1826 3757 4447 7300 
791 1603 1834 6558 7232 7240 
268 1487 1977 3992 7301 7051 
1296 1923 2150 7148 7302 6885 
1966 992 2046 5915 7173 7075 
694 1411 2005 4575 7046 7271 
1735 847 1779 4265 6676 7303 
568 1526 1790 4117 7273 5498 
1449 72 1854 5691 6908 3125 
894 1735 1779 7010 7303 5519 
336 1720 2118 5664 7120 7094 
1486 884 2083 7095 7304 7305 
1732 938 1758 4226 6993 7306 
582 1427 2001 4166 7276 5987 
530 1486 2083 4606 7305 4579 
1007 1412 1990 5793 5994 5839 
806 1789 2145 6086 6069 7307 
1401 877 2033 2489 7308 6973 
681 1501 1963 7309 7265 7029 
1421 118 2087 2954 7070 7189 
580 1397 2131 6116 6425 7093 
866 1641 2010 3334 7310 5395 
805 1732 1758 7001 7306 6012 
1598 769 1798 6124 4854 4932 
1788 996 1958 3575 7083 7311 
825 1439 1935 7312 3683 5234 
1111 1938 2096 5208 7313 5515 
1938 715 2096 7108 5636 7313 
1829 920 2134 7116 6251 7314 
937 1726 1892 5619 7294 4075 
1024 1725 2040 3826 7315 7014 
1513 1010 2067 5972 6088 5558 
1671 565 1738 5272 3919 7316 
1730 886 1803 7238 7317 7318 
1786 888 1832 2495 4093 7319 
912 1442 1992 7320 6863 4958 
642 1458 2136 6199 5453 6025 
633 1415 2094 5147 7007 5703 
1021 1920 1978 6120 7321 7322 
452 1793 1901 7022 7323 6930 
768 1661 2032 4743 7324 7045 
1702 531 1838 6890 6641 7325 
1602 771 1748 2812 6097 6614 
1507 1118 1861 5716 6197 7122 
1783 859 1832 7255 7326 7327 
1555 827 1999 4895 6778 7328 
856 1671 1738 6524 7316 5687 
1439 825 1991 7312 5403 7291 
508 1730 1803 6703 7318 4781 
1641 1149 2010 6219 6350 7310 
879 1522 2047 4850 7329 7330 
1511 149 1891 6132 6791 6689 
875 1489 1921 7206 7162 7073 
600 1746 2102 6876 7331 5932 
842 1788 1958 4697 7311 6082 
1746 1001 2102 4910 2584 7331 
588 1631 1826 3984 7300 3737 
955 1421 2089 2266 6134 7220 
1793 964 1901 4651 6438 7323 
1738 979 2022 3918 2802 5688 
644 1398 2123 4364 6756 5802 
1515 567 1845 6240 3293 6818 
1522 708 2047 6092 7277 7329 
1644 573 1752 6058 6047 7332 
831 1644 1783 4816 7256 6421 
1750 873 1864 5993 7333 7334 
1477 990 2015 4210 4505 6877 
1920 882 1978 6119 3762 7321 
1485 1114 1942 5700 6045 5572 
1073 1544 1880 5111 7335 5644 
1696 762 1926 5492 7196 7336 
1038 1696 1926 5180 7336 5209 
586 1718 2063 4350 6420 6653 
1184 1501 2007 5379 7337 6955 
984 1817 1835 3773 7338 4059 
1670 812 2090 7339 7297 7298 
1528 819 1933 6695 7340 6947 
786 1475 2141 6671 7250 7109 
1479 876 1948 6528 7341 5141 
1442 912 2145 7320 7342 6068 
1843 682 1896 3726 6596 7343 
79 1581 1841 6721 6301 6503 
506 1688 1924 5947 6814 4683 
859 1786 1832 5792 7319 7326 
970 1438 2103 6799 7295 7344 
876 1592 1948 2654 7345 7341 
1491 571 2011 6322 7204 6238 
822 1525 1875 7268 5363 6604 
1535 727 1913 4644 6911 6518 
1487 883 1977 6797 6753 7301 
1466 994 2027 5258 3194 7163 
1483 853 2034 7186 7134 5903 
859 1644 1752 7254 7332 6786 
939 1803 1907 4693 7346 6620 
1803 886 1907 7317 7347 7346 
1548 486 1916 3583 3954 7348 
685 1542 1923 4338 7349 7147 
1544 708 1880 5127 6093 7335 
753 1536 1911 2782 7350 7351 
1817 823 1835 5898 2842 7338 
1473 857 2059 6888 7352 7353 
77 1580 1867 6223 7244 6868 
852 1548 1916 6205 7348 7354 
1434 783 2116 6469 5174 7063 
1670 627 2135 4858 6347 7355 
1490 997 1952 6397 3207 6685 
1452 860 2121 6902 7065 7356 
501 1452 2121 4242 7356 6394 
919 1503 1996 7357 5836 2281 
988 1568 1883 3337 4988 4919 
621 1473 2059 5117 7353 7171 
1536 854 1911 4761 6592 7350 
1523 151 1980 4473 7113 7358 
1800 495 2117 4307 6443 7359 
1751 1088 1767 5697 5796 7360 
521 1502 2046 5875 7224 6255 
1020 1800 2117 4547 7359 4442 
1448 1122 2136 5589 6026 5452 
1148 1476 2073 5961 7037 6423 
1464 973 2084 3860 7361 7281 
1049 1972 2044 6224 7362 7156 
973 1747 2084 5967 7363 7361 
1093 1557 1957 5668 7364 5673 
1465 838 2088 5702 7161 5224 
1593 845 1856 2531 7062 6763 
1972 871 2044 5252 5446 7362 
727 1478 2112 4643 5484 7042 
1557 723 1957 4772 6959 7364 
1570 846 1925 7365 3544 7366 
757 1551 1882 7246 5833 6784 
1501 681 2007 7309 5554 7337 
789 1751 1767 6472 7360 3272 
1571 549 2095 6451 6990 7135 
895 1523 1980 2323 7358 7039 
581 1577 1879 3189 7185 7209 
1533 595 2125 3470 7367 7368 
1737 879 2047 4110 7330 7004 
1747 509 2084 6771 6476 7363 
1715 842 2087 4696 7190 7369 
1622 935 1839 3365 4322 5715 
516 1467 2081 6434 6488 6645 
488 1570 1925 3049 7366 4866 
1584 855 1914 4839 6101 7193 
901 1778 1864 7280 7370 7371 
1592 608 1948 5625 7245 7345 
576 1693 1935 6979 5235 5696 
1682 584 1907 5830 7132 7372 
819 1634 1933 4017 7115 7340 
857 1509 2059 7286 5812 7352 
1017 1649 1890 5022 5706 7373 
1373 1870 2024 7072 7214 7374 
744 1595 1878 7043 5958 7153 
510 1750 1864 7100 7334 7375 
758 1555 1999 6549 7328 7218 
1503 919 2108 7357 4537 6674 
1585 753 1911 2752 7351 7184 
1688 1108 2123 5946 5803 6984 
1541 858 2028 7248 7376 7377 
905 1698 1834 3410 7241 2668 
1778 510 1864 6137 7375 7370 
886 1682 1907 5980 7372 7347 
1545 619 2122 6108 5405 7378 
858 2009 2028 7217 7379 7376 
1073 1753 1836 5795 7380 5260 
868 1545 2122 3782 7378 5856 
1639 1089 2037 5679 7170 7381 
696 1541 2028 5594 7377 4905 
999 1873 2114 7138 7382 6600 
1650 1120 1929 6235 7165 6974 
943 1814 2130 6183 6894 6773 
1787 849 1827 6937 6918 7383 
873 1802 1864 3994 7384 7333 
2009 1063 2028 5045 4906 7379 
1554 554 2090 6297 5037 7296 
1496 721 2155 6314 6145 6143 
894 1543 2077 5518 6986 5975 
1624 908 1924 6188 3047 6931 
1646 812 2135 6459 7385 7386 
816 1373 2024 6992 7374 4430 
1958 590 2089 6921 7180 6083 
1535 535 2085 6125 5112 4759 
1112 1724 2025 4811 7387 7221 
1807 1192 1813 6696 6694 7388 
1017 1890 2146 7373 7389 3603 
928 1558 2060 3454 7207 3438 
1052 1665 1983 5457 7390 5135 
795 1807 1813 7048 7388 6401 
1226 1533 2125 6436 7368 6969 
965 1702 1838 7215 7325 3905 
1753 833 1836 6822 5801 7380 
1542 837 1923 2298 7391 7349 
1665 916 1983 4256 2657 7390 
1601 940 1981 3387 7392 6094 
992 1843 1896 3177 7343 7172 
940 1827 1981 7393 7394 7392 
940 1787 1827 6293 7383 7393 
1727 790 1996 7197 3408 5862 
812 1670 2135 7339 7355 7385 
1827 511 1981 6946 7279 7394 
846 1570 2057 7365 4528 6870 
1922 632 1988 3425 3226 7395 
804 1703 1984 6655 7149 7104 
1890 668 2146 6929 4950 7389 
1612 1172 2072 6663 6816 7226 
1866 874 1954 7274 6761 7396 
986 1922 1988 2595 7395 7251 
1626 74 2033 6581 6811 7397 
877 1626 2033 6514 7397 7308 
1573 686 2144 5418 4647 7174 
1684 841 1960 5371 6448 6842 
0 1829 2134 7125 7314 7158 
997 1967 2039 6398 7398 2592 
892 1583 2149 2790 7140 4790 
835 1653 2000 6237 7159 6551 
1627 865 2140 2361 7399 7400 
1802 901 1864 4449 7371 7384 
995 1866 1954 7194 7396 3803 
1976 1238 2104 6943 6909 7401 
1967 870 2039 6412 7402 7398 
1757 983 2154 6864 6072 7027 
851 1932 1943 6665 7403 7038 
1661 1032 2032 5388 7128 7324 
1932 1062 1943 5164 5269 7403 
1616 1264 2098 6712 7053 7404 
1205 1956 2008 6757 7405 6903 
945 1616 2098 2404 7404 4975 
2069 1058 2083 4295 4580 7406 
1956 833 2008 6331 6906 7405 
1761 852 1916 7289 7354 7288 
1681 571 2115 6539 6324 7407 
574 1783 1832 7275 7327 6444 
778 1689 2072 3525 7252 6815 
884 2069 2083 6991 7406 7304 
1726 605 2039 2732 2593 7408 
1459 1031 2118 3633 4533 7119 
489 1627 2140 6177 7400 6795 
1243 1944 2045 6997 7409 7008 
1723 637 2073 6017 6424 7191 
906 1681 2115 6832 7407 7410 
1675 834 2058 6185 7000 5943 
1766 1004 2016 2838 7411 7412 
1934 885 1941 6648 3870 7413 
1403 1918 2106 7290 7414 7257 
631 1766 2016 2996 7412 5390 
1979 492 2126 5584 4408 7415 
962 1934 1941 4526 7413 3368 
1762 270 2105 5971 7144 5785 
1154 1646 2135 6373 7386 6346 
1741 885 2080 5834 7225 7416 
989 1639 2037 7129 7381 7417 
672 1986 2113 3896 7418 6722 
1724 675 2025 5628 6075 7387 
1986 1029 2113 4018 5430 7418 
1785 832 1974 5254 6962 7219 
1085 1677 2095 5772 7188 7079 
1035 1979 2126 4775 7415 3793 
1759 559 1947 6545 7143 6104 
870 1726 2039 7292 7408 7402 
1725 644 2040 4572 6368 7315 
765 1423 2154 6831 7028 6759 
366 1870 2099 7012 7419 7195 
881 2064 2065 7236 7420 7233 
2064 1078 2065 5086 5119 7420 
595 1892 2125 4006 7421 7367 
912 1744 2145 6538 7422 7342 
273 1886 2103 6769 7423 7084 
1886 970 2103 5853 7344 7423 
583 1741 2080 5927 7416 6766 
1928 858 1937 7299 7249 7424 
1090 1928 1937 5855 7424 6390 
1744 806 2145 6519 7307 7422 
1846 1008 2049 3641 7425 7426 
2037 640 2050 7183 7068 7427 
663 1846 2049 4660 7426 2374 
1736 31 2152 5329 7155 7428 
2115 1057 2138 6351 4474 7429 
1892 870 2125 7293 6970 7421 
1985 942 2053 3056 6575 7430 
906 2115 2138 7410 7429 6229 
946 1736 2152 7266 7428 6491 
950 2016 2107 5265 7431 4054 
989 2037 2050 7417 7427 4248 
980 1985 2053 7285 7430 6274 
1008 2026 2132 3249 7432 7433 
119 1715 2087 5532 7369 7069 
2049 1008 2132 7425 7433 7434 
2016 1004 2107 7411 4274 7431 
2026 519 2132 6015 2739 7432 
958 2049 2132 2478 7434 2794 
1015 1848 2156 4348 7435 3607 
1848 677 2156 6328 6384 7435 
1944 848 2045 5013 7283 7409 
935 1872 2127 3697 7436 6841 
1873 896 2114 3835 5847 7382 
865 2031 2140 5563 7437 7399 
1872 533 2127 6303 5626 7436 
1870 951 2099 7071 7017 7419 
2043 387 2148 6474 7166 7438 
1021 1978 2092 7322 7439 3284 
1978 627 2092 4418 2393 7439 
1918 570 2106 6554 6531 7414 
862 1976 2104 7157 7401 6793 
1405 360 2067 3620 5559 6087 
1018 2043 2148 5009 7438 5122 
2031 1203 2140 6874 6796 7437 
1923 837 2150 7391 7210 7302 
354 19 1611 356 7258 7035 
23 369 2024 370 4431 7213 
369 24 1810 371 6846 5907 
5 197 837 198 3028 2297 
      </DataArray>
      <DataArray type="Int32" Name="offsets" format="ascii">
6
12
18
24
30
36
42
48
54
60
66
72
78
84
90
96
102
108
114
120
126
132
138
144
150
156
162
168
174
180
186
192
198
204
210
216
222
228
234
240
246
252
258
264
270
276
282
288
294
300
306
312
318
324
330
336
342
348
354
360
366
372
378
384
390
396
402
408
414
420
426
432
438
444
450
456
462
468
474
480
486
492
498
504
510
516
522
528
534
540
546
552
558
564
570
576
582
588
594
600
606
612
618
624
630
636
642
648
654
660
666
672
678
684
690
696
702
708
714
720
726
732
738
744
750
756
762
768
774
780
786
792
798
804
810
816
822
828
834
840
846
852
858
864
870
876
882
888
894
900
906
912
918
924
930
936
942
948
954
960
966
972
978
984
990
996
1002
1008
1014
1020
1026
1032
1038
1044
1050
1056
1062
1068
1074
1080
1086
1092
1098
1104
1110
1116
1122
1128
1134
1140
1146
1152
1158
1164
1170
1176
1182
1188
1194
1200
1206
1212
1218
1224
1230
1236
1242
1248
1254
1260
1266
1272
1278
1284
1290
1296
1302
1308
1314
1320
1326
1332
1338
1344
1350
1356
1362
1368
1374
1380
1386
1392
1398
1404
1410
1416
1422
1428
1434
1440
1446
1452
1458
1464
1470
1476
1482
1488
1494
1500
1506
1512
1518
1524
1530
1536
1542
1548
1554
1560
1566
1572
1578
1584
1590
1596
1602
1608
1614
1620
1626
1632
1638
1644
1650
1656
1662
1668
1674
1680
1686
1692
1698
1704
1710
1716
1722
1728
1734
1740
1746
1752
1758
1764
1770
1776
1782
1788
1794
1800
1806
1812
1818
1824
1830
1836
1842
1848
1854
1860
1866
1872
1878
1884
1890
1896
1902
1908
1914
1920
1926
1932
1938
1944
1950
1956
1962
1968
1974
1980
1986
1992
1998
2004
2010
2016
2022
2028
2034
2040
2046
2052
2058
2064
2070
2076
2082
2088
2094
2100
2106
2112
2118
2124
2130
2136
2142
2148
2154
2160
2166
2172
2178
2184
2190
2196
2202
2208
2214
2220
2226
2232
2238
2244
2250
2256
2262
2268
2274
2280
2286
2292
2298
2304
2310
2316
2322
2328
2334
2340
2346
2352
2358
2364
2370
2376
2382
2388
2394
2400
2406
2412
2418
2424
2430
2436
2442
2448
2454
2460
2466
2472
2478
2484
2490
2496
2502
2508
2514
2520
2526
2532
2538
2544
2550
2556
2562
2568
2574
2580
2586
2592
2598
2604
2610
2616
2622
2628
2634
2640
2646
2652
2658
2664
2670
2676
2682
2688
2694
2700
2706
2712
2718
2724
2730
2736
2742
2748
2754
2760
2766
2772
2778
2784
2790
2796
2802
2808
2814
2820
2826
2832
2838
2844
2850
2856
2862
2868
2874
2880
2886
2892
2898
2904
2910
2916
2922
2928
2934
2940
2946
2952
2958
2964
2970
2976
2982
2988
2994
3000
3006
3012
3018
3024
3030
3036
3042
3048
3054
3060
3066
3072
3078
3084
3090
3096
3102
3108
3114
3120
3126
3132
3138
3144
3150
3156
3162
3168
3174
3180
3186
3192
3198
3204
3210
3216
3222
3228
3234
3240
3246
3252
3258
3264
3270
3276
3282
3288
3294
3300
3306
3312
3318
3324
3330
3336
3342
3348
3354
3360
3366
3372
3378
3384
3390
3396
3402
3408
3414
3420
3426
3432
3438
3444
3450
3456
3462
3468
3474
3480
3486
3492
3498
3504
3510
3516
3522
3528
3534
3540
3546
3552
3558
3564
3570
3576
3582
3588
3594
3600
3606
3612
3618
3624
3630
3636
3642
3648
3654
3660
3666
3672
3678
3684
3690
3696
3702
3708
3714
3720
3726
3732
3738
3744
3750
3756
3762
3768
3774
3780
3786
3792
3798
3804
3810
3816
3822
3828
3834
3840
3846
3852
3858
3864
3870
3876
3882
3888
3894
3900
3906
3912
3918
3924
3930
3936
3942
3948
3954
3960
3966
3972
3978
3984
3990
3996
4002
4008
4014
4020
4026
4032
4038
4044
4050
4056
4062
4068
4074
4080
4086
4092
4098
4104
4110
4116
4122
4128
4134
4140
4146
4152
4158
4164
4170
4176
4182
4188
4194
4200
4206
4212
4218
4224
4230
4236
4242
4248
4254
4260
4266
4272
4278
4284
4290
4296
4302
4308
4314
4320
4326
4332
4338
4344
4350
4356
4362
4368
4374
4380
4386
4392
4398
4404
4410
4416
4422
4428
4434
4440
4446
4452
4458
4464
4470
4476
4482
4488
4494
4500
4506
4512
4518
4524
4530
4536
4542
4548
4554
4560
4566
4572
4578
4584
4590
4596
4602
4608
4614
4620
4626
4632
4638
4644
4650
4656
4662
4668
4674
4680
4686
4692
4698
4704
4710
4716
4722
4728
4734
4740
4746
4752
4758
4764
4770
4776
4782
4788
4794
4800
4806
4812
4818
4824
4830
4836
4842
4848
4854
4860
4866
4872
4878
4884
4890
4896
4902
4908
4914
4920
4926
4932
4938
4944
4950
4956
4962
4968
4974
4980
4986
4992
4998
5004
5010
5016
5022
5028
5034
5040
5046
5052
5058
5064
5070
5076
5082
5088
5094
5100
5106
5112
5118
5124
5130
5136
5142
5148
5154
5160
5166
5172
5178
5184
5190
5196
5202
5208
5214
5220
5226
5232
5238
5244
5250
5256
5262
5268
5274
5280
5286
5292
5298
5304
5310
5316
5322
5328
5334
5340
5346
5352
5358
5364
5370
5376
5382
5388
5394
5400
5406
5412
5418
5424
5430
5436
5442
5448
5454
5460
5466
5472
5478
5484
5490
5496
5502
5508
5514
5520
5526
5532
5538
5544
5550
5556
5562
5568
5574
5580
5586
5592
5598
5604
5610
5616
5622
5628
5634
5640
5646
5652
5658
5664
5670
5676
5682
5688
5694
5700
5706
5712
5718
5724
5730
5736
5742
5748
5754
5760
5766
5772
5778
5784
5790
5796
5802
5808
5814
5820
5826
5832
5838
5844
5850
5856
5862
5868
5874
5880
5886
5892
5898
5904
5910
5916
5922
5928
5934
5940
5946
5952
5958
5964
5970
5976
5982
5988
5994
6000
6006
6012
6018
6024
6030
6036
6042
6048
6054
6060
6066
6072
6078
6084
6090
6096
6102
6108
6114
6120
6126
6132
6138
6144
6150
6156
6162
6168
6174
6180
6186
6192
6198
6204
6210
6216
6222
6228
6234
6240
6246
6252
6258
6264
6270
6276
6282
6288
6294
6300
6306
6312
6318
6324
6330
6336
6342
6348
6354
6360
6366
6372
6378
6384
6390
6396
6402
6408
6414
6420
6426
6432
6438
6444
6450
6456
6462
6468
6474
6480
6486
6492
6498
6504
6510
6516
6522
6528
6534
6540
6546
6552
6558
6564
6570
6576
6582
6588
6594
6600
6606
6612
6618
6624
6630
6636
6642
6648
6654
6660
6666
6672
6678
6684
6690
6696
6702
6708
6714
6720
6726
6732
6738
6744
6750
6756
6762
6768
6774
6780
6786
6792
6798
6804
6810
6816
6822
6828
6834
6840
6846
6852
6858
6864
6870
6876
6882
6888
6894
6900
6906
6912
6918
6924
6930
6936
6942
6948
6954
6960
6966
6972
6978
6984
6990
6996
7002
7008
7014
7020
7026
7032
7038
7044
7050
7056
7062
7068
7074
7080
7086
7092
7098
7104
7110
7116
7122
7128
7134
7140
7146
7152
7158
7164
7170
7176
7182
7188
7194
7200
7206
7212
7218
7224
7230
7236
7242
7248
7254
7260
7266
7272
7278
7284
7290
7296
7302
7308
7314
7320
7326
7332
7338
7344
7350
7356
7362
7368
7374
7380
7386
7392
7398
7404
7410
7416
7422
7428
7434
7440
7446
7452
7458
7464
7470
7476
7482
7488
7494
7500
7506
7512
7518
7524
7530
7536
7542
7548
7554
7560
7566
7572
7578
7584
7590
7596
7602
7608
7614
7620
7626
7632
7638
7644
7650
7656
7662
7668
7674
7680
7686
7692
7698
7704
7710
7716
7722
7728
7734
7740
7746
7752
7758
7764
7770
7776
7782
7788
7794
7800
7806
7812
7818
7824
7830
7836
7842
7848
7854
7860
7866
7872
7878
7884
7890
7896
7902
7908
7914
7920
7926
7932
7938
7944
7950
7956
7962
7968
7974
7980
7986
7992
7998
8004
8010
8016
8022
8028
8034
8040
8046
8052
8058
8064
8070
8076
8082
8088
8094
8100
8106
8112
8118
8124
8130
8136
8142
8148
8154
8160
8166
8172
8178
8184
8190
8196
8202
8208
8214
8220
8226
8232
8238
8244
8250
8256
8262
8268
8274
8280
8286
8292
8298
8304
8310
8316
8322
8328
8334
8340
8346
8352
8358
8364
8370
8376
8382
8388
8394
8400
8406
8412
8418
8424
8430
8436
8442
8448
8454
8460
8466
8472
8478
8484
8490
8496
8502
8508
8514
8520
8526
8532
8538
8544
8550
8556
8562
8568
8574
8580
8586
8592
8598
8604
8610
8616
8622
8628
8634
8640
8646
8652
8658
8664
8670
8676
8682
8688
8694
8700
8706
8712
8718
8724
8730
8736
8742
8748
8754
8760
8766
8772
8778
8784
8790
8796
8802
8808
8814
8820
8826
8832
8838
8844
8850
8856
8862
8868
8874
8880
8886
8892
8898
8904
8910
8916
8922
8928
8934
8940
8946
8952
8958
8964
8970
8976
8982
8988
8994
9000
9006
9012
9018
9024
9030
9036
9042
9048
9054
9060
9066
9072
9078
9084
9090
9096
9102
9108
9114
9120
9126
9132
9138
9144
9150
9156
9162
9168
9174
9180
9186
9192
9198
9204
9210
9216
9222
9228
9234
9240
9246
9252
9258
9264
9270
9276
9282
9288
9294
9300
9306
9312
9318
9324
9330
9336
9342
9348
9354
9360
9366
9372
9378
9384
9390
9396
9402
9408
9414
9420
9426
9432
9438
9444
9450
9456
9462
9468
9474
9480
9486
9492
9498
9504
9510
9516
9522
9528
9534
9540
9546
9552
9558
9564
9570
9576
9582
9588
9594
9600
9606
9612
9618
9624
9630
9636
9642
9648
9654
9660
9666
9672
9678
9684
9690
9696
9702
9708
9714
9720
9726
9732
9738
9744
9750
9756
9762
9768
9774
9780
9786
9792
9798
9804
9810
9816
9822
9828
9834
9840
9846
9852
9858
9864
9870
9876
9882
9888
9894
9900
9906
9912
9918
9924
9930
9936
9942
9948
9954
9960
9966
9972
9978
9984
9990
9996
10002
10008
10014
10020
10026
10032
10038
10044
10050
10056
10062
10068
10074
10080
10086
10092
10098
10104
10110
10116
10122
10128
10134
10140
10146
10152
10158
10164
10170
10176
10182
10188
10194
10200
10206
10212
10218
10224
10230
10236
10242
10248
10254
10260
10266
10272
10278
10284
10290
10296
10302
10308
10314
10320
10326
10332
10338
10344
10350
10356
10362
10368
10374
10380
10386
10392
10398
10404
10410
10416
10422
10428
10434
10440
10446
10452
10458
10464
10470
10476
10482
10488
10494
10500
10506
10512
10518
10524
10530
10536
10542
10548
10554
10560
10566
10572
10578
10584
10590
10596
10602
10608
10614
10620
10626
10632
10638
10644
10650
10656
10662
10668
10674
10680
10686
10692
10698
10704
10710
10716
10722
10728
10734
10740
10746
10752
10758
10764
10770
10776
10782
10788
10794
10800
10806
10812
10818
10824
10830
10836
10842
10848
10854
10860
10866
10872
10878
10884
10890
10896
10902
10908
10914
10920
10926
10932
10938
10944
10950
10956
10962
10968
10974
10980
10986
10992
10998
11004
11010
11016
11022
11028
11034
11040
11046
11052
11058
11064
11070
11076
11082
11088
11094
11100
11106
11112
11118
11124
11130
11136
11142
11148
11154
11160
11166
11172
11178
11184
11190
11196
11202
11208
11214
11220
11226
11232
11238
11244
11250
11256
11262
11268
11274
11280
11286
11292
11298
11304
11310
11316
11322
11328
11334
11340
11346
11352
11358
11364
11370
11376
11382
11388
11394
11400
11406
11412
11418
11424
11430
11436
11442
11448
11454
11460
11466
11472
11478
11484
11490
11496
11502
11508
11514
11520
11526
11532
11538
11544
11550
11556
11562
11568
11574
11580
11586
11592
11598
11604
11610
11616
11622
11628
11634
11640
11646
11652
11658
11664
11670
11676
11682
11688
11694
11700
11706
11712
11718
11724
11730
11736
11742
11748
11754
11760
11766
11772
11778
11784
11790
11796
11802
11808
11814
11820
11826
11832
11838
11844
11850
11856
11862
11868
11874
11880
11886
11892
11898
11904
11910
11916
11922
11928
11934
11940
11946
11952
11958
11964
11970
11976
11982
11988
11994
12000
12006
12012
12018
12024
12030
12036
12042
12048
12054
12060
12066
12072
12078
12084
12090
12096
12102
12108
12114
12120
12126
12132
12138
12144
12150
12156
12162
12168
12174
12180
12186
12192
12198
12204
12210
12216
12222
12228
12234
12240
12246
12252
12258
12264
12270
12276
12282
12288
12294
12300
12306
12312
12318
12324
12330
12336
12342
12348
12354
12360
12366
12372
12378
12384
12390
12396
12402
12408
12414
12420
12426
12432
12438
12444
12450
12456
12462
12468
12474
12480
12486
12492
12498
12504
12510
12516
12522
12528
12534
12540
12546
12552
12558
12564
12570
12576
12582
12588
12594
12600
12606
12612
12618
12624
12630
12636
12642
12648
12654
12660
12666
12672
12678
12684
12690
12696
12702
12708
12714
12720
12726
12732
12738
12744
12750
12756
12762
12768
12774
12780
12786
12792
12798
12804
12810
12816
12822
12828
12834
12840
12846
12852
12858
12864
12870
12876
12882
12888
12894
12900
12906
12912
12918
12924
12930
12936
12942
12948
12954
12960
12966
12972
12978
12984
12990
12996
13002
13008
13014
13020
13026
13032
13038
13044
13050
13056
13062
13068
13074
13080
13086
13092
13098
13104
13110
13116
13122
13128
13134
13140
13146
13152
13158
13164
13170
13176
13182
13188
13194
13200
13206
13212
13218
13224
13230
13236
13242
13248
13254
13260
13266
13272
13278
13284
13290
13296
13302
13308
13314
13320
13326
13332
13338
13344
13350
13356
13362
13368
13374
13380
13386
13392
13398
13404
13410
13416
13422
13428
13434
13440
13446
13452
13458
13464
13470
13476
13482
13488
13494
13500
13506
13512
13518
13524
13530
13536
13542
13548
13554
13560
13566
13572
13578
13584
13590
13596
13602
13608
13614
13620
13626
13632
13638
13644
13650
13656
13662
13668
13674
13680
13686
13692
13698
13704
13710
13716
13722
13728
13734
13740
13746
13752
13758
13764
13770
13776
13782
13788
13794
13800
13806
13812
13818
13824
13830
13836
13842
13848
13854
13860
13866
13872
13878
13884
13890
13896
13902
13908
13914
13920
13926
13932
13938
13944
13950
13956
13962
13968
13974
13980
13986
13992
13998
14004
14010
14016
14022
14028
14034
14040
14046
14052
14058
14064
14070
14076
14082
14088
14094
14100
14106
14112
14118
14124
14130
14136
14142
14148
14154
14160
14166
14172
14178
14184
14190
14196
14202
14208
14214
14220
14226
14232
14238
14244
14250
14256
14262
14268
14274
14280
14286
14292
14298
14304
14310
14316
14322
14328
14334
14340
14346
14352
14358
14364
14370
14376
14382
14388
14394
14400
14406
14412
14418
14424
14430
14436
14442
14448
14454
14460
14466
14472
14478
14484
14490
14496
14502
14508
14514
14520
14526
14532
14538
14544
14550
14556
14562
14568
14574
14580
14586
14592
14598
14604
14610
14616
14622
14628
14634
14640
14646
14652
14658
14664
14670
14676
14682
14688
14694
14700
14706
14712
14718
14724
14730
14736
14742
14748
14754
14760
14766
14772
14778
14784
14790
14796
14802
14808
14814
14820
14826
14832
14838
14844
14850
14856
14862
14868
14874
14880
14886
14892
14898
14904
14910
14916
14922
14928
14934
14940
14946
14952
14958
14964
14970
14976
14982
14988
14994
15000
15006
15012
15018
15024
15030
15036
15042
15048
15054
15060
15066
15072
15078
15084
15090
15096
15102
15108
15114
15120
15126
15132
15138
15144
15150
15156
15162
15168
15174
15180
15186
15192
15198
15204
15210
15216
15222
15228
15234
15240
15246
15252
15258
15264
15270
15276
15282
15288
15294
15300
15306
15312
15318
15324
15330
15336
15342
15348
15354
15360
15366
15372
15378
15384
15390
15396
15402
15408
15414
15420
15426
15432
15438
15444
15450
15456
15462
15468
15474
15480
15486
15492
15498
15504
15510
15516
15522
15528
15534
15540
15546
15552
15558
15564
15570
15576
15582
15588
15594
15600
15606
15612
15618
15624
15630
15636
15642
15648
15654
15660
15666
15672
15678
15684
15690
15696
15702
15708
15714
15720
15726
15732
15738
15744
15750
15756
15762
15768
15774
15780
15786
15792
15798
15804
15810
15816
15822
15828
15834
15840
15846
15852
15858
15864
15870
15876
15882
15888
15894
15900
15906
15912
15918
15924
15930
15936
15942
15948
15954
15960
15966
15972
15978
15984
15990
15996
16002
16008
16014
16020
16026
16032
16038
16044
16050
16056
16062
16068
16074
16080
16086
16092
16098
16104
16110
16116
16122
16128
16134
16140
16146
16152
16158
16164
16170
16176
16182
16188
16194
16200
16206
16212
16218
16224
16230
16236
16242
16248
16254
16260
16266
16272
16278
16284
16290
16296
16302
16308
16314
16320
16326
16332
16338
16344
16350
16356
16362
16368
16374
16380
16386
16392
16398
16404
16410
16416
16422
16428
16434
16440
16446
16452
16458
16464
16470
16476
16482
16488
16494
16500
16506
16512
16518
16524
16530
16536
16542
16548
16554
16560
16566
16572
16578
16584
16590
16596
16602
16608
16614
16620
16626
16632
16638
16644
16650
16656
16662
16668
16674
16680
16686
16692
16698
16704
16710
16716
16722
16728
16734
16740
16746
16752
16758
16764
16770
16776
16782
16788
16794
16800
16806
16812
16818
16824
16830
16836
16842
16848
16854
16860
16866
16872
16878
16884
16890
16896
16902
16908
16914
16920
16926
16932
16938
16944
16950
16956
16962
16968
16974
16980
16986
16992
16998
17004
17010
17016
17022
17028
17034
17040
17046
17052
17058
17064
17070
17076
17082
17088
17094
17100
17106
17112
17118
17124
17130
17136
17142
17148
17154
17160
17166
17172
17178
17184
17190
17196
17202
17208
17214
17220
17226
17232
17238
17244
17250
17256
17262
17268
17274
17280
17286
17292
17298
17304
17310
17316
17322
17328
17334
17340
17346
17352
17358
17364
17370
17376
17382
17388
17394
17400
17406
17412
17418
17424
17430
17436
17442
17448
17454
17460
17466
17472
17478
17484
17490
17496
17502
17508
17514
17520
17526
17532
17538
17544
17550
17556
17562
17568
17574
17580
17586
17592
17598
17604
17610
17616
17622
17628
17634
17640
17646
17652
17658
17664
17670
17676
17682
17688
17694
17700
17706
17712
17718
17724
17730
17736
17742
17748
17754
17760
17766
17772
17778
17784
17790
17796
17802
17808
17814
17820
17826
17832
17838
17844
17850
17856
17862
17868
17874
17880
17886
17892
17898
17904
17910
17916
17922
17928
17934
17940
17946
17952
17958
17964
17970
17976
17982
17988
17994
18000
18006
18012
18018
18024
18030
18036
18042
18048
18054
18060
18066
18072
18078
18084
18090
18096
18102
18108
18114
18120
18126
18132
18138
18144
18150
18156
18162
18168
18174
18180
18186
18192
18198
18204
18210
18216
18222
18228
18234
18240
18246
18252
18258
18264
18270
18276
18282
18288
18294
18300
18306
18312
18318
18324
18330
18336
18342
18348
18354
18360
18366
18372
18378
18384
18390
18396
18402
18408
18414
18420
18426
18432
18438
18444
18450
18456
18462
18468
18474
18480
18486
18492
18498
18504
18510
18516
18522
18528
18534
18540
18546
18552
18558
18564
18570
18576
18582
18588
18594
18600
18606
18612
18618
18624
18630
18636
18642
18648
18654
18660
18666
18672
18678
18684
18690
18696
18702
18708
18714
18720
18726
18732
18738
18744
18750
18756
18762
18768
18774
18780
18786
18792
18798
18804
18810
18816
18822
18828
18834
18840
18846
18852
18858
18864
18870
18876
18882
18888
18894
18900
18906
18912
18918
18924
18930
18936
18942
18948
18954
18960
18966
18972
18978
18984
18990
18996
19002
19008
19014
19020
19026
19032
19038
19044
19050
19056
19062
19068
19074
19080
19086
19092
19098
19104
19110
19116
19122
19128
19134
19140
19146
19152
19158
19164
19170
19176
19182
19188
19194
19200
19206
19212
19218
19224
19230
19236
19242
19248
19254
19260
19266
19272
19278
19284
19290
19296
19302
19308
19314
19320
19326
19332
19338
19344
19350
19356
19362
19368
19374
19380
19386
19392
19398
19404
19410
19416
19422
19428
19434
19440
19446
19452
19458
19464
19470
19476
19482
19488
19494
19500
19506
19512
19518
19524
19530
19536
19542
19548
19554
19560
19566
19572
19578
19584
19590
19596
19602
19608
19614
19620
19626
19632
19638
19644
19650
19656
19662
19668
19674
19680
19686
19692
19698
19704
19710
19716
19722
19728
19734
19740
19746
19752
19758
19764
19770
19776
19782
19788
19794
19800
19806
19812
19818
19824
19830
19836
19842
19848
19854
19860
19866
19872
19878
19884
19890
19896
19902
19908
19914
19920
19926
19932
19938
19944
19950
19956
19962
19968
19974
19980
19986
19992
19998
20004
20010
20016
20022
20028
20034
20040
20046
20052
20058
20064
20070
20076
20082
20088
20094
20100
20106
20112
20118
20124
20130
20136
20142
20148
20154
20160
20166
20172
20178
20184
20190
20196
20202
20208
20214
20220
20226
20232
20238
20244
20250
20256
20262
20268
20274
20280
20286
20292
20298
20304
20310
20316
20322
20328
20334
20340
20346
20352
20358
20364
20370
20376
20382
20388
20394
20400
20406
20412
20418
20424
20430
20436
20442
20448
20454
20460
20466
20472
20478
20484
20490
20496
20502
20508
20514
20520
20526
20532
20538
20544
20550
20556
20562
20568
20574
20580
20586
20592
20598
20604
20610
20616
20622
20628
20634
20640
20646
20652
20658
20664
20670
20676
20682
20688
20694
20700
20706
20712
20718
20724
20730
20736
20742
20748
20754
20760
20766
20772
20778
20784
20790
20796
20802
20808
20814
20820
20826
20832
20838
20844
20850
20856
20862
20868
20874
20880
20886
20892
20898
20904
20910
20916
20922
20928
20934
20940
20946
20952
20958
20964
20970
20976
20982
20988
20994
21000
21006
21012
21018
21024
21030
21036
21042
21048
21054
21060
21066
21072
21078
21084
21090
21096
21102
21108
21114
21120
21126
21132
21138
21144
21150
21156
21162
21168
21174
21180
21186
21192
21198
21204
21210
21216
21222
21228
21234
21240
21246
21252
21258
21264
21270
21276
21282
21288
21294
21300
21306
21312
21318
21324
21330
21336
21342
21348
21354
21360
21366
21372
21378
21384
21390
21396
21402
21408
21414
21420
21426
21432
21438
21444
21450
21456
21462
21468
21474
21480
21486
21492
21498
21504
21510
21516
21522
21528
21534
21540
21546
21552
21558
21564
21570
21576
21582
21588
21594
      </DataArray>
      <DataArray type="UInt8" Name="types" format="ascii">
69
69
69
69
69
69
69
69
69
69
69
69
69
69
69
69
69
69
69
69
69
69
69
69
69
69
69
69
69
69
69
69
69
69
69
69
69
69
69
69
69
69
69
69
69
69
69
69
69
69
69
69
69
69
69
69
69
69
69
69
69
69
69
69
69
69
69
69
69
69
69
69
69
69
69
69
69
69
69
69
69
69
69
69
69
69
69
69
69
69
69
69
69
69
69
69
69
69
69
69
69
69
69
69
69
69
69
69
69
69
69
69
69
69
69
69
69
69
69
69
69
69
69
69
69
69
69
69
69
69
69
69
69
69
69
69
69
69
69
69
69
69
69
69
69
69
69
69
69
69
69
69
69
69
69
69
69
69
69
69
69
69
69
69
69
69
69
69
69
69
69
69
69
69
69
69
69
69
69
69
69
69
69
69
69
69
69
69
69
69
69
69
69
69
69
69
69
69
69
69
69
69
69
69
69
69
69
69
69
69
69
69
69
69
69
69
69
69
69
69
69
69
69
69
69
69
69
69
69
69
69
69
69
69
69
69
69
69
69
69
69
69
69
69
69
69
69
69
69
69
69
69
69
69
69
69
69
69
69
69
69
69
69
69
69
69
69
69
69
69
69
69
69
69
69
69
69
69
69
69
69
69
69
69
69
69
69
69
69
69
69
69
69
69
69
69
69
69
69
69
69
69
69
69
69
69
69
69
69
69
69
69
69
69
69
69
69
69
69
69
69
69
69
69
69
69
69
69
69
69
69
69
69
69
69
69
69
69
69
69
69
69
69
69
69
69
69
69
69
69
69
69
69
69
69
69
69
69
69
69
69
69
69
69
69
69
69
69
69
69
69
69
69
69
69
69
69
69
69
69
69
69
69
69
69
69
69
69
69
69
69
69
69
69
69
69
69
69
69
69
69
69
69
69
69
69
69
69
69
69
69
69
69
69
69
69
69
69
69
69
69
69
69
69
69
69
69
69
69
69
69
69
69
69
69
69
69
69
69
69
69
69
69
69
69
69
69
69
69
69
69
69
69
69
69
69
69
69
69
69
69
69
69
69
69
69
69
69
69
69
69
69
69
69
69
69
69
69
69
69
69
69
69
69
69
69
69
69
69
69
69
69
69
69
69
69
69
69
69
69
69
69
69
69
69
69
69
69
69
69
69
69
69
69
69
69
69
69
69
69
69
69
69
69
69
69
69
69
69
69
69
69
69
69
69
69
69
69
69
69
69
69
69
69
69
69
69
69
69
69
69
69
69
69
69
69
69
69
69
69
69
69
69
69
69
69
69
69
69
69
69
69
69
69
69
69
69
69
69
69
69
69
69
69
69
69
69
69
69
69
69
69
69
69
69
69
69
69
69
69
69
69
69
69
69
69
69
69
69
69
69
69
69
69
69
69
69
69
69
69
69
69
69
69
69
69
69
69
69
69
69
69
69
69
69
69
69
69
69
69
69
69
69
69
69
69
69
69
69
69
69
69
69
69
69
69
69
69
69
69
69
69
69
69
69
69
69
69
69
69
69
69
69
69
69
69
69
69
69
69
69
69
69
69
69
69
69
69
69
69
69
69
69
69
69
69
69
69
69
69
69
69
69
69
69
69
69
69
69
69
69
69
69
69
69
69
69
69
69
69
69
69
69
69
69
69
69
69
69
69
69
69
69
69
69
69
69
69
69
69
69
69
69
69
69
69
69
69
69
69
69
69
69
69
69
69
69
69
69
69
69
69
69
69
69
69
69
69
69
69
69
69
69
69
69
69
69
69
69
69
69
69
69
69
69
69
69
69
69
69
69
69
69
69
69
69
69
69
69
69
69
69
69
69
69
69
69
69
69
69
69
69
69
69
69
69
69
69
69
69
69
69
69
69
69
69
69
69
69
69
69
69
69
69
69
69
69
69
69
69
69
69
69
69
69
69
69
69
69
69
69
69
69
69
69
69
69
69
69
69
69
69
69
69
69
69
69
69
69
69
69
69
69
69
69
69
69
69
69
69
69
69
69
69
69
69
69
69
69
69
69
69
69
69
69
69
69
69
69
69
69
69
69
69
69
69
69
69
69
69
69
69
69
69
69
69
69
69
69
69
69
69
69
69
69
69
69
69
69
69
69
69
69
69
69
69
69
69
69
69
69
69
69
69
69
69
69
69
69
69
69
69
69
69
69
69
69
69
69
69
69
69
69
69
69
69
69
69
69
69
69
69
69
69
69
69
69
69
69
69
69
69
69
69
69
69
69
69
69
69
69
69
69
69
69
69
69
69
69
69
69
69
69
69
69
69
69
69
69
69
69
69
69
69
69
69
69
69
69
69
69
69
69
69
69
69
69
69
69
69
69
69
69
69
69
69
69
69
69
69
69
69
69
69
69
69
69
69
69
69
69
69
69
69
69
69
69
69
69
69
69
69
69
69
69
69
69
69
69
69
69
69
69
69
69
69
69
69
69
69
69
69
69
69
69
69
69
69
69
69
69
69
69
69
69
69
69
69
69
69
69
69
69
69
69
69
69
69
69
69
69
69
69
69
69
69
69
69
69
69
69
69
69
69
69
69
69
69
69
69
69
69
69
69
69
69
69
69
69
69
69
69
69
69
69
69
69
69
69
69
69
69
69
69
69
69
69
69
69
69
69
69
69
69
69
69
69
69
69
69
69
69
69
69
69
69
69
69
69
69
69
69
69
69
69
69
69
69
69
69
69
69
69
69
69
69
69
69
69
69
69
69
69
69
69
69
69
69
69
69
69
69
69
69
69
69
69
69
69
69
69
69
69
69
69
69
69
69
69
69
69
69
69
69
69
69
69
69
69
69
69
69
69
69
69
69
69
69
69
69
69
69
69
69
69
69
69
69
69
69
69
69
69
69
69
69
69
69
69
69
69
69
69
69
69
69
69
69
69
69
69
69
69
69
69
69
69
69
69
69
69
69
69
69
69
69
69
69
69
69
69
69
69
69
69
69
69
69
69
69
69
69
69
69
69
69
69
69
69
69
69
69
69
69
69
69
69
69
69
69
69
69
69
69
69
69
69
69
69
69
69
69
69
69
69
69
69
69
69
69
69
69
69
69
69
69
69
69
69
69
69
69
69
69
69
69
69
69
69
69
69
69
69
69
69
69
69
69
69
69
69
69
69
69
69
69
69
69
69
69
69
69
69
69
69
69
69
69
69
69
69
69
69
69
69
69
69
69
69
69
69
69
69
69
69
69
69
69
69
69
69
69
69
69
69
69
69
69
69
69
69
69
69
69
69
69
69
69
69
69
69
69
69
69
69
69
69
69
69
69
69
69
69
69
69
69
69
69
69
69
69
69
69
69
69
69
69
69
69
69
69
69
69
69
69
69
69
69
69
69
69
69
69
69
69
69
69
69
69
69
69
69
69
69
69
69
69
69
69
69
69
69
69
69
69
69
69
69
69
69
69
69
69
69
69
69
69
69
69
69
69
69
69
69
69
69
69
69
69
69
69
69
69
69
69
69
69
69
69
69
69
69
69
69
69
69
69
69
69
69
69
69
69
69
69
69
69
69
69
69
69
69
69
69
69
69
69
69
69
69
69
69
69
69
69
69
69
69
69
69
69
69
69
69
69
69
69
69
69
69
69
69
69
69
69
69
69
69
69
69
69
69
69
69
69
69
69
69
69
69
69
69
69
69
69
69
69
69
69
69
69
69
69
69
69
69
69
69
69
69
69
69
69
69
69
69
69
69
69
69
69
69
69
69
69
69
69
69
69
69
69
69
69
69
69
69
69
69
69
69
69
69
69
69
69
69
69
69
69
69
69
69
69
69
69
69
69
69
69
69
69
69
69
69
69
69
69
69
69
69
69
69
69
69
69
69
69
69
69
69
69
69
69
69
69
69
69
69
69
69
69
69
69
69
69
69
69
69
69
69
69
69
69
69
69
69
69
69
69
69
69
69
69
69
69
69
69
69
69
69
69
69
69
69
69
69
69
69
69
69
69
69
69
69
69
69
69
69
69
69
69
69
69
69
69
69
69
69
69
69
69
69
69
69
69
69
69
69
69
69
69
69
69
69
69
69
69
69
69
69
69
69
69
69
69
69
69
69
69
69
69
69
69
69
69
69
69
69
69
69
69
69
69
69
69
69
69
69
69
69
69
69
69
69
69
69
69
69
69
69
69
69
69
69
69
69
69
69
69
69
69
69
69
69
69
69
69
69
69
69
69
69
69
69
69
69
69
69
69
69
69
69
69
69
69
69
69
69
69
69
69
69
69
69
69
69
69
69
69
69
69
69
69
69
69
69
69
69
69
69
69
69
69
69
69
69
69
69
69
69
69
69
69
69
69
69
69
69
69
69
69
69
69
69
69
69
69
69
69
69
69
69
69
69
69
69
69
69
69
69
69
69
69
69
69
69
69
69
69
69
69
69
69
69
69
69
69
69
69
69
69
69
69
69
69
69
69
69
69
69
69
69
69
69
69
69
69
69
69
69
69
69
69
69
69
69
69
69
69
69
69
69
69
69
69
69
69
69
69
69
69
69
69
69
69
69
69
69
69
69
69
69
69
69
69
69
69
69
69
69
69
69
69
69
69
69
69
69
69
69
69
69
69
69
69
69
69
69
69
69
69
69
69
69
69
69
69
69
69
69
69
69
69
69
69
69
69
69
69
69
69
69
69
69
69
69
69
69
69
69
69
69
69
69
69
69
69
69
69
69
69
69
69
69
69
69
69
69
69
69
69
69
69
69
69
69
69
69
69
69
69
69
69
69
69
69
69
69
69
69
69
69
69
69
69
69
69
69
69
69
69
69
69
69
69
69
69
69
69
69
69
69
69
69
69
69
69
69
69
69
69
69
69
69
69
69
69
69
69
69
69
69
69
69
69
69
69
69
69
69
69
69
69
69
69
69
69
69
69
69
69
69
69
69
69
69
69
69
69
69
69
69
69
69
69
69
69
69
69
69
69
69
69
69
69
69
69
69
69
69
69
69
69
69
69
69
69
69
69
69
69
69
69
69
69
69
69
69
69
69
69
69
69
69
69
69
69
69
69
69
69
69
69
69
69
69
69
69
69
69
69
69
69
69
69
69
69
69
69
69
69
69
69
69
69
69
69
69
69
69
69
69
69
69
69
69
69
69
69
69
69
69
69
69
69
69
69
69
69
69
69
69
69
69
69
69
69
69
69
69
69
69
69
69
69
69
69
69
69
69
69
69
69
69
69
69
69
69
69
69
69
69
69
69
69
69
69
69
69
69
69
69
69
69
69
69
69
69
69
69
69
69
69
69
69
69
69
69
69
69
69
69
69
69
69
69
69
69
69
69
69
69
69
69
69
69
69
69
69
69
69
69
69
69
69
69
69
69
69
69
69
69
69
69
69
69
69
69
69
69
69
69
69
69
69
69
69
69
69
69
69
69
69
69
69
69
69
69
69
69
69
69
69
69
69
69
69
69
69
69
69
69
69
69
69
69
69
69
69
69
69
69
69
69
69
69
69
69
69
69
69
69
69
69
69
69
69
69
69
69
69
69
69
69
69
69
69
69
69
69
69
69
69
69
69
69
69
69
69
69
69
69
69
69
69
69
69
69
69
69
69
69
69
69
69
69
69
69
69
69
69
69
69
69
69
69
69
69
69
69
69
69
69
69
69
69
69
69
69
69
69
69
69
69
69
69
69
69
69
69
69
69
69
69
69
69
69
69
69
69
69
69
69
69
69
69
69
69
69
69
69
69
69
69
69
69
69
69
69
69
69
69
69
69
69
69
69
69
69
69
69
69
69
69
69
69
69
69
69
69
69
69
69
69
69
69
69
69
69
69
69
69
69
69
69
69
69
69
69
69
69
69
69
69
69
69
69
69
69
69
69
69
69
69
69
69
69
69
69
69
69
69
69
69
69
69
69
69
69
69
69
69
69
69
69
69
69
69
69
69
69
69
69
69
69
69
69
69
69
69
69
69
69
69
69
69
69
69
69
69
69
69
69
69
69
69
69
69
69
69
69
69
69
69
69
69
69
69
69
69
69
69
69
69
69
69
69
69
69
69
69
69
69
69
69
69
69
69
69
69
69
69
69
69
69
69
69
69
69
69
69
69
69
69
69
69
69
69
69
69
69
69
69
69
69
69
69
69
69
69
69
69
69
69
69
69
69
69
69
69
69
69
69
69
69
69
69
69
69
69
69
69
69
69
69
69
69
69
69
69
69
69
69
69
69
69
69
69
69
69
69
69
69
69
69
69
69
69
69
69
69
69
69
69
69
69
69
69
69
69
69
69
69
69
69
69
69
69
69
69
69
69
69
69
69
69
69
69
69
69
69
69
69
69
69
69
69
69
69
69
69
69
69
69
69
69
69
69
69
69
69
69
69
69
69
69
69
69
69
69
69
69
69
69
69
69
69
69
69
69
69
69
69
69
69
69
69
69
69
69
69
69
69
69
69
69
69
69
69
69
69
69
69
69
69
69
69
69
69
69
69
69
69
69
69
69
69
69
69
69
69
69
69
69
69
69
69
69
69
69
69
69
69
69
69
69
69
69
69
69
69
69
69
69
69
69
69
69
69
69
69
69
69
69
69
69
69
69
69
69
69
69
69
69
69
69
69
69
69
69
69
69
69
69
69
69
69
69
69
69
69
69
69
69
69
69
69
69
69
69
69
69
69
69
69
69
69
69
69
69
69
69
69
69
69
69
69
69
69
69
69
69
69
69
69
69
69
69
69
69
69
69
69
69
69
69
69
69
69
69
69
69
69
69
69
69
69
69
69
69
69
69
69
69
69
69
69
69
69
69
69
69
69
69
69
69
69
69
69
69
69
69
69
69
69
69
69
69
69
69
69
69
69
69
69
69
69
69
69
69
69
69
69
69
69
69
69
69
69
69
69
69
69
69
69
69
69
69
69
69
69
69
69
69
69
69
69
69
69
69
69
69
69
69
69
69
69
69
69
69
69
69
69
69
69
69
69
69
69
69
69
69
69
69
69
69
69
69
69
69
69
69
69
69
69
69
69
69
69
69
69
69
69
69
69
69
69
69
69
69
69
69
69
69
69
69
69
69
69
69
69
69
69
69
69
69
69
69
69
69
69
69
69
69
69
69
69
69
69
69
69
69
69
69
69
69
69
69
69
69
69
69
69
69
69
69
69
69
69
69
69
69
69
69
69
69
69
69
69
69
69
69
69
69
69
69
69
69
69
69
69
69
69
69
69
69
69
69
69
69
69
69
69
69
69
69
69
69
69
69
69
69
69
69
69
69
69
69
69
69
69
69
69
69
69
69
69
69
69
69
69
69
69
69
69
69
69
69
69
69
69
69
69
69
69
69
69
69
69
69
69
69
69
69
69
69
69
69
69
69
69
69
69
69
69
69
69
69
69
69
69
69
69
69
69
69
69
69
69
69
69
69
69
69
69
69
69
69
69
69
69
69
69
69
69
69
69
69
69
69
69
69
69
69
69
69
69
69
69
69
69
69
69
69
69
69
69
69
69
69
69
69
69
69
69
69
69
69
69
69
69
69
69
69
69
69
69
69
69
69
69
69
69
69
69
69
69
69
69
69
69
69
69
69
69
69
69
69
69
69
69
69
69
69
69
69
69
69
69
69
69
69
69
69
69
69
69
69
69
69
69
69
69
69
69
69
69
69
69
69
69
69
69
69
69
69
69
69
69
69
69
69
69
69
69
69
69
69
69
69
69
69
69
69
69
69
69
69
69
69
69
69
69
69
69
69
69
69
69
69
69
69
69
69
69
69
69
69
69
69
69
69
69
69
69
69
69
69
69
69
69
69
69
69
69
69
69
69
69
69
69
69
69
69
69
69
69
69
69
69
69
69
69
69
69
69
69
69
69
69
69
69
69
69
69
69
69
69
69
69
69
69
69
69
69
69
69
69
69
69
69
69
69
69
69
69
69
69
69
69
69
69
69
69
69
69
69
69
69
69
69
69
69
69
69
69
69
69
69
69
69
69
69
69
69
69
69
69
69
69
69
69
69
69
69
69
69
69
69
69
69
69
69
69
69
69
69
69
69
69
69
69
69
69
69
69
69
69
69
69
69
69
69
69
69
69
69
69
69
69
69
69
69
69
69
69
69
69
69
69
69
69
69
69
69
69
69
69
69
69
69
69
69
69
69
69
69
69
69
69
69
69
69
69
69
69
69
69
69
      </DataArray>
    </Cells>
    <PointData>
      <DataArray type="Float64" NumberOfComponents="2" Name="Displacement" format="ascii">
0 0
0 0
0 0
0 0
0 0
0 0
0 0
0 0
0 0
0 0
0 0
0 0
0 0
0 0
0 0
0 0
0 0
0 0
0 0
0 0
0 0
0 0
0 0
0 0
0 0
0 0
0 0
0 0
0 0
0 0
0 0
0 0
0 0
0 0
0 0
0 0
0 0
0 0
0 0
0 0
0 0
0 0
0 0
0 0
0 0
0 0
0 0
0 0
0 0
0 0
0 0
0 0
0 0
0 0
0 0
0 0
0 0
0 0
0 0
0 0
0 0
0 0
0 0
0 0
0 0
0 0
0 0
0 0
0 0
0 0
0 0
0 0
0 0
0 0
0 0
0 0
0 0
0 0
0 0
0 0
0 0
0 0
0 0
0 0
0 0
0 0
0 0
0 0
0 0
0 0
0 0
0 0
0 0
0 0
0 0
0 0
0 0
0 0
0 0
0 0
0 0
0 0
0 0
0 0
0 0
0 0
0 0
0 0
0 0
0 0
0 0
0 0
0 0
0 0
0 0
0 0
0 0
0 0
0 0
0 0
0 0
0 0
0 0
0 0
0 0
0 0
0 0
0 0
0 0
0 0
0 0
0 0
0 0
0 0
0 0
0 0
0 0
0 0
0 0
0 0
0 0
0 0
0 0
0 0
0 0
0 0
0 0
0 0
0 0
0 0
0 0
0 0
0 0
0 0
0 0
0 0
0 0
0 0
0 0
0 0
0 0
0 0
0 0
0 0
0 0
0 0
0 0
0 0
0 0
0 0
0 0
0 0
0 0
0 0
0 0
0 0
0 0
0 0
0 0
0 0
0 0
0 0
0 0
0 0
0 0
0 0
0 0
0 0
0 0
0 0
0 0
0 0
0 0
0 0
0 0
0 0
0 0
0 0
0 0
0 0
0 0
0 0
0 0
0 0
0 0
0 0
0 0
0 0
0 0
0 0
0 0
0 0
0 0
0 0
0 0
0 0
0 0
0 0
0 0
0 0
0 0
0 0
0 0
0 0
0 0
0 0
0 0
0 0
0 0
0 0
0 0
0 0
0 0
0 0
0 0
0 0
0 0
0 0
0 0
0 0
0 0
0 0
0 0
0 0
0 0
0 0
0 0
0 0
0 0
0 0
0 0
0 0
0 0
0 0
0 0
0 0
0 0
0 0
0 0
0 0
0 0
0 0
0 0
0 0
0 0
0 0
0 0
0 0
0 0
0 0
0 0
0 0
0 0
0 0
0 0
0 0
0 0
0 0
0 0
0 0
0 0
0 0
0 0
0 0
0 0
0 0
0 0
0 0
0 0
0 0
0 0
0 0
0 0
0 0
0 0
0 0
0 0
0 0
0 0
0 0
0 0
0 0
0 0
0 0
0 0
0 0
0 0
0 0
0 0
0 0
0 0
0 0
0 0
0 0
0 0
0 0
0 0
0 0
0 0
0 0
0 0
0 0
0 0
0 0
0 0
0 0
0 0
0 0
0 0
0 0
0 0
0 0
0 0
0 0
0 0
0 0
0 0
0 0
0 0
0 0
0 0
0 0
0 0
0 0
0 0
0 0
0 0
0 0
0 0
0 0
0 0
0 0
0 0
0 0
0 0
0 0
0 0
0 0
0 0
0 0
0 0
0 0
0 0
0 0
0 0
0 0
0 0
0 0
0 0
0 0
0 0
0 0
0 0
0 0
0 0
0 0
0 0
0 0
0 0
0 0
0 0
0 0
0 0
0 0
0 0
0 0
0 0
0 0
0 0
0 0
0 0
0 0
0 0
0 0
0 0
0 0
0 0
0 0
0 0
0 0
0 0
0 0
0 0
0 0
0 0
0 0
0 0
0 0
0 0
0 0
0 0
0 0
0 0
0 0
0 0
0 0
0 0
0 0
0 0
0 0
0 0
0 0
0 0
0 0
0 0
0 0
0 0
0 0
0 0
0 0
0 0
0 0
0 0
0 0
0 0
0 0
0 0
0 0
0 0
0 0
0 0
0 0
0 0
0 0
0 0
0 0
0 0
0 0
0 0
0 0
0 0
0 0
0 0
0 0
0 0
0 0
0 0
0 0
0 0
0 0
0 0
0 0
0 0
0 0
0 0
0 0
0 0
0 0
0 0
0 0
0 0
0 0
0 0
0 0
0 0
0 0
0 0
0 0
0 0
0 0
0 0
0 0
0 0
0 0
0 0
0 0
0 0
0 0
0 0
0 0
0 0
0 0
0 0
0 0
0 0
0 0
0 0
0 0
0 0
0 0
0 0
0 0
0 0
0 0
0 0
0 0
0 0
0 0
0 0
0 0
0 0
0 0
0 0
0 0
0 0
0 0
0 0
0 0
0 0
0 0
0 0
0 0
0 0
0 0
0 0
0 0
0 0
0 0
0 0
0 0
0 0
0 0
0 0
0 0
0 0
0 0
0 0
0 0
0 0
0 0
0 0
0 0
0 0
0 0
0 0
0 0
0 0
0 0
0 0
0 0
0 0
0 0
0 0
0 0
0 0
0 0
0 0
0 0
0 0
0 0
0 0
0 0
0 0
0 0
0 0
0 0
0 0
0 0
0 0
0 0
0 0
0 0
0 0
0 0
0 0
0 0
0 0
0 0
0 0
0 0
0 0
0 0
0 0
0 0
0 0
0 0
0 0
0 0
0 0
0 0
0 0
0 0
0 0
0 0
0 0
0 0
0 0
0 0
0 0
0 0
0 0
0 0
0 0
0 0
0 0
0 0
0 0
0 0
0 0
0 0
0 0
0 0
0 0
0 0
0 0
0 0
0 0
0 0
0 0
0 0
0 0
0 0
0 0
0 0
0 0
0 0
0 0
0 0
0 0
0 0
0 0
0 0
0 0
0 0
0 0
0 0
0 0
0 0
0 0
0 0
0 0
0 0
0 0
0 0
0 0
0 0
0 0
0 0
0 0
0 0
0 0
0 0
0 0
0 0
0 0
0 0
0 0
0 0
0 0
0 0
0 0
0 0
0 0
0 0
0 0
0 0
0 0
0 0
0 0
0 0
0 0
0 0
0 0
0 0
0 0
0 0
0 0
0 0
0 0
0 0
0 0
0 0
0 0
0 0
0 0
0 0
0 0
0 0
0 0
0 0
0 0
0 0
0 0
0 0
0 0
0 0
0 0
0 0
0 0
0 0
0 0
0 0
0 0
0 0
0 0
0 0
0 0
0 0
0 0
0 0
0 0
0 0
0 0
0 0
0 0
0 0
0 0
0 0
0 0
0 0
0 0
0 0
0 0
0 0
0 0
0 0
0 0
0 0
0 0
0 0
0 0
0 0
0 0
0 0
0 0
0 0
0 0
0 0
0 0
0 0
0 0
0 0
0 0
0 0
0 0
0 0
0 0
0 0
0 0
0 0
0 0
0 0
0 0
0 0
0 0
0 0
0 0
0 0
0 0
0 0
0 0
0 0
0 0
0 0
0 0
0 0
0 0
0 0
0 0
0 0
0 0
0 0
0 0
0 0
0 0
0 0
0 0
0 0
0 0
0 0
0 0
0 0
0 0
0 0
0 0
0 0
0 0
0 0
0 0
0 0
0 0
0 0
0 0
0 0
0 0
0 0
0 0
0 0
0 0
0 0
0 0
0 0
0 0
0 0
0 0
0 0
0 0
0 0
0 0
0 0
0 0
0 0
0 0
0 0
0 0
0 0
0 0
0 0
0 0
0 0
0 0
0 0
0 0
0 0
0 0
0 0
0 0
0 0
0 0
0 0
0 0
0 0
0 0
0 0
0 0
0 0
0 0
0 0
0 0
0 0
0 0
0 0
0 0
0 0
0 0
0 0
0 0
0 0
0 0
0 0
0 0
0 0
0 0
0 0
0 0
0 0
0 0
0 0
0 0
0 0
0 0
0 0
0 0
0 0
0 0
0 0
0 0
0 0
0 0
0 0
0 0
0 0
0 0
0 0
0 0
0 0
0 0
0 0
0 0
0 0
0 0
0 0
0 0
0 0
0 0
0 0
0 0
0 0
0 0
0 0
0 0
0 0
0 0
0 0
0 0
0 0
0 0
0 0
0 0
0 0
0 0
0 0
0 0
0 0
0 0
0 0
0 0
0 0
0 0
0 0
0 0
0 0
0 0
0 0
0 0
0 0
0 0
0 0
0 0
0 0
0 0
0 0
0 0
0 0
0 0
0 0
0 0
0 0
0 0
0 0
0 0
0 0
0 0
0 0
0 0
0 0
0 0
0 0
0 0
0 0
0 0
0 0
0 0
0 0
0 0
0 0
0 0
0 0
0 0
0 0
0 0
0 0
0 0
0 0
0 0
0 0
0 0
0 0
0 0
0 0
0 0
0 0
0 0
0 0
0 0
0 0
0 0
0 0
0 0
0 0
0 0
0 0
0 0
0 0
0 0
0 0
0 0
0 0
0 0
0 0
0 0
0 0
0 0
0 0
0 0
0 0
0 0
0 0
0 0
0 0
0 0
0 0
0 0
0 0
0 0
0 0
0 0
0 0
0 0
0 0
0 0
0 0
0 0
0 0
0 0
0 0
0 0
0 0
0 0
0 0
0 0
0 0
0 0
0 0
0 0
0 0
0 0
0 0
0 0
0 0
0 0
0 0
0 0
0 0
0 0
0 0
0 0
0 0
0 0
0 0
0 0
0 0
0 0
0 0
0 0
0 0
0 0
0 0
0 0
0 0
0 0
0 0
0 0
0 0
0 0
0 0
0 0
0 0
0 0
0 0
0 0
0 0
0 0
0 0
0 0
0 0
0 0
0 0
0 0
0 0
0 0
0 0
0 0
0 0
0 0
0 0
0 0
0 0
0 0
0 0
0 0
0 0
0 0
0 0
0 0
0 0
0 0
0 0
0 0
0 0
0 0
0 0
0 0
0 0
0 0
0 0
0 0
0 0
0 0
0 0
0 0
0 0
0 0
0 0
0 0
0 0
0 0
0 0
0 0
0 0
0 0
0 0
0 0
0 0
0 0
0 0
0 0
0 0
0 0
0 0
0 0
0 0
0 0
0 0
0 0
0 0
0 0
0 0
0 0
0 0
0 0
0 0
0 0
0 0
0 0
0 0
0 0
0 0
0 0
0 0
0 0
0 0
0 0
0 0
0 0
0 0
0 0
0 0
0 0
0 0
0 0
0 0
0 0
0 0
0 0
0 0
0 0
0 0
0 0
0 0
0 0
0 0
0 0
0 0
0 0
0 0
0 0
0 0
0 0
0 0
0 0
0 0
0 0
0 0
0 0
0 0
0 0
0 0
0 0
0 0
0 0
0 0
0 0
0 0
0 0
0 0
0 0
0 0
0 0
0 0
0 0
0 0
0 0
0 0
0 0
0 0
0 0
0 0
0 0
0 0
0 0
0 0
0 0
0 0
0 0
0 0
0 0
0 0
0 0
0 0
0 0
0 0
0 0
0 0
0 0
0 0
0 0
0 0
0 0
0 0
0 0
0 0
0 0
0 0
0 0
0 0
0 0
0 0
0 0
0 0
0 0
0 0
0 0
0 0
0 0
0 0
0 0
0 0
0 0
0 0
0 0
0 0
0 0
0 0
0 0
0 0
0 0
0 0
0 0
0 0
0 0
0 0
0 0
0 0
0 0
0 0
0 0
0 0
0 0
0 0
0 0
0 0
0 0
0 0
0 0
0 0
0 0
0 0
0 0
0 0
0 0
0 0
0 0
0 0
0 0
0 0
0 0
0 0
0 0
0 0
0 0
0 0
0 0
0 0
0 0
0 0
0 0
0 0
0 0
0 0
0 0
0 0
0 0
0 0
0 0
0 0
0 0
0 0
0 0
0 0
0 0
0 0
0 0
0 0
0 0
0 0
0 0
0 0
0 0
0 0
0 0
0 0
0 0
0 0
0 0
0 0
0 0
0 0
0 0
0 0
0 0
0 0
0 0
0 0
0 0
0 0
0 0
0 0
0 0
0 0
0 0
0 0
0 0
0 0
0 0
0 0
0 0
0 0
0 0
0 0
0 0
0 0
0 0
0 0
0 0
0 0
0 0
0 0
0 0
0 0
0 0
0 0
0 0
0 0
0 0
0 0
0 0
0 0
0 0
0 0
0 0
0 0
0 0
0 0
0 0
0 0
0 0
0 0
0 0
0 0
0 0
0 0
0 0
0 0
0 0
0 0
0 0
0 0
0 0
0 0
0 0
0 0
0 0
0 0
0 0
0 0
0 0
0 0
0 0
0 0
0 0
0 0
0 0
0 0
0 0
0 0
0 0
0 0
0 0
0 0
0 0
0 0
0 0
0 0
0 0
0 0
0 0
0 0
0 0
0 0
0 0
0 0
0 0
0 0
0 0
0 0
0 0
0 0
0 0
0 0
0 0
0 0
0 0
0 0
0 0
0 0
0 0
0 0
0 0
0 0
0 0
0 0
0 0
0 0
0 0
0 0
0 0
0 0
0 0
0 0
0 0
0 0
0 0
0 0
0 0
0 0
0 0
0 0
0 0
0 0
0 0
0 0
0 0
0 0
0 0
0 0
0 0
0 0
0 0
0 0
0 0
0 0
0 0
0 0
0 0
0 0
0 0
0 0
0 0
0 0
0 0
0 0
0 0
0 0
0 0
0 0
0 0
0 0
0 0
0 0
0 0
0 0
0 0
0 0
0 0
0 0
0 0
0 0
0 0
0 0
0 0
0 0
0 0
0 0
0 0
0 0
0 0
0 0
0 0
0 0
0 0
0 0
0 0
0 0
0 0
0 0
0 0
0 0
0 0
0 0
0 0
0 0
0 0
0 0
0 0
0 0
0 0
0 0
0 0
0 0
0 0
0 0
0 0
0 0
0 0
0 0
0 0
0 0
0 0
0 0
0 0
0 0
0 0
0 0
0 0
0 0
0 0
0 0
0 0
0 0
0 0
0 0
0 0
0 0
0 0
0 0
0 0
0 0
0 0
0 0
0 0
0 0
0 0
0 0
0 0
0 0
0 0
0 0
0 0
0 0
0 0
0 0
0 0
0 0
0 0
0 0
0 0
0 0
0 0
0 0
0 0
0 0
0 0
0 0
0 0
0 0
0 0
0 0
0 0
0 0
0 0
0 0
0 0
0 0
0 0
0 0
0 0
0 0
0 0
0 0
0 0
0 0
0 0
0 0
0 0
0 0
0 0
0 0
0 0
0 0
0 0
0 0
0 0
0 0
0 0
0 0
0 0
0 0
0 0
0 0
0 0
0 0
0 0
0 0
0 0
0 0
0 0
0 0
0 0
0 0
0 0
0 0
0 0
0 0
0 0
0 0
0 0
0 0
0 0
0 0
0 0
0 0
0 0
0 0
0 0
0 0
0 0
0 0
0 0
0 0
0 0
0 0
0 0
0 0
0 0
0 0
0 0
0 0
0 0
0 0
0 0
0 0
0 0
0 0
0 0
0 0
0 0
0 0
0 0
0 0
0 0
0 0
0 0
0 0
0 0
0 0
0 0
0 0
0 0
0 0
0 0
0 0
0 0
0 0
0 0
0 0
0 0
0 0
0 0
0 0
0 0
0 0
0 0
0 0
0 0
0 0
0 0
0 0
0 0
0 0
0 0
0 0
0 0
0 0
0 0
0 0
0 0
0 0
0 0
0 0
0 0
0 0
0 0
0 0
0 0
0 0
0 0
0 0
0 0
0 0
0 0
0 0
0 0
0 0
0 0
0 0
0 0
0 0
0 0
0 0
0 0
0 0
0 0
0 0
0 0
0 0
0 0
0 0
0 0
0 0
0 0
0 0
0 0
0 0
0 0
0 0
0 0
0 0
0 0
0 0
0 0
0 0
0 0
0 0
0 0
0 0
0 0
0 0
0 0
0 0
0 0
0 0
0 0
0 0
0 0
0 0
0 0
0 0
0 0
0 0
0 0
0 0
0 0
0 0
0 0
0 0
0 0
0 0
0 0
0 0
0 0
0 0
0 0
0 0
0 0
0 0
0 0
0 0
0 0
0 0
0 0
0 0
0 0
0 0
0 0
0 0
0 0
0 0
0 0
0 0
0 0
0 0
0 0
0 0
0 0
0 0
0 0
0 0
0 0
0 0
0 0
0 0
0 0
0 0
0 0
0 0
0 0
0 0
0 0
0 0
0 0
0 0
0 0
0 0
0 0
0 0
0 0
0 0
0 0
0 0
0 0
0 0
0 0
0 0
0 0
0 0
0 0
0 0
0 0
0 0
0 0
0 0
0 0
0 0
0 0
0 0
0 0
0 0
0 0
0 0
0 0
0 0
0 0
0 0
0 0
0 0
0 0
0 0
0 0
0 0
0 0
0 0
0 0
0 0
0 0
0 0
0 0
0 0
0 0
0 0
0 0
0 0
0 0
0 0
0 0
0 0
0 0
0 0
0 0
0 0
0 0
0 0
0 0
0 0
0 0
0 0
0 0
0 0
0 0
0 0
0 0
0 0
0 0
0 0
0 0
0 0
0 0
0 0
0 0
0 0
0 0
0 0
0 0
0 0
0 0
0 0
0 0
0 0
0 0
0 0
0 0
0 0
0 0
0 0
0 0
0 0
0 0
0 0
0 0
0 0
0 0
0 0
0 0
0 0
0 0
0 0
0 0
0 0
0 0
0 0
0 0
0 0
0 0
0 0
0 0
0 0
0 0
0 0
0 0
0 0
0 0
0 0
0 0
0 0
0 0
0 0
0 0
0 0
0 0
0 0
0 0
0 0
0 0
0 0
0 0
0 0
0 0
0 0
0 0
0 0
0 0
0 0
0 0
0 0
0 0
0 0
0 0
0 0
0 0
0 0
0 0
0 0
0 0
0 0
0 0
0 0
0 0
0 0
0 0
0 0
0 0
0 0
0 0
0 0
0 0
0 0
0 0
0 0
0 0
0 0
0 0
0 0
0 0
0 0
0 0
0 0
0 0
0 0
0 0
0 0
0 0
0 0
0 0
0 0
0 0
0 0
0 0
0 0
0 0
0 0
0 0
0 0
0 0
0 0
0 0
0 0
0 0
0 0
0 0
0 0
0 0
0 0
0 0
0 0
0 0
0 0
0 0
0 0
0 0
0 0
0 0
0 0
0 0
0 0
0 0
0 0
0 0
0 0
0 0
0 0
0 0
0 0
0 0
0 0
0 0
0 0
0 0
0 0
0 0
0 0
0 0
0 0
0 0
0 0
0 0
0 0
0 0
0 0
0 0
0 0
0 0
0 0
0 0
0 0
0 0
0 0
0 0
0 0
0 0
0 0
0 0
0 0
0 0
0 0
0 0
0 0
0 0
0 0
0 0
0 0
0 0
0 0
0 0
0 0
0 0
0 0
0 0
0 0
0 0
0 0
0 0
0 0
0 0
0 0
0 0
0 0
0 0
0 0
0 0
0 0
0 0
0 0
0 0
0 0
0 0
0 0
0 0
0 0
0 0
0 0
0 0
0 0
0 0
0 0
0 0
0 0
0 0
0 0
0 0
0 0
0 0
0 0
0 0
0 0
0 0
0 0
0 0
0 0
0 0
0 0
0 0
0 0
0 0
0 0
0 0
0 0
0 0
0 0
0 0
0 0
0 0
0 0
0 0
0 0
0 0
0 0
0 0
0 0
0 0
0 0
0 0
0 0
0 0
0 0
0 0
0 0
0 0
0 0
0 0
0 0
0 0
0 0
0 0
0 0
0 0
0 0
0 0
0 0
0 0
0 0
0 0
0 0
0 0
0 0
0 0
0 0
0 0
0 0
0 0
0 0
0 0
0 0
0 0
0 0
0 0
0 0
0 0
0 0
0 0
0 0
0 0
0 0
0 0
0 0
0 0
0 0
0 0
0 0
0 0
0 0
0 0
0 0
0 0
0 0
0 0
0 0
0 0
0 0
0 0
0 0
0 0
0 0
0 0
0 0
0 0
0 0
0 0
0 0
0 0
0 0
0 0
0 0
0 0
0 0
0 0
0 0
0 0
0 0
0 0
0 0
0 0
0 0
0 0
0 0
0 0
0 0
0 0
0 0
0 0
0 0
0 0
0 0
0 0
0 0
0 0
0 0
0 0
0 0
0 0
0 0
0 0
0 0
0 0
0 0
0 0
0 0
0 0
0 0
0 0
0 0
0 0
0 0
0 0
0 0
0 0
0 0
0 0
0 0
0 0
0 0
0 0
0 0
0 0
0 0
0 0
0 0
0 0
0 0
0 0
0 0
0 0
0 0
0 0
0 0
0 0
0 0
0 0
0 0
0 0
0 0
0 0
0 0
0 0
0 0
0 0
0 0
0 0
0 0
0 0
0 0
0 0
0 0
0 0
0 0
0 0
0 0
0 0
0 0
0 0
0 0
0 0
0 0
0 0
0 0
0 0
0 0
0 0
0 0
0 0
0 0
0 0
0 0
0 0
0 0
0 0
0 0
0 0
0 0
0 0
0 0
0 0
0 0
0 0
0 0
0 0
0 0
0 0
0 0
0 0
0 0
0 0
0 0
0 0
0 0
0 0
0 0
0 0
0 0
0 0
0 0
0 0
0 0
0 0
0 0
0 0
0 0
0 0
0 0
0 0
0 0
0 0
0 0
0 0
0 0
0 0
0 0
0 0
0 0
0 0
0 0
0 0
0 0
0 0
0 0
0 0
0 0
0 0
0 0
0 0
0 0
0 0
0 0
0 0
0 0
0 0
0 0
0 0
0 0
0 0
0 0
0 0
0 0
0 0
0 0
0 0
0 0
0 0
0 0
0 0
0 0
0 0
0 0
0 0
0 0
0 0
0 0
0 0
0 0
0 0
0 0
0 0
0 0
0 0
0 0
0 0
0 0
0 0
0 0
0 0
0 0
0 0
0 0
0 0
0 0
0 0
0 0
0 0
0 0
0 0
0 0
0 0
0 0
0 0
0 0
0 0
0 0
0 0
0 0
0 0
0 0
0 0
0 0
0 0
0 0
0 0
0 0
0 0
0 0
0 0
0 0
0 0
0 0
0 0
0 0
0 0
0 0
0 0
0 0
0 0
0 0
0 0
0 0
0 0
0 0
0 0
0 0
0 0
0 0
0 0
0 0
0 0
0 0
0 0
0 0
0 0
0 0
0 0
0 0
0 0
0 0
0 0
0 0
0 0
0 0
0 0
0 0
0 0
0 0
0 0
0 0
0 0
0 0
0 0
0 0
0 0
0 0
0 0
0 0
0 0
0 0
0 0
0 0
0 0
0 0
0 0
0 0
0 0
0 0
0 0
0 0
0 0
0 0
0 0
0 0
0 0
0 0
0 0
0 0
0 0
0 0
0 0
0 0
0 0
0 0
0 0
0 0
0 0
0 0
0 0
0 0
0 0
0 0
0 0
0 0
0 0
0 0
0 0
0 0
0 0
0 0
0 0
0 0
0 0
0 0
0 0
0 0
0 0
0 0
0 0
0 0
0 0
0 0
0 0
0 0
0 0
0 0
0 0
0 0
0 0
0 0
0 0
0 0
0 0
0 0
0 0
0 0
0 0
0 0
0 0
0 0
0 0
0 0
0 0
0 0
0 0
0 0
0 0
0 0
0 0
0 0
0 0
0 0
0 0
0 0
0 0
0 0
0 0
0 0
0 0
0 0
0 0
0 0
0 0
0 0
0 0
0 0
0 0
0 0
0 0
0 0
0 0
0 0
0 0
0 0
0 0
0 0
0 0
0 0
0 0
0 0
0 0
0 0
0 0
0 0
0 0
0 0
0 0
0 0
0 0
0 0
0 0
0 0
0 0
0 0
0 0
0 0
0 0
0 0
0 0
0 0
0 0
0 0
0 0
0 0
0 0
0 0
0 0
0 0
0 0
0 0
0 0
0 0
0 0
0 0
0 0
0 0
0 0
0 0
0 0
0 0
0 0
0 0
0 0
0 0
0 0
0 0
0 0
0 0
0 0
0 0
0 0
0 0
0 0
0 0
0 0
0 0
0 0
0 0
0 0
0 0
0 0
0 0
0 0
0 0
0 0
0 0
0 0
0 0
0 0
0 0
0 0
0 0
0 0
0 0
0 0
0 0
0 0
0 0
0 0
0 0
0 0
0 0
0 0
0 0
0 0
0 0
0 0
0 0
0 0
0 0
0 0
0 0
0 0
0 0
0 0
0 0
0 0
0 0
0 0
0 0
0 0
0 0
0 0
0 0
0 0
0 0
0 0
0 0
0 0
0 0
0 0
0 0
0 0
0 0
0 0
0 0
0 0
0 0
0 0
0 0
0 0
0 0
0 0
0 0
0 0
0 0
0 0
0 0
0 0
0 0
0 0
0 0
0 0
0 0
0 0
0 0
0 0
0 0
0 0
0 0
0 0
0 0
0 0
0 0
0 0
0 0
0 0
0 0
0 0
0 0
0 0
0 0
0 0
0 0
0 0
0 0
0 0
0 0
0 0
0 0
0 0
0 0
0 0
0 0
0 0
0 0
0 0
0 0
0 0
0 0
0 0
0 0
0 0
0 0
0 0
0 0
0 0
0 0
0 0
0 0
0 0
0 0
0 0
0 0
0 0
0 0
0 0
0 0
0 0
0 0
0 0
0 0
0 0
0 0
0 0
0 0
0 0
0 0
0 0
0 0
0 0
0 0
0 0
0 0
0 0
0 0
0 0
0 0
0 0
0 0
0 0
0 0
0 0
0 0
0 0
0 0
0 0
0 0
0 0
0 0
0 0
0 0
0 0
0 0
0 0
0 0
0 0
0 0
0 0
0 0
0 0
0 0
0 0
0 0
0 0
0 0
0 0
0 0
0 0
0 0
0 0
0 0
0 0
0 0
0 0
0 0
0 0
0 0
0 0
0 0
0 0
0 0
0 0
0 0
0 0
0 0
0 0
0 0
0 0
0 0
0 0
0 0
0 0
0 0
0 0
0 0
0 0
0 0
0 0
0 0
0 0
0 0
0 0
0 0
0 0
0 0
0 0
0 0
0 0
0 0
0 0
0 0
0 0
0 0
0 0
0 0
0 0
0 0
0 0
0 0
0 0
0 0
0 0
0 0
0 0
0 0
0 0
0 0
0 0
0 0
0 0
0 0
0 0
0 0
0 0
0 0
0 0
0 0
0 0
0 0
0 0
0 0
0 0
0 0
0 0
0 0
0 0
0 0
0 0
0 0
0 0
0 0
0 0
0 0
0 0
0 0
0 0
0 0
0 0
0 0
0 0
0 0
0 0
0 0
0 0
0 0
0 0
0 0
0 0
0 0
0 0
0 0
0 0
0 0
0 0
0 0
0 0
0 0
0 0
0 0
0 0
0 0
0 0
0 0
0 0
0 0
0 0
0 0
0 0
0 0
0 0
0 0
0 0
0 0
0 0
0 0
0 0
0 0
0 0
0 0
0 0
0 0
0 0
0 0
0 0
0 0
0 0
0 0
0 0
0 0
0 0
0 0
0 0
0 0
0 0
0 0
0 0
0 0
0 0
0 0
0 0
0 0
0 0
0 0
0 0
0 0
0 0
0 0
0 0
0 0
0 0
0 0
0 0
0 0
0 0
0 0
0 0
0 0
0 0
0 0
0 0
0 0
0 0
0 0
0 0
0 0
0 0
0 0
0 0
0 0
0 0
0 0
0 0
0 0
0 0
0 0
0 0
0 0
0 0
0 0
0 0
0 0
0 0
0 0
0 0
0 0
0 0
0 0
0 0
0 0
0 0
0 0
0 0
0 0
0 0
0 0
0 0
0 0
0 0
0 0
0 0
0 0
0 0
0 0
0 0
0 0
0 0
0 0
0 0
0 0
0 0
0 0
0 0
0 0
0 0
0 0
0 0
0 0
0 0
0 0
0 0
0 0
0 0
0 0
0 0
0 0
0 0
0 0
0 0
0 0
0 0
0 0
0 0
0 0
0 0
0 0
0 0
0 0
0 0
0 0
0 0
0 0
0 0
0 0
0 0
0 0
0 0
0 0
0 0
0 0
0 0
0 0
0 0
0 0
0 0
0 0
0 0
0 0
0 0
0 0
0 0
0 0
0 0
0 0
0 0
0 0
0 0
0 0
0 0
0 0
0 0
0 0
0 0
0 0
0 0
0 0
0 0
0 0
0 0
0 0
0 0
0 0
0 0
0 0
0 0
0 0
0 0
0 0
0 0
0 0
0 0
0 0
0 0
0 0
0 0
0 0
0 0
0 0
0 0
0 0
0 0
0 0
0 0
0 0
0 0
0 0
0 0
0 0
0 0
0 0
0 0
0 0
0 0
0 0
0 0
0 0
0 0
0 0
0 0
0 0
0 0
0 0
0 0
0 0
0 0
0 0
0 0
0 0
0 0
0 0
0 0
0 0
0 0
0 0
0 0
0 0
0 0
0 0
0 0
0 0
0 0
0 0
0 0
0 0
0 0
0 0
0 0
0 0
0 0
0 0
0 0
0 0
0 0
0 0
0 0
0 0
0 0
0 0
0 0
0 0
0 0
0 0
0 0
0 0
0 0
0 0
0 0
0 0
0 0
0 0
0 0
0 0
0 0
0 0
0 0
0 0
0 0
0 0
0 0
0 0
0 0
0 0
0 0
0 0
0 0
0 0
0 0
0 0
0 0
0 0
0 0
0 0
0 0
0 0
0 0
0 0
0 0
0 0
0 0
0 0
0 0
0 0
0 0
0 0
0 0
0 0
0 0
0 0
0 0
0 0
0 0
0 0
0 0
0 0
0 0
0 0
0 0
0 0
0 0
0 0
0 0
0 0
0 0
0 0
0 0
0 0
0 0
0 0
0 0
0 0
0 0
0 0
0 0
0 0
0 0
0 0
0 0
0 0
0 0
0 0
0 0
0 0
0 0
0 0
0 0
0 0
0 0
0 0
0 0
0 0
0 0
0 0
0 0
0 0
0 0
0 0
0 0
0 0
0 0
0 0
0 0
0 0
0 0
0 0
0 0
0 0
0 0
0 0
0 0
0 0
0 0
0 0
0 0
0 0
0 0
0 0
0 0
0 0
0 0
0 0
0 0
0 0
0 0
0 0
0 0
0 0
0 0
0 0
0 0
0 0
0 0
0 0
0 0
0 0
0 0
0 0
0 0
0 0
0 0
0 0
0 0
0 0
0 0
0 0
0 0
0 0
0 0
0 0
0 0
0 0
0 0
0 0
0 0
0 0
0 0
0 0
0 0
0 0
0 0
0 0
0 0
0 0
0 0
0 0
0 0
0 0
0 0
0 0
0 0
0 0
0 0
0 0
0 0
0 0
0 0
0 0
0 0
0 0
0 0
0 0
0 0
0 0
0 0
0 0
0 0
0 0
0 0
0 0
0 0
0 0
0 0
0 0
0 0
0 0
0 0
0 0
0 0
0 0
0 0
0 0
0 0
0 0
0 0
0 0
0 0
0 0
0 0
0 0
0 0
0 0
0 0
0 0
0 0
0 0
0 0
0 0
0 0
0 0
0 0
0 0
0 0
0 0
0 0
0 0
0 0
0 0
0 0
0 0
0 0
0 0
0 0
0 0
0 0
0 0
0 0
0 0
0 0
0 0
0 0
0 0
0 0
0 0
0 0
0 0
0 0
0 0
0 0
0 0
0 0
0 0
0 0
0 0
0 0
0 0
0 0
0 0
0 0
0 0
0 0
0 0
0 0
0 0
0 0
0 0
0 0
0 0
0 0
0 0
0 0
0 0
0 0
0 0
0 0
0 0
0 0
0 0
0 0
0 0
0 0
0 0
0 0
0 0
0 0
0 0
0 0
0 0
0 0
0 0
0 0
0 0
0 0
0 0
0 0
0 0
0 0
0 0
0 0
0 0
0 0
0 0
0 0
0 0
0 0
0 0
0 0
0 0
0 0
0 0
0 0
0 0
0 0
0 0
0 0
0 0
0 0
0 0
0 0
0 0
0 0
0 0
0 0
0 0
0 0
0 0
0 0
0 0
0 0
0 0
0 0
0 0
0 0
0 0
0 0
0 0
0 0
0 0
0 0
0 0
0 0
0 0
0 0
0 0
0 0
0 0
0 0
0 0
0 0
0 0
0 0
0 0
0 0
0 0
0 0
0 0
0 0
0 0
0 0
0 0
0 0
0 0
0 0
0 0
0 0
0 0
0 0
0 0
0 0
0 0
0 0
0 0
0 0
0 0
0 0
0 0
0 0
0 0
0 0
0 0
0 0
0 0
0 0
0 0
0 0
0 0
0 0
0 0
0 0
0 0
0 0
0 0
0 0
0 0
0 0
0 0
0 0
0 0
0 0
0 0
0 0
0 0
0 0
0 0
0 0
0 0
0 0
0 0
0 0
0 0
0 0
0 0
0 0
0 0
0 0
0 0
0 0
0 0
0 0
0 0
0 0
0 0
0 0
0 0
0 0
0 0
0 0
0 0
0 0
0 0
0 0
0 0
0 0
0 0
0 0
0 0
0 0
0 0
0 0
0 0
0 0
0 0
0 0
0 0
0 0
0 0
0 0
0 0
0 0
0 0
0 0
0 0
0 0
0 0
0 0
0 0
0 0
0 0
0 0
0 0
0 0
0 0
0 0
0 0
0 0
0 0
0 0
0 0
0 0
0 0
0 0
0 0
0 0
0 0
0 0
0 0
0 0
0 0
0 0
0 0
0 0
0 0
0 0
0 0
0 0
0 0
0 0
0 0
0 0
0 0
0 0
0 0
0 0
0 0
0 0
0 0
0 0
0 0
0 0
0 0
0 0
0 0
0 0
0 0
0 0
0 0
0 0
0 0
0 0
0 0
0 0
0 0
0 0
0 0
0 0
0 0
0 0
0 0
0 0
0 0
0 0
0 0
0 0
0 0
0 0
0 0
0 0
0 0
0 0
0 0
0 0
0 0
0 0
0 0
0 0
0 0
0 0
0 0
0 0
0 0
0 0
0 0
0 0
0 0
0 0
0 0
0 0
0 0
0 0
0 0
0 0
0 0
0 0
0 0
0 0
0 0
0 0
0 0
0 0
0 0
0 0
0 0
0 0
0 0
0 0
0 0
0 0
0 0
0 0
0 0
0 0
0 0
0 0
0 0
0 0
0 0
0 0
0 0
0 0
0 0
0 0
0 0
0 0
0 0
0 0
0 0
0 0
0 0
0 0
0 0
0 0
0 0
0 0
0 0
0 0
0 0
0 0
0 0
0 0
0 0
0 0
0 0
0 0
0 0
0 0
0 0
0 0
0 0
0 0
0 0
0 0
0 0
0 0
0 0
0 0
0 0
0 0
0 0
0 0
0 0
0 0
0 0
0 0
0 0
0 0
0 0
0 0
0 0
0 0
0 0
0 0
0 0
0 0
0 0
0 0
0 0
0 0
0 0
0 0
0 0
0 0
0 0
0 0
0 0
0 0
0 0
0 0
0 0
0 0
0 0
0 0
0 0
0 0
0 0
0 0
0 0
0 0
0 0
0 0
0 0
0 0
0 0
0 0
0 0
0 0
0 0
0 0
0 0
0 0
0 0
0 0
0 0
0 0
0 0
0 0
0 0
0 0
0 0
0 0
0 0
0 0
0 0
0 0
0 0
0 0
0 0
0 0
0 0
0 0
0 0
0 0
0 0
0 0
0 0
0 0
0 0
0 0
0 0
0 0
0 0
0 0
0 0
0 0
0 0
0 0
0 0
0 0
0 0
0 0
0 0
0 0
0 0
0 0
0 0
0 0
0 0
0 0
0 0
0 0
0 0
0 0
0 0
0 0
0 0
0 0
0 0
0 0
0 0
0 0
0 0
0 0
0 0
0 0
0 0
0 0
0 0
0 0
0 0
0 0
0 0
0 0
0 0
0 0
0 0
0 0
0 0
0 0
0 0
0 0
0 0
0 0
0 0
0 0
0 0
0 0
0 0
0 0
0 0
0 0
0 0
0 0
0 0
0 0
0 0
0 0
0 0
0 0
0 0
0 0
0 0
0 0
0 0
0 0
0 0
0 0
0 0
0 0
0 0
0 0
0 0
0 0
0 0
0 0
0 0
0 0
0 0
0 0
0 0
0 0
0 0
0 0
0 0
0 0
0 0
0 0
0 0
0 0
0 0
0 0
0 0
0 0
0 0
0 0
0 0
0 0
0 0
0 0
0 0
0 0
0 0
0 0
0 0
0 0
0 0
0 0
0 0
0 0
0 0
0 0
0 0
0 0
0 0
0 0
0 0
0 0
0 0
0 0
0 0
0 0
0 0
0 0
0 0
0 0
0 0
0 0
0 0
0 0
0 0
0 0
0 0
0 0
0 0
0 0
0 0
0 0
0 0
0 0
0 0
0 0
0 0
0 0
0 0
0 0
0 0
0 0
0 0
0 0
0 0
0 0
0 0
0 0
0 0
0 0
0 0
0 0
0 0
0 0
0 0
0 0
0 0
0 0
0 0
0 0
0 0
0 0
0 0
0 0
0 0
0 0
0 0
0 0
0 0
0 0
0 0
0 0
0 0
0 0
0 0
0 0
0 0
0 0
0 0
0 0
0 0
0 0
0 0
0 0
0 0
0 0
0 0
0 0
0 0
0 0
0 0
0 0
0 0
0 0
0 0
0 0
0 0
0 0
0 0
0 0
0 0
0 0
0 0
0 0
0 0
0 0
0 0
0 0
0 0
0 0
0 0
0 0
0 0
0 0
0 0
0 0
0 0
0 0
0 0
0 0
0 0
0 0
0 0
0 0
0 0
0 0
0 0
0 0
0 0
0 0
0 0
0 0
0 0
0 0
0 0
0 0
0 0
0 0
0 0
0 0
0 0
0 0
0 0
0 0
0 0
0 0
0 0
0 0
0 0
0 0
0 0
0 0
0 0
0 0
0 0
0 0
0 0
0 0
0 0
0 0
0 0
0 0
0 0
0 0
0 0
0 0
0 0
0 0
0 0
0 0
0 0
0 0
0 0
0 0
0 0
0 0
0 0
0 0
0 0
0 0
0 0
0 0
0 0
0 0
0 0
0 0
0 0
0 0
0 0
0 0
0 0
0 0
0 0
0 0
0 0
0 0
0 0
0 0
0 0
0 0
0 0
0 0
0 0
0 0
0 0
0 0
0 0
0 0
0 0
0 0
0 0
0 0
0 0
0 0
0 0
0 0
0 0
0 0
0 0
0 0
0 0
0 0
0 0
0 0
0 0
0 0
0 0
0 0
0 0
0 0
0 0
0 0
0 0
0 0
0 0
0 0
0 0
0 0
0 0
0 0
0 0
0 0
0 0
0 0
0 0
0 0
0 0
0 0
0 0
0 0
0 0
0 0
0 0
0 0
0 0
0 0
0 0
0 0
0 0
0 0
0 0
0 0
0 0
0 0
0 0
0 0
0 0
0 0
0 0
0 0
0 0
0 0
0 0
0 0
0 0
0 0
0 0
0 0
0 0
0 0
0 0
0 0
0 0
0 0
0 0
0 0
0 0
0 0
0 0
0 0
0 0
0 0
0 0
0 0
0 0
0 0
0 0
0 0
0 0
0 0
0 0
0 0
0 0
0 0
0 0
0 0
0 0
0 0
0 0
0 0
0 0
0 0
0 0
0 0
0 0
0 0
0 0
0 0
0 0
0 0
0 0
0 0
0 0
0 0
0 0
0 0
0 0
0 0
0 0
0 0
0 0
0 0
0 0
0 0
0 0
0 0
0 0
0 0
0 0
0 0
0 0
0 0
0 0
0 0
0 0
0 0
0 0
0 0
0 0
0 0
0 0
0 0
0 0
0 0
0 0
0 0
0 0
0 0
0 0
0 0
0 0
0 0
0 0
0 0
0 0
0 0
0 0
0 0
0 0
0 0
0 0
0 0
0 0
0 0
0 0
0 0
0 0
0 0
0 0
0 0
0 0
0 0
0 0
0 0
0 0
0 0
0 0
0 0
0 0
0 0
0 0
0 0
0 0
0 0
0 0
0 0
0 0
0 0
0 0
0 0
0 0
0 0
0 0
0 0
0 0
0 0
0 0
0 0
0 0
0 0
0 0
0 0
0 0
0 0
0 0
0 0
0 0
0 0
0 0
0 0
0 0
0 0
0 0
0 0
0 0
0 0
0 0
0 0
0 0
0 0
0 0
0 0
0 0
0 0
0 0
0 0
0 0
0 0
0 0
0 0
0 0
0 0
0 0
0 0
0 0
0 0
0 0
0 0
0 0
0 0
0 0
0 0
0 0
0 0
0 0
0 0
0 0
0 0
0 0
0 0
0 0
0 0
0 0
0 0
0 0
0 0
0 0
0 0
0 0
0 0
0 0
0 0
0 0
0 0
0 0
0 0
0 0
0 0
0 0
0 0
0 0
0 0
0 0
0 0
0 0
0 0
0 0
0 0
0 0
0 0
0 0
0 0
0 0
0 0
0 0
0 0
0 0
0 0
0 0
0 0
0 0
0 0
0 0
0 0
0 0
0 0
0 0
0 0
0 0
0 0
0 0
0 0
0 0
0 0
0 0
0 0
0 0
0 0
0 0
0 0
0 0
0 0
0 0
0 0
0 0
0 0
0 0
0 0
0 0
0 0
0 0
0 0
0 0
0 0
0 0
0 0
0 0
0 0
0 0
0 0
0 0
0 0
0 0
0 0
0 0
0 0
0 0
0 0
0 0
0 0
0 0
0 0
0 0
0 0
0 0
0 0
0 0
0 0
0 0
0 0
0 0
0 0
0 0
0 0
0 0
0 0
0 0
0 0
0 0
0 0
0 0
0 0
0 0
0 0
0 0
0 0
0 0
0 0
0 0
0 0
0 0
0 0
0 0
0 0
0 0
0 0
0 0
0 0
0 0
0 0
0 0
0 0
0 0
0 0
0 0
0 0
0 0
0 0
0 0
0 0
0 0
0 0
0 0
0 0
0 0
0 0
0 0
0 0
0 0
0 0
0 0
0 0
0 0
0 0
0 0
0 0
0 0
0 0
0 0
0 0
0 0
0 0
0 0
0 0
0 0
0 0
0 0
0 0
0 0
0 0
0 0
0 0
0 0
0 0
0 0
0 0
0 0
0 0
0 0
0 0
0 0
0 0
0 0
0 0
0 0
0 0
0 0
0 0
0 0
0 0
0 0
0 0
0 0
0 0
0 0
0 0
0 0
0 0
0 0
0 0
0 0
0 0
0 0
0 0
0 0
0 0
0 0
0 0
0 0
0 0
0 0
0 0
0 0
0 0
0 0
0 0
0 0
0 0
0 0
0 0
0 0
0 0
0 0
0 0
0 0
0 0
0 0
0 0
0 0
0 0
0 0
0 0
0 0
0 0
0 0
0 0
0 0
0 0
0 0
0 0
0 0
0 0
0 0
0 0
0 0
0 0
0 0
0 0
0 0
0 0
0 0
0 0
0 0
0 0
0 0
0 0
0 0
0 0
0 0
0 0
0 0
0 0
0 0
0 0
0 0
0 0
0 0
0 0
0 0
0 0
0 0
0 0
0 0
0 0
0 0
0 0
0 0
0 0
0 0
0 0
0 0
0 0
0 0
0 0
0 0
0 0
0 0
0 0
0 0
0 0
0 0
0 0
0 0
0 0
0 0
0 0
0 0
0 0
0 0
0 0
0 0
0 0
0 0
0 0
0 0
0 0
0 0
0 0
0 0
0 0
0 0
0 0
0 0
0 0
0 0
0 0
0 0
0 0
0 0
0 0
0 0
0 0
0 0
0 0
0 0
0 0
0 0
0 0
0 0
0 0
0 0
0 0
0 0
0 0
0 0
0 0
0 0
0 0
0 0
0 0
0 0
0 0
0 0
0 0
0 0
0 0
0 0
0 0
0 0
0 0
0 0
0 0
0 0
0 0
0 0
0 0
0 0
0 0
0 0
0 0
0 0
0 0
0 0
0 0
0 0
0 0
0 0
0 0
0 0
0 0
0 0
0 0
0 0
0 0
0 0
0 0
0 0
0 0
0 0
0 0
0 0
0 0
0 0
0 0
0 0
0 0
0 0
0 0
0 0
0 0
0 0
0 0
0 0
0 0
0 0
0 0
0 0
0 0
0 0
0 0
0 0
0 0
0 0
0 0
0 0
0 0
0 0
0 0
0 0
0 0
0 0
0 0
0 0
0 0
0 0
0 0
0 0
0 0
0 0
0 0
0 0
0 0
0 0
0 0
0 0
0 0
0 0
0 0
0 0
0 0
0 0
0 0
0 0
0 0
0 0
0 0
0 0
0 0
0 0
0 0
0 0
0 0
0 0
0 0
0 0
0 0
0 0
0 0
0 0
0 0
0 0
0 0
0 0
0 0
0 0
0 0
0 0
0 0
0 0
0 0
0 0
0 0
0 0
0 0
0 0
0 0
0 0
0 0
0 0
0 0
0 0
0 0
0 0
0 0
0 0
0 0
0 0
0 0
0 0
0 0
0 0
0 0
0 0
0 0
0 0
0 0
0 0
0 0
0 0
0 0
0 0
0 0
0 0
0 0
0 0
0 0
0 0
0 0
0 0
0 0
0 0
0 0
0 0
0 0
0 0
0 0
0 0
0 0
0 0
0 0
0 0
0 0
0 0
0 0
0 0
0 0
0 0
0 0
0 0
0 0
0 0
0 0
0 0
0 0
0 0
0 0
0 0
0 0
0 0
0 0
0 0
0 0
0 0
0 0
0 0
0 0
0 0
0 0
0 0
0 0
0 0
0 0
0 0
0 0
0 0
0 0
0 0
0 0
0 0
0 0
0 0
0 0
0 0
0 0
0 0
0 0
0 0
0 0
0 0
0 0
0 0
0 0
0 0
0 0
0 0
0 0
0 0
0 0
0 0
0 0
0 0
0 0
0 0
0 0
0 0
0 0
0 0
0 0
0 0
0 0
0 0
0 0
0 0
0 0
0 0
0 0
0 0
0 0
0 0
0 0
0 0
0 0
0 0
0 0
0 0
0 0
0 0
0 0
0 0
0 0
0 0
0 0
0 0
0 0
0 0
0 0
0 0
0 0
0 0
0 0
0 0
0 0
0 0
0 0
0 0
0 0
0 0
0 0
0 0
0 0
0 0
0 0
0 0
0 0
0 0
0 0
0 0
0 0
0 0
0 0
0 0
0 0
0 0
0 0
0 0
0 0
0 0
0 0
0 0
0 0
0 0
0 0
0 0
0 0
0 0
0 0
0 0
0 0
0 0
0 0
0 0
0 0
0 0
0 0
0 0
0 0
0 0
0 0
0 0
0 0
0 0
0 0
0 0
0 0
0 0
0 0
0 0
0 0
0 0
0 0
0 0
0 0
0 0
0 0
0 0
0 0
0 0
0 0
0 0
0 0
0 0
0 0
0 0
0 0
0 0
0 0
0 0
0 0
0 0
0 0
0 0
0 0
0 0
0 0
0 0
0 0
0 0
0 0
0 0
0 0
0 0
0 0
0 0
0 0
0 0
0 0
0 0
0 0
0 0
0 0
0 0
0 0
0 0
0 0
0 0
0 0
0 0
0 0
0 0
0 0
0 0
0 0
0 0
0 0
0 0
0 0
0 0
0 0
0 0
0 0
0 0
0 0
0 0
0 0
0 0
0 0
0 0
0 0
0 0
0 0
0 0
0 0
0 0
0 0
0 0
0 0
0 0
0 0
0 0
0 0
0 0
0 0
0 0
0 0
0 0
0 0
0 0
0 0
0 0
0 0
0 0
0 0
0 0
0 0
0 0
0 0
0 0
0 0
0 0
0 0
0 0
0 0
0 0
0 0
0 0
0 0
0 0
0 0
0 0
0 0
0 0
0 0
0 0
0 0
0 0
0 0
0 0
0 0
0 0
0 0
0 0
0 0
0 0
0 0
0 0
0 0
0 0
0 0
0 0
0 0
0 0
0 0
0 0
0 0
0 0
0 0
0 0
0 0
0 0
0 0
0 0
0 0
0 0
0 0
0 0
0 0
0 0
0 0
0 0
0 0
0 0
0 0
0 0
0 0
0 0
0 0
0 0
0 0
0 0
0 0
0 0
0 0
0 0
0 0
0 0
0 0
0 0
0 0
0 0
0 0
0 0
0 0
0 0
0 0
0 0
0 0
0 0
0 0
0 0
0 0
0 0
0 0
0 0
0 0
0 0
0 0
0 0
0 0
0 0
0 0
0 0
0 0
0 0
0 0
0 0
0 0
0 0
0 0
0 0
0 0
0 0
0 0
0 0
0 0
0 0
0 0
0 0
0 0
0 0
0 0
0 0
0 0
0 0
0 0
0 0
0 0
0 0
0 0
0 0
0 0
0 0
0 0
0 0
0 0
0 0
0 0
0 0
0 0
0 0
0 0
0 0
0 0
0 0
0 0
0 0
0 0
0 0
0 0
0 0
0 0
0 0
0 0
0 0
0 0
0 0
0 0
0 0
0 0
0 0
0 0
0 0
0 0
0 0
0 0
0 0
0 0
0 0
0 0
0 0
0 0
0 0
0 0
0 0
0 0
0 0
0 0
0 0
0 0
0 0
0 0
0 0
0 0
0 0
0 0
0 0
0 0
0 0
0 0
0 0
0 0
0 0
0 0
0 0
0 0
0 0
0 0
0 0
0 0
0 0
0 0
0 0
0 0
0 0
0 0
0 0
0 0
0 0
0 0
0 0
0 0
0 0
0 0
0 0
0 0
0 0
0 0
0 0
0 0
0 0
0 0
0 0
0 0
0 0
0 0
0 0
0 0
0 0
0 0
0 0
0 0
0 0
0 0
0 0
0 0
0 0
0 0
0 0
0 0
0 0
0 0
0 0
0 0
0 0
0 0
0 0
0 0
0 0
0 0
0 0
0 0
0 0
0 0
0 0
0 0
0 0
0 0
0 0
0 0
0 0
0 0
0 0
0 0
0 0
0 0
0 0
0 0
0 0
0 0
0 0
0 0
0 0
0 0
0 0
0 0
0 0
0 0
0 0
0 0
0 0
0 0
0 0
0 0
0 0
0 0
0 0
0 0
0 0
0 0
0 0
0 0
0 0
0 0
0 0
0 0
0 0
0 0
0 0
0 0
0 0
0 0
0 0
0 0
0 0
0 0
0 0
0 0
0 0
0 0
0 0
0 0
0 0
0 0
0 0
0 0
0 0
0 0
0 0
0 0
0 0
0 0
0 0
0 0
0 0
0 0
0 0
0 0
0 0
0 0
0 0
0 0
0 0
0 0
0 0
0 0
0 0
0 0
0 0
0 0
0 0
0 0
0 0
0 0
0 0
0 0
0 0
0 0
0 0
0 0
0 0
0 0
0 0
0 0
0 0
0 0
0 0
0 0
0 0
0 0
0 0
0 0
0 0
0 0
0 0
0 0
0 0
0 0
0 0
0 0
0 0
0 0
0 0
0 0
0 0
0 0
0 0
0 0
0 0
0 0
0 0
0 0
0 0
0 0
0 0
0 0
0 0
0 0
0 0
0 0
0 0
0 0
0 0
0 0
0 0
0 0
0 0
0 0
0 0
0 0
0 0
0 0
0 0
0 0
0 0
0 0
0 0
0 0
0 0
0 0
0 0
0 0
0 0
0 0
0 0
0 0
0 0
0 0
0 0
0 0
0 0
0 0
0 0
0 0
0 0
0 0
0 0
0 0
0 0
0 0
0 0
0 0
0 0
0 0
0 0
0 0
0 0
0 0
0 0
0 0
0 0
0 0
0 0
0 0
0 0
0 0
0 0
0 0
0 0
0 0
0 0
0 0
0 0
0 0
0 0
0 0
0 0
0 0
0 0
0 0
0 0
0 0
0 0
0 0
0 0
0 0
0 0
0 0
0 0
0 0
0 0
0 0
0 0
0 0
0 0
0 0
0 0
0 0
0 0
0 0
0 0
0 0
0 0
0 0
0 0
0 0
0 0
0 0
0 0
0 0
0 0
0 0
0 0
0 0
0 0
0 0
0 0
0 0
0 0
0 0
0 0
0 0
0 0
0 0
0 0
0 0
0 0
0 0
0 0
0 0
0 0
0 0
0 0
0 0
0 0
0 0
0 0
0 0
0 0
0 0
0 0
0 0
0 0
0 0
0 0
0 0
0 0
0 0
0 0
0 0
0 0
0 0
0 0
0 0
0 0
0 0
0 0
0 0
0 0
0 0
0 0
0 0
0 0
0 0
0 0
0 0
0 0
0 0
0 0
0 0
0 0
0 0
0 0
0 0
0 0
0 0
0 0
0 0
0 0
0 0
0 0
0 0
0 0
0 0
0 0
0 0
0 0
0 0
0 0
0 0
0 0
0 0
0 0
0 0
0 0
0 0
0 0
0 0
0 0
0 0
0 0
0 0
0 0
0 0
0 0
0 0
0 0
0 0
0 0
0 0
0 0
0 0
0 0
0 0
0 0
0 0
0 0
0 0
0 0
0 0
0 0
0 0
0 0
0 0
0 0
0 0
0 0
0 0
0 0
0 0
0 0
0 0
0 0
0 0
0 0
0 0
0 0
0 0
0 0
0 0
0 0
0 0
0 0
0 0
0 0
0 0
0 0
0 0
0 0
0 0
0 0
0 0
0 0
0 0
0 0
0 0
0 0
0 0
0 0
0 0
0 0
0 0
0 0
0 0
0 0
0 0
0 0
0 0
0 0
0 0
0 0
0 0
0 0
0 0
0 0
0 0
0 0
0 0
0 0
0 0
0 0
0 0
0 0
0 0
0 0
0 0
0 0
0 0
0 0
0 0
0 0
0 0
0 0
0 0
0 0
0 0
0 0
0 0
0 0
0 0
0 0
0 0
0 0
0 0
0 0
0 0
0 0
0 0
0 0
0 0
0 0
0 0
0 0
0 0
0 0
0 0
0 0
0 0
0 0
0 0
0 0
0 0
0 0
0 0
0 0
0 0
0 0
0 0
0 0
0 0
0 0
0 0
0 0
0 0
0 0
0 0
0 0
0 0
0 0
0 0
0 0
0 0
0 0
0 0
0 0
0 0
0 0
0 0
0 0
0 0
0 0
0 0
0 0
0 0
0 0
0 0
0 0
0 0
0 0
0 0
0 0
0 0
0 0
0 0
0 0
0 0
0 0
0 0
0 0
0 0
0 0
0 0
0 0
0 0
0 0
0 0
0 0
0 0
0 0
0 0
0 0
0 0
0 0
0 0
0 0
0 0
0 0
0 0
0 0
0 0
0 0
0 0
0 0
0 0
0 0
0 0
0 0
0 0
0 0
0 0
0 0
0 0
0 0
0 0
0 0
0 0
0 0
0 0
0 0
0 0
0 0
0 0
0 0
0 0
0 0
0 0
0 0
0 0
0 0
0 0
0 0
0 0
0 0
0 0
0 0
0 0
0 0
0 0
0 0
0 0
0 0
0 0
0 0
0 0
0 0
0 0
0 0
0 0
0 0
0 0
0 0
0 0
0 0
0 0
0 0
0 0
0 0
0 0
0 0
0 0
0 0
0 0
0 0
0 0
0 0
0 0
0 0
0 0
0 0
0 0
0 0
0 0
0 0
0 0
0 0
0 0
0 0
0 0
0 0
0 0
0 0
0 0
0 0
0 0
0 0
0 0
0 0
0 0
0 0
0 0
0 0
0 0
0 0
0 0
0 0
0 0
0 0
0 0
0 0
0 0
0 0
0 0
0 0
0 0
0 0
0 0
0 0
0 0
0 0
0 0
0 0
0 0
0 0
0 0
0 0
0 0
0 0
0 0
0 0
0 0
0 0
0 0
0 0
0 0
0 0
0 0
0 0
0 0
0 0
0 0
0 0
0 0
0 0
0 0
0 0
0 0
0 0
0 0
0 0
0 0
0 0
0 0
0 0
0 0
0 0
0 0
0 0
0 0
0 0
0 0
0 0
0 0
0 0
0 0
0 0
0 0
0 0
0 0
0 0
0 0
0 0
0 0
0 0
0 0
0 0
0 0
0 0
0 0
0 0
0 0
0 0
0 0
0 0
0 0
0 0
0 0
0 0
0 0
0 0
0 0
0 0
0 0
0 0
0 0
0 0
0 0
0 0
0 0
0 0
0 0
0 0
0 0
0 0
0 0
0 0
0 0
0 0
0 0
0 0
0 0
0 0
0 0
0 0
0 0
0 0
0 0
0 0
0 0
0 0
0 0
0 0
0 0
0 0
0 0
0 0
0 0
0 0
0 0
0 0
0 0
0 0
0 0
0 0
0 0
0 0
0 0
0 0
0 0
0 0
0 0
0 0
0 0
0 0
0 0
0 0
0 0
0 0
0 0
0 0
0 0
0 0
0 0
0 0
0 0
0 0
0 0
0 0
0 0
0 0
0 0
0 0
0 0
0 0
0 0
0 0
0 0
0 0
0 0
0 0
0 0
0 0
0 0
0 0
0 0
0 0
0 0
0 0
0 0
0 0
0 0
0 0
0 0
0 0
0 0
0 0
0 0
0 0
0 0
0 0
0 0
0 0
0 0
0 0
0 0
0 0
0 0
0 0
0 0
0 0
0 0
0 0
0 0
0 0
0 0
0 0
0 0
0 0
0 0
0 0
0 0
0 0
0 0
0 0
0 0
0 0
0 0
0 0
0 0
0 0
0 0
0 0
0 0
0 0
0 0
0 0
0 0
0 0
0 0
0 0
0 0
0 0
0 0
0 0
0 0
0 0
0 0
0 0
0 0
0 0
0 0
0 0
0 0
0 0
0 0
0 0
0 0
0 0
0 0
0 0
0 0
0 0
0 0
0 0
0 0
0 0
0 0
0 0
0 0
0 0
0 0
0 0
0 0
0 0
0 0
0 0
0 0
0 0
0 0
0 0
0 0
0 0
0 0
0 0
0 0
0 0
0 0
0 0
0 0
0 0
0 0
0 0
0 0
0 0
0 0
0 0
0 0
0 0
0 0
0 0
0 0
0 0
0 0
0 0
0 0
0 0
0 0
0 0
0 0
0 0
0 0
0 0
0 0
0 0
0 0
0 0
0 0
0 0
0 0
0 0
0 0
0 0
0 0
0 0
0 0
0 0
0 0
0 0
0 0
0 0
0 0
0 0
0 0
0 0
0 0
0 0
0 0
0 0
0 0
0 0
0 0
0 0
0 0
0 0
0 0
0 0
0 0
0 0
0 0
0 0
0 0
0 0
0 0
0 0
0 0
0 0
0 0
0 0
0 0
0 0
0 0
0 0
0 0
0 0
0 0
0 0
0 0
0 0
0 0
0 0
0 0
0 0
0 0
0 0
0 0
0 0
0 0
0 0
0 0
0 0
0 0
0 0
0 0
0 0
0 0
0 0
0 0
0 0
0 0
0 0
0 0
0 0
0 0
0 0
0 0
0 0
0 0
0 0
0 0
0 0
0 0
0 0
0 0
0 0
0 0
0 0
0 0
0 0
0 0
0 0
0 0
0 0
0 0
0 0
0 0
0 0
0 0
0 0
0 0
0 0
0 0
0 0
0 0
0 0
0 0
0 0
0 0
0 0
0 0
0 0
0 0
0 0
0 0
0 0
0 0
0 0
0 0
0 0
0 0
0 0
0 0
0 0
0 0
0 0
0 0
0 0
0 0
0 0
0 0
0 0
0 0
0 0
0 0
0 0
0 0
0 0
0 0
0 0
0 0
0 0
0 0
0 0
0 0
0 0
0 0
0 0
0 0
0 0
0 0
0 0
0 0
0 0
0 0
0 0
0 0
0 0
0 0
0 0
0 0
0 0
0 0
0 0
0 0
0 0
0 0
0 0
0 0
0 0
0 0
0 0
0 0
0 0
0 0
0 0
0 0
0 0
0 0
0 0
0 0
0 0
0 0
0 0
0 0
0 0
0 0
0 0
0 0
0 0
0 0
0 0
0 0
0 0
0 0
0 0
0 0
0 0
0 0
0 0
0 0
0 0
0 0
0 0
0 0
0 0
0 0
0 0
0 0
0 0
0 0
0 0
0 0
0 0
0 0
0 0
0 0
0 0
0 0
0 0
0 0
0 0
0 0
0 0
0 0
0 0
0 0
0 0
0 0
0 0
0 0
0 0
0 0
0 0
0 0
0 0
0 0
0 0
0 0
0 0
0 0
0 0
0 0
0 0
0 0
0 0
0 0
0 0
0 0
0 0
0 0
0 0
0 0
0 0
0 0
0 0
0 0
0 0
0 0
0 0
0 0
0 0
0 0
0 0
0 0
0 0
0 0
0 0
0 0
0 0
0 0
0 0
0 0
0 0
0 0
0 0
0 0
0 0
0 0
0 0
0 0
0 0
0 0
0 0
0 0
0 0
0 0
0 0
0 0
0 0
0 0
0 0
0 0
0 0
0 0
0 0
0 0
0 0
0 0
0 0
0 0
0 0
0 0
0 0
0 0
0 0
0 0
0 0
0 0
0 0
0 0
0 0
0 0
0 0
0 0
0 0
0 0
0 0
0 0
0 0
0 0
0 0
0 0
0 0
0 0
0 0
0 0
0 0
0 0
0 0
0 0
0 0
0 0
0 0
0 0
0 0
0 0
0 0
0 0
0 0
0 0
0 0
0 0
0 0
0 0
0 0
0 0
0 0
0 0
0 0
0 0
0 0
0 0
0 0
0 0
0 0
0 0
0 0
0 0
0 0
0 0
0 0
0 0
0 0
0 0
0 0
0 0
0 0
0 0
0 0
0 0
0 0
0 0
0 0
0 0
0 0
0 0
0 0
0 0
0 0
0 0
0 0
0 0
0 0
0 0
0 0
0 0
0 0
0 0
0 0
0 0
0 0
0 0
0 0
0 0
0 0
0 0
0 0
0 0
0 0
0 0
0 0
0 0
0 0
0 0
0 0
0 0
0 0
0 0
0 0
0 0
0 0
0 0
0 0
0 0
0 0
0 0
0 0
0 0
0 0
0 0
0 0
0 0
0 0
0 0
0 0
0 0
0 0
0 0
0 0
0 0
0 0
0 0
0 0
0 0
0 0
0 0
0 0
0 0
0 0
0 0
0 0
0 0
0 0
0 0
0 0
0 0
0 0
0 0
0 0
0 0
0 0
0 0
0 0
0 0
0 0
0 0
0 0
0 0
0 0
0 0
0 0
0 0
0 0
0 0
0 0
0 0
0 0
0 0
0 0
0 0
0 0
0 0
0 0
0 0
0 0
0 0
0 0
0 0
0 0
0 0
0 0
0 0
0 0
0 0
0 0
0 0
0 0
0 0
0 0
0 0
0 0
0 0
0 0
0 0
0 0
0 0
0 0
0 0
0 0
0 0
0 0
0 0
0 0
0 0
0 0
0 0
0 0
0 0
0 0
0 0
0 0
0 0
0 0
0 0
0 0
0 0
0 0
0 0
0 0
0 0
0 0
0 0
0 0
0 0
0 0
0 0
0 0
0 0
0 0
0 0
0 0
0 0
0 0
0 0
0 0
0 0
0 0
0 0
0 0
0 0
0 0
0 0
0 0
0 0
0 0
0 0
0 0
0 0
0 0
0 0
0 0
0 0
0 0
0 0
0 0
0 0
0 0
0 0
0 0
0 0
0 0
0 0
0 0
0 0
0 0
0 0
0 0
0 0
0 0
0 0
0 0
0 0
0 0
0 0
0 0
0 0
0 0
0 0
0 0
0 0
0 0
0 0
0 0
0 0
0 0
0 0
0 0
0 0
0 0
0 0
0 0
0 0
0 0
0 0
0 0
0 0
0 0
0 0
0 0
0 0
0 0
0 0
0 0
0 0
0 0
0 0
0 0
0 0
0 0
0 0
0 0
0 0
0 0
0 0
0 0
0 0
0 0
0 0
0 0
0 0
0 0
0 0
0 0
0 0
0 0
0 0
0 0
0 0
0 0
0 0
0 0
0 0
0 0
0 0
0 0
0 0
0 0
0 0
0 0
0 0
0 0
0 0
0 0
0 0
0 0
0 0
0 0
0 0
0 0
0 0
0 0
0 0
0 0
0 0
0 0
0 0
0 0
0 0
0 0
0 0
0 0
0 0
0 0
0 0
0 0
0 0
0 0
0 0
0 0
0 0
0 0
0 0
0 0
0 0
0 0
0 0
0 0
0 0
0 0
0 0
0 0
0 0
0 0
0 0
0 0
0 0
0 0
0 0
0 0
0 0
0 0
0 0
0 0
0 0
0 0
0 0
0 0
0 0
0 0
0 0
0 0
0 0
0 0
0 0
0 0
0 0
0 0
0 0
0 0
0 0
0 0
0 0
0 0
0 0
0 0
0 0
0 0
0 0
0 0
0 0
0 0
0 0
0 0
0 0
0 0
0 0
0 0
0 0
0 0
0 0
0 0
0 0
0 0
0 0
0 0
0 0
0 0
0 0
0 0
0 0
0 0
0 0
0 0
0 0
0 0
0 0
0 0
0 0
0 0
0 0
0 0
0 0
0 0
0 0
0 0
0 0
0 0
0 0
0 0
0 0
0 0
0 0
0 0
0 0
0 0
0 0
0 0
0 0
0 0
0 0
0 0
0 0
0 0
0 0
0 0
0 0
0 0
0 0
0 0
0 0
0 0
0 0
0 0
0 0
0 0
0 0
0 0
0 0
0 0
0 0
0 0
0 0
0 0
0 0
0 0
0 0
0 0
0 0
0 0
0 0
0 0
0 0
0 0
0 0
0 0
0 0
0 0
0 0
0 0
0 0
0 0
0 0
0 0
0 0
0 0
0 0
0 0
0 0
0 0
0 0
0 0
0 0
0 0
0 0
0 0
0 0
0 0
0 0
0 0
0 0
0 0
0 0
0 0
0 0
0 0
0 0
0 0
0 0
0 0
0 0
0 0
0 0
0 0
0 0
0 0
0 0
0 0
0 0
0 0
0 0
0 0
0 0
0 0
0 0
0 0
0 0
0 0
0 0
0 0
0 0
0 0
0 0
0 0
0 0
0 0
0 0
0 0
0 0
0 0
0 0
0 0
0 0
0 0
0 0
0 0
0 0
0 0
0 0
0 0
0 0
0 0
0 0
0 0
0 0
0 0
0 0
0 0
0 0
0 0
0 0
0 0
0 0
0 0
0 0
0 0
0 0
0 0
0 0
0 0
0 0
0 0
0 0
0 0
0 0
0 0
0 0
0 0
0 0
0 0
0 0
0 0
0 0
0 0
0 0
0 0
0 0
0 0
0 0
0 0
0 0
0 0
0 0
0 0
0 0
0 0
0 0
0 0
0 0
0 0
0 0
0 0
0 0
0 0
0 0
0 0
0 0
0 0
0 0
0 0
0 0
0 0
0 0
0 0
0 0
0 0
0 0
0 0
0 0
0 0
0 0
0 0
0 0
0 0
0 0
0 0
0 0
0 0
0 0
0 0
0 0
0 0
0 0
0 0
0 0
0 0
0 0
0 0
0 0
0 0
0 0
0 0
0 0
0 0
0 0
0 0
0 0
0 0
0 0
0 0
0 0
0 0
0 0
0 0
0 0
0 0
0 0
0 0
0 0
0 0
0 0
0 0
0 0
0 0
0 0
0 0
0 0
0 0
0 0
0 0
0 0
0 0
0 0
0 0
0 0
0 0
0 0
0 0
0 0
0 0
0 0
0 0
0 0
0 0
0 0
0 0
0 0
0 0
0 0
0 0
0 0
0 0
0 0
0 0
0 0
0 0
0 0
0 0
0 0
0 0
0 0
0 0
0 0
0 0
0 0
0 0
0 0
0 0
0 0
0 0
0 0
0 0
0 0
0 0
      </DataArray> 
      <DataArray type="Float64" NumberOfComponents="4" Name="CauchyStress" format="ascii">
0 0 0 0
0 0 0 0
0 0 0 0
0 0 0 0
0 0 0 0
0 0 0 0
0 0 0 0
0 0 0 0
0 0 0 0
0 0 0 0
0 0 0 0
0 0 0 0
0 0 0 0
0 0 0 0
0 0 0 0
0 0 0 0
0 0 0 0
0 0 0 0
0 0 0 0
0 0 0 0
0 0 0 0
0 0 0 0
0 0 0 0
0 0 0 0
0 0 0 0
0 0 0 0
0 0 0 0
0 0 0 0
0 0 0 0
0 0 0 0
0 0 0 0
0 0 0 0
0 0 0 0
0 0 0 0
0 0 0 0
0 0 0 0
0 0 0 0
0 0 0 0
0 0 0 0
0 0 0 0
0 0 0 0
0 0 0 0
0 0 0 0
0 0 0 0
0 0 0 0
0 0 0 0
0 0 0 0
0 0 0 0
0 0 0 0
0 0 0 0
0 0 0 0
0 0 0 0
0 0 0 0
0 0 0 0
0 0 0 0
0 0 0 0
0 0 0 0
0 0 0 0
0 0 0 0
0 0 0 0
0 0 0 0
0 0 0 0
0 0 0 0
0 0 0 0
0 0 0 0
0 0 0 0
0 0 0 0
0 0 0 0
0 0 0 0
0 0 0 0
0 0 0 0
0 0 0 0
0 0 0 0
0 0 0 0
0 0 0 0
0 0 0 0
0 0 0 0
0 0 0 0
0 0 0 0
0 0 0 0
0 0 0 0
0 0 0 0
0 0 0 0
0 0 0 0
0 0 0 0
0 0 0 0
0 0 0 0
0 0 0 0
0 0 0 0
0 0 0 0
0 0 0 0
0 0 0 0
0 0 0 0
0 0 0 0
0 0 0 0
0 0 0 0
0 0 0 0
0 0 0 0
0 0 0 0
0 0 0 0
0 0 0 0
0 0 0 0
0 0 0 0
0 0 0 0
0 0 0 0
0 0 0 0
0 0 0 0
0 0 0 0
0 0 0 0
0 0 0 0
0 0 0 0
0 0 0 0
0 0 0 0
0 0 0 0
0 0 0 0
0 0 0 0
0 0 0 0
0 0 0 0
0 0 0 0
0 0 0 0
0 0 0 0
0 0 0 0
0 0 0 0
0 0 0 0
0 0 0 0
0 0 0 0
0 0 0 0
0 0 0 0
0 0 0 0
0 0 0 0
0 0 0 0
0 0 0 0
0 0 0 0
0 0 0 0
0 0 0 0
0 0 0 0
0 0 0 0
0 0 0 0
0 0 0 0
0 0 0 0
0 0 0 0
0 0 0 0
0 0 0 0
0 0 0 0
0 0 0 0
0 0 0 0
0 0 0 0
0 0 0 0
0 0 0 0
0 0 0 0
0 0 0 0
0 0 0 0
0 0 0 0
0 0 0 0
0 0 0 0
0 0 0 0
0 0 0 0
0 0 0 0
0 0 0 0
0 0 0 0
0 0 0 0
0 0 0 0
0 0 0 0
0 0 0 0
0 0 0 0
0 0 0 0
0 0 0 0
0 0 0 0
0 0 0 0
0 0 0 0
0 0 0 0
0 0 0 0
0 0 0 0
0 0 0 0
0 0 0 0
0 0 0 0
0 0 0 0
0 0 0 0
0 0 0 0
0 0 0 0
0 0 0 0
0 0 0 0
0 0 0 0
0 0 0 0
0 0 0 0
0 0 0 0
0 0 0 0
0 0 0 0
0 0 0 0
0 0 0 0
0 0 0 0
0 0 0 0
0 0 0 0
0 0 0 0
0 0 0 0
0 0 0 0
0 0 0 0
0 0 0 0
0 0 0 0
0 0 0 0
0 0 0 0
0 0 0 0
0 0 0 0
0 0 0 0
0 0 0 0
0 0 0 0
0 0 0 0
0 0 0 0
0 0 0 0
0 0 0 0
0 0 0 0
0 0 0 0
0 0 0 0
0 0 0 0
0 0 0 0
0 0 0 0
0 0 0 0
0 0 0 0
0 0 0 0
0 0 0 0
0 0 0 0
0 0 0 0
0 0 0 0
0 0 0 0
0 0 0 0
0 0 0 0
0 0 0 0
0 0 0 0
0 0 0 0
0 0 0 0
0 0 0 0
0 0 0 0
0 0 0 0
0 0 0 0
0 0 0 0
0 0 0 0
0 0 0 0
0 0 0 0
0 0 0 0
0 0 0 0
0 0 0 0
0 0 0 0
0 0 0 0
0 0 0 0
0 0 0 0
0 0 0 0
0 0 0 0
0 0 0 0
0 0 0 0
0 0 0 0
0 0 0 0
0 0 0 0
0 0 0 0
0 0 0 0
0 0 0 0
0 0 0 0
0 0 0 0
0 0 0 0
0 0 0 0
0 0 0 0
0 0 0 0
0 0 0 0
0 0 0 0
0 0 0 0
0 0 0 0
0 0 0 0
0 0 0 0
0 0 0 0
0 0 0 0
0 0 0 0
0 0 0 0
0 0 0 0
0 0 0 0
0 0 0 0
0 0 0 0
0 0 0 0
0 0 0 0
0 0 0 0
0 0 0 0
0 0 0 0
0 0 0 0
0 0 0 0
0 0 0 0
0 0 0 0
0 0 0 0
0 0 0 0
0 0 0 0
0 0 0 0
0 0 0 0
0 0 0 0
0 0 0 0
0 0 0 0
0 0 0 0
0 0 0 0
0 0 0 0
0 0 0 0
0 0 0 0
0 0 0 0
0 0 0 0
0 0 0 0
0 0 0 0
0 0 0 0
0 0 0 0
0 0 0 0
0 0 0 0
0 0 0 0
0 0 0 0
0 0 0 0
0 0 0 0
0 0 0 0
0 0 0 0
0 0 0 0
0 0 0 0
0 0 0 0
0 0 0 0
0 0 0 0
0 0 0 0
0 0 0 0
0 0 0 0
0 0 0 0
0 0 0 0
0 0 0 0
0 0 0 0
0 0 0 0
0 0 0 0
0 0 0 0
0 0 0 0
0 0 0 0
0 0 0 0
0 0 0 0
0 0 0 0
0 0 0 0
0 0 0 0
0 0 0 0
0 0 0 0
0 0 0 0
0 0 0 0
0 0 0 0
0 0 0 0
0 0 0 0
0 0 0 0
0 0 0 0
0 0 0 0
0 0 0 0
0 0 0 0
0 0 0 0
0 0 0 0
0 0 0 0
0 0 0 0
0 0 0 0
0 0 0 0
0 0 0 0
0 0 0 0
0 0 0 0
0 0 0 0
0 0 0 0
0 0 0 0
0 0 0 0
0 0 0 0
0 0 0 0
0 0 0 0
0 0 0 0
0 0 0 0
0 0 0 0
0 0 0 0
0 0 0 0
0 0 0 0
0 0 0 0
0 0 0 0
0 0 0 0
0 0 0 0
0 0 0 0
0 0 0 0
0 0 0 0
0 0 0 0
0 0 0 0
0 0 0 0
0 0 0 0
0 0 0 0
0 0 0 0
0 0 0 0
0 0 0 0
0 0 0 0
0 0 0 0
0 0 0 0
0 0 0 0
0 0 0 0
0 0 0 0
0 0 0 0
0 0 0 0
0 0 0 0
0 0 0 0
0 0 0 0
0 0 0 0
0 0 0 0
0 0 0 0
0 0 0 0
0 0 0 0
0 0 0 0
0 0 0 0
0 0 0 0
0 0 0 0
0 0 0 0
0 0 0 0
0 0 0 0
0 0 0 0
0 0 0 0
0 0 0 0
0 0 0 0
0 0 0 0
0 0 0 0
0 0 0 0
0 0 0 0
0 0 0 0
0 0 0 0
0 0 0 0
0 0 0 0
0 0 0 0
0 0 0 0
0 0 0 0
0 0 0 0
0 0 0 0
0 0 0 0
0 0 0 0
0 0 0 0
0 0 0 0
0 0 0 0
0 0 0 0
0 0 0 0
0 0 0 0
0 0 0 0
0 0 0 0
0 0 0 0
0 0 0 0
0 0 0 0
0 0 0 0
0 0 0 0
0 0 0 0
0 0 0 0
0 0 0 0
0 0 0 0
0 0 0 0
0 0 0 0
0 0 0 0
0 0 0 0
0 0 0 0
0 0 0 0
0 0 0 0
0 0 0 0
0 0 0 0
0 0 0 0
0 0 0 0
0 0 0 0
0 0 0 0
0 0 0 0
0 0 0 0
0 0 0 0
0 0 0 0
0 0 0 0
0 0 0 0
0 0 0 0
0 0 0 0
0 0 0 0
0 0 0 0
0 0 0 0
0 0 0 0
0 0 0 0
0 0 0 0
0 0 0 0
0 0 0 0
0 0 0 0
0 0 0 0
0 0 0 0
0 0 0 0
0 0 0 0
0 0 0 0
0 0 0 0
0 0 0 0
0 0 0 0
0 0 0 0
0 0 0 0
0 0 0 0
0 0 0 0
0 0 0 0
0 0 0 0
0 0 0 0
0 0 0 0
0 0 0 0
0 0 0 0
0 0 0 0
0 0 0 0
0 0 0 0
0 0 0 0
0 0 0 0
0 0 0 0
0 0 0 0
0 0 0 0
0 0 0 0
0 0 0 0
0 0 0 0
0 0 0 0
0 0 0 0
0 0 0 0
0 0 0 0
0 0 0 0
0 0 0 0
0 0 0 0
0 0 0 0
0 0 0 0
0 0 0 0
0 0 0 0
0 0 0 0
0 0 0 0
0 0 0 0
0 0 0 0
0 0 0 0
0 0 0 0
0 0 0 0
0 0 0 0
0 0 0 0
0 0 0 0
0 0 0 0
0 0 0 0
0 0 0 0
0 0 0 0
0 0 0 0
0 0 0 0
0 0 0 0
0 0 0 0
0 0 0 0
0 0 0 0
0 0 0 0
0 0 0 0
0 0 0 0
0 0 0 0
0 0 0 0
0 0 0 0
0 0 0 0
0 0 0 0
0 0 0 0
0 0 0 0
0 0 0 0
0 0 0 0
0 0 0 0
0 0 0 0
0 0 0 0
0 0 0 0
0 0 0 0
0 0 0 0
0 0 0 0
0 0 0 0
0 0 0 0
0 0 0 0
0 0 0 0
0 0 0 0
0 0 0 0
0 0 0 0
0 0 0 0
0 0 0 0
0 0 0 0
0 0 0 0
0 0 0 0
0 0 0 0
0 0 0 0
0 0 0 0
0 0 0 0
0 0 0 0
0 0 0 0
0 0 0 0
0 0 0 0
0 0 0 0
0 0 0 0
0 0 0 0
0 0 0 0
0 0 0 0
0 0 0 0
0 0 0 0
0 0 0 0
0 0 0 0
0 0 0 0
0 0 0 0
0 0 0 0
0 0 0 0
0 0 0 0
0 0 0 0
0 0 0 0
0 0 0 0
0 0 0 0
0 0 0 0
0 0 0 0
0 0 0 0
0 0 0 0
0 0 0 0
0 0 0 0
0 0 0 0
0 0 0 0
0 0 0 0
0 0 0 0
0 0 0 0
0 0 0 0
0 0 0 0
0 0 0 0
0 0 0 0
0 0 0 0
0 0 0 0
0 0 0 0
0 0 0 0
0 0 0 0
0 0 0 0
0 0 0 0
0 0 0 0
0 0 0 0
0 0 0 0
0 0 0 0
0 0 0 0
0 0 0 0
0 0 0 0
0 0 0 0
0 0 0 0
0 0 0 0
0 0 0 0
0 0 0 0
0 0 0 0
0 0 0 0
0 0 0 0
0 0 0 0
0 0 0 0
0 0 0 0
0 0 0 0
0 0 0 0
0 0 0 0
0 0 0 0
0 0 0 0
0 0 0 0
0 0 0 0
0 0 0 0
0 0 0 0
0 0 0 0
0 0 0 0
0 0 0 0
0 0 0 0
0 0 0 0
0 0 0 0
0 0 0 0
0 0 0 0
0 0 0 0
0 0 0 0
0 0 0 0
0 0 0 0
0 0 0 0
0 0 0 0
0 0 0 0
0 0 0 0
0 0 0 0
0 0 0 0
0 0 0 0
0 0 0 0
0 0 0 0
0 0 0 0
0 0 0 0
0 0 0 0
0 0 0 0
0 0 0 0
0 0 0 0
0 0 0 0
0 0 0 0
0 0 0 0
0 0 0 0
0 0 0 0
0 0 0 0
0 0 0 0
0 0 0 0
0 0 0 0
0 0 0 0
0 0 0 0
0 0 0 0
0 0 0 0
0 0 0 0
0 0 0 0
0 0 0 0
0 0 0 0
0 0 0 0
0 0 0 0
0 0 0 0
0 0 0 0
0 0 0 0
0 0 0 0
0 0 0 0
0 0 0 0
0 0 0 0
0 0 0 0
0 0 0 0
0 0 0 0
0 0 0 0
0 0 0 0
0 0 0 0
0 0 0 0
0 0 0 0
0 0 0 0
0 0 0 0
0 0 0 0
0 0 0 0
0 0 0 0
0 0 0 0
0 0 0 0
0 0 0 0
0 0 0 0
0 0 0 0
0 0 0 0
0 0 0 0
0 0 0 0
0 0 0 0
0 0 0 0
0 0 0 0
0 0 0 0
0 0 0 0
0 0 0 0
0 0 0 0
0 0 0 0
0 0 0 0
0 0 0 0
0 0 0 0
0 0 0 0
0 0 0 0
0 0 0 0
0 0 0 0
0 0 0 0
0 0 0 0
0 0 0 0
0 0 0 0
0 0 0 0
0 0 0 0
0 0 0 0
0 0 0 0
0 0 0 0
0 0 0 0
0 0 0 0
0 0 0 0
0 0 0 0
0 0 0 0
0 0 0 0
0 0 0 0
0 0 0 0
0 0 0 0
0 0 0 0
0 0 0 0
0 0 0 0
0 0 0 0
0 0 0 0
0 0 0 0
0 0 0 0
0 0 0 0
0 0 0 0
0 0 0 0
0 0 0 0
0 0 0 0
0 0 0 0
0 0 0 0
0 0 0 0
0 0 0 0
0 0 0 0
0 0 0 0
0 0 0 0
0 0 0 0
0 0 0 0
0 0 0 0
0 0 0 0
0 0 0 0
0 0 0 0
0 0 0 0
0 0 0 0
0 0 0 0
0 0 0 0
0 0 0 0
0 0 0 0
0 0 0 0
0 0 0 0
0 0 0 0
0 0 0 0
0 0 0 0
0 0 0 0
0 0 0 0
0 0 0 0
0 0 0 0
0 0 0 0
0 0 0 0
0 0 0 0
0 0 0 0
0 0 0 0
0 0 0 0
0 0 0 0
0 0 0 0
0 0 0 0
0 0 0 0
0 0 0 0
0 0 0 0
0 0 0 0
0 0 0 0
0 0 0 0
0 0 0 0
0 0 0 0
0 0 0 0
0 0 0 0
0 0 0 0
0 0 0 0
0 0 0 0
0 0 0 0
0 0 0 0
0 0 0 0
0 0 0 0
0 0 0 0
0 0 0 0
0 0 0 0
0 0 0 0
0 0 0 0
0 0 0 0
0 0 0 0
0 0 0 0
0 0 0 0
0 0 0 0
0 0 0 0
0 0 0 0
0 0 0 0
0 0 0 0
0 0 0 0
0 0 0 0
0 0 0 0
0 0 0 0
0 0 0 0
0 0 0 0
0 0 0 0
0 0 0 0
0 0 0 0
0 0 0 0
0 0 0 0
0 0 0 0
0 0 0 0
0 0 0 0
0 0 0 0
0 0 0 0
0 0 0 0
0 0 0 0
0 0 0 0
0 0 0 0
0 0 0 0
0 0 0 0
0 0 0 0
0 0 0 0
0 0 0 0
0 0 0 0
0 0 0 0
0 0 0 0
0 0 0 0
0 0 0 0
0 0 0 0
0 0 0 0
0 0 0 0
0 0 0 0
0 0 0 0
0 0 0 0
0 0 0 0
0 0 0 0
0 0 0 0
0 0 0 0
0 0 0 0
0 0 0 0
0 0 0 0
0 0 0 0
0 0 0 0
0 0 0 0
0 0 0 0
0 0 0 0
0 0 0 0
0 0 0 0
0 0 0 0
0 0 0 0
0 0 0 0
0 0 0 0
0 0 0 0
0 0 0 0
0 0 0 0
0 0 0 0
0 0 0 0
0 0 0 0
0 0 0 0
0 0 0 0
0 0 0 0
0 0 0 0
0 0 0 0
0 0 0 0
0 0 0 0
0 0 0 0
0 0 0 0
0 0 0 0
0 0 0 0
0 0 0 0
0 0 0 0
0 0 0 0
0 0 0 0
0 0 0 0
0 0 0 0
0 0 0 0
0 0 0 0
0 0 0 0
0 0 0 0
0 0 0 0
0 0 0 0
0 0 0 0
0 0 0 0
0 0 0 0
0 0 0 0
0 0 0 0
0 0 0 0
0 0 0 0
0 0 0 0
0 0 0 0
0 0 0 0
0 0 0 0
0 0 0 0
0 0 0 0
0 0 0 0
0 0 0 0
0 0 0 0
0 0 0 0
0 0 0 0
0 0 0 0
0 0 0 0
0 0 0 0
0 0 0 0
0 0 0 0
0 0 0 0
0 0 0 0
0 0 0 0
0 0 0 0
0 0 0 0
0 0 0 0
0 0 0 0
0 0 0 0
0 0 0 0
0 0 0 0
0 0 0 0
0 0 0 0
0 0 0 0
0 0 0 0
0 0 0 0
0 0 0 0
0 0 0 0
0 0 0 0
0 0 0 0
0 0 0 0
0 0 0 0
0 0 0 0
0 0 0 0
0 0 0 0
0 0 0 0
0 0 0 0
0 0 0 0
0 0 0 0
0 0 0 0
0 0 0 0
0 0 0 0
0 0 0 0
0 0 0 0
0 0 0 0
0 0 0 0
0 0 0 0
0 0 0 0
0 0 0 0
0 0 0 0
0 0 0 0
0 0 0 0
0 0 0 0
0 0 0 0
0 0 0 0
0 0 0 0
0 0 0 0
0 0 0 0
0 0 0 0
0 0 0 0
0 0 0 0
0 0 0 0
0 0 0 0
0 0 0 0
0 0 0 0
0 0 0 0
0 0 0 0
0 0 0 0
0 0 0 0
0 0 0 0
0 0 0 0
0 0 0 0
0 0 0 0
0 0 0 0
0 0 0 0
0 0 0 0
0 0 0 0
0 0 0 0
0 0 0 0
0 0 0 0
0 0 0 0
0 0 0 0
0 0 0 0
0 0 0 0
0 0 0 0
0 0 0 0
0 0 0 0
0 0 0 0
0 0 0 0
0 0 0 0
0 0 0 0
0 0 0 0
0 0 0 0
0 0 0 0
0 0 0 0
0 0 0 0
0 0 0 0
0 0 0 0
0 0 0 0
0 0 0 0
0 0 0 0
0 0 0 0
0 0 0 0
0 0 0 0
0 0 0 0
0 0 0 0
0 0 0 0
0 0 0 0
0 0 0 0
0 0 0 0
0 0 0 0
0 0 0 0
0 0 0 0
0 0 0 0
0 0 0 0
0 0 0 0
0 0 0 0
0 0 0 0
0 0 0 0
0 0 0 0
0 0 0 0
0 0 0 0
0 0 0 0
0 0 0 0
0 0 0 0
0 0 0 0
0 0 0 0
0 0 0 0
0 0 0 0
0 0 0 0
0 0 0 0
0 0 0 0
0 0 0 0
0 0 0 0
0 0 0 0
0 0 0 0
0 0 0 0
0 0 0 0
0 0 0 0
0 0 0 0
0 0 0 0
0 0 0 0
0 0 0 0
0 0 0 0
0 0 0 0
0 0 0 0
0 0 0 0
0 0 0 0
0 0 0 0
0 0 0 0
0 0 0 0
0 0 0 0
0 0 0 0
0 0 0 0
0 0 0 0
0 0 0 0
0 0 0 0
0 0 0 0
0 0 0 0
0 0 0 0
0 0 0 0
0 0 0 0
0 0 0 0
0 0 0 0
0 0 0 0
0 0 0 0
0 0 0 0
0 0 0 0
0 0 0 0
0 0 0 0
0 0 0 0
0 0 0 0
0 0 0 0
0 0 0 0
0 0 0 0
0 0 0 0
0 0 0 0
0 0 0 0
0 0 0 0
0 0 0 0
0 0 0 0
0 0 0 0
0 0 0 0
0 0 0 0
0 0 0 0
0 0 0 0
0 0 0 0
0 0 0 0
0 0 0 0
0 0 0 0
0 0 0 0
0 0 0 0
0 0 0 0
0 0 0 0
0 0 0 0
0 0 0 0
0 0 0 0
0 0 0 0
0 0 0 0
0 0 0 0
0 0 0 0
0 0 0 0
0 0 0 0
0 0 0 0
0 0 0 0
0 0 0 0
0 0 0 0
0 0 0 0
0 0 0 0
0 0 0 0
0 0 0 0
0 0 0 0
0 0 0 0
0 0 0 0
0 0 0 0
0 0 0 0
0 0 0 0
0 0 0 0
0 0 0 0
0 0 0 0
0 0 0 0
0 0 0 0
0 0 0 0
0 0 0 0
0 0 0 0
0 0 0 0
0 0 0 0
0 0 0 0
0 0 0 0
0 0 0 0
0 0 0 0
0 0 0 0
0 0 0 0
0 0 0 0
0 0 0 0
0 0 0 0
0 0 0 0
0 0 0 0
0 0 0 0
0 0 0 0
0 0 0 0
0 0 0 0
0 0 0 0
0 0 0 0
0 0 0 0
0 0 0 0
0 0 0 0
0 0 0 0
0 0 0 0
0 0 0 0
0 0 0 0
0 0 0 0
0 0 0 0
0 0 0 0
0 0 0 0
0 0 0 0
0 0 0 0
0 0 0 0
0 0 0 0
0 0 0 0
0 0 0 0
0 0 0 0
0 0 0 0
0 0 0 0
0 0 0 0
0 0 0 0
0 0 0 0
0 0 0 0
0 0 0 0
0 0 0 0
0 0 0 0
0 0 0 0
0 0 0 0
0 0 0 0
0 0 0 0
0 0 0 0
0 0 0 0
0 0 0 0
0 0 0 0
0 0 0 0
0 0 0 0
0 0 0 0
0 0 0 0
0 0 0 0
0 0 0 0
0 0 0 0
0 0 0 0
0 0 0 0
0 0 0 0
0 0 0 0
0 0 0 0
0 0 0 0
0 0 0 0
0 0 0 0
0 0 0 0
0 0 0 0
0 0 0 0
0 0 0 0
0 0 0 0
0 0 0 0
0 0 0 0
0 0 0 0
0 0 0 0
0 0 0 0
0 0 0 0
0 0 0 0
0 0 0 0
0 0 0 0
0 0 0 0
0 0 0 0
0 0 0 0
0 0 0 0
0 0 0 0
0 0 0 0
0 0 0 0
0 0 0 0
0 0 0 0
0 0 0 0
0 0 0 0
0 0 0 0
0 0 0 0
0 0 0 0
0 0 0 0
0 0 0 0
0 0 0 0
0 0 0 0
0 0 0 0
0 0 0 0
0 0 0 0
0 0 0 0
0 0 0 0
0 0 0 0
0 0 0 0
0 0 0 0
0 0 0 0
0 0 0 0
0 0 0 0
0 0 0 0
0 0 0 0
0 0 0 0
0 0 0 0
0 0 0 0
0 0 0 0
0 0 0 0
0 0 0 0
0 0 0 0
0 0 0 0
0 0 0 0
0 0 0 0
0 0 0 0
0 0 0 0
0 0 0 0
0 0 0 0
0 0 0 0
0 0 0 0
0 0 0 0
0 0 0 0
0 0 0 0
0 0 0 0
0 0 0 0
0 0 0 0
0 0 0 0
0 0 0 0
0 0 0 0
0 0 0 0
0 0 0 0
0 0 0 0
0 0 0 0
0 0 0 0
0 0 0 0
0 0 0 0
0 0 0 0
0 0 0 0
0 0 0 0
0 0 0 0
0 0 0 0
0 0 0 0
0 0 0 0
0 0 0 0
0 0 0 0
0 0 0 0
0 0 0 0
0 0 0 0
0 0 0 0
0 0 0 0
0 0 0 0
0 0 0 0
0 0 0 0
0 0 0 0
0 0 0 0
0 0 0 0
0 0 0 0
0 0 0 0
0 0 0 0
0 0 0 0
0 0 0 0
0 0 0 0
0 0 0 0
0 0 0 0
0 0 0 0
0 0 0 0
0 0 0 0
0 0 0 0
0 0 0 0
0 0 0 0
0 0 0 0
0 0 0 0
0 0 0 0
0 0 0 0
0 0 0 0
0 0 0 0
0 0 0 0
0 0 0 0
0 0 0 0
0 0 0 0
0 0 0 0
0 0 0 0
0 0 0 0
0 0 0 0
0 0 0 0
0 0 0 0
0 0 0 0
0 0 0 0
0 0 0 0
0 0 0 0
0 0 0 0
0 0 0 0
0 0 0 0
0 0 0 0
0 0 0 0
0 0 0 0
0 0 0 0
0 0 0 0
0 0 0 0
0 0 0 0
0 0 0 0
0 0 0 0
0 0 0 0
0 0 0 0
0 0 0 0
0 0 0 0
0 0 0 0
0 0 0 0
0 0 0 0
0 0 0 0
0 0 0 0
0 0 0 0
0 0 0 0
0 0 0 0
0 0 0 0
0 0 0 0
0 0 0 0
0 0 0 0
0 0 0 0
0 0 0 0
0 0 0 0
0 0 0 0
0 0 0 0
0 0 0 0
0 0 0 0
0 0 0 0
0 0 0 0
0 0 0 0
0 0 0 0
0 0 0 0
0 0 0 0
0 0 0 0
0 0 0 0
0 0 0 0
0 0 0 0
0 0 0 0
0 0 0 0
0 0 0 0
0 0 0 0
0 0 0 0
0 0 0 0
0 0 0 0
0 0 0 0
0 0 0 0
0 0 0 0
0 0 0 0
0 0 0 0
0 0 0 0
0 0 0 0
0 0 0 0
0 0 0 0
0 0 0 0
0 0 0 0
0 0 0 0
0 0 0 0
0 0 0 0
0 0 0 0
0 0 0 0
0 0 0 0
0 0 0 0
0 0 0 0
0 0 0 0
0 0 0 0
0 0 0 0
0 0 0 0
0 0 0 0
0 0 0 0
0 0 0 0
0 0 0 0
0 0 0 0
0 0 0 0
0 0 0 0
0 0 0 0
0 0 0 0
0 0 0 0
0 0 0 0
0 0 0 0
0 0 0 0
0 0 0 0
0 0 0 0
0 0 0 0
0 0 0 0
0 0 0 0
0 0 0 0
0 0 0 0
0 0 0 0
0 0 0 0
0 0 0 0
0 0 0 0
0 0 0 0
0 0 0 0
0 0 0 0
0 0 0 0
0 0 0 0
0 0 0 0
0 0 0 0
0 0 0 0
0 0 0 0
0 0 0 0
0 0 0 0
0 0 0 0
0 0 0 0
0 0 0 0
0 0 0 0
0 0 0 0
0 0 0 0
0 0 0 0
0 0 0 0
0 0 0 0
0 0 0 0
0 0 0 0
0 0 0 0
0 0 0 0
0 0 0 0
0 0 0 0
0 0 0 0
0 0 0 0
0 0 0 0
0 0 0 0
0 0 0 0
0 0 0 0
0 0 0 0
0 0 0 0
0 0 0 0
0 0 0 0
0 0 0 0
0 0 0 0
0 0 0 0
0 0 0 0
0 0 0 0
0 0 0 0
0 0 0 0
0 0 0 0
0 0 0 0
0 0 0 0
0 0 0 0
0 0 0 0
0 0 0 0
0 0 0 0
0 0 0 0
0 0 0 0
0 0 0 0
0 0 0 0
0 0 0 0
0 0 0 0
0 0 0 0
0 0 0 0
0 0 0 0
0 0 0 0
0 0 0 0
0 0 0 0
0 0 0 0
0 0 0 0
0 0 0 0
0 0 0 0
0 0 0 0
0 0 0 0
0 0 0 0
0 0 0 0
0 0 0 0
0 0 0 0
0 0 0 0
0 0 0 0
0 0 0 0
0 0 0 0
0 0 0 0
0 0 0 0
0 0 0 0
0 0 0 0
0 0 0 0
0 0 0 0
0 0 0 0
0 0 0 0
0 0 0 0
0 0 0 0
0 0 0 0
0 0 0 0
0 0 0 0
0 0 0 0
0 0 0 0
0 0 0 0
0 0 0 0
0 0 0 0
0 0 0 0
0 0 0 0
0 0 0 0
0 0 0 0
0 0 0 0
0 0 0 0
0 0 0 0
0 0 0 0
0 0 0 0
0 0 0 0
0 0 0 0
0 0 0 0
0 0 0 0
0 0 0 0
0 0 0 0
0 0 0 0
0 0 0 0
0 0 0 0
0 0 0 0
0 0 0 0
0 0 0 0
0 0 0 0
0 0 0 0
0 0 0 0
0 0 0 0
0 0 0 0
0 0 0 0
0 0 0 0
0 0 0 0
0 0 0 0
0 0 0 0
0 0 0 0
0 0 0 0
0 0 0 0
0 0 0 0
0 0 0 0
0 0 0 0
0 0 0 0
0 0 0 0
0 0 0 0
0 0 0 0
0 0 0 0
0 0 0 0
0 0 0 0
0 0 0 0
0 0 0 0
0 0 0 0
0 0 0 0
0 0 0 0
0 0 0 0
0 0 0 0
0 0 0 0
0 0 0 0
0 0 0 0
0 0 0 0
0 0 0 0
0 0 0 0
0 0 0 0
0 0 0 0
0 0 0 0
0 0 0 0
0 0 0 0
0 0 0 0
0 0 0 0
0 0 0 0
0 0 0 0
0 0 0 0
0 0 0 0
0 0 0 0
0 0 0 0
0 0 0 0
0 0 0 0
0 0 0 0
0 0 0 0
0 0 0 0
0 0 0 0
0 0 0 0
0 0 0 0
0 0 0 0
0 0 0 0
0 0 0 0
0 0 0 0
0 0 0 0
0 0 0 0
0 0 0 0
0 0 0 0
0 0 0 0
0 0 0 0
0 0 0 0
0 0 0 0
0 0 0 0
0 0 0 0
0 0 0 0
0 0 0 0
0 0 0 0
0 0 0 0
0 0 0 0
0 0 0 0
0 0 0 0
0 0 0 0
0 0 0 0
0 0 0 0
0 0 0 0
0 0 0 0
0 0 0 0
0 0 0 0
0 0 0 0
0 0 0 0
0 0 0 0
0 0 0 0
0 0 0 0
0 0 0 0
0 0 0 0
0 0 0 0
0 0 0 0
0 0 0 0
0 0 0 0
0 0 0 0
0 0 0 0
0 0 0 0
0 0 0 0
0 0 0 0
0 0 0 0
0 0 0 0
0 0 0 0
0 0 0 0
0 0 0 0
0 0 0 0
0 0 0 0
0 0 0 0
0 0 0 0
0 0 0 0
0 0 0 0
0 0 0 0
0 0 0 0
0 0 0 0
0 0 0 0
0 0 0 0
0 0 0 0
0 0 0 0
0 0 0 0
0 0 0 0
0 0 0 0
0 0 0 0
0 0 0 0
0 0 0 0
0 0 0 0
0 0 0 0
0 0 0 0
0 0 0 0
0 0 0 0
0 0 0 0
0 0 0 0
0 0 0 0
0 0 0 0
0 0 0 0
0 0 0 0
0 0 0 0
0 0 0 0
0 0 0 0
0 0 0 0
0 0 0 0
0 0 0 0
0 0 0 0
0 0 0 0
0 0 0 0
0 0 0 0
0 0 0 0
0 0 0 0
0 0 0 0
0 0 0 0
0 0 0 0
0 0 0 0
0 0 0 0
0 0 0 0
0 0 0 0
0 0 0 0
0 0 0 0
0 0 0 0
0 0 0 0
0 0 0 0
0 0 0 0
0 0 0 0
0 0 0 0
0 0 0 0
0 0 0 0
0 0 0 0
0 0 0 0
0 0 0 0
0 0 0 0
0 0 0 0
0 0 0 0
0 0 0 0
0 0 0 0
0 0 0 0
0 0 0 0
0 0 0 0
0 0 0 0
0 0 0 0
0 0 0 0
0 0 0 0
0 0 0 0
0 0 0 0
0 0 0 0
0 0 0 0
0 0 0 0
0 0 0 0
0 0 0 0
0 0 0 0
0 0 0 0
0 0 0 0
0 0 0 0
0 0 0 0
0 0 0 0
0 0 0 0
0 0 0 0
0 0 0 0
0 0 0 0
0 0 0 0
0 0 0 0
0 0 0 0
0 0 0 0
0 0 0 0
0 0 0 0
0 0 0 0
0 0 0 0
0 0 0 0
0 0 0 0
0 0 0 0
0 0 0 0
0 0 0 0
0 0 0 0
0 0 0 0
0 0 0 0
0 0 0 0
0 0 0 0
0 0 0 0
0 0 0 0
0 0 0 0
0 0 0 0
0 0 0 0
0 0 0 0
0 0 0 0
0 0 0 0
0 0 0 0
0 0 0 0
0 0 0 0
0 0 0 0
0 0 0 0
0 0 0 0
0 0 0 0
0 0 0 0
0 0 0 0
0 0 0 0
0 0 0 0
0 0 0 0
0 0 0 0
0 0 0 0
0 0 0 0
0 0 0 0
0 0 0 0
0 0 0 0
0 0 0 0
0 0 0 0
0 0 0 0
0 0 0 0
0 0 0 0
0 0 0 0
0 0 0 0
0 0 0 0
0 0 0 0
0 0 0 0
0 0 0 0
0 0 0 0
0 0 0 0
0 0 0 0
0 0 0 0
0 0 0 0
0 0 0 0
0 0 0 0
0 0 0 0
0 0 0 0
0 0 0 0
0 0 0 0
0 0 0 0
0 0 0 0
0 0 0 0
0 0 0 0
0 0 0 0
0 0 0 0
0 0 0 0
0 0 0 0
0 0 0 0
0 0 0 0
0 0 0 0
0 0 0 0
0 0 0 0
0 0 0 0
0 0 0 0
0 0 0 0
0 0 0 0
0 0 0 0
0 0 0 0
0 0 0 0
0 0 0 0
0 0 0 0
0 0 0 0
0 0 0 0
0 0 0 0
0 0 0 0
0 0 0 0
0 0 0 0
0 0 0 0
0 0 0 0
0 0 0 0
0 0 0 0
0 0 0 0
0 0 0 0
0 0 0 0
0 0 0 0
0 0 0 0
0 0 0 0
0 0 0 0
0 0 0 0
0 0 0 0
0 0 0 0
0 0 0 0
0 0 0 0
0 0 0 0
0 0 0 0
0 0 0 0
0 0 0 0
0 0 0 0
0 0 0 0
0 0 0 0
0 0 0 0
0 0 0 0
0 0 0 0
0 0 0 0
0 0 0 0
0 0 0 0
0 0 0 0
0 0 0 0
0 0 0 0
0 0 0 0
0 0 0 0
0 0 0 0
0 0 0 0
0 0 0 0
0 0 0 0
0 0 0 0
0 0 0 0
0 0 0 0
0 0 0 0
0 0 0 0
0 0 0 0
0 0 0 0
0 0 0 0
0 0 0 0
0 0 0 0
0 0 0 0
0 0 0 0
0 0 0 0
0 0 0 0
0 0 0 0
0 0 0 0
0 0 0 0
0 0 0 0
0 0 0 0
0 0 0 0
0 0 0 0
0 0 0 0
0 0 0 0
0 0 0 0
0 0 0 0
0 0 0 0
0 0 0 0
0 0 0 0
0 0 0 0
0 0 0 0
0 0 0 0
0 0 0 0
0 0 0 0
0 0 0 0
0 0 0 0
0 0 0 0
0 0 0 0
0 0 0 0
0 0 0 0
0 0 0 0
0 0 0 0
0 0 0 0
0 0 0 0
0 0 0 0
0 0 0 0
0 0 0 0
0 0 0 0
0 0 0 0
0 0 0 0
0 0 0 0
0 0 0 0
0 0 0 0
0 0 0 0
0 0 0 0
0 0 0 0
0 0 0 0
0 0 0 0
0 0 0 0
0 0 0 0
0 0 0 0
0 0 0 0
0 0 0 0
0 0 0 0
0 0 0 0
0 0 0 0
0 0 0 0
0 0 0 0
0 0 0 0
0 0 0 0
0 0 0 0
0 0 0 0
0 0 0 0
0 0 0 0
0 0 0 0
0 0 0 0
0 0 0 0
0 0 0 0
0 0 0 0
0 0 0 0
0 0 0 0
0 0 0 0
0 0 0 0
0 0 0 0
0 0 0 0
0 0 0 0
0 0 0 0
0 0 0 0
0 0 0 0
0 0 0 0
0 0 0 0
0 0 0 0
0 0 0 0
0 0 0 0
0 0 0 0
0 0 0 0
0 0 0 0
0 0 0 0
0 0 0 0
0 0 0 0
0 0 0 0
0 0 0 0
0 0 0 0
0 0 0 0
0 0 0 0
0 0 0 0
0 0 0 0
0 0 0 0
0 0 0 0
0 0 0 0
0 0 0 0
0 0 0 0
0 0 0 0
0 0 0 0
0 0 0 0
0 0 0 0
0 0 0 0
0 0 0 0
0 0 0 0
0 0 0 0
0 0 0 0
0 0 0 0
0 0 0 0
0 0 0 0
0 0 0 0
0 0 0 0
0 0 0 0
0 0 0 0
0 0 0 0
0 0 0 0
0 0 0 0
0 0 0 0
0 0 0 0
0 0 0 0
0 0 0 0
0 0 0 0
0 0 0 0
0 0 0 0
0 0 0 0
0 0 0 0
0 0 0 0
0 0 0 0
0 0 0 0
0 0 0 0
0 0 0 0
0 0 0 0
0 0 0 0
0 0 0 0
0 0 0 0
0 0 0 0
0 0 0 0
0 0 0 0
0 0 0 0
0 0 0 0
0 0 0 0
0 0 0 0
0 0 0 0
0 0 0 0
0 0 0 0
0 0 0 0
0 0 0 0
0 0 0 0
0 0 0 0
0 0 0 0
0 0 0 0
0 0 0 0
0 0 0 0
0 0 0 0
0 0 0 0
0 0 0 0
0 0 0 0
0 0 0 0
0 0 0 0
0 0 0 0
0 0 0 0
0 0 0 0
0 0 0 0
0 0 0 0
0 0 0 0
0 0 0 0
0 0 0 0
0 0 0 0
0 0 0 0
0 0 0 0
0 0 0 0
0 0 0 0
0 0 0 0
0 0 0 0
0 0 0 0
0 0 0 0
0 0 0 0
0 0 0 0
0 0 0 0
0 0 0 0
0 0 0 0
0 0 0 0
0 0 0 0
0 0 0 0
0 0 0 0
0 0 0 0
0 0 0 0
0 0 0 0
0 0 0 0
0 0 0 0
0 0 0 0
0 0 0 0
0 0 0 0
0 0 0 0
0 0 0 0
0 0 0 0
0 0 0 0
0 0 0 0
0 0 0 0
0 0 0 0
0 0 0 0
0 0 0 0
0 0 0 0
0 0 0 0
0 0 0 0
0 0 0 0
0 0 0 0
0 0 0 0
0 0 0 0
0 0 0 0
0 0 0 0
0 0 0 0
0 0 0 0
0 0 0 0
0 0 0 0
0 0 0 0
0 0 0 0
0 0 0 0
0 0 0 0
0 0 0 0
0 0 0 0
0 0 0 0
0 0 0 0
0 0 0 0
0 0 0 0
0 0 0 0
0 0 0 0
0 0 0 0
0 0 0 0
0 0 0 0
0 0 0 0
0 0 0 0
0 0 0 0
0 0 0 0
0 0 0 0
0 0 0 0
0 0 0 0
0 0 0 0
0 0 0 0
0 0 0 0
0 0 0 0
0 0 0 0
0 0 0 0
0 0 0 0
0 0 0 0
0 0 0 0
0 0 0 0
0 0 0 0
0 0 0 0
0 0 0 0
0 0 0 0
0 0 0 0
0 0 0 0
0 0 0 0
0 0 0 0
0 0 0 0
0 0 0 0
0 0 0 0
0 0 0 0
0 0 0 0
0 0 0 0
0 0 0 0
0 0 0 0
0 0 0 0
0 0 0 0
0 0 0 0
0 0 0 0
0 0 0 0
0 0 0 0
0 0 0 0
0 0 0 0
0 0 0 0
0 0 0 0
0 0 0 0
0 0 0 0
0 0 0 0
0 0 0 0
0 0 0 0
0 0 0 0
0 0 0 0
0 0 0 0
0 0 0 0
0 0 0 0
0 0 0 0
0 0 0 0
0 0 0 0
0 0 0 0
0 0 0 0
0 0 0 0
0 0 0 0
0 0 0 0
0 0 0 0
0 0 0 0
0 0 0 0
0 0 0 0
0 0 0 0
0 0 0 0
0 0 0 0
0 0 0 0
0 0 0 0
0 0 0 0
0 0 0 0
0 0 0 0
0 0 0 0
0 0 0 0
0 0 0 0
0 0 0 0
0 0 0 0
0 0 0 0
0 0 0 0
0 0 0 0
0 0 0 0
0 0 0 0
0 0 0 0
0 0 0 0
0 0 0 0
0 0 0 0
0 0 0 0
0 0 0 0
0 0 0 0
0 0 0 0
0 0 0 0
0 0 0 0
0 0 0 0
0 0 0 0
0 0 0 0
0 0 0 0
0 0 0 0
0 0 0 0
0 0 0 0
0 0 0 0
0 0 0 0
0 0 0 0
0 0 0 0
0 0 0 0
0 0 0 0
0 0 0 0
0 0 0 0
0 0 0 0
0 0 0 0
0 0 0 0
0 0 0 0
0 0 0 0
0 0 0 0
0 0 0 0
0 0 0 0
0 0 0 0
0 0 0 0
0 0 0 0
0 0 0 0
0 0 0 0
0 0 0 0
0 0 0 0
0 0 0 0
0 0 0 0
0 0 0 0
0 0 0 0
0 0 0 0
0 0 0 0
0 0 0 0
0 0 0 0
0 0 0 0
0 0 0 0
0 0 0 0
0 0 0 0
0 0 0 0
0 0 0 0
0 0 0 0
0 0 0 0
0 0 0 0
0 0 0 0
0 0 0 0
0 0 0 0
0 0 0 0
0 0 0 0
0 0 0 0
0 0 0 0
0 0 0 0
0 0 0 0
0 0 0 0
0 0 0 0
0 0 0 0
0 0 0 0
0 0 0 0
0 0 0 0
0 0 0 0
0 0 0 0
0 0 0 0
0 0 0 0
0 0 0 0
0 0 0 0
0 0 0 0
0 0 0 0
0 0 0 0
0 0 0 0
0 0 0 0
0 0 0 0
0 0 0 0
0 0 0 0
0 0 0 0
0 0 0 0
0 0 0 0
0 0 0 0
0 0 0 0
0 0 0 0
0 0 0 0
0 0 0 0
0 0 0 0
0 0 0 0
0 0 0 0
0 0 0 0
0 0 0 0
0 0 0 0
0 0 0 0
0 0 0 0
0 0 0 0
0 0 0 0
0 0 0 0
0 0 0 0
0 0 0 0
0 0 0 0
0 0 0 0
0 0 0 0
0 0 0 0
0 0 0 0
0 0 0 0
0 0 0 0
0 0 0 0
0 0 0 0
0 0 0 0
0 0 0 0
0 0 0 0
0 0 0 0
0 0 0 0
0 0 0 0
0 0 0 0
0 0 0 0
0 0 0 0
0 0 0 0
0 0 0 0
0 0 0 0
0 0 0 0
0 0 0 0
0 0 0 0
0 0 0 0
0 0 0 0
0 0 0 0
0 0 0 0
0 0 0 0
0 0 0 0
0 0 0 0
0 0 0 0
0 0 0 0
0 0 0 0
0 0 0 0
0 0 0 0
0 0 0 0
0 0 0 0
0 0 0 0
0 0 0 0
0 0 0 0
0 0 0 0
0 0 0 0
0 0 0 0
0 0 0 0
0 0 0 0
0 0 0 0
0 0 0 0
0 0 0 0
0 0 0 0
0 0 0 0
0 0 0 0
0 0 0 0
0 0 0 0
0 0 0 0
0 0 0 0
0 0 0 0
0 0 0 0
0 0 0 0
0 0 0 0
0 0 0 0
0 0 0 0
0 0 0 0
0 0 0 0
0 0 0 0
0 0 0 0
0 0 0 0
0 0 0 0
0 0 0 0
0 0 0 0
0 0 0 0
0 0 0 0
0 0 0 0
0 0 0 0
0 0 0 0
0 0 0 0
0 0 0 0
0 0 0 0
0 0 0 0
0 0 0 0
0 0 0 0
0 0 0 0
0 0 0 0
0 0 0 0
0 0 0 0
0 0 0 0
0 0 0 0
0 0 0 0
0 0 0 0
0 0 0 0
0 0 0 0
0 0 0 0
0 0 0 0
0 0 0 0
0 0 0 0
0 0 0 0
0 0 0 0
0 0 0 0
0 0 0 0
0 0 0 0
0 0 0 0
0 0 0 0
0 0 0 0
0 0 0 0
0 0 0 0
0 0 0 0
0 0 0 0
0 0 0 0
0 0 0 0
0 0 0 0
0 0 0 0
0 0 0 0
0 0 0 0
0 0 0 0
0 0 0 0
0 0 0 0
0 0 0 0
0 0 0 0
0 0 0 0
0 0 0 0
0 0 0 0
0 0 0 0
0 0 0 0
0 0 0 0
0 0 0 0
0 0 0 0
0 0 0 0
0 0 0 0
0 0 0 0
0 0 0 0
0 0 0 0
0 0 0 0
0 0 0 0
0 0 0 0
0 0 0 0
0 0 0 0
0 0 0 0
0 0 0 0
0 0 0 0
0 0 0 0
0 0 0 0
0 0 0 0
0 0 0 0
0 0 0 0
0 0 0 0
0 0 0 0
0 0 0 0
0 0 0 0
0 0 0 0
0 0 0 0
0 0 0 0
0 0 0 0
0 0 0 0
0 0 0 0
0 0 0 0
0 0 0 0
0 0 0 0
0 0 0 0
0 0 0 0
0 0 0 0
0 0 0 0
0 0 0 0
0 0 0 0
0 0 0 0
0 0 0 0
0 0 0 0
0 0 0 0
0 0 0 0
0 0 0 0
0 0 0 0
0 0 0 0
0 0 0 0
0 0 0 0
0 0 0 0
0 0 0 0
0 0 0 0
0 0 0 0
0 0 0 0
0 0 0 0
0 0 0 0
0 0 0 0
0 0 0 0
0 0 0 0
0 0 0 0
0 0 0 0
0 0 0 0
0 0 0 0
0 0 0 0
0 0 0 0
0 0 0 0
0 0 0 0
0 0 0 0
0 0 0 0
0 0 0 0
0 0 0 0
0 0 0 0
0 0 0 0
0 0 0 0
0 0 0 0
0 0 0 0
0 0 0 0
0 0 0 0
0 0 0 0
0 0 0 0
0 0 0 0
0 0 0 0
0 0 0 0
0 0 0 0
0 0 0 0
0 0 0 0
0 0 0 0
0 0 0 0
0 0 0 0
0 0 0 0
0 0 0 0
0 0 0 0
0 0 0 0
0 0 0 0
0 0 0 0
0 0 0 0
0 0 0 0
0 0 0 0
0 0 0 0
0 0 0 0
0 0 0 0
0 0 0 0
0 0 0 0
0 0 0 0
0 0 0 0
0 0 0 0
0 0 0 0
0 0 0 0
0 0 0 0
0 0 0 0
0 0 0 0
0 0 0 0
0 0 0 0
0 0 0 0
0 0 0 0
0 0 0 0
0 0 0 0
0 0 0 0
0 0 0 0
0 0 0 0
0 0 0 0
0 0 0 0
0 0 0 0
0 0 0 0
0 0 0 0
0 0 0 0
0 0 0 0
0 0 0 0
0 0 0 0
0 0 0 0
0 0 0 0
0 0 0 0
0 0 0 0
0 0 0 0
0 0 0 0
0 0 0 0
0 0 0 0
0 0 0 0
0 0 0 0
0 0 0 0
0 0 0 0
0 0 0 0
0 0 0 0
0 0 0 0
0 0 0 0
0 0 0 0
0 0 0 0
0 0 0 0
0 0 0 0
0 0 0 0
0 0 0 0
0 0 0 0
0 0 0 0
0 0 0 0
0 0 0 0
0 0 0 0
0 0 0 0
0 0 0 0
0 0 0 0
0 0 0 0
0 0 0 0
0 0 0 0
0 0 0 0
0 0 0 0
0 0 0 0
0 0 0 0
0 0 0 0
0 0 0 0
0 0 0 0
0 0 0 0
0 0 0 0
0 0 0 0
0 0 0 0
0 0 0 0
0 0 0 0
0 0 0 0
0 0 0 0
0 0 0 0
0 0 0 0
0 0 0 0
0 0 0 0
0 0 0 0
0 0 0 0
0 0 0 0
0 0 0 0
0 0 0 0
0 0 0 0
0 0 0 0
0 0 0 0
0 0 0 0
0 0 0 0
0 0 0 0
0 0 0 0
0 0 0 0
0 0 0 0
0 0 0 0
0 0 0 0
0 0 0 0
0 0 0 0
0 0 0 0
0 0 0 0
0 0 0 0
0 0 0 0
0 0 0 0
0 0 0 0
0 0 0 0
0 0 0 0
0 0 0 0
0 0 0 0
0 0 0 0
0 0 0 0
0 0 0 0
0 0 0 0
0 0 0 0
0 0 0 0
0 0 0 0
0 0 0 0
0 0 0 0
0 0 0 0
0 0 0 0
0 0 0 0
0 0 0 0
0 0 0 0
0 0 0 0
0 0 0 0
0 0 0 0
0 0 0 0
0 0 0 0
0 0 0 0
0 0 0 0
0 0 0 0
0 0 0 0
0 0 0 0
0 0 0 0
0 0 0 0
0 0 0 0
0 0 0 0
0 0 0 0
0 0 0 0
0 0 0 0
0 0 0 0
0 0 0 0
0 0 0 0
0 0 0 0
0 0 0 0
0 0 0 0
0 0 0 0
0 0 0 0
0 0 0 0
0 0 0 0
0 0 0 0
0 0 0 0
0 0 0 0
0 0 0 0
0 0 0 0
0 0 0 0
0 0 0 0
0 0 0 0
0 0 0 0
0 0 0 0
0 0 0 0
0 0 0 0
0 0 0 0
0 0 0 0
0 0 0 0
0 0 0 0
0 0 0 0
0 0 0 0
0 0 0 0
0 0 0 0
0 0 0 0
0 0 0 0
0 0 0 0
0 0 0 0
0 0 0 0
0 0 0 0
0 0 0 0
0 0 0 0
0 0 0 0
0 0 0 0
0 0 0 0
0 0 0 0
0 0 0 0
0 0 0 0
0 0 0 0
0 0 0 0
0 0 0 0
0 0 0 0
0 0 0 0
0 0 0 0
0 0 0 0
0 0 0 0
0 0 0 0
0 0 0 0
0 0 0 0
0 0 0 0
0 0 0 0
0 0 0 0
0 0 0 0
0 0 0 0
0 0 0 0
0 0 0 0
0 0 0 0
0 0 0 0
0 0 0 0
0 0 0 0
0 0 0 0
0 0 0 0
0 0 0 0
0 0 0 0
0 0 0 0
0 0 0 0
0 0 0 0
0 0 0 0
0 0 0 0
0 0 0 0
0 0 0 0
0 0 0 0
0 0 0 0
0 0 0 0
0 0 0 0
0 0 0 0
0 0 0 0
0 0 0 0
0 0 0 0
0 0 0 0
0 0 0 0
0 0 0 0
0 0 0 0
0 0 0 0
0 0 0 0
0 0 0 0
0 0 0 0
0 0 0 0
0 0 0 0
0 0 0 0
0 0 0 0
0 0 0 0
0 0 0 0
0 0 0 0
0 0 0 0
0 0 0 0
0 0 0 0
0 0 0 0
0 0 0 0
0 0 0 0
0 0 0 0
0 0 0 0
0 0 0 0
0 0 0 0
0 0 0 0
0 0 0 0
0 0 0 0
0 0 0 0
0 0 0 0
0 0 0 0
0 0 0 0
0 0 0 0
0 0 0 0
0 0 0 0
0 0 0 0
0 0 0 0
0 0 0 0
0 0 0 0
0 0 0 0
0 0 0 0
0 0 0 0
0 0 0 0
0 0 0 0
0 0 0 0
0 0 0 0
0 0 0 0
0 0 0 0
0 0 0 0
0 0 0 0
0 0 0 0
0 0 0 0
0 0 0 0
0 0 0 0
0 0 0 0
0 0 0 0
0 0 0 0
0 0 0 0
0 0 0 0
0 0 0 0
0 0 0 0
0 0 0 0
0 0 0 0
0 0 0 0
0 0 0 0
0 0 0 0
0 0 0 0
0 0 0 0
0 0 0 0
0 0 0 0
0 0 0 0
0 0 0 0
0 0 0 0
0 0 0 0
0 0 0 0
0 0 0 0
0 0 0 0
0 0 0 0
0 0 0 0
0 0 0 0
0 0 0 0
0 0 0 0
0 0 0 0
0 0 0 0
0 0 0 0
0 0 0 0
0 0 0 0
0 0 0 0
0 0 0 0
0 0 0 0
0 0 0 0
0 0 0 0
0 0 0 0
0 0 0 0
0 0 0 0
0 0 0 0
0 0 0 0
0 0 0 0
0 0 0 0
0 0 0 0
0 0 0 0
0 0 0 0
0 0 0 0
0 0 0 0
0 0 0 0
0 0 0 0
0 0 0 0
0 0 0 0
0 0 0 0
0 0 0 0
0 0 0 0
0 0 0 0
0 0 0 0
0 0 0 0
0 0 0 0
0 0 0 0
0 0 0 0
0 0 0 0
0 0 0 0
0 0 0 0
0 0 0 0
0 0 0 0
0 0 0 0
0 0 0 0
0 0 0 0
0 0 0 0
0 0 0 0
0 0 0 0
0 0 0 0
0 0 0 0
0 0 0 0
0 0 0 0
0 0 0 0
0 0 0 0
0 0 0 0
0 0 0 0
0 0 0 0
0 0 0 0
0 0 0 0
0 0 0 0
0 0 0 0
0 0 0 0
0 0 0 0
0 0 0 0
0 0 0 0
0 0 0 0
0 0 0 0
0 0 0 0
0 0 0 0
0 0 0 0
0 0 0 0
0 0 0 0
0 0 0 0
0 0 0 0
0 0 0 0
0 0 0 0
0 0 0 0
0 0 0 0
0 0 0 0
0 0 0 0
0 0 0 0
0 0 0 0
0 0 0 0
0 0 0 0
0 0 0 0
0 0 0 0
0 0 0 0
0 0 0 0
0 0 0 0
0 0 0 0
0 0 0 0
0 0 0 0
0 0 0 0
0 0 0 0
0 0 0 0
0 0 0 0
0 0 0 0
0 0 0 0
0 0 0 0
0 0 0 0
0 0 0 0
0 0 0 0
0 0 0 0
0 0 0 0
0 0 0 0
0 0 0 0
0 0 0 0
0 0 0 0
0 0 0 0
0 0 0 0
0 0 0 0
0 0 0 0
0 0 0 0
0 0 0 0
0 0 0 0
0 0 0 0
0 0 0 0
0 0 0 0
0 0 0 0
0 0 0 0
0 0 0 0
0 0 0 0
0 0 0 0
0 0 0 0
0 0 0 0
0 0 0 0
0 0 0 0
0 0 0 0
0 0 0 0
0 0 0 0
0 0 0 0
0 0 0 0
0 0 0 0
0 0 0 0
0 0 0 0
0 0 0 0
0 0 0 0
0 0 0 0
0 0 0 0
0 0 0 0
0 0 0 0
0 0 0 0
0 0 0 0
0 0 0 0
0 0 0 0
0 0 0 0
0 0 0 0
0 0 0 0
0 0 0 0
0 0 0 0
0 0 0 0
0 0 0 0
0 0 0 0
0 0 0 0
0 0 0 0
0 0 0 0
0 0 0 0
0 0 0 0
0 0 0 0
0 0 0 0
0 0 0 0
0 0 0 0
0 0 0 0
0 0 0 0
0 0 0 0
0 0 0 0
0 0 0 0
0 0 0 0
0 0 0 0
0 0 0 0
0 0 0 0
0 0 0 0
0 0 0 0
0 0 0 0
0 0 0 0
0 0 0 0
0 0 0 0
0 0 0 0
0 0 0 0
0 0 0 0
0 0 0 0
0 0 0 0
0 0 0 0
0 0 0 0
0 0 0 0
0 0 0 0
0 0 0 0
0 0 0 0
0 0 0 0
0 0 0 0
0 0 0 0
0 0 0 0
0 0 0 0
0 0 0 0
0 0 0 0
0 0 0 0
0 0 0 0
0 0 0 0
0 0 0 0
0 0 0 0
0 0 0 0
0 0 0 0
0 0 0 0
0 0 0 0
0 0 0 0
0 0 0 0
0 0 0 0
0 0 0 0
0 0 0 0
0 0 0 0
0 0 0 0
0 0 0 0
0 0 0 0
0 0 0 0
0 0 0 0
0 0 0 0
0 0 0 0
0 0 0 0
0 0 0 0
0 0 0 0
0 0 0 0
0 0 0 0
0 0 0 0
0 0 0 0
0 0 0 0
0 0 0 0
0 0 0 0
0 0 0 0
0 0 0 0
0 0 0 0
0 0 0 0
0 0 0 0
0 0 0 0
0 0 0 0
0 0 0 0
0 0 0 0
0 0 0 0
0 0 0 0
0 0 0 0
0 0 0 0
0 0 0 0
0 0 0 0
0 0 0 0
0 0 0 0
0 0 0 0
0 0 0 0
0 0 0 0
0 0 0 0
0 0 0 0
0 0 0 0
0 0 0 0
0 0 0 0
0 0 0 0
0 0 0 0
0 0 0 0
0 0 0 0
0 0 0 0
0 0 0 0
0 0 0 0
0 0 0 0
0 0 0 0
0 0 0 0
0 0 0 0
0 0 0 0
0 0 0 0
0 0 0 0
0 0 0 0
0 0 0 0
0 0 0 0
0 0 0 0
0 0 0 0
0 0 0 0
0 0 0 0
0 0 0 0
0 0 0 0
0 0 0 0
0 0 0 0
0 0 0 0
0 0 0 0
0 0 0 0
0 0 0 0
0 0 0 0
0 0 0 0
0 0 0 0
0 0 0 0
0 0 0 0
0 0 0 0
0 0 0 0
0 0 0 0
0 0 0 0
0 0 0 0
0 0 0 0
0 0 0 0
0 0 0 0
0 0 0 0
0 0 0 0
0 0 0 0
0 0 0 0
0 0 0 0
0 0 0 0
0 0 0 0
0 0 0 0
0 0 0 0
0 0 0 0
0 0 0 0
0 0 0 0
0 0 0 0
0 0 0 0
0 0 0 0
0 0 0 0
0 0 0 0
0 0 0 0
0 0 0 0
0 0 0 0
0 0 0 0
0 0 0 0
0 0 0 0
0 0 0 0
0 0 0 0
0 0 0 0
0 0 0 0
0 0 0 0
0 0 0 0
0 0 0 0
0 0 0 0
0 0 0 0
0 0 0 0
0 0 0 0
0 0 0 0
0 0 0 0
0 0 0 0
0 0 0 0
0 0 0 0
0 0 0 0
0 0 0 0
0 0 0 0
0 0 0 0
0 0 0 0
0 0 0 0
0 0 0 0
0 0 0 0
0 0 0 0
0 0 0 0
0 0 0 0
0 0 0 0
0 0 0 0
0 0 0 0
0 0 0 0
0 0 0 0
0 0 0 0
0 0 0 0
0 0 0 0
0 0 0 0
0 0 0 0
0 0 0 0
0 0 0 0
0 0 0 0
0 0 0 0
0 0 0 0
0 0 0 0
0 0 0 0
0 0 0 0
0 0 0 0
0 0 0 0
0 0 0 0
0 0 0 0
0 0 0 0
0 0 0 0
0 0 0 0
0 0 0 0
0 0 0 0
0 0 0 0
0 0 0 0
0 0 0 0
0 0 0 0
0 0 0 0
0 0 0 0
0 0 0 0
0 0 0 0
0 0 0 0
0 0 0 0
0 0 0 0
0 0 0 0
0 0 0 0
0 0 0 0
0 0 0 0
0 0 0 0
0 0 0 0
0 0 0 0
0 0 0 0
0 0 0 0
0 0 0 0
0 0 0 0
0 0 0 0
0 0 0 0
0 0 0 0
0 0 0 0
0 0 0 0
0 0 0 0
0 0 0 0
0 0 0 0
0 0 0 0
0 0 0 0
0 0 0 0
0 0 0 0
0 0 0 0
0 0 0 0
0 0 0 0
0 0 0 0
0 0 0 0
0 0 0 0
0 0 0 0
0 0 0 0
0 0 0 0
0 0 0 0
0 0 0 0
0 0 0 0
0 0 0 0
0 0 0 0
0 0 0 0
0 0 0 0
0 0 0 0
0 0 0 0
0 0 0 0
0 0 0 0
0 0 0 0
0 0 0 0
0 0 0 0
0 0 0 0
0 0 0 0
0 0 0 0
0 0 0 0
0 0 0 0
0 0 0 0
0 0 0 0
0 0 0 0
0 0 0 0
0 0 0 0
0 0 0 0
0 0 0 0
0 0 0 0
0 0 0 0
0 0 0 0
0 0 0 0
0 0 0 0
0 0 0 0
0 0 0 0
0 0 0 0
0 0 0 0
0 0 0 0
0 0 0 0
0 0 0 0
0 0 0 0
0 0 0 0
0 0 0 0
0 0 0 0
0 0 0 0
0 0 0 0
0 0 0 0
0 0 0 0
0 0 0 0
0 0 0 0
0 0 0 0
0 0 0 0
0 0 0 0
0 0 0 0
0 0 0 0
0 0 0 0
0 0 0 0
0 0 0 0
0 0 0 0
0 0 0 0
0 0 0 0
0 0 0 0
0 0 0 0
0 0 0 0
0 0 0 0
0 0 0 0
0 0 0 0
0 0 0 0
0 0 0 0
0 0 0 0
0 0 0 0
0 0 0 0
0 0 0 0
0 0 0 0
0 0 0 0
0 0 0 0
0 0 0 0
0 0 0 0
0 0 0 0
0 0 0 0
0 0 0 0
0 0 0 0
0 0 0 0
0 0 0 0
0 0 0 0
0 0 0 0
0 0 0 0
0 0 0 0
0 0 0 0
0 0 0 0
0 0 0 0
0 0 0 0
0 0 0 0
0 0 0 0
0 0 0 0
0 0 0 0
0 0 0 0
0 0 0 0
0 0 0 0
0 0 0 0
0 0 0 0
0 0 0 0
0 0 0 0
0 0 0 0
0 0 0 0
0 0 0 0
0 0 0 0
0 0 0 0
0 0 0 0
0 0 0 0
0 0 0 0
0 0 0 0
0 0 0 0
0 0 0 0
0 0 0 0
0 0 0 0
0 0 0 0
0 0 0 0
0 0 0 0
0 0 0 0
0 0 0 0
0 0 0 0
0 0 0 0
0 0 0 0
0 0 0 0
0 0 0 0
0 0 0 0
0 0 0 0
0 0 0 0
0 0 0 0
0 0 0 0
0 0 0 0
0 0 0 0
0 0 0 0
0 0 0 0
0 0 0 0
0 0 0 0
0 0 0 0
0 0 0 0
0 0 0 0
0 0 0 0
0 0 0 0
0 0 0 0
0 0 0 0
0 0 0 0
0 0 0 0
0 0 0 0
0 0 0 0
0 0 0 0
0 0 0 0
0 0 0 0
0 0 0 0
0 0 0 0
0 0 0 0
0 0 0 0
0 0 0 0
0 0 0 0
0 0 0 0
0 0 0 0
0 0 0 0
0 0 0 0
0 0 0 0
0 0 0 0
0 0 0 0
0 0 0 0
0 0 0 0
0 0 0 0
0 0 0 0
0 0 0 0
0 0 0 0
0 0 0 0
0 0 0 0
0 0 0 0
0 0 0 0
0 0 0 0
0 0 0 0
0 0 0 0
0 0 0 0
0 0 0 0
0 0 0 0
0 0 0 0
0 0 0 0
0 0 0 0
0 0 0 0
0 0 0 0
0 0 0 0
0 0 0 0
0 0 0 0
0 0 0 0
0 0 0 0
0 0 0 0
0 0 0 0
0 0 0 0
0 0 0 0
0 0 0 0
0 0 0 0
0 0 0 0
0 0 0 0
0 0 0 0
0 0 0 0
0 0 0 0
0 0 0 0
0 0 0 0
0 0 0 0
0 0 0 0
0 0 0 0
0 0 0 0
0 0 0 0
0 0 0 0
0 0 0 0
0 0 0 0
0 0 0 0
0 0 0 0
0 0 0 0
0 0 0 0
0 0 0 0
0 0 0 0
0 0 0 0
0 0 0 0
0 0 0 0
0 0 0 0
0 0 0 0
0 0 0 0
0 0 0 0
0 0 0 0
0 0 0 0
0 0 0 0
0 0 0 0
0 0 0 0
0 0 0 0
0 0 0 0
0 0 0 0
0 0 0 0
0 0 0 0
0 0 0 0
0 0 0 0
0 0 0 0
0 0 0 0
0 0 0 0
0 0 0 0
0 0 0 0
0 0 0 0
0 0 0 0
0 0 0 0
0 0 0 0
0 0 0 0
0 0 0 0
0 0 0 0
0 0 0 0
0 0 0 0
0 0 0 0
0 0 0 0
0 0 0 0
0 0 0 0
0 0 0 0
0 0 0 0
0 0 0 0
0 0 0 0
0 0 0 0
0 0 0 0
0 0 0 0
0 0 0 0
0 0 0 0
0 0 0 0
0 0 0 0
0 0 0 0
0 0 0 0
0 0 0 0
0 0 0 0
0 0 0 0
0 0 0 0
0 0 0 0
0 0 0 0
0 0 0 0
0 0 0 0
0 0 0 0
0 0 0 0
0 0 0 0
0 0 0 0
0 0 0 0
0 0 0 0
0 0 0 0
0 0 0 0
0 0 0 0
0 0 0 0
0 0 0 0
0 0 0 0
0 0 0 0
0 0 0 0
0 0 0 0
0 0 0 0
0 0 0 0
0 0 0 0
0 0 0 0
0 0 0 0
0 0 0 0
0 0 0 0
0 0 0 0
0 0 0 0
0 0 0 0
0 0 0 0
0 0 0 0
0 0 0 0
0 0 0 0
0 0 0 0
0 0 0 0
0 0 0 0
0 0 0 0
0 0 0 0
0 0 0 0
0 0 0 0
0 0 0 0
0 0 0 0
0 0 0 0
0 0 0 0
0 0 0 0
0 0 0 0
0 0 0 0
0 0 0 0
0 0 0 0
0 0 0 0
0 0 0 0
0 0 0 0
0 0 0 0
0 0 0 0
0 0 0 0
0 0 0 0
0 0 0 0
0 0 0 0
0 0 0 0
0 0 0 0
0 0 0 0
0 0 0 0
0 0 0 0
0 0 0 0
0 0 0 0
0 0 0 0
0 0 0 0
0 0 0 0
0 0 0 0
0 0 0 0
0 0 0 0
0 0 0 0
0 0 0 0
0 0 0 0
0 0 0 0
0 0 0 0
0 0 0 0
0 0 0 0
0 0 0 0
0 0 0 0
0 0 0 0
0 0 0 0
0 0 0 0
0 0 0 0
0 0 0 0
0 0 0 0
0 0 0 0
0 0 0 0
0 0 0 0
0 0 0 0
0 0 0 0
0 0 0 0
0 0 0 0
0 0 0 0
0 0 0 0
0 0 0 0
0 0 0 0
0 0 0 0
0 0 0 0
0 0 0 0
0 0 0 0
0 0 0 0
0 0 0 0
0 0 0 0
0 0 0 0
0 0 0 0
0 0 0 0
0 0 0 0
0 0 0 0
0 0 0 0
0 0 0 0
0 0 0 0
0 0 0 0
0 0 0 0
0 0 0 0
0 0 0 0
0 0 0 0
0 0 0 0
0 0 0 0
0 0 0 0
0 0 0 0
0 0 0 0
0 0 0 0
0 0 0 0
0 0 0 0
0 0 0 0
0 0 0 0
0 0 0 0
0 0 0 0
0 0 0 0
0 0 0 0
0 0 0 0
0 0 0 0
0 0 0 0
0 0 0 0
0 0 0 0
0 0 0 0
0 0 0 0
0 0 0 0
0 0 0 0
0 0 0 0
0 0 0 0
0 0 0 0
0 0 0 0
0 0 0 0
0 0 0 0
0 0 0 0
0 0 0 0
0 0 0 0
0 0 0 0
0 0 0 0
0 0 0 0
0 0 0 0
0 0 0 0
0 0 0 0
0 0 0 0
0 0 0 0
0 0 0 0
0 0 0 0
0 0 0 0
0 0 0 0
0 0 0 0
0 0 0 0
0 0 0 0
0 0 0 0
0 0 0 0
0 0 0 0
0 0 0 0
0 0 0 0
0 0 0 0
0 0 0 0
0 0 0 0
0 0 0 0
0 0 0 0
0 0 0 0
0 0 0 0
0 0 0 0
0 0 0 0
0 0 0 0
0 0 0 0
0 0 0 0
0 0 0 0
0 0 0 0
0 0 0 0
0 0 0 0
0 0 0 0
0 0 0 0
0 0 0 0
0 0 0 0
0 0 0 0
0 0 0 0
0 0 0 0
0 0 0 0
0 0 0 0
0 0 0 0
0 0 0 0
0 0 0 0
0 0 0 0
0 0 0 0
0 0 0 0
0 0 0 0
0 0 0 0
0 0 0 0
0 0 0 0
0 0 0 0
0 0 0 0
0 0 0 0
0 0 0 0
0 0 0 0
0 0 0 0
0 0 0 0
0 0 0 0
0 0 0 0
0 0 0 0
0 0 0 0
0 0 0 0
0 0 0 0
0 0 0 0
0 0 0 0
0 0 0 0
0 0 0 0
0 0 0 0
0 0 0 0
0 0 0 0
0 0 0 0
0 0 0 0
0 0 0 0
0 0 0 0
0 0 0 0
0 0 0 0
0 0 0 0
0 0 0 0
0 0 0 0
0 0 0 0
0 0 0 0
0 0 0 0
0 0 0 0
0 0 0 0
0 0 0 0
0 0 0 0
0 0 0 0
0 0 0 0
0 0 0 0
0 0 0 0
0 0 0 0
0 0 0 0
0 0 0 0
0 0 0 0
0 0 0 0
0 0 0 0
0 0 0 0
0 0 0 0
0 0 0 0
0 0 0 0
0 0 0 0
0 0 0 0
0 0 0 0
0 0 0 0
0 0 0 0
0 0 0 0
0 0 0 0
0 0 0 0
0 0 0 0
0 0 0 0
0 0 0 0
0 0 0 0
0 0 0 0
0 0 0 0
0 0 0 0
0 0 0 0
0 0 0 0
0 0 0 0
0 0 0 0
0 0 0 0
0 0 0 0
0 0 0 0
0 0 0 0
0 0 0 0
0 0 0 0
0 0 0 0
0 0 0 0
0 0 0 0
0 0 0 0
0 0 0 0
0 0 0 0
0 0 0 0
0 0 0 0
0 0 0 0
0 0 0 0
0 0 0 0
0 0 0 0
0 0 0 0
0 0 0 0
0 0 0 0
0 0 0 0
0 0 0 0
0 0 0 0
0 0 0 0
0 0 0 0
0 0 0 0
0 0 0 0
0 0 0 0
0 0 0 0
0 0 0 0
0 0 0 0
0 0 0 0
0 0 0 0
0 0 0 0
0 0 0 0
0 0 0 0
0 0 0 0
0 0 0 0
0 0 0 0
0 0 0 0
0 0 0 0
0 0 0 0
0 0 0 0
0 0 0 0
0 0 0 0
0 0 0 0
0 0 0 0
0 0 0 0
0 0 0 0
0 0 0 0
0 0 0 0
0 0 0 0
0 0 0 0
0 0 0 0
0 0 0 0
0 0 0 0
0 0 0 0
0 0 0 0
0 0 0 0
0 0 0 0
0 0 0 0
0 0 0 0
0 0 0 0
0 0 0 0
0 0 0 0
0 0 0 0
0 0 0 0
0 0 0 0
0 0 0 0
0 0 0 0
0 0 0 0
0 0 0 0
0 0 0 0
0 0 0 0
0 0 0 0
0 0 0 0
0 0 0 0
0 0 0 0
0 0 0 0
0 0 0 0
0 0 0 0
0 0 0 0
0 0 0 0
0 0 0 0
0 0 0 0
0 0 0 0
0 0 0 0
0 0 0 0
0 0 0 0
0 0 0 0
0 0 0 0
0 0 0 0
0 0 0 0
0 0 0 0
0 0 0 0
0 0 0 0
0 0 0 0
0 0 0 0
0 0 0 0
0 0 0 0
0 0 0 0
0 0 0 0
0 0 0 0
0 0 0 0
0 0 0 0
0 0 0 0
0 0 0 0
0 0 0 0
0 0 0 0
0 0 0 0
0 0 0 0
0 0 0 0
0 0 0 0
0 0 0 0
0 0 0 0
0 0 0 0
0 0 0 0
0 0 0 0
0 0 0 0
0 0 0 0
0 0 0 0
0 0 0 0
0 0 0 0
0 0 0 0
0 0 0 0
0 0 0 0
0 0 0 0
0 0 0 0
0 0 0 0
0 0 0 0
0 0 0 0
0 0 0 0
0 0 0 0
0 0 0 0
0 0 0 0
0 0 0 0
0 0 0 0
0 0 0 0
0 0 0 0
0 0 0 0
0 0 0 0
0 0 0 0
0 0 0 0
0 0 0 0
0 0 0 0
0 0 0 0
0 0 0 0
0 0 0 0
0 0 0 0
0 0 0 0
0 0 0 0
0 0 0 0
0 0 0 0
0 0 0 0
0 0 0 0
0 0 0 0
0 0 0 0
0 0 0 0
0 0 0 0
0 0 0 0
0 0 0 0
0 0 0 0
0 0 0 0
0 0 0 0
0 0 0 0
0 0 0 0
0 0 0 0
0 0 0 0
0 0 0 0
0 0 0 0
0 0 0 0
0 0 0 0
0 0 0 0
0 0 0 0
0 0 0 0
0 0 0 0
0 0 0 0
0 0 0 0
0 0 0 0
0 0 0 0
0 0 0 0
0 0 0 0
0 0 0 0
0 0 0 0
0 0 0 0
0 0 0 0
0 0 0 0
0 0 0 0
0 0 0 0
0 0 0 0
0 0 0 0
0 0 0 0
0 0 0 0
0 0 0 0
0 0 0 0
0 0 0 0
0 0 0 0
0 0 0 0
0 0 0 0
0 0 0 0
0 0 0 0
0 0 0 0
0 0 0 0
0 0 0 0
0 0 0 0
0 0 0 0
0 0 0 0
0 0 0 0
0 0 0 0
0 0 0 0
0 0 0 0
0 0 0 0
0 0 0 0
0 0 0 0
0 0 0 0
0 0 0 0
0 0 0 0
0 0 0 0
0 0 0 0
0 0 0 0
0 0 0 0
0 0 0 0
0 0 0 0
0 0 0 0
0 0 0 0
0 0 0 0
0 0 0 0
0 0 0 0
0 0 0 0
0 0 0 0
0 0 0 0
0 0 0 0
0 0 0 0
0 0 0 0
0 0 0 0
0 0 0 0
0 0 0 0
0 0 0 0
0 0 0 0
0 0 0 0
0 0 0 0
0 0 0 0
0 0 0 0
0 0 0 0
0 0 0 0
0 0 0 0
0 0 0 0
0 0 0 0
0 0 0 0
0 0 0 0
0 0 0 0
0 0 0 0
0 0 0 0
0 0 0 0
0 0 0 0
0 0 0 0
0 0 0 0
0 0 0 0
0 0 0 0
0 0 0 0
0 0 0 0
0 0 0 0
0 0 0 0
0 0 0 0
0 0 0 0
0 0 0 0
0 0 0 0
0 0 0 0
0 0 0 0
0 0 0 0
0 0 0 0
0 0 0 0
0 0 0 0
0 0 0 0
0 0 0 0
0 0 0 0
0 0 0 0
0 0 0 0
0 0 0 0
0 0 0 0
0 0 0 0
0 0 0 0
0 0 0 0
0 0 0 0
0 0 0 0
0 0 0 0
0 0 0 0
0 0 0 0
0 0 0 0
0 0 0 0
0 0 0 0
0 0 0 0
0 0 0 0
0 0 0 0
0 0 0 0
0 0 0 0
0 0 0 0
0 0 0 0
0 0 0 0
0 0 0 0
0 0 0 0
0 0 0 0
0 0 0 0
0 0 0 0
0 0 0 0
0 0 0 0
0 0 0 0
0 0 0 0
0 0 0 0
0 0 0 0
0 0 0 0
0 0 0 0
0 0 0 0
0 0 0 0
0 0 0 0
0 0 0 0
0 0 0 0
0 0 0 0
0 0 0 0
0 0 0 0
0 0 0 0
0 0 0 0
0 0 0 0
0 0 0 0
0 0 0 0
0 0 0 0
0 0 0 0
0 0 0 0
0 0 0 0
0 0 0 0
0 0 0 0
0 0 0 0
0 0 0 0
0 0 0 0
0 0 0 0
0 0 0 0
0 0 0 0
0 0 0 0
0 0 0 0
0 0 0 0
0 0 0 0
0 0 0 0
0 0 0 0
0 0 0 0
0 0 0 0
0 0 0 0
0 0 0 0
0 0 0 0
0 0 0 0
0 0 0 0
0 0 0 0
0 0 0 0
0 0 0 0
0 0 0 0
0 0 0 0
0 0 0 0
0 0 0 0
0 0 0 0
0 0 0 0
0 0 0 0
0 0 0 0
0 0 0 0
0 0 0 0
0 0 0 0
0 0 0 0
0 0 0 0
0 0 0 0
0 0 0 0
0 0 0 0
0 0 0 0
0 0 0 0
0 0 0 0
0 0 0 0
0 0 0 0
0 0 0 0
0 0 0 0
0 0 0 0
0 0 0 0
0 0 0 0
0 0 0 0
0 0 0 0
0 0 0 0
0 0 0 0
0 0 0 0
0 0 0 0
0 0 0 0
0 0 0 0
0 0 0 0
0 0 0 0
0 0 0 0
0 0 0 0
0 0 0 0
0 0 0 0
0 0 0 0
0 0 0 0
0 0 0 0
0 0 0 0
0 0 0 0
0 0 0 0
0 0 0 0
0 0 0 0
0 0 0 0
0 0 0 0
0 0 0 0
0 0 0 0
0 0 0 0
0 0 0 0
0 0 0 0
0 0 0 0
0 0 0 0
0 0 0 0
0 0 0 0
0 0 0 0
0 0 0 0
0 0 0 0
0 0 0 0
0 0 0 0
0 0 0 0
0 0 0 0
0 0 0 0
0 0 0 0
0 0 0 0
0 0 0 0
0 0 0 0
0 0 0 0
0 0 0 0
0 0 0 0
0 0 0 0
0 0 0 0
0 0 0 0
0 0 0 0
0 0 0 0
0 0 0 0
0 0 0 0
0 0 0 0
0 0 0 0
0 0 0 0
0 0 0 0
0 0 0 0
0 0 0 0
0 0 0 0
0 0 0 0
0 0 0 0
0 0 0 0
0 0 0 0
0 0 0 0
0 0 0 0
0 0 0 0
0 0 0 0
0 0 0 0
0 0 0 0
0 0 0 0
0 0 0 0
0 0 0 0
0 0 0 0
0 0 0 0
0 0 0 0
0 0 0 0
0 0 0 0
0 0 0 0
0 0 0 0
0 0 0 0
0 0 0 0
0 0 0 0
0 0 0 0
0 0 0 0
0 0 0 0
0 0 0 0
0 0 0 0
0 0 0 0
0 0 0 0
0 0 0 0
0 0 0 0
0 0 0 0
0 0 0 0
0 0 0 0
0 0 0 0
0 0 0 0
0 0 0 0
0 0 0 0
0 0 0 0
0 0 0 0
0 0 0 0
0 0 0 0
0 0 0 0
0 0 0 0
0 0 0 0
0 0 0 0
0 0 0 0
0 0 0 0
0 0 0 0
0 0 0 0
0 0 0 0
0 0 0 0
0 0 0 0
0 0 0 0
0 0 0 0
0 0 0 0
0 0 0 0
0 0 0 0
0 0 0 0
0 0 0 0
0 0 0 0
0 0 0 0
0 0 0 0
0 0 0 0
0 0 0 0
0 0 0 0
0 0 0 0
0 0 0 0
0 0 0 0
0 0 0 0
0 0 0 0
0 0 0 0
0 0 0 0
0 0 0 0
0 0 0 0
0 0 0 0
0 0 0 0
0 0 0 0
0 0 0 0
0 0 0 0
0 0 0 0
0 0 0 0
0 0 0 0
0 0 0 0
0 0 0 0
0 0 0 0
0 0 0 0
0 0 0 0
0 0 0 0
0 0 0 0
0 0 0 0
0 0 0 0
0 0 0 0
0 0 0 0
0 0 0 0
0 0 0 0
0 0 0 0
0 0 0 0
0 0 0 0
0 0 0 0
0 0 0 0
0 0 0 0
0 0 0 0
0 0 0 0
0 0 0 0
0 0 0 0
0 0 0 0
0 0 0 0
0 0 0 0
0 0 0 0
0 0 0 0
0 0 0 0
0 0 0 0
0 0 0 0
0 0 0 0
0 0 0 0
0 0 0 0
0 0 0 0
0 0 0 0
0 0 0 0
0 0 0 0
0 0 0 0
0 0 0 0
0 0 0 0
0 0 0 0
0 0 0 0
0 0 0 0
0 0 0 0
0 0 0 0
0 0 0 0
0 0 0 0
0 0 0 0
0 0 0 0
0 0 0 0
0 0 0 0
0 0 0 0
0 0 0 0
0 0 0 0
0 0 0 0
0 0 0 0
0 0 0 0
0 0 0 0
0 0 0 0
0 0 0 0
0 0 0 0
0 0 0 0
0 0 0 0
0 0 0 0
0 0 0 0
0 0 0 0
0 0 0 0
0 0 0 0
0 0 0 0
0 0 0 0
0 0 0 0
0 0 0 0
0 0 0 0
0 0 0 0
0 0 0 0
0 0 0 0
0 0 0 0
0 0 0 0
0 0 0 0
0 0 0 0
0 0 0 0
0 0 0 0
0 0 0 0
0 0 0 0
0 0 0 0
0 0 0 0
0 0 0 0
0 0 0 0
0 0 0 0
0 0 0 0
0 0 0 0
0 0 0 0
0 0 0 0
0 0 0 0
0 0 0 0
0 0 0 0
0 0 0 0
0 0 0 0
0 0 0 0
0 0 0 0
0 0 0 0
0 0 0 0
0 0 0 0
0 0 0 0
0 0 0 0
0 0 0 0
0 0 0 0
0 0 0 0
0 0 0 0
0 0 0 0
0 0 0 0
0 0 0 0
0 0 0 0
0 0 0 0
0 0 0 0
0 0 0 0
0 0 0 0
0 0 0 0
0 0 0 0
0 0 0 0
0 0 0 0
0 0 0 0
0 0 0 0
0 0 0 0
0 0 0 0
0 0 0 0
0 0 0 0
0 0 0 0
0 0 0 0
0 0 0 0
0 0 0 0
0 0 0 0
0 0 0 0
0 0 0 0
0 0 0 0
0 0 0 0
0 0 0 0
0 0 0 0
0 0 0 0
0 0 0 0
0 0 0 0
0 0 0 0
0 0 0 0
0 0 0 0
0 0 0 0
0 0 0 0
0 0 0 0
0 0 0 0
0 0 0 0
0 0 0 0
0 0 0 0
0 0 0 0
0 0 0 0
0 0 0 0
0 0 0 0
0 0 0 0
0 0 0 0
0 0 0 0
0 0 0 0
0 0 0 0
0 0 0 0
0 0 0 0
0 0 0 0
0 0 0 0
0 0 0 0
0 0 0 0
0 0 0 0
0 0 0 0
0 0 0 0
0 0 0 0
0 0 0 0
0 0 0 0
0 0 0 0
0 0 0 0
0 0 0 0
0 0 0 0
0 0 0 0
0 0 0 0
0 0 0 0
0 0 0 0
0 0 0 0
0 0 0 0
0 0 0 0
0 0 0 0
0 0 0 0
0 0 0 0
0 0 0 0
0 0 0 0
0 0 0 0
0 0 0 0
0 0 0 0
0 0 0 0
0 0 0 0
0 0 0 0
0 0 0 0
0 0 0 0
0 0 0 0
0 0 0 0
0 0 0 0
0 0 0 0
0 0 0 0
0 0 0 0
0 0 0 0
0 0 0 0
0 0 0 0
0 0 0 0
0 0 0 0
0 0 0 0
0 0 0 0
0 0 0 0
0 0 0 0
0 0 0 0
0 0 0 0
0 0 0 0
0 0 0 0
0 0 0 0
0 0 0 0
0 0 0 0
0 0 0 0
0 0 0 0
0 0 0 0
0 0 0 0
0 0 0 0
0 0 0 0
0 0 0 0
0 0 0 0
0 0 0 0
0 0 0 0
0 0 0 0
0 0 0 0
0 0 0 0
0 0 0 0
0 0 0 0
0 0 0 0
0 0 0 0
0 0 0 0
0 0 0 0
0 0 0 0
0 0 0 0
0 0 0 0
0 0 0 0
0 0 0 0
0 0 0 0
0 0 0 0
0 0 0 0
0 0 0 0
0 0 0 0
0 0 0 0
0 0 0 0
0 0 0 0
0 0 0 0
0 0 0 0
0 0 0 0
0 0 0 0
0 0 0 0
0 0 0 0
0 0 0 0
0 0 0 0
0 0 0 0
0 0 0 0
0 0 0 0
0 0 0 0
0 0 0 0
0 0 0 0
0 0 0 0
0 0 0 0
0 0 0 0
0 0 0 0
0 0 0 0
0 0 0 0
0 0 0 0
0 0 0 0
0 0 0 0
0 0 0 0
0 0 0 0
0 0 0 0
0 0 0 0
0 0 0 0
0 0 0 0
0 0 0 0
0 0 0 0
0 0 0 0
0 0 0 0
0 0 0 0
0 0 0 0
0 0 0 0
0 0 0 0
0 0 0 0
0 0 0 0
0 0 0 0
0 0 0 0
0 0 0 0
0 0 0 0
0 0 0 0
0 0 0 0
0 0 0 0
0 0 0 0
0 0 0 0
0 0 0 0
0 0 0 0
0 0 0 0
0 0 0 0
0 0 0 0
0 0 0 0
0 0 0 0
0 0 0 0
0 0 0 0
0 0 0 0
0 0 0 0
0 0 0 0
0 0 0 0
0 0 0 0
0 0 0 0
0 0 0 0
0 0 0 0
0 0 0 0
0 0 0 0
0 0 0 0
0 0 0 0
0 0 0 0
0 0 0 0
0 0 0 0
0 0 0 0
0 0 0 0
0 0 0 0
0 0 0 0
0 0 0 0
0 0 0 0
0 0 0 0
0 0 0 0
0 0 0 0
0 0 0 0
0 0 0 0
0 0 0 0
0 0 0 0
0 0 0 0
0 0 0 0
0 0 0 0
0 0 0 0
0 0 0 0
0 0 0 0
0 0 0 0
0 0 0 0
0 0 0 0
0 0 0 0
0 0 0 0
0 0 0 0
0 0 0 0
0 0 0 0
0 0 0 0
0 0 0 0
0 0 0 0
0 0 0 0
0 0 0 0
0 0 0 0
0 0 0 0
0 0 0 0
0 0 0 0
0 0 0 0
0 0 0 0
0 0 0 0
0 0 0 0
0 0 0 0
0 0 0 0
0 0 0 0
0 0 0 0
0 0 0 0
0 0 0 0
0 0 0 0
0 0 0 0
0 0 0 0
0 0 0 0
0 0 0 0
0 0 0 0
0 0 0 0
0 0 0 0
0 0 0 0
0 0 0 0
0 0 0 0
0 0 0 0
0 0 0 0
0 0 0 0
0 0 0 0
0 0 0 0
0 0 0 0
0 0 0 0
0 0 0 0
0 0 0 0
0 0 0 0
0 0 0 0
0 0 0 0
0 0 0 0
0 0 0 0
0 0 0 0
0 0 0 0
0 0 0 0
0 0 0 0
0 0 0 0
0 0 0 0
0 0 0 0
0 0 0 0
0 0 0 0
0 0 0 0
0 0 0 0
0 0 0 0
0 0 0 0
0 0 0 0
0 0 0 0
0 0 0 0
0 0 0 0
0 0 0 0
0 0 0 0
0 0 0 0
0 0 0 0
0 0 0 0
0 0 0 0
0 0 0 0
0 0 0 0
0 0 0 0
0 0 0 0
0 0 0 0
0 0 0 0
0 0 0 0
0 0 0 0
0 0 0 0
0 0 0 0
0 0 0 0
0 0 0 0
0 0 0 0
0 0 0 0
0 0 0 0
0 0 0 0
0 0 0 0
0 0 0 0
0 0 0 0
0 0 0 0
0 0 0 0
0 0 0 0
0 0 0 0
0 0 0 0
0 0 0 0
0 0 0 0
0 0 0 0
0 0 0 0
0 0 0 0
0 0 0 0
0 0 0 0
0 0 0 0
0 0 0 0
0 0 0 0
0 0 0 0
0 0 0 0
0 0 0 0
0 0 0 0
0 0 0 0
0 0 0 0
0 0 0 0
0 0 0 0
0 0 0 0
0 0 0 0
0 0 0 0
0 0 0 0
0 0 0 0
0 0 0 0
0 0 0 0
0 0 0 0
0 0 0 0
0 0 0 0
0 0 0 0
0 0 0 0
0 0 0 0
0 0 0 0
0 0 0 0
0 0 0 0
0 0 0 0
0 0 0 0
0 0 0 0
0 0 0 0
0 0 0 0
0 0 0 0
0 0 0 0
0 0 0 0
0 0 0 0
0 0 0 0
0 0 0 0
0 0 0 0
0 0 0 0
0 0 0 0
0 0 0 0
0 0 0 0
0 0 0 0
0 0 0 0
0 0 0 0
0 0 0 0
0 0 0 0
0 0 0 0
0 0 0 0
0 0 0 0
0 0 0 0
0 0 0 0
0 0 0 0
0 0 0 0
0 0 0 0
0 0 0 0
0 0 0 0
0 0 0 0
0 0 0 0
0 0 0 0
0 0 0 0
0 0 0 0
0 0 0 0
0 0 0 0
0 0 0 0
0 0 0 0
0 0 0 0
0 0 0 0
0 0 0 0
0 0 0 0
0 0 0 0
0 0 0 0
0 0 0 0
0 0 0 0
0 0 0 0
0 0 0 0
0 0 0 0
0 0 0 0
0 0 0 0
0 0 0 0
0 0 0 0
0 0 0 0
0 0 0 0
0 0 0 0
0 0 0 0
0 0 0 0
0 0 0 0
0 0 0 0
0 0 0 0
0 0 0 0
0 0 0 0
0 0 0 0
0 0 0 0
0 0 0 0
0 0 0 0
0 0 0 0
0 0 0 0
0 0 0 0
0 0 0 0
0 0 0 0
0 0 0 0
0 0 0 0
0 0 0 0
0 0 0 0
0 0 0 0
0 0 0 0
0 0 0 0
0 0 0 0
0 0 0 0
0 0 0 0
0 0 0 0
0 0 0 0
0 0 0 0
0 0 0 0
0 0 0 0
0 0 0 0
0 0 0 0
0 0 0 0
0 0 0 0
0 0 0 0
0 0 0 0
0 0 0 0
0 0 0 0
0 0 0 0
0 0 0 0
0 0 0 0
0 0 0 0
0 0 0 0
0 0 0 0
0 0 0 0
0 0 0 0
0 0 0 0
0 0 0 0
0 0 0 0
0 0 0 0
0 0 0 0
0 0 0 0
0 0 0 0
0 0 0 0
0 0 0 0
0 0 0 0
0 0 0 0
0 0 0 0
0 0 0 0
0 0 0 0
0 0 0 0
0 0 0 0
0 0 0 0
0 0 0 0
0 0 0 0
0 0 0 0
0 0 0 0
0 0 0 0
0 0 0 0
0 0 0 0
0 0 0 0
0 0 0 0
0 0 0 0
0 0 0 0
0 0 0 0
0 0 0 0
0 0 0 0
0 0 0 0
0 0 0 0
0 0 0 0
0 0 0 0
0 0 0 0
0 0 0 0
0 0 0 0
0 0 0 0
0 0 0 0
0 0 0 0
0 0 0 0
0 0 0 0
0 0 0 0
0 0 0 0
0 0 0 0
0 0 0 0
0 0 0 0
0 0 0 0
0 0 0 0
0 0 0 0
0 0 0 0
0 0 0 0
0 0 0 0
0 0 0 0
0 0 0 0
0 0 0 0
0 0 0 0
0 0 0 0
0 0 0 0
0 0 0 0
0 0 0 0
0 0 0 0
0 0 0 0
0 0 0 0
0 0 0 0
0 0 0 0
0 0 0 0
0 0 0 0
0 0 0 0
0 0 0 0
0 0 0 0
0 0 0 0
0 0 0 0
0 0 0 0
0 0 0 0
0 0 0 0
0 0 0 0
0 0 0 0
0 0 0 0
0 0 0 0
0 0 0 0
0 0 0 0
0 0 0 0
0 0 0 0
0 0 0 0
0 0 0 0
0 0 0 0
0 0 0 0
0 0 0 0
0 0 0 0
0 0 0 0
0 0 0 0
0 0 0 0
0 0 0 0
0 0 0 0
0 0 0 0
0 0 0 0
0 0 0 0
0 0 0 0
0 0 0 0
0 0 0 0
0 0 0 0
0 0 0 0
0 0 0 0
0 0 0 0
0 0 0 0
0 0 0 0
0 0 0 0
0 0 0 0
0 0 0 0
0 0 0 0
0 0 0 0
0 0 0 0
0 0 0 0
0 0 0 0
0 0 0 0
0 0 0 0
0 0 0 0
0 0 0 0
0 0 0 0
0 0 0 0
0 0 0 0
0 0 0 0
0 0 0 0
0 0 0 0
0 0 0 0
0 0 0 0
0 0 0 0
0 0 0 0
0 0 0 0
0 0 0 0
0 0 0 0
0 0 0 0
0 0 0 0
0 0 0 0
0 0 0 0
0 0 0 0
0 0 0 0
0 0 0 0
0 0 0 0
0 0 0 0
0 0 0 0
0 0 0 0
0 0 0 0
0 0 0 0
0 0 0 0
0 0 0 0
0 0 0 0
0 0 0 0
0 0 0 0
0 0 0 0
0 0 0 0
0 0 0 0
0 0 0 0
0 0 0 0
0 0 0 0
0 0 0 0
0 0 0 0
0 0 0 0
0 0 0 0
0 0 0 0
0 0 0 0
0 0 0 0
0 0 0 0
0 0 0 0
0 0 0 0
0 0 0 0
0 0 0 0
0 0 0 0
0 0 0 0
0 0 0 0
0 0 0 0
0 0 0 0
0 0 0 0
0 0 0 0
0 0 0 0
0 0 0 0
0 0 0 0
0 0 0 0
0 0 0 0
0 0 0 0
0 0 0 0
0 0 0 0
0 0 0 0
0 0 0 0
0 0 0 0
0 0 0 0
0 0 0 0
0 0 0 0
0 0 0 0
0 0 0 0
0 0 0 0
0 0 0 0
0 0 0 0
0 0 0 0
0 0 0 0
0 0 0 0
0 0 0 0
0 0 0 0
0 0 0 0
0 0 0 0
0 0 0 0
0 0 0 0
0 0 0 0
0 0 0 0
0 0 0 0
0 0 0 0
0 0 0 0
0 0 0 0
0 0 0 0
0 0 0 0
0 0 0 0
0 0 0 0
0 0 0 0
0 0 0 0
0 0 0 0
0 0 0 0
0 0 0 0
0 0 0 0
0 0 0 0
0 0 0 0
0 0 0 0
0 0 0 0
0 0 0 0
0 0 0 0
0 0 0 0
0 0 0 0
0 0 0 0
0 0 0 0
0 0 0 0
0 0 0 0
0 0 0 0
0 0 0 0
0 0 0 0
0 0 0 0
0 0 0 0
0 0 0 0
0 0 0 0
0 0 0 0
0 0 0 0
0 0 0 0
0 0 0 0
0 0 0 0
0 0 0 0
0 0 0 0
0 0 0 0
0 0 0 0
0 0 0 0
0 0 0 0
0 0 0 0
0 0 0 0
0 0 0 0
0 0 0 0
0 0 0 0
0 0 0 0
0 0 0 0
0 0 0 0
0 0 0 0
0 0 0 0
0 0 0 0
0 0 0 0
0 0 0 0
0 0 0 0
0 0 0 0
0 0 0 0
0 0 0 0
0 0 0 0
0 0 0 0
0 0 0 0
0 0 0 0
0 0 0 0
0 0 0 0
0 0 0 0
0 0 0 0
0 0 0 0
0 0 0 0
0 0 0 0
0 0 0 0
0 0 0 0
0 0 0 0
0 0 0 0
0 0 0 0
0 0 0 0
0 0 0 0
0 0 0 0
0 0 0 0
0 0 0 0
0 0 0 0
0 0 0 0
0 0 0 0
0 0 0 0
0 0 0 0
0 0 0 0
0 0 0 0
0 0 0 0
0 0 0 0
0 0 0 0
0 0 0 0
0 0 0 0
0 0 0 0
0 0 0 0
0 0 0 0
0 0 0 0
0 0 0 0
0 0 0 0
0 0 0 0
0 0 0 0
0 0 0 0
0 0 0 0
0 0 0 0
0 0 0 0
0 0 0 0
0 0 0 0
0 0 0 0
0 0 0 0
0 0 0 0
0 0 0 0
0 0 0 0
0 0 0 0
0 0 0 0
0 0 0 0
0 0 0 0
0 0 0 0
0 0 0 0
0 0 0 0
0 0 0 0
0 0 0 0
0 0 0 0
0 0 0 0
0 0 0 0
0 0 0 0
0 0 0 0
0 0 0 0
0 0 0 0
0 0 0 0
0 0 0 0
0 0 0 0
0 0 0 0
0 0 0 0
0 0 0 0
0 0 0 0
0 0 0 0
0 0 0 0
0 0 0 0
0 0 0 0
0 0 0 0
0 0 0 0
0 0 0 0
0 0 0 0
0 0 0 0
0 0 0 0
0 0 0 0
0 0 0 0
0 0 0 0
0 0 0 0
0 0 0 0
0 0 0 0
0 0 0 0
0 0 0 0
0 0 0 0
0 0 0 0
0 0 0 0
0 0 0 0
0 0 0 0
0 0 0 0
0 0 0 0
0 0 0 0
0 0 0 0
0 0 0 0
0 0 0 0
0 0 0 0
0 0 0 0
0 0 0 0
0 0 0 0
0 0 0 0
0 0 0 0
0 0 0 0
0 0 0 0
0 0 0 0
0 0 0 0
0 0 0 0
0 0 0 0
0 0 0 0
0 0 0 0
0 0 0 0
0 0 0 0
0 0 0 0
0 0 0 0
0 0 0 0
0 0 0 0
0 0 0 0
0 0 0 0
0 0 0 0
0 0 0 0
0 0 0 0
0 0 0 0
0 0 0 0
0 0 0 0
0 0 0 0
0 0 0 0
0 0 0 0
0 0 0 0
0 0 0 0
0 0 0 0
0 0 0 0
0 0 0 0
0 0 0 0
0 0 0 0
0 0 0 0
0 0 0 0
0 0 0 0
0 0 0 0
0 0 0 0
0 0 0 0
0 0 0 0
0 0 0 0
0 0 0 0
0 0 0 0
0 0 0 0
0 0 0 0
0 0 0 0
0 0 0 0
0 0 0 0
0 0 0 0
0 0 0 0
0 0 0 0
0 0 0 0
0 0 0 0
0 0 0 0
0 0 0 0
0 0 0 0
0 0 0 0
0 0 0 0
0 0 0 0
0 0 0 0
0 0 0 0
0 0 0 0
0 0 0 0
0 0 0 0
0 0 0 0
0 0 0 0
0 0 0 0
0 0 0 0
0 0 0 0
0 0 0 0
0 0 0 0
0 0 0 0
0 0 0 0
0 0 0 0
0 0 0 0
0 0 0 0
0 0 0 0
0 0 0 0
0 0 0 0
0 0 0 0
0 0 0 0
0 0 0 0
0 0 0 0
0 0 0 0
0 0 0 0
0 0 0 0
0 0 0 0
0 0 0 0
0 0 0 0
0 0 0 0
0 0 0 0
0 0 0 0
0 0 0 0
0 0 0 0
0 0 0 0
0 0 0 0
0 0 0 0
0 0 0 0
0 0 0 0
0 0 0 0
0 0 0 0
0 0 0 0
0 0 0 0
0 0 0 0
0 0 0 0
0 0 0 0
0 0 0 0
0 0 0 0
0 0 0 0
0 0 0 0
0 0 0 0
0 0 0 0
0 0 0 0
0 0 0 0
0 0 0 0
0 0 0 0
0 0 0 0
0 0 0 0
0 0 0 0
0 0 0 0
0 0 0 0
0 0 0 0
0 0 0 0
0 0 0 0
0 0 0 0
0 0 0 0
0 0 0 0
0 0 0 0
0 0 0 0
0 0 0 0
0 0 0 0
0 0 0 0
0 0 0 0
0 0 0 0
0 0 0 0
0 0 0 0
0 0 0 0
0 0 0 0
0 0 0 0
0 0 0 0
0 0 0 0
0 0 0 0
0 0 0 0
0 0 0 0
0 0 0 0
0 0 0 0
0 0 0 0
0 0 0 0
0 0 0 0
0 0 0 0
0 0 0 0
0 0 0 0
0 0 0 0
0 0 0 0
0 0 0 0
0 0 0 0
0 0 0 0
0 0 0 0
0 0 0 0
0 0 0 0
0 0 0 0
0 0 0 0
0 0 0 0
0 0 0 0
0 0 0 0
0 0 0 0
0 0 0 0
0 0 0 0
0 0 0 0
0 0 0 0
0 0 0 0
0 0 0 0
0 0 0 0
0 0 0 0
0 0 0 0
0 0 0 0
0 0 0 0
0 0 0 0
0 0 0 0
0 0 0 0
0 0 0 0
0 0 0 0
0 0 0 0
0 0 0 0
0 0 0 0
0 0 0 0
0 0 0 0
0 0 0 0
0 0 0 0
0 0 0 0
0 0 0 0
0 0 0 0
0 0 0 0
0 0 0 0
0 0 0 0
0 0 0 0
0 0 0 0
0 0 0 0
0 0 0 0
0 0 0 0
0 0 0 0
0 0 0 0
0 0 0 0
0 0 0 0
0 0 0 0
0 0 0 0
0 0 0 0
0 0 0 0
0 0 0 0
0 0 0 0
0 0 0 0
0 0 0 0
0 0 0 0
0 0 0 0
0 0 0 0
0 0 0 0
0 0 0 0
0 0 0 0
0 0 0 0
0 0 0 0
0 0 0 0
0 0 0 0
0 0 0 0
0 0 0 0
0 0 0 0
0 0 0 0
0 0 0 0
0 0 0 0
0 0 0 0
0 0 0 0
0 0 0 0
0 0 0 0
0 0 0 0
0 0 0 0
0 0 0 0
0 0 0 0
0 0 0 0
0 0 0 0
0 0 0 0
0 0 0 0
0 0 0 0
0 0 0 0
0 0 0 0
0 0 0 0
0 0 0 0
0 0 0 0
0 0 0 0
0 0 0 0
0 0 0 0
0 0 0 0
0 0 0 0
0 0 0 0
0 0 0 0
0 0 0 0
0 0 0 0
0 0 0 0
0 0 0 0
0 0 0 0
0 0 0 0
0 0 0 0
0 0 0 0
0 0 0 0
0 0 0 0
0 0 0 0
0 0 0 0
0 0 0 0
0 0 0 0
0 0 0 0
0 0 0 0
0 0 0 0
0 0 0 0
0 0 0 0
0 0 0 0
0 0 0 0
0 0 0 0
0 0 0 0
0 0 0 0
0 0 0 0
0 0 0 0
0 0 0 0
0 0 0 0
0 0 0 0
0 0 0 0
0 0 0 0
0 0 0 0
0 0 0 0
0 0 0 0
0 0 0 0
0 0 0 0
0 0 0 0
0 0 0 0
0 0 0 0
0 0 0 0
0 0 0 0
0 0 0 0
0 0 0 0
0 0 0 0
0 0 0 0
0 0 0 0
0 0 0 0
0 0 0 0
0 0 0 0
0 0 0 0
0 0 0 0
0 0 0 0
0 0 0 0
0 0 0 0
0 0 0 0
0 0 0 0
0 0 0 0
0 0 0 0
0 0 0 0
0 0 0 0
0 0 0 0
0 0 0 0
0 0 0 0
0 0 0 0
0 0 0 0
0 0 0 0
0 0 0 0
0 0 0 0
0 0 0 0
0 0 0 0
0 0 0 0
0 0 0 0
0 0 0 0
0 0 0 0
0 0 0 0
0 0 0 0
0 0 0 0
0 0 0 0
0 0 0 0
0 0 0 0
0 0 0 0
0 0 0 0
0 0 0 0
0 0 0 0
0 0 0 0
0 0 0 0
0 0 0 0
0 0 0 0
0 0 0 0
0 0 0 0
0 0 0 0
0 0 0 0
0 0 0 0
0 0 0 0
0 0 0 0
0 0 0 0
0 0 0 0
0 0 0 0
0 0 0 0
0 0 0 0
0 0 0 0
0 0 0 0
0 0 0 0
0 0 0 0
0 0 0 0
0 0 0 0
0 0 0 0
0 0 0 0
0 0 0 0
0 0 0 0
0 0 0 0
0 0 0 0
0 0 0 0
0 0 0 0
0 0 0 0
0 0 0 0
0 0 0 0
0 0 0 0
0 0 0 0
0 0 0 0
0 0 0 0
0 0 0 0
0 0 0 0
0 0 0 0
0 0 0 0
0 0 0 0
0 0 0 0
0 0 0 0
0 0 0 0
0 0 0 0
0 0 0 0
0 0 0 0
0 0 0 0
0 0 0 0
0 0 0 0
0 0 0 0
0 0 0 0
0 0 0 0
0 0 0 0
0 0 0 0
0 0 0 0
0 0 0 0
0 0 0 0
0 0 0 0
0 0 0 0
0 0 0 0
0 0 0 0
0 0 0 0
0 0 0 0
0 0 0 0
0 0 0 0
0 0 0 0
0 0 0 0
0 0 0 0
0 0 0 0
0 0 0 0
0 0 0 0
0 0 0 0
0 0 0 0
0 0 0 0
0 0 0 0
0 0 0 0
0 0 0 0
0 0 0 0
0 0 0 0
0 0 0 0
0 0 0 0
0 0 0 0
0 0 0 0
0 0 0 0
0 0 0 0
0 0 0 0
0 0 0 0
0 0 0 0
0 0 0 0
0 0 0 0
0 0 0 0
0 0 0 0
0 0 0 0
0 0 0 0
0 0 0 0
0 0 0 0
0 0 0 0
0 0 0 0
0 0 0 0
0 0 0 0
0 0 0 0
0 0 0 0
0 0 0 0
0 0 0 0
0 0 0 0
0 0 0 0
0 0 0 0
0 0 0 0
0 0 0 0
0 0 0 0
0 0 0 0
0 0 0 0
0 0 0 0
0 0 0 0
0 0 0 0
0 0 0 0
0 0 0 0
0 0 0 0
0 0 0 0
0 0 0 0
0 0 0 0
0 0 0 0
0 0 0 0
0 0 0 0
0 0 0 0
0 0 0 0
0 0 0 0
0 0 0 0
0 0 0 0
0 0 0 0
0 0 0 0
0 0 0 0
0 0 0 0
0 0 0 0
0 0 0 0
0 0 0 0
0 0 0 0
0 0 0 0
0 0 0 0
0 0 0 0
0 0 0 0
0 0 0 0
0 0 0 0
0 0 0 0
0 0 0 0
0 0 0 0
0 0 0 0
0 0 0 0
0 0 0 0
0 0 0 0
0 0 0 0
0 0 0 0
0 0 0 0
0 0 0 0
0 0 0 0
0 0 0 0
0 0 0 0
0 0 0 0
0 0 0 0
0 0 0 0
0 0 0 0
0 0 0 0
0 0 0 0
0 0 0 0
0 0 0 0
0 0 0 0
0 0 0 0
0 0 0 0
0 0 0 0
0 0 0 0
0 0 0 0
0 0 0 0
0 0 0 0
0 0 0 0
0 0 0 0
0 0 0 0
0 0 0 0
0 0 0 0
0 0 0 0
0 0 0 0
0 0 0 0
0 0 0 0
0 0 0 0
0 0 0 0
0 0 0 0
0 0 0 0
0 0 0 0
0 0 0 0
0 0 0 0
0 0 0 0
0 0 0 0
0 0 0 0
0 0 0 0
0 0 0 0
0 0 0 0
0 0 0 0
0 0 0 0
0 0 0 0
0 0 0 0
0 0 0 0
0 0 0 0
0 0 0 0
0 0 0 0
0 0 0 0
0 0 0 0
0 0 0 0
0 0 0 0
0 0 0 0
0 0 0 0
0 0 0 0
0 0 0 0
0 0 0 0
0 0 0 0
0 0 0 0
0 0 0 0
0 0 0 0
0 0 0 0
0 0 0 0
0 0 0 0
0 0 0 0
0 0 0 0
0 0 0 0
0 0 0 0
0 0 0 0
0 0 0 0
0 0 0 0
0 0 0 0
0 0 0 0
0 0 0 0
0 0 0 0
0 0 0 0
0 0 0 0
0 0 0 0
0 0 0 0
0 0 0 0
0 0 0 0
0 0 0 0
0 0 0 0
0 0 0 0
0 0 0 0
0 0 0 0
0 0 0 0
0 0 0 0
0 0 0 0
0 0 0 0
0 0 0 0
0 0 0 0
0 0 0 0
0 0 0 0
0 0 0 0
0 0 0 0
0 0 0 0
0 0 0 0
0 0 0 0
0 0 0 0
0 0 0 0
0 0 0 0
0 0 0 0
0 0 0 0
0 0 0 0
0 0 0 0
0 0 0 0
0 0 0 0
0 0 0 0
0 0 0 0
0 0 0 0
0 0 0 0
0 0 0 0
0 0 0 0
0 0 0 0
0 0 0 0
0 0 0 0
0 0 0 0
0 0 0 0
0 0 0 0
0 0 0 0
0 0 0 0
0 0 0 0
0 0 0 0
0 0 0 0
0 0 0 0
0 0 0 0
0 0 0 0
0 0 0 0
0 0 0 0
0 0 0 0
0 0 0 0
0 0 0 0
0 0 0 0
0 0 0 0
0 0 0 0
0 0 0 0
0 0 0 0
0 0 0 0
0 0 0 0
0 0 0 0
0 0 0 0
0 0 0 0
0 0 0 0
0 0 0 0
0 0 0 0
0 0 0 0
0 0 0 0
0 0 0 0
0 0 0 0
0 0 0 0
0 0 0 0
0 0 0 0
0 0 0 0
0 0 0 0
0 0 0 0
0 0 0 0
0 0 0 0
0 0 0 0
0 0 0 0
0 0 0 0
0 0 0 0
0 0 0 0
0 0 0 0
0 0 0 0
0 0 0 0
0 0 0 0
0 0 0 0
0 0 0 0
0 0 0 0
0 0 0 0
0 0 0 0
0 0 0 0
0 0 0 0
0 0 0 0
0 0 0 0
0 0 0 0
0 0 0 0
0 0 0 0
0 0 0 0
0 0 0 0
0 0 0 0
0 0 0 0
0 0 0 0
0 0 0 0
0 0 0 0
0 0 0 0
0 0 0 0
0 0 0 0
0 0 0 0
0 0 0 0
0 0 0 0
0 0 0 0
0 0 0 0
0 0 0 0
0 0 0 0
0 0 0 0
0 0 0 0
0 0 0 0
0 0 0 0
0 0 0 0
0 0 0 0
0 0 0 0
0 0 0 0
0 0 0 0
0 0 0 0
0 0 0 0
0 0 0 0
0 0 0 0
0 0 0 0
0 0 0 0
0 0 0 0
0 0 0 0
0 0 0 0
0 0 0 0
0 0 0 0
0 0 0 0
0 0 0 0
0 0 0 0
0 0 0 0
0 0 0 0
0 0 0 0
0 0 0 0
0 0 0 0
0 0 0 0
0 0 0 0
0 0 0 0
0 0 0 0
0 0 0 0
0 0 0 0
0 0 0 0
0 0 0 0
0 0 0 0
0 0 0 0
0 0 0 0
0 0 0 0
0 0 0 0
0 0 0 0
0 0 0 0
0 0 0 0
0 0 0 0
0 0 0 0
0 0 0 0
0 0 0 0
0 0 0 0
0 0 0 0
0 0 0 0
0 0 0 0
0 0 0 0
0 0 0 0
0 0 0 0
0 0 0 0
0 0 0 0
0 0 0 0
0 0 0 0
0 0 0 0
0 0 0 0
0 0 0 0
0 0 0 0
0 0 0 0
0 0 0 0
0 0 0 0
0 0 0 0
0 0 0 0
0 0 0 0
0 0 0 0
0 0 0 0
0 0 0 0
0 0 0 0
0 0 0 0
0 0 0 0
0 0 0 0
0 0 0 0
0 0 0 0
0 0 0 0
0 0 0 0
0 0 0 0
0 0 0 0
0 0 0 0
0 0 0 0
0 0 0 0
0 0 0 0
0 0 0 0
0 0 0 0
0 0 0 0
0 0 0 0
0 0 0 0
0 0 0 0
0 0 0 0
0 0 0 0
0 0 0 0
0 0 0 0
0 0 0 0
0 0 0 0
0 0 0 0
0 0 0 0
0 0 0 0
0 0 0 0
0 0 0 0
0 0 0 0
0 0 0 0
0 0 0 0
0 0 0 0
0 0 0 0
0 0 0 0
0 0 0 0
0 0 0 0
0 0 0 0
0 0 0 0
0 0 0 0
0 0 0 0
0 0 0 0
0 0 0 0
0 0 0 0
0 0 0 0
0 0 0 0
0 0 0 0
0 0 0 0
0 0 0 0
0 0 0 0
0 0 0 0
0 0 0 0
0 0 0 0
0 0 0 0
0 0 0 0
0 0 0 0
0 0 0 0
0 0 0 0
0 0 0 0
0 0 0 0
0 0 0 0
0 0 0 0
0 0 0 0
0 0 0 0
0 0 0 0
0 0 0 0
0 0 0 0
0 0 0 0
0 0 0 0
0 0 0 0
0 0 0 0
0 0 0 0
0 0 0 0
0 0 0 0
0 0 0 0
0 0 0 0
0 0 0 0
0 0 0 0
0 0 0 0
0 0 0 0
0 0 0 0
0 0 0 0
0 0 0 0
0 0 0 0
0 0 0 0
0 0 0 0
0 0 0 0
0 0 0 0
0 0 0 0
0 0 0 0
0 0 0 0
0 0 0 0
0 0 0 0
0 0 0 0
0 0 0 0
0 0 0 0
0 0 0 0
0 0 0 0
0 0 0 0
0 0 0 0
0 0 0 0
0 0 0 0
0 0 0 0
0 0 0 0
0 0 0 0
0 0 0 0
0 0 0 0
0 0 0 0
0 0 0 0
0 0 0 0
0 0 0 0
0 0 0 0
0 0 0 0
0 0 0 0
0 0 0 0
0 0 0 0
0 0 0 0
0 0 0 0
0 0 0 0
0 0 0 0
0 0 0 0
0 0 0 0
0 0 0 0
0 0 0 0
0 0 0 0
0 0 0 0
0 0 0 0
0 0 0 0
0 0 0 0
0 0 0 0
0 0 0 0
0 0 0 0
0 0 0 0
0 0 0 0
0 0 0 0
0 0 0 0
0 0 0 0
0 0 0 0
0 0 0 0
0 0 0 0
0 0 0 0
0 0 0 0
0 0 0 0
0 0 0 0
0 0 0 0
0 0 0 0
0 0 0 0
0 0 0 0
0 0 0 0
0 0 0 0
0 0 0 0
0 0 0 0
0 0 0 0
0 0 0 0
0 0 0 0
0 0 0 0
0 0 0 0
0 0 0 0
0 0 0 0
0 0 0 0
0 0 0 0
0 0 0 0
0 0 0 0
0 0 0 0
0 0 0 0
0 0 0 0
0 0 0 0
0 0 0 0
0 0 0 0
0 0 0 0
0 0 0 0
0 0 0 0
0 0 0 0
0 0 0 0
0 0 0 0
0 0 0 0
0 0 0 0
0 0 0 0
0 0 0 0
0 0 0 0
0 0 0 0
0 0 0 0
0 0 0 0
0 0 0 0
0 0 0 0
0 0 0 0
0 0 0 0
0 0 0 0
0 0 0 0
0 0 0 0
0 0 0 0
0 0 0 0
0 0 0 0
0 0 0 0
0 0 0 0
0 0 0 0
0 0 0 0
0 0 0 0
0 0 0 0
0 0 0 0
0 0 0 0
0 0 0 0
0 0 0 0
0 0 0 0
0 0 0 0
0 0 0 0
0 0 0 0
0 0 0 0
0 0 0 0
0 0 0 0
0 0 0 0
0 0 0 0
0 0 0 0
0 0 0 0
0 0 0 0
0 0 0 0
0 0 0 0
0 0 0 0
0 0 0 0
0 0 0 0
0 0 0 0
0 0 0 0
0 0 0 0
0 0 0 0
0 0 0 0
0 0 0 0
0 0 0 0
0 0 0 0
0 0 0 0
0 0 0 0
0 0 0 0
0 0 0 0
0 0 0 0
0 0 0 0
0 0 0 0
0 0 0 0
0 0 0 0
0 0 0 0
0 0 0 0
0 0 0 0
0 0 0 0
0 0 0 0
0 0 0 0
0 0 0 0
0 0 0 0
0 0 0 0
0 0 0 0
0 0 0 0
0 0 0 0
0 0 0 0
0 0 0 0
0 0 0 0
0 0 0 0
0 0 0 0
0 0 0 0
0 0 0 0
0 0 0 0
0 0 0 0
0 0 0 0
0 0 0 0
0 0 0 0
0 0 0 0
0 0 0 0
0 0 0 0
0 0 0 0
0 0 0 0
0 0 0 0
0 0 0 0
0 0 0 0
0 0 0 0
0 0 0 0
0 0 0 0
0 0 0 0
0 0 0 0
0 0 0 0
0 0 0 0
0 0 0 0
0 0 0 0
0 0 0 0
0 0 0 0
0 0 0 0
0 0 0 0
0 0 0 0
0 0 0 0
0 0 0 0
0 0 0 0
0 0 0 0
0 0 0 0
0 0 0 0
0 0 0 0
0 0 0 0
0 0 0 0
0 0 0 0
0 0 0 0
0 0 0 0
0 0 0 0
0 0 0 0
0 0 0 0
0 0 0 0
0 0 0 0
0 0 0 0
0 0 0 0
0 0 0 0
0 0 0 0
0 0 0 0
0 0 0 0
0 0 0 0
0 0 0 0
0 0 0 0
0 0 0 0
0 0 0 0
0 0 0 0
0 0 0 0
0 0 0 0
0 0 0 0
0 0 0 0
0 0 0 0
0 0 0 0
0 0 0 0
0 0 0 0
0 0 0 0
0 0 0 0
0 0 0 0
0 0 0 0
0 0 0 0
0 0 0 0
0 0 0 0
0 0 0 0
0 0 0 0
0 0 0 0
0 0 0 0
0 0 0 0
0 0 0 0
0 0 0 0
0 0 0 0
0 0 0 0
0 0 0 0
0 0 0 0
0 0 0 0
0 0 0 0
0 0 0 0
0 0 0 0
0 0 0 0
0 0 0 0
0 0 0 0
0 0 0 0
0 0 0 0
0 0 0 0
0 0 0 0
0 0 0 0
0 0 0 0
0 0 0 0
0 0 0 0
0 0 0 0
0 0 0 0
0 0 0 0
0 0 0 0
0 0 0 0
0 0 0 0
0 0 0 0
0 0 0 0
0 0 0 0
0 0 0 0
0 0 0 0
0 0 0 0
0 0 0 0
0 0 0 0
0 0 0 0
0 0 0 0
0 0 0 0
0 0 0 0
0 0 0 0
0 0 0 0
0 0 0 0
0 0 0 0
0 0 0 0
0 0 0 0
0 0 0 0
0 0 0 0
0 0 0 0
0 0 0 0
0 0 0 0
0 0 0 0
0 0 0 0
0 0 0 0
0 0 0 0
0 0 0 0
0 0 0 0
0 0 0 0
0 0 0 0
0 0 0 0
0 0 0 0
0 0 0 0
0 0 0 0
0 0 0 0
0 0 0 0
0 0 0 0
0 0 0 0
0 0 0 0
0 0 0 0
0 0 0 0
0 0 0 0
0 0 0 0
0 0 0 0
0 0 0 0
0 0 0 0
0 0 0 0
0 0 0 0
0 0 0 0
0 0 0 0
0 0 0 0
0 0 0 0
0 0 0 0
0 0 0 0
0 0 0 0
0 0 0 0
0 0 0 0
0 0 0 0
0 0 0 0
0 0 0 0
0 0 0 0
0 0 0 0
0 0 0 0
0 0 0 0
0 0 0 0
0 0 0 0
0 0 0 0
0 0 0 0
0 0 0 0
0 0 0 0
0 0 0 0
0 0 0 0
0 0 0 0
0 0 0 0
0 0 0 0
0 0 0 0
0 0 0 0
0 0 0 0
0 0 0 0
0 0 0 0
0 0 0 0
0 0 0 0
0 0 0 0
0 0 0 0
0 0 0 0
0 0 0 0
0 0 0 0
0 0 0 0
0 0 0 0
0 0 0 0
0 0 0 0
0 0 0 0
0 0 0 0
0 0 0 0
0 0 0 0
0 0 0 0
0 0 0 0
0 0 0 0
0 0 0 0
0 0 0 0
0 0 0 0
0 0 0 0
0 0 0 0
0 0 0 0
0 0 0 0
0 0 0 0
0 0 0 0
0 0 0 0
0 0 0 0
0 0 0 0
0 0 0 0
0 0 0 0
0 0 0 0
0 0 0 0
0 0 0 0
0 0 0 0
0 0 0 0
0 0 0 0
0 0 0 0
0 0 0 0
0 0 0 0
0 0 0 0
0 0 0 0
0 0 0 0
0 0 0 0
0 0 0 0
0 0 0 0
0 0 0 0
0 0 0 0
0 0 0 0
0 0 0 0
0 0 0 0
0 0 0 0
0 0 0 0
0 0 0 0
0 0 0 0
0 0 0 0
0 0 0 0
0 0 0 0
0 0 0 0
0 0 0 0
0 0 0 0
0 0 0 0
0 0 0 0
0 0 0 0
0 0 0 0
0 0 0 0
0 0 0 0
0 0 0 0
0 0 0 0
0 0 0 0
0 0 0 0
0 0 0 0
0 0 0 0
0 0 0 0
0 0 0 0
0 0 0 0
0 0 0 0
0 0 0 0
0 0 0 0
0 0 0 0
0 0 0 0
0 0 0 0
0 0 0 0
0 0 0 0
0 0 0 0
0 0 0 0
0 0 0 0
0 0 0 0
0 0 0 0
0 0 0 0
0 0 0 0
0 0 0 0
0 0 0 0
0 0 0 0
0 0 0 0
0 0 0 0
0 0 0 0
0 0 0 0
0 0 0 0
0 0 0 0
0 0 0 0
0 0 0 0
0 0 0 0
0 0 0 0
0 0 0 0
0 0 0 0
0 0 0 0
0 0 0 0
0 0 0 0
0 0 0 0
0 0 0 0
0 0 0 0
0 0 0 0
0 0 0 0
0 0 0 0
0 0 0 0
0 0 0 0
0 0 0 0
0 0 0 0
0 0 0 0
0 0 0 0
0 0 0 0
0 0 0 0
0 0 0 0
0 0 0 0
0 0 0 0
0 0 0 0
0 0 0 0
0 0 0 0
0 0 0 0
0 0 0 0
0 0 0 0
0 0 0 0
0 0 0 0
0 0 0 0
0 0 0 0
0 0 0 0
0 0 0 0
0 0 0 0
0 0 0 0
0 0 0 0
0 0 0 0
0 0 0 0
0 0 0 0
0 0 0 0
0 0 0 0
0 0 0 0
0 0 0 0
0 0 0 0
0 0 0 0
0 0 0 0
0 0 0 0
0 0 0 0
0 0 0 0
0 0 0 0
0 0 0 0
0 0 0 0
0 0 0 0
0 0 0 0
0 0 0 0
0 0 0 0
0 0 0 0
0 0 0 0
0 0 0 0
0 0 0 0
0 0 0 0
0 0 0 0
0 0 0 0
0 0 0 0
0 0 0 0
0 0 0 0
0 0 0 0
0 0 0 0
0 0 0 0
0 0 0 0
0 0 0 0
0 0 0 0
0 0 0 0
0 0 0 0
0 0 0 0
0 0 0 0
0 0 0 0
0 0 0 0
0 0 0 0
0 0 0 0
0 0 0 0
0 0 0 0
0 0 0 0
0 0 0 0
0 0 0 0
0 0 0 0
0 0 0 0
0 0 0 0
0 0 0 0
0 0 0 0
0 0 0 0
0 0 0 0
0 0 0 0
0 0 0 0
0 0 0 0
0 0 0 0
0 0 0 0
0 0 0 0
0 0 0 0
0 0 0 0
0 0 0 0
0 0 0 0
0 0 0 0
0 0 0 0
0 0 0 0
0 0 0 0
0 0 0 0
0 0 0 0
0 0 0 0
0 0 0 0
0 0 0 0
0 0 0 0
0 0 0 0
0 0 0 0
0 0 0 0
0 0 0 0
0 0 0 0
0 0 0 0
0 0 0 0
0 0 0 0
0 0 0 0
0 0 0 0
0 0 0 0
0 0 0 0
0 0 0 0
0 0 0 0
0 0 0 0
0 0 0 0
0 0 0 0
0 0 0 0
0 0 0 0
0 0 0 0
0 0 0 0
0 0 0 0
0 0 0 0
0 0 0 0
0 0 0 0
0 0 0 0
0 0 0 0
0 0 0 0
0 0 0 0
0 0 0 0
0 0 0 0
0 0 0 0
0 0 0 0
0 0 0 0
0 0 0 0
0 0 0 0
0 0 0 0
0 0 0 0
0 0 0 0
0 0 0 0
0 0 0 0
0 0 0 0
0 0 0 0
0 0 0 0
0 0 0 0
0 0 0 0
0 0 0 0
0 0 0 0
0 0 0 0
0 0 0 0
0 0 0 0
0 0 0 0
0 0 0 0
0 0 0 0
0 0 0 0
0 0 0 0
0 0 0 0
0 0 0 0
0 0 0 0
0 0 0 0
0 0 0 0
0 0 0 0
0 0 0 0
0 0 0 0
0 0 0 0
0 0 0 0
0 0 0 0
0 0 0 0
0 0 0 0
0 0 0 0
0 0 0 0
0 0 0 0
0 0 0 0
0 0 0 0
0 0 0 0
0 0 0 0
0 0 0 0
0 0 0 0
0 0 0 0
0 0 0 0
0 0 0 0
0 0 0 0
0 0 0 0
0 0 0 0
0 0 0 0
0 0 0 0
0 0 0 0
0 0 0 0
0 0 0 0
0 0 0 0
0 0 0 0
0 0 0 0
0 0 0 0
0 0 0 0
0 0 0 0
0 0 0 0
0 0 0 0
0 0 0 0
0 0 0 0
0 0 0 0
0 0 0 0
0 0 0 0
0 0 0 0
0 0 0 0
0 0 0 0
0 0 0 0
0 0 0 0
0 0 0 0
0 0 0 0
0 0 0 0
0 0 0 0
0 0 0 0
0 0 0 0
0 0 0 0
0 0 0 0
0 0 0 0
0 0 0 0
0 0 0 0
0 0 0 0
0 0 0 0
0 0 0 0
0 0 0 0
0 0 0 0
0 0 0 0
0 0 0 0
0 0 0 0
0 0 0 0
0 0 0 0
0 0 0 0
0 0 0 0
0 0 0 0
0 0 0 0
0 0 0 0
0 0 0 0
0 0 0 0
0 0 0 0
0 0 0 0
0 0 0 0
0 0 0 0
0 0 0 0
0 0 0 0
0 0 0 0
0 0 0 0
0 0 0 0
0 0 0 0
0 0 0 0
0 0 0 0
0 0 0 0
0 0 0 0
0 0 0 0
0 0 0 0
0 0 0 0
0 0 0 0
0 0 0 0
0 0 0 0
0 0 0 0
0 0 0 0
0 0 0 0
0 0 0 0
0 0 0 0
0 0 0 0
0 0 0 0
0 0 0 0
0 0 0 0
0 0 0 0
0 0 0 0
0 0 0 0
0 0 0 0
0 0 0 0
0 0 0 0
0 0 0 0
0 0 0 0
0 0 0 0
0 0 0 0
0 0 0 0
0 0 0 0
0 0 0 0
0 0 0 0
0 0 0 0
0 0 0 0
0 0 0 0
0 0 0 0
0 0 0 0
0 0 0 0
0 0 0 0
0 0 0 0
0 0 0 0
0 0 0 0
0 0 0 0
0 0 0 0
0 0 0 0
0 0 0 0
0 0 0 0
0 0 0 0
0 0 0 0
0 0 0 0
0 0 0 0
0 0 0 0
0 0 0 0
0 0 0 0
0 0 0 0
0 0 0 0
0 0 0 0
0 0 0 0
0 0 0 0
0 0 0 0
0 0 0 0
0 0 0 0
0 0 0 0
0 0 0 0
0 0 0 0
0 0 0 0
0 0 0 0
0 0 0 0
0 0 0 0
0 0 0 0
0 0 0 0
0 0 0 0
0 0 0 0
0 0 0 0
0 0 0 0
0 0 0 0
0 0 0 0
0 0 0 0
0 0 0 0
0 0 0 0
0 0 0 0
0 0 0 0
0 0 0 0
0 0 0 0
0 0 0 0
0 0 0 0
0 0 0 0
0 0 0 0
0 0 0 0
0 0 0 0
0 0 0 0
0 0 0 0
0 0 0 0
0 0 0 0
0 0 0 0
0 0 0 0
0 0 0 0
0 0 0 0
0 0 0 0
0 0 0 0
0 0 0 0
0 0 0 0
0 0 0 0
0 0 0 0
0 0 0 0
0 0 0 0
0 0 0 0
0 0 0 0
0 0 0 0
0 0 0 0
0 0 0 0
0 0 0 0
0 0 0 0
0 0 0 0
0 0 0 0
0 0 0 0
0 0 0 0
0 0 0 0
0 0 0 0
0 0 0 0
0 0 0 0
0 0 0 0
0 0 0 0
0 0 0 0
0 0 0 0
0 0 0 0
0 0 0 0
0 0 0 0
0 0 0 0
0 0 0 0
0 0 0 0
0 0 0 0
0 0 0 0
0 0 0 0
0 0 0 0
0 0 0 0
0 0 0 0
0 0 0 0
0 0 0 0
0 0 0 0
0 0 0 0
0 0 0 0
0 0 0 0
0 0 0 0
0 0 0 0
0 0 0 0
0 0 0 0
0 0 0 0
0 0 0 0
0 0 0 0
0 0 0 0
0 0 0 0
0 0 0 0
0 0 0 0
0 0 0 0
0 0 0 0
0 0 0 0
0 0 0 0
0 0 0 0
0 0 0 0
0 0 0 0
0 0 0 0
0 0 0 0
0 0 0 0
0 0 0 0
0 0 0 0
0 0 0 0
0 0 0 0
0 0 0 0
0 0 0 0
0 0 0 0
0 0 0 0
0 0 0 0
0 0 0 0
0 0 0 0
0 0 0 0
0 0 0 0
0 0 0 0
0 0 0 0
0 0 0 0
0 0 0 0
0 0 0 0
0 0 0 0
0 0 0 0
0 0 0 0
0 0 0 0
0 0 0 0
0 0 0 0
0 0 0 0
0 0 0 0
0 0 0 0
0 0 0 0
0 0 0 0
0 0 0 0
0 0 0 0
0 0 0 0
0 0 0 0
0 0 0 0
0 0 0 0
0 0 0 0
0 0 0 0
0 0 0 0
0 0 0 0
0 0 0 0
0 0 0 0
0 0 0 0
0 0 0 0
0 0 0 0
0 0 0 0
0 0 0 0
0 0 0 0
0 0 0 0
0 0 0 0
0 0 0 0
0 0 0 0
0 0 0 0
0 0 0 0
0 0 0 0
0 0 0 0
0 0 0 0
0 0 0 0
0 0 0 0
0 0 0 0
0 0 0 0
0 0 0 0
0 0 0 0
0 0 0 0
0 0 0 0
0 0 0 0
0 0 0 0
0 0 0 0
0 0 0 0
0 0 0 0
0 0 0 0
0 0 0 0
0 0 0 0
0 0 0 0
0 0 0 0
0 0 0 0
0 0 0 0
0 0 0 0
0 0 0 0
0 0 0 0
0 0 0 0
0 0 0 0
0 0 0 0
0 0 0 0
0 0 0 0
0 0 0 0
0 0 0 0
0 0 0 0
0 0 0 0
0 0 0 0
0 0 0 0
0 0 0 0
0 0 0 0
0 0 0 0
0 0 0 0
0 0 0 0
0 0 0 0
0 0 0 0
0 0 0 0
0 0 0 0
0 0 0 0
0 0 0 0
0 0 0 0
0 0 0 0
0 0 0 0
0 0 0 0
0 0 0 0
0 0 0 0
0 0 0 0
0 0 0 0
0 0 0 0
0 0 0 0
0 0 0 0
0 0 0 0
0 0 0 0
0 0 0 0
0 0 0 0
0 0 0 0
0 0 0 0
0 0 0 0
0 0 0 0
0 0 0 0
0 0 0 0
0 0 0 0
0 0 0 0
0 0 0 0
0 0 0 0
0 0 0 0
0 0 0 0
0 0 0 0
0 0 0 0
0 0 0 0
0 0 0 0
0 0 0 0
0 0 0 0
0 0 0 0
0 0 0 0
0 0 0 0
0 0 0 0
0 0 0 0
0 0 0 0
0 0 0 0
0 0 0 0
0 0 0 0
0 0 0 0
0 0 0 0
0 0 0 0
0 0 0 0
0 0 0 0
0 0 0 0
0 0 0 0
0 0 0 0
0 0 0 0
0 0 0 0
0 0 0 0
0 0 0 0
0 0 0 0
0 0 0 0
0 0 0 0
0 0 0 0
0 0 0 0
0 0 0 0
0 0 0 0
0 0 0 0
0 0 0 0
0 0 0 0
0 0 0 0
0 0 0 0
0 0 0 0
0 0 0 0
0 0 0 0
0 0 0 0
0 0 0 0
0 0 0 0
0 0 0 0
0 0 0 0
0 0 0 0
0 0 0 0
0 0 0 0
0 0 0 0
0 0 0 0
0 0 0 0
0 0 0 0
0 0 0 0
0 0 0 0
0 0 0 0
0 0 0 0
0 0 0 0
0 0 0 0
0 0 0 0
0 0 0 0
0 0 0 0
0 0 0 0
0 0 0 0
0 0 0 0
0 0 0 0
0 0 0 0
0 0 0 0
0 0 0 0
0 0 0 0
0 0 0 0
0 0 0 0
0 0 0 0
0 0 0 0
0 0 0 0
0 0 0 0
0 0 0 0
0 0 0 0
0 0 0 0
0 0 0 0
0 0 0 0
0 0 0 0
0 0 0 0
0 0 0 0
0 0 0 0
0 0 0 0
0 0 0 0
0 0 0 0
0 0 0 0
0 0 0 0
0 0 0 0
0 0 0 0
0 0 0 0
0 0 0 0
0 0 0 0
0 0 0 0
0 0 0 0
0 0 0 0
0 0 0 0
0 0 0 0
0 0 0 0
0 0 0 0
0 0 0 0
0 0 0 0
0 0 0 0
0 0 0 0
0 0 0 0
0 0 0 0
0 0 0 0
0 0 0 0
0 0 0 0
0 0 0 0
0 0 0 0
0 0 0 0
0 0 0 0
0 0 0 0
0 0 0 0
0 0 0 0
0 0 0 0
0 0 0 0
0 0 0 0
0 0 0 0
0 0 0 0
0 0 0 0
0 0 0 0
0 0 0 0
0 0 0 0
0 0 0 0
0 0 0 0
0 0 0 0
0 0 0 0
0 0 0 0
0 0 0 0
0 0 0 0
0 0 0 0
0 0 0 0
0 0 0 0
0 0 0 0
0 0 0 0
0 0 0 0
0 0 0 0
0 0 0 0
0 0 0 0
0 0 0 0
0 0 0 0
0 0 0 0
0 0 0 0
0 0 0 0
0 0 0 0
0 0 0 0
0 0 0 0
0 0 0 0
0 0 0 0
0 0 0 0
0 0 0 0
0 0 0 0
0 0 0 0
0 0 0 0
0 0 0 0
0 0 0 0
0 0 0 0
0 0 0 0
0 0 0 0
0 0 0 0
0 0 0 0
0 0 0 0
0 0 0 0
0 0 0 0
0 0 0 0
0 0 0 0
0 0 0 0
0 0 0 0
0 0 0 0
0 0 0 0
0 0 0 0
0 0 0 0
0 0 0 0
0 0 0 0
0 0 0 0
0 0 0 0
0 0 0 0
0 0 0 0
0 0 0 0
0 0 0 0
0 0 0 0
0 0 0 0
0 0 0 0
0 0 0 0
0 0 0 0
0 0 0 0
0 0 0 0
0 0 0 0
0 0 0 0
0 0 0 0
0 0 0 0
0 0 0 0
0 0 0 0
0 0 0 0
0 0 0 0
0 0 0 0
0 0 0 0
0 0 0 0
0 0 0 0
0 0 0 0
0 0 0 0
0 0 0 0
0 0 0 0
0 0 0 0
0 0 0 0
0 0 0 0
0 0 0 0
0 0 0 0
0 0 0 0
0 0 0 0
0 0 0 0
0 0 0 0
0 0 0 0
0 0 0 0
0 0 0 0
0 0 0 0
0 0 0 0
0 0 0 0
0 0 0 0
0 0 0 0
0 0 0 0
0 0 0 0
0 0 0 0
0 0 0 0
0 0 0 0
0 0 0 0
0 0 0 0
0 0 0 0
0 0 0 0
0 0 0 0
0 0 0 0
0 0 0 0
0 0 0 0
0 0 0 0
0 0 0 0
0 0 0 0
0 0 0 0
0 0 0 0
0 0 0 0
0 0 0 0
0 0 0 0
0 0 0 0
0 0 0 0
0 0 0 0
0 0 0 0
0 0 0 0
0 0 0 0
0 0 0 0
0 0 0 0
0 0 0 0
0 0 0 0
0 0 0 0
0 0 0 0
0 0 0 0
0 0 0 0
0 0 0 0
0 0 0 0
0 0 0 0
0 0 0 0
0 0 0 0
0 0 0 0
0 0 0 0
0 0 0 0
0 0 0 0
0 0 0 0
0 0 0 0
0 0 0 0
0 0 0 0
0 0 0 0
0 0 0 0
0 0 0 0
0 0 0 0
0 0 0 0
0 0 0 0
0 0 0 0
0 0 0 0
0 0 0 0
0 0 0 0
0 0 0 0
0 0 0 0
0 0 0 0
0 0 0 0
0 0 0 0
0 0 0 0
0 0 0 0
0 0 0 0
0 0 0 0
0 0 0 0
      </DataArray> 
      <DataArray type="Float64" NumberOfComponents="1" Name="blendingZone" format="ascii">
0
0
0
0
0
0
0
0
0
0
0
0
0
0
0
0
0
0
0
0
0
0
0
0
0
0
0
0
0
0
0
0
0
0
0
0
0
0
0
0
0
0
0
0
0
0
0
0
0
0
0
0
0
0
0
0
0
0
0
0
0
0
0
0
0
0
0
0
0
0
0
0
0
0
0
0
0
0
0
0
0
0
0
0
0
0
0
0
0
0
0
0
0
0
0
0
0
0
0
0
0
0
0
0
0
0
0
0
0
0
0
0
0
0
0
0
0
0
0
0
0
0
0
0
0
0
0
0
0
0
0
0
0
0
0
0
0
0
0
0
0
0
0
0
0
0
0
0
0
0
0
0
0
0
0
0
0
0
0
0
0
0
0
0
0
0
0
0
0
0
0
0
0
0
0
0
0
0
0
0
0
0
0
0
0
0
0
0
0
0
0
0
0
0
0
0
0
0
0
0
0
0
0
0
0
0
0
0
0
0
0
0
0
0
0
0
0
0
0
0
0
0
0
0
0
0
0
0
0
0
0
0
0
0
0
0
0
0
0
0
0
0
0
0
0
0
0
0
0
0
0
0
0
0
0
0
0
0
0
0
0
0
0
0
0
0
0
0
0
0
0
0
0
0
0
0
0
0
0
0
0
0
0
0
0
0
0
0
0
0
0
0
0
0
0
0
0
0
0
0
0
0
0
0
0
0
0
0
0
0
0
0
0
0
0
0
0
0
0
0
0
0
0
0
0
0
0
0
0
0
0
0
0
0
0
0
0
0
0
0
0
0
0
0
0
0
0
0
0
0
0
0
0
0
0
0
0
0
0
0
0
0
0
0
0
0
0
0
0
0
0
0
0
0
0
0
0
0
0
0
0
0
0
0
0
0
0
0
0
0
0
0
0
0
0
0
0
0
0
0
0
0
0
0
0
0
0
0
0
0
0
0
0
0
0
0
0
0
0
0
0
0
0
0
0
0
0
0
0
0
0
0
0
0
0
0
0
0
0
0
0
0
0
0
0
0
0
0
0
0
0
0
0
0
0
0
0
0
0
0
0
0
0
0
0
0
0
0
0
0
0
0
0
0
0
0
0
0
0
0
0
0
0
0
0
0
0
0
0
0
0
0
0
0
0
0
0
0
0
0
0
0
0
0
0
0
0
0
0
0
0
0
0
0
0
0
0
0
0
0
0
0
0
0
0
0
0
0
0
0
0
0
0
0
0
0
0
0
0
0
0
0
0
0
0
0
0
0
0
0
0
0
0
0
0
0
0
0
0
0
0
0
0
0
0
0
0
0
0
0
0
0
0
0
0
0
0
0
0
0
0
0
0
0
0
0
0
0
0
0
0
0
0
0
0
0
0
0
0
0
0
0
0
0
0
0
0
0
0
0
0
0
0
0
0
0
0
0
0
0
0
0
0
0
0
0
0
0
0
0
0
0
0
0
0
0
0
0
0
0
0
0
0
0
0
0
0
0
0
0
0
0
0
0
0
0
0
0
0
0
0
0
0
0
0
0
0
0
0
0
0
0
0
0
0
0
0
0
0
0
0
0
0
0
0
0
0
0
0
0
0
0
0
0
0
0
0
0
0
0
0
0
0
0
0
0
0
0
0
0
0
0
0
0
0
0
0
0
0
0
0
0
0
0
0
0
0
0
0
0
0
0
0
0
0
0
0
0
0
0
0
0
0
0
0
0
0
0
0
0
0
0
0
0
0
0
0
0
0
0
0
0
0
0
0
0
0
0
0
0
0
0
0
0
0
0
0
0
0
0
0
0
0
0
0
0
0
0
0
0
0
0
0
0
0
0
0
0
0
0
0
0
0
0
0
0
0
0
0
0
0
0
0
0
0
0
0
0
0
0
0
0
0
0
0
0
0
0
0
0
0
0
0
0
0
0
0
0
0
0
0
0
0
0
0
0
0
0
0
0
0
0
0
0
0
0
0
0
0
0
0
0
0
0
0
0
0
0
0
0
0
0
0
0
0
0
0
0
0
0
0
0
0
0
0
0
0
0
0
0
0
0
0
0
0
0
0
0
0
0
0
0
0
0
0
0
0
0
0
0
0
0
0
0
0
0
0
0
0
0
0
0
0
0
0
0
0
0
0
0
0
0
0
0
0
0
0
0
0
0
0
0
0
0
0
0
0
0
0
0
0
0
0
0
0
0
0
0
0
0
0
0
0
0
0
0
0
0
0
0
0
0
0
0
0
0
0
0
0
0
0
0
0
0
0
0
0
0
0
0
0
0
0
0
0
0
0
0
0
0
0
0
0
0
0
0
0
0
0
0
0
0
0
0
0
0
0
0
0
0
0
0
0
0
0
0
0
0
0
0
0
0
0
0
0
0
0
0
0
0
0
0
0
0
0
0
0
0
0
0
0
0
0
0
0
0
0
0
0
0
0
0
0
0
0
0
0
0
0
0
0
0
0
0
0
0
0
0
0
0
0
0
0
0
0
0
0
0
0
0
0
0
0
0
0
0
0
0
0
0
0
0
0
0
0
0
0
0
0
0
0
0
0
0
0
0
0
0
0
0
0
0
0
0
0
0
0
0
0
0
0
0
0
0
0
0
0
0
0
0
0
0
0
0
0
0
0
0
0
0
0
0
0
0
0
0
0
0
0
0
0
0
0
0
0
0
0
0
0
0
0
0
0
0
0
0
0
0
0
0
0
0
0
0
0
0
0
0
0
0
0
0
0
0
0
0
0
0
0
0
0
0
0
0
0
0
0
0
0
0
0
0
0
0
0
0
0
0
0
0
0
0
0
0
0
0
0
0
0
0
0
0
0
0
0
0
0
0
0
0
0
0
0
0
0
0
0
0
0
0
0
0
0
0
0
0
0
0
0
0
0
0
0
0
0
0
0
0
0
0
0
0
0
0
0
0
0
0
0
0
0
0
0
0
0
0
0
0
0
0
0
0
0
0
0
0
0
0
0
0
0
0
0
0
0
0
0
0
0
0
0
0
0
0
0
0
0
0
0
0
0
0
0
0
0
0
0
0
0
0
0
0
0
0
0
0
0
0
0
0
0
0
0
0
0
0
0
0
0
0
0
0
0
0
0
0
0
0
0
0
0
0
0
0
0
0
0
0
0
0
0
0
0
0
0
0
0
0
0
0
0
0
0
0
0
0
0
0
0
0
0
0
0
0
0
0
0
0
0
0
0
0
0
0
0
0
0
0
0
0
0
0
0
0
0
0
0
0
0
0
0
0
0
0
0
0
0
0
0
0
0
0
0
0
0
0
0
0
0
0
0
0
0
0
0
0
0
0
0
0
0
0
0
0
0
0
0
0
0
0
0
0
0
0
0
0
0
0
0
0
0
0
0
0
0
0
0
0
0
0
0
0
0
0
0
0
0
0
0
0
0
0
0
0
0
0
0
0
0
0
0
0
0
0
0
0
0
0
0
0
0
0
0
0
0
0
0
0
0
0
0
0
0
0
0
0
0
0
0
0
0
0
0
0
0
0
0
0
0
0
0
0
0
0
0
0
0
0
0
0
0
0
0
0
0
0
0
0
0
0
0
0
0
0
0
0
0
0
0
0
0
0
0
0
0
0
0
0
0
0
0
0
0
0
0
0
0
0
0
0
0
0
0
0
0
0
0
0
0
0
0
0
0
0
0
0
0
0
0
0
0
0
0
0
0
0
0
0
0
0
0
0
0
0
0
0
0
0
0
0
0
0
0
0
0
0
0
0
0
0
0
0
0
0
0
0
0
0
0
0
0
0
0
0
0
0
0
0
0
0
0
0
0
0
0
0
0
0
0
0
0
0
0
0
0
0
0
0
0
0
0
0
0
0
0
0
0
0
0
0
0
0
0
0
0
0
0
0
0
0
0
0
0
0
0
0
0
0
0
0
0
0
0
0
0
0
0
0
0
0
0
0
0
0
0
0
0
0
0
0
0
0
0
0
0
0
0
0
0
0
0
0
0
0
0
0
0
0
0
0
0
0
0
0
0
0
0
0
0
0
0
0
0
0
0
0
0
0
0
0
0
0
0
0
0
0
0
0
0
0
0
0
0
0
0
0
0
0
0
0
0
0
0
0
0
0
0
0
0
0
0
0
0
0
0
0
0
0
0
0
0
0
0
0
0
0
0
0
0
0
0
0
0
0
0
0
0
0
0
0
0
0
0
0
0
0
0
0
0
0
0
0
0
0
0
0
0
0
0
0
0
0
0
0
0
0
0
0
0
0
0
0
0
0
0
0
0
0
0
0
0
0
0
0
0
0
0
0
0
0
0
0
0
0
0
0
0
0
0
0
0
0
0
0
0
0
0
0
0
0
0
0
0
0
0
0
0
0
0
0
0
0
0
0
0
0
0
0
0
0
0
0
0
0
0
0
0
0
0
0
0
0
0
0
0
0
0
0
0
0
0
0
0
0
0
0
0
0
0
0
0
0
0
0
0
0
0
0
0
0
0
0
0
0
0
0
0
0
0
0
0
0
0
0
0
0
0
0
0
0
0
0
0
0
0
0
0
0
0
0
0
0
0
0
0
0
0
0
0
0
0
0
0
0
0
0
0
0
0
0
0
0
0
0
0
0
0
0
0
0
0
0
0
0
0
0
0
0
0
0
0
0
0
0
0
0
0
0
0
0
0
0
0
0
0
0
0
0
0
0
0
0
0
0
0
0
0
0
0
0
0
0
0
0
0
0
0
0
0
0
0
0
0
0
0
0
0
0
0
0
0
0
0
0
0
0
0
0
0
0
0
0
0
0
0
0
0
0
0
0
0
0
0
0
0
0
0
0
0
0
0
0
0
0
0
0
0
0
0
0
0
0
0
0
0
0
0
0
0
0
0
0
0
0
0
0
0
0
0
0
0
0
0
0
0
0
0
0
0
0
0
0
0
0
0
0
0
0
0
0
0
0
0
0
0
0
0
0
0
0
0
0
0
0
0
0
0
0
0
0
0
0
0
0
0
0
0
0
0
0
0
0
0
0
0
0
0
0
0
0
0
0
0
0
0
0
0
0
0
0
0
0
0
0
0
0
0
0
0
0
0
0
0
0
0
0
0
0
0
0
0
0
0
0
0
0
0
0
0
0
0
0
0
0
0
0
0
0
0
0
0
0
0
0
0
0
0
0
0
0
0
0
0
0
0
0
0
0
0
0
0
0
0
0
0
0
0
0
0
0
0
0
0
0
0
0
0
0
0
0
0
0
0
0
0
0
0
0
0
0
0
0
0
0
0
0
0
0
0
0
0
0
0
0
0
0
0
0
0
0
0
0
0
0
0
0
0
0
0
0
0
0
0
0
0
0
0
0
0
0
0
0
0
0
0
0
0
0
0
0
0
0
0
0
0
0
0
0
0
0
0
0
0
0
0
0
0
0
0
0
0
0
0
0
0
0
0
0
0
0
0
0
0
0
0
0
0
0
0
0
0
0
0
0
0
0
0
0
0
0
0
0
0
0
0
0
0
0
0
0
0
0
0
0
0
0
0
0
0
0
0
0
0
0
0
0
0
0
0
0
0
0
0
0
0
0
0
0
0
0
0
0
0
0
0
0
0
0
0
0
0
0
0
0
0
0
0
0
0
0
0
0
0
0
0
0
0
0
0
0
0
0
0
0
0
0
0
0
0
0
0
0
0
0
0
0
0
0
0
0
0
0
0
0
0
0
0
0
0
0
0
0
0
0
0
0
0
0
0
0
0
0
0
0
0
0
0
0
0
0
0
0
0
0
0
0
0
0
0
0
0
0
0
0
0
0
0
0
0
0
0
0
0
0
0
0
0
0
0
0
0
0
0
0
0
0
0
0
0
0
0
0
0
0
0
0
0
0
0
0
0
0
0
0
0
0
0
0
0
0
0
0
0
0
0
0
0
0
0
0
0
0
0
0
0
0
0
0
0
0
0
0
0
0
0
0
0
0
0
0
0
0
0
0
0
0
0
0
0
0
0
0
0
0
0
0
0
0
0
0
0
0
0
0
0
0
0
0
0
0
0
0
0
0
0
0
0
0
0
0
0
0
0
0
0
0
0
0
0
0
0
0
0
0
0
0
0
0
0
0
0
0
0
0
0
0
0
0
0
0
0
0
0
0
0
0
0
0
0
0
0
0
0
0
0
0
0
0
0
0
0
0
0
0
0
0
0
0
0
0
0
0
0
0
0
0
0
0
0
0
0
0
0
0
0
0
0
0
0
0
0
0
0
0
0
0
0
0
0
0
0
0
0
0
0
0
0
0
0
0
0
0
0
0
0
0
0
0
0
0
0
0
0
0
0
0
0
0
0
0
0
0
0
0
0
0
0
0
0
0
0
0
0
0
0
0
0
0
0
0
0
0
0
0
0
0
0
0
0
0
0
0
0
0
0
0
0
0
0
0
0
0
0
0
0
0
0
0
0
0
0
0
0
0
0
0
0
0
0
0
0
0
0
0
0
0
0
0
0
0
0
0
0
0
0
0
0
0
0
0
0
0
0
0
0
0
0
0
0
0
0
0
0
0
0
0
0
0
0
0
0
0
0
0
0
0
0
0
0
0
0
0
0
0
0
0
0
0
0
0
0
0
0
0
0
0
0
0
0
0
0
0
0
0
0
0
0
0
0
0
0
0
0
0
0
0
0
0
0
0
0
0
0
0
0
0
0
0
0
0
0
0
0
0
0
0
0
0
0
0
0
0
0
0
0
0
0
0
0
0
0
0
0
0
0
0
0
0
0
0
0
0
0
0
0
0
0
0
0
0
0
0
0
0
0
0
0
0
0
0
0
0
0
0
0
0
0
0
0
0
0
0
0
0
0
0
0
0
0
0
0
0
0
0
0
0
0
0
0
0
0
0
0
0
0
0
0
0
0
0
0
0
0
0
0
0
0
0
0
0
0
0
0
0
0
0
0
0
0
0
0
0
0
0
0
0
0
0
0
0
0
0
0
0
0
0
0
0
0
0
0
0
0
0
0
0
0
0
0
0
0
0
0
0
0
0
0
0
0
0
0
0
0
0
0
0
0
0
0
0
0
0
0
0
0
0
0
0
0
0
0
0
0
0
0
0
0
0
0
0
0
0
0
0
0
0
0
0
0
0
0
0
0
0
0
0
0
0
0
0
0
0
0
0
0
0
0
0
0
0
0
0
0
0
0
0
0
0
0
0
0
0
0
0
0
0
0
0
0
0
0
0
0
0
0
0
0
0
0
0
0
0
0
0
0
0
0
0
0
0
0
0
0
0
0
0
0
0
0
0
0
0
0
0
0
0
0
0
0
0
0
0
0
0
0
0
0
0
0
0
0
0
0
0
0
0
0
0
0
0
0
0
0
0
0
0
0
0
0
0
0
0
0
0
0
0
0
0
0
0
0
0
0
0
0
0
0
0
0
0
0
0
0
0
0
0
0
0
0
0
0
0
0
0
0
0
0
0
0
0
0
0
0
0
0
0
0
0
0
0
0
0
0
0
0
0
0
0
0
0
0
0
0
0
0
0
0
0
0
0
0
0
0
0
0
0
0
0
0
0
0
0
0
0
0
0
0
0
0
0
0
0
0
0
0
0
0
0
0
0
0
0
0
0
0
0
0
0
0
0
0
0
0
0
0
0
0
0
0
0
0
0
0
0
0
0
0
0
0
0
0
0
0
0
0
0
0
0
0
0
0
0
0
0
0
0
0
0
0
0
0
0
0
0
0
0
0
0
0
0
0
0
0
0
0
0
0
0
0
0
0
0
0
0
0
0
0
0
0
0
0
0
0
0
0
0
0
0
0
0
0
0
0
0
0
0
0
0
0
0
0
0
0
0
0
0
0
0
0
0
0
0
0
0
0
0
0
0
0
0
0
0
0
0
0
0
0
0
0
0
0
0
0
0
0
0
0
0
0
0
0
0
0
0
0
0
0
0
0
0
0
0
0
0
0
0
0
0
0
0
0
0
0
0
0
0
0
0
0
0
0
0
0
0
0
0
0
0
0
0
0
0
0
0
0
0
0
0
0
0
0
0
0
0
0
0
0
0
0
0
0
0
0
0
0
0
0
0
0
0
0
0
0
0
0
0
0
0
0
0
0
0
0
0
0
0
0
0
0
0
0
0
0
0
0
0
0
0
0
0
0
0
0
0
0
0
0
0
0
0
0
0
0
0
0
0
0
0
0
0
0
0
0
0
0
0
0
0
0
0
0
0
0
0
0
0
0
0
0
0
0
0
0
0
0
0
0
0
0
0
0
0
0
0
0
0
0
0
0
0
0
0
0
0
0
0
0
0
0
0
0
0
0
0
0
0
0
0
0
0
0
0
0
0
0
0
0
0
0
0
0
0
0
0
0
0
0
0
0
0
0
0
0
0
0
0
0
0
0
0
0
0
0
0
0
0
0
0
0
0
0
0
0
0
0
0
0
0
0
0
0
0
0
0
0
0
0
0
0
0
0
0
0
0
0
0
0
0
0
0
0
0
0
0
0
0
0
0
0
0
0
0
0
0
0
0
0
0
0
0
0
0
0
0
0
0
0
0
0
0
0
0
0
0
0
0
0
0
0
0
0
0
0
0
0
0
0
0
0
0
0
0
0
0
0
0
0
0
0
0
0
0
0
0
0
0
0
0
0
0
0
0
0
0
0
0
0
0
0
0
0
0
0
0
0
0
0
0
0
0
0
0
0
0
0
0
0
0
0
0
0
0
0
0
0
0
0
0
0
0
0
0
0
0
0
0
0
0
0
0
0
0
0
0
0
0
0
0
0
0
0
0
0
0
0
0
0
0
0
0
0
0
0
0
0
0
0
0
0
0
0
0
0
0
0
0
0
0
0
0
0
0
0
0
0
0
0
0
0
0
0
0
0
0
0
0
0
0
0
0
0
0
0
0
0
0
0
0
0
0
0
0
0
0
0
0
0
0
0
0
0
0
0
0
0
0
0
0
0
0
0
0
0
0
0
0
0
0
0
0
0
0
0
0
0
0
0
0
0
0
0
0
0
0
0
0
0
0
0
0
0
0
0
0
0
0
0
0
0
0
0
0
0
0
0
0
0
0
0
0
0
0
0
0
0
0
0
0
0
0
0
0
0
0
0
0
0
0
0
0
0
0
0
0
0
0
0
0
0
0
0
0
0
0
0
0
0
0
0
0
0
0
0
0
0
0
0
0
0
0
0
0
0
0
0
0
0
0
0
0
0
0
0
0
0
0
0
0
0
0
0
0
0
0
0
0
0
0
0
0
0
0
0
0
0
0
0
0
0
0
0
0
0
0
0
0
0
0
0
0
0
0
0
0
0
0
0
0
0
0
0
0
0
0
0
0
0
0
0
0
0
0
0
0
0
0
0
0
0
0
0
0
0
0
0
0
0
0
0
0
0
0
0
0
0
0
0
0
0
0
0
0
0
0
0
0
0
0
0
0
0
0
0
0
0
0
0
0
0
0
0
0
0
0
0
0
0
0
0
0
0
0
0
0
0
0
0
0
0
0
0
0
0
0
0
0
0
0
0
0
0
0
0
0
0
0
0
0
0
0
0
0
0
0
0
0
0
0
0
0
0
0
0
0
0
0
0
0
0
0
0
0
0
0
0
0
0
0
0
0
0
0
0
0
0
0
0
0
0
0
0
0
0
0
0
0
0
0
0
0
0
0
0
0
0
0
0
0
0
0
0
0
0
0
0
0
0
0
0
0
0
0
0
0
0
0
0
0
0
0
0
0
0
0
0
0
0
0
0
0
0
0
0
0
0
0
0
0
0
0
0
0
0
0
0
0
0
0
0
0
0
0
0
0
0
0
0
0
0
0
0
0
0
0
0
0
0
0
0
0
0
0
0
0
0
0
0
0
0
0
0
0
0
0
0
0
0
0
0
0
0
0
0
0
0
0
0
0
0
0
0
0
0
0
0
0
0
0
0
0
0
0
0
0
0
0
0
0
0
0
0
0
0
0
0
0
0
0
0
0
0
0
0
0
0
0
0
0
0
0
0
0
0
0
0
0
0
0
0
0
0
0
0
0
0
0
0
0
0
0
0
0
0
0
0
0
0
0
0
0
0
0
0
0
0
0
0
0
0
0
0
0
0
0
0
0
0
0
0
0
0
0
0
0
0
0
0
0
0
0
0
0
0
0
0
0
0
0
0
0
0
0
0
0
0
0
0
0
0
0
0
0
0
0
0
0
0
0
0
0
0
0
0
0
0
0
0
0
0
0
0
0
0
0
0
0
0
0
0
0
0
0
0
0
0
0
0
0
0
0
0
0
0
0
0
0
0
0
0
0
0
0
0
0
0
0
0
0
0
0
0
0
0
0
0
0
0
0
0
0
0
0
0
0
0
0
0
0
0
0
0
0
0
0
0
0
0
0
0
0
0
0
0
0
0
0
0
0
0
0
0
0
0
0
0
0
0
0
0
0
0
0
0
0
0
0
0
0
0
0
0
0
0
0
0
0
0
0
0
0
0
0
0
0
0
0
0
0
0
0
0
0
0
0
0
0
0
0
0
0
0
0
0
0
0
0
0
0
0
0
0
0
0
0
0
0
0
0
0
0
0
0
0
0
0
0
0
0
0
0
0
0
0
0
0
0
0
0
0
0
0
0
0
0
0
0
0
0
0
0
0
0
0
0
0
0
0
0
0
0
0
0
0
0
0
0
0
0
0
0
0
0
0
0
0
0
0
0
0
0
0
0
0
0
0
0
0
0
0
0
0
0
0
0
0
0
0
0
0
0
0
0
0
0
0
0
0
0
0
0
0
0
0
0
0
0
0
0
0
0
0
0
0
0
0
0
0
0
0
0
0
0
0
0
0
0
0
0
0
0
0
0
0
0
0
0
0
0
0
0
0
0
0
0
0
0
0
0
0
0
0
0
0
0
0
0
0
0
0
0
0
0
0
0
0
0
0
0
0
0
0
0
0
0
0
0
0
0
0
0
0
0
0
0
0
0
0
0
0
0
0
0
0
0
0
0
0
0
0
0
0
0
0
0
0
0
0
0
0
0
0
0
0
0
0
0
0
0
0
0
0
0
0
0
0
0
0
0
0
0
0
0
0
0
0
0
0
0
0
0
0
0
0
0
0
0
0
0
0
0
0
0
0
0
0
0
0
0
0
0
0
0
0
0
0
0
0
0
0
0
0
0
0
0
0
0
0
0
0
0
0
0
0
0
0
0
0
0
0
0
0
0
0
0
0
0
0
0
0
0
0
0
0
0
0
0
0
0
0
0
0
0
0
0
0
0
0
0
0
0
0
0
0
0
0
0
0
0
0
0
0
0
0
0
0
0
0
0
0
0
0
0
0
0
0
0
0
0
0
0
0
0
0
0
0
0
0
0
0
0
0
0
0
0
0
0
0
0
0
0
0
0
0
0
0
0
0
0
0
0
0
0
0
0
0
0
0
0
0
0
0
0
0
0
0
0
0
0
0
0
0
0
0
0
0
0
0
0
0
0
0
0
0
0
0
0
0
0
0
0
0
0
0
0
0
0
0
0
0
0
0
0
0
0
0
0
0
0
0
0
0
0
0
0
0
0
0
0
0
0
0
0
0
0
0
0
0
0
0
0
0
0
0
0
0
0
0
0
0
0
0
0
0
0
0
0
0
0
0
0
0
0
0
0
0
0
0
0
0
0
0
0
0
0
0
0
0
0
0
0
0
0
0
0
0
0
0
0
0
0
0
0
0
0
0
0
0
0
0
0
0
0
0
0
0
0
0
0
0
0
0
0
0
0
0
0
0
0
0
0
0
0
0
0
0
0
0
0
0
0
0
0
0
0
0
0
0
0
0
0
0
0
0
0
0
0
0
0
0
0
0
0
0
0
0
0
0
0
0
0
0
0
0
0
0
0
0
0
0
0
0
0
0
0
0
0
0
0
0
0
0
0
0
0
0
0
0
0
0
0
0
0
0
0
0
0
0
0
0
0
0
0
0
0
0
0
0
0
0
0
0
0
0
0
0
0
0
0
0
0
0
0
0
0
0
0
0
0
0
0
0
0
0
0
0
0
0
0
0
0
0
0
0
0
0
0
0
0
0
0
0
0
0
0
0
0
0
0
0
0
0
0
0
0
0
0
0
0
0
0
0
0
0
0
0
0
0
0
0
0
0
0
0
0
0
0
0
0
0
0
0
0
0
0
0
0
0
0
0
0
0
0
0
0
0
0
0
0
0
0
0
0
0
0
0
0
0
0
0
0
0
0
0
0
0
0
0
0
0
0
0
0
0
0
0
0
0
0
0
0
0
0
0
0
0
0
0
0
0
0
0
0
0
0
0
0
0
0
0
0
0
0
0
0
0
0
0
0
0
0
0
0
0
0
0
0
0
0
0
0
0
0
0
0
0
0
0
0
0
0
0
0
0
0
0
0
0
0
0
0
0
0
0
0
0
0
0
0
0
0
0
0
0
0
0
0
0
0
0
0
0
0
0
0
0
0
0
0
0
0
0
0
0
0
0
0
0
0
0
0
0
0
0
0
0
0
0
0
0
0
0
0
0
0
0
0
0
0
0
0
0
0
0
0
0
0
0
0
0
0
0
0
0
0
0
0
0
0
0
0
0
0
0
0
0
0
0
0
0
0
0
0
0
0
0
0
0
0
0
0
0
0
0
0
0
0
0
0
0
0
0
0
0
0
0
0
0
0
0
0
0
0
0
0
0
0
0
0
0
0
0
0
0
0
0
0
0
0
0
0
0
0
0
0
0
0
0
0
0
0
0
0
0
0
0
0
0
0
0
0
0
0
0
0
0
0
0
0
0
0
0
0
0
0
0
0
0
0
0
0
0
0
0
0
0
0
0
0
0
0
0
0
0
0
0
0
0
0
0
0
0
0
0
0
0
0
0
0
0
0
0
0
0
0
0
0
0
0
0
0
0
0
0
0
0
0
0
0
0
0
0
0
0
0
0
0
0
0
0
0
0
0
0
0
0
0
0
0
0
0
0
0
0
0
0
0
0
0
0
0
0
0
0
0
0
0
0
0
0
0
0
0
0
0
0
0
0
0
0
0
0
0
0
0
0
0
0
0
0
0
0
0
0
0
0
0
0
0
0
0
0
0
0
0
0
0
0
0
0
0
0
0
0
0
0
0
0
0
0
0
0
0
0
0
0
0
0
0
0
0
0
0
0
0
0
0
0
0
0
0
0
0
0
0
0
0
0
0
0
0
0
0
0
0
0
0
0
0
0
0
0
0
0
0
0
0
0
0
0
0
0
0
0
0
0
0
0
0
0
0
0
0
0
0
0
0
0
0
0
0
0
0
0
0
0
0
0
0
0
0
0
0
0
0
0
0
0
0
0
0
0
0
0
0
0
0
0
0
0
0
0
0
0
0
0
0
0
0
0
0
0
0
0
0
0
0
0
0
0
0
0
0
0
0
0
0
0
0
0
0
0
0
0
0
0
0
0
0
0
0
0
0
0
0
0
0
0
0
0
0
0
0
0
0
0
0
0
0
0
0
0
0
0
0
0
0
0
0
0
0
0
0
0
0
0
0
0
0
0
0
0
0
0
0
0
0
0
0
0
0
0
0
0
0
0
0
0
0
0
0
0
0
0
0
0
0
0
0
0
0
0
0
0
0
0
0
0
0
0
0
0
0
0
0
0
0
0
0
0
0
0
0
0
0
0
0
0
0
0
0
0
0
0
0
0
0
0
0
0
0
0
0
0
0
0
0
0
0
0
0
0
0
0
0
0
0
0
0
0
0
0
0
0
0
0
0
0
0
0
0
0
0
0
0
0
0
0
0
0
0
0
0
0
0
0
0
0
0
0
0
0
0
0
0
0
0
0
0
0
0
0
0
0
0
0
0
0
0
0
0
0
0
0
0
0
0
0
0
0
0
0
0
0
0
0
0
0
0
0
0
0
0
0
0
0
0
0
0
0
0
0
0
0
0
0
0
0
0
0
0
0
0
0
0
0
0
0
0
0
0
0
0
0
0
0
0
0
0
0
0
0
0
0
0
0
0
0
0
0
0
0
0
0
0
0
0
0
0
0
0
0
0
0
0
0
0
0
0
0
0
0
0
0
0
0
0
0
0
0
0
0
0
0
0
0
0
0
0
0
0
0
0
0
0
0
0
0
0
0
0
0
0
0
0
0
0
0
0
0
0
0
0
0
0
0
0
0
0
0
0
0
0
0
0
0
0
0
0
0
0
0
0
0
0
0
0
0
0
0
0
0
0
0
0
0
0
0
0
0
0
0
0
0
0
0
0
0
0
0
0
0
0
0
0
0
0
0
0
0
0
0
0
0
0
0
0
0
0
0
0
0
0
0
0
0
0
0
0
0
0
0
0
0
0
0
0
0
0
0
0
0
0
0
0
0
0
0
0
0
0
0
0
0
0
0
0
0
0
0
0
0
0
0
0
0
0
0
0
0
0
0
0
0
0
0
0
0
0
0
0
0
0
0
0
0
0
0
0
0
0
0
0
0
0
0
0
0
0
0
0
0
0
0
0
0
0
0
0
0
0
0
0
0
0
0
0
0
0
0
0
0
0
0
0
0
0
0
0
0
0
0
0
0
0
0
0
0
0
0
0
0
0
0
0
0
0
0
0
0
0
0
0
0
0
0
0
0
0
0
0
0
0
0
0
0
0
0
0
0
0
0
0
0
0
0
0
0
0
0
0
0
0
0
0
0
0
0
0
0
0
0
0
0
0
0
0
0
0
0
0
0
0
0
0
0
0
0
0
0
0
0
0
0
0
0
0
0
0
0
0
0
0
0
0
0
0
0
0
0
0
0
0
0
0
0
0
0
0
0
0
0
0
0
0
0
0
0
0
0
0
0
0
0
0
0
0
0
0
0
0
0
0
0
0
0
0
0
0
0
0
0
0
0
0
0
0
0
0
0
0
0
0
0
0
0
0
0
0
0
0
0
0
0
0
0
0
0
0
0
0
0
0
0
0
0
0
0
0
0
0
0
0
0
0
0
0
0
0
0
0
0
0
0
0
0
0
0
0
0
0
0
0
0
0
0
0
0
0
0
0
0
0
0
0
0
0
0
0
0
0
0
0
0
0
0
0
0
0
0
0
0
0
0
0
0
0
0
0
0
0
0
0
0
0
0
0
0
0
0
0
0
0
0
0
0
0
0
0
0
0
0
0
0
0
0
0
0
0
0
0
0
0
0
0
0
0
0
0
0
0
0
0
0
0
0
0
0
0
0
0
0
0
0
0
0
0
0
0
0
0
0
0
0
0
0
0
0
0
0
0
0
0
0
0
0
0
0
0
0
0
0
0
0
0
0
0
0
0
0
0
0
0
0
0
0
0
0
0
0
0
0
0
0
0
0
0
0
0
0
0
0
0
0
0
0
0
0
0
0
0
0
0
0
0
0
0
0
0
0
0
0
0
0
0
0
0
0
0
0
0
0
0
0
0
0
0
0
0
0
0
0
0
0
0
0
0
0
0
0
0
0
0
0
0
0
0
0
0
0
0
0
0
0
0
0
0
0
0
0
0
0
0
0
0
0
0
0
0
0
0
0
0
0
0
0
0
0
0
0
0
0
0
0
0
0
0
0
0
0
0
0
0
0
0
0
0
0
0
0
0
0
0
0
0
0
0
0
0
0
0
0
0
0
0
0
0
0
0
0
0
0
0
0
0
0
0
0
0
0
0
0
0
0
0
0
0
0
0
0
0
0
0
0
0
0
0
0
0
0
0
0
0
0
0
0
0
0
0
0
0
0
0
0
0
0
0
0
0
0
0
0
0
0
0
0
0
0
0
0
0
0
0
0
0
0
0
0
0
0
0
0
0
0
0
0
0
0
0
0
0
0
0
0
0
0
0
0
0
0
0
0
0
0
0
0
0
0
0
0
0
0
0
0
0
0
0
0
0
0
0
0
0
0
0
0
0
0
0
0
0
0
0
0
0
0
0
0
0
0
0
0
0
0
0
0
0
0
0
0
0
0
0
0
0
0
0
0
0
0
0
0
0
0
0
0
0
0
0
0
0
0
0
0
0
0
0
0
0
0
0
0
0
0
0
0
0
0
0
0
0
0
0
0
0
0
0
0
0
0
0
0
0
0
0
0
0
0
0
0
0
0
0
0
0
0
0
0
0
0
0
0
0
0
0
0
0
0
0
0
0
0
0
0
0
0
0
0
0
0
0
0
0
0
0
0
0
0
0
0
0
0
0
0
0
0
0
0
0
0
0
0
0
0
0
0
0
0
0
0
0
0
0
0
0
0
0
0
0
0
0
0
0
0
0
0
0
0
0
0
0
0
0
0
0
0
0
0
0
0
0
0
0
0
0
0
0
0
0
0
0
0
0
0
0
0
0
0
0
0
0
0
0
0
0
0
0
0
0
0
0
0
0
0
0
0
0
0
0
0
0
0
0
0
0
0
0
0
0
0
0
0
0
0
0
0
0
0
0
0
0
0
0
0
0
0
0
0
0
0
0
0
0
0
0
0
0
0
0
0
0
0
0
0
0
0
0
0
0
0
0
0
0
0
0
0
0
0
0
0
0
0
0
0
0
0
0
0
0
0
0
0
0
0
0
0
0
0
0
0
0
0
0
0
0
0
0
0
0
0
0
0
0
0
0
0
0
0
0
0
0
0
0
0
0
0
0
0
0
0
0
0
0
0
0
0
0
0
0
0
0
0
0
0
0
0
0
0
0
0
0
0
0
0
0
0
0
0
0
0
0
0
0
0
0
0
0
0
0
0
0
0
0
0
0
0
0
0
0
0
0
0
0
0
0
0
0
0
0
0
0
0
0
0
0
0
0
0
0
0
0
0
0
0
0
0
0
0
0
0
0
0
0
0
0
0
0
0
0
0
0
0
0
0
0
0
0
0
0
0
0
0
0
0
0
0
0
0
0
0
0
0
0
0
0
0
0
0
0
0
0
      </DataArray> 
    </PointData>
    <CellData>
      <DataArray type="Float64" NumberOfComponents="1" Name="Process" format="ascii">
1
1
0
0
4
2
2
2
3
1
0
1
3
4
1
0
1
1
0
2
1
3
0
4
1
1
0
0
3
4
3
0
0
3
1
0
3
4
3
4
1
4
1
3
3
4
1
1
1
0
4
3
2
0
3
3
0
4
4
2
4
4
0
0
4
0
0
2
1
1
3
1
0
4
3
1
0
3
1
4
3
1
2
1
0
2
4
4
0
2
0
0
3
0
3
2
2
0
3
2
4
3
2
4
4
1
0
4
2
0
0
4
3
0
0
0
2
1
2
2
3
3
4
4
4
4
4
4
0
0
0
0
2
0
0
2
2
2
3
0
4
4
0
2
4
2
4
2
2
4
3
0
4
0
0
0
0
0
2
0
0
2
1
0
3
4
2
1
1
1
2
4
3
0
4
2
2
3
3
1
0
4
0
0
2
0
3
2
4
3
3
3
0
2
1
4
2
3
4
3
3
2
2
4
0
2
2
3
3
4
1
4
1
3
0
4
3
4
0
2
0
0
1
3
4
4
2
1
4
2
4
2
0
0
4
3
2
2
2
2
4
3
0
4
0
0
2
2
2
2
4
4
4
4
2
0
2
0
3
4
3
2
4
4
0
4
3
4
3
4
0
0
0
2
0
0
4
2
3
0
0
1
1
0
0
4
2
3
4
4
0
3
2
0
3
4
3
3
3
0
2
4
3
2
2
0
4
4
3
4
1
4
3
0
2
2
4
3
0
0
3
4
2
1
2
4
1
1
4
3
4
3
0
2
4
2
2
4
1
3
0
3
0
2
1
3
1
2
2
4
1
2
2
0
4
0
2
3
4
3
3
3
0
2
2
0
0
1
1
3
4
1
0
0
2
0
3
1
2
1
2
1
3
2
4
1
3
2
2
4
4
2
2
0
4
0
3
0
3
3
4
0
4
0
0
0
1
3
1
1
2
0
2
4
3
2
0
4
0
4
3
2
4
3
2
0
1
1
2
4
1
2
3
4
3
0
2
4
1
3
0
3
2
0
4
4
4
4
1
0
3
4
0
4
0
1
0
0
2
4
0
4
4
0
3
3
4
3
2
4
0
1
0
0
4
0
1
0
0
4
4
1
1
2
2
4
2
4
0
4
1
2
3
4
3
2
0
3
0
0
3
3
3
0
2
4
4
2
2
4
1
4
4
0
0
3
2
4
0
2
3
0
1
0
2
1
3
2
0
0
2
3
0
3
4
3
0
4
2
2
4
4
2
0
0
2
3
4
2
2
3
4
1
1
0
2
4
1
3
3
0
4
1
1
2
0
2
2
1
1
4
1
4
2
3
1
4
2
2
0
0
3
2
3
0
4
1
1
0
3
0
3
3
0
3
0
4
1
0
2
1
2
4
4
3
2
4
4
1
1
4
3
4
3
3
4
0
0
2
2
1
0
1
0
0
4
1
0
4
2
1
2
0
4
4
4
2
1
1
0
4
3
2
2
1
2
2
0
4
4
3
4
0
3
2
1
0
0
1
3
0
0
4
4
2
4
3
2
0
1
2
4
4
3
1
2
0
2
0
1
2
1
2
2
4
2
2
2
0
2
2
2
2
0
2
3
4
0
3
1
2
3
2
4
4
4
0
0
4
2
4
3
2
0
3
0
2
4
3
1
0
0
1
3
0
1
4
3
2
1
3
4
3
4
3
2
0
1
0
1
2
3
3
2
4
0
3
4
3
1
2
1
0
0
3
1
4
4
0
0
4
0
1
0
0
3
2
2
4
4
4
1
0
1
2
3
0
0
1
1
2
3
0
2
4
0
2
1
1
4
3
0
2
4
4
4
0
0
0
1
3
3
4
2
4
3
1
2
0
2
1
0
3
2
1
3
1
2
0
2
4
4
4
0
1
1
0
0
3
2
3
2
0
2
0
1
1
3
3
1
2
1
1
4
0
4
1
2
3
2
0
3
4
0
3
4
1
1
0
3
4
2
3
3
0
3
2
0
1
2
1
1
2
2
0
1
0
4
0
4
1
0
2
4
0
2
4
3
0
3
1
2
0
2
2
3
4
3
4
0
4
4
3
1
1
0
1
0
1
3
3
1
3
1
0
2
3
1
3
3
2
0
1
4
2
1
2
3
4
3
0
1
0
4
4
3
1
2
2
0
2
1
1
0
2
1
0
0
1
0
2
1
3
0
4
1
1
2
2
0
2
4
2
0
0
0
1
3
4
4
3
1
0
4
1
4
2
1
1
0
4
0
3
3
1
1
4
3
1
1
1
0
1
4
1
1
1
2
0
3
1
0
3
1
0
1
1
4
3
1
0
0
1
0
0
3
1
3
1
3
4
1
1
0
1
3
1
0
1
2
0
4
3
1
2
1
0
0
1
3
3
4
4
1
4
4
1
3
0
2
4
2
4
0
2
1
1
2
3
1
2
3
1
0
3
0
2
0
4
4
3
2
0
1
1
0
0
2
1
2
2
1
1
2
4
2
4
1
3
0
0
1
2
1
3
2
4
0
0
2
0
3
2
2
0
1
3
1
1
1
3
1
0
1
2
1
1
2
0
4
3
2
3
2
1
3
4
1
2
1
3
4
0
3
4
0
3
0
1
0
1
2
3
1
3
3
1
0
2
0
3
1
4
0
2
2
1
3
2
2
1
1
2
3
3
3
1
2
1
2
4
4
1
1
0
2
4
3
0
4
1
4
3
3
4
4
3
4
4
2
0
4
4
1
1
4
2
4
2
2
0
4
3
1
3
1
2
1
0
0
2
2
1
1
1
3
3
1
1
1
1
2
3
2
1
2
3
0
2
3
2
0
2
2
1
3
2
3
1
4
0
4
3
0
0
0
1
1
1
2
2
0
1
3
0
0
1
0
1
4
0
0
3
3
1
2
2
3
0
1
3
0
2
2
1
1
4
2
1
0
3
2
2
0
3
2
0
1
0
4
1
4
2
1
3
3
4
2
0
4
0
1
2
1
1
0
2
3
4
4
4
2
0
4
2
0
0
1
4
3
1
3
3
3
2
4
3
2
4
0
1
2
2
3
3
4
2
1
3
3
1
3
0
1
3
1
2
2
3
4
4
3
3
0
1
2
2
1
0
3
2
2
1
4
0
4
1
0
2
0
2
3
4
2
2
3
1
4
4
3
0
3
2
1
4
4
1
0
3
2
2
2
1
1
1
4
2
0
3
1
3
2
1
0
2
4
1
1
1
4
4
2
0
4
1
3
0
2
3
1
1
2
1
2
2
2
1
0
2
2
0
4
3
1
4
0
4
2
0
3
3
4
4
0
4
1
1
0
1
1
2
2
3
2
0
1
1
2
3
4
1
1
1
4
4
0
1
3
4
3
2
0
1
0
1
0
1
1
4
4
0
0
4
1
2
1
3
1
4
0
4
3
4
1
2
0
1
3
4
3
1
0
0
4
2
1
3
1
3
1
1
2
3
3
1
2
2
0
0
2
4
2
3
3
0
0
4
2
1
1
1
1
3
1
1
4
1
3
1
0
0
1
1
0
2
4
2
0
3
1
1
4
3
0
0
4
1
3
0
4
3
1
3
2
4
4
1
2
0
3
1
4
2
3
0
4
3
3
2
4
1
4
2
1
0
1
3
2
2
4
1
0
3
3
3
1
2
0
2
3
4
3
4
1
0
3
1
4
1
4
2
4
0
3
0
4
2
4
3
0
0
3
1
4
3
1
4
4
3
3
2
1
3
1
3
0
2
4
0
0
2
1
3
0
1
2
4
1
3
0
4
4
3
2
1
0
4
1
3
0
2
2
4
0
4
2
3
1
1
1
1
0
1
2
4
2
0
3
3
0
2
1
4
1
4
4
4
4
0
4
4
0
0
0
4
3
2
2
0
4
1
2
1
4
0
3
1
4
0
3
3
0
1
1
3
2
1
3
4
3
0
3
0
1
3
1
3
1
2
4
2
1
0
2
2
4
3
4
0
1
0
1
1
4
2
1
4
2
0
3
4
2
4
3
1
3
3
2
3
1
0
4
4
1
2
2
3
4
1
4
4
0
2
0
3
2
2
2
2
1
1
0
3
2
2
3
1
2
1
4
4
0
4
1
3
1
3
2
2
2
2
3
0
1
4
4
0
4
4
1
0
0
0
4
4
2
1
1
4
1
0
2
3
1
4
3
2
3
0
1
3
2
3
3
1
4
4
4
3
1
3
2
2
0
2
1
4
0
2
0
2
1
1
3
1
1
4
4
0
1
0
1
2
3
3
2
3
4
3
0
2
2
1
1
0
0
1
1
3
4
3
3
2
3
1
1
1
3
4
2
2
4
2
3
3
4
0
4
2
1
1
0
4
2
1
4
3
3
2
1
3
4
1
0
0
0
3
3
2
1
2
4
0
3
2
2
0
2
1
3
2
0
0
1
4
1
0
4
4
4
3
3
4
0
0
2
0
3
1
1
0
1
3
3
1
2
0
4
2
1
1
3
0
4
4
1
0
0
0
1
0
2
4
3
2
3
1
0
0
2
2
3
1
1
2
3
2
0
0
3
1
0
1
3
1
3
1
3
2
2
3
3
0
0
2
4
2
2
3
3
4
0
0
2
0
0
1
3
1
3
1
2
4
3
4
3
0
4
1
2
0
1
4
1
2
2
4
1
0
4
3
3
3
0
0
0
0
2
3
0
0
2
3
1
0
4
1
0
4
4
1
0
0
4
4
4
3
0
2
2
2
4
3
3
2
3
0
0
3
0
0
1
1
4
3
4
4
4
2
1
1
3
3
4
1
4
4
3
3
0
4
1
4
2
1
0
2
3
1
2
2
2
2
4
1
2
4
4
2
2
1
1
3
4
0
0
1
3
4
4
2
1
1
4
2
3
0
1
1
0
3
4
0
1
3
3
4
3
0
3
1
4
4
2
3
2
4
0
1
4
0
4
3
1
0
4
3
0
1
3
2
3
2
2
0
0
3
1
3
0
1
3
2
1
1
3
2
3
4
4
0
0
1
2
0
4
2
2
1
2
0
2
4
0
4
1
2
4
4
3
3
2
2
1
1
3
1
0
2
3
4
2
1
4
4
4
4
4
2
3
2
1
4
2
1
1
1
3
1
3
1
3
2
2
3
0
2
1
3
4
0
4
2
1
3
3
0
4
2
3
4
3
0
3
4
0
1
3
4
1
3
0
1
0
4
4
0
2
4
1
0
0
2
1
1
0
4
3
1
1
4
3
2
1
1
4
2
1
1
0
4
2
1
1
1
4
2
0
3
4
0
0
3
3
4
0
3
2
4
3
4
2
1
4
1
0
2
1
0
2
4
2
2
4
0
0
4
0
2
2
4
2
4
2
2
4
0
3
3
1
1
4
2
3
3
1
0
4
4
2
3
3
2
4
3
2
3
2
1
4
3
1
4
3
0
1
4
4
3
2
0
4
0
1
0
4
2
2
3
1
0
3
2
3
4
2
4
0
2
3
1
2
2
4
2
4
1
0
0
4
4
3
2
3
0
2
2
2
2
0
3
0
0
0
1
2
4
1
1
2
3
1
4
1
2
2
3
3
2
1
3
2
4
1
2
0
2
3
2
3
2
2
2
3
2
2
4
4
0
3
2
1
1
2
4
4
3
0
2
2
0
2
3
3
0
4
3
1
1
3
0
2
0
0
1
1
0
2
2
3
3
3
1
4
1
4
3
4
4
3
3
3
2
4
4
3
4
1
3
2
1
0
2
3
4
4
4
2
2
4
2
2
3
0
1
2
4
2
2
1
2
1
2
1
0
3
2
4
2
1
3
0
2
1
1
3
4
0
3
1
3
2
0
4
3
4
4
1
2
4
4
1
1
4
3
0
0
4
3
1
0
0
1
1
2
1
4
3
2
0
2
3
3
4
3
4
0
2
3
3
0
1
0
1
4
0
1
0
2
4
2
3
2
3
3
4
2
1
2
3
1
0
0
1
4
0
3
2
3
0
1
3
1
1
1
3
2
0
0
4
4
1
2
3
0
0
3
0
2
1
1
2
3
3
1
4
3
3
4
1
1
0
0
0
4
3
4
0
2
3
2
4
3
2
1
3
4
2
4
1
1
3
2
3
0
3
1
4
1
1
1
4
4
3
0
0
0
1
1
2
4
0
0
1
4
4
2
0
4
3
4
1
3
2
1
1
3
0
0
4
3
4
2
1
0
2
3
1
1
3
1
1
0
0
1
4
1
0
1
0
2
4
2
3
3
4
3
0
3
4
0
4
0
0
0
3
4
4
1
3
0
0
4
4
1
3
3
0
1
1
3
3
3
2
0
2
3
2
0
4
2
4
2
0
1
0
1
1
1
2
3
2
1
1
1
2
2
3
4
2
3
3
0
0
0
1
1
3
1
4
3
0
0
2
0
3
4
4
3
2
2
2
2
3
0
3
3
2
0
3
2
4
3
2
3
3
3
2
0
4
2
1
2
4
0
4
3
2
0
1
4
2
2
2
2
1
0
0
3
4
2
2
1
1
3
0
1
2
4
4
1
1
4
0
3
1
1
1
3
1
3
0
2
2
2
2
4
2
1
1
1
1
0
4
2
0
0
0
4
3
0
0
3
4
2
2
2
1
1
2
1
0
2
2
2
0
2
0
3
0
3
3
2
0
0
0
2
1
2
3
4
1
0
2
3
2
0
4
0
0
3
2
4
4
2
1
1
0
2
1
3
1
2
0
1
3
1
1
4
2
2
4
1
1
0
1
4
1
1
2
3
1
3
4
2
1
1
1
0
0
4
1
1
0
0
4
3
0
1
3
0
1
2
3
3
0
1
0
1
2
3
3
4
1
4
0
0
4
4
2
0
1
4
3
0
2
1
4
4
4
3
4
0
2
1
2
3
4
1
4
0
4
4
3
0
0
3
3
2
0
2
1
0
4
1
1
3
4
2
3
3
0
2
1
3
4
1
4
2
1
3
3
3
3
2
2
4
3
3
0
1
1
4
0
0
1
1
2
0
0
2
0
2
4
4
3
3
0
4
1
0
3
1
3
4
0
2
2
2
3
1
0
3
3
4
1
0
2
1
0
4
1
0
2
1
4
3
2
0
2
2
3
0
3
3
2
0
3
0
0
0
4
4
2
4
4
2
1
2
0
0
2
3
2
3
2
4
0
1
4
3
2
4
0
1
3
3
0
2
1
4
2
2
3
3
4
2
2
4
2
1
3
0
4
0
2
2
2
2
0
4
0
3
1
3
4
1
1
2
4
1
3
3
3
4
0
2
4
2
0
1
3
4
4
2
3
2
2
1
2
3
1
3
3
2
3
4
1
0
2
0
2
3
1
0
4
3
1
0
0
1
1
3
1
3
3
4
0
4
3
2
0
4
0
2
3
4
3
1
3
2
1
2
3
2
4
1
4
1
3
4
1
1
1
4
4
0
0
2
2
3
2
0
1
4
2
2
3
3
3
0
4
3
2
0
2
4
2
4
4
2
2
1
4
1
4
4
1
1
2
2
1
0
0
1
2
4
4
2
0
1
2
0
1
1
3
4
2
4
3
3
2
1
4
1
1
1
3
4
3
0
2
3
0
3
3
3
4
2
3
4
3
0
0
4
2
1
3
3
2
4
4
1
4
1
2
4
2
2
3
0
2
0
0
3
3
4
1
2
1
1
4
2
2
4
0
0
2
3
0
4
3
0
1
2
3
3
3
1
1
3
0
3
3
4
0
2
2
2
2
4
4
2
4
4
1
1
3
4
2
2
4
1
3
0
1
3
0
3
3
3
2
3
4
3
3
2
3
3
2
3
2
4
3
4
2
3
4
4
4
3
3
3
2
1
3
0
2
2
0
0
3
4
3
2
3
1
2
3
3
0
1
2
0
0
1
3
0
1
4
3
1
4
2
2
3
4
0
4
3
1
1
2
2
3
1
4
4
2
0
3
4
0
4
4
3
4
4
3
3
2
2
0
4
3
4
4
3
2
3
4
4
1
4
3
4
2
4
0
2
3
2
0
2
0
1
2
4
3
0
0
1
4
0
4
0
0
3
4
0
2
4
0
0
2
1
4
2
0
0
1
0
1
2
0
0
4
3
0
0
1
1
4
3
1
1
2
1
1
3
4
0
4
3
3
4
2
3
3
0
0
2
4
4
4
0
4
4
1
1
0
4
3
4
4
0
2
4
4
4
2
0
2
4
0
0
0
0
0
      </DataArray> 
      <DataArray type="Float64" NumberOfComponents="1" Name="J-Integral" format="ascii">
-1
-1
-1
-1
-1
-1
-1
-1
-1
-1
-1
-1
-1
-1
-1
-1
-1
-1
-1
-1
-1
-1
-1
-1
-1
-1
-1
-1
-1
-1
-1
-1
-1
-1
-1
-1
-1
-1
-1
-1
-1
-1
-1
-1
-1
-1
-1
-1
-1
-1
-1
-1
-1
-1
-1
-1
-1
-1
-1
-1
-1
-1
-1
-1
-1
-1
-1
-1
-1
-1
-1
-1
-1
-1
-1
-1
-1
-1
-1
-1
-1
-1
-1
-1
-1
-1
-1
-1
-1
-1
-1
-1
-1
-1
-1
-1
-1
-1
-1
-1
-1
-1
-1
-1
-1
-1
-1
-1
-1
-1
-1
-1
-1
-1
-1
-1
-1
-1
-1
-1
-1
-1
-1
-1
-1
-1
-1
-1
-1
-1
-1
-1
-1
-1
-1
-1
-1
-1
-1
-1
-1
-1
-1
-1
-1
-1
-1
-1
-1
-1
-1
-1
-1
-1
-1
-1
-1
-1
-1
-1
-1
-1
-1
-1
-1
-1
-1
-1
-1
-1
-1
-1
-1
-1
-1
-1
-1
-1
-1
-1
-1
-1
-1
-1
-1
-1
-1
-1
-1
-1
-1
-1
-1
-1
-1
-1
-1
-1
-1
-1
-1
-1
-1
-1
-1
-1
-1
-1
-1
-1
-1
-1
-1
-1
-1
-1
-1
-1
-1
-1
-1
-1
-1
-1
-1
-1
-1
-1
-1
-1
-1
-1
-1
-1
-1
-1
-1
-1
-1
-1
-1
-1
-1
-1
-1
-1
-1
-1
-1
-1
-1
-1
-1
-1
-1
-1
-1
-1
-1
-1
-1
-1
-1
-1
-1
-1
-1
-1
-1
-1
-1
-1
-1
-1
-1
-1
-1
-1
-1
-1
-1
-1
-1
-1
-1
-1
-1
-1
-1
-1
-1
-1
-1
-1
-1
-1
-1
-1
-1
-1
-1
-1
-1
-1
-1
-1
-1
-1
-1
-1
-1
-1
-1
-1
-1
-1
-1
-1
-1
-1
-1
-1
-1
-1
-1
-1
-1
-1
-1
-1
-1
-1
-1
-1
-1
-1
-1
-1
-1
-1
-1
-1
-1
-1
-1
-1
-1
-1
-1
-1
-1
-1
-1
-1
-1
-1
-1
-1
-1
-1
-1
-1
-1
-1
-1
-1
-1
-1
-1
-1
-1
-1
-1
-1
-1
-1
-1
-1
-1
-1
-1
-1
-1
-1
-1
-1
-1
-1
-1
-1
-1
-1
-1
-1
-1
-1
-1
-1
-1
-1
-1
-1
-1
-1
-1
-1
-1
-1
-1
-1
-1
-1
-1
-1
-1
-1
-1
-1
-1
-1
-1
-1
-1
-1
-1
-1
-1
-1
-1
-1
-1
-1
-1
-1
-1
-1
-1
-1
-1
-1
-1
-1
-1
-1
-1
-1
-1
-1
-1
-1
-1
-1
-1
-1
-1
-1
-1
-1
-1
-1
-1
-1
-1
-1
-1
-1
-1
-1
-1
-1
-1
-1
-1
-1
-1
-1
-1
-1
-1
-1
-1
-1
-1
-1
-1
-1
-1
-1
-1
-1
-1
-1
-1
-1
-1
-1
-1
-1
-1
-1
-1
-1
-1
-1
-1
-1
-1
-1
-1
-1
-1
-1
-1
-1
-1
-1
-1
-1
-1
-1
-1
-1
-1
-1
-1
-1
-1
-1
-1
-1
-1
-1
-1
-1
-1
-1
-1
-1
-1
-1
-1
-1
-1
-1
-1
-1
-1
-1
-1
-1
-1
-1
-1
-1
-1
-1
-1
-1
-1
-1
-1
-1
-1
-1
-1
-1
-1
-1
-1
-1
-1
-1
-1
-1
-1
-1
-1
-1
-1
-1
-1
-1
-1
-1
-1
-1
-1
-1
-1
-1
-1
-1
-1
-1
-1
-1
-1
-1
-1
-1
-1
-1
-1
-1
-1
-1
-1
-1
-1
-1
-1
-1
-1
-1
-1
-1
-1
-1
-1
-1
-1
-1
-1
-1
-1
-1
-1
-1
-1
-1
-1
-1
-1
-1
-1
-1
-1
-1
-1
-1
-1
-1
-1
-1
-1
-1
-1
-1
-1
-1
-1
-1
-1
-1
-1
-1
-1
-1
-1
-1
-1
-1
-1
-1
-1
-1
-1
-1
-1
-1
-1
-1
-1
-1
-1
-1
-1
-1
-1
-1
-1
-1
-1
-1
-1
-1
-1
-1
-1
-1
-1
-1
-1
-1
-1
-1
-1
-1
-1
-1
-1
-1
-1
-1
-1
-1
-1
-1
-1
-1
-1
-1
-1
-1
-1
-1
-1
-1
-1
-1
-1
-1
-1
-1
-1
-1
-1
-1
-1
-1
-1
-1
-1
-1
-1
-1
-1
-1
-1
-1
-1
-1
-1
-1
-1
-1
-1
-1
-1
-1
-1
-1
-1
-1
-1
-1
-1
-1
-1
-1
-1
-1
-1
-1
-1
-1
-1
-1
-1
-1
-1
-1
-1
-1
-1
-1
-1
-1
-1
-1
-1
-1
-1
-1
-1
-1
-1
-1
-1
-1
-1
-1
-1
-1
-1
-1
-1
-1
-1
-1
-1
-1
-1
-1
-1
-1
-1
-1
-1
-1
-1
-1
-1
-1
-1
-1
-1
-1
-1
-1
-1
-1
-1
-1
-1
-1
-1
-1
-1
-1
-1
-1
-1
-1
-1
-1
-1
-1
-1
-1
-1
-1
-1
-1
-1
-1
-1
-1
-1
-1
-1
-1
-1
-1
-1
-1
-1
-1
-1
-1
-1
-1
-1
-1
-1
-1
-1
-1
-1
-1
-1
-1
-1
-1
-1
-1
-1
-1
-1
-1
-1
-1
-1
-1
-1
-1
-1
-1
-1
-1
-1
-1
-1
-1
-1
-1
-1
-1
-1
-1
-1
-1
-1
-1
-1
-1
-1
-1
-1
-1
-1
-1
-1
-1
-1
-1
-1
-1
-1
-1
-1
-1
-1
-1
-1
-1
-1
-1
-1
-1
-1
-1
-1
-1
-1
-1
-1
-1
-1
-1
-1
-1
-1
-1
-1
-1
-1
-1
-1
-1
-1
-1
-1
-1
-1
-1
-1
-1
-1
-1
-1
-1
-1
-1
-1
-1
-1
-1
-1
-1
-1
-1
-1
-1
-1
-1
-1
-1
-1
-1
-1
-1
-1
-1
-1
-1
-1
-1
-1
-1
-1
-1
-1
-1
-1
-1
-1
-1
-1
-1
-1
-1
-1
-1
-1
-1
-1
-1
-1
-1
-1
-1
-1
-1
-1
-1
-1
-1
-1
-1
-1
-1
-1
-1
-1
-1
-1
-1
-1
-1
-1
-1
-1
-1
-1
-1
-1
-1
-1
-1
-1
-1
-1
-1
-1
-1
-1
-1
-1
-1
-1
-1
-1
-1
-1
-1
-1
-1
-1
-1
-1
-1
-1
-1
-1
-1
-1
-1
-1
-1
-1
-1
-1
-1
-1
-1
-1
-1
-1
-1
-1
-1
-1
-1
-1
-1
-1
-1
-1
-1
-1
-1
-1
-1
-1
-1
-1
-1
-1
-1
-1
-1
-1
-1
-1
-1
-1
-1
-1
-1
-1
-1
-1
-1
-1
-1
-1
-1
-1
-1
-1
-1
-1
-1
-1
-1
-1
-1
-1
-1
-1
-1
-1
-1
-1
-1
-1
-1
-1
-1
-1
-1
-1
-1
-1
-1
-1
-1
-1
-1
-1
-1
-1
-1
-1
-1
-1
-1
-1
-1
-1
-1
-1
-1
-1
-1
-1
-1
-1
-1
-1
-1
-1
-1
-1
-1
-1
-1
-1
-1
-1
-1
-1
-1
-1
-1
-1
-1
-1
-1
-1
-1
-1
-1
-1
-1
-1
-1
-1
-1
-1
-1
-1
-1
-1
-1
-1
-1
-1
-1
-1
-1
-1
-1
-1
-1
-1
-1
-1
-1
-1
-1
-1
-1
-1
-1
-1
-1
-1
-1
-1
-1
-1
-1
-1
-1
-1
-1
-1
-1
-1
-1
-1
-1
-1
-1
-1
-1
-1
-1
-1
-1
-1
-1
-1
-1
-1
-1
-1
-1
-1
-1
-1
-1
-1
-1
-1
-1
-1
-1
-1
-1
-1
-1
-1
-1
-1
-1
-1
-1
-1
-1
-1
-1
-1
-1
-1
-1
-1
-1
-1
-1
-1
-1
-1
-1
-1
-1
-1
-1
-1
-1
-1
-1
-1
-1
-1
-1
-1
-1
-1
-1
-1
-1
-1
-1
-1
-1
-1
-1
-1
-1
-1
-1
-1
-1
-1
-1
-1
-1
-1
-1
-1
-1
-1
-1
-1
-1
-1
-1
-1
-1
-1
-1
-1
-1
-1
-1
-1
-1
-1
-1
-1
-1
-1
-1
-1
-1
-1
-1
-1
-1
-1
-1
-1
-1
-1
-1
-1
-1
-1
-1
-1
-1
-1
-1
-1
-1
-1
-1
-1
-1
-1
-1
-1
-1
-1
-1
-1
-1
-1
-1
-1
-1
-1
-1
-1
-1
-1
-1
-1
-1
-1
-1
-1
-1
-1
-1
-1
-1
-1
-1
-1
-1
-1
-1
-1
-1
-1
-1
-1
-1
-1
-1
-1
-1
-1
-1
-1
-1
-1
-1
-1
-1
-1
-1
-1
-1
-1
-1
-1
-1
-1
-1
-1
-1
-1
-1
-1
-1
-1
-1
-1
-1
-1
-1
-1
-1
-1
-1
-1
-1
-1
-1
-1
-1
-1
-1
-1
-1
-1
-1
-1
-1
-1
-1
-1
-1
-1
-1
-1
-1
-1
-1
-1
-1
-1
-1
-1
-1
-1
-1
-1
-1
-1
-1
-1
-1
-1
-1
-1
-1
-1
-1
-1
-1
-1
-1
-1
-1
-1
-1
-1
-1
-1
-1
-1
-1
-1
-1
-1
-1
-1
-1
-1
-1
-1
-1
-1
-1
-1
-1
-1
-1
-1
-1
-1
-1
-1
-1
-1
-1
-1
-1
-1
-1
-1
-1
-1
-1
-1
-1
-1
-1
-1
-1
-1
-1
-1
-1
-1
-1
-1
-1
-1
-1
-1
-1
-1
-1
-1
-1
-1
-1
-1
-1
-1
-1
-1
-1
-1
-1
-1
-1
-1
-1
-1
-1
-1
-1
-1
-1
-1
-1
-1
-1
-1
-1
-1
-1
-1
-1
-1
-1
-1
-1
-1
-1
-1
-1
-1
-1
-1
-1
-1
-1
-1
-1
-1
-1
-1
-1
-1
-1
-1
-1
-1
-1
-1
-1
-1
-1
-1
-1
-1
-1
-1
-1
-1
-1
-1
-1
-1
-1
-1
-1
-1
-1
-1
-1
-1
-1
-1
-1
-1
-1
-1
-1
-1
-1
-1
-1
-1
-1
-1
-1
-1
-1
-1
-1
-1
-1
-1
-1
-1
-1
-1
-1
-1
-1
-1
-1
-1
-1
-1
-1
-1
-1
-1
-1
-1
-1
-1
-1
-1
-1
-1
-1
-1
-1
-1
-1
-1
-1
-1
-1
-1
-1
-1
-1
-1
-1
-1
-1
-1
-1
-1
-1
-1
-1
-1
-1
-1
-1
-1
-1
-1
-1
-1
-1
-1
-1
-1
-1
-1
-1
-1
-1
-1
-1
-1
-1
-1
-1
-1
-1
-1
-1
-1
-1
-1
-1
-1
-1
-1
-1
-1
-1
-1
-1
-1
-1
-1
-1
-1
-1
-1
-1
-1
-1
-1
-1
-1
-1
-1
-1
-1
-1
-1
-1
-1
-1
-1
-1
-1
-1
-1
-1
-1
-1
-1
-1
-1
-1
-1
-1
-1
-1
-1
-1
-1
-1
-1
-1
-1
-1
-1
-1
-1
-1
-1
-1
-1
-1
-1
-1
-1
-1
-1
-1
-1
-1
-1
-1
-1
-1
-1
-1
-1
-1
-1
-1
-1
-1
-1
-1
-1
-1
-1
-1
-1
-1
-1
-1
-1
-1
-1
-1
-1
-1
-1
-1
-1
-1
-1
-1
-1
-1
-1
-1
-1
-1
-1
-1
-1
-1
-1
-1
-1
-1
-1
-1
-1
-1
-1
-1
-1
-1
-1
-1
-1
-1
-1
-1
-1
-1
-1
-1
-1
-1
-1
-1
-1
-1
-1
-1
-1
-1
-1
-1
-1
-1
-1
-1
-1
-1
-1
-1
-1
-1
-1
-1
-1
-1
-1
-1
-1
-1
-1
-1
-1
-1
-1
-1
-1
-1
-1
-1
-1
-1
-1
-1
-1
-1
-1
-1
-1
-1
-1
-1
-1
-1
-1
-1
-1
-1
-1
-1
-1
-1
-1
-1
-1
-1
-1
-1
-1
-1
-1
-1
-1
-1
-1
-1
-1
-1
-1
-1
-1
-1
-1
-1
-1
-1
-1
-1
-1
-1
-1
-1
-1
-1
-1
-1
-1
-1
-1
-1
-1
-1
-1
-1
-1
-1
-1
-1
-1
-1
-1
-1
-1
-1
-1
-1
-1
-1
-1
-1
-1
-1
-1
-1
-1
-1
-1
-1
-1
-1
-1
-1
-1
-1
-1
-1
-1
-1
-1
-1
-1
-1
-1
-1
-1
-1
-1
-1
-1
-1
-1
-1
-1
-1
-1
-1
-1
-1
-1
-1
-1
-1
-1
-1
-1
-1
-1
-1
-1
-1
-1
-1
-1
-1
-1
-1
-1
-1
-1
-1
-1
-1
-1
-1
-1
-1
-1
-1
-1
-1
-1
-1
-1
-1
-1
-1
-1
-1
-1
-1
-1
-1
-1
-1
-1
-1
-1
-1
-1
-1
-1
-1
-1
-1
-1
-1
-1
-1
-1
-1
-1
-1
-1
-1
-1
-1
-1
-1
-1
-1
-1
-1
-1
-1
-1
-1
-1
-1
-1
-1
-1
-1
-1
-1
-1
-1
-1
-1
-1
-1
-1
-1
-1
-1
-1
-1
-1
-1
-1
-1
-1
-1
-1
-1
-1
-1
-1
-1
-1
-1
-1
-1
-1
-1
-1
-1
-1
-1
-1
-1
-1
-1
-1
-1
-1
-1
-1
-1
-1
-1
-1
-1
-1
-1
-1
-1
-1
-1
-1
-1
-1
-1
-1
-1
-1
-1
-1
-1
-1
-1
-1
-1
-1
-1
-1
-1
-1
-1
-1
-1
-1
-1
-1
-1
-1
-1
-1
-1
-1
-1
-1
-1
-1
-1
-1
-1
-1
-1
-1
-1
-1
-1
-1
-1
-1
-1
-1
-1
-1
-1
-1
-1
-1
-1
-1
-1
-1
-1
-1
-1
-1
-1
-1
-1
-1
-1
-1
-1
-1
-1
-1
-1
-1
-1
-1
-1
-1
-1
-1
-1
-1
-1
-1
-1
-1
-1
-1
-1
-1
-1
-1
-1
-1
-1
-1
-1
-1
-1
-1
-1
-1
-1
-1
-1
-1
-1
-1
-1
-1
-1
-1
-1
-1
-1
-1
-1
-1
-1
-1
-1
-1
-1
-1
-1
-1
-1
-1
-1
-1
-1
-1
-1
-1
-1
-1
-1
-1
-1
-1
-1
-1
-1
-1
-1
-1
-1
-1
-1
-1
-1
-1
-1
-1
-1
-1
-1
-1
-1
-1
-1
-1
-1
-1
-1
-1
-1
-1
-1
-1
-1
-1
-1
-1
-1
-1
-1
-1
-1
-1
-1
-1
-1
-1
-1
-1
-1
-1
-1
-1
-1
-1
-1
-1
-1
-1
-1
-1
-1
-1
-1
-1
-1
-1
-1
-1
-1
-1
-1
-1
-1
-1
-1
-1
-1
-1
-1
-1
-1
-1
-1
-1
-1
-1
-1
-1
-1
-1
-1
-1
-1
-1
-1
-1
-1
-1
-1
-1
-1
-1
-1
-1
-1
-1
-1
-1
-1
-1
-1
-1
-1
-1
-1
-1
-1
-1
-1
-1
-1
-1
-1
-1
-1
-1
-1
-1
-1
-1
-1
-1
-1
-1
-1
-1
-1
-1
-1
-1
-1
-1
-1
-1
-1
-1
-1
-1
-1
-1
-1
-1
-1
-1
-1
-1
-1
-1
-1
-1
-1
-1
-1
-1
-1
-1
-1
-1
-1
-1
-1
-1
-1
-1
-1
-1
-1
-1
-1
-1
-1
-1
-1
-1
-1
-1
-1
-1
-1
-1
-1
-1
-1
-1
-1
-1
-1
-1
-1
-1
-1
-1
-1
-1
-1
-1
-1
-1
-1
-1
-1
-1
-1
-1
-1
-1
-1
-1
-1
-1
-1
-1
-1
-1
-1
-1
-1
-1
-1
-1
-1
-1
-1
-1
-1
-1
-1
-1
-1
-1
-1
-1
-1
-1
-1
-1
-1
-1
-1
-1
-1
-1
-1
-1
-1
-1
-1
-1
-1
-1
-1
-1
-1
-1
-1
-1
-1
-1
-1
-1
-1
-1
-1
-1
-1
-1
-1
-1
-1
-1
-1
-1
-1
-1
-1
-1
-1
-1
-1
-1
-1
-1
-1
-1
-1
-1
-1
-1
-1
-1
-1
-1
-1
-1
-1
-1
-1
-1
-1
-1
-1
-1
-1
-1
-1
-1
-1
-1
-1
-1
-1
-1
-1
-1
-1
-1
-1
-1
-1
-1
-1
-1
-1
-1
-1
-1
-1
-1
-1
-1
-1
-1
-1
-1
-1
-1
-1
-1
-1
-1
-1
-1
-1
-1
-1
-1
-1
-1
-1
-1
-1
-1
-1
-1
-1
-1
-1
-1
-1
-1
-1
-1
-1
-1
-1
-1
-1
-1
-1
-1
-1
-1
-1
-1
-1
-1
-1
-1
-1
-1
-1
-1
-1
-1
-1
-1
-1
-1
-1
-1
-1
-1
-1
-1
-1
-1
-1
-1
-1
-1
-1
-1
-1
-1
-1
-1
-1
-1
-1
-1
-1
-1
-1
-1
-1
-1
-1
-1
-1
-1
-1
-1
-1
-1
-1
-1
-1
-1
-1
-1
-1
-1
-1
-1
-1
-1
-1
-1
-1
-1
-1
-1
-1
-1
-1
-1
-1
-1
-1
-1
-1
-1
-1
-1
-1
-1
-1
-1
-1
-1
-1
-1
-1
-1
-1
-1
-1
-1
-1
-1
-1
-1
-1
-1
-1
-1
-1
-1
-1
-1
-1
-1
-1
-1
-1
-1
-1
-1
-1
-1
-1
-1
-1
-1
-1
-1
-1
-1
-1
-1
-1
-1
-1
-1
-1
-1
-1
-1
-1
-1
-1
-1
-1
-1
-1
-1
-1
-1
-1
-1
-1
-1
-1
-1
-1
-1
-1
-1
-1
-1
-1
-1
-1
-1
-1
-1
-1
-1
-1
-1
-1
-1
-1
-1
-1
-1
-1
-1
-1
-1
-1
-1
-1
-1
-1
-1
-1
-1
-1
-1
-1
-1
-1
-1
-1
-1
-1
-1
-1
-1
-1
-1
-1
-1
-1
-1
-1
-1
-1
-1
-1
-1
-1
-1
-1
-1
-1
-1
-1
-1
-1
-1
-1
-1
-1
-1
-1
-1
-1
-1
-1
-1
-1
-1
-1
-1
-1
-1
-1
-1
-1
-1
-1
-1
-1
-1
-1
-1
-1
-1
-1
-1
-1
-1
-1
-1
-1
-1
-1
-1
-1
-1
-1
-1
-1
-1
-1
-1
-1
-1
-1
-1
-1
-1
-1
-1
-1
-1
-1
-1
-1
-1
-1
-1
-1
-1
-1
-1
-1
-1
-1
-1
-1
-1
-1
-1
-1
-1
-1
-1
-1
-1
-1
-1
-1
-1
-1
-1
-1
-1
-1
-1
-1
-1
-1
-1
-1
-1
-1
-1
-1
-1
-1
-1
-1
-1
-1
-1
-1
-1
-1
-1
-1
-1
-1
-1
-1
-1
-1
-1
-1
-1
-1
-1
-1
-1
-1
-1
-1
-1
-1
-1
-1
-1
-1
-1
-1
-1
-1
-1
-1
-1
-1
-1
-1
-1
-1
-1
-1
-1
-1
-1
-1
-1
-1
-1
-1
-1
-1
-1
-1
-1
-1
-1
-1
-1
-1
-1
-1
-1
-1
-1
-1
-1
-1
-1
-1
-1
-1
-1
-1
-1
-1
-1
-1
-1
-1
-1
-1
-1
-1
-1
-1
-1
-1
-1
-1
-1
-1
-1
-1
-1
-1
-1
-1
-1
-1
-1
-1
-1
-1
-1
-1
-1
-1
-1
-1
-1
-1
-1
-1
-1
-1
-1
-1
-1
-1
-1
-1
-1
-1
-1
-1
-1
-1
-1
-1
-1
-1
-1
-1
-1
-1
-1
-1
-1
-1
-1
-1
-1
-1
-1
-1
-1
-1
-1
-1
-1
-1
-1
-1
-1
-1
-1
-1
-1
-1
-1
-1
-1
-1
-1
-1
-1
-1
-1
-1
-1
-1
-1
-1
-1
-1
-1
-1
-1
-1
-1
-1
-1
-1
-1
-1
-1
-1
-1
-1
-1
-1
-1
-1
-1
-1
-1
-1
-1
-1
-1
-1
-1
-1
-1
-1
-1
-1
-1
-1
-1
-1
-1
-1
-1
-1
-1
-1
-1
-1
-1
-1
-1
-1
-1
-1
-1
-1
-1
-1
-1
-1
-1
-1
-1
-1
-1
-1
-1
-1
-1
-1
-1
-1
-1
-1
-1
-1
-1
-1
-1
-1
-1
-1
-1
-1
-1
-1
-1
-1
-1
-1
-1
-1
-1
-1
-1
-1
-1
-1
-1
-1
-1
-1
-1
-1
-1
-1
-1
-1
-1
-1
-1
-1
-1
-1
-1
-1
-1
-1
-1
-1
-1
-1
-1
-1
-1
-1
-1
-1
-1
-1
-1
-1
-1
-1
-1
-1
-1
-1
-1
-1
-1
-1
-1
-1
-1
-1
-1
-1
-1
-1
-1
-1
-1
-1
-1
-1
-1
-1
-1
-1
-1
-1
-1
-1
-1
-1
-1
-1
-1
-1
-1
-1
-1
-1
-1
-1
-1
-1
-1
-1
-1
-1
-1
-1
-1
-1
-1
-1
-1
-1
-1
-1
-1
-1
-1
-1
-1
-1
-1
-1
-1
-1
-1
-1
-1
-1
-1
-1
-1
-1
-1
-1
-1
-1
-1
-1
-1
-1
-1
-1
-1
-1
-1
-1
-1
-1
-1
-1
-1
-1
-1
-1
-1
-1
-1
-1
-1
-1
-1
-1
-1
-1
-1
-1
-1
-1
-1
-1
-1
-1
-1
-1
-1
-1
-1
-1
-1
-1
-1
-1
-1
-1
-1
-1
-1
-1
-1
-1
-1
-1
-1
-1
-1
-1
-1
-1
-1
-1
-1
-1
-1
-1
-1
-1
-1
-1
-1
-1
-1
-1
-1
-1
-1
-1
-1
-1
-1
-1
-1
-1
-1
-1
-1
-1
-1
-1
-1
-1
-1
-1
-1
-1
-1
-1
-1
-1
-1
-1
-1
-1
-1
-1
-1
-1
-1
-1
-1
-1
-1
-1
-1
-1
-1
-1
-1
-1
-1
-1
-1
-1
-1
-1
-1
-1
-1
-1
-1
-1
-1
-1
-1
-1
-1
-1
-1
-1
-1
-1
-1
-1
-1
-1
-1
-1
-1
-1
-1
-1
-1
-1
-1
-1
-1
-1
-1
-1
-1
-1
-1
-1
-1
-1
-1
-1
-1
-1
-1
-1
-1
-1
-1
-1
-1
-1
-1
      </DataArray> 
    </CellData>
  </Piece>
  </UnstructuredGrid>
</VTKFile>
